Name: 7-Methylxanthine
CAS: 552-62-5
MW: 166
Formula: C6H6N4O2
Synonym: CID: 68374
Synonym: MassBank: BD001031
Synonym: 7-Methylxanthine
Structure: 2D495349532D20203032313430383131333632440A0A2031322031332020302020302020302020302020302020302020302020303939392056323030300A20202020342E383939302020202D352E3834353920202020302E303030302043202020302020302020302020302020302020302020302020302020302020302020302020300A20202020342E383939302020202D372E3237313820202020302E303030302043202020302020302020302020302020302020302020302020302020302020302020302020300A20202020362E313032392020202D352E3133383820202020302E303030302043202020302020302020302020302020302020302020302020302020302020302020302020300A20202020332E353935382020202D352E3431333420202020302E30303030204E202020302020302020332020302020302020302020302020302020302020302020302020300A20202020362E313032392020202D372E3935353520202020302E30303030204E202020302020302020302020302020302020302020302020302020302020302020302020300A20202020332E353935382020202D372E3730343320202020302E30303030204E202020302020302020302020302020302020302020302020302020302020302020302020300A20202020372E333234322020202D352E3837353120202020302E30303030204E202020302020302020302020302020302020302020302020302020302020302020302020300A20202020362E313032392020202D332E3735393620202020302E30303030204F202020302020302020302020302020302020302020302020302020302020302020302020300A20202020322E373737362020202D362E3537303620202020302E303030302043202020302020302020302020302020302020302020302020302020302020302020302020300A20202020372E333234322020202D372E3231393320202020302E303030302043202020302020302020302020302020302020302020302020302020302020302020302020300A20202020382E353734382020202D372E3932303520202020302E30303030204F202020302020302020302020302020302020302020302020302020302020302020302020300A20202020332E313735302020202D342E3639353820202020302E303030302043202020302020302020302020302020302020302020302020302020302020302020302020300A2020312020322020322020302020302020302020300A2020312020332020312020302020302020302020300A2020312020342020312020302020302020302020300A2020322020352020312020302020302020302020300A2020322020362020312020302020302020302020300A2020332020372020312020302020302020302020300A2020332020382020322020302020302020302020300A2020342020392020312020302020302020302020300A2020352031302020312020302020302020302020300A2031302031312020322020302020302020302020300A2020362020392020322020302020302020302020300A2020372031302020312020302020302020302020300A2020342031322020312020302020302020302020300A4D2020454E44
Contributor: GZ
InstType: ESI
InstName: micrOTOF-Q
IoniMethod: ESI
IonPolarity: pos
IsolWidth: 10
TargetGas: Nitrogen
ColEnergy: 10
PeakWidth: 0.03
ChargeDecon: 2
Date: 2010-10-09 19:48:36+02:00
Column: Synergi Fusion RP 2.5 u
Mass: 162.016-178.095
Num Peaks: 3
167.056 999 168.060 80 169.061 7 
