Name: 2-Furoylglycine
CAS: 5657-19-2
MW: 169
Formula: C7H7NO4
Synonym: CID: 21863
Synonym: MassBank: BD000990
Synonym: 2-Furoylglycine
Synonym: 2-(Furan-2-carbonylamino)acetic acid
Synonym: (2-Furoylamino)acetic acid
Synonym: Furfuroylglycine
Synonym: Furoylglycine
Synonym: N-(2-Furoyl)glycine
Synonym: Furoilglicina
Synonym: Pyromucuric acid
Synonym: N-2-Furoyl-glycine
Structure: 31322031322020302020302020302020302020302020302020302020303939392056323030300A20202020372E373730302020202D392E3934303020202020302E303030302043202020302020302020302020302020302020302020302020302020302020302020302020300A20202020362E333730302020202D392E3934303020202020302E303030302043202020302020302020302020302020302020302020302020302020302020302020302020300A20202020352E3933373420202D31312E3237313520202020302E303030302043202020302020302020302020302020302020302020302020302020302020302020302020300A20202020372E3037303020202D31322E3039343420202020302E30303030204F202020302020302020302020302020302020302020302020302020302020302020302020300A20202020382E3230323620202D31312E3237313520202020302E303030302043202020302020302020302020302020302020302020302020302020302020302020302020300A20202020392E3532323220202D31312E3730303320202020302E303030302043202020302020302020302020302020302020302020302020302020302020302020302020300A20202031302E3536363520202D31302E3736303120202020302E30303030204F202020302020302020302020302020302020302020302020302020302020302020302020300A20202020392E3831313120202D31332E3035393420202020302E30303030204E202020302020302020302020302020302020302020302020302020302020302020302020300A20202031312E3134313120202D31332E3439313620202020302E303030302043202020302020302020302020302020302020302020302020302020302020302020302020300A20202031312E3433353520202D31342E3837363320202020302E303030302043202020302020302020302020302020302020302020302020302020302020302020302020300A20202031322E3735333220202D31352E3330343820202020302E30303030204F202020302020302020302020302020302020302020302020302020302020302020302020300A20202031302E3336343020202D31352E3834303520202020302E30303030204F202020302020302020302020302020302020302020302020302020302020302020302020300A2020312020322020312020302020202020302020300A2020322020332020322020302020202020302020300A2020332020342020312020302020202020302020300A2020342020352020312020302020202020302020300A2020312020352020322020302020202020302020300A2020352020362020312020302020202020302020300A2020362020372020322020302020202020302020300A2020362020382020312020302020202020302020300A2020382020392020312020302020202020302020300A2020392031302020312020302020202020302020300A2031302031312020312020302020202020302020300A2031302031322020322020302020202020302020300A4D2020454E44
Contributor: MGR
InstType: ESI
InstName: micrOTOF-Q
IoniMethod: ESI
IonPolarity: pos
IsolWidth: 10
TargetGas: Nitrogen
ColEnergy: 10
PeakWidth: 0.026
ChargeDecon: 2
Date: 2010-10-09 19:48:36+02:00
Column: Synergi Fusion RP 2.5 u
Mass: 44.7905-395.036
Num Peaks: 17
95.013 202 96.016 13 124.039 410 125.041 28 142.050 11 144.080 11 146.962 7 149.024 17 152.037 204 153.039 20 
159.969 7 162.090 7 170.045 999 171.048 76 172.049 10 192.027 146 193.030 13 
