Name: Barbituric acid
CAS: 67-52-7
MW: 128
Formula: C4H4N2O3
Synonym: CID: 6211
Synonym: MassBank: BD000731
Synonym: Barbituric acid
Synonym: Barbiturate
Synonym: 1,3-Diazinane-2,4,6-trione
Synonym: 2,4,6-Trioxotetrahydro-2H-pyrimidin-1-ide
Synonym: Malonylurea
Structure: 392020392020302020302020302020302020302020302020302020303939392056323030300A20202032302E3638303720202D31332E3632333820202020302E303030302043202020302020302020302020302020302020302020302020302020302020302020302020300A20202032302E3638303720202D31352E3031363320202020302E303030302043202020302020302020302020302020302020302020302020302020302020302020302020300A20202032312E3837303820202D31322E3933333720202020302E30303030204E202020302020302020302020302020302020302020302020302020302020302020302020300A20202031392E3439303520202D31322E3933333720202020302E30303030204F202020302020302020302020302020302020302020302020302020302020302020302020300A20202032312E3837303820202D31352E3731393120202020302E303030302043202020302020302020302020302020302020302020302020302020302020302020302020300A20202032332E3037393720202D31332E3632333820202020302E303030302043202020302020302020302020302020302020302020302020302020302020302020302020300A20202032332E3037393720202D31352E3031363320202020302E30303030204E202020302020302020302020302020302020302020302020302020302020302020302020300A20202032312E3837303820202D31372E3233313020202020302E30303030204F202020302020302020302020302020302020302020302020302020302020302020302020300A20202032342E3236393920202D31322E3932373420202020302E30303030204F202020302020302020302020302020302020302020302020302020302020302020302020300A2020312020322020312020302020202020302020300A2020312020332020312020302020202020302020300A2020312020342020322020302020202020302020300A2020322020352020312020302020202020302020300A2020332020362020312020302020202020302020300A2020352020372020312020302020202020302020300A2020352020382020322020302020202020302020300A2020362020392020322020302020202020302020300A2020362020372020312020302020202020302020300A4D2020454E44
Contributor: MGR
InstType: ESI
InstName: micrOTOF-Q
IoniMethod: ESI
IonPolarity: neg
IsolWidth: 10
TargetGas: Nitrogen
ColEnergy: 10
PeakWidth: 0.03
ChargeDecon: 2
Date: 2010-10-09 19:48:36+02:00
Column: Synergi Fusion RP 2.5 u
Mass: 121.98-138.053
Num Peaks: 3
127.015 999 128.017 52 129.019 7 
