Name: (L) Homocysteinethiolactone
CAS: 3622-59-1
MW: 117
Formula: C4H7NOS
Synonym: CID: 107712
Synonym: MassBank: BD000113
Synonym: (L) Homocysteinethiolactone
Synonym: Homocysteine thiolactone,Homocysteine-thiolactone  ,L-Homocysteine thiolactone,DL-Homocysteine thiolactone,( -)-3-amino-2-thiolanon,3-aminodihydro-2(3H)-thiophenone,DL-3-aminotetrahydro-2-thiophenone,2(3H)-thiophenone, 3-aminodihydro-,( -)-3-aminotetrahydro-2-thiophenon,(+-)-3-aminodihydro-2(3H)-thiophenone,L-Homocysteine thiolactone hydrochloride,L-2-amino-4-mercaptobutyric acid 1,4-thiolactone hydrochloride
Structure: 372020372020302020302020302020302020302020302020302020303939392056323030300A20202031312E3431303020202D31342E3737303020202020302E303030302043202020302020302020302020302020302020302020302020302020302020302020302020300A20202031322E3831303020202D31342E3737303020202020302E303030302043202020302020302020302020302020302020302020302020302020302020302020302020300A20202031332E3234323620202D31332E3433383520202020302E303030302043202020302020302020302020302020302020302020302020302020302020302020302020300A20202031322E3131303020202D31322E3631353620202020302E303030302053202020302020302020302020302020302020302020302020302020302020302020302020300A20202031302E3937373420202D31332E3433383520202020302E303030302043202020302020302020302020302020302020302020302020302020302020302020302020300A20202020392E3635373820202D31332E3030393720202020302E30303030204F202020302020302020302020302020302020302020302020302020302020302020302020300A20202031302E3538373120202D31352E3930323620202020302E30303030204E202020302020302020302020302020302020302020302020302020302020302020302020300A2020312020322020312020302020202020302020300A2020322020332020312020302020202020302020300A2020332020342020312020302020202020302020300A2020342020352020312020302020202020302020300A2020312020352020312020302020202020302020300A2020352020362020322020302020202020302020300A2020312020372020312020302020202020302020300A4D2020454E44
Contributor: BSC
InstType: ESI
InstName: micrOTOF-Q
IoniMethod: ESI
IonPolarity: pos
MSMS: 2
IsolWidth: 10
TargetGas: Nitrogen
ColEnergy: 10
PeakWidth: 0.032
ChargeDecon: 2
Date: 2010-10-09 19:48:36+02:00
Column: Synergi Fusion RP 2.5 u
Mass: 44.7978-395.016
Num Peaks: 7
73.012 42 90.037 999 91.040 59 92.033 53 100.021 173 101.007 64 118.033 98 
