Name: 5-Hydroxyanthranilic acid
CAS: 394-31-0
MW: 153
Formula: C7H7NO3
Synonym: MassBank: BD000627
Synonym: 5-Hydroxyanthranilic acid
Synonym: 2-Amino-5-hydroxybenzoate
Synonym: 2-Amino-5-hydroxybenzoicacid
Structure: 31312031312020302020302020302020302020302020302020302020303939392056323030300A20202031372E3037333720202D31322E3530363620202020302E303030302043202020302020302020302020302020302020302020302020302020302020302020302020300A20202031352E3837323220202D31332E3230333320202020302E303030302043202020302020302020302020302020302020302020302020302020302020302020302020300A20202031382E3239343320202D31332E3230333320202020302E303030302043202020302020302020302020302020302020302020302020302020302020302020302020300A20202031352E3837323220202D31342E3630393220202020302E303030302043202020302020302020302020302020302020302020302020302020302020302020302020300A20202031382E3239343320202D31342E3630393220202020302E303030302043202020302020302020302020302020302020302020302020302020302020302020302020300A20202031372E3037333720202D31352E3331383620202020302E303030302043202020302020302020302020302020302020302020302020302020302020302020302020300A20202031372E3036393120202D31312E3133303020202020302E303030302043202020302020302020302020302020302020302020302020302020302020302020302020300A20202031352E3836323620202D31302E3433383720202020302E30303030204F202020302020302020302020302020302020302020302020302020302020302020302020300A20202031382E3238373320202D31302E3432313320202020302E30303030204F202020302020302020302020302020302020302020302020302020302020302020302020300A20202031342E3638333920202D31322E3531393120202020302E30303030204E202020302020302020302020302020302020302020302020302020302020302020302020300A20202031392E3439383120202D31352E3330323220202020302E30303030204F202020302020302020302020302020302020302020302020302020302020302020302020300A2020312020322020322020302020202020302020300A2020312020332020312020302020202020302020300A2020322020342020312020302020202020302020300A2020332020352020322020302020202020302020300A2020342020362020322020302020202020302020300A2020352020362020312020302020202020302020300A2020312020372020312020302020202020302020300A2020372020382020322020302020202020302020300A2020372020392020312020302020202020302020300A2020322031302020312020302020202020302020300A2020352031312020312020302020202020302020300A4D2020454E44
Contributor: MGR
InstType: ESI
InstName: micrOTOF-Q
IoniMethod: ESI
IonPolarity: neg
IsolWidth: 10
TargetGas: Nitrogen
ColEnergy: 10
PeakWidth: 0.029
ChargeDecon: 2
Date: 2010-10-09 19:48:36+02:00
Column: Synergi Fusion RP 2.5 u
Mass: 44.9944-394.899
Num Peaks: 11
94.028 9 95.015 3 107.037 31 108.045 165 109.047 11 122.025 16 124.038 2 146.942 2 152.036 999 153.037 82 
154.040 8 
