Name: 3-Methylcatechol
CAS: 488-17-5
MW: 124
Formula: C7H8O2
Synonym: CID: 340
Synonym: MassBank: BD000508
Synonym: 3-Methylcatechol
Synonym: 2,3-Dihydroxytoluene
Structure: 392020392020302020302020302020302020302020302020302020303939392056323030300A20202032322E3434383320202D31352E3030333220202020302E303030302043202020302020302020302020302020302020302020302020302020302020302020302020300A20202032312E3232363120202D31342E3331323120202020302E303030302043202020302020302020302020302020302020302020302020302020302020302020302020300A20202032322E3434383320202D31362E3431313020202020302E303030302043202020302020302020302020302020302020302020302020302020302020302020302020300A20202032332E3635313420202D31342E3330353620202020302E30303030204F202020302020302020302020302020302020302020302020302020302020302020302020300A20202032302E3032323920202D31352E3030333220202020302E303030302043202020302020302020302020302020302020302020302020302020302020302020302020300A20202032312E3232363120202D31322E3931373120202020302E303030302043202020302020302020302020302020302020302020302020302020302020302020302020300A20202032312E3232363120202D31372E3132313420202020302E303030302043202020302020302020302020302020302020302020302020302020302020302020302020300A20202032332E3635373720202D31372E3130383620202020302E30303030204F202020302020302020302020302020302020302020302020302020302020302020302020300A20202032302E3032323920202D31362E3431313020202020302E303030302043202020302020302020302020302020302020302020302020302020302020302020302020300A2020312020322020312020302020202020302020300A2020312020332020322020302020202020302020300A2020312020342020312020302020202020302020300A2020322020352020322020302020202020302020300A2020322020362020312020302020202020302020300A2020332020372020312020302020202020302020300A2020332020382020312020302020202020302020300A2020352020392020312020302020202020302020300A2020372020392020322020302020202020302020300A4D2020454E44
Contributor: MGR
InstType: ESI
InstName: micrOTOF-Q
IoniMethod: ESI
IonPolarity: pos
MSMS: 2
IsolWidth: 10
TargetGas: Nitrogen
ColEnergy: 17
PeakWidth: 0.031
ChargeDecon: 2
Date: 2010-10-09 19:48:36+02:00
Column: Synergi Fusion RP 2.5 u
Mass: 44.7891-395.028
Num Peaks: 10
77.037 214 78.045 123 79.053 725 95.048 642 105.044 311 107.049 999 108.052 80 123.044 189 124.050 59 125.059 102 
