Name: Mucicacid
CAS: 526-99-8
MW: 210
Formula: C6H10O8
Synonym: CID: 607
Synonym: MassBank: BD000157
Synonym: Mucicacid
Synonym: Galactaric acid,tetrahydroxyadipic acid,D-Galactarate,D-Mucic acid,D-Galactaric acid,(2R,3S,4R,5S)-2,3,4,5-tetrahydroxyhexanedioic acid,Galactarate ,Galactosaccharate ,Galactosaccharic acid ,Meso-galactaric acid,Saccharolactate ,Saccharolactic acid ,Schleimsaure ,hexaric acid
Structure: 31342031332020302020302020302020302020302020302020302020303939392056323030300A20202032322E3534353720202D31352E3433333720202020302E303030302043202020302020302020332020302020302020302020302020302020302020302020302020300A20202032312E3136333820202D31352E3433333720202020302E303030302043202020302020302020332020302020302020302020302020302020302020302020302020300A20202032332E3932313020202D31352E3433333720202020302E303030302043202020302020302020332020302020302020302020302020302020302020302020302020300A20202032322E3534353720202D31342E3035323020202020302E30303030204F202020302020302020302020302020302020302020302020302020302020302020302020300A20202031392E3738383620202D31352E3433333720202020302E303030302043202020302020302020332020302020302020302020302020302020302020302020302020300A20202032312E3136333820202D31342E3035323020202020302E30303030204F202020302020302020302020302020302020302020302020302020302020302020302020300A20202032342E3839373120202D31342E3435373620202020302E303030302043202020302020302020302020302020302020302020302020302020302020302020302020300A20202032332E3932313020202D31362E3934373020202020302E30303030204F202020302020302020302020302020302020302020302020302020302020302020302020300A20202031382E3831323420202D31342E3435373620202020302E303030302043202020302020302020302020302020302020302020302020302020302020302020302020300A20202031392E3738383620202D31362E3934373020202020302E30303030204F202020302020302020302020302020302020302020302020302020302020302020302020300A20202032362E3232383220202D31342E3831393020202020302E30303030204F202020302020302020302020302020302020302020302020302020302020302020302020300A20202032342E3533353820202D31332E3132363720202020302E30303030204F202020302020302020302020302020302020302020302020302020302020302020302020300A20202031392E3137333720202D31332E3132363720202020302E30303030204F202020302020302020302020302020302020302020302020302020302020302020302020300A20202031372E3438313420202D31342E3831393020202020302E30303030204F202020302020302020302020302020302020302020302020302020302020302020302020300A2020312020322020312020302020202020302020300A2020312020332020312020302020202020302020300A2020312020342020312020302020202020302020300A2020322020352020312020302020202020302020300A2020322020362020312020302020202020302020300A2020332020372020312020302020202020302020300A2020332020382020312020302020202020302020300A2020352020392020312020302020202020302020300A2020352031302020312020302020202020302020300A2020372031312020312020302020202020302020300A2020372031322020322020302020202020302020300A2020392031332020312020302020202020302020300A2020392031342020322020302020202020302020300A4D2020454E44
Contributor: BSC
InstType: ESI
InstName: micrOTOF-Q
IoniMethod: ESI
IonPolarity: neg
IsolWidth: 10
TargetGas: Nitrogen
ColEnergy: 10
PeakWidth: 0.03
ChargeDecon: 2
Date: 2010-10-09 19:48:36+02:00
Column: Synergi Fusion RP 2.5 u
Mass: 203.982-221.081
Num Peaks: 4
209.030 999 210.034 69 211.035 18 212.038 1 
