Name: Triethanolamine
CAS: 102-71-6
MW: 149
Formula: C6H15NO3
Synonym: CID: 7618
Synonym: MassBank: BD000695
Synonym: Triethanolamine
Synonym: 2,2',2''-Nitrilotriethanol
Synonym: Alkanolamine
Synonym: Stingkill
Synonym: Trolamine
Synonym: Tris(2-hydroxyethyl)amine
Structure: 31302020392020302020302020302020302020302020302020302020303939392056323030300A20202031372E3036323620202D31342E3734313820202020302E30303030204E202020302020302020332020302020302020302020302020302020302020302020302020300A20202031352E3834373120202D31352E3434333120202020302E303030302043202020302020302020302020302020302020302020302020302020302020302020302020300A20202031382E3237383420202D31352E3433313420202020302E303030302043202020302020302020302020302020302020302020302020302020302020302020302020300A20202031372E3432353020202D31332E3338353920202020302E303030302043202020302020302020302020302020302020302020302020302020302020302020302020300A20202031342E3633373320202D31342E3734373720202020302E303030302043202020302020302020302020302020302020302020302020302020302020302020302020300A20202031392E3439333920202D31342E3733363020202020302E303030302043202020302020302020302020302020302020302020302020302020302020302020302020300A20202031362E3433373420202D31322E3339383320202020302E303030302043202020302020302020302020302020302020302020302020302020302020302020302020300A20202031332E3432313820202D31352E3434393020202020302E30303030204F202020302020302020302020302020302020302020302020302020302020302020302020300A20202032302E3730393620202D31352E3432353620202020302E30303030204F202020302020302020302020302020302020302020302020302020302020302020302020300A20202031362E3739333820202D31312E3034323420202020302E30303030204F202020302020302020302020302020302020302020302020302020302020302020302020300A2020312020322020312020302020202020302020300A2020312020332020312020302020202020302020300A2020312020342020312020302020202020302020300A2020322020352020312020302020202020302020300A2020332020362020312020302020202020302020300A2020342020372020312020302020202020302020300A2020352020382020312020302020202020302020300A2020362020392020312020302020202020302020300A2020372031302020312020302020202020302020300A4D2020454E44
Contributor: MGR
InstType: ESI
InstName: micrOTOF-Q
IoniMethod: ESI
IonPolarity: neg
IsolWidth: 10
TargetGas: Nitrogen
ColEnergy: 10
PeakWidth: 0.03
ChargeDecon: 2
Date: 2010-10-09 19:48:36+02:00
Column: Synergi Fusion RP 2.5 u
Mass: 143.062-159.141
Num Peaks: 3
148.098 999 149.101 71 150.103 8 
