Name: Picolinicacid
CAS: 98-98-6
MW: 123
Formula: C6H5NO2
Synonym: CID: 1018
Synonym: MassBank: BD000285
Synonym: Picolinicacid
Synonym: a-Picolinic acid,alpha-Picolinic acid,2-Picolinic acid,pyridine-2-carboxylic acid,2-pyridinecarboxylic acid,o-pyridinecarboxylic acid,pyridine-carboxylique-2,alpha-pyridinecarboxylic acid,pyridinecarboxylic acid-(2),2-carboxypyridine,Acide picolique,
Structure: 31322031322020302020302020312020302020302020302020302020303939392056323030300A20202032332E3037323020202D31352E3033333420202020302E303030302043202020302020302020312020302020302020302020302020302020302020302020302020300A20202032312E3834383220202D31352E3734323420202020302E30303030204E202020302020302020302020302020302020302020302020302020302020302020302020300A20202032332E3037323020202D31332E3631393820202020302E303030302043202020302020302020302020302020302020302020302020302020302020302020302020300A20202032342E3237313320202D31352E3732353020202020302E303030302043202020302020302020302020302020302020302020302020302020302020302020302020300A20202032302E3634313820202D31352E3033333420202020302E303030302043202020302020302020302020302020302020302020302020302020302020302020302020300A20202032312E3834383220202D31322E3932323320202020302E303030302043202020302020302020302020302020302020302020302020302020302020302020302020300A20202032342E3237313320202D31372E3131393920202020302E30303030204F202020302020302020302020302020302020302020302020302020302020302020302020300A20202032352E3437373420202D31352E3032313820202020302E30303030204F202020302020302020302020302020302020302020302020302020302020302020302020300A20202032302E3634313820202D31332E3631393820202020302E303030302043202020302020302020302020302020302020302020302020302020302020302020302020300A20202031392E3433363620202D31352E3732353020202020302E303030302043202020302020302020302020302020302020302020302020302020302020302020302020300A20202031382E3233303520202D31352E3030383820202020302E30303030204F202020302020302020302020302020302020302020302020302020302020302020302020300A20202031392E3433363620202D31372E3131343220202020302E30303030204F202020302020302020302020302020302020302020302020302020302020302020302020300A2020312020322020312020302020202020302020300A2020312020332020312020302020202020302020300A2020312020342020312020312020202020302020300A2020322020352020322020302020202020302020300A2020332020362020312020302020202020302020300A2020342020372020312020302020202020302020300A2020342020382020322020302020202020302020300A2020352020392020312020302020202020302020300A2020352031302020312020302020202020302020300A2031302031312020312020302020202020302020300A2031302031322020322020302020202020302020300A2020362020392020322020302020202020302020300A4D2020454E44
Contributor: BSC
InstType: ESI
InstName: micrOTOF-Q
IoniMethod: ESI
IonPolarity: pos
IsolWidth: 10
TargetGas: Nitrogen
ColEnergy: 10
PeakWidth: 0.03
ChargeDecon: 2
Date: 2010-10-09 19:48:36+02:00
Column: Synergi Fusion RP 2.5 u
Mass: 119.007-135.071
Num Peaks: 3
124.039 999 125.043 69 126.044 6 
