Name: 3-Hydroxybenzoic acid
CAS: 99-06-9
MW: 138
Formula: C7H6O3
Synonym: CID: 7420
Synonym: MassBank: BD000996
Synonym: 3-Hydroxybenzoic acid
Synonym: 3-Hydroxybenzoate
Synonym: m-Hydroxybenzoic acid
Synonym: Meta-hydroxybenzoic acid
Structure: 31302031302020302020302020302020302020302020302020302020303939392056323030300A20202031372E3735323720202D31332E3239393820202020302E303030302043202020302020302020302020302020302020302020302020302020302020302020302020300A20202031362E3534373320202D31322E3539373620202020302E303030302043202020302020302020302020302020302020302020302020302020302020302020302020300A20202031372E3735323720202D31342E3639383220202020302E303030302043202020302020302020302020302020302020302020302020302020302020302020302020300A20202031382E3936393620202D31322E3630333620202020302E303030302043202020302020302020302020302020302020302020302020302020302020302020302020300A20202031352E3333303420202D31332E3239393820202020302E303030302043202020302020302020302020302020302020302020302020302020302020302020302020300A20202031362E3534373320202D31352E3430303420202020302E303030302043202020302020302020302020302020302020302020302020302020302020302020302020300A20202032302E3138303820202D31332E3239393820202020302E30303030204F202020302020302020302020302020302020302020302020302020302020302020302020300A20202031382E3936393620202D31312E3139393320202020302E30303030204F202020302020302020302020302020302020302020302020302020302020302020302020300A20202031352E3333303420202D31342E3639383220202020302E303030302043202020302020302020302020302020302020302020302020302020302020302020302020300A20202031342E3131393220202D31322E3539373620202020302E30303030204F202020302020302020302020302020302020302020302020302020302020302020302020300A2020312020322020322020302020202020302020300A2020312020332020312020302020202020302020300A2020312020342020312020302020202020302020300A2020322020352020312020302020202020302020300A2020332020362020322020302020202020302020300A2020342020372020312020302020202020302020300A2020342020382020322020302020202020302020300A2020352020392020322020302020202020302020300A2020352031302020312020302020202020302020300A2020362020392020312020302020202020302020300A4D2020454E44
Contributor: MGR
InstType: ESI
InstName: micrOTOF-Q
IoniMethod: ESI
IonPolarity: pos
IsolWidth: 10
TargetGas: Nitrogen
ColEnergy: 10
PeakWidth: 0.026
ChargeDecon: 2
Date: 2010-10-09 19:48:36+02:00
Column: Synergi Fusion RP 2.5 u
Mass: 44.7913-395.043
Num Peaks: 14
95.049 756 96.053 52 105.045 21 111.044 20 121.029 202 139.039 999 140.042 86 149.023 47 157.049 73 161.020 69 
181.951 26 201.056 78 251.996 86 254.000 26 
