Name: (DL) beta-leucine
CAS: 5699-54-7
MW: 131
Formula: C6H13NO2
Synonym: CID: 193411
Synonym: MassBank: BD000412
Synonym: (DL) beta-leucine
Synonym: 2-Amino-4-mercaptobutyric acid
Synonym: 2-Amino-4-mercapto-DL-butyrate
Synonym: 2-Amino-4-mercapto-DL-butyric acid
Synonym: 2-Amino-4-sulfanyl-butanoic acid
Synonym: (DL) homocysteine
Synonym: DL-Homocysteine
Structure: 392020382020302020302020302020302020302020302020302020303939392056323030300A20202020392E3435303020202D31322E3630303020202020302E303030302043202020302020302020302020302020302020302020302020302020302020302020302020300A20202020392E3435303020202D31342E3030303020202020302E303030302043202020302020302020302020302020302020302020302020302020302020302020302020300A20202031302E3636323420202D31342E3730303020202020302E303030302043202020302020302020302020302020302020302020302020302020302020302020302020300A20202031312E3837343920202D31342E3030303020202020302E30303030204F202020302020302020302020302020302020302020302020302020302020302020302020300A20202031312E3837343920202D31322E3630303020202020302E303030302043202020302020302020302020302020302020302020302020302020302020302020302020300A20202031302E3636323420202D31312E3930303020202020302E303030302043202020302020302020302020302020302020302020302020302020302020302020302020300A20202020382E3233373620202D31342E3730303020202020302E303030302043202020302020302020302020302020302020302020302020302020302020302020302020300A20202031332E3130363020202D31312E3838393020202020302E30303030204F202020302020302020302020302020302020302020302020302020302020302020302020300A20202020382E3233373620202D31312E3930303020202020302E30303030204E202020302020302020302020302020302020302020302020302020302020302020302020300A2020312020322020312020302020202020302020300A2020322020332020312020302020202020302020300A2020342020352020322020302020202020302020300A2020352020362020312020302020202020302020300A2020312020362020312020302020202020302020300A2020322020372020312020302020202020302020300A2020352020382020312020302020202020302020300A2020312020392020312020302020202020302020300A4D2020454E44
Contributor: MGR
InstType: ESI
InstName: micrOTOF-Q
IoniMethod: ESI
IonPolarity: pos
MSMS: 2
IsolWidth: 10
TargetGas: Nitrogen
ColEnergy: 18
PeakWidth: 0.033
ChargeDecon: 2
Date: 2010-10-09 19:48:36+02:00
Column: Synergi Fusion RP 2.5 u
Mass: 44.7908-395.04
Num Peaks: 9
73.010 109 74.020 15 88.020 8 90.037 999 91.039 51 92.032 49 102.055 21 118.032 9 136.041 13 
