Name: 5-Hydroxymethyluracil
CAS: 4433-40-3
MW: 142
Formula: C5H6N2O3
Synonym: CID: 78168
Synonym: MassBank: BD000643
Synonym: 5-Hydroxymethyluracil
Synonym: 5-(Hydroxymethyl)pyrimidine-2,4-dione
Synonym: Uracil-5-methanol
Structure: 31302031302020302020302020302020302020302020302020302020303939392056323030300A20202031372E3831363920202D31332E3330323220202020302E303030302043202020302020302020302020302020302020302020302020302020302020302020302020300A20202031362E3539343820202D31322E3630313320202020302E303030302043202020302020302020302020302020302020302020302020302020302020302020302020300A20202031372E3831363920202D31342E3731373420202020302E303030302043202020302020302020302020302020302020302020302020302020302020302020302020300A20202031392E3033323520202D31322E3539343820202020302E303030302043202020302020302020302020302020302020302020302020302020302020302020302020300A20202031352E3337393320202D31332E3330323220202020302E30303030204E202020302020302020302020302020302020302020302020302020302020302020302020300A20202031362E3538383520202D31312E3236393520202020302E30303030204F202020302020302020302020302020302020302020302020302020302020302020302020300A20202031362E3539343820202D31352E3433313220202020302E30303030204E202020302020302020302020302020302020302020302020302020302020302020302020300A20202032302E3234313820202D31332E3239353920202020302E30303030204F202020302020302020302020302020302020302020302020302020302020302020302020300A20202031352E3337393320202D31342E3731373420202020302E303030302043202020302020302020302020302020302020302020302020302020302020302020302020300A20202031342E3136333820202D31352E3430353420202020302E30303030204F202020302020302020302020302020302020302020302020302020302020302020302020300A2020312020322020312020302020202020302020300A2020312020332020322020302020202020302020300A2020312020342020312020302020202020302020300A2020322020352020312020302020202020302020300A2020322020362020322020302020202020302020300A2020332020372020312020302020202020302020300A2020342020382020312020302020202020302020300A2020352020392020312020302020202020302020300A2020392031302020322020302020202020302020300A2020372020392020312020302020202020302020300A4D2020454E44
Contributor: MGR
InstType: ESI
InstName: micrOTOF-Q
IoniMethod: ESI
IonPolarity: pos
MSMS: 2
IsolWidth: 10
TargetGas: Nitrogen
ColEnergy: 18
PeakWidth: 0.031
ChargeDecon: 2
Date: 2010-10-09 19:48:36+02:00
Column: Synergi Fusion RP 2.5 u
Mass: 44.7904-395.035
Num Peaks: 6
69.991 348 82.028 999 83.031 50 100.039 367 125.034 507 126.036 32 
