Name: Ectoine
CAS: 96702-03-3
MW: 142
Formula: C6H10N2O2
Synonym: CID: 690
Synonym: MassBank: BD000868
Synonym: Ectoine
Synonym: (S)-2-Methyl-1,4,5,6-tetrahydropyrimidine-4-carboxylic acid
Synonym: THP(B)
Structure: 31302031302020302020302020312020302020302020302020302020303939392056323030300A20202032322E3434363520202D31352E3035353920202020302E303030302043202020302020302020332020302020302020302020302020302020302020302020302020300A20202032312E3234353520202D31352E3734393920202020302E30303030204E202020302020302020302020302020302020302020302020302020302020302020302020300A20202032322E3434363520202D31332E3635303920202020302E303030302043202020302020302020302020302020302020302020302020302020302020302020302020300A20202032332E3635333420202D31352E3734393920202020302E303030302043202020302020302020302020302020302020302020302020302020302020302020302020300A20202032302E3032373020202D31352E3035353920202020302E303030302043202020302020302020332020302020302020302020302020302020302020302020302020300A20202032312E3234353520202D31322E3934353520202020302E303030302043202020302020302020302020302020302020302020302020302020302020302020302020300A20202032332E3634373720202D31372E3135343920202020302E30303030204F202020302020302020302020302020302020302020302020302020302020302020302020300A20202032342E3836363220202D31352E3034343320202020302E30303030204F202020302020302020302020302020302020302020302020302020302020302020302020300A20202032302E3032373020202D31332E3635303920202020302E30303030204E202020302020302020302020302020302020302020302020302020302020302020302020300A20202031382E3830383320202D31352E3734333920202020302E303030302043202020302020302020302020302020302020302020302020302020302020302020302020300A2020312020322020312020302020202020302020300A2020312020332020312020302020202020302020300A2020312020342020312020312020202020302020300A2020322020352020322020302020202020302020300A2020332020362020312020302020202020302020300A2020342020372020312020302020202020302020300A2020342020382020322020302020202020302020300A2020352020392020312020302020202020302020300A2020352031302020312020302020202020302020300A2020362020392020312020302020202020302020300A4D2020454E44
Contributor: MGR
InstType: ESI
InstName: micrOTOF-Q
IoniMethod: ESI
IonPolarity: pos
IsolWidth: 10
TargetGas: Nitrogen
ColEnergy: 10
PeakWidth: 0.03
ChargeDecon: 2
Date: 2010-10-09 19:48:36+02:00
Column: Synergi Fusion RP 2.5 u
Mass: 138.044-154.125
Num Peaks: 3
143.081 999 144.084 74 145.086 6 
