Name: MassBank: BD000574
CAS: 93-40-3
MW: 196
Formula: C10H12O4
Synonym: CID: 7139
Synonym: MassBank: BD000574
Synonym: 3,4-Dimethoxyphenylacetic acid
Synonym: (3,4-Dimethoxyphenyl)acetate
Synonym: (3,4-Dimethoxyphenyl)acetic acid
Synonym: 3,4-(Dimethoxy)benzeneacetic acid
Synonym: 3,4-Dimethoxybenzeneacetate
Synonym: 3,4-Dimethoxybenzeneacetic acid
Synonym: 3,4-Dimethoxyphenyl acetic acid
Synonym: 3,4-Dimethoxyphenylacetate
Synonym: Homoveratrate
Synonym: Homoveratric acid
Structure: 31342031342020302020302020302020302020302020302020302020303939392056323030300A20202031312E3036303020202D31342E3938303020202020302E303030302043202020302020302020302020302020302020302020302020302020302020302020302020300A20202031312E3036303020202D31362E3338303020202020302E303030302043202020302020302020302020302020302020302020302020302020302020302020302020300A20202031322E3237323420202D31372E3038303020202020302E303030302043202020302020302020302020302020302020302020302020302020302020302020302020300A20202031332E3438343920202D31362E3338303020202020302E303030302043202020302020302020302020302020302020302020302020302020302020302020302020300A20202031332E3438343920202D31342E3938303020202020302E303030302043202020302020302020302020302020302020302020302020302020302020302020302020300A20202031322E3237323420202D31342E3238303020202020302E303030302043202020302020302020302020302020302020302020302020302020302020302020302020300A20202031342E3731363020202D31342E3236393020202020302E303030302043202020302020302020302020302020302020302020302020302020302020302020302020300A20202031352E3932313220202D31342E3936343720202020302E303030302043202020302020302020302020302020302020302020302020302020302020302020302020300A20202031372E3130333520202D31342E3238313920202020302E30303030204F202020302020302020302020302020302020302020302020302020302020302020302020300A20202031322E3237323420202D31382E3437393820202020302E30303030204F202020302020302020302020302020302020302020302020302020302020302020302020300A20202020392E3834373620202D31372E3038303020202020302E30303030204F202020302020302020302020302020302020302020302020302020302020302020302020300A20202031312E3036303020202D31392E3137393820202020302E303030302043202020302020302020302020302020302020302020302020302020302020302020302020300A20202031352E3932313620202D31362E3337393620202020302E30303030204F202020302020302020302020302020302020302020302020302020302020302020302020300A20202020382E3635323120202D31362E3338393620202020302E303030302043202020302020302020302020302020302020302020302020302020302020302020302020300A2020312020322020322020302020202020302020300A2020322020332020312020302020202020302020300A2020332020342020322020302020202020302020300A2020342020352020312020302020202020302020300A2020352020362020322020302020202020302020300A2020312020362020312020302020202020302020300A2020352020372020312020302020202020302020300A2020372020382020312020302020202020302020300A2020382020392020312020302020202020302020300A2020332031302020312020302020202020302020300A2020322031312020312020302020202020302020300A2031302031322020312020302020202020302020300A2020382031332020322020302020202020302020300A2031312031342020312020302020202020302020300A4D2020454E44
Contributor: MGR
InstType: ESI
InstName: micrOTOF-Q
IoniMethod: ESI
IonPolarity: neg
MSMS: 2
IsolWidth: 10
TargetGas: Nitrogen
ColEnergy: -19
PeakWidth: 0.028
ChargeDecon: 2
Date: 2010-10-09 19:48:36+02:00
Column: Synergi Fusion RP 2.5 u
Mass: 44.9925-394.889
Num Peaks: 8
121.029 999 122.033 75 123.012 27 136.052 196 137.056 16 138.032 27 168.042 404 169.047 39 
