Name: Gly-pro
CAS: 704-15-4
MW: 172
Formula: C7H12N2O3
Synonym: CID: 23423004
Synonym: MassBank: BD000826
Synonym: Gly-pro
Synonym: Glycylproline
Synonym: 1-Glycyl-L-Proline
Synonym: Glycyl-L-proline
Synonym: N-Glycyl-L-proline
Synonym: 1-(2-Aminoacetyl)pyrrolidine-2-carboxylic acid
Synonym: 1-Glycyl-(9CI)L-Proline
Structure: 31322031322020302020302020302020302020302020302020302020303939392056323030300A20202020392E3636303020202D31322E3734303020202020302E303030302043202020302020302020302020302020302020302020302020302020302020302020302020300A20202020382E3236303020202D31322E3734303020202020302E303030302043202020302020302020302020302020302020302020302020302020302020302020302020300A20202020372E3832373420202D31342E3037313520202020302E303030302043202020302020302020302020302020302020302020302020302020302020302020302020300A20202020382E3936303020202D31342E3839343420202020302E30303030204E202020302020302020302020302020302020302020302020302020302020302020302020300A20202031302E3039323620202D31342E3037313520202020302E303030302043202020302020302020302020302020302020302020302020302020302020302020302020300A20202031312E3431323220202D31342E3530303320202020302E303030302043202020302020302020302020302020302020302020302020302020302020302020302020300A20202020382E3936303020202D31362E3331303020202020302E303030302043202020302020302020302020302020302020302020302020302020302020302020302020300A20202031302E3137323420202D31372E3031303020202020302E30303030204F202020302020302020302020302020302020302020302020302020302020302020302020300A20202020372E3734373620202D31372E3031303020202020302E303030302043202020302020302020302020302020302020302020302020302020302020302020302020300A20202031322E3435363520202D31332E3536303120202020302E30303030204F202020302020302020302020302020302020302020302020302020302020302020302020300A20202031312E3730313120202D31352E3835393420202020302E30303030204F202020302020302020302020302020302020302020302020302020302020302020302020300A20202020372E3734373520202D31382E3430393820202020302E30303030204E202020302020302020302020302020302020302020302020302020302020302020302020300A2020312020322020312020302020202020302020300A2020322020332020312020302020202020302020300A2020332020342020312020302020202020302020300A2020342020352020312020302020202020302020300A2020312020352020312020302020202020302020300A2020352020362020312020302020202020302020300A2020342020372020312020302020202020302020300A2020372020382020322020302020202020302020300A2020372020392020312020302020202020302020300A2020362031302020312020302020202020302020300A2020362031312020322020302020202020302020300A2020392031322020312020302020202020302020300A4D2020454E44
Contributor: MGR
InstType: ESI
InstName: micrOTOF-Q
IoniMethod: ESI
IonPolarity: pos
IsolWidth: 10
TargetGas: Nitrogen
ColEnergy: 10
PeakWidth: 0.029
ChargeDecon: 2
Date: 2010-10-09 19:48:36+02:00
Column: Synergi Fusion RP 2.5 u
Mass: 44.791-395.041
Num Peaks: 13
70.064 9 116.071 333 117.074 19 118.078 2 127.086 34 128.090 3 149.024 2 155.082 9 156.072 2 172.557 2 
173.094 999 174.096 100 175.098 11 
