Name: Tryptophane
CAS: 153-94-6
MW: 204
Formula: C11H12N2O2
Synonym: CID: 1148
Synonym: MassBank: BD000378
Synonym: Tryptophane
Structure: 313134380A20202D4F454368656D2D3032313930383035353732440A0A2031352031362020302020202020312020302020302020302020302020303939392056323030300A20202020372E3235363620202020312E3936313520202020302E30303030204F202020302020302020302020302020302020302020302020302020302020302020302020300A20202020352E3631303320202020322E3439393620202020302E30303030204F202020302020302020302020302020302020302020302020302020302020302020302020300A20202020342E363738332020202D312E3936313520202020302E30303030204E202020302020302020302020302020302020302020302020302020302020302020302020300A20202020362E3633353320202020302E3036303420202020302E30303030204E202020302020302020302020302020302020302020302020302020302020302020302020300A20202020342E363738332020202D302E3335323020202020302E303030302043202020302020302020302020302020302020302020302020302020302020302020302020300A20202020342E3938383920202020302E3539383520202020302E303030302043202020302020302020302020302020302020302020302020302020302020302020302020300A20202020332E373332312020202D302E3635363720202020302E303030302043202020302020302020302020302020302020302020302020302020302020302020302020300A20202020352E3936373420202020302E3830343720202020302E303030302043202020302020302020332020302020302020302020302020302020302020302020302020300A20202020332E373332312020202D312E3635363720202020302E303030302043202020302020302020302020302020302020302020302020302020302020302020302020300A20202020352E323631392020202D312E3135363720202020302E303030302043202020302020302020302020302020302020302020302020302020302020302020302020300A20202020322E383636302020202D302E3135363720202020302E303030302043202020302020302020302020302020302020302020302020302020302020302020302020300A20202020322E383636302020202D322E3135363720202020302E303030302043202020302020302020302020302020302020302020302020302020302020302020302020300A20202020362E3237383120202020312E3735353320202020302E303030302043202020302020302020302020302020302020302020302020302020302020302020302020300A20202020322E303030302020202D302E3635363720202020302E303030302043202020302020302020302020302020302020302020302020302020302020302020302020300A20202020322E303030302020202D312E3635363720202020302E303030302043202020302020302020302020302020302020302020302020302020302020302020302020300A2020312031332020312020302020302020302020300A2020322031332020322020302020302020302020300A2020332020392020312020302020302020302020300A2020332031302020312020302020302020302020300A2020342020382020312020302020302020302020300A2020352020362020312020302020302020302020300A2020352020372020312020302020302020302020300A2020352031302020322020302020302020302020300A2020362020382020312020302020302020302020300A2020372020392020312020302020302020302020300A2020372031312020322020302020302020302020300A2020382031332020312020302020302020302020300A2020392031322020322020302020302020302020300A2031312031342020312020302020302020302020300A2031322031352020312020302020302020302020300A2031342031352020322020302020302020302020300A4D2020454E44
Contributor: BSC
InstType: ESI
InstName: micrOTOF-Q
IoniMethod: ESI
IonPolarity: neg
MSMS: 2
IsolWidth: 10
TargetGas: Nitrogen
ColEnergy: 10
PeakWidth: 0.029
ChargeDecon: 2
Date: 2010-10-09 19:48:36+02:00
Column: Synergi Fusion RP 2.5 u
Mass: 44.9928-394.86
Num Peaks: 11
72.008 32 74.025 241 116.050 999 117.052 98 130.066 37 142.065 329 143.068 29 159.091 46 186.055 38 203.082 86 
204.087 13 
