Name: Guanosine-5'-phosphate
CAS: 85-32-5
MW: 363
Formula: C10H14N5O8P
Synonym: CID: 6804
Synonym: MassBank: BD000434
Synonym: Guanosine-5'-phosphate
Synonym: GMP
Synonym: Guanosine 5'-monophosphate
Synonym: Guanylic acid
Synonym: Guanosine monophosphate
Structure: 32342032362020302020302020312020302020302020302020302020303939392056323030300A20202032342E3933373220202D31342E3434333020202020302E303030302043202020302020302020302020302020302020302020302020302020302020302020302020300A20202032332E3837333120202D31332E3639343620202020302E30303030204E202020302020302020332020302020302020302020302020302020302020302020302020300A20202032362E3137363520202D31332E3532353120202020302E303030302043202020302020302020302020302020302020302020302020302020302020302020302020300A20202032352E3037313620202D31352E3836333620202020302E30303030204E202020302020302020302020302020302020302020302020302020302020302020302020300A20202032322E3538373020202D31342E3132313420202020302E303030302043202020302020302020322020302020302020302020302020302020302020302020302020300A20202032342E3335323420202D31322E3330333220202020302E303030302043202020302020302020302020302020302020302020302020302020302020302020302020300A20202032352E3830323320202D31322E3330393020202020302E30303030204E202020302020302020302020302020302020302020302020302020302020302020302020300A20202032372E3432373520202D31342E3038363320202020302E303030302043202020302020302020302020302020302020302020302020302020302020302020302020300A20202032362E3339323820202D31362E3434323420202020302E303030302043202020302020302020302020302020302020302020302020302020302020302020302020300A20202032312E3435323820202D31332E3236323020202020302E30303030204F202020302020302020302020302020302020302020302020302020302020302020302020300A20202032322E3135343320202D31352E3337323420202020302E303030302043202020302020302020312020302020302020302020302020302020302020302020302020300A20202032372E3539313320202D31352E3537313320202020302E30303030204E202020302020302020302020302020302020302020302020302020302020302020302020300A20202032382E3533383420202D31332E3235363220202020302E30303030204F202020302020302020302020302020302020302020302020302020302020302020302020300A20202032362E3534343920202D31372E3832373920202020302E30303030204E202020302020302020302020302020302020302020302020302020302020302020302020300A20202032302E3334373920202D31342E3036323920202020302E303030302043202020302020302020312020302020302020302020302020302020302020302020302020300A20202032302E3736383720202D31352E3337323420202020302E303030302043202020302020302020312020302020302020302020302020302020302020302020302020300A20202032322E3936363920202D31362E3530303920202020302E30303030204F202020302020302020302020302020302020302020302020302020302020302020302020300A20202031392E3032363620202D31332E3632343520202020302E303030302043202020302020302020302020302020302020302020302020302020302020302020302020300A20202032302E3333303220202D31362E3638373920202020302E30303030204F202020302020302020302020302020302020302020302020302020302020302020302020300A20202031372E3938303120202D31342E3535393820202020302E30303030204F202020302020302020302020302020302020302020302020302020302020302020302020300A20202031362E3538383620202D31342E3535393820202020302E303030302050202020302020302020332020302020302020302020302020302020302020302020302020300A20202031362E3538323920202D31352E3935313220202020302E30303030204F202020302020302020302020302020302020302020302020302020302020302020302020300A20202031352E3139373220202D31342E3535393820202020302E30303030204F202020302020302020302020302020302020302020302020302020302020302020302020300A20202031362E3538323920202D31332E3136383420202020302E30303030204F202020302020302020302020302020302020302020302020302020302020302020302020300A2020312020322020312020302020202020302020300A2020312020332020322020302020202020302020300A2020312020342020312020302020202020302020300A2020352020322020312020312020202020302020300A2020322020362020312020302020202020302020300A2020332020372020312020302020202020302020300A2020332020382020312020302020202020302020300A2020342020392020322020302020202020302020300A2020352031302020312020302020202020302020300A2020352031312020312020302020202020302020300A2020382031322020312020302020202020302020300A2020382031332020322020302020202020302020300A2020392031342020312020302020202020302020300A2031302031352020312020302020202020302020300A2031312031362020312020302020202020302020300A2031312031372020312020362020202020302020300A2031352031382020312020312020202020302020300A2031362031392020312020362020202020302020300A2031382032302020312020302020202020302020300A2032302032312020312020302020202020302020300A2032312032322020312020302020202020302020300A2032312032332020312020302020202020302020300A2032312032342020322020302020202020302020300A2020362020372020322020302020202020302020300A2020392031322020312020302020202020302020300A2031352031362020312020302020202020302020300A4D2020454E44
Contributor: MGR
InstType: ESI
InstName: micrOTOF-Q
IoniMethod: ESI
IonPolarity: neg
MSMS: 2
IsolWidth: 10
TargetGas: Nitrogen
ColEnergy: -26
PeakWidth: 0.034
ChargeDecon: 2
Date: 2010-10-09 19:48:36+02:00
Column: Synergi Fusion RP 2.5 u
Mass: 44.9945-394.904
Num Peaks: 13
78.958 999 80.962 6 96.968 148 133.015 6 138.980 10 150.041 80 150.980 23 192.990 8 211.001 102 212.005 5 
319.044 6 362.048 22 363.049 3 
