Name: 6-Methyladenine
CAS: 443-72-1
MW: 149
Formula: C6H7N5
Synonym: CID: 67955
Synonym: MassBank: BD000665
Synonym: 6-Methyladenine
Synonym: N6-Methyladenine
Synonym: (N-6)-Methyladenine
Synonym: 6-MAP
Synonym: 6-Methylaminopurine
Synonym: 6-Monomethylaminopurine
Synonym: N6-Monomethyladenine
Synonym: Methyl(purin-6-yl)amine
Synonym: N-Methyl-adenine
Synonym: N-Methyl-1H-Purin-6-amine
Structure: 31312031322020302020302020302020302020302020302020302020303939392056323030300A20202031372E3334393120202D31332E3636313320202020302E303030302043202020302020302020302020302020302020302020302020302020302020302020302020300A20202031372E3333373420202D31352E3035383820202020302E303030302043202020302020302020302020302020302020302020302020302020302020302020302020300A20202031362E3133383820202D31322E3935333920202020302E303030302043202020302020302020302020302020302020302020302020302020302020302020302020300A20202031382E3638323220202D31332E3234363220202020302E30303030204E202020302020302020302020302020302020302020302020302020302020302020302020300A20202031382E3635383820202D31352E3530393020202020302E30303030204E202020302020302020302020302020302020302020302020302020302020302020302020300A20202031362E3132313420202D31352E3736303420202020302E30303030204E202020302020302020302020302020302020302020302020302020302020302020302020300A20202031342E3932323820202D31332E3634333820202020302E30303030204E202020302020302020302020302020302020302020302020302020302020302020302020300A20202031362E3133383820202D31312E3535363620202020302E30303030204E202020302020302020302020302020302020302020302020302020302020302020302020300A20202031392E3439343820202D31342E3338363320202020302E303030302043202020302020302020302020302020302020302020302020302020302020302020302020300A20202031342E3931313120202D31352E3034373120202020302E303030302043202020302020302020302020302020302020302020302020302020302020302020302020300A20202031372E3335343920202D31302E3836303720202020302E303030302043202020302020302020302020302020302020302020302020302020302020302020302020300A2020312020322020322020302020202020302020300A2020312020332020312020302020202020302020300A2020312020342020312020302020202020302020300A2020322020352020312020302020202020302020300A2020322020362020312020302020202020302020300A2020332020372020322020302020202020302020300A2020332020382020312020302020202020302020300A2020342020392020322020302020202020302020300A2020362031302020322020302020202020302020300A2020382031312020312020302020202020302020300A2020352020392020312020302020202020302020300A2020372031302020312020302020202020302020300A4D2020454E44
Contributor: MGR
InstType: ESI
InstName: micrOTOF-Q
IoniMethod: ESI
IonPolarity: pos
IsolWidth: 10
TargetGas: Nitrogen
ColEnergy: 10
PeakWidth: 0.026
ChargeDecon: 2
Date: 2010-10-09 19:48:36+02:00
Column: Synergi Fusion RP 2.5 u
Mass: 44.7898-395.031
Num Peaks: 8
113.963 6 128.950 8 131.974 8 141.958 7 146.959 12 149.021 12 150.077 999 151.079 80 
