Name: Citraconic acid
CAS: 498-23-7
MW: 130
Formula: C5H6O4
Synonym: CID: 874
Synonym: MassBank: BD000741
Synonym: Citraconic acid
Synonym: 2-Methylmaleate
Synonym: (2Z)-2-Methyl-2-butenedioic acid
Synonym: (Z)-2-Methyl-2-butenedioate
Synonym: (Z)-2-Methyl-2-butenedioic acid
Synonym: Methylmaleate
Synonym: Methylmaleic acid
Synonym: Citraconate
Structure: 392020382020302020302020302020302020302020302020302020303939392056323030300A20202032332E3035333420202D31352E3734303920202020302E303030302043202020302020302020302020302020302020302020302020302020302020302020302020300A20202032312E3834373620202D31362E3434303020202020302E303030302043202020302020302020302020302020302020302020302020302020302020302020302020300A20202032332E3035333420202D31342E3334383720202020302E303030302043202020302020302020302020302020302020302020302020302020302020302020302020300A20202032342E3333353720202D31362E3434303020202020302E303030302043202020302020302020302020302020302020302020302020302020302020302020302020300A20202032302E3530323020202D31352E3734303920202020302E303030302043202020302020302020302020302020302020302020302020302020302020302020302020300A20202032342E3236363020202D31332E3635353920202020302E30303030204F202020302020302020302020302020302020302020302020302020302020302020302020300A20202032312E3834373620202D31332E3635353920202020302E30303030204F202020302020302020302020302020302020302020302020302020302020302020302020300A20202032302E3530323020202D31342E3438383220202020302E30303030204F202020302020302020302020302020302020302020302020302020302020302020302020300A20202031392E3239353920202D31362E3434363420202020302E30303030204F202020302020302020302020302020302020302020302020302020302020302020302020300A2020312020322020322020302020202020302020300A2020312020332020312020302020202020302020300A2020312020342020312020302020202020302020300A2020322020352020312020302020202020302020300A2020332020362020312020302020202020302020300A2020332020372020322020302020202020302020300A2020352020382020312020302020202020302020300A2020352020392020322020302020202020302020300A4D2020454E44
Contributor: MGR
InstType: ESI
InstName: micrOTOF-Q
IoniMethod: ESI
IonPolarity: pos
MSMS: 2
IsolWidth: 10
TargetGas: Nitrogen
ColEnergy: 13
PeakWidth: 0.029
ChargeDecon: 2
Date: 2010-10-09 19:48:36+02:00
Column: Synergi Fusion RP 2.5 u
Mass: 44.7917-395.043
Num Peaks: 6
85.028 455 86.032 34 113.024 999 114.029 58 115.029 16 131.035 180 
