Name: 5'-Deoxyadenosine
CAS: 4754-39-6
MW: 251
Formula: C10H13N5O3
Synonym: CID: 142
Synonym: MassBank: BD000711
Synonym: 5'-Deoxyadenosine
Synonym: 5-Deoxyadenosine
Synonym: 5'-Deoxy-Adenosine
Synonym: CH3Ado
Structure: 31382032302020302020302020312020302020302020302020302020303939392056323030300A20202031382E3131313220202D31332E3633383920202020302E30303030204E202020302020302020332020302020302020302020302020302020302020302020302020300A20202031382E3239373820202D31322E3336373920202020302E303030302043202020302020302020302020302020302020302020302020302020302020302020302020300A20202031362E3830393020202D31342E3132333320202020302E303030302043202020302020302020312020302020302020302020302020302020302020302020302020300A20202031392E3131353520202D31342E3437303020202020302E303030302043202020302020302020302020302020302020302020302020302020302020302020302020300A20202031392E3531313020202D31312E3930353820202020302E303030302043202020302020302020302020302020302020302020302020302020302020302020302020300A20202031372E3330363720202D31312E3534313520202020302E30303030204E202020302020302020302020302020302020302020302020302020302020302020302020300A20202031362E3337383020202D31352E3439323120202020302E303030302043202020302020302020312020302020302020302020302020302020302020302020302020300A20202031352E3637313520202D31332E3332373920202020302E30303030204F202020302020302020302020302020302020302020302020302020302020302020302020300A20202032302E3333333120202D31342E3030333320202020302E30303030204E202020302020302020302020302020302020302020302020302020302020302020302020300A20202031392E3730323020202D31302E3539393320202020302E303030302043202020302020302020302020302020302020302020302020302020302020302020302020300A20202031372E3439373920202D31302E3233353020202020302E303030302043202020302020302020302020302020302020302020302020302020302020302020302020300A20202031342E3936393220202D31352E3439323120202020302E303030302043202020302020302020312020302020302020302020302020302020302020302020302020300A20202031372E3138323420202D31362E3634373420202020302E30303030204F202020302020302020302020302020302020302020302020302020302020302020302020300A20202031342E3532393320202D31342E3132333320202020302E303030302043202020302020302020312020302020302020302020302020302020302020302020302020300A20202031382E363933332020202D392E3737323720202020302E30303030204E202020302020302020302020302020302020302020302020302020302020302020302020300A20202032302E3939303720202D31302E3131303520202020302E30303030204E202020302020302020302020302020302020302020302020302020302020302020302020300A20202031342E3136393320202D31362E3634373420202020302E30303030204F202020302020302020302020302020302020302020302020302020302020302020302020300A20202031332E3231383420202D31332E3633383920202020302E303030302043202020302020302020302020302020302020302020302020302020302020302020302020300A2020312020322020312020302020202020302020300A2020332020312020312020312020202020302020300A2020312020342020312020302020202020302020300A2020322020352020322020302020202020302020300A2020322020362020312020302020202020302020300A2020332020372020312020302020202020302020300A2020332020382020312020302020202020302020300A2020342020392020322020302020202020302020300A2020352031302020312020302020202020302020300A2020362031312020322020302020202020302020300A2020372031322020312020302020202020302020300A2020372031332020312020362020202020302020300A2020382031342020312020302020202020302020300A2031302031352020322020302020202020302020300A2031302031362020312020302020202020302020300A2031322031372020312020362020202020302020300A2031342031382020312020312020202020302020300A2020352020392020312020302020202020302020300A2031312031352020312020302020202020302020300A2031322031342020312020302020202020302020300A4D2020454E44
Contributor: MGR
InstType: ESI
InstName: micrOTOF-Q
IoniMethod: ESI
IonPolarity: pos
IsolWidth: 10
TargetGas: Nitrogen
ColEnergy: 10
PeakWidth: 0.024
ChargeDecon: 2
Date: 2010-10-09 19:48:36+02:00
Column: Synergi Fusion RP 2.5 u
Mass: 44.7895-395.028
Num Peaks: 33
113.963 4 114.970 3 119.036 2 128.951 8 131.973 5 135.957 3 136.062 545 136.953 3 137.063 41 138.061 2 
141.958 6 144.080 6 145.930 4 146.961 14 149.022 6 153.956 6 158.966 3 159.969 15 161.081 2 162.090 4 
163.941 15 176.974 4 177.977 4 179.964 3 181.951 48 182.955 3 186.957 7 204.967 11 224.128 3 233.923 4 
252.111 999 253.112 132 254.114 14 
