Name: Isocaproic acid
CAS: 646-07-1
MW: 116
Formula: C6H12O2
Synonym: CID: 12587
Synonym: MassBank: BD000686
Synonym: Isocaproic acid
Synonym: 3-Methylbutane-1-carboxylic acid
Synonym: 4-Methylpentanoic acid
Synonym: 4-Methyl-pentanoic acid
Synonym: 4-Methylvaleric acid
Synonym: 4-Methyl-Valeric acid
Synonym: Isobutylacetic acid
Synonym: Isohexanoic acid
Structure: 382020372020302020302020302020302020302020302020302020303939392056323030300A20202020392E323430302020202D392E3539303020202020302E303030302043202020302020302020302020302020302020302020302020302020302020302020302020300A20202031302E3435323420202D31302E3239303020202020302E303030302043202020302020302020302020302020302020302020302020302020302020302020302020300A20202031312E363634392020202D392E3539303020202020302E303030302043202020302020302020302020302020302020302020302020302020302020302020302020300A20202031322E3837373320202D31302E3239303020202020302E303030302043202020302020302020302020302020302020302020302020302020302020302020302020300A20202031342E303839372020202D392E3539303020202020302E303030302043202020302020302020302020302020302020302020302020302020302020302020302020300A20202031302E3435323420202D31312E3638393820202020302E303030302043202020302020302020302020302020302020302020302020302020302020302020302020300A20202031352E3238373320202D31302E3238313520202020302E30303030204F202020302020302020302020302020302020302020302020302020302020302020302020300A20202031342E303839382020202D382E3139303120202020302E30303030204F202020302020302020302020302020302020302020302020302020302020302020302020300A2020312020322020312020302020202020302020300A2020322020332020312020302020202020302020300A2020332020342020312020302020202020302020300A2020342020352020312020302020202020302020300A2020322020362020312020302020202020302020300A2020352020372020312020302020202020302020300A2020352020382020322020302020202020302020300A4D2020454E44
Contributor: MGR
InstType: ESI
InstName: micrOTOF-Q
IoniMethod: ESI
IonPolarity: pos
IsolWidth: 10
TargetGas: Nitrogen
ColEnergy: 10
PeakWidth: 0.03
ChargeDecon: 2
Date: 2010-10-09 19:48:36+02:00
Column: Synergi Fusion RP 2.5 u
Mass: 112.06-128.128
Num Peaks: 3
117.091 999 118.094 67 119.096 6 
