Name: Arbutin
CAS: 497-76-7
MW: 272
Formula: C12H16O7
Synonym: CID: 346
Synonym: MassBank: BD000723
Synonym: Arbutin
Synonym: Ursin
Synonym: Arbutoside
Synonym: Hydroquinone-beta-D-glucopyranoside
Synonym: Hydroquinone-O-beta-D-glucopyranoside
Synonym: p-Arbutin
Synonym: p-Hydroxyphenyl-beta-D-glucopyranoside
Synonym: Uvasol
Synonym: (2R,3S,4S,5R,6S)-2-(Hydroxymethyl)-6-(4-hydroxyphenoxy)oxane-3,4,5-triol
Synonym: p-Hydroxyphenyl-beta-D-glucoside
Structure: 31392032302020302020302020312020302020302020302020302020303939392056323030300A20202032312E3236323520202D31332E3637393120202020302E303030302043202020302020302020322020302020302020302020302020302020302020302020302020300A20202032302E3035343920202D31322E3937333320202020302E30303030204F202020302020302020302020302020302020302020302020302020302020302020302020300A20202032312E3236323520202D31352E3038353020202020302E303030302043202020302020302020312020302020302020302020302020302020302020302020302020300A20202032322E3437353820202D31322E3937393120202020302E30303030204F202020302020302020302020302020302020302020302020302020302020302020302020300A20202031382E3833353620202D31332E3637393120202020302E303030302043202020302020302020312020302020302020302020302020302020302020302020302020300A20202032302E3035343920202D31352E3737393220202020302E303030302043202020302020302020322020302020302020302020302020302020302020302020302020300A20202032322E3437353820202D31352E3737393220202020302E30303030204F202020302020302020302020302020302020302020302020302020302020302020302020300A20202032332E3638333420202D31332E3637333320202020302E303030302043202020302020302020302020302020302020302020302020302020302020302020302020300A20202031382E3833353620202D31352E3038353020202020302E303030302043202020302020302020322020302020302020302020302020302020302020302020302020300A20202031372E3631363420202D31322E3937333320202020302E303030302043202020302020302020302020302020302020302020302020302020302020302020302020300A20202032302E3035343920202D31372E3138353120202020302E30303030204F202020302020302020302020302020302020302020302020302020302020302020302020300A20202032332E3638333420202D31352E3036373520202020302E303030302043202020302020302020302020302020302020302020302020302020302020302020302020300A20202032342E3839363920202D31322E3937333320202020302E303030302043202020302020302020302020302020302020302020302020302020302020302020302020300A20202031372E3631363420202D31352E3738353020202020302E30303030204F202020302020302020302020302020302020302020302020302020302020302020302020300A20202031362E3430333120202D31332E3637393120202020302E30303030204F202020302020302020302020302020302020302020302020302020302020302020302020300A20202032342E3839363920202D31352E3736313720202020302E303030302043202020302020302020302020302020302020302020302020302020302020302020302020300A20202032362E3130343520202D31332E3637333320202020302E303030302043202020302020302020302020302020302020302020302020302020302020302020302020300A20202032362E3130343520202D31352E3036373520202020302E303030302043202020302020302020302020302020302020302020302020302020302020302020302020300A20202032372E3331323020202D31352E3736313720202020302E30303030204F202020302020302020302020302020302020302020302020302020302020302020302020300A2020312020322020312020302020202020302020300A2020312020332020312020302020202020302020300A2020312020342020312020312020202020302020300A2020322020352020312020302020202020302020300A2020332020362020312020302020202020302020300A2020332020372020312020362020202020302020300A2020342020382020312020302020202020302020300A2020352020392020312020302020202020302020300A2020352031302020312020312020202020302020300A2020362031312020312020312020202020302020300A2020382031322020322020302020202020302020300A2020382031332020312020302020202020302020300A2020392031342020312020362020202020302020300A2031302031352020312020302020202020302020300A2031322031362020312020302020202020302020300A2031332031372020322020302020202020302020300A2031362031382020322020302020202020302020300A2031382031392020312020302020202020302020300A2020362020392020312020302020202020302020300A2031372031382020312020302020202020302020300A4D2020454E44
Contributor: MGR
InstType: ESI
InstName: micrOTOF-Q
IoniMethod: ESI
IonPolarity: pos
IsolWidth: 10
TargetGas: Nitrogen
ColEnergy: 10
PeakWidth: 0.03
ChargeDecon: 2
Date: 2010-10-09 19:48:36+02:00
Column: Synergi Fusion RP 2.5 u
Mass: 268.04-285.158
Num Peaks: 4
273.097 999 274.100 134 275.102 23 276.105 2 
