Name: Cadaverine
CAS: 462-94-2
MW: 102
Formula: C5H14N2
Synonym: CID: 273
Synonym: MassBank: BD000393
Synonym: Cadaverine
Synonym: 1,5-Diaminopentane
Synonym: 1,5-Pentamethylenediamine
Synonym: 1,5-Pentanediamine
Synonym: Cadaverine dihydrochloride
Synonym: Pentamethylenediamine
Synonym: Pentane-1,5-diamine
Structure: 372020362020302020302020302020302020302020302020302020303939392056323030300A20202032312E3834303220202D31342E3732313320202020302E303030302043202020302020302020302020302020302020302020302020302020302020302020302020300A20202032302E3633303620202D31352E3432323620202020302E303030302043202020302020302020302020302020302020302020302020302020302020302020302020300A20202032332E3034393820202D31352E3432323620202020302E303030302043202020302020302020302020302020302020302020302020302020302020302020302020300A20202031392E3431343820202D31342E3732313320202020302E303030302043202020302020302020302020302020302020302020302020302020302020302020302020300A20202032342E3236353720202D31342E3732313320202020302E303030302043202020302020302020302020302020302020302020302020302020302020302020302020300A20202031382E3230353220202D31352E3432323620202020302E30303030204E202020302020302020302020302020302020302020302020302020302020302020302020300A20202032352E3437353320202D31352E3432323620202020302E30303030204E202020302020302020302020302020302020302020302020302020302020302020302020300A2020312020322020312020302020202020302020300A2020312020332020312020302020202020302020300A2020322020342020312020302020202020302020300A2020332020352020312020302020202020302020300A2020342020362020312020302020202020302020300A2020352020372020312020302020202020302020300A4D2020454E44
Contributor: MGR
InstType: ESI
InstName: micrOTOF-Q
IoniMethod: ESI
IonPolarity: pos
MSMS: 2
IsolWidth: 10
TargetGas: Nitrogen
ColEnergy: 12
PeakWidth: 0.034
ChargeDecon: 2
Date: 2010-10-09 19:48:36+02:00
Column: Synergi Fusion RP 2.5 u
Mass: 44.7872-395.014
Num Peaks: 1
86.096 999 
