Name: Chlormequat
CAS: 7003-89-6
MW: 122
Formula: C5H13ClN
Synonym: CID: 13837
Synonym: MassBank: BD000395
Synonym: Chlormequat
Synonym: Cycogan
Synonym: Antywylegacz
Synonym: Ce ce ce
Synonym: Cyclocel
Synonym: Cyocel
Synonym: Chlorcholinchlorid
Synonym: Retacel
Synonym: Stabilan
Synonym: Cycogan extra
Structure: 372020362020302020302020302020302020302020302020302020303939392056323030300A20202032302E3635303120202D31342E3730303120202020302E30303030204E202020302020332020302020302020302020302020302020302020302020302020302020300A20202032312E3836323520202D31342E3030303120202020302E303030302043202020302020302020302020302020302020302020302020302020302020302020302020300A20202032332E3037353020202D31342E3730303120202020302E303030302043202020302020302020302020302020302020302020302020302020302020302020302020300A20202032342E3238373420202D31342E3030303120202020302E3030303020436C2020302020302020302020302020302020302020302020302020302020302020302020300A20202031392E3433373720202D31342E3030303120202020302E303030302043202020302020302020302020302020302020302020302020302020302020302020302020300A20202032302E3635303120202D31362E3130303120202020302E303030302043202020302020302020302020302020302020302020302020302020302020302020302020300A20202031392E3433373720202D31352E3430303120202020302E303030302043202020302020302020302020302020302020302020302020302020302020302020302020300A2020312020322020312020302020202020302020300A2020322020332020312020302020202020302020300A2020332020342020312020302020202020302020300A2020312020352020312020302020202020302020300A2020312020362020312020302020202020302020300A2020312020372020312020302020202020302020300A4D202043484720203120202031202020310A4D2020454E44
Contributor: MGR
InstType: ESI
InstName: micrOTOF-Q
IoniMethod: ESI
IonPolarity: pos
IsolWidth: 10
TargetGas: Nitrogen
ColEnergy: 10
PeakWidth: 0.03
ChargeDecon: 2
Date: 2010-10-09 19:48:36+02:00
Column: Synergi Fusion RP 2.5 u
Mass: 117.041-135.106
Num Peaks: 4
122.073 999 123.076 59 124.070 321 125.073 19 
