Name: MassBank: BD000923
CAS: 533-73-3
MW: 126
Formula: C6H6O3
Synonym: CID: 10787
Synonym: MassBank: BD000923
Synonym: 1,2,4-Trihydroxybenzol
Synonym: Hydroxyhydroquinone
Synonym: 1,2,4-Benzenetriol,
Synonym: 1,2,4-Trihydroxybenzene
Synonym: Hydroxyquinol
Structure: 392020392020302020302020302020302020302020302020302020303939392056323030300A20202032322E3433373620202D31342E3335393220202020302E303030302043202020302020302020302020302020302020302020302020302020302020302020302020300A20202032312E3232313120202D31332E3636313420202020302E303030302043202020302020302020302020302020302020302020302020302020302020302020302020300A20202032322E3433373620202D31352E3736383120202020302E303030302043202020302020302020302020302020302020302020302020302020302020302020302020300A20202032332E3634313420202D31332E3636313420202020302E30303030204F202020302020302020302020302020302020302020302020302020302020302020302020300A20202032302E3031303820202D31342E3335393220202020302E303030302043202020302020302020302020302020302020302020302020302020302020302020302020300A20202032312E3231343620202D31322E3237313920202020302E30303030204F202020302020302020302020302020302020302020302020302020302020302020302020300A20202032312E3232313120202D31362E3437383720202020302E303030302043202020302020302020302020302020302020302020302020302020302020302020302020300A20202032302E3031303820202D31352E3736383120202020302E303030302043202020302020302020302020302020302020302020302020302020302020302020302020300A20202032312E3231343620202D31372E3836383220202020302E30303030204F202020302020302020302020302020302020302020302020302020302020302020302020300A2020312020322020312020302020202020302020300A2020312020332020322020302020202020302020300A2020312020342020312020302020202020302020300A2020322020352020322020302020202020302020300A2020322020362020312020302020202020302020300A2020332020372020312020302020202020302020300A2020352020382020312020302020202020302020300A2020372020392020312020302020202020302020300A2020372020382020322020302020202020302020300A4D2020454E44
Contributor: MGR
InstType: ESI
InstName: micrOTOF-Q
IoniMethod: ESI
IonPolarity: neg
MSMS: 2
IsolWidth: 10
TargetGas: Nitrogen
ColEnergy: -17
PeakWidth: 0.031
ChargeDecon: 2
Date: 2010-10-09 19:48:36+02:00
Column: Synergi Fusion RP 2.5 u
Mass: 44.9911-394.882
Num Peaks: 14
69.032 98 79.017 160 81.033 30 83.012 220 95.012 216 96.018 20 97.028 600 98.032 49 107.013 86 108.021 94 
123.009 365 124.016 577 125.024 999 126.027 92 
