Name: Decanoyl-L-carnitine
MW: 315
Formula: C17H33NO4
Synonym: CID: 150921
Synonym: MassBank: BD000400
Synonym: Decanoyl-L-carnitine
Synonym: O-Decanoyl-L-carnitine
Synonym: [(2R)-2-Decanoyloxy-4-oxo-pentyl]-trimethyl-azanium
Structure: 32322032312020302020302020312020302020302020302020302020303939392056323030300A20202032372E3238373720202D31352E3036323920202020302E303030302043202020302020302020322020302020302020302020302020302020302020302020302020300A20202032362E3038303220202D31352E3736323720202020302E30303030204F202020302020302020302020302020302020302020302020302020302020302020302020300A20202032382E3530313120202D31352E3735373020202020302E303030302043202020302020302020302020302020302020302020302020302020302020302020302020300A20202032372E3238373720202D31332E3636383620202020302E303030302043202020302020302020302020302020302020302020302020302020302020302020302020300A20202032342E3837383520202D31352E3037343520202020302E303030302043202020302020302020302020302020302020302020302020302020302020302020302020300A20202032382E3530363720202D31372E3135313020202020302E30303030204E202020302020332020332020302020302020302020302020302020302020302020302020300A20202032382E3438393320202D31322E3936323820202020302E303030302043202020302020302020302020302020302020302020302020302020302020302020302020300A20202032332E3637313020202D31352E3736383620202020302E303030302043202020302020302020302020302020302020302020302020302020302020302020302020300A20202032342E3837323720202D31332E3637343520202020302E30303030204F202020302020302020302020302020302020302020302020302020302020302020302020300A20202032392E3738343020202D31372E3737353720202020302E303030302043202020302020302020302020302020302020302020302020302020302020302020302020300A20202032372E3239393420202D31372E3835313020202020302E303030302043202020302020302020302020302020302020302020302020302020302020302020302020300A20202032382E3932393720202D31382E3539373620202020302E303030302043202020302020302020302020302020302020302020302020302020302020302020302020300A20202032392E3730323720202D31332E3635363920202020302E30303030204F202020302020352020302020302020302020302020302020302020302020302020302020300A20202032382E3438393320202D31312E3536383520202020302E30303030204F202020302020302020302020302020302020302020302020302020302020302020302020300A20202032322E3436393420202D31352E3038303320202020302E303030302043202020302020302020302020302020302020302020302020302020302020302020302020300A20202032312E3236313820202D31352E3738303320202020302E303030302043202020302020302020302020302020302020302020302020302020302020302020302020300A20202032302E3035343320202D31352E3038363020202020302E303030302043202020302020302020302020302020302020302020302020302020302020302020302020300A20202031382E3835323720202D31352E3738363020202020302E303030302043202020302020302020302020302020302020302020302020302020302020302020302020300A20202031372E3634353220202D31352E3039313920202020302E303030302043202020302020302020302020302020302020302020302020302020302020302020302020300A20202031362E3433373720202D31352E3739313920202020302E303030302043202020302020302020302020302020302020302020302020302020302020302020302020300A20202031352E3233353920202D31352E3130333720202020302E303030302043202020302020302020302020302020302020302020302020302020302020302020302020300A20202031342E3032383420202D31352E3739373720202020302E303030302043202020302020302020302020302020302020302020302020302020302020302020302020300A2020312020322020312020362020202020302020300A2020312020332020312020302020202020302020300A2020312020342020312020302020202020302020300A2020322020352020312020302020202020302020300A2020332020362020312020302020202020302020300A2020342020372020312020302020202020302020300A2020352020382020312020302020202020302020300A2020352020392020322020302020202020302020300A2020362031302020312020302020202020302020300A2020362031312020312020302020202020302020300A2020362031322020312020302020202020302020300A2020372031332020312020302020202020302020300A2020372031342020322020302020202020302020300A2020382031352020312020302020202020302020300A2031352031362020312020302020202020302020300A2031362031372020312020302020202020302020300A2031372031382020312020302020202020302020300A2031382031392020312020302020202020302020300A2031392032302020312020302020202020302020300A2032302032312020312020302020202020302020300A2032312032322020312020302020202020302020300A4D202043484720203220202036202020312020313320202D310A4D2020454E44
Contributor: MGR
InstType: ESI
InstName: micrOTOF-Q
IoniMethod: ESI
IonPolarity: pos
IsolWidth: 10
TargetGas: Nitrogen
ColEnergy: 10
PeakWidth: 0.03
ChargeDecon: 2
Date: 2010-10-09 19:48:36+02:00
Column: Synergi Fusion RP 2.5 u
Mass: 311.189-328.309
Num Peaks: 4
316.248 999 317.252 193 318.254 26 319.257 3 
