Name: MassBank: BD000678
CAS: 6779-87-9
MW: 239
Formula: C9H13N5O3
Synonym: CID: 252
Synonym: MassBank: BD000678
Synonym: 7,8-Dihydrobiopterin
Synonym: 7,8-Dihydrobiopterin
Structure: 31372031382020302020302020302020302020302020302020302020303939392056323030300A20202031332E3136303020202D31332E3330303020202020302E30303030204E202020302020302020302020302020302020302020302020302020302020302020302020300A20202031332E3136303020202D31342E3730303020202020302E303030302043202020302020302020302020302020302020302020302020302020302020302020302020300A20202031342E3337323420202D31352E3430303020202020302E30303030204E202020302020302020302020302020302020302020302020302020302020302020302020300A20202031352E3538343920202D31342E3730303020202020302E303030302043202020302020302020302020302020302020302020302020302020302020302020302020300A20202031352E3538343920202D31332E3330303020202020302E303030302043202020302020302020302020302020302020302020302020302020302020302020302020300A20202031342E3337323420202D31322E3630303020202020302E303030302043202020302020302020302020302020302020302020302020302020302020302020302020300A20202031362E3739373320202D31352E3430303020202020302E30303030204E202020302020302020302020302020302020302020302020302020302020302020302020300A20202031382E3030393720202D31342E3730303020202020302E303030302043202020302020302020302020302020302020302020302020302020302020302020302020300A20202031382E3030393720202D31332E3330303020202020302E303030302043202020302020302020302020302020302020302020302020302020302020302020302020300A20202031362E3739373320202D31322E3630303020202020302E30303030204E202020302020302020302020302020302020302020302020302020302020302020302020300A20202031392E3230373320202D31322E3630383520202020302E303030302043202020302020302020302020302020302020302020302020302020302020302020302020300A20202032302E3339353620202D31332E3239343520202020302E303030302043202020302020302020302020302020302020302020302020302020302020302020302020300A20202032312E3538363420202D31322E3630363920202020302E30303030204F202020302020302020302020302020302020302020302020302020302020302020302020300A20202032302E3339353720202D31342E3639393820202020302E303030302043202020302020302020302020302020302020302020302020302020302020302020302020300A20202031392E3230373420202D31312E3230303320202020302E30303030204F202020302020302020302020302020302020302020302020302020302020302020302020300A20202031312E3934373620202D31352E3430303020202020302E30303030204E202020302020302020302020302020302020302020302020302020302020302020302020300A20202031342E3337323420202D31312E3230303220202020302E30303030204F202020302020302020302020302020302020302020302020302020302020302020302020300A2020312020322020322020302020202020302020300A2020322020332020312020302020202020302020300A2020332020342020312020302020202020302020300A2020342020352020322020302020202020302020300A2020352020362020312020302020202020302020300A2020312020362020312020302020202020302020300A2020342020372020312020302020202020302020300A2020372020382020312020302020202020302020300A2020382020392020312020302020202020302020300A2020392031302020322020302020202020302020300A2020352031302020312020302020202020302020300A2020392031312020312020302020202020302020300A2031312031322020312020302020202020302020300A2031322031332020312020302020202020302020300A2031322031342020312020302020202020302020300A2031312031352020312020302020202020302020300A2020322031362020312020302020202020302020300A2020362031372020322020302020202020302020300A4D2020454E44
Contributor: MGR
InstType: ESI
InstName: micrOTOF-Q
IoniMethod: ESI
IonPolarity: pos
MSMS: 2
IsolWidth: 10
TargetGas: Nitrogen
ColEnergy: 22
PeakWidth: 0.025
ChargeDecon: 2
Date: 2010-10-09 19:48:36+02:00
Column: Synergi Fusion RP 2.5 u
Mass: 44.7919-395.045
Num Peaks: 56
83.058 8 84.044 10 86.034 38 96.055 9 97.050 17 108.056 18 109.041 21 111.055 9 112.060 9 113.046 27 
121.050 19 124.051 11 125.046 33 126.063 36 127.062 79 136.052 9 138.074 16 139.061 8 140.059 26 141.065 5 
149.049 7 151.062 32 152.059 29 154.070 173 155.071 14 163.060 9 164.057 28 165.065 999 166.071 363 167.072 29 
168.088 821 169.090 64 177.068 41 178.072 217 179.079 366 180.087 310 181.082 30 185.046 6 191.081 6 192.088 49 
193.079 27 194.071 66 195.075 210 196.083 782 197.085 71 198.088 6 202.074 16 204.089 28 205.078 7 220.084 68 
221.080 13 222.099 143 223.101 18 238.096 35 240.110 75 241.113 9 
