Name: D-Hexanolactone
CAS: 823-22-3
MW: 114
Formula: C6H10O2
Synonym: CID: 10401
Synonym: MassBank: BD000683
Synonym: D-Hexanolactone
Synonym: (RS)-D-hexalactone
Synonym: 5-Hexanolide
Synonym: 5-Hydroxy-hexanoic acid D-lactone
Synonym: 5-Hydroxyhexanoic acid lactone
Synonym: 6-Methyl-D-valerolactone
Synonym: 6-Methyloxan-2-one
Synonym: 6-Methylvalerolactone
Synonym: D-Caprolactone
Synonym: D-Hexalactone
Synonym: D-Hexanolide
Synonym: Hexanolactone
Synonym: D-Methyl-D-valerolactone
Synonym: Tetrahydro-6-methyl-2H-pyran-2-one
Structure: 382020382020302020302020302020302020302020302020302020303939392056323030300A20202020382E3936303020202D31332E3933303020202020302E303030302043202020302020302020302020302020302020302020302020302020302020302020302020300A20202020392E3636303020202D31352E3134323420202020302E303030302043202020302020302020302020302020302020302020302020302020302020302020302020300A20202031312E3036303020202D31352E3134323420202020302E30303030204F202020302020302020302020302020302020302020302020302020302020302020302020300A20202031312E3736303020202D31332E3933303020202020302E303030302043202020302020302020302020302020302020302020302020302020302020302020302020300A20202031312E3036303020202D31322E3731373620202020302E303030302043202020302020302020302020302020302020302020302020302020302020302020302020300A20202020392E3636303020202D31322E3731373620202020302E303030302043202020302020302020302020302020302020302020302020302020302020302020302020300A20202031332E3136303020202D31332E3933303020202020302E303030302043202020302020302020302020302020302020302020302020302020302020302020302020300A20202020382E3936393620202D31362E3333373920202020302E30303030204F202020302020302020302020302020302020302020302020302020302020302020302020300A2020312020322020312020302020202020302020300A2020322020332020312020302020202020302020300A2020332020342020312020302020202020302020300A2020342020352020312020302020202020302020300A2020352020362020312020302020202020302020300A2020312020362020312020302020202020302020300A2020342020372020312020302020202020302020300A2020322020382020322020302020202020302020300A4D2020454E44
Contributor: MGR
InstType: ESI
InstName: micrOTOF-Q
IoniMethod: ESI
IonPolarity: pos
IsolWidth: 10
TargetGas: Nitrogen
ColEnergy: 10
PeakWidth: 0.024
ChargeDecon: 2
Date: 2010-10-09 19:48:36+02:00
Column: Synergi Fusion RP 2.5 u
Mass: 44.7913-395.039
Num Peaks: 32
69.069 24 73.064 11 97.065 49 115.075 999 116.079 63 117.080 7 133.086 270 134.089 18 137.056 223 138.058 20 
155.068 190 156.071 13 198.567 48 199.069 79 199.572 19 200.080 27 201.062 11 207.576 86 208.076 406 208.578 86 
209.087 44 209.588 9 210.072 6 221.569 60 222.070 16 301.075 83 302.078 12 303.105 13 318.080 215 319.086 219 
320.089 35 321.090 33 
