Name: Caffeine
CAS: 58-08-2
MW: 194
Formula: C8H10N4O2
Synonym: CID: 2519
Synonym: MassBank: BD000735
Synonym: Caffeine
Synonym: 1,3,7-Trimethylxanthine
Structure: 31342031352020302020302020302020302020302020302020302020303939392056323030300A20202032312E3038363120202D31342E3330323420202020302E303030302043202020302020302020302020302020302020302020302020302020302020302020302020300A20202032312E3038363120202D31352E3732373920202020302E303030302043202020302020302020302020302020302020302020302020302020302020302020302020300A20202032322E3238393720202D31332E3539353320202020302E303030302043202020302020302020302020302020302020302020302020302020302020302020302020300A20202031392E3738333120202D31332E3837303020202020302E30303030204E202020302020302020332020302020302020302020302020302020302020302020302020300A20202032322E3238393720202D31362E3431313620202020302E30303030204E202020302020302020332020302020302020302020302020302020302020302020302020300A20202031392E3738333120202D31362E3136303420202020302E30303030204E202020302020302020302020302020302020302020302020302020302020302020302020300A20202032332E3531303820202D31342E3333313620202020302E30303030204E202020302020302020332020302020302020302020302020302020302020302020302020300A20202032322E3238393720202D31322E3231363420202020302E30303030204F202020302020302020302020302020302020302020302020302020302020302020302020300A20202031382E3936353220202D31352E3032363820202020302E303030302043202020302020302020302020302020302020302020302020302020302020302020302020300A20202031392E3335303720202D31322E3534333620202020302E303030302043202020302020302020302020302020302020302020302020302020302020302020302020300A20202032332E3531303820202D31352E3637353420202020302E303030302043202020302020302020302020302020302020302020302020302020302020302020302020300A20202032322E3238393720202D31372E3834333120202020302E303030302043202020302020302020302020302020302020302020302020302020302020302020302020300A20202032342E3733323020202D31332E3634383020202020302E303030302043202020302020302020302020302020302020302020302020302020302020302020302020300A20202032342E3736313120202D31362E3337363620202020302E30303030204F202020302020302020302020302020302020302020302020302020302020302020302020300A2020312020322020322020302020202020302020300A2020312020332020312020302020202020302020300A2020312020342020312020302020202020302020300A2020322020352020312020302020202020302020300A2020322020362020312020302020202020302020300A2020332020372020312020302020202020302020300A2020332020382020322020302020202020302020300A2020342020392020312020302020202020302020300A2020342031302020312020302020202020302020300A2020352031312020312020302020202020302020300A2020352031322020312020302020202020302020300A2020372031332020312020302020202020302020300A2031312031342020322020302020202020302020300A2020362020392020322020302020202020302020300A2020372031312020312020302020202020302020300A4D2020454E44
Contributor: MGR
InstType: ESI
InstName: micrOTOF-Q
IoniMethod: ESI
IonPolarity: pos
IsolWidth: 10
TargetGas: Nitrogen
ColEnergy: 10
PeakWidth: 0.027
ChargeDecon: 2
Date: 2010-10-09 19:48:36+02:00
Column: Synergi Fusion RP 2.5 u
Mass: 44.7899-395.033
Num Peaks: 11
138.066 6 149.022 2 159.969 1 181.953 3 194.083 2 194.475 2 195.090 999 196.090 106 197.093 8 217.070 40 
218.072 4 
