Name: Diglycolic acid
CAS: 110-99-6
MW: 134
Formula: C4H6O5
Synonym: CID: 8088
Synonym: MassBank: BD000796
Synonym: Diglycolic acid
Synonym: 2,2-Oxydiacetic acid
Synonym: 2-(Carboxymethoxy)acetic acid
Synonym: 3-Oxapentanedioic acid
Synonym: Anhydroglycolic acid
Synonym: Bis(carboxymethyl)ether
Synonym: Oxodiacetic acid
Synonym: Oxybisacetic acid
Synonym: Oxydiacetic acid
Synonym: Oxydiethanolic acid
Structure: 392020382020302020302020302020302020302020302020302020303939392056323030300A20202020352E3034303020202D31332E3136303020202020302E30303030204F202020302020302020302020302020302020302020302020302020302020302020302020300A20202020362E3235323420202D31332E3836303020202020302E303030302043202020302020302020302020302020302020302020302020302020302020302020302020300A20202020372E3436343920202D31332E3136303020202020302E303030302043202020302020302020302020302020302020302020302020302020302020302020302020300A20202020382E3637373320202D31332E3836303020202020302E30303030204F202020302020302020302020302020302020302020302020302020302020302020302020300A20202020392E3838393720202D31332E3136303020202020302E303030302043202020302020302020302020302020302020302020302020302020302020302020302020300A20202031312E3130323220202D31332E3836303020202020302E303030302043202020302020302020302020302020302020302020302020302020302020302020302020300A20202031322E3331343620202D31332E3136303020202020302E30303030204F202020302020302020302020302020302020302020302020302020302020302020302020300A20202020362E3235323420202D31352E3235393820202020302E30303030204F202020302020302020302020302020302020302020302020302020302020302020302020300A20202031312E3130323220202D31352E3235393720202020302E30303030204F202020302020302020302020302020302020302020302020302020302020302020302020300A2020312020322020312020302020202020302020300A2020322020332020312020302020202020302020300A2020332020342020312020302020202020302020300A2020342020352020312020302020202020302020300A2020352020362020312020302020202020302020300A2020362020372020312020302020202020302020300A2020322020382020322020302020202020302020300A2020362020392020322020302020202020302020300A4D2020454E44
Contributor: MGR
InstType: ESI
InstName: micrOTOF-Q
IoniMethod: ESI
IonPolarity: neg
MSMS: 2
IsolWidth: 10
TargetGas: Nitrogen
ColEnergy: -18
PeakWidth: 0.036
ChargeDecon: 2
Date: 2010-10-09 19:48:36+02:00
Column: Synergi Fusion RP 2.5 u
Mass: 44.9954-394.908
Num Peaks: 7
72.992 20 75.007 999 76.011 28 77.011 8 89.023 283 90.026 10 133.014 49 
