Name: D-Lyxose
CAS: 1114-34-7
MW: 150
Formula: C5H10O5
Synonym: CID: 65550
Synonym: MassBank: BD000809
Synonym: D-Lyxose
Synonym: D-Lyx
Synonym: D-Lyxo-pentose
Structure: 31302031302020302020302020312020302020302020302020302020303939392056323030300A20202032312E3836393020202D31352E3735303620202020302E303030302043202020302020302020322020302020302020302020302020302020302020302020302020300A20202032332E3038393020202D31352E3035303220202020302E303030302043202020302020302020312020302020302020302020302020302020302020302020302020300A20202032302E3637323320202D31352E3035303220202020302E303030302043202020302020302020312020302020302020302020302020302020302020302020302020300A20202032312E3836393020202D31372E3135313620202020302E30303030204F202020302020302020302020302020302020302020302020302020302020302020302020300A20202032332E3038393020202D31332E3634393220202020302E303030302043202020302020302020332020302020302020302020302020302020302020302020302020300A20202032342E3330333220202D31352E3735303620202020302E30303030204F202020302020302020302020302020302020302020302020302020302020302020302020300A20202032302E3637323320202D31332E3634393220202020302E303030302043202020302020302020302020302020302020302020302020302020302020302020302020300A20202031392E3435323320202D31352E3735303620202020302E30303030204F202020302020302020302020302020302020302020302020302020302020302020302020300A20202032312E3836393020202D31322E3934383720202020302E30303030204F202020302020302020302020302020302020302020302020302020302020302020302020300A20202032342E3330333220202D31322E3934383720202020302E30303030204F202020302020302020302020302020302020302020302020302020302020302020302020300A2020312020322020312020302020202020302020300A2020312020332020312020302020202020302020300A2020312020342020312020312020202020302020300A2020322020352020312020302020202020302020300A2020322020362020312020312020202020302020300A2020332020372020312020302020202020302020300A2020332020382020312020362020202020302020300A2020352020392020312020302020202020302020300A2020352031302020312020342020202020302020300A2020372020392020312020302020202020302020300A4D2020454E44
Contributor: MGR
InstType: ESI
InstName: micrOTOF-Q
IoniMethod: ESI
IonPolarity: pos
MSMS: 2
IsolWidth: 10
TargetGas: Nitrogen
ColEnergy: 23
PeakWidth: 0.031
ChargeDecon: 2
Date: 2010-10-09 19:48:36+02:00
Column: Synergi Fusion RP 2.5 u
Mass: 44.788-395.02
Num Peaks: 40
69.032 183 71.012 833 72.014 27 73.027 987 74.031 46 81.032 52 83.047 26 85.027 618 86.030 28 87.043 68 
95.049 24 97.028 687 98.032 38 99.043 93 103.039 139 109.029 90 111.044 56 113.024 40 115.039 804 116.042 43 
121.030 21 123.045 38 127.039 42 133.049 999 134.053 59 135.047 29 137.053 22 139.039 274 140.041 22 143.034 159 
145.048 31 151.047 24 157.050 178 165.055 23 169.049 55 187.060 41 199.058 21 211.060 193 212.061 21 229.073 32 
