Name: MassBank: BD000452
CAS: 498-07-7
MW: 162
Formula: C6H10O5
Synonym: CID: 2724705
Synonym: MassBank: BD000452
Synonym: 1,6-Anhydro-b-D-glucose
Synonym: Glucosan
Synonym: 1,6-Anhydro-b-D-glucopyranose
Synonym: 1,6-Anhydro-beta-D-Glucopyranose
Synonym: 1,6-Anhydro-beta-D-glucose
Synonym: 1,6-Anhydro-beta-glucopyranose
Synonym: 1,6-Anhydro-D-glucose
Synonym: 1,6-Anhydroglucose
Synonym: 6,8-Dioxabicyclo[3.2.1]octane b-D-glucopyranose deriv.
Synonym: Anhydro-D-mannosan
Synonym: Leucoglucosan
Synonym: Levoglucosan
Structure: 31312031322020302020302020312020302020302020302020302020303939392056323030300A20202031322E3637303020202D31352E3132303020202020302E30303030204F202020302020302020302020302020302020302020302020302020302020302020302020300A20202031322E3637303020202D31362E3532303020202020302E303030302043202020302020302020302020302020302020302020302020302020302020302020302020300A20202031332E3838323420202D31372E3232303020202020302E303030302043202020302020302020302020302020302020302020302020302020302020302020302020300A20202031352E3039343920202D31362E3532303020202020302E303030302043202020302020302020302020302020302020302020302020302020302020302020302020300A20202031352E3039343920202D31352E3132303020202020302E303030302043202020302020302020302020302020302020302020302020302020302020302020302020300A20202031332E3838323420202D31342E3432303020202020302E303030302043202020302020302020302020302020302020302020302020302020302020302020302020300A20202031362E3332363020202D31342E3430393020202020302E30303030204F202020302020302020302020302020302020302020302020302020302020302020302020300A20202031332E3838323420202D31382E3631393820202020302E30303030204F202020302020302020302020302020302020302020302020302020302020302020302020300A20202031362E3332363020202D31372E3233313020202020302E30303030204F202020302020302020302020302020302020302020302020302020302020302020302020300A20202031342E3538323420202D31352E3633323420202020302E30303030204F202020302020302020302020302020302020302020302020302020302020302020302020300A20202031332E3337303020202D31362E3333323420202020302E303030302043202020302020302020302020302020302020302020302020302020302020302020302020300A2020312020322020312020302020202020302020300A2020322020332020312020302020202020302020300A2020332020342020312020302020202020302020300A2020342020352020312020302020202020302020300A2020352020362020312020302020202020302020300A2020312020362020312020302020202020302020300A2020352020372020312020362020202020302020300A2020332020382020312020362020202020302020300A2020342020392020312020312020202020302020300A2020362031302020312020312020202020302020300A2031302031312020312020302020202020302020300A2020322031312020312020312020202020302020300A4D2020454E44
Contributor: MGR
InstType: ESI
InstName: micrOTOF-Q
IoniMethod: ESI
IonPolarity: pos
IsolWidth: 10
TargetGas: Nitrogen
ColEnergy: 10
PeakWidth: 0.03
ChargeDecon: 2
Date: 2010-10-09 19:48:36+02:00
Column: Synergi Fusion RP 2.5 u
Mass: 158.022-175.1
Num Peaks: 3
163.060 999 164.064 68 165.065 12 
