Name: 5-Methyltetrahydrofolic acid
CAS: 134-35-0
MW: 459
Formula: C20H25N7O6
Synonym: CID: 146
Synonym: MassBank: BD000649
Synonym: 5-Methyltetrahydrofolic acid
Synonym: 5-Methyl-5,6,7,8-tetrahydropteroyl-L-glutamic acid Disodium salt
Synonym: 5-Methyltetrahydrofolate
Structure: 33332033352020302020302020312020302020302020302020302020303939392056323030300A20202020392E3737333720202D31322E3039373320202020302E303030302043202020302020302020302020302020302020302020302020302020302020302020302020300A20202020392E3737333720202D31332E3438313020202020302E303030302043202020302020302020302020302020302020302020302020302020302020302020302020300A20202031302E3937383820202D31312E3430323420202020302E30303030204E202020302020302020302020302020302020302020302020302020302020302020302020300A20202020382E3538303620202D31312E3432303920202020302E30303030204E202020302020302020302020302020302020302020302020302020302020302020302020300A20202031302E3938353120202D31342E3138323020202020302E30303030204E202020302020302020332020302020302020302020302020302020302020302020302020300A20202020382E3538303620202D31342E3138383120202020302E303030302043202020302020302020302020302020302020302020302020302020302020302020302020300A20202031322E3139393920202D31322E3137313220202020302E303030302043202020302020302020302020302020302020302020302020302020302020302020302020300A20202020372E3339333920202D31322E3039373320202020302E303030302043202020302020302020302020302020302020302020302020302020302020302020302020300A20202031322E3136353720202D31332E3431393520202020302E303030302043202020302020302020332020302020302020302020302020302020302020302020302020300A20202031302E3938313520202D31352E3534303920202020302E303030302043202020302020302020302020302020302020302020302020302020302020302020302020300A20202020372E3339333920202D31332E3438313020202020302E30303030204E202020302020302020302020302020302020302020302020302020302020302020302020300A20202020382E3632313220202D31352E3534373220202020302E30303030204F202020302020302020302020302020302020302020302020302020302020302020302020300A20202020362E3231333120202D31312E3432303920202020302E30303030204E202020302020302020302020302020302020302020302020302020302020302020302020300A20202031332E3335383720202D31342E3038393720202020302E303030302043202020302020302020302020302020302020302020302020302020302020302020302020300A20202031342E3533393420202D31332E3338323520202020302E30303030204E202020302020302020302020302020302020302020302020302020302020302020302020300A20202031352E3839323220202D31332E3338323520202020302E303030302043202020302020302020302020302020302020302020302020302020302020302020302020300A20202031362E3539393520202D31322E3134393120202020302E303030302043202020302020302020302020302020302020302020302020302020302020302020302020300A20202031362E3536383620202D31342E3632343720202020302E303030302043202020302020302020302020302020302020302020302020302020302020302020302020300A20202031372E3930333220202D31322E3137313220202020302E303030302043202020302020302020302020302020302020302020302020302020302020302020302020300A20202031372E3835343020202D31342E3632343720202020302E303030302043202020302020302020302020302020302020302020302020302020302020302020302020300A20202031382E3635333420202D31332E3430373220202020302E303030302043202020302020302020302020302020302020302020302020302020302020302020302020300A20202032302E3031323220202D31332E3430303920202020302E303030302043202020302020302020302020302020302020302020302020302020302020302020302020300A20202032312E3339363020202D31342E3132363620202020302E30303030204E202020302020302020302020302020302020302020302020302020302020302020302020300A20202031392E3939363620202D31322E3136343920202020302E30303030204F202020302020302020302020302020302020302020302020302020302020302020302020300A20202032332E3336333920202D31332E3039333520202020302E303030302043202020302020302020322020302020302020302020302020302020302020302020302020300A20202032342E3535363820202D31332E3736393920202020302E303030302043202020302020302020302020302020302020302020302020302020302020302020302020300A20202032332E3335373620202D31312E3732323120202020302E303030302043202020302020302020302020302020302020302020302020302020302020302020302020300A20202032352E3733373420202D31332E3038313220202020302E303030302043202020302020302020302020302020302020302020302020302020302020302020302020300A20202032342E3534343420202D31312E3033333520202020302E30303030204F202020302020302020302020302020302020302020302020302020302020302020302020300A20202032322E3136343520202D31312E3034353720202020302E30303030204F202020302020302020302020302020302020302020302020302020302020302020302020300A20202032362E3932343320202D31332E3735373620202020302E303030302043202020302020302020302020302020302020302020302020302020302020302020302020300A20202032362E3933303520202D31352E3132323720202020302E30303030204F202020302020302020302020302020302020302020302020302020302020302020302020300A20202032382E3130353020202D31332E3036323920202020302E30303030204F202020302020302020302020302020302020302020302020302020302020302020302020300A2020312020322020322020302020202020302020300A2020312020332020312020302020202020302020300A2020312020342020312020302020202020302020300A2020322020352020312020302020202020302020300A2020322020362020312020302020202020302020300A2020332020372020312020302020202020302020300A2020342020382020322020302020202020302020300A2020352020392020312020302020202020302020300A2020352031302020312020302020202020302020300A2020362031312020312020302020202020302020300A2020362031322020322020302020202020302020300A2020382031332020312020302020202020302020300A2020392031342020312020302020202020302020300A2031342031352020312020302020202020302020300A2031352031362020312020302020202020302020300A2031362031372020312020302020202020302020300A2031362031382020322020302020202020302020300A2031372031392020322020302020202020302020300A2031382032302020312020302020202020302020300A2031392032312020312020302020202020302020300A2032312032322020312020302020202020302020300A2032322032332020312020302020202020302020300A2032322032342020322020302020202020302020300A2032352032332020312020312020202020302020300A2032352032362020312020302020202020302020300A2032352032372020312020302020202020302020300A2032362032382020312020302020202020302020300A2032372032392020312020302020202020302020300A2032372033302020322020302020202020302020300A2032382033312020312020302020202020302020300A2033312033322020312020302020202020302020300A2033312033332020322020302020202020302020300A2020372020392020312020302020202020302020300A2020382031312020312020302020202020302020300A2032302032312020322020302020202020302020300A4D2020454E44
Contributor: MGR
InstType: ESI
InstName: micrOTOF-Q
IoniMethod: ESI
IonPolarity: neg
IsolWidth: 10
TargetGas: Nitrogen
ColEnergy: 10
PeakWidth: 0.03
ChargeDecon: 2
Date: 2010-10-09 19:48:36+02:00
Column: Synergi Fusion RP 2.5 u
Mass: 453.098-470.26
Num Peaks: 4
458.179 999 459.182 247 460.184 42 461.187 5 
