Name: 3-O-Methyl-D-glucopyranose
CAS: 3370-81-8
MW: 194
Formula: C7H14O6
Synonym: CID: 96241
Synonym: MassBank: BD000530
Synonym: 3-O-Methyl-D-glucopyranose
Synonym: 3-O-Methyl-a-D-glucopyranose
Synonym: 3-O-Methyl-alpha-D-glucopyranose
Synonym: 3-O-Methyl-D-Glucose
Synonym: 3-O-Methylglucose
Structure: 31332031332020302020302020312020302020302020302020302020303939392056323030300A20202031352E3132303020202D31352E3139303020202020302E303030302043202020302020302020302020302020302020302020302020302020302020302020302020300A20202031352E3132303020202D31362E3539303020202020302E303030302043202020302020302020302020302020302020302020302020302020302020302020302020300A20202031362E3333323420202D31372E3239303020202020302E303030302043202020302020302020302020302020302020302020302020302020302020302020302020300A20202031372E3534343920202D31362E3539303020202020302E303030302043202020302020302020302020302020302020302020302020302020302020302020302020300A20202031372E3534343920202D31352E3139303020202020302E303030302043202020302020302020302020302020302020302020302020302020302020302020302020300A20202031362E3333323420202D31342E3439303020202020302E30303030204F202020302020302020302020302020302020302020302020302020302020302020302020300A20202031382E3737363020202D31342E3437393020202020302E303030302043202020302020302020302020302020302020302020302020302020302020302020302020300A20202031362E3333323420202D31382E3638393820202020302E30303030204F202020302020302020302020302020302020302020302020302020302020302020302020300A20202031382E3737363020202D31372E3330313020202020302E30303030204F202020302020302020302020302020302020302020302020302020302020302020302020300A20202031332E3930373620202D31372E3239303020202020302E30303030204F202020302020302020302020302020302020302020302020302020302020302020302020300A20202031382E3737363020202D31332E3037393020202020302E30303030204F202020302020302020302020302020302020302020302020302020302020302020302020300A20202031332E3930373620202D31342E3439303020202020302E30303030204F202020302020302020302020302020302020302020302020302020302020302020302020300A20202031352E3334323520202D31392E3637393820202020302E303030302043202020302020302020302020302020302020302020302020302020302020302020302020300A2020312020322020312020302020202020302020300A2020322020332020312020302020202020302020300A2020332020342020312020302020202020302020300A2020342020352020312020302020202020302020300A2020352020362020312020302020202020302020300A2020312020362020312020302020202020302020300A2020352020372020312020362020202020302020300A2020332020382020312020362020202020302020300A2020342020392020312020312020202020302020300A2020322031302020312020312020202020302020300A2020372031312020312020302020202020302020300A2020312031322020312020302020202020302020300A2020382031332020312020302020202020302020300A4D2020454E44
Contributor: MGR
InstType: ESI
InstName: micrOTOF-Q
IoniMethod: ESI
IonPolarity: neg
IsolWidth: 10
TargetGas: Nitrogen
ColEnergy: 10
PeakWidth: 0.028
ChargeDecon: 2
Date: 2010-10-09 19:48:36+02:00
Column: Synergi Fusion RP 2.5 u
Mass: 44.9939-394.899
Num Peaks: 30
71.012 12 75.007 6 85.028 5 87.007 5 89.022 45 90.025 2 95.010 1 101.024 4 113.024 432 114.028 23 
115.029 3 119.034 46 120.037 2 125.024 1 131.035 10 135.036 2 143.034 51 144.037 4 145.048 4 161.046 999 
162.049 66 163.051 11 165.055 9 179.056 26 180.059 2 193.071 53 194.074 4 239.076 136 240.080 12 241.082 3 
