Name: MassBank: BD000970
CAS: 3238-40-2
MW: 156
Formula: C6H4O5
Synonym: CID: 76720
Synonym: MassBank: BD000970
Synonym: 2,5-Furandicarboxylic acid
Synonym: 2,5-Furandicarboxylate
Synonym: 2, 5-Furandicarboxylic acid
Synonym: Dehydromucate
Synonym: Dehydromucic acid
Synonym: Furan 2,5-dicarboxylic acid
Synonym: Furan 2,5-dicarboxylate
Synonym: Furan-2,5-dicarboxylate
Synonym: Furane-a,a'-dicarboxylate
Synonym: Furane-a,a'-dicarboxylic acid
Synonym: Furane-alpha,alpha'-dicarboxylic acid
Structure: 31312031312020302020302020302020302020302020302020302020303939392056323030300A20202031322E3138303020202D31332E3330303020202020302E303030302043202020302020302020302020302020302020302020302020302020302020302020302020300A20202031302E3738303020202D31332E3330303020202020302E303030302043202020302020302020302020302020302020302020302020302020302020302020302020300A20202031302E3334373420202D31342E3633313520202020302E303030302043202020302020302020302020302020302020302020302020302020302020302020302020300A20202031312E3438303020202D31352E3435343420202020302E30303030204F202020302020302020302020302020302020302020302020302020302020302020302020300A20202031322E3631323620202D31342E3633313520202020302E303030302043202020302020302020302020302020302020302020302020302020302020302020302020300A20202031332E3933323220202D31352E3036303320202020302E303030302043202020302020302020302020302020302020302020302020302020302020302020302020300A20202031342E3937363520202D31342E3132303120202020302E30303030204F202020302020302020302020302020302020302020302020302020302020302020302020300A20202020392E3032373820202D31352E3036303320202020302E303030302043202020302020302020302020302020302020302020302020302020302020302020302020300A20202020372E3938333520202D31342E3132303120202020302E30303030204F202020302020302020302020302020302020302020302020302020302020302020302020300A20202020382E3733383920202D31362E3431393420202020302E30303030204F202020302020302020302020302020302020302020302020302020302020302020302020300A20202031342E3232313120202D31362E3431393420202020302E30303030204F202020302020302020302020302020302020302020302020302020302020302020302020300A2020312020322020312020302020202020302020300A2020322020332020322020302020202020302020300A2020332020342020312020302020202020302020300A2020342020352020312020302020202020302020300A2020312020352020322020302020202020302020300A2020352020362020312020302020202020302020300A2020362020372020312020302020202020302020300A2020332020382020312020302020202020302020300A2020382020392020312020302020202020302020300A2020382031302020322020302020202020302020300A2020362031312020322020302020202020302020300A4D2020454E44
Contributor: MGR
InstType: ESI
InstName: micrOTOF-Q
IoniMethod: ESI
IonPolarity: neg
IsolWidth: 10
TargetGas: Nitrogen
ColEnergy: 10
PeakWidth: 0.03
ChargeDecon: 2
Date: 2010-10-09 19:48:36+02:00
Column: Synergi Fusion RP 2.5 u
Mass: 149.959-167.042
Num Peaks: 3
154.999 999 156.002 67 157.003 12 
