Name: N-Methyl-L-glutamicacid
CAS: 6753-62-4
MW: 161
Formula: C6H11NO4
Synonym: CID: 439377
Synonym: MassBank: BD000204
Synonym: N-Methyl-L-glutamicacid
Synonym: 2-(Methylamino)pentanedioic acid
Synonym: N-Methyl-L-glutamate;,
Structure: 31312031302020302020302020312020302020302020302020302020303939392056323030300A20202032332E3138353320202D31342E3932323420202020302E303030302043202020302020302020312020302020302020302020302020302020302020302020302020300A20202032312E3939383620202D31342E3331303520202020302E303030302043202020302020302020302020302020302020302020302020302020302020302020302020300A20202032342E3339303420202D31342E3331363720202020302E303030302043202020302020302020302020302020302020302020302020302020302020302020302020300A20202032332E3139313520202D31362E3337343720202020302E30303030204E202020302020302020302020302020302020302020302020302020302020302020302020300A20202032302E3434313220202D31352E3334323720202020302E303030302043202020302020302020302020302020302020302020302020302020302020302020302020300A20202032352E3533333920202D31352E3032313320202020302E30303030204F202020302020302020302020302020302020302020302020302020302020302020302020300A20202032342E3339303420202D31332E3030303320202020302E30303030204F202020302020302020302020302020302020302020302020302020302020302020302020300A20202032322E3032393620202D31372E3034383420202020302E303030302043202020302020302020302020302020302020302020302020302020302020302020302020300A20202031392E3233363120202D31342E3734333120202020302E303030302043202020302020302020302020302020302020302020302020302020302020302020302020300A20202031392E3236303820202D31332E3433393020202020302E30303030204F202020302020302020302020302020302020302020302020302020302020302020302020300A20202031382E3131373220202D31352E3438343820202020302E30303030204F202020302020302020302020302020302020302020302020302020302020302020302020300A2020312020322020312020302020202020302020300A2020312020332020312020302020202020302020300A2020312020342020312020312020202020302020300A2020322020352020312020302020202020302020300A2020332020362020312020302020202020302020300A2020332020372020322020302020202020302020300A2020342020382020312020302020202020302020300A2020352020392020312020302020202020302020300A2020392031302020312020302020202020302020300A2020392031312020322020302020202020302020300A4D2020454E44
Contributor: BSC
InstType: ESI
InstName: micrOTOF-Q
IoniMethod: ESI
IonPolarity: neg
IsolWidth: 10
TargetGas: Nitrogen
ColEnergy: 10
PeakWidth: 0.03
ChargeDecon: 2
Date: 2010-10-09 19:48:36+02:00
Column: Synergi Fusion RP 2.5 u
Mass: 155.019-172.105
Num Peaks: 3
160.062 999 161.065 71 162.066 10 
