Name: N-Acetylarginine
CAS: 155-84-0
MW: 216
Formula: C8H16N4O3
Synonym: CID: 102807
Synonym: MassBank: BD000172
Synonym: N-Acetylarginine
Synonym: N2-Acetyl-L-arginine ,N-alpha-L-acetyl-arginine ,N-acetyl-L-arginine ,
Structure: 31352031342020302020302020312020302020302020302020302020303939392056323030300A20202032312E3730303020202D31312E3334303020202020302E303030302043202020302020302020302020302020302020302020302020302020302020302020302020300A20202032312E3730303020202D31322E3734303020202020302E303030302043202020302020302020302020302020302020302020302020302020302020302020302020300A20202032302E3438373620202D31332E3434303020202020302E303030302043202020302020302020302020302020302020302020302020302020302020302020302020300A20202032322E3931323420202D31302E3634303020202020302E30303030204E202020302020302020302020302020302020302020302020302020302020302020302020300A20202032302E3438373620202D31302E3634303020202020302E303030302043202020302020302020302020302020302020302020302020302020302020302020302020300A20202032302E3438373520202D31342E3833393820202020302E303030302043202020302020302020302020302020302020302020302020302020302020302020302020300A20202031392E3239313920202D31352E3533303220202020302E30303030204E202020302020302020302020302020302020302020302020302020302020302020302020300A20202031392E3239313920202D31362E3933303220202020302E303030302043202020302020302020302020302020302020302020302020302020302020302020302020300A20202032302E3530343420202D31372E3633303220202020302E30303030204E202020302020302020302020302020302020302020302020302020302020302020302020300A20202031382E3039363620202D31372E3632303720202020302E30303030204E202020302020302020302020302020302020302020302020302020302020302020302020300A20202032342E3132343920202D31312E3334303020202020302E303030302043202020302020302020302020302020302020302020302020302020302020302020302020300A20202032352E3335363020202D31302E3632393020202020302E303030302043202020302020302020302020302020302020302020302020302020302020302020302020300A20202032342E3132353020202D31322E3733393820202020302E30303030204F202020302020302020302020302020302020302020302020302020302020302020302020300A20202031392E3239323120202D31312E3333303420202020302E30303030204F202020302020302020302020302020302020302020302020302020302020302020302020300A20202032302E343837352020202D392E3234303220202020302E30303030204F202020302020302020302020302020302020302020302020302020302020302020302020300A2020312020322020312020302020202020302020300A2020322020332020312020302020202020302020300A2020312020342020312020312020202020302020300A2020312020352020312020302020202020302020300A2020332020362020312020302020202020302020300A2020362020372020312020302020202020302020300A2020372020382020322020302020202020302020300A2020382020392020312020302020202020302020300A2020382031302020312020302020202020302020300A2020342031312020312020302020202020302020300A2031312031322020312020302020202020302020300A2031312031332020322020302020202020302020300A2020352031342020312020302020202020302020300A2020352031352020322020302020202020302020300A4D2020454E44
Contributor: BSC
InstType: ESI
InstName: micrOTOF-Q
IoniMethod: ESI
IonPolarity: pos
MSMS: 2
IsolWidth: 10
TargetGas: Nitrogen
ColEnergy: 10
PeakWidth: 0.028
ChargeDecon: 2
Date: 2010-10-09 19:48:36+02:00
Column: Synergi Fusion RP 2.5 u
Mass: 44.798-395.03
Num Peaks: 29
70.067 214 71.055 29 72.082 38 74.025 17 88.074 27 95.060 33 97.076 23 111.092 11 112.080 223 113.075 59 
114.094 139 115.087 258 116.071 427 117.074 23 130.095 80 139.087 19 140.075 24 154.097 26 157.098 138 158.084 999 
159.086 80 175.118 267 176.121 23 182.092 11 199.119 12 200.104 112 201.107 12 217.130 252 218.134 30 
