Name: (DL) isocitric acid
CAS: 320-77-4
MW: 192
Formula: C6H8O7
Synonym: CID: 1198
Synonym: MassBank: BD000881
Synonym: (DL) isocitric acid
Synonym: 1-Hydroxytricarballylic acid
Synonym: Isocitrate
Synonym: 1-Hydroxypropane-1,2,3-tricarboxylic acid
Synonym: D,L-Isocitric acid
Structure: 31332031322020302020302020302020302020302020302020302020303939392056323030300A20202032322E3438363620202D31342E3639303220202020302E303030302043202020302020302020332020302020302020302020302020302020302020302020302020300A20202032332E3639323720202D31352E3339313520202020302E303030302043202020302020302020332020302020302020302020302020302020302020302020302020300A20202032312E3237333420202D31352E3339313520202020302E303030302043202020302020302020302020302020302020302020302020302020302020302020302020300A20202032322E3438363620202D31332E3239333320202020302E303030302043202020302020302020302020302020302020302020302020302020302020302020302020300A20202032332E3639323720202D31362E3739343220202020302E303030302043202020302020302020302020302020302020302020302020302020302020302020302020300A20202032342E3931313520202D31342E3639303220202020302E30303030204F202020302020302020302020302020302020302020302020302020302020302020302020300A20202032302E3036313620202D31342E3639303220202020302E303030302043202020302020302020302020302020302020302020302020302020302020302020302020300A20202032332E3639383420202D31322E3539373820202020302E30303030204F202020302020302020302020302020302020302020302020302020302020302020302020300A20202032312E3236373620202D31322E3539373820202020302E30303030204F202020302020302020302020302020302020302020302020302020302020302020302020300A20202032322E3438363620202D31372E3438393920202020302E30303030204F202020302020302020302020302020302020302020302020302020302020302020302020300A20202032342E3931313520202D31372E3438393920202020302E30303030204F202020302020302020302020302020302020302020302020302020302020302020302020300A20202032302E3036373320202D31332E3239333320202020302E30303030204F202020302020302020302020302020302020302020302020302020302020302020302020300A20202031382E3834383420202D31352E3339373520202020302E30303030204F202020302020302020302020302020302020302020302020302020302020302020302020300A2020312020322020312020302020202020302020300A2020312020332020312020302020202020302020300A2020312020342020312020302020202020302020300A2020322020352020312020302020202020302020300A2020322020362020312020302020202020302020300A2020332020372020312020302020202020302020300A2020342020382020312020302020202020302020300A2020342020392020322020302020202020302020300A2020352031302020312020302020202020302020300A2020352031312020322020302020202020302020300A2020372031322020312020302020202020302020300A2020372031332020322020302020202020302020300A4D2020454E44
Contributor: MGR
InstType: ESI
InstName: micrOTOF-Q
IoniMethod: ESI
IonPolarity: pos
MSMS: 2
IsolWidth: 10
TargetGas: Nitrogen
ColEnergy: 9
PeakWidth: 0.027
ChargeDecon: 2
Date: 2010-10-09 19:48:36+02:00
Column: Synergi Fusion RP 2.5 u
Mass: 44.7887-395.024
Num Peaks: 10
83.012 55 101.023 464 129.018 999 130.022 66 147.029 174 157.012 107 175.025 358 193.034 79 194.120 54 195.088 54 
