Name: Myo-inositol
CAS: 87-89-8
MW: 180
Formula: C6H12O6
Synonym: CID: 892
Synonym: MassBank: BD000162
Synonym: Myo-inositol
Synonym: Inositol,i-inositol  ,inositol-myo,meso-inositol,Dambose,mesoinositol  ,iso-inositol,Phaseomannitol,Phaseomannite,Mesoinosit,Mesoinosite,1,2,3,5/4,6-hexahydroxycyclohexane,,
Structure: 31322031322020302020302020312020302020302020302020302020303939392056323030300A20202032302E3735363620202D31342E3336373220202020302E303030302043202020302020302020312020302020302020302020302020302020302020302020302020300A20202032312E3933373720202D31332E3638323520202020302E303030302043202020302020302020312020302020302020302020302020302020302020302020302020300A20202032302E3735363620202D31352E3734393420202020302E303030302043202020302020302020312020302020302020302020302020302020302020302020302020300A20202031392E3336333820202D31332E3734373120202020302E30303030204F202020302020302020302020302020302020302020302020302020302020302020302020300A20202032332E3133373520202D31342E3336373220202020302E303030302043202020302020302020322020302020302020302020302020302020302020302020302020300A20202032312E3933313420202D31322E3331393320202020302E30303030204F202020302020302020302020302020302020302020302020302020302020302020302020300A20202032312E3933373720202D31362E3434363620202020302E303030302043202020302020302020312020302020302020302020302020302020302020302020302020300A20202031392E3432393320202D31362E3432373820202020302E30303030204F202020302020302020302020302020302020302020302020302020302020302020302020300A20202032332E3133373520202D31352E3734393420202020302E303030302043202020302020302020312020302020302020302020302020302020302020302020302020300A20202032342E3338383620202D31332E3638323520202020302E30303030204F202020302020302020302020302020302020302020302020302020302020302020302020300A20202032312E3933313420202D31372E3830393720202020302E30303030204F202020302020302020302020302020302020302020302020302020302020302020302020300A20202032342E3331383620202D31362E3432373820202020302E30303030204F202020302020302020302020302020302020302020302020302020302020302020302020300A2020312020322020312020302020202020302020300A2020312020332020312020302020202020302020300A2020312020342020312020312020202020302020300A2020322020352020312020302020202020302020300A2020322020362020312020362020202020302020300A2020332020372020312020302020202020302020300A2020332020382020312020312020202020302020300A2020352020392020312020302020202020302020300A2020352031302020312020312020202020302020300A2020372031312020312020312020202020302020300A2020392031322020312020362020202020302020300A2020372020392020312020302020202020302020300A4D2020454E44
Contributor: BSC
InstType: ESI
InstName: micrOTOF-Q
IoniMethod: ESI
IonPolarity: pos
IsolWidth: 10
TargetGas: Nitrogen
ColEnergy: 10
PeakWidth: 0.023
ChargeDecon: 2
Date: 2010-10-09 19:48:36+02:00
Column: Synergi Fusion RP 2.5 u
Mass: 44.7991-395.04
Num Peaks: 39
81.0343 14 109.0282 55 120.0643 6 127.0393 19 137.0279 6 144.0807 8 145.0494 18 149.0237 14 152.0697 19 161.0475 16 
163.0591 55 165.0743 7 170.0816 43 171.0322 6 181.0707 999 182.0736 63 183.0759 14 189.0398 25 194.1162 9 198.0970 24 
199.0815 135 200.0756 11 203.0519 74 204.0546 6 207.0448 6 208.0327 31 208.5335 6 209.0421 8 217.1259 11 221.0640 8 
224.1282 20 280.9977 16 281.1030 8 290.0800 12 298.0666 23 298.5674 7 361.1375 204 362.1412 29 363.1447 6 
