Name: 2-Methoxyestrone
CAS: 362-08-3
MW: 300
Formula: C19H24O3
Synonym: CID: 9686
Synonym: MassBank: BD000465
Synonym: 2-Methoxyestrone
Synonym: 2-Hydroxyestrone 2-methyl ether
Synonym: 3-Hydroxy-2-methoxy-Estra-1,3,5(10)-trien-17-one
Synonym: 2,3-Dihydroxy-1,3,5(10)-estratrien-17-one 2-methyl ether
Synonym: 2-Methoxy-17-oxoestra-1,3,5(10)-trien-3-ol
Synonym: 2-Methoxy-3-hydroxyestra-1,3,5(10)-trien-17-one
Synonym: 3-Hydroxy-2-methoxy-13-methyl-7,8,9,11,12,14,15,16-octahydro-6H-cyclopenta[a]phenanthren-17-one
Synonym: 3-Hydroxy-2-methoxy-1,3,5(10)-estratrien-17-one
Synonym: 3-Hydroxy-2-methoxyestra-1,3,5(10)-trien-17-one
Synonym: Methoxy-Estrone
Structure: 32352032382020302020302020312020302020302020302020302020303939392056323030300A20202032322E3939333820202D31332E3230383920202020302E303030302043202020302020302020312020302020302020302020302020302020302020302020302020300A20202032342E3231353120202D31332E3835343720202020302E303030302043202020302020302020322020302020302020302020302020302020302020302020302020300A20202032312E3836313120202D31332E3837303320202020302E303030302043202020302020302020302020302020302020302020302020302020302020302020302020300A20202032322E3937383220202D31312E3832363220202020302E303030302043202020302020302020302020302020302020302020302020302020302020302020302020300A20202032352E3430353120202D31332E3139303720202020302E303030302043202020302020302020312020302020302020302020302020302020302020302020302020300A20202032342E3231353120202D31352E3232313720202020302E303030302043202020302020302020302020302020302020302020302020302020302020302020302020300A20202032312E3834323920202D31352E3234323620202020302E303030302043202020302020302020302020302020302020302020302020302020302020302020302020300A20202032302E3633393920202D31332E3139303720202020302E303030302043202020302020302020302020302020302020302020302020302020302020302020302020300A20202032342E3136353720202D31312E3135393520202020302E303030302043202020302020302020302020302020302020302020302020302020302020302020302020300A20202032352E3430353120202D31312E3834373020202020302E303030302043202020302020302020322020302020302020302020302020302020302020302020302020300A20202032362E3730343520202D31332E3539393520202020302E303030302043202020302020302020302020302020302020302020302020302020302020302020302020300A20202032332E3036313620202D31352E3933373820202020302E303030302043202020302020302020302020302020302020302020302020302020302020302020302020300A20202032302E3633393920202D31352E3932343820202020302E303030302043202020302020302020302020302020302020302020302020302020302020302020302020300A20202031392E3437303720202D31332E3837303320202020302E303030302043202020302020302020302020302020302020302020302020302020302020302020302020300A20202032362E3733383320202D31312E3430363920202020302E303030302043202020302020302020302020302020302020302020302020302020302020302020302020300A20202032352E3639363820202D31302E3439353520202020302E303030302043202020302020302020302020302020302020302020302020302020302020302020302020300A20202032372E3530333920202D31322E3436313620202020302E303030302043202020302020302020302020302020302020302020302020302020302020302020302020300A20202031392E3437303720202D31352E3235353620202020302E303030302043202020302020302020302020302020302020302020302020302020302020302020302020300A20202031382E3331343520202D31332E3137373620202020302E30303030204F202020302020302020302020302020302020302020302020302020302020302020302020300A20202032372E3232323720202D31302E3036353820202020302E30303030204F202020302020302020302020302020302020302020302020302020302020302020302020300A20202031382E3233333820202D31352E3937343320202020302E30303030204F202020302020302020302020302020302020302020302020302020302020302020302020300A20202031382E3334353820202D31312E3831303520202020302E303030302043202020302020302020302020302020302020302020302020302020302020302020302020300A20202032332E3034303720202D31342E3738343320202020302E303030302048202020302020302020302020302020302020302020302020302020302020302020302020300A20202032342E3139363920202D31322E3230313120202020302E303030302048202020302020302020302020302020302020302020302020302020302020302020302020300A20202032352E3436373620202D31342E3831383120202020302E303030302048202020302020302020302020302020302020302020302020302020302020302020302020300A2020312020322020312020302020202020302020300A2020312020332020312020302020202020302020300A2020312020342020312020302020202020302020300A2020322020352020312020302020202020302020300A2020322020362020312020302020202020302020300A2020332020372020322020302020202020302020300A2020332020382020312020302020202020302020300A2020342020392020312020302020202020302020300A2020352031302020312020302020202020302020300A2020352031312020312020302020202020302020300A2020362031322020312020302020202020302020300A2020372031332020312020302020202020302020300A2020382031342020322020302020202020302020300A2031302031352020312020302020202020302020300A2031302031362020312020312020202020302020300A2031312031372020312020302020202020302020300A2031332031382020322020302020202020302020300A2031342031392020312020302020202020302020300A2031352032302020322020302020202020302020300A2031382032312020312020302020202020302020300A2031392032322020312020302020202020302020300A2020372031322020312020302020202020302020300A2020392031302020312020302020202020302020300A2031342031382020312020302020202020302020300A2031352031372020312020302020202020302020300A2020312032332020312020362020202020302020300A2020322032342020312020312020202020302020300A2020352032352020312020362020202020302020300A4D2020454E44
Contributor: MGR
InstType: ESI
InstName: micrOTOF-Q
IoniMethod: ESI
IonPolarity: neg
IsolWidth: 10
TargetGas: Nitrogen
ColEnergy: 10
PeakWidth: 0.023
ChargeDecon: 2
Date: 2010-10-09 19:48:36+02:00
Column: Synergi Fusion RP 2.5 u
Mass: 44.992-394.885
Num Peaks: 17
112.9853 21 116.9284 4 180.9765 8 195.1372 9 230.9886 5 239.1285 9 248.9590 7 284.1398 47 285.1427 8 293.1737 7 
297.1473 34 298.1523 8 299.1629 999 300.1662 181 301.1691 23 367.1496 85 368.1524 17 
