Name: Hordenine
CAS: 539-15-1
MW: 165
Formula: C10H15NO
Synonym: CID: 68313
Synonym: MassBank: BD000346
Synonym: Hordenine
Synonym: Anhalin
Synonym: 4-[2-(Dimethylamino)ethyl]phenol,4-(2-dimethylaminoethyl)phenol ,Anhalin ,Anhaline ,Cactine ,Eremursine ,Hordenin ,Hordetin ,N,N-dimethyl-p-hydroxyphenethylamine ,N,N-dimethyltyramine ,Ordenina ,Ordenine ,Peyocactine ,p-(2-dimethylaminoethyl)phenol ,p-hydroxy-N,N-dimethylphenethylamine ,p-[2-(dimethylamino)ethyl]phenol
Synonym: p-Hydroxy-N,N-dimethylphenethylamine
Synonym: 4-[2-(Dimethylamino)ethyl]phenol
Synonym: N,N-Dimethyl-p-hydroxyphenethylamine
Synonym: Anhaline
Synonym: Hordenin
Synonym: Cactine
Synonym: Eremursine
Synonym: Ordenina
Synonym: Hordetin
Synonym: 4-(2-Dimethylaminoethyl)phenol
Synonym: Ordenine
Synonym: N,N-Dimethyltyramine
Synonym: Peyocactine
Synonym: p-(2-Dimethylaminoethyl)phenol
Structure: 31322031322020302020302020302020302020302020302020302020303939392056323030300A20202032312E3839343020202D31352E3634373320202020302E303030302043202020302020302020302020302020302020302020302020302020302020302020302020300A20202032312E3138333920202D31342E3434363620202020302E303030302043202020302020302020302020302020302020302020302020302020302020302020302020300A20202032312E3139303320202D31362E3835343520202020302E303030302043202020302020302020302020302020302020302020302020302020302020302020302020300A20202032332E3238383420202D31352E3635333720202020302E303030302043202020302020302020302020302020302020302020302020302020302020302020302020300A20202031392E3737363720202D31342E3434363620202020302E303030302043202020302020302020302020302020302020302020302020302020302020302020302020300A20202031392E3738393620202D31362E3838303320202020302E303030302043202020302020302020302020302020302020302020302020302020302020302020302020300A20202032332E3939323120202D31342E3435333120202020302E303030302043202020302020302020302020302020302020302020302020302020302020302020302020300A20202031392E3037393520202D31352E3636363620202020302E303030302043202020302020302020302020302020302020302020302020302020302020302020302020300A20202032352E3339333020202D31342E3436363020202020302E30303030204E202020302020302020332020302020302020302020302020302020302020302020302020300A20202031372E3637323120202D31352E3636303320202020302E30303030204F202020302020302020302020302020302020302020302020302020302020302020302020300A20202032362E3037373220202D31352E3637393520202020302E303030302043202020302020302020302020302020302020302020302020302020302020302020302020300A20202032362E3130333120202D31332E3235383720202020302E303030302043202020302020302020302020302020302020302020302020302020302020302020302020300A2020312020322020312020302020202020302020300A2020312020332020322020302020202020302020300A2020312020342020312020302020202020302020300A2020322020352020322020302020202020302020300A2020332020362020312020302020202020302020300A2020342020372020312020302020202020302020300A2020352020382020312020302020202020302020300A2020372020392020312020302020202020302020300A2020382031302020312020302020202020302020300A2020392031312020312020302020202020302020300A2020392031322020312020302020202020302020300A2020362020382020322020302020202020302020300A4D2020454E44
Contributor: BSC
InstType: ESI
InstName: micrOTOF-Q
IoniMethod: ESI
IonPolarity: pos
MSMS: 2
IsolWidth: 10
TargetGas: Nitrogen
ColEnergy: 10
PeakWidth: 0.029
ChargeDecon: 2
Date: 2010-10-09 19:48:36+02:00
Column: Synergi Fusion RP 2.5 u
Mass: 44.9439-395.143
Num Peaks: 13
77.039 7 91.054 37 93.070 81 94.074 9 95.047 14 103.054 75 105.045 8 108.015 11 121.065 999 122.069 94 
123.991 16 152.964 14 166.122 27 
