Name: Lipoicacid
CAS: 62-46-4
MW: 206
Formula: C8H14O2S2
Synonym: CID: 864
Synonym: MassBank: BD000105
Synonym: Lipoicacid
Synonym: (Oct)-1,2-Dithiolane-3-pentanoic acid,6,8-Dithiooctanoic acid,DL-6,8-Thioctic acid,Lipoate,alpha-Lipoic acid,Thioctic acid,5-[(3S)-Dithiolan-3-yl]pentanoic acid
Structure: 31322031322020302020302020302020302020302020302020302020303939392056323030300A20202031382E3931303720202D31332E3337373720202020302E303030302053202020302020302020302020302020302020302020302020302020302020302020302020300A20202031372E3530393720202D31332E3337373720202020302E303030302053202020302020302020302020302020302020302020302020302020302020302020302020300A20202031372E3037363920202D31342E3731303120202020302E303030302043202020302020302020302020302020302020302020302020302020302020302020302020300A20202031382E3231303220202D31352E3533333620202020302E303030302043202020302020302020302020302020302020302020302020302020302020302020302020300A20202031392E3334333620202D31342E3731303120202020302E303030302043202020302020302020302020302020302020302020302020302020302020302020302020300A20202032302E3534343320202D31352E3430393120202020302E303030302043202020302020302020302020302020302020302020302020302020302020302020302020300A20202032312E3735373620202D31342E3730383620202020302E303030302043202020302020302020302020302020302020302020302020302020302020302020302020300A20202032322E3937303820202D31352E3430393120202020302E303030302043202020302020302020302020302020302020302020302020302020302020302020302020300A20202032342E3138343020202D31342E3730383620202020302E303030302043202020302020302020302020302020302020302020302020302020302020302020302020300A20202032352E3339373420202D31352E3430393120202020302E303030302043202020302020302020302020302020302020302020302020302020302020302020302020300A20202032362E3631303620202D31342E3730383620202020302E30303030204F202020302020302020302020302020302020302020302020302020302020302020302020300A20202032352E3339373420202D31362E3831303220202020302E30303030204F202020302020302020302020302020302020302020302020302020302020302020302020300A2020312020322020312020302020202020302020300A2020322020332020312020302020202020302020300A2020332020342020312020302020202020302020300A2020342020352020312020302020202020302020300A2020312020352020312020302020202020302020300A2020352020362020312020302020202020302020300A2020362020372020312020302020202020302020300A2020372020382020312020302020202020302020300A2020382020392020312020302020202020302020300A2020392031302020312020302020202020302020300A2031302031312020312020302020202020302020300A2031302031322020322020302020202020302020300A4D2020454E44
Contributor: BSC
InstType: ESI
InstName: micrOTOF-Q
IoniMethod: ESI
IonPolarity: pos
MSMS: 2
IsolWidth: 10
TargetGas: Nitrogen
ColEnergy: 10
PeakWidth: 0.029
ChargeDecon: 2
Date: 2010-10-09 19:48:36+02:00
Column: Synergi Fusion RP 2.5 u
Mass: 44.7971-395.015
Num Peaks: 56
67.057 18 73.012 22 77.039 9 78.049 9 78.968 17 79.056 65 80.061 9 81.070 45 85.011 84 87.026 44 
91.054 68 92.058 8 93.070 353 94.073 31 95.085 230 96.088 19 97.010 10 99.026 34 101.042 999 102.045 71 
102.967 15 103.040 44 104.983 350 105.068 128 105.985 18 106.077 102 106.979 33 107.084 44 109.011 10 110.018 29 
111.026 51 113.038 9 115.057 54 118.999 34 123.080 39 125.041 22 127.057 934 128.060 80 128.983 8 129.054 42 
135.026 27 137.041 146 138.049 141 139.048 18 140.045 7 142.997 11 145.014 14 147.028 31 155.053 12 161.045 331 
162.048 34 163.042 38 171.029 112 172.033 13 173.025 11 189.039 17 
