Name: Chlorogenic acid
CAS: 327-97-9
MW: 354
Formula: C16H18O9
Synonym: CID: 348159
Synonym: MassBank: BD000772
Synonym: Chlorogenic acid
Synonym: Chlorogenate
Synonym: 3-(3,4-Dihydroxycinnamoyl)quinic acid
Synonym: 3-Caffeoylquinic acid
Synonym: 3-O-Caffeoylquinic acid
Synonym: 5-O-(3,4-Dihydroxycinnamoyl)-L-quinic acid
Structure: 32352032362020302020302020312020302020302020302020302020303939392056323030300A20202032342E3739393020202D31362E3436363220202020302E303030302043202020302020302020302020302020302020302020302020302020302020302020302020300A20202032342E3739393020202D31372E3836373220202020302E303030302043202020302020302020302020302020302020302020302020302020302020302020302020300A20202032362E3031323420202D31382E3536373820202020302E303030302043202020302020302020302020302020302020302020302020302020302020302020302020300A20202032372E3232353820202D31372E3836373220202020302E303030302043202020302020302020302020302020302020302020302020302020302020302020302020300A20202032372E3232353820202D31362E3436363220202020302E303030302043202020302020302020302020302020302020302020302020302020302020302020302020300A20202032362E3031323420202D31352E3736353720202020302E303030302043202020302020302020302020302020302020302020302020302020302020302020302020300A20202032382E3435373820202D31352E3735343720202020302E30303030204F202020302020302020302020302020302020302020302020302020302020302020302020300A20202032382E3435373820202D31382E3537383820202020302E30303030204F202020302020302020302020302020302020302020302020302020302020302020302020300A20202032332E3538353720202D31352E3736353720202020302E303030302043202020302020302020302020302020302020302020302020302020302020302020302020300A20202032322E3338393320202D31362E3435363620202020302E303030302043202020302020302020302020302020302020302020302020302020302020302020302020300A20202032312E3230313020202D31352E3737303620202020302E303030302043202020302020302020302020302020302020302020302020302020302020302020302020300A20202032302E3030383920202D31362E3435393120202020302E30303030204F202020302020302020302020302020302020302020302020302020302020302020302020300A20202032312E3230303820202D31342E3336343820202020302E30303030204F202020302020302020302020302020302020302020302020302020302020302020302020300A20202031382E3831383520202D31352E3737313920202020302E303030302043202020302020302020302020302020302020302020302020302020302020302020302020300A20202031382E3831383320202D31342E3336343820202020302E303030302043202020302020302020302020302020302020302020302020302020302020302020302020300A20202031372E3630343920202D31332E3636343520202020302E303030302043202020302020302020302020302020302020302020302020302020302020302020302020300A20202031362E3339313720202D31342E3336353120202020302E303030302043202020302020302020302020302020302020302020302020302020302020302020302020300A20202031362E3339313820202D31352E3737323220202020302E303030302043202020302020302020302020302020302020302020302020302020302020302020302020300A20202031372E3630353220202D31362E3437323520202020302E303030302043202020302020302020302020302020302020302020302020302020302020302020302020300A20202031352E3138323020202D31362E3437303820202020302E30303030204F202020302020302020302020302020302020302020302020302020302020302020302020300A20202031372E3630353320202D31372E3836373020202020302E30303030204F202020302020302020302020302020302020302020302020302020302020302020302020300A20202031382E3831383320202D31322E3936333920202020302E303030302043202020302020302020302020302020302020302020302020302020302020302020302020300A20202031362E3339313620202D31322E3936333920202020302E30303030204F202020302020302020302020302020302020302020302020302020302020302020302020300A20202031382E3831383320202D31312E3536323920202020302E30303030204F202020302020302020302020302020302020302020302020302020302020302020302020300A20202032302E3035313020202D31332E3637353920202020302E30303030204F202020302020302020302020302020302020302020302020302020302020302020302020300A2020312020322020322020302020202020302020300A2020322020332020312020302020202020302020300A2020332020342020322020302020202020302020300A2020342020352020312020302020202020302020300A2020352020362020322020302020202020302020300A2020312020362020312020302020202020302020300A2020352020372020312020302020202020302020300A2020342020382020312020302020202020302020300A2020312020392020312020302020202020302020300A2020392031302020322020302020202020302020300A2031302031312020312020302020202020302020300A2031312031322020312020302020202020302020300A2031312031332020322020302020202020302020300A2031342031322020312020312020202020302020300A2031342031352020312020302020202020302020300A2031352031362020312020302020202020302020300A2031362031372020312020302020202020302020300A2031372031382020312020302020202020302020300A2031382031392020312020302020202020302020300A2031342031392020312020302020202020302020300A2031382032302020312020362020202020302020300A2031392032312020312020362020202020302020300A2031362032322020312020312020202020302020300A2031362032332020312020362020202020302020300A2032322032342020312020302020202020302020300A2032322032352020322020302020202020302020300A4D2020454E44
Contributor: MGR
InstType: ESI
InstName: micrOTOF-Q
IoniMethod: ESI
IonPolarity: pos
MSMS: 2
IsolWidth: 10
TargetGas: Nitrogen
ColEnergy: 26
PeakWidth: 0.026
ChargeDecon: 2
Date: 2010-10-09 19:48:36+02:00
Column: Synergi Fusion RP 2.5 u
Mass: 44.7883-395.023
Num Peaks: 9
111.044 8 117.034 9 135.044 47 136.047 5 145.029 37 163.039 999 164.042 92 165.043 9 181.051 9 
