Name: 3-Methylglutaconic acid
CAS: 5746-90-7
MW: 144
Formula: C6H8O4
Synonym: CID: 99884
Synonym: MassBank: BD000513
Synonym: 3-Methylglutaconic acid
Synonym: 3-Methyl-2-pentenedioic acid
Structure: 31302020392020302020302020302020302020302020302020302020303939392056323030300A20202020392E3130303020202D31332E3538303020202020302E30303030204F202020302020302020302020302020302020302020302020302020302020302020302020300A20202031302E3331323420202D31342E3238303020202020302E303030302043202020302020302020302020302020302020302020302020302020302020302020302020300A20202031312E3532343920202D31332E3538303020202020302E303030302043202020302020302020302020302020302020302020302020302020302020302020302020300A20202031322E3733373320202D31342E3238303020202020302E303030302043202020302020302020302020302020302020302020302020302020302020302020302020300A20202031332E3934393720202D31332E3538303020202020302E303030302043202020302020302020302020302020302020302020302020302020302020302020302020300A20202031352E3136323220202D31342E3238303020202020302E303030302043202020302020302020302020302020302020302020302020302020302020302020302020300A20202031362E3337343620202D31332E3538303020202020302E30303030204F202020302020302020302020302020302020302020302020302020302020302020302020300A20202031302E3331323420202D31352E3637393820202020302E30303030204F202020302020302020302020302020302020302020302020302020302020302020302020300A20202031352E3136323220202D31352E3637393720202020302E30303030204F202020302020302020302020302020302020302020302020302020302020302020302020300A20202031322E3733373320202D31352E3638303020202020302E303030302043202020302020302020302020302020302020302020302020302020302020302020302020300A2020312020322020312020302020202020302020300A2020322020332020312020302020202020302020300A2020332020342020322020302020202020302020300A2020342020352020312020302020202020302020300A2020352020362020312020302020202020302020300A2020362020372020312020302020202020302020300A2020322020382020322020302020202020302020300A2020362020392020322020302020202020302020300A2020342031302020312020302020202020302020300A4D2020454E44
Contributor: MGR
InstType: ESI
InstName: micrOTOF-Q
IoniMethod: ESI
IonPolarity: pos
IsolWidth: 10
TargetGas: Nitrogen
ColEnergy: 10
PeakWidth: 0.027
ChargeDecon: 2
Date: 2010-10-09 19:48:36+02:00
Column: Synergi Fusion RP 2.5 u
Mass: 44.79-395.033
Num Peaks: 16
81.033 28 99.044 222 100.047 14 109.028 35 127.039 545 128.042 39 129.044 5 145.049 999 146.053 64 147.054 10 
167.031 275 168.035 19 342.010 10 343.016 62 344.017 9 345.034 8 
