Name: Dihydroxyfumaric acid
CAS: 133-38-0
MW: 148
Formula: C4H4O6
Synonym: CID: 8618
Synonym: MassBank: BD000407
Synonym: Dihydroxyfumaric acid
Synonym: (2E)-2,3-Dihydroxybut-2-enedioic acid,3,4,4-trihydroxy-2-oxo-but-3-enoic acid
Synonym: Dihydroxyfumarate
Structure: 31302020392020302020302020302020302020302020302020302020303939392056323030300A20202032312E3135373020202D31352E3032383720202020302E303030302043202020302020302020302020302020302020302020302020302020302020302020302020300A20202032322E3535333320202D31352E3032383720202020302E303030302043202020302020302020302020302020302020302020302020302020302020302020302020300A20202032302E3436353420202D31332E3832343820202020302E303030302043202020302020302020302020302020302020302020302020302020302020302020302020300A20202032302E3339353820202D31362E3330323320202020302E30303030204F202020302020302020302020302020302020302020302020302020302020302020302020300A20202032332E3235313120202D31362E3233323720202020302E303030302043202020302020302020302020302020302020302020302020302020302020302020302020300A20202032332E3235313120202D31332E3839343420202020302E30303030204F202020302020302020302020302020302020302020302020302020302020302020302020300A20202032312E3136333620202D31322E3639303320202020302E30303030204F202020302020302020302020302020302020302020302020302020302020302020302020300A20202031392E3036393520202D31332E3832343820202020302E30303030204F202020302020302020302020302020302020302020302020302020302020302020302020300A20202032322E3437373120202D31372E3530363420202020302E30303030204F202020302020302020302020302020302020302020302020302020302020302020302020300A20202032342E3634303820202D31362E3233323720202020302E30303030204F202020302020302020302020302020302020302020302020302020302020302020302020300A2020312020322020322020302020202020302020300A2020312020332020312020302020202020302020300A2020312020342020312020302020202020302020300A2020322020352020312020302020202020302020300A2020322020362020312020302020202020302020300A2020332020372020312020302020202020302020300A2020332020382020322020302020202020302020300A2020352020392020312020302020202020302020300A2020352031302020322020302020202020302020300A4D2020454E44
Contributor: MGR
InstType: ESI
InstName: micrOTOF-Q
IoniMethod: ESI
IonPolarity: neg
IsolWidth: 10
TargetGas: Nitrogen
ColEnergy: 10
PeakWidth: 0.029
ChargeDecon: 2
Date: 2010-10-09 19:48:36+02:00
Column: Synergi Fusion RP 2.5 u
Mass: 44.9926-394.886
Num Peaks: 9
100.987 7 103.003 578 104.006 21 105.008 6 118.999 16 144.978 8 146.994 999 147.996 49 148.998 14 
