Name: Erythritol
CAS: 149-32-6
MW: 122
Formula: C4H10O4
Synonym: CID: 8998
Synonym: MassBank: BD000425
Synonym: Erythritol
Synonym: Erythrol
Synonym: 1,2,3,4-Butanetetrol
Synonym: Butane-1,2,3,4-tetro
Synonym: Erythrite
Synonym: Meso-1,2,3,4-tetrahydroxybutane
Synonym: i-Erythritol
Synonym: Phycite
Synonym: Phycitol
Synonym: Meso-Erythritol
Structure: 382020372020302020302020302020302020302020302020302020303939392056323030300A20202032312E3037393720202D31342E3335333320202020302E303030302043202020302020302020332020302020302020302020302020302020302020302020302020300A20202032312E3037393720202D31352E3735333020202020302E303030302043202020302020302020332020302020302020302020302020302020302020302020302020300A20202032322E3238363020202D31332E3634333920202020302E303030302043202020302020302020302020302020302020302020302020302020302020302020302020300A20202032302E3038363520202D31332E3336303120202020302E30303030204F202020302020302020302020302020302020302020302020302020302020302020302020300A20202032322E3238363020202D31362E3435353920202020302E303030302043202020302020302020302020302020302020302020302020302020302020302020302020300A20202032302E3038303120202D31362E3734363220202020302E30303030204F202020302020302020302020302020302020302020302020302020302020302020302020300A20202032332E3633333920202D31332E3939383520202020302E30303030204F202020302020302020302020302020302020302020302020302020302020302020302020300A20202032332E3633333920202D31362E3038383420202020302E30303030204F202020302020302020302020302020302020302020302020302020302020302020302020300A2020312020322020312020302020202020302020300A2020312020332020312020302020202020302020300A2020312020342020312020302020202020302020300A2020322020352020312020302020202020302020300A2020322020362020312020302020202020302020300A2020332020372020312020302020202020302020300A2020352020382020312020302020202020302020300A4D2020454E44
Contributor: MGR
InstType: ESI
InstName: micrOTOF-Q
IoniMethod: ESI
IonPolarity: neg
IsolWidth: 10
TargetGas: Nitrogen
ColEnergy: 10
PeakWidth: 0.029
ChargeDecon: 2
Date: 2010-10-09 19:48:36+02:00
Column: Synergi Fusion RP 2.5 u
Mass: 44.9895-394.868
Num Peaks: 18
88.039 15 89.023 16 95.061 5 101.023 15 102.054 11 103.039 3 119.034 6 121.050 283 122.044 12 124.991 4 
130.995 4 141.066 999 142.068 71 143.069 7 151.060 49 152.061 3 157.061 52 158.064 3 
