Name: Erythritol
CAS: 149-32-6
MW: 122
Formula: C4H10O4
Synonym: CID: 8998
Synonym: MassBank: BD000429
Synonym: Erythritol
Synonym: Erythrol
Synonym: 1,2,3,4-Butanetetrol
Synonym: Butane-1,2,3,4-tetro
Synonym: Erythrite
Synonym: Meso-1,2,3,4-tetrahydroxybutane
Synonym: i-Erythritol
Synonym: Phycite
Synonym: Phycitol
Synonym: Meso-Erythritol
Structure: 382020372020302020302020302020302020302020302020302020303939392056323030300A20202032312E3037393720202D31342E3335333320202020302E303030302043202020302020302020332020302020302020302020302020302020302020302020302020300A20202032312E3037393720202D31352E3735333020202020302E303030302043202020302020302020332020302020302020302020302020302020302020302020302020300A20202032322E3238363020202D31332E3634333920202020302E303030302043202020302020302020302020302020302020302020302020302020302020302020302020300A20202032302E3038363520202D31332E3336303120202020302E30303030204F202020302020302020302020302020302020302020302020302020302020302020302020300A20202032322E3238363020202D31362E3435353920202020302E303030302043202020302020302020302020302020302020302020302020302020302020302020302020300A20202032302E3038303120202D31362E3734363220202020302E30303030204F202020302020302020302020302020302020302020302020302020302020302020302020300A20202032332E3633333920202D31332E3939383520202020302E30303030204F202020302020302020302020302020302020302020302020302020302020302020302020300A20202032332E3633333920202D31362E3038383420202020302E30303030204F202020302020302020302020302020302020302020302020302020302020302020302020300A2020312020322020312020302020202020302020300A2020312020332020312020302020202020302020300A2020312020342020312020302020202020302020300A2020322020352020312020302020202020302020300A2020322020362020312020302020202020302020300A2020332020372020312020302020202020302020300A2020352020382020312020302020202020302020300A4D2020454E44
Contributor: MGR
InstType: ESI
InstName: micrOTOF-Q
IoniMethod: ESI
IonPolarity: pos
IsolWidth: 10
TargetGas: Nitrogen
ColEnergy: 10
PeakWidth: 0.027
ChargeDecon: 2
Date: 2010-10-09 19:48:36+02:00
Column: Synergi Fusion RP 2.5 u
Mass: 44.7882-395.021
Num Peaks: 31
69.032 7 87.043 92 97.076 9 104.071 8 105.054 179 106.058 8 115.039 7 123.065 999 124.069 47 125.070 10 
142.039 186 142.540 17 143.081 143 144.082 23 145.047 73 150.026 303 150.528 41 151.039 197 151.540 17 152.026 45 
152.524 9 211.056 52 211.559 8 212.056 15 212.963 8 269.084 76 270.085 7 298.038 87 299.046 112 300.048 16 
301.046 13 
