Name: 2-Hydroxypalmitic acid
CAS: 764-67-0
MW: 272
Formula: C16H32O3
Synonym: CID: 92836
Synonym: MassBank: BD000936
Synonym: 2-Hydroxypalmitic acid
Synonym: Alpha-hydroxypalmitic acid
Synonym: 2-Hydroxyhexadecanoate
Synonym: 2-Hydroxyhexadecanoic acid
Synonym: 2-Hydroxy-hexadecanoic acid
Synonym: 2-Hydroxy palmitic acid
Synonym: DL-a-hydroxypalmitic acid
Synonym: DL-alpha-hydroxypalmitic acid
Structure: 31392031382020302020302020302020302020302020302020302020303939392056323030300A20202020382E3534303020202D31362E3636303020202020302E303030302043202020302020302020302020302020302020302020302020302020302020302020302020300A20202020392E3735323420202D31352E3936303020202020302E303030302043202020302020302020302020302020302020302020302020302020302020302020302020300A20202031302E3936343920202D31362E3636303020202020302E303030302043202020302020302020302020302020302020302020302020302020302020302020302020300A20202031322E3137373320202D31352E3936303020202020302E303030302043202020302020302020302020302020302020302020302020302020302020302020302020300A20202031332E3338393720202D31362E3636303020202020302E303030302043202020302020302020302020302020302020302020302020302020302020302020302020300A20202031342E3630323220202D31352E3936303020202020302E303030302043202020302020302020302020302020302020302020302020302020302020302020302020300A20202031352E3831343620202D31362E3636303020202020302E303030302043202020302020302020302020302020302020302020302020302020302020302020302020300A20202031372E3032373020202D31352E3936303020202020302E303030302043202020302020302020302020302020302020302020302020302020302020302020302020300A20202031382E3233393520202D31362E3636303020202020302E303030302043202020302020302020302020302020302020302020302020302020302020302020302020300A20202031392E3435313920202D31352E3936303020202020302E303030302043202020302020302020302020302020302020302020302020302020302020302020302020300A20202032302E3636343420202D31362E3636303020202020302E303030302043202020302020302020302020302020302020302020302020302020302020302020302020300A20202032312E3837363820202D31352E3936303020202020302E303030302043202020302020302020302020302020302020302020302020302020302020302020302020300A20202032332E3038393220202D31362E3636303020202020302E303030302043202020302020302020302020302020302020302020302020302020302020302020302020300A20202032342E3330313720202D31352E3936303020202020302E303030302043202020302020302020302020302020302020302020302020302020302020302020302020300A20202032352E3531343120202D31362E3636303020202020302E303030302043202020302020302020302020302020302020302020302020302020302020302020302020300A20202032362E3732363520202D31352E3936303020202020302E303030302043202020302020302020302020302020302020302020302020302020302020302020302020300A20202032372E3933393020202D31362E3636303020202020302E30303030204F202020302020302020302020302020302020302020302020302020302020302020302020300A20202032362E3732363520202D31342E3536303120202020302E30303030204F202020302020302020302020302020302020302020302020302020302020302020302020300A20202032352E3531343120202D31382E3035393620202020302E30303030204F202020302020302020302020302020302020302020302020302020302020302020302020300A2020312020322020312020302020202020302020300A2020322020332020312020302020202020302020300A2020332020342020312020302020202020302020300A2020342020352020312020302020202020302020300A2020352020362020312020302020202020302020300A2020362020372020312020302020202020302020300A2020372020382020312020302020202020302020300A2020382020392020312020302020202020302020300A2020392031302020312020302020202020302020300A2031302031312020312020302020202020302020300A2031312031322020312020302020202020302020300A2031322031332020312020302020202020302020300A2031332031342020312020302020202020302020300A2031342031352020312020302020202020302020300A2031352031362020312020302020202020302020300A2031362031372020312020302020202020302020300A2031362031382020322020302020202020302020300A2031352031392020312020302020202020302020300A4D2020454E44
Contributor: MGR
InstType: ESI
InstName: micrOTOF-Q
IoniMethod: ESI
IonPolarity: pos
IsolWidth: 10
TargetGas: Nitrogen
ColEnergy: 10
PeakWidth: 0.023
ChargeDecon: 2
Date: 2010-10-09 19:48:36+02:00
Column: Synergi Fusion RP 2.5 u
Mass: 44.789-395.026
Num Peaks: 51
69.0690 3 71.0844 3 81.0687 2 83.0848 25 84.0887 2 85.1007 5 95.0845 1 97.1008 48 98.1043 3 99.1156 2 
107.0720 1 111.1168 37 112.1197 3 113.1318 3 122.0963 9 123.1019 1 125.1321 26 126.1352 2 127.1466 3 139.1476 13 
140.1511 1 149.0233 2 153.1618 7 167.1763 2 187.1259 2 209.2262 4 215.1180 2 219.2092 4 226.5149 1 227.2365 494 
228.2395 75 229.2412 6 237.2202 9 238.2226 1 245.2467 59 246.2501 8 255.2316 5 272.3604 2 273.2424 589 274.2449 104 
275.2481 11 290.2726 4 291.2531 297 292.0904 1 292.2563 50 293.2568 6 294.2662 3 295.2258 999 296.2279 178 297.2311 18 
298.2312 1 
