Name: 3-O-Methyl-D-glucopyranose
CAS: 3370-81-8
MW: 194
Formula: C7H14O6
Synonym: CID: 96241
Synonym: MassBank: BD000533
Synonym: 3-O-Methyl-D-glucopyranose
Synonym: 3-O-Methyl-a-D-glucopyranose
Synonym: 3-O-Methyl-alpha-D-glucopyranose
Synonym: 3-O-Methyl-D-Glucose
Synonym: 3-O-Methylglucose
Structure: 31332031332020302020302020312020302020302020302020302020303939392056323030300A20202031352E3132303020202D31352E3139303020202020302E303030302043202020302020302020302020302020302020302020302020302020302020302020302020300A20202031352E3132303020202D31362E3539303020202020302E303030302043202020302020302020302020302020302020302020302020302020302020302020302020300A20202031362E3333323420202D31372E3239303020202020302E303030302043202020302020302020302020302020302020302020302020302020302020302020302020300A20202031372E3534343920202D31362E3539303020202020302E303030302043202020302020302020302020302020302020302020302020302020302020302020302020300A20202031372E3534343920202D31352E3139303020202020302E303030302043202020302020302020302020302020302020302020302020302020302020302020302020300A20202031362E3333323420202D31342E3439303020202020302E30303030204F202020302020302020302020302020302020302020302020302020302020302020302020300A20202031382E3737363020202D31342E3437393020202020302E303030302043202020302020302020302020302020302020302020302020302020302020302020302020300A20202031362E3333323420202D31382E3638393820202020302E30303030204F202020302020302020302020302020302020302020302020302020302020302020302020300A20202031382E3737363020202D31372E3330313020202020302E30303030204F202020302020302020302020302020302020302020302020302020302020302020302020300A20202031332E3930373620202D31372E3239303020202020302E30303030204F202020302020302020302020302020302020302020302020302020302020302020302020300A20202031382E3737363020202D31332E3037393020202020302E30303030204F202020302020302020302020302020302020302020302020302020302020302020302020300A20202031332E3930373620202D31342E3439303020202020302E30303030204F202020302020302020302020302020302020302020302020302020302020302020302020300A20202031352E3334323520202D31392E3637393820202020302E303030302043202020302020302020302020302020302020302020302020302020302020302020302020300A2020312020322020312020302020202020302020300A2020322020332020312020302020202020302020300A2020332020342020312020302020202020302020300A2020342020352020312020302020202020302020300A2020352020362020312020302020202020302020300A2020312020362020312020302020202020302020300A2020352020372020312020362020202020302020300A2020332020382020312020362020202020302020300A2020342020392020312020312020202020302020300A2020322031302020312020312020202020302020300A2020372031312020312020302020202020302020300A2020312031322020312020302020202020302020300A2020382031332020312020302020202020302020300A4D2020454E44
Contributor: MGR
InstType: ESI
InstName: micrOTOF-Q
IoniMethod: ESI
IonPolarity: neg
IsolWidth: 10
TargetGas: Nitrogen
ColEnergy: 10
PeakWidth: 0.03
ChargeDecon: 2
Date: 2010-10-09 19:48:36+02:00
Column: Synergi Fusion RP 2.5 u
Mass: 188.028-205.124
Num Peaks: 4
193.072 999 194.075 79 195.076 15 196.080 1 
