Name: MassBank: BD000555
CAS: 1078-61-1
MW: 182
Formula: C9H10O4
Synonym: CID: 348154
Synonym: MassBank: BD000555
Synonym: 3-(3,4-Dihydroxyphenyl)propionic acid
Synonym: Dihydrocaffeic acid
Synonym: 3-(3,4-Dihydroxyphenyl)propanoate
Synonym: 3-(3,4-Dihydroxyphenyl)propionate
Synonym: 3-(3,4-Dihydroxyphenyl)propionic acid
Synonym: 3,4-Dihydroxy-(6CI,7CI,8CI)hydrocinnamate
Synonym: 3,4-Dihydroxy-(6CI,7CI,8CI)hydrocinnamic acid
Synonym: 3,4-Dihydroxybenzenepropanoic acid
Synonym: 3,4-Dihydroxybenzenepropionic acid
Synonym: 3,4-Dihydroxybenzenepropionate
Synonym: 3,4-Dihydroxyphenylpropionic acid
Synonym: 3,4-Dihydroxy-beta-phenylpropionate
Synonym: 3,4-Dihydroxy-beta-phenylpropionic acid
Synonym: 3,4-Dihydroxy-b-phenylpropionate
Synonym: 3,4-Dihydroxy-b-phenylpropionic acid
Synonym: 3,4-Dihydroxydihydrocinnamate
Synonym: 3,4-Dihydroxydihydrocinnamic acid
Synonym: 3,4-Dihydroxyhydrocinnamate
Synonym: 3,4-Dihydroxyhydrocinnamic acid
Synonym: 3,4-Dihydroxyphenylpropionate
Synonym: DHCA
Synonym: 3,4-HPA
Synonym: Dihydrocaffeate
Synonym: Hydrocaffeate
Synonym: Hydrocaffeic acid
Synonym: HYKOP
Structure: 31332031332020302020302020302020302020302020302020302020303939392056323030300A20202031362E3534383720202D31332E3330393120202020302E303030302043202020302020302020302020302020302020302020302020302020302020302020302020300A20202031352E3333353820202D31342E3030333020202020302E303030302043202020302020302020302020302020302020302020302020302020302020302020302020300A20202031372E3736313520202D31342E3030383920202020302E303030302043202020302020302020302020302020302020302020302020302020302020302020302020300A20202031362E3534323920202D31312E3931353420202020302E303030302043202020302020302020302020302020302020302020302020302020302020302020302020300A20202031352E3332393920202D31352E3430383420202020302E303030302043202020302020302020302020302020302020302020302020302020302020302020302020300A20202031372E3736313520202D31352E3430323520202020302E303030302043202020302020302020302020302020302020302020302020302020302020302020302020300A20202031372E3734393920202D31312E3230393720202020302E303030302043202020302020302020302020302020302020302020302020302020302020302020302020300A20202031362E3534383720202D31362E3131343020202020302E303030302043202020302020302020302020302020302020302020302020302020302020302020302020300A20202031372E373439392020202D392E3831303220202020302E303030302043202020302020302020302020302020302020302020302020302020302020302020302020300A20202031362E3534383720202D31372E3531333520202020302E30303030204F202020302020302020302020302020302020302020302020302020302020302020302020300A20202031382E393632392020202D392E3131303420202020302E30303030204F202020302020302020302020302020302020302020302020302020302020302020302020300A20202031362E353331322020202D392E3131363320202020302E30303030204F202020302020302020302020302020302020302020302020302020302020302020302020300A20202031382E3937323220202D31362E3039363120202020302E30303030204F202020302020302020302020302020302020302020302020302020302020302020302020300A2020312020322020312020302020202020302020300A2020312020332020322020302020202020302020300A2020312020342020312020302020202020302020300A2020322020352020322020302020202020302020300A2020332020362020312020302020202020302020300A2020342020372020312020302020202020302020300A2020352020382020312020302020202020302020300A2020372020392020312020302020202020302020300A2020382031302020312020302020202020302020300A2020392031312020312020302020202020302020300A2020392031322020322020302020202020302020300A2020362020382020322020302020202020302020300A2020362031332020312020302020202020302020300A4D2020454E44
Contributor: MGR
InstType: ESI
InstName: micrOTOF-Q
IoniMethod: ESI
IonPolarity: neg
IsolWidth: 10
TargetGas: Nitrogen
ColEnergy: 10
PeakWidth: 0.028
ChargeDecon: 2
Date: 2010-10-09 19:48:36+02:00
Column: Synergi Fusion RP 2.5 u
Mass: 44.994-394.895
Num Peaks: 14
89.022 2 109.034 9 119.050 8 121.030 12 135.045 11 137.060 108 138.064 9 146.941 2 165.054 2 178.051 3 
179.036 3 181.052 999 182.054 108 183.056 12 
