Name: Ribitol
CAS: 488-81-3
MW: 152
Formula: C5H12O5
Synonym: CID: 827
Synonym: MassBank: BD000328
Synonym: Ribitol
Synonym: Adonitol,meso-ribitol,
Structure: 31302020392020302020302020302020302020302020302020302020303939392056323030300A20202032312E3737313520202D31352E3035303020202020302E303030302043202020302020302020332020302020302020302020302020302020302020302020302020300A20202032312E3737313520202D31332E3634363120202020302E303030302043202020302020302020332020302020302020302020302020302020302020302020302020300A20202032312E3737313520202D31362E3435333920202020302E303030302043202020302020302020332020302020302020302020302020302020302020302020302020300A20202032332E3136383920202D31352E3035303020202020302E30303030204F202020302020302020302020302020302020302020302020302020302020302020302020300A20202032312E3737313520202D31322E3234383520202020302E303030302043202020302020302020302020302020302020302020302020302020302020302020302020300A20202032332E3136383920202D31332E3634363120202020302E30303030204F202020302020302020302020302020302020302020302020302020302020302020302020300A20202032312E3737313520202D31372E3835313520202020302E303030302043202020302020302020302020302020302020302020302020302020302020302020302020300A20202032332E3136383920202D31362E3435333920202020302E30303030204F202020302020302020302020302020302020302020302020302020302020302020302020300A20202032322E3938323120202D31312E3534363420202020302E30303030204F202020302020302020302020302020302020302020302020302020302020302020302020300A20202032302E3535343120202D31382E3535333620202020302E30303030204F202020302020302020302020302020302020302020302020302020302020302020302020300A2020312020322020312020302020202020302020300A2020312020332020312020302020202020302020300A2020312020342020312020302020202020302020300A2020322020352020312020302020202020302020300A2020322020362020312020302020202020302020300A2020332020372020312020302020202020302020300A2020332020382020312020302020202020302020300A2020352020392020312020302020202020302020300A2020372031302020312020302020202020302020300A4D2020454E44
Contributor: BSC
InstType: ESI
InstName: micrOTOF-Q
IoniMethod: ESI
IonPolarity: pos
IsolWidth: 10
TargetGas: Nitrogen
ColEnergy: 10
PeakWidth: 0.026
ChargeDecon: 2
Date: 2010-10-09 19:48:36+02:00
Column: Synergi Fusion RP 2.5 u
Mass: 44.7983-395.033
Num Peaks: 59
69.035 4 99.044 41 100.047 2 117.054 35 118.060 2 135.064 94 136.068 6 149.021 6 150.031 1 152.607 2 
153.076 999 154.079 55 155.080 12 162.029 1 164.062 14 164.562 4 165.060 3 166.086 15 167.088 1 171.032 2 
172.051 38 172.551 5 173.053 1 174.046 1 175.057 98 176.062 6 177.059 1 179.039 3 179.539 4 180.037 44 
180.539 7 181.040 15 181.542 3 182.033 5 224.128 2 225.005 2 238.072 1 240.096 5 240.596 1 246.058 2 
248.087 26 248.588 4 249.087 2 251.996 1 253.000 2 253.111 1 255.076 2 255.577 2 256.074 35 256.575 7 
257.074 10 257.577 2 258.072 3 305.147 8 329.104 8 349.105 2 354.070 1 358.061 10 359.067 10 
