Name: 2-Deoxyguanosine
CAS: 961-07-9
MW: 267
Formula: C10H13N5O4
Synonym: CID: 638
Synonym: MassBank: BD000930
Synonym: 2-Deoxyguanosine
Synonym: Guanine deoxy nucleoside
Synonym: Desoxyguanosine
Synonym: Guanine deoxyriboside
Synonym: 2-Amino-9-(2-deoxy-9-beta-D-ribofuranosyl)-9H-purin-6-ol,dG,9-(2-Deoxy-b-D-erythro-pentofuranosyl)guanine
Synonym: 2-Amino-9-[(2R,4R,5S)-4-hydroxy-5-(hydroxymethyl)oxolan-2-yl]-3H-purin-6-one
Synonym: 2-Amino-9-[4-hydroxy-5-(hydroxymethyl)oxolan-2-yl]-3H-purin-6-one
Synonym: 9-(2-Deoxy-b-D-erythro-pentofuranosyl)-guanine
Synonym: 9-(2-Deoxy-beta-D-ribofuranosyl)guanine
Synonym: Deoxyguanosine
Synonym: 2'-Deoxyguanosine
Synonym: 2'-Deoxy-guanosine
Synonym: 2'-Deoxyguanosine monohydrate
Synonym: Guanine-2'-deoxyriboside
Structure: 31392032312020302020302020312020302020302020302020302020303939392056323030300A20202032322E3338383320202D31332E3732303520202020302E30303030204E202020302020302020332020302020302020302020302020302020302020302020302020300A20202032332E3435353120202D31342E3437323620202020302E303030302043202020302020302020302020302020302020302020302020302020302020302020302020300A20202032312E3131313620202D31342E3132383620202020302E303030302043202020302020302020322020302020302020302020302020302020302020302020302020300A20202032322E3837323220202D31322E3332313520202020302E303030302043202020302020302020302020302020302020302020302020302020302020302020302020300A20202032342E3639363820202D31332E3536333120202020302E303030302043202020302020302020302020302020302020302020302020302020302020302020302020300A20202032332E3538393120202D31352E3837373520202020302E30303030204E202020302020302020302020302020302020302020302020302020302020302020302020300A20202031392E3936333220202D31332E3238393220202020302E30303030204F202020302020302020302020302020302020302020302020302020302020302020302020300A20202032302E3636383520202D31352E3337363220202020302E303030302043202020302020302020302020302020302020302020302020302020302020302020302020300A20202032342E3332393520202D31322E3332313520202020302E30303030204E202020302020302020302020302020302020302020302020302020302020302020302020300A20202032352E3936313920202D31342E3130353220202020302E303030302043202020302020302020302020302020302020302020302020302020302020302020302020300A20202032342E3931323520202D31362E3436363320202020302E303030302043202020302020302020302020302020302020302020302020302020302020302020302020300A20202031382E3836313420202D31342E3038313920202020302E303030302043202020302020302020312020302020302020302020302020302020302020302020302020300A20202031392E3238363920202D31352E3337363220202020302E303030302043202020302020302020312020302020302020302020302020302020302020302020302020300A20202032362E3132353020202D31352E3539313820202020302E30303030204E202020302020302020302020302020302020302020302020302020302020302020302020300A20202032372E3036393420202D31332E3330303820202020302E30303030204F202020302020302020302020302020302020302020302020302020302020302020302020300A20202032352E3034363620202D31372E3833363220202020302E30303030204E202020302020302020302020302020302020302020302020302020302020302020302020300A20202031372E3536313320202D31332E3636323320202020302E303030302043202020302020302020302020302020302020302020302020302020302020302020302020300A20202031382E3531373420202D31362E3534383020202020302E30303030204F202020302020302020302020302020302020302020302020302020302020302020302020300A20202031362E3532333620202D31342E3539353020202020302E30303030204F202020302020302020302020302020302020302020302020302020302020302020302020300A2020312020322020312020302020202020302020300A2020332020312020312020312020202020302020300A2020312020342020312020302020202020302020300A2020322020352020322020302020202020302020300A2020322020362020312020302020202020302020300A2020332020372020312020302020202020302020300A2020332020382020312020302020202020302020300A2020342020392020322020302020202020302020300A2020352031302020312020302020202020302020300A2020362031312020322020302020202020302020300A2020372031322020312020302020202020302020300A2020382031332020312020302020202020302020300A2031302031342020312020302020202020302020300A2031302031352020322020302020202020302020300A2031312031362020312020302020202020302020300A2031322031372020312020312020202020302020300A2031332031382020312020362020202020302020300A2031372031392020312020302020202020302020300A2020352020392020312020302020202020302020300A2031312031342020312020302020202020302020300A2031322031332020312020302020202020302020300A4D2020454E44
Contributor: MGR
InstType: ESI
InstName: micrOTOF-Q
IoniMethod: ESI
IonPolarity: pos
IsolWidth: 10
TargetGas: Nitrogen
ColEnergy: 10
PeakWidth: 0.026
ChargeDecon: 2
Date: 2010-10-09 19:48:36+02:00
Column: Synergi Fusion RP 2.5 u
Mass: 44.7915-395.04
Num Peaks: 15
117.055 9 135.029 3 146.961 2 149.022 3 151.594 2 152.057 999 153.056 66 154.058 3 159.969 2 181.952 7 
204.964 2 224.127 2 268.105 114 269.108 15 270.111 2 
