Name: Lipoicacid
CAS: 62-46-4
MW: 206
Formula: C8H14O2S2
Synonym: CID: 864
Synonym: MassBank: BD000110
Synonym: Lipoicacid
Synonym: (Oct)-1,2-Dithiolane-3-pentanoic acid,6,8-Dithiooctanoic acid,DL-6,8-Thioctic acid,Lipoate,alpha-Lipoic acid,Thioctic acid,5-[(3S)-Dithiolan-3-yl]pentanoic acid
Structure: 31322031322020302020302020302020302020302020302020302020303939392056323030300A20202031382E3931303720202D31332E3337373720202020302E303030302053202020302020302020302020302020302020302020302020302020302020302020302020300A20202031372E3530393720202D31332E3337373720202020302E303030302053202020302020302020302020302020302020302020302020302020302020302020302020300A20202031372E3037363920202D31342E3731303120202020302E303030302043202020302020302020302020302020302020302020302020302020302020302020302020300A20202031382E3231303220202D31352E3533333620202020302E303030302043202020302020302020302020302020302020302020302020302020302020302020302020300A20202031392E3334333620202D31342E3731303120202020302E303030302043202020302020302020302020302020302020302020302020302020302020302020302020300A20202032302E3534343320202D31352E3430393120202020302E303030302043202020302020302020302020302020302020302020302020302020302020302020302020300A20202032312E3735373620202D31342E3730383620202020302E303030302043202020302020302020302020302020302020302020302020302020302020302020302020300A20202032322E3937303820202D31352E3430393120202020302E303030302043202020302020302020302020302020302020302020302020302020302020302020302020300A20202032342E3138343020202D31342E3730383620202020302E303030302043202020302020302020302020302020302020302020302020302020302020302020302020300A20202032352E3339373420202D31352E3430393120202020302E303030302043202020302020302020302020302020302020302020302020302020302020302020302020300A20202032362E3631303620202D31342E3730383620202020302E30303030204F202020302020302020302020302020302020302020302020302020302020302020302020300A20202032352E3339373420202D31362E3831303220202020302E30303030204F202020302020302020302020302020302020302020302020302020302020302020302020300A2020312020322020312020302020202020302020300A2020322020332020312020302020202020302020300A2020332020342020312020302020202020302020300A2020342020352020312020302020202020302020300A2020312020352020312020302020202020302020300A2020352020362020312020302020202020302020300A2020362020372020312020302020202020302020300A2020372020382020312020302020202020302020300A2020382020392020312020302020202020302020300A2020392031302020312020302020202020302020300A2031302031312020312020302020202020302020300A2031302031322020322020302020202020302020300A4D2020454E44
Contributor: BSC
InstType: ESI
InstName: micrOTOF-Q
IoniMethod: ESI
IonPolarity: pos
MSMS: 2
IsolWidth: 10
TargetGas: Nitrogen
ColEnergy: 10
PeakWidth: 0.029
ChargeDecon: 2
Date: 2010-10-09 19:48:36+02:00
Column: Synergi Fusion RP 2.5 u
Mass: 44.8003-395.035
Num Peaks: 35
78.968 32 79.056 224 81.071 953 82.074 66 87.029 39 91.055 49 93.070 259 95.085 936 96.088 73 99.079 87 
101.042 999 102.045 51 103.040 43 104.983 218 105.069 90 106.076 34 111.026 48 113.042 245 121.065 76 123.080 646 
124.085 73 125.041 47 127.057 582 128.060 51 137.041 126 138.049 65 141.090 47 145.014 47 155.053 178 161.045 320 
163.043 34 171.030 125 173.060 62 177.041 81 189.040 58 
