Name: 2-Hydroxysebacic acid
CAS: 103963-71-9
MW: 218
Formula: C10H18O5
Synonym: CID: 128458
Synonym: MassBank: BD000944
Synonym: 2-Hydroxysebacic acid
Synonym: 2-Hydroxy-decandioate
Synonym: 2-Hydroxy-decandioic acid
Synonym: 2-Hydroxydecanedioate
Synonym: 2-Hydroxy-decanedioic acid
Synonym: 2-Hydroxysebacate
Synonym: a-Hydroxysebasate
Synonym: a-Hydroxysebasic acid
Synonym: Alpha-hydroxysebasate
Synonym: Alpha-hydroxysebasic acid
Structure: 31352031342020302020302020302020302020302020302020302020303939392056323030300A20202031302E3232303020202D31342E3938303020202020302E303030302043202020302020302020302020302020302020302020302020302020302020302020302020300A20202031312E3632303020202D31342E3938353220202020302E303030302043202020302020302020302020302020302020302020302020302020302020302020302020300A20202031322E3331353520202D31362E3230303220202020302E303030302043202020302020302020302020302020302020302020302020302020302020302020302020300A20202020392E3531353520202D31362E3138393820202020302E30303030204F202020302020302020302020302020302020302020302020302020302020302020302020300A20202020392E3532343520202D31332E3736353020202020302E30303030204F202020302020302020302020302020302020302020302020302020302020302020302020300A20202031332E3731353520202D31362E3230353320202020302E303030302043202020302020302020302020302020302020302020302020302020302020302020302020300A20202031342E3431313020202D31372E3432303320202020302E303030302043202020302020302020302020302020302020302020302020302020302020302020302020300A20202031352E3831313020202D31372E3432353520202020302E303030302043202020302020302020302020302020302020302020302020302020302020302020302020300A20202031362E3531303720202D31382E3634373820202020302E303030302043202020302020302020302020302020302020302020302020302020302020302020302020300A20202031372E3931303720202D31382E3634373820202020302E303030302043202020302020302020302020302020302020302020302020302020302020302020302020300A20202031382E3631303720202D31372E3433353320202020302E303030302043202020302020302020302020302020302020302020302020302020302020302020302020300A20202032302E3031303720202D31372E3433353320202020302E303030302043202020302020302020302020302020302020302020302020302020302020302020302020300A20202031372E3931303720202D31362E3232333020202020302E30303030204F202020302020302020302020302020302020302020302020302020302020302020302020300A20202032302E3731303720202D31382E3634373820202020302E30303030204F202020302020302020302020302020302020302020302020302020302020302020302020300A20202032302E3731353320202D31362E3231343820202020302E30303030204F202020302020302020302020302020302020302020302020302020302020302020302020300A2020312020322020312020302020202020302020300A2020322020332020312020302020202020302020300A2020312020342020322020302020202020302020300A2020312020352020312020302020202020302020300A2020362020372020312020302020202020302020300A2020372020382020312020302020202020302020300A2020382020392020312020302020202020302020300A2020392031302020312020302020202020302020300A2031302031312020312020302020202020302020300A2031312031322020312020302020202020302020300A2031312031332020312020302020202020302020300A2031322031342020322020302020202020302020300A2031322031352020312020302020202020302020300A2020332020362020312020302020202020302020300A4D2020454E44
Contributor: MGR
InstType: ESI
InstName: micrOTOF-Q
IoniMethod: ESI
IonPolarity: neg
MSMS: 2
IsolWidth: 10
TargetGas: Nitrogen
ColEnergy: -20
PeakWidth: 0.026
ChargeDecon: 2
Date: 2010-10-09 19:48:36+02:00
Column: Synergi Fusion RP 2.5 u
Mass: 44.9928-394.888
Num Peaks: 17
125.096 9 127.112 30 137.097 27 153.092 13 155.107 440 156.111 41 157.113 4 171.102 999 172.106 84 173.111 12 
181.087 8 199.097 71 200.101 8 215.091 8 217.107 459 218.111 46 219.113 8 
