Name: 1-Methylnicotinamide
CAS: 3106-60-3
MW: 137
Formula: C7H9N2O
Synonym: CID: 457
Synonym: MassBank: BD000450
Synonym: 1-Methylnicotinamide
Synonym: 1-Methyl-3-carbamoylpyridinium
Synonym: 3-Carbamoyl-1-methylpyridinium
Synonym: 1-Methylnicotinamide chloride
Synonym: 3-(Aminocarbonyl)-1-methylpyridinium
Synonym: 3-(Aminocarbonyl)-1-methyl-pyridinium
Synonym: N(1)-Methylnicotinamide
Synonym: 3-Carbamoyl-1-methyl-pyridinium
Synonym: N( 1)-Methylnicotinamide
Synonym: N(1)-Methylnicotinamide chloride
Synonym: 1-Methyl-15-pyridine-3-carboxamide
Synonym: Trigonellinamide
Synonym: N-Methylnicotinic acid amide chloride
Structure: 31302031302020302020302020302020302020302020302020302020303939392056323030300A20202032312E3739323320202D31342E3334353620202020302E303030302043202020302020302020302020302020302020302020302020302020302020302020302020300A20202032312E3739323320202D31352E3735333220202020302E303030302043202020302020302020302020302020302020302020302020302020302020302020302020300A20202032302E3537303920202D31332E3634373620202020302E303030302043202020302020302020302020302020302020302020302020302020302020302020302020300A20202032322E3939303420202D31332E3634313920202020302E303030302043202020302020302020302020302020302020302020302020302020302020302020302020300A20202032302E3537303920202D31362E3436383620202020302E30303030204E202020302020332020302020302020302020302020302020302020302020302020302020300A20202031392E3336303920202D31342E3334353620202020302E303030302043202020302020302020302020302020302020302020302020302020302020302020302020300A20202032342E3230363120202D31342E3333393720202020302E30303030204E202020302020302020302020302020302020302020302020302020302020302020302020300A20202032322E3938343720202D31322E3235313620202020302E30303030204F202020302020302020302020302020302020302020302020302020302020302020302020300A20202031392E3336303920202D31352E3735333220202020302E303030302043202020302020302020302020302020302020302020302020302020302020302020302020300A20202032302E3537303920202D31372E3834373220202020302E303030302043202020302020302020302020302020302020302020302020302020302020302020302020300A2020312020322020322020302020202020302020300A2020312020332020312020302020202020302020300A2020312020342020312020302020202020302020300A2020322020352020312020302020202020302020300A2020332020362020322020302020202020302020300A2020342020372020312020302020202020302020300A2020342020382020322020302020202020302020300A2020352020392020322020302020202020302020300A2020352031302020312020302020202020302020300A2020362020392020312020302020202020302020300A4D202043484720203120202035202020310A4D2020454E44
Contributor: MGR
InstType: ESI
InstName: micrOTOF-Q
IoniMethod: ESI
IonPolarity: pos
MSMS: 2
IsolWidth: 10
TargetGas: Nitrogen
ColEnergy: 18
PeakWidth: 0.028
ChargeDecon: 2
Date: 2010-10-09 19:48:36+02:00
Column: Synergi Fusion RP 2.5 u
Mass: 44.7905-395.035
Num Peaks: 9
92.049 35 93.056 11 94.065 296 95.068 22 96.045 26 108.044 13 110.061 109 137.071 999 138.073 84 
