Name: Hexanoyl-L-carnitine
CAS: 22671-29-0
MW: 259
Formula: C13H25NO4
Synonym: CID: 6426853
Synonym: MassBank: BD000446
Synonym: Hexanoyl-L-carnitine
Synonym: (3R)-3-Hexanoyloxy-4-trimethylazaniumylbutanoate
Synonym: (R)-Caproylcarnitine
Synonym: L-Hexanoylcarnitine
Synonym: O-Hexanoyl-R-carnitine
Structure: 31382031372020302020302020312020302020302020302020302020303939392056323030300A20202031372E3735343220202D31322E3838313320202020302E303030302043202020302020302020302020302020302020302020302020302020302020302020302020300A20202031382E3937363320202D31332E3538393820202020302E303030302043202020302020302020302020302020302020302020302020302020302020302020302020300A20202031362E3532353620202D31332E3538393820202020302E303030302043202020302020302020302020302020302020302020302020302020302020302020302020300A20202032302E3139383520202D31322E3838313320202020302E303030302043202020302020302020302020302020302020302020302020302020302020302020302020300A20202031352E3330333520202D31322E3838313320202020302E303030302043202020302020302020302020302020302020302020302020302020302020302020302020300A20202032312E3433353020202D31332E3539323720202020302E303030302043202020302020302020302020302020302020302020302020302020302020302020302020300A20202032312E3433353020202D31342E3939323720202020302E30303030204F202020302020302020302020302020302020302020302020302020302020302020302020300A20202032322E3634313020202D31322E3839353120202020302E30303030204F202020302020302020302020302020302020302020302020302020302020302020302020300A20202032322E3432353020202D31352E3938323720202020302E303030302043202020302020302020302020302020302020302020302020302020302020302020302020300A20202032322E3432353020202D31372E3338323720202020302E303030302043202020302020302020302020302020302020302020302020302020302020302020302020300A20202032332E3730343720202D31352E3435323220202020302E303030302043202020302020302020302020302020302020302020302020302020302020302020302020300A20202032342E3931373120202D31362E3135323220202020302E30303030204E202020302020332020302020302020302020302020302020302020302020302020302020300A20202032312E3230343120202D31382E3038373920202020302E303030302043202020302020302020302020302020302020302020302020302020302020302020302020300A20202031392E3938343120202D31372E3338333920202020302E30303030204F202020302020302020302020302020302020302020302020302020302020302020302020300A20202032312E3230343520202D31392E3436303020202020302E30303030204F202020302020352020302020302020302020302020302020302020302020302020302020300A20202032362E3132393520202D31362E3835323220202020302E303030302043202020302020302020302020302020302020302020302020302020302020302020302020300A20202032352E3631373120202D31342E3933393820202020302E303030302043202020302020302020302020302020302020302020302020302020302020302020302020300A20202032342E3231373120202D31372E3336343620202020302E303030302043202020302020302020302020302020302020302020302020302020302020302020302020300A2020312020322020312020302020202020302020300A2020312020332020312020302020202020302020300A2020322020342020312020302020202020302020300A2020332020352020312020302020202020302020300A2020342020362020312020302020202020302020300A2020362020372020312020302020202020302020300A2020362020382020322020302020202020302020300A2020392020372020312020312020202020302020300A2020392031302020312020302020202020302020300A2020392031312020312020302020202020302020300A2031312031322020312020302020202020302020300A2031302031332020312020302020202020302020300A2031332031342020322020302020202020302020300A2031332031352020312020302020202020302020300A2031322031362020312020302020202020302020300A2031322031372020312020302020202020302020300A2031322031382020312020302020202020302020300A4D202043484720203220203132202020312020313520202D310A4D2020454E44
Contributor: MGR
InstType: ESI
InstName: micrOTOF-Q
IoniMethod: ESI
IonPolarity: neg
IsolWidth: 10
TargetGas: Nitrogen
ColEnergy: 10
PeakWidth: 0.024
ChargeDecon: 2
Date: 2010-10-09 19:48:36+02:00
Column: Synergi Fusion RP 2.5 u
Mass: 44.995-394.905
Num Peaks: 27
101.023 4 112.985 31 115.076 188 116.078 12 134.072 3 144.102 533 145.105 42 146.106 4 161.081 61 162.084 5 
183.063 3 188.092 182 189.097 15 190.929 5 214.180 79 215.183 11 258.169 24 259.173 4 260.185 39 261.186 6 
294.148 8 304.175 999 305.178 148 306.179 20 372.164 3 374.252 54 375.256 11 
