Name: Orange yellow S
CAS: 2783-94-0
MW: 451
Formula: C16H10N2Na2O7S2
Synonym: CID: 6850717
Synonym: MassBank: BD000430
Synonym: Orange yellow S
Synonym: Cilefa Orange S
Synonym: Orange PAL
Synonym: Para Orange
Synonym: Food yellow 3
Synonym: Sunset yellow
Synonym: Twilight Yellow
Synonym: Yellow S
Synonym: Yellow Orange S
Structure: 32392032392020302020302020302020302020302020302020302020303939392056323030300A20202031322E3838303020202D31302E3232303020202020302E303030302043202020302020302020302020302020302020302020302020302020302020302020302020300A20202031322E3838303020202D31312E3632303020202020302E303030302043202020302020302020302020302020302020302020302020302020302020302020302020300A20202031342E3039323420202D31322E3332303020202020302E303030302043202020302020302020302020302020302020302020302020302020302020302020302020300A20202031352E3330343920202D31312E3632303020202020302E303030302043202020302020302020302020302020302020302020302020302020302020302020302020300A20202031352E3330343920202D31302E3232303020202020302E303030302043202020302020302020302020302020302020302020302020302020302020302020302020300A20202031342E303932342020202D392E3532303020202020302E303030302043202020302020302020302020302020302020302020302020302020302020302020302020300A20202031362E3531373320202D31322E3332303020202020302E303030302043202020302020302020302020302020302020302020302020302020302020302020302020300A20202031372E3732393720202D31312E3632303020202020302E303030302043202020302020302020302020302020302020302020302020302020302020302020302020300A20202031372E3732393720202D31302E3232303020202020302E303030302043202020302020302020302020302020302020302020302020302020302020302020302020300A20202031362E353137332020202D392E3532303020202020302E303030302043202020302020302020302020302020302020302020302020302020302020302020302020300A20202031382E3932373320202D31322E3331313520202020302E30303030204F202020302020302020302020302020302020302020302020302020302020302020302020300A20202031362E3531373320202D31332E3732303020202020302E30303030204E202020302020302020302020302020302020302020302020302020302020302020302020300A20202031352E3330363920202D31342E3431383820202020302E30303030204E202020302020302020302020302020302020302020302020302020302020302020302020300A20202031352E3330363820202D31352E3831393820202020302E303030302043202020302020302020302020302020302020302020302020302020302020302020302020300A20202031342E3131313820202D31362E3530393820202020302E303030302043202020302020302020302020302020302020302020302020302020302020302020302020300A20202031342E3131313820202D31372E3930393820202020302E303030302043202020302020302020302020302020302020302020302020302020302020302020302020300A20202031352E3332343320202D31382E3630393820202020302E303030302043202020302020302020302020302020302020302020302020302020302020302020302020300A20202031362E3531393320202D31372E3931393720202020302E303030302043202020302020302020302020302020302020302020302020302020302020302020302020300A20202031362E3531393320202D31362E3531393720202020302E303030302043202020302020302020302020302020302020302020302020302020302020302020302020300A20202031312E363637362020202D392E3532303020202020302E303030302053202020302020302020302020302020302020302020302020302020302020302020302020300A20202031352E3332343320202D32302E3032303020202020302E303030302053202020302020302020302020302020302020302020302020302020302020302020302020300A20202031302E3437323120202D31302E3231303420202020302E30303030204F202020302020302020302020302020302020302020302020302020302020302020302020300A20202031312E363637352020202D382E3132303220202020302E30303030204F202020302020302020302020302020302020302020302020302020302020302020302020300A20202031362E3534313020202D32302E3732323420202020302E30303030204F202020302020302020302020302020302020302020302020302020302020302020302020300A20202031342E3131363220202D32302E3731373620202020302E30303030204F202020302020302020302020302020302020302020302020302020302020302020302020300A20202031302E343732302020202D382E3832393720202020302E30303030204F202020302020352020302020302020302020302020302020302020302020302020302020300A20202031352E3332343420202D32312E3432303020202020302E30303030204F202020302020352020302020302020302020302020302020302020302020302020302020300A20202020392E313730302020202D372E3834303020202020302E30303030204E612020302020332020302020302020302020302020302020302020302020302020302020300A20202031362E3331303020202D32322E3139303020202020302E30303030204E612020302020332020302020302020302020302020302020302020302020302020302020300A2020312020322020312020302020202020302020300A2020322020332020322020302020202020302020300A2020332020342020312020302020202020302020300A2020342020352020322020302020202020302020300A2020352020362020312020302020202020302020300A2020312020362020322020302020202020302020300A2020342020372020312020302020202020302020300A2020372020382020312020302020202020302020300A2020382020392020312020302020202020302020300A2020392031302020322020302020202020302020300A2020352031302020312020302020202020302020300A2020382031312020322020302020202020302020300A2031322031332020312020302020202020302020300A2031332031342020312020302020202020302020300A2020372031322020322020302020202020302020300A2031342031352020312020302020202020302020300A2031352031362020322020302020202020302020300A2031362031372020312020302020202020302020300A2031372031382020322020302020202020302020300A2031382031392020312020302020202020302020300A2031342031392020322020302020202020302020300A2020312032302020312020302020202020302020300A2031372032312020312020302020202020302020300A2032302032322020322020302020202020302020300A2032302032332020322020302020202020302020300A2032312032342020322020302020202020302020300A2032312032352020322020302020202020302020300A2032302032362020312020302020202020302020300A2032312032372020312020302020202020302020300A4D20204348472020342020323620202D312020323720202D31202032382020203120203239202020310A4D2020454E44
Contributor: MGR
InstType: ESI
InstName: micrOTOF-Q
IoniMethod: ESI
IonPolarity: pos
IsolWidth: 10
TargetGas: Nitrogen
ColEnergy: 10
PeakWidth: 0.033
ChargeDecon: 2
Date: 2010-10-09 19:48:36+02:00
Column: Synergi Fusion RP 2.5 u
Mass: 21.4931-805.199
Num Peaks: 5
406.998 43 409.015 999 410.018 199 411.013 119 412.016 18 
