Name: 2-Phenylacetamide
CAS: 103-81-1
MW: 135
Formula: C8H9NO
Synonym: CID: 7680
Synonym: MassBank: BD000470
Synonym: 2-Phenylacetamide
Synonym: 2-Phenyl acetamide
Structure: 31302031302020302020302020302020302020302020302020302020303939392056323030300A20202032312E3235313020202D31342E3335303320202020302E303030302043202020302020302020302020302020302020302020302020302020302020302020302020300A20202032312E3235313020202D31352E3735353120202020302E303030302043202020302020302020302020302020302020302020302020302020302020302020302020300A20202032302E3033383720202D31332E3635303920202020302E303030302043202020302020302020302020302020302020302020302020302020302020302020302020300A20202032322E3435373520202D31332E3635303920202020302E303030302043202020302020302020302020302020302020302020302020302020302020302020302020300A20202032302E3033383720202D31362E3435343520202020302E303030302043202020302020302020302020302020302020302020302020302020302020302020302020300A20202031382E3832303620202D31342E3335303320202020302E303030302043202020302020302020302020302020302020302020302020302020302020302020302020300A20202032332E3636343020202D31342E3334343620202020302E303030302043202020302020302020302020302020302020302020302020302020302020302020302020300A20202031382E3832303620202D31352E3735353120202020302E303030302043202020302020302020302020302020302020302020302020302020302020302020302020300A20202032342E3837363420202D31332E3635303920202020302E30303030204E202020302020302020302020302020302020302020302020302020302020302020302020300A20202032332E3636393920202D31352E3734333420202020302E30303030204F202020302020302020302020302020302020302020302020302020302020302020302020300A2020312020322020312020302020202020302020300A2020312020332020322020302020202020302020300A2020312020342020312020302020202020302020300A2020322020352020322020302020202020302020300A2020332020362020312020302020202020302020300A2020342020372020312020302020202020302020300A2020352020382020312020302020202020302020300A2020372020392020312020302020202020302020300A2020372031302020322020302020202020302020300A2020362020382020322020302020202020302020300A4D2020454E44
Contributor: MGR
InstType: ESI
InstName: micrOTOF-Q
IoniMethod: ESI
IonPolarity: pos
MSMS: 2
IsolWidth: 10
TargetGas: Nitrogen
ColEnergy: 18
PeakWidth: 0.032
ChargeDecon: 2
Date: 2010-10-09 19:48:36+02:00
Column: Synergi Fusion RP 2.5 u
Mass: 44.7916-395.041
Num Peaks: 5
91.055 999 92.058 87 93.066 7 118.065 15 136.075 46 
