Name: 1-Methyladenosine
CAS: 15763-06-1
MW: 281
Formula: C11H15N5O4
Synonym: CID: 260623
Synonym: MassBank: BD000917
Synonym: 1-Methyladenosine
Synonym: 1-Methyl-adenosine
Synonym: N,6-Didehydro-1,6-dihydro-1-methyladenosine
Synonym: N1-Methyladenosine
Synonym: (2R,3S,4R,5R)-2-(Hydroxymethyl)-5-(6-imino-1-methylpurin-9-yl)oxolane-3,4-diol
Synonym: N,6-Didehydro-1,6-dihydro-1-methyl-Adenosine
Structure: 32302032322020302020302020312020302020302020302020302020303939392056323030300A20202032342E3037373920202D31342E3733373720202020302E30303030204E202020302020302020332020302020302020302020302020302020302020302020302020300A20202032322E3737353220202D31342E3334393620202020302E303030302043202020302020302020302020302020302020302020302020302020302020302020302020300A20202032332E3238323620202D31362E3831373120202020302E303030302043202020302020302020322020302020302020302020302020302020302020302020302020300A20202032342E3834383120202D31332E3631363820202020302E303030302043202020302020302020302020302020302020302020302020302020302020302020302020300A20202032322E3734333920202D31322E3939303520202020302E303030302043202020302020302020302020302020302020302020302020302020302020302020302020300A20202032312E3539313620202D31352E3036333520202020302E30303030204E202020302020302020302020302020302020302020302020302020302020302020302020300A20202032322E3134383920202D31362E3035333020202020302E30303030204F202020302020302020302020302020302020302020302020302020302020302020302020300A20202032322E3930363920202D31382E3133323220202020302E303030302043202020302020302020312020302020302020302020302020302020302020302020302020300A20202032342E3033343120202D31322E3535323120202020302E30303030204E202020302020302020302020302020302020302020302020302020302020302020302020300A20202032312E3534373720202D31322E3332303420202020302E303030302043202020302020302020302020302020302020302020302020302020302020302020302020300A20202032302E3338393220202D31342E3431323120202020302E303030302043202020302020302020302020302020302020302020302020302020302020302020302020300A20202032312E3037383120202D31362E3930343920202020302E303030302043202020302020302020312020302020302020302020302020302020302020302020302020300A20202032312E3534373720202D31382E3039383420202020302E303030302043202020302020302020312020302020302020302020302020302020302020302020302020300A20202032332E3834333620202D31392E3135363820202020302E30303030204F202020302020302020302020302020302020302020302020302020302020302020302020300A20202032302E3337303420202D31332E3032383220202020302E30303030204E202020302020302020332020302020302020302020302020302020302020302020302020300A20202032312E3539343120202D31302E3937333920202020302E30303030204E202020302020302020302020302020302020302020302020302020302020302020302020300A20202031392E3736393120202D31362E3533353220202020302E303030302043202020302020302020302020302020302020302020302020302020302020302020302020300A20202032302E3639363020202D31392E3133363920202020302E30303030204F202020302020302020302020302020302020302020302020302020302020302020302020300A20202031392E3137343220202D31322E3337303520202020302E303030302043202020302020302020302020302020302020302020302020302020302020302020302020300A20202031382E3739323020202D31372E3438373120202020302E30303030204F202020302020302020302020302020302020302020302020302020302020302020302020300A2020312020322020312020302020202020302020300A2020332020312020312020312020202020302020300A2020312020342020312020302020202020302020300A2020322020352020322020302020202020302020300A2020322020362020312020302020202020302020300A2020332020372020312020302020202020302020300A2020332020382020312020302020202020302020300A2020342020392020322020302020202020302020300A2020352031302020312020302020202020302020300A2020362031312020322020302020202020302020300A2020372031322020312020302020202020302020300A2020382031332020312020302020202020302020300A2020382031342020312020362020202020302020300A2031302031352020312020302020202020302020300A2031302031362020322020302020202020302020300A2031322031372020312020312020202020302020300A2031332031382020312020362020202020302020300A2031352031392020312020302020202020302020300A2031372032302020312020302020202020302020300A2020352020392020312020302020202020302020300A2031312031352020312020302020202020302020300A2031322031332020312020302020202020302020300A4D2020454E44
Contributor: MGR
InstType: ESI
InstName: micrOTOF-Q
IoniMethod: ESI
IonPolarity: pos
IsolWidth: 10
TargetGas: Nitrogen
ColEnergy: 10
PeakWidth: 0.03
ChargeDecon: 2
Date: 2010-10-09 19:48:36+02:00
Column: Synergi Fusion RP 2.5 u
Mass: 277.066-294.175
Num Peaks: 4
282.120 999 283.122 141 284.124 17 285.127 2 
