Name: N-Acetylisatin
CAS: 574-17-4
MW: 189
Formula: C10H7NO3
Synonym: MassBank: BD000939
Synonym: N-Acetylisatin
Synonym: 1-Acetylisatin
Synonym: Acetylisatin
Synonym: 1-Acetyl-indole-2,3-dione
Synonym: D: 11321
Structure: 31342031352020302020302020302020302020302020302020302020303939392056323030300A20202032312E3238343020202D31342E3832313120202020302E303030302043202020302020302020302020302020302020302020302020302020302020302020302020300A20202032312E3238343020202D31332E3439343220202020302E303030302043202020302020302020302020302020302020302020302020302020302020302020302020300A20202032322E3433303020202D31352E3438343620202020302E30303030204E202020302020302020332020302020302020302020302020302020302020302020302020300A20202032302E3133313920202D31352E3439303720202020302E303030302043202020302020302020302020302020302020302020302020302020302020302020302020300A20202032332E3537353920202D31332E3439343220202020302E303030302043202020302020302020302020302020302020302020302020302020302020302020302020300A20202032302E3133313920202D31322E3833363620202020302E303030302043202020302020302020302020302020302020302020302020302020302020302020302020300A20202032332E3537353920202D31342E3832313120202020302E303030302043202020302020302020302020302020302020302020302020302020302020302020302020300A20202032322E3433303020202D31362E3836383920202020302E303030302043202020302020302020302020302020302020302020302020302020302020302020302020300A20202031382E3939373920202D31342E3832313120202020302E303030302043202020302020302020302020302020302020302020302020302020302020302020302020300A20202032342E3530343920202D31322E3536353420202020302E30303030204F202020302020302020302020302020302020302020302020302020302020302020302020300A20202031382E3939373920202D31332E3439343220202020302E303030302043202020302020302020302020302020302020302020302020302020302020302020302020300A20202032342E3731363020202D31352E3437323520202020302E30303030204F202020302020302020302020302020302020302020302020302020302020302020302020300A20202032332E3537303020202D31372E3532363220202020302E303030302043202020302020302020302020302020302020302020302020302020302020302020302020300A20202032312E3135373520202D31372E3539353420202020302E30303030204F202020302020302020302020302020302020302020302020302020302020302020302020300A2020312020322020322020302020202020302020300A2020312020332020312020302020202020302020300A2020312020342020312020302020202020302020300A2020322020352020312020302020202020302020300A2020322020362020312020302020202020302020300A2020332020372020312020302020202020302020300A2020332020382020312020302020202020302020300A2020342020392020322020302020202020302020300A2020352031302020322020302020202020302020300A2020362031312020322020302020202020302020300A2020372031322020322020302020202020302020300A2020382031332020312020302020202020302020300A2020382031342020322020302020202020302020300A2020352020372020312020302020202020302020300A2020392031312020312020302020202020302020300A4D2020454E44
Contributor: MGR
InstType: ESI
InstName: micrOTOF-Q
IoniMethod: ESI
IonPolarity: neg
IsolWidth: 10
TargetGas: Nitrogen
ColEnergy: 10
PeakWidth: 0.028
ChargeDecon: 2
Date: 2010-10-09 19:48:36+02:00
Column: Synergi Fusion RP 2.5 u
Mass: 44.9976-394.921
Num Peaks: 14
92.050 35 93.054 2 134.061 424 135.064 35 136.052 2 146.939 2 162.057 999 163.059 95 164.061 8 178.051 15 
179.054 2 206.047 957 207.049 112 208.053 13 
