Name: 3-Methylindole
CAS: 83-34-1
MW: 131
Formula: C9H9N
Synonym: CID: 6736
Synonym: MassBank: BD000521
Synonym: 3-Methylindole
Synonym: Skatole
Structure: 31302031312020302020302020302020302020302020302020302020303939392056323030300A20202031372E3232353720202D31332E3436323720202020302E303030302043202020302020302020302020302020302020302020302020302020302020302020302020300A20202031372E3233373320202D31322E3034373320202020302E303030302043202020302020302020302020302020302020302020302020302020302020302020302020300A20202031382E3536353220202D31332E3931363820202020302E303030302043202020302020302020302020302020302020302020302020302020302020302020302020300A20202031362E3036313020202D31342E3138343920202020302E303030302043202020302020302020302020302020302020302020302020302020302020302020302020300A20202031362E3036313020202D31312E3333313120202020302E303030302043202020302020302020302020302020302020302020302020302020302020302020302020300A20202031382E3538383520202D31312E3632383120202020302E30303030204E202020302020302020302020302020302020302020302020302020302020302020302020300A20202031392E3430393620202D31322E3738313220202020302E303030302043202020302020302020302020302020302020302020302020302020302020302020302020300A20202031382E3535333520202D31352E3333323220202020302E303030302043202020302020302020302020302020302020302020302020302020302020302020302020300A20202031342E3839363120202D31332E3437343320202020302E303030302043202020302020302020302020302020302020302020302020302020302020302020302020300A20202031342E3839363120202D31322E3034313620202020302E303030302043202020302020302020302020302020302020302020302020302020302020302020302020300A2020312020322020322020302020202020302020300A2020312020332020312020302020202020302020300A2020312020342020312020302020202020302020300A2020322020352020312020302020202020302020300A2020322020362020312020302020202020302020300A2020332020372020322020302020202020302020300A2020332020382020312020302020202020302020300A2020342020392020322020302020202020302020300A2020352031302020322020302020202020302020300A2020362020372020312020302020202020302020300A2020392031302020312020302020202020302020300A4D2020454E44
Contributor: MGR
InstType: ESI
InstName: micrOTOF-Q
IoniMethod: ESI
IonPolarity: pos
IsolWidth: 10
TargetGas: Nitrogen
ColEnergy: 10
PeakWidth: 0.028
ChargeDecon: 2
Date: 2010-10-09 19:48:36+02:00
Column: Synergi Fusion RP 2.5 u
Mass: 44.7885-395.024
Num Peaks: 31
89.038 3 90.046 6 91.053 2 103.053 2 105.069 7 115.055 3 117.058 129 118.062 15 119.070 3 120.080 3 
122.063 2 130.065 42 131.073 44 131.679 2 132.082 753 133.084 83 134.085 4 146.060 15 147.071 10 148.076 195 
149.079 19 150.082 1 259.124 4 260.131 4 261.144 999 262.144 309 263.146 27 264.150 1 279.151 59 280.154 11 
281.157 1 
