Name: Phenacetin
CAS: 62-44-2
MW: 179
Formula: C10H13NO2
Synonym: CID: 4754
Synonym: MassBank: BD000228
Synonym: Phenacetin
Synonym: Acetophenetidin,p-acetophenetidide,4'-ethoxyacetanilide,1-acetyl-p-phenetidin,
Structure: 31332031332020302020302020302020302020302020302020302020303939392056323030300A20202032332E3035323220202D31342E3336323820202020302E303030302043202020302020302020302020302020302020302020302020302020302020302020302020300A20202032332E3035323220202D31352E3736363820202020302E303030302043202020302020302020302020302020302020302020302020302020302020302020302020300A20202032312E3834303620202D31332E3636333820202020302E303030302043202020302020302020302020302020302020302020302020302020302020302020302020300A20202032342E3236393720202D31332E3636393720202020302E30303030204E202020302020302020302020302020302020302020302020302020302020302020302020300A20202032312E3834303620202D31362E3436353820202020302E303030302043202020302020302020302020302020302020302020302020302020302020302020302020300A20202032302E3632383920202D31342E3336323820202020302E303030302043202020302020302020302020302020302020302020302020302020302020302020302020300A20202032352E3438313420202D31342E3336323820202020302E303030302043202020302020302020302020302020302020302020302020302020302020302020302020300A20202032302E3632383920202D31352E3736363820202020302E303030302043202020302020302020302020302020302020302020302020302020302020302020302020300A20202032362E3638373120202D31332E3636393720202020302E303030302043202020302020302020302020302020302020302020302020302020302020302020302020300A20202032352E3438313420202D31352E3736363820202020302E30303030204F202020302020302020302020302020302020302020302020302020302020302020302020300A20202031392E3431313320202D31362E3437313520202020302E30303030204F202020302020302020302020302020302020302020302020302020302020302020302020300A20202031382E3139393720202D31352E3736363820202020302E303030302043202020302020302020302020302020302020302020302020302020302020302020302020300A20202031362E3939333920202D31362E3437313520202020302E303030302043202020302020302020302020302020302020302020302020302020302020302020302020300A2020312020322020312020302020202020302020300A2020312020332020322020302020202020302020300A2020312020342020312020302020202020302020300A2020322020352020322020302020202020302020300A2020332020362020312020302020202020302020300A2020342020372020312020302020202020302020300A2020352020382020312020302020202020302020300A2020372020392020312020302020202020302020300A2020372031302020322020302020202020302020300A2020382031312020312020302020202020302020300A2031312031322020312020302020202020302020300A2031322031332020312020302020202020302020300A2020362020382020322020302020202020302020300A4D2020454E44
Contributor: BSC
InstType: ESI
InstName: micrOTOF-Q
IoniMethod: ESI
IonPolarity: pos
IsolWidth: 10
TargetGas: Nitrogen
ColEnergy: 10
PeakWidth: 0.024
ChargeDecon: 2
Date: 2010-10-09 19:48:36+02:00
Column: Synergi Fusion RP 2.5 u
Mass: 44.7983-395.031
Num Peaks: 13
122.095 8 138.092 17 146.960 7 149.024 17 159.968 5 179.093 6 180.103 999 181.106 105 182.107 9 197.077 6 
202.084 215 203.087 23 204.968 7 
