Name: 5-Aminopentanoic acid
CAS: 660-88-8
MW: 117
Formula: C5H11NO2
Synonym: CID: 138
Synonym: MassBank: BD000626
Synonym: 5-Aminopentanoic acid
Synonym: 5-Aminopentanoate
Synonym: 5-Aminopentanoic acid
Synonym: 5-Aminovaleric acid
Synonym: Delta-amino-N-valerate
Synonym: Delta-amino-N-valeric acid
Synonym: Delta-aminovalerate
Synonym: 5-Aminovalerate
Synonym: Delta-aminovaleric acid
Structure: 382020372020302020302020302020302020302020302020302020303939392056323030300A20202031382E3333363720202D31342E3338373420202020302E303030302043202020302020302020302020302020302020302020302020302020302020302020302020300A20202031372E3132373420202D31332E3638363220202020302E303030302043202020302020302020302020302020302020302020302020302020302020302020302020300A20202031392E3535323320202D31332E3638363220202020302E303030302043202020302020302020302020302020302020302020302020302020302020302020302020300A20202031352E3931383520202D31342E3338373420202020302E303030302043202020302020302020302020302020302020302020302020302020302020302020302020300A20202032302E3736313620202D31342E3338373420202020302E30303030204F202020302020302020302020302020302020302020302020302020302020302020302020300A20202031392E3535323320202D31322E3238343120202020302E30303030204F202020302020302020302020302020302020302020302020302020302020302020302020300A20202031342E3730323720202D31332E3638363220202020302E303030302043202020302020302020302020302020302020302020302020302020302020302020302020300A20202031332E3439333620202D31342E3338373420202020302E30303030204E202020302020302020302020302020302020302020302020302020302020302020302020300A2020312020322020312020302020202020302020300A2020312020332020312020302020202020302020300A2020322020342020312020302020202020302020300A2020332020352020312020302020202020302020300A2020332020362020322020302020202020302020300A2020342020372020312020302020202020302020300A2020372020382020312020302020202020302020300A4D2020454E44
Contributor: MGR
InstType: ESI
InstName: micrOTOF-Q
IoniMethod: ESI
IonPolarity: pos
IsolWidth: 10
TargetGas: Nitrogen
ColEnergy: 10
PeakWidth: 0.026
ChargeDecon: 2
Date: 2010-10-09 19:48:36+02:00
Column: Synergi Fusion RP 2.5 u
Mass: 44.7894-395.028
Num Peaks: 33
72.080 10 82.064 12 83.048 67 100.076 325 101.060 744 102.063 42 115.076 10 118.087 999 119.089 67 120.091 7 
140.069 22 150.112 71 172.134 45 217.156 35 218.984 68 219.986 18 220.983 22 234.963 28 235.166 129 236.169 16 
242.002 56 243.004 17 243.999 16 257.136 116 257.979 11 258.135 32 259.134 20 275.147 172 276.149 41 277.145 27 
374.217 124 375.219 37 376.215 26 
