Name: Dimethylsuccinic acid
CAS: 597-43-3
MW: 146
Formula: C6H10O4
Synonym: MassBank: BD001027
Synonym: Dimethylsuccinic acid
Synonym: Dimethylsuccinic acid
Structure: 31313730310A20202D4F454368656D2D3032313930383132303132440A0A2031302020392020302020202020302020302020302020302020302020303939392056323030300A20202020362E383637312020202D302E3331373020202020302E30303030204F202020302020302020302020302020302020302020302020302020302020302020302020300A20202020362E3030313020202020312E3138333020202020302E30303030204F202020302020302020302020302020302020302020302020302020302020302020302020300A20202020322E353336392020202D302E3831373020202020302E30303030204F202020302020302020302020302020302020302020302020302020302020302020302020300A20202020332E3430333020202020302E3638333020202020302E30303030204F202020302020302020302020302020302020302020302020302020302020302020302020300A20202020352E313335302020202D302E3331373020202020302E303030302043202020302020302020302020302020302020302020302020302020302020302020302020300A20202020342E323639302020202D302E3831373020202020302E303030302043202020302020302020302020302020302020302020302020302020302020302020302020300A20202020342E3633353020202020302E3534393020202020302E303030302043202020302020302020302020302020302020302020302020302020302020302020302020300A20202020352E363335302020202D312E3138333020202020302E303030302043202020302020302020302020302020302020302020302020302020302020302020302020300A20202020362E3030313020202020302E3138333020202020302E303030302043202020302020302020302020302020302020302020302020302020302020302020302020300A20202020332E343033302020202D302E3331373020202020302E303030302043202020302020302020302020302020302020302020302020302020302020302020302020300A2020312020392020312020302020302020302020300A2020322020392020322020302020302020302020300A2020332031302020312020302020302020302020300A2020342031302020322020302020302020302020300A2020352020362020312020302020302020302020300A2020352020372020312020302020302020302020300A2020352020382020312020302020302020302020300A2020352020392020312020302020302020302020300A2020362031302020312020302020302020302020300A4D2020454E44
Contributor: GZ
InstType: ESI
InstName: micrOTOF-Q
IoniMethod: ESI
IonPolarity: pos
IsolWidth: 10
TargetGas: Nitrogen
ColEnergy: 10
PeakWidth: 0.026
ChargeDecon: 2
Date: 2010-10-09 19:48:36+02:00
Column: Synergi Fusion RP 2.5 u
Mass: 44.9446-395.15
Num Peaks: 22
77.006 9 95.016 9 101.059 37 113.964 9 119.050 16 128.951 7 129.054 200 130.057 17 131.974 10 137.027 27 
146.663 7 146.967 8 147.065 999 148.069 67 149.025 31 159.969 7 161.060 23 163.941 9 168.574 7 169.047 930 
170.050 60 171.053 9 
