Name: D-Erythronolactone
CAS: 15667-21-7
MW: 118
Formula: C4H6O4
Synonym: CID: 5325915
Synonym: MassBank: BD000403
Synonym: D-Erythronolactone
Synonym: (3R,4R)-3,4-Dihydroxyoxolan-2-one
Structure: 382020382020302020302020312020302020302020302020302020303939392056323030300A20202020372E3037303020202D31302E3135303020202020302E303030302043202020302020302020302020302020302020302020302020302020302020302020302020300A20202020382E3437303020202D31302E3135303020202020302E303030302043202020302020302020302020302020302020302020302020302020302020302020302020300A20202020382E393032362020202D382E3831383520202020302E303030302043202020302020302020302020302020302020302020302020302020302020302020302020300A20202020372E373730302020202D372E3939353620202020302E30303030204F202020302020302020302020302020302020302020302020302020302020302020302020300A20202020362E363337342020202D382E3831383520202020302E303030302043202020302020302020302020302020302020302020302020302020302020302020302020300A20202020392E3239323920202D31312E3238323620202020302E30303030204F202020302020302020302020302020302020302020302020302020302020302020302020300A20202020362E3234373120202D31312E3238323620202020302E30303030204F202020302020302020302020302020302020302020302020302020302020302020302020300A20202020352E333137382020202D382E3338393720202020302E30303030204F202020302020302020302020302020302020302020302020302020302020302020302020300A2020312020322020312020302020202020302020300A2020322020332020312020302020202020302020300A2020332020342020312020302020202020302020300A2020342020352020312020302020202020302020300A2020312020352020312020302020202020302020300A2020322020362020312020312020202020302020300A2020312020372020312020312020202020302020300A2020352020382020322020302020202020302020300A4D2020454E44
Contributor: MGR
InstType: ESI
InstName: micrOTOF-Q
IoniMethod: ESI
IonPolarity: pos
IsolWidth: 10
TargetGas: Nitrogen
ColEnergy: 10
PeakWidth: 0.027
ChargeDecon: 2
Date: 2010-10-09 19:48:36+02:00
Column: Synergi Fusion RP 2.5 u
Mass: 44.7881-395.02
Num Peaks: 37
73.027 25 83.012 10 87.043 15 89.022 5 91.038 44 101.023 39 103.038 6 104.069 26 105.056 7 112.051 11 
115.039 10 119.034 999 120.037 48 121.038 10 122.072 75 123.077 4 124.070 27 133.049 190 134.051 14 137.043 121 
138.046 5 141.015 73 142.017 5 173.041 111 174.038 8 177.031 6 177.522 6 178.021 52 178.522 8 179.036 52 
179.537 7 180.020 14 181.035 4 205.010 18 206.026 54 206.530 7 207.040 8 
