Name: Erythritol
CAS: 149-32-6
MW: 122
Formula: C4H10O4
Synonym: CID: 8998
Synonym: MassBank: BD000428
Synonym: Erythritol
Synonym: Erythrol
Synonym: 1,2,3,4-Butanetetrol
Synonym: Butane-1,2,3,4-tetro
Synonym: Erythrite
Synonym: Meso-1,2,3,4-tetrahydroxybutane
Synonym: i-Erythritol
Synonym: Phycite
Synonym: Phycitol
Synonym: Meso-Erythritol
Structure: 382020372020302020302020302020302020302020302020302020303939392056323030300A20202032312E3037393720202D31342E3335333320202020302E303030302043202020302020302020332020302020302020302020302020302020302020302020302020300A20202032312E3037393720202D31352E3735333020202020302E303030302043202020302020302020332020302020302020302020302020302020302020302020302020300A20202032322E3238363020202D31332E3634333920202020302E303030302043202020302020302020302020302020302020302020302020302020302020302020302020300A20202032302E3038363520202D31332E3336303120202020302E30303030204F202020302020302020302020302020302020302020302020302020302020302020302020300A20202032322E3238363020202D31362E3435353920202020302E303030302043202020302020302020302020302020302020302020302020302020302020302020302020300A20202032302E3038303120202D31362E3734363220202020302E30303030204F202020302020302020302020302020302020302020302020302020302020302020302020300A20202032332E3633333920202D31332E3939383520202020302E30303030204F202020302020302020302020302020302020302020302020302020302020302020302020300A20202032332E3633333920202D31362E3038383420202020302E30303030204F202020302020302020302020302020302020302020302020302020302020302020302020300A2020312020322020312020302020202020302020300A2020312020332020312020302020202020302020300A2020312020342020312020302020202020302020300A2020322020352020312020302020202020302020300A2020322020362020312020302020202020302020300A2020332020372020312020302020202020302020300A2020352020382020312020302020202020302020300A4D2020454E44
Contributor: MGR
InstType: ESI
InstName: micrOTOF-Q
IoniMethod: ESI
IonPolarity: pos
IsolWidth: 10
TargetGas: Nitrogen
ColEnergy: 10
PeakWidth: 0.03
ChargeDecon: 2
Date: 2010-10-09 19:48:36+02:00
Column: Synergi Fusion RP 2.5 u
Mass: 118.031-134.103
Num Peaks: 3
123.065 999 124.069 46 125.070 9 
