Name: Guanidinopropionic acid
CAS: 353-09-3
MW: 131
Formula: C4H9N3O2
Synonym: CID: 67701
Synonym: MassBank: BD000889
Synonym: Guanidinopropionic acid
Synonym: 3-Carbamimidamidopropanoic acid
Synonym: 3-Guanidinopropanoate
Synonym: 3-Guanidinopropanoic acid
Synonym: 3-Guanidinopropionic acid
Synonym: Beta-guanadinopropionate
Synonym: Beta-guanidinopropionic acid
Synonym: N-(Aminoiminomethyl)-beta-alanine
Structure: 392020382020302020302020302020302020302020302020302020303939392056323030300A20202032342E3238373420202D31342E3636323220202020302E303030302043202020302020302020302020302020302020302020302020302020302020302020302020300A20202032332E3038373020202D31332E3936393820202020302E303030302043202020302020302020302020302020302020302020302020302020302020302020302020300A20202032342E3238373420202D31362E3131353820202020302E30303030204F202020302020302020302020302020302020302020302020302020302020302020302020300A20202032352E3438313520202D31332E3936393820202020302E30303030204F202020302020302020302020302020302020302020302020302020302020302020302020300A20202032312E3839323920202D31342E3636323220202020302E303030302043202020302020302020302020302020302020302020302020302020302020302020302020300A20202032302E3639383920202D31332E3936393820202020302E30303030204E202020302020302020302020302020302020302020302020302020302020302020302020300A20202031392E3439383420202D31342E3636323220202020302E303030302043202020302020302020302020302020302020302020302020302020302020302020302020300A20202031382E3330343420202D31332E3936393820202020302E30303030204E202020302020302020302020302020302020302020302020302020302020302020302020300A20202031392E3530343820202D31362E3131353820202020302E30303030204E202020302020302020302020302020302020302020302020302020302020302020302020300A2020312020322020312020302020202020302020300A2020312020332020312020302020202020302020300A2020312020342020322020302020202020302020300A2020322020352020312020302020202020302020300A2020352020362020312020302020202020302020300A2020362020372020312020302020202020302020300A2020372020382020312020302020202020302020300A2020372020392020322020302020202020302020300A4D2020454E44
Contributor: MGR
InstType: ESI
InstName: micrOTOF-Q
IoniMethod: ESI
IonPolarity: neg
MSMS: 2
IsolWidth: 10
TargetGas: Nitrogen
ColEnergy: -11
PeakWidth: 0.033
ChargeDecon: 2
Date: 2010-10-09 19:48:36+02:00
Column: Synergi Fusion RP 2.5 u
Mass: 44.9897-394.87
Num Peaks: 3
88.038 999 89.041 42 130.062 27 
