Name: 3-Phenylpropionylglycine
CAS: 56613-60-6
MW: 207
Formula: C11H13O3N
Synonym: CID: 2850858
Synonym: MassBank: BD000303
Synonym: 3-Phenylpropionylglycine
Synonym: (3-Phenylpropionyl)glycine ,(3-phenyl-propionylamino)-acetate ,(3-phenyl-propionylamino)-acetic acid ,N-(3-phenylpropanoyl)glycine ,N-(3-phenyl-propionyl)-glycine ,phenylpropionylglycine,,
Structure: 31352031352020302020302020302020302020302020302020302020303939392056323030300A20202031382E3438303020202D32312E3231303020202020302E303030302043202020302020302020302020302020302020302020302020302020302020302020302020300A20202031382E3438303020202D32322E3631303020202020302E303030302043202020302020302020302020302020302020302020302020302020302020302020302020300A20202031392E3639323420202D32332E3331303020202020302E303030302043202020302020302020302020302020302020302020302020302020302020302020302020300A20202032302E3930343920202D32322E3631303020202020302E303030302043202020302020302020302020302020302020302020302020302020302020302020302020300A20202032302E3930343920202D32312E3231303020202020302E303030302043202020302020302020302020302020302020302020302020302020302020302020302020300A20202031392E3639323420202D32302E3531303020202020302E303030302043202020302020302020302020302020302020302020302020302020302020302020302020300A20202031392E3637313720202D31392E3131303020202020302E303030302043202020302020302020302020302020302020302020302020302020302020302020302020300A20202032302E3838343920202D31382E3431313520202020302E303030302043202020302020302020302020302020302020302020302020302020302020302020302020300A20202032302E3838363620202D31372E3031313520202020302E303030302043202020302020302020302020302020302020302020302020302020302020302020302020300A20202032322E3039393920202D31362E3331323920202020302E30303030204E202020302020302020302020302020302020302020302020302020302020302020302020300A20202032322E3130313620202D31342E3931323920202020302E303030302043202020302020302020302020302020302020302020302020302020302020302020302020300A20202032332E3331343820202D31342E3231343420202020302E303030302043202020302020302020302020302020302020302020302020302020302020302020302020300A20202031382E3435333220202D31382E3431373620202020302E30303030204F202020302020302020302020302020302020302020302020302020302020302020302020300A20202032342E3532303920202D31342E3931323620202020302E30303030204F202020302020302020302020302020302020302020302020302020302020302020302020300A20202032332E3331363520202D31322E3831303020202020302E30303030204F202020302020302020302020302020302020302020302020302020302020302020302020300A2020312020322020322020302020202020302020300A2020322020332020312020302020202020302020300A2020332020342020322020302020202020302020300A2020342020352020312020302020202020302020300A2020352020362020322020302020202020302020300A2020312020362020312020302020202020302020300A2020362020372020312020302020202020302020300A2020372020382020312020302020202020302020300A2020382020392020312020302020202020302020300A2020392031302020312020302020202020302020300A2031302031312020312020302020202020302020300A2031312031322020312020302020202020302020300A2020372031332020322020302020202020302020300A2031322031342020322020302020202020302020300A2031322031352020312020302020202020302020300A4D2020454E44
Contributor: BSC
InstType: ESI
InstName: micrOTOF-Q
IoniMethod: ESI
IonPolarity: neg
IsolWidth: 10
TargetGas: Nitrogen
ColEnergy: 10
PeakWidth: 0.03
ChargeDecon: 2
Date: 2010-10-09 19:48:36+02:00
Column: Synergi Fusion RP 2.5 u
Mass: 201.033-218.139
Num Peaks: 3
206.082 999 207.086 125 208.089 13 
