Name: MassBank: BD000571
CAS: 14883-87-5
MW: 184
Formula: C8H8O5
Synonym: CID: 85782
Synonym: MassBank: BD000571
Synonym: 3,4-Dihydroxymandelic acid
Synonym: 3,4 Dihydroxymandelate
Synonym: (+-)-Isomer,3,4-dihydroxymandelic acid
Synonym: (S)-Isomer,3,4-dihydroxymandelic acid
Synonym: 2-(3,4-Dihydroxyphenyl)-2-hydroxy-acetic acid
Synonym: 3,4 Dihydroxymandelic acid
Synonym: 3,4-Dihydroxymandelate
Synonym: 3,4-Dihydroxymandelic acid
Synonym: 3,4-Dihydroxyphenylglycolate
Synonym: 3,4-Dihydroxyphenylglycolic acid
Synonym: DHMA
Synonym: Dihydroxymandelate
Synonym: Dihydroxymandelic acid
Synonym: DL-3,4-dihydroxymandelic acid
Structure: 31332031332020302020302020302020302020302020302020302020303939392056323030300A20202031372E3135303720202D31332E3331323320202020302E303030302043202020302020302020302020302020302020302020302020302020302020302020302020300A20202031382E3336373020202D31322E3630383120202020302E303030302043202020302020302020302020302020302020302020302020302020302020302020302020300A20202031372E3135303720202D31342E3731343820202020302E303030302043202020302020302020302020302020302020302020302020302020302020302020302020300A20202031352E3934303120202D31322E3630383120202020302E303030302043202020302020302020332020302020302020302020302020302020302020302020302020300A20202031392E3537313720202D31332E3331323320202020302E303030302043202020302020302020302020302020302020302020302020302020302020302020302020300A20202031382E3336373020202D31352E3430373420202020302E303030302043202020302020302020302020302020302020302020302020302020302020302020302020300A20202031342E3732333820202D31332E3331323320202020302E303030302043202020302020302020302020302020302020302020302020302020302020302020302020300A20202031352E3934303120202D31312E3231313520202020302E30303030204F202020302020302020302020302020302020302020302020302020302020302020302020300A20202031392E3537313720202D31342E3731343820202020302E303030302043202020302020302020302020302020302020302020302020302020302020302020302020300A20202032302E3738383020202D31322E3630383120202020302E30303030204F202020302020302020302020302020302020302020302020302020302020302020302020300A20202031332E3531333420202D31322E3630383120202020302E30303030204F202020302020302020302020302020302020302020302020302020302020302020302020300A20202031342E3732333820202D31342E3730393120202020302E30303030204F202020302020302020302020302020302020302020302020302020302020302020302020300A20202032302E3738383020202D31352E3430373420202020302E30303030204F202020302020302020302020302020302020302020302020302020302020302020302020300A2020312020322020312020302020202020302020300A2020312020332020322020302020202020302020300A2020312020342020312020302020202020302020300A2020322020352020322020302020202020302020300A2020332020362020312020302020202020302020300A2020342020372020312020302020202020302020300A2020342020382020312020302020202020302020300A2020352020392020312020302020202020302020300A2020352031302020312020302020202020302020300A2020372031312020312020302020202020302020300A2020372031322020322020302020202020302020300A2020392031332020312020302020202020302020300A2020362020392020322020302020202020302020300A4D2020454E44
Contributor: MGR
InstType: ESI
InstName: micrOTOF-Q
IoniMethod: ESI
IonPolarity: pos
IsolWidth: 10
TargetGas: Nitrogen
ColEnergy: 10
PeakWidth: 0.025
ChargeDecon: 2
Date: 2010-10-09 19:48:36+02:00
Column: Synergi Fusion RP 2.5 u
Mass: 44.7924-395.048
Num Peaks: 15
93.033 12 111.044 65 112.047 4 121.030 5 137.025 7 139.039 200 140.042 15 149.023 68 150.027 6 159.968 3 
167.034 999 168.037 83 169.038 12 287.056 50 288.060 9 
