Name: 5-Hydroxy-6-methyluracil
MW: 156
Formula: C6H8N2O3
Synonym: MassBank: BD001015
Synonym: 5-Hydroxy-6-methyluracil
Contributor: Bruker Library
InstType: ESI
InstName: micrOTOF-Q
IoniMethod: ESI
IonPolarity: neg
MSMS: 2
IsolWidth: 10
TargetGas: Nitrogen
ColEnergy: 10
PeakWidth: 0.027
ChargeDecon: 2
Date: 2010-10-09 19:48:36+02:00
Column: Synergi Fusion RP 2.5 u
Mass: 44.9899-394.861
Num Peaks: 5
94.029 17 112.040 14 137.035 999 138.038 65 155.046 163 
