Name: BOC Valine
MW: 217
Formula: C10H19NO4
Synonym: CID: 270655
Synonym: MassBank: BD000343
Synonym: BOC Valine
Structure: 3237303635350A20202D4F454368656D2D3032313930383036313032440A0A2031352031342020302020202020312020302020302020302020302020303939392056323030300A20202020362E3836373120202020302E3530303020202020302E30303030204F202020302020302020302020302020302020302020302020302020302020302020302020300A20202020322E3533363920202020302E3030303020202020302E30303030204F202020302020302020302020302020302020302020302020302020302020302020302020300A20202020332E3430333020202020312E3530303020202020302E30303030204F202020302020302020302020302020302020302020302020302020302020302020302020300A20202020362E303031302020202D312E3030303020202020302E30303030204F202020302020302020302020302020302020302020302020302020302020302020302020300A20202020352E3133353020202020302E3530303020202020302E30303030204E202020302020302020302020302020302020302020302020302020302020302020302020300A20202020342E323639302020202D312E3030303020202020302E303030302043202020302020302020302020302020302020302020302020302020302020302020302020300A20202020342E3236393020202020302E3030303020202020302E303030302043202020302020302020332020302020302020302020302020302020302020302020302020300A20202020372E3733333120202020302E3030303020202020302E303030302043202020302020302020302020302020302020302020302020302020302020302020302020300A20202020332E343033302020202D312E3530303020202020302E303030302043202020302020302020302020302020302020302020302020302020302020302020302020300A20202020352E313335302020202D312E3530303020202020302E303030302043202020302020302020302020302020302020302020302020302020302020302020302020300A20202020382E353939312020202D302E3530303020202020302E303030302043202020302020302020302020302020302020302020302020302020302020302020302020300A20202020382E3233333120202020302E3836363020202020302E303030302043202020302020302020302020302020302020302020302020302020302020302020302020300A20202020372E323333312020202D302E3836363020202020302E303030302043202020302020302020302020302020302020302020302020302020302020302020302020300A20202020332E3430333020202020302E3530303020202020302E303030302043202020302020302020302020302020302020302020302020302020302020302020302020300A20202020362E3030313020202020302E3030303020202020302E303030302043202020302020302020302020302020302020302020302020302020302020302020302020300A2020312020382020312020302020302020302020300A2020312031352020312020302020302020302020300A2020322031342020312020302020302020302020300A2020332031342020322020302020302020302020300A2020342031352020322020302020302020302020300A2020352020372020312020302020302020302020300A2020352031352020312020302020302020302020300A2020362020372020312020302020302020302020300A2020362020392020312020302020302020302020300A2020362031302020312020302020302020302020300A2020372031342020312020302020302020302020300A2020382031312020312020302020302020302020300A2020382031322020312020302020302020302020300A2020382031332020312020302020302020302020300A4D2020454E44
Contributor: BSC
InstType: ESI
InstName: micrOTOF-Q
IoniMethod: ESI
IonPolarity: neg
IsolWidth: 10
TargetGas: Nitrogen
ColEnergy: 10
PeakWidth: 0.03
ChargeDecon: 2
Date: 2010-10-09 19:48:36+02:00
Column: Synergi Fusion RP 2.5 u
Mass: 211.074-228.18
Num Peaks: 3
216.124 999 217.127 115 218.128 14 
