Name: Mesaconicacid
CAS: 498-24-8
MW: 130
Formula: C5H6O4
Synonym: CID: 874
Synonym: MassBank: BD000137
Synonym: Mesaconicacid
Synonym: (E)-2-Methylbut-2-enedioic acid
Synonym: Mesaconate,2-methylfumarate,Mesaconic acid,methylfumaric acid,methylfumarate,
Structure: 392020382020302020302020302020302020302020302020302020303939392056323030300A20202032312E3833353220202D31342E3232323620202020302E303030302043202020302020302020302020302020302020302020302020302020302020302020302020300A20202032312E3833353220202D31352E3632363520202020302E303030302043202020302020302020302020302020302020302020302020302020302020302020302020300A20202032332E3034363020202D31332E3532373120202020302E303030302043202020302020302020302020302020302020302020302020302020302020302020302020300A20202032302E3632343420202D31332E3532373120202020302E303030302043202020302020302020302020302020302020302020302020302020302020302020302020300A20202032302E3632343420202D31362E3332383620202020302E303030302043202020302020302020302020302020302020302020302020302020302020302020302020300A20202032342E3235363920202D31342E3232383920202020302E30303030204F202020302020302020302020302020302020302020302020302020302020302020302020300A20202032332E3034363020202D31322E3236333120202020302E30303030204F202020302020302020302020302020302020302020302020302020302020302020302020300A20202031392E3431333820202D31352E3632303220202020302E30303030204F202020302020302020302020302020302020302020302020302020302020302020302020300A20202032302E3632343420202D31372E3836363220202020302E30303030204F202020302020302020302020302020302020302020302020302020302020302020302020300A2020312020322020322020302020202020302020300A2020312020332020312020302020202020302020300A2020312020342020312020302020202020302020300A2020322020352020312020302020202020302020300A2020332020362020312020302020202020302020300A2020332020372020322020302020202020302020300A2020352020382020312020302020202020302020300A2020352020392020322020302020202020302020300A4D2020454E44
Contributor: BSC
InstType: ESI
InstName: micrOTOF-Q
IoniMethod: ESI
IonPolarity: pos
IsolWidth: 10
TargetGas: Nitrogen
ColEnergy: 10
PeakWidth: 0.025
ChargeDecon: 2
Date: 2010-10-09 19:48:36+02:00
Column: Synergi Fusion RP 2.5 u
Mass: 44.7976-395.034
Num Peaks: 38
85.029 577 113.024 421 130.065 48 131.034 999 132.037 55 144.082 82 146.962 43 149.041 351 159.969 38 161.076 39 
162.090 68 181.952 135 204.970 40 209.014 48 224.128 58 243.992 295 244.993 35 245.995 130 247.979 51 260.998 42 
262.002 119 264.004 93 265.979 111 267.003 53 269.006 55 270.989 40 288.992 101 323.039 59 331.987 59 332.994 75 
335.004 51 349.996 186 351.004 83 353.007 36 355.001 128 356.007 40 373.014 160 374.019 35 
