Name: MassBank: BD000585
CAS: 300-39-0
MW: 432
Formula: C9H9I2NO3
Synonym: CID: 6181
Synonym: MassBank: BD000585
Synonym: 3,5-Diiodo-L-tyrosine
Synonym: 3,5-Diiodo-L-tyrosine Dihydrate
Synonym: (2S)-2-Amino-3-(4-hydroxy-3,5-diiodophenyl)propanoic acid
Synonym: 3,5-Diiodotyrosine
Synonym: 3,5-Iodo-L-tyrosine
Synonym: 3,5-L-Diiodotyrosine
Synonym: 4-Hydroxy-3,5-diiodophenylalanine
Synonym: DIT
Synonym: Iodogorgoic acid
Synonym: L-3,5-Diiodotyrosine
Synonym: Diiodotyrosine
Synonym: L-Diiodotyrosine
Structure: 31352031352020302020302020312020302020302020302020302020303939392056323030300A20202031372E3739373320202D31322E3631383220202020302E303030302043202020302020302020302020302020302020302020302020302020302020302020302020300A20202031372E3739373320202D31342E3032323020202020302E303030302043202020302020302020302020302020302020302020302020302020302020302020302020300A20202031392E3031343720202D31312E3931393220202020302E303030302043202020302020302020302020302020302020302020302020302020302020302020302020300A20202031362E3539313520202D31312E3933303820202020302E303030302043202020302020302020302020302020302020302020302020302020302020302020302020300A20202031392E3031343720202D31342E3732313020202020302E303030302043202020302020302020302020302020302020302020302020302020302020302020302020300A20202032302E3232363320202D31322E3631383220202020302E303030302043202020302020302020302020302020302020302020302020302020302020302020302020300A20202031352E3337393920202D31322E3632333920202020302E303030302043202020302020302020312020302020302020302020302020302020302020302020302020300A20202032302E3232363320202D31342E3032323020202020302E303030302043202020302020302020302020302020302020302020302020302020302020302020302020300A20202031392E3031343720202D31362E3132343920202020302E303030302049202020302020302020302020302020302020302020302020302020302020302020302020300A20202032312E3433383020202D31312E3932343920202020302E303030302049202020302020302020302020302020302020302020302020302020302020302020302020300A20202031342E3136323520202D31312E3933303820202020302E303030302043202020302020302020302020302020302020302020302020302020302020302020302020300A20202031352E3337393920202D31342E3032373920202020302E30303030204E202020302020302020302020302020302020302020302020302020302020302020302020300A20202032312E3433383020202D31342E3732313020202020302E30303030204F202020302020302020302020302020302020302020302020302020302020302020302020300A20202031322E3935303820202D31322E3632333920202020302E30303030204F202020302020302020302020302020302020302020302020302020302020302020302020300A20202031342E3136323520202D31302E3532373020202020302E30303030204F202020302020302020302020302020302020302020302020302020302020302020302020300A2020312020322020322020302020202020302020300A2020312020332020312020302020202020302020300A2020312020342020312020302020202020302020300A2020322020352020312020302020202020302020300A2020332020362020322020302020202020302020300A2020342020372020312020302020202020302020300A2020352020382020322020302020202020302020300A2020352020392020312020302020202020302020300A2020362031302020312020302020202020302020300A2020372031312020312020302020202020302020300A2020372031322020312020362020202020302020300A2020382031332020312020302020202020302020300A2031312031342020312020302020202020302020300A2031312031352020322020302020202020302020300A2020362020382020312020302020202020302020300A4D2020454E44
Contributor: MGR
InstType: ESI
InstName: micrOTOF-Q
IoniMethod: ESI
IonPolarity: neg
IsolWidth: 10
TargetGas: Nitrogen
ColEnergy: 10
PeakWidth: 0.03
ChargeDecon: 2
Date: 2010-10-09 19:48:36+02:00
Column: Synergi Fusion RP 2.5 u
Mass: 426.779-443.944
Num Peaks: 3
431.860 999 432.863 103 433.865 11 
