Name: MassBank: BD000974
CAS: 303-38-8
MW: 154
Formula: C7H6O4
Synonym: CID: 19
Synonym: MassBank: BD000974
Synonym: 2,3-Dihydroxybenzoic acid
Synonym: 2,3-Dihydroxybenzoate
Synonym: 2-Pyrocatechuate
Synonym: 2-Pyrocatechuic acid
Synonym: 3-Hydroxysalicylate
Synonym: 3-Hydroxysalicylic acid
Synonym: Catechol-3-carboxylate
Synonym: Catecholcarboxylate
Synonym: Catecholcarboxylic acid
Synonym: DHBA
Synonym: DOBK
Synonym: o-Pyrocatechuate
Synonym: o-Pyrocatechuic acid
Synonym: Pyrocatechuate
Synonym: Pyrocatechuic acid
Structure: 31312031312020302020302020302020302020302020302020302020303939392056323030300A20202032322E3233383220202D31322E3634373720202020302E303030302043202020302020302020302020302020302020302020302020302020302020302020302020300A20202032332E3436313220202D31332E3334353720202020302E303030302043202020302020302020302020302020302020302020302020302020302020302020302020300A20202032322E3233313720202D31312E3235313820202020302E303030302043202020302020302020302020302020302020302020302020302020302020302020302020300A20202032312E3032373920202D31332E3334353720202020302E303030302043202020302020302020302020302020302020302020302020302020302020302020302020300A20202032332E3436313220202D31342E3735343420202020302E303030302043202020302020302020302020302020302020302020302020302020302020302020302020300A20202032342E3636353120202D31322E3634313320202020302E30303030204F202020302020302020302020302020302020302020302020302020302020302020302020300A20202032332E3433353620202D31302E3535333920202020302E30303030204F202020302020302020302020302020302020302020302020302020302020302020302020300A20202032312E3032373920202D31302E3536303220202020302E30303030204F202020302020302020302020302020302020302020302020302020302020302020302020300A20202032312E3032373920202D31342E3735343420202020302E303030302043202020302020302020302020302020302020302020302020302020302020302020302020300A20202032322E3233383220202D31352E3436353220202020302E303030302043202020302020302020302020302020302020302020302020302020302020302020302020300A20202032342E3636353120202D31352E3434353920202020302E30303030204F202020302020302020302020302020302020302020302020302020302020302020302020300A2020312020322020312020302020202020302020300A2020312020332020312020302020202020302020300A2020312020342020322020302020202020302020300A2020322020352020322020302020202020302020300A2020322020362020312020302020202020302020300A2020332020372020312020302020202020302020300A2020332020382020322020302020202020302020300A2020342020392020312020302020202020302020300A2020352031302020312020302020202020302020300A2020352031312020312020302020202020302020300A2020392031302020322020302020202020302020300A4D2020454E44
Contributor: MGR
InstType: ESI
InstName: micrOTOF-Q
IoniMethod: ESI
IonPolarity: pos
IsolWidth: 10
TargetGas: Nitrogen
ColEnergy: 10
PeakWidth: 0.026
ChargeDecon: 2
Date: 2010-10-09 19:48:36+02:00
Column: Synergi Fusion RP 2.5 u
Mass: 44.7906-395.037
Num Peaks: 29
81.033 12 107.013 7 109.029 17 110.030 1 111.045 6 127.039 7 136.610 2 137.024 999 138.027 73 139.028 8 
144.079 1 149.024 3 153.018 10 154.024 3 154.552 1 155.034 496 156.037 36 157.039 5 175.000 75 176.004 6 
177.016 29 178.017 2 193.011 47 194.015 4 195.023 3 361.976 76 362.980 15 363.980 3 364.989 2 
