Name: Rosmarinicacid
CAS: 537-15-5
MW: 360
Formula: C18H16O8
Synonym: CID: 5099
Synonym: MassBank: BD000336
Synonym: Rosmarinicacid
Synonym: Rosmarinate
Structure: 32362032372020302020302020312020302020302020302020302020303939392056323030300A20202032352E3437323720202D31352E3733383020202020302E303030302043202020302020302020302020302020302020302020302020302020302020302020302020300A20202032342E3235393820202D31362E3434333520202020302E303030302043202020302020302020302020302020302020302020302020302020302020302020302020300A20202032362E3637333820202D31362E3434333520202020302E303030302043202020302020302020302020302020302020302020302020302020302020302020302020300A20202032352E3437323720202D31342E3333383620202020302E303030302043202020302020302020302020302020302020302020302020302020302020302020302020300A20202032332E3035323820202D31352E3735353520202020302E303030302043202020302020302020312020302020302020302020302020302020302020302020302020300A20202032372E3838363720202D31352E3734333820202020302E303030302043202020302020302020302020302020302020302020302020302020302020302020302020300A20202032362E3637393720202D31332E3634343820202020302E303030302043202020302020302020302020302020302020302020302020302020302020302020302020300A20202032332E3035323820202D31342E3335303320202020302E30303030204F202020302020302020302020302020302020302020302020302020302020302020302020300A20202032312E3833343320202D31362E3434393420202020302E303030302043202020302020302020302020302020302020302020302020302020302020302020302020300A20202032372E3839323420202D31342E3334343520202020302E303030302043202020302020302020302020302020302020302020302020302020302020302020302020300A20202032392E3130353320202D31362E3434393420202020302E30303030204F202020302020302020302020302020302020302020302020302020302020302020302020300A20202032312E3834303020202D31332E3635363520202020302E303030302043202020302020302020302020302020302020302020302020302020302020302020302020300A20202032302E3632313320202D31352E3734333820202020302E30303030204F202020302020302020302020302020302020302020302020302020302020302020302020300A20202032312E3832383320202D31372E3835343620202020302E30303030204F202020302020302020302020302020302020302020302020302020302020302020302020300A20202032392E3130353320202D31332E3634343820202020302E30303030204F202020302020302020302020302020302020302020302020302020302020302020302020300A20202032302E3632373220202D31342E3335303320202020302E303030302043202020302020302020302020302020302020302020302020302020302020302020302020300A20202032312E3834303020202D31322E3235313120202020302E30303030204F202020302020302020302020302020302020302020302020302020302020302020302020300A20202031392E3432303220202D31332E3635363520202020302E303030302043202020302020302020302020302020302020302020302020302020302020302020302020300A20202031382E3231333220202D31342E3335303320202020302E303030302043202020302020302020302020302020302020302020302020302020302020302020302020300A20202031372E3030363220202D31332E3635363520202020302E303030302043202020302020302020302020302020302020302020302020302020302020302020302020300A20202031382E3231333220202D31352E3735353520202020302E303030302043202020302020302020302020302020302020302020302020302020302020302020302020300A20202031352E3738373620202D31342E3335303320202020302E303030302043202020302020302020302020302020302020302020302020302020302020302020302020300A20202031372E3030363220202D31362E3436313120202020302E303030302043202020302020302020302020302020302020302020302020302020302020302020302020300A20202031352E3738373620202D31352E3735353520202020302E303030302043202020302020302020302020302020302020302020302020302020302020302020302020300A20202031342E3537343720202D31332E3635303620202020302E30303030204F202020302020302020302020302020302020302020302020302020302020302020302020300A20202031342E3537343720202D31362E3436313120202020302E30303030204F202020302020302020302020302020302020302020302020302020302020302020302020300A2020312020322020312020302020202020302020300A2020312020332020312020302020202020302020300A2020312020342020322020302020202020302020300A2020322020352020312020302020202020302020300A2020332020362020322020302020202020302020300A2020342020372020312020302020202020302020300A2020352020382020312020362020202020302020300A2020352020392020312020302020202020302020300A2020362031302020312020302020202020302020300A2020362031312020312020302020202020302020300A2020382031322020312020302020202020302020300A2020392031332020312020302020202020302020300A2020392031342020322020302020202020302020300A2031302031352020312020302020202020302020300A2031322031362020312020302020202020302020300A2031322031372020322020302020202020302020300A2031362031382020322020302020202020302020300A2031382031392020312020302020202020302020300A2031392032302020312020302020202020302020300A2031392032312020322020302020202020302020300A2032302032322020322020302020202020302020300A2032312032332020312020302020202020302020300A2032322032342020312020302020202020302020300A2032322032352020312020302020202020302020300A2032342032362020312020302020202020302020300A2020372031302020322020302020202020302020300A2032332032342020322020302020202020302020300A4D2020454E44
Contributor: BSC
InstType: ESI
InstName: micrOTOF-Q
IoniMethod: ESI
IonPolarity: neg
MSMS: 2
IsolWidth: 10
TargetGas: Nitrogen
ColEnergy: 10
PeakWidth: 0.046
ChargeDecon: 2
Date: 2010-10-09 19:48:36+02:00
Column: Synergi Fusion RP 2.5 u
Mass: 21.4609-805.242
Num Peaks: 16
72.992 21 123.045 32 133.029 34 134.033 3 135.045 75 136.049 7 151.038 13 161.024 999 162.028 90 163.030 9 
179.034 189 180.038 17 197.045 404 198.049 39 199.051 5 215.055 9 
