Name: Dihydrothymine
CAS: 696-04-8
MW: 128
Formula: C5H8N2O2
Synonym: CID: 93556
Synonym: MassBank: BD000815
Synonym: Dihydrothymine
Synonym: 5,6-Dihydrothymine
Synonym: 5,6-Dihydro-5-methyluracil
Synonym: 5-Methyl-1,3-diazinane-2,4-dione
Synonym: 5-Methyldihydropyrimidine-2,4(1H,3H)-dione
Structure: 392020392020302020302020302020302020302020302020302020303939392056323030300A20202032312E3833333720202D31342E3331313920202020302E303030302043202020302020302020302020302020302020302020302020302020302020302020302020300A20202032332E3035363220202D31352E3030333120202020302E303030302043202020302020302020332020302020302020302020302020302020302020302020302020300A20202032302E3633303320202D31352E3030333120202020302E30303030204E202020302020302020302020302020302020302020302020302020302020302020302020300A20202032312E3833333720202D31322E3931363520202020302E30303030204F202020302020302020302020302020302020302020302020302020302020302020302020300A20202032332E3035363220202D31362E3431313320202020302E303030302043202020302020302020302020302020302020302020302020302020302020302020302020300A20202032342E3235393620202D31342E3330353420202020302E303030302043202020302020302020302020302020302020302020302020302020302020302020302020300A20202032302E3633303320202D31362E3431313320202020302E303030302043202020302020302020302020302020302020302020302020302020302020302020302020300A20202032312E3833333720202D31372E3132313920202020302E30303030204E202020302020302020302020302020302020302020302020302020302020302020302020300A20202031392E3432303420202D31372E3130323620202020302E30303030204F202020302020302020302020302020302020302020302020302020302020302020302020300A2020312020322020312020302020202020302020300A2020312020332020312020302020202020302020300A2020312020342020322020302020202020302020300A2020322020352020312020302020202020302020300A2020322020362020312020302020202020302020300A2020332020372020312020302020202020302020300A2020352020382020312020302020202020302020300A2020372020392020322020302020202020302020300A2020372020382020312020302020202020302020300A4D2020454E44
Contributor: MGR
InstType: ESI
InstName: micrOTOF-Q
IoniMethod: ESI
IonPolarity: pos
MSMS: 2
IsolWidth: 10
TargetGas: Nitrogen
ColEnergy: 7
PeakWidth: 0.031
ChargeDecon: 2
Date: 2010-10-09 19:48:36+02:00
Column: Synergi Fusion RP 2.5 u
Mass: 44.7886-395.025
Num Peaks: 10
69.033 12 84.044 108 86.060 187 87.063 9 101.070 14 112.040 68 129.066 999 130.057 137 131.062 10 147.077 61 
