Name: (L) Tyrosyl-L-leucine
CAS: 17355-10-1
MW: 294
Formula: C15H22N2O4
Synonym: CID: 87071
Synonym: MassBank: BD000125
Synonym: (L) Tyrosyl-L-leucine
Synonym: (2S)-2-[[(2S)-2-Amino-3-(4-hydroxyphenyl)propanoyl]amino]-4-methylpentanoic acid
Synonym: Tyr-Leu
Structure: 32312032312020302020302020302020302020302020302020302020303939392056323030300A20202031332E3933303020202D31372E3537303020202020302E303030302043202020302020302020302020302020302020302020302020302020302020302020302020300A20202031332E3933303020202D31382E3937303020202020302E303030302043202020302020302020302020302020302020302020302020302020302020302020302020300A20202031352E3134323420202D31392E3637303020202020302E303030302043202020302020302020302020302020302020302020302020302020302020302020302020300A20202031362E3335343920202D31382E3937303020202020302E303030302043202020302020302020302020302020302020302020302020302020302020302020302020300A20202031362E3335343920202D31372E3537303020202020302E303030302043202020302020302020302020302020302020302020302020302020302020302020302020300A20202031352E3134323420202D31362E3837303020202020302E303030302043202020302020302020302020302020302020302020302020302020302020302020302020300A20202031352E3134323420202D31352E3437303220202020302E303030302043202020302020302020302020302020302020302020302020302020302020302020302020300A20202031352E3134323420202D32312E3036393820202020302E30303030204F202020302020302020302020302020302020302020302020302020302020302020302020300A20202031362E3333383020202D31342E3737393820202020302E303030302043202020302020302020302020302020302020302020302020302020302020302020302020300A20202031372E3532353220202D31352E3436353220202020302E30303030204E202020302020302020302020302020302020302020302020302020302020302020302020300A20202031362E3333383220202D31332E3337303320202020302E303030302043202020302020302020302020302020302020302020302020302020302020302020302020300A20202031372E3532393520202D31322E3638323420202020302E30303030204E202020302020302020302020302020302020302020302020302020302020302020302020300A20202031352E3130343720202D31322E3635373820202020302E30303030204F202020302020302020302020302020302020302020302020302020302020302020302020300A20202031372E3532393720202D31312E3237303320202020302E303030302043202020302020302020302020302020302020302020302020302020302020302020302020300A20202031382E3731393920202D31302E3538333120202020302E303030302043202020302020302020302020302020302020302020302020302020302020302020302020300A20202031362E3239353120202D31302E3535373120202020302E303030302043202020302020302020302020302020302020302020302020302020302020302020302020300A20202031392E3930343220202D31312E3236363920202020302E30303030204F202020302020302020302020302020302020302020302020302020302020302020302020300A20202031382E373230322020202D392E3137303320202020302E30303030204F202020302020302020302020302020302020302020302020302020302020302020302020300A20202031362E323935352020202D392E3137303120202020302E303030302043202020302020302020302020302020302020302020302020302020302020302020302020300A20202031372E353139302020202D382E3436343120202020302E303030302043202020302020302020302020302020302020302020302020302020302020302020302020300A20202031352E303934322020202D382E3437353920202020302E303030302043202020302020302020302020302020302020302020302020302020302020302020302020300A2020312020322020322020302020202020302020300A2020322020332020312020302020202020302020300A2020332020342020322020302020202020302020300A2020342020352020312020302020202020302020300A2020352020362020322020302020202020302020300A2020312020362020312020302020202020302020300A2020362020372020312020302020202020302020300A2020332020382020312020302020202020302020300A2020372020392020312020302020202020302020300A2020392031302020312020302020202020302020300A2020392031312020312020302020202020302020300A2031312031322020312020302020202020302020300A2031312031332020322020302020202020302020300A2031322031342020312020302020202020302020300A2031342031352020312020302020202020302020300A2031342031362020312020302020202020302020300A2031352031372020322020302020202020302020300A2031352031382020312020302020202020302020300A2031362031392020312020302020202020302020300A2031392032302020312020302020202020302020300A2031392032312020312020302020202020302020300A4D2020454E44
Contributor: BSC
InstType: ESI
InstName: micrOTOF-Q
IoniMethod: ESI
IonPolarity: neg
MSMS: 2
IsolWidth: 10
TargetGas: Nitrogen
ColEnergy: 10
PeakWidth: 0.045
ChargeDecon: 2
Date: 2010-10-09 19:48:36+02:00
Column: Synergi Fusion RP 2.5 u
Mass: 21.4582-805.257
Num Peaks: 17
106.041 42 107.050 331 108.050 26 119.050 42 130.087 999 131.090 60 134.061 60 141.103 433 142.106 31 143.119 69 
187.109 278 188.113 26 232.133 171 233.138 26 249.161 56 293.150 618 294.152 105 
