Name: 5-Methylcytosine
CAS: 554-01-8
MW: 125
Formula: C5H7N3O
Synonym: CID: 65040
Synonym: MassBank: BD000053
Synonym: 5-Methylcytosine
Synonym: 4-Amino-2-hydroxy-5-methylpyrimidine,4-amino-5-methyl-3H-pyrimidin-2-one
Structure: 392020392020302020302020302020302020302020302020302020303939392056323030300A20202031372E3134333720202D31322E3536313920202020302E303030302043202020302020302020302020302020302020302020302020302020302020302020302020300A20202031382E3336363220202D31332E3235333120202020302E303030302043202020302020302020302020302020302020302020302020302020302020302020302020300A20202031352E3934303320202D31332E3235333120202020302E30303030204E202020302020302020302020302020302020302020302020302020302020302020302020300A20202031372E3134333720202D31312E3136363520202020302E30303030204E202020302020302020302020302020302020302020302020302020302020302020302020300A20202031382E3336363220202D31342E3636313320202020302E303030302043202020302020302020302020302020302020302020302020302020302020302020302020300A20202031392E3536393620202D31322E3535353420202020302E303030302043202020302020302020302020302020302020302020302020302020302020302020302020300A20202031352E3934303320202D31342E3636313320202020302E303030302043202020302020302020302020302020302020302020302020302020302020302020302020300A20202031372E3134333720202D31352E3337313920202020302E30303030204E202020302020302020302020302020302020302020302020302020302020302020302020300A20202031342E3733303420202D31352E3335323620202020302E30303030204F202020302020302020302020302020302020302020302020302020302020302020302020300A2020312020322020312020302020202020302020300A2020312020332020322020302020202020302020300A2020312020342020312020302020202020302020300A2020322020352020322020302020202020302020300A2020322020362020312020302020202020302020300A2020332020372020312020302020202020302020300A2020352020382020312020302020202020302020300A2020372020392020322020302020202020302020300A2020372020382020312020302020202020302020300A4D2020454E44
Contributor: BSC
InstType: ESI
InstName: micrOTOF-Q
IoniMethod: ESI
IonPolarity: neg
MSMS: 2
IsolWidth: 10
TargetGas: Nitrogen
ColEnergy: 10
PeakWidth: 0.03
ChargeDecon: 2
Date: 2010-10-09 19:48:36+02:00
Column: Synergi Fusion RP 2.5 u
Mass: 44.9983-394.902
Num Peaks: 5
81.046 131 95.061 290 123.056 999 124.052 642 166.062 221 
