Name: (L) Tyrosyl-L-leucine
CAS: 17355-10-1
MW: 294
Formula: C15H22N2O4
Synonym: CID: 87071
Synonym: MassBank: BD000127
Synonym: (L) Tyrosyl-L-leucine
Synonym: (2S)-2-[[(2S)-2-Amino-3-(4-hydroxyphenyl)propanoyl]amino]-4-methylpentanoic acid
Synonym: Tyr-Leu
Structure: 32312032312020302020302020302020302020302020302020302020303939392056323030300A20202031332E3933303020202D31372E3537303020202020302E303030302043202020302020302020302020302020302020302020302020302020302020302020302020300A20202031332E3933303020202D31382E3937303020202020302E303030302043202020302020302020302020302020302020302020302020302020302020302020302020300A20202031352E3134323420202D31392E3637303020202020302E303030302043202020302020302020302020302020302020302020302020302020302020302020302020300A20202031362E3335343920202D31382E3937303020202020302E303030302043202020302020302020302020302020302020302020302020302020302020302020302020300A20202031362E3335343920202D31372E3537303020202020302E303030302043202020302020302020302020302020302020302020302020302020302020302020302020300A20202031352E3134323420202D31362E3837303020202020302E303030302043202020302020302020302020302020302020302020302020302020302020302020302020300A20202031352E3134323420202D31352E3437303220202020302E303030302043202020302020302020302020302020302020302020302020302020302020302020302020300A20202031352E3134323420202D32312E3036393820202020302E30303030204F202020302020302020302020302020302020302020302020302020302020302020302020300A20202031362E3333383020202D31342E3737393820202020302E303030302043202020302020302020302020302020302020302020302020302020302020302020302020300A20202031372E3532353220202D31352E3436353220202020302E30303030204E202020302020302020302020302020302020302020302020302020302020302020302020300A20202031362E3333383220202D31332E3337303320202020302E303030302043202020302020302020302020302020302020302020302020302020302020302020302020300A20202031372E3532393520202D31322E3638323420202020302E30303030204E202020302020302020302020302020302020302020302020302020302020302020302020300A20202031352E3130343720202D31322E3635373820202020302E30303030204F202020302020302020302020302020302020302020302020302020302020302020302020300A20202031372E3532393720202D31312E3237303320202020302E303030302043202020302020302020302020302020302020302020302020302020302020302020302020300A20202031382E3731393920202D31302E3538333120202020302E303030302043202020302020302020302020302020302020302020302020302020302020302020302020300A20202031362E3239353120202D31302E3535373120202020302E303030302043202020302020302020302020302020302020302020302020302020302020302020302020300A20202031392E3930343220202D31312E3236363920202020302E30303030204F202020302020302020302020302020302020302020302020302020302020302020302020300A20202031382E373230322020202D392E3137303320202020302E30303030204F202020302020302020302020302020302020302020302020302020302020302020302020300A20202031362E323935352020202D392E3137303120202020302E303030302043202020302020302020302020302020302020302020302020302020302020302020302020300A20202031372E353139302020202D382E3436343120202020302E303030302043202020302020302020302020302020302020302020302020302020302020302020302020300A20202031352E303934322020202D382E3437353920202020302E303030302043202020302020302020302020302020302020302020302020302020302020302020302020300A2020312020322020322020302020202020302020300A2020322020332020312020302020202020302020300A2020332020342020322020302020202020302020300A2020342020352020312020302020202020302020300A2020352020362020322020302020202020302020300A2020312020362020312020302020202020302020300A2020362020372020312020302020202020302020300A2020332020382020312020302020202020302020300A2020372020392020312020302020202020302020300A2020392031302020312020302020202020302020300A2020392031312020312020302020202020302020300A2031312031322020312020302020202020302020300A2031312031332020322020302020202020302020300A2031322031342020312020302020202020302020300A2031342031352020312020302020202020302020300A2031342031362020312020302020202020302020300A2031352031372020322020302020202020302020300A2031352031382020312020302020202020302020300A2031362031392020312020302020202020302020300A2031392032302020312020302020202020302020300A2031392032312020312020302020202020302020300A4D2020454E44
Contributor: BSC
InstType: ESI
InstName: micrOTOF-Q
IoniMethod: ESI
IonPolarity: pos
IsolWidth: 10
TargetGas: Nitrogen
ColEnergy: 10
PeakWidth: 0.04
ChargeDecon: 2
Date: 2010-10-09 19:48:36+02:00
Column: Synergi Fusion RP 2.5 u
Mass: 21.5076-805.164
Num Peaks: 14
132.102 2 136.075 81 137.078 7 181.952 3 201.055 7 249.159 6 277.152 3 278.138 15 279.145 3 295.165 999 
296.167 179 297.169 20 589.317 26 590.321 9 
