Name: 5-Aminolevulinic acid
CAS: 106-60-5
MW: 131
Formula: C5H9NO3
Synonym: CID: 137
Synonym: MassBank: BD000615
Synonym: 5-Aminolevulinic acid
Synonym: 5-Amino-4-oxopentanoate
Synonym: 2-Amino-Levulinic acid
Synonym: 5-Amino-4-oxovaleric acid
Synonym: 5-Aminolevulinate
Synonym: Aminolevulinic acid
Synonym: Delta-aminolevulinic acid
Structure: 392020382020302020302020302020302020302020302020302020303939392056323030300A20202031352E3933353220202D31322E3838303220202020302E303030302043202020302020302020302020302020302020302020302020302020302020302020302020300A20202031372E3135333920202D31332E3538303220202020302E303030302043202020302020302020302020302020302020302020302020302020302020302020302020300A20202031342E3731303020202D31332E3538303220202020302E303030302043202020302020302020302020302020302020302020302020302020302020302020302020300A20202031352E3933353220202D31312E3630373920202020302E30303030204F202020302020302020302020302020302020302020302020302020302020302020302020300A20202031382E3337323720202D31322E3838303220202020302E303030302043202020302020302020302020302020302020302020302020302020302020302020302020300A20202031332E3439313320202D31322E3838303220202020302E30303030204E202020302020302020302020302020302020302020302020302020302020302020302020300A20202031392E3539373920202D31332E3538303220202020302E303030302043202020302020302020302020302020302020302020302020302020302020302020302020300A20202032302E3831363620202D31322E3838303220202020302E30303030204F202020302020302020302020302020302020302020302020302020302020302020302020300A20202031392E3539373920202D31352E3036333820202020302E30303030204F202020302020302020302020302020302020302020302020302020302020302020302020300A2020312020322020312020302020202020302020300A2020312020332020312020302020202020302020300A2020312020342020322020302020202020302020300A2020322020352020312020302020202020302020300A2020332020362020312020302020202020302020300A2020352020372020312020302020202020302020300A2020372020382020312020302020202020302020300A2020372020392020322020302020202020302020300A4D2020454E44
Contributor: MGR
InstType: ESI
InstName: micrOTOF-Q
IoniMethod: ESI
IonPolarity: neg
MSMS: 2
IsolWidth: 10
TargetGas: Nitrogen
ColEnergy: -11
PeakWidth: 0.028
ChargeDecon: 2
Date: 2010-10-09 19:48:36+02:00
Column: Synergi Fusion RP 2.5 u
Mass: 44.9927-394.888
Num Peaks: 4
86.059 122 112.040 219 130.051 999 131.054 73 
