Name: 2-(4-Hydroxyphenyl)propionic acid
CAS: 938-96-5
MW: 166
Formula: C9H10O3
Synonym: MassBank: BD000474
Synonym: 2-(4-Hydroxyphenyl)propionic acid
Structure: 31322031322020302020302020302020302020302020302020302020303939392056323030300A20202031342E3737303020202D31352E3035303020202020302E303030302043202020302020302020302020302020302020302020302020302020302020302020302020300A20202031362E3137303020202D31352E3035303020202020302E303030302043202020302020302020302020302020302020302020302020302020302020302020302020300A20202031362E3837303020202D31332E3833373620202020302E303030302043202020302020302020302020302020302020302020302020302020302020302020302020300A20202031362E3137303020202D31322E3632353120202020302E303030302043202020302020302020302020302020302020302020302020302020302020302020302020300A20202031342E3737303020202D31322E3632353120202020302E303030302043202020302020302020302020302020302020302020302020302020302020302020302020300A20202031342E3037303020202D31332E3833373620202020302E303030302043202020302020302020302020302020302020302020302020302020302020302020302020300A20202031382E3236393820202D31332E3833373620202020302E303030302043202020302020302020302020302020302020302020302020302020302020302020302020300A20202031322E3637303220202D31332E3833373620202020302E30303030204F202020302020302020302020302020302020302020302020302020302020302020302020300A20202031382E3936303320202D31322E3634323020202020302E303030302043202020302020302020302020302020302020302020302020302020302020302020302020300A20202031382E3937393620202D31352E3036363820202020302E303030302043202020302020302020302020302020302020302020302020302020302020302020302020300A20202031382E3236303320202D31312E3432393620202020302E30303030204F202020302020302020302020302020302020302020302020302020302020302020302020300A20202032302E3336393720202D31322E3634313920202020302E30303030204F202020302020302020302020302020302020302020302020302020302020302020302020300A2020312020322020322020302020202020302020300A2020322020332020312020302020202020302020300A2020332020342020322020302020202020302020300A2020342020352020312020302020202020302020300A2020352020362020322020302020202020302020300A2020312020362020312020302020202020302020300A2020332020372020312020302020202020302020300A2020362020382020312020302020202020302020300A2020372020392020312020302020202020302020300A2020372031302020312020302020202020302020300A2020392031312020312020302020202020302020300A2020392031322020322020302020202020302020300A4D2020454E44
Contributor: MGR
InstType: ESI
InstName: micrOTOF-Q
IoniMethod: ESI
IonPolarity: pos
IsolWidth: 10
TargetGas: Nitrogen
ColEnergy: 10
PeakWidth: 0.028
ChargeDecon: 2
Date: 2010-10-09 19:48:36+02:00
Column: Synergi Fusion RP 2.5 u
Mass: 44.7914-395.041
Num Peaks: 25
77.038 7 91.054 30 92.058 3 93.070 35 94.072 3 95.049 15 102.046 3 103.054 53 104.058 5 105.044 8 
120.703 2 121.065 999 122.068 90 123.070 5 137.059 1 149.051 3 166.554 2 167.070 738 168.073 72 169.075 8 
185.081 79 186.084 8 189.052 218 190.055 20 191.058 2 
