Name: Mesaconicacid
CAS: 498-24-8
MW: 130
Formula: C5H6O4
Synonym: CID: 874
Synonym: MassBank: BD000140
Synonym: Mesaconicacid
Synonym: (E)-2-Methylbut-2-enedioic acid
Synonym: Mesaconate,2-methylfumarate,Mesaconic acid,methylfumaric acid,methylfumarate,
Structure: 392020382020302020302020302020302020302020302020302020303939392056323030300A20202032312E3833353220202D31342E3232323620202020302E303030302043202020302020302020302020302020302020302020302020302020302020302020302020300A20202032312E3833353220202D31352E3632363520202020302E303030302043202020302020302020302020302020302020302020302020302020302020302020302020300A20202032332E3034363020202D31332E3532373120202020302E303030302043202020302020302020302020302020302020302020302020302020302020302020302020300A20202032302E3632343420202D31332E3532373120202020302E303030302043202020302020302020302020302020302020302020302020302020302020302020302020300A20202032302E3632343420202D31362E3332383620202020302E303030302043202020302020302020302020302020302020302020302020302020302020302020302020300A20202032342E3235363920202D31342E3232383920202020302E30303030204F202020302020302020302020302020302020302020302020302020302020302020302020300A20202032332E3034363020202D31322E3236333120202020302E30303030204F202020302020302020302020302020302020302020302020302020302020302020302020300A20202031392E3431333820202D31352E3632303220202020302E30303030204F202020302020302020302020302020302020302020302020302020302020302020302020300A20202032302E3632343420202D31372E3836363220202020302E30303030204F202020302020302020302020302020302020302020302020302020302020302020302020300A2020312020322020322020302020202020302020300A2020312020332020312020302020202020302020300A2020312020342020312020302020202020302020300A2020322020352020312020302020202020302020300A2020332020362020312020302020202020302020300A2020332020372020322020302020202020302020300A2020352020382020312020302020202020302020300A2020352020392020322020302020202020302020300A4D2020454E44
Contributor: BSC
InstType: ESI
InstName: micrOTOF-Q
IoniMethod: ESI
IonPolarity: pos
IsolWidth: 10
TargetGas: Nitrogen
ColEnergy: 10
PeakWidth: 0.03
ChargeDecon: 2
Date: 2010-10-09 19:48:36+02:00
Column: Synergi Fusion RP 2.5 u
Mass: 126-142.074
Num Peaks: 3
131.034 999 132.037 56 133.038 9 
