Name: Phthalicacid
CAS: 88-99-3
MW: 166
Formula: C8H6O4
Synonym: MassBank: BD000273
Synonym: Phthalicacid
Synonym: Phthalate,Phthalic acid,1,2-benzenedicarboxylic acid,Kyselina ftalova,Orthophthalic acid,o-benzenedicarboxylic acid,Sunftal 20,o-phthalic acid,o-dicarboxybenzene,Acide phtalique,Phthalsylure,
Synonym: CID 1017
Structure: 31322031322020302020302020302020302020302020302020302020303939392056323030300A20202032312E3834353220202D31352E3735323220202020302E303030302043202020302020302020302020302020302020302020302020302020302020302020302020300A20202032312E3834353220202D31342E3334373820202020302E303030302043202020302020302020302020302020302020302020302020302020302020302020302020300A20202032302E3633393820202D31362E3434383520202020302E303030302043202020302020302020302020302020302020302020302020302020302020302020302020300A20202032332E3036323520202D31362E3434383520202020302E303030302043202020302020302020302020302020302020302020302020302020302020302020302020300A20202032302E3633393820202D31332E3635313520202020302E303030302043202020302020302020302020302020302020302020302020302020302020302020302020300A20202032332E3036323520202D31332E3635313520202020302E303030302043202020302020302020302020302020302020302020302020302020302020302020302020300A20202031392E3432323520202D31352E3735323220202020302E303030302043202020302020302020302020302020302020302020302020302020302020302020302020300A20202032342E3237333620202D31352E3734363320202020302E30303030204F202020302020302020302020302020302020302020302020302020302020302020302020300A20202032332E3036323520202D31372E3834373220202020302E30303030204F202020302020302020302020302020302020302020302020302020302020302020302020300A20202031392E3432323520202D31342E3334373820202020302E303030302043202020302020302020302020302020302020302020302020302020302020302020302020300A20202032342E3237333620202D31342E3335333720202020302E30303030204F202020302020302020302020302020302020302020302020302020302020302020302020300A20202032332E3036323520202D31322E3235323820202020302E30303030204F202020302020302020302020302020302020302020302020302020302020302020302020300A2020312020322020312020302020202020302020300A2020312020332020322020302020202020302020300A2020312020342020312020302020202020302020300A2020322020352020322020302020202020302020300A2020322020362020312020302020202020302020300A2020332020372020312020302020202020302020300A2020342020382020312020302020202020302020300A2020342020392020322020302020202020302020300A2020352031302020312020302020202020302020300A2020362031312020312020302020202020302020300A2020362031322020322020302020202020302020300A2020372031302020322020302020202020302020300A4D2020454E44
Contributor: BSC
InstType: ESI
InstName: micrOTOF-Q
IoniMethod: ESI
IonPolarity: neg
IsolWidth: 10
TargetGas: Nitrogen
ColEnergy: 10
PeakWidth: 0.028
ChargeDecon: 2
Date: 2010-10-09 19:48:36+02:00
Column: Synergi Fusion RP 2.5 u
Mass: 44.9931-394.896
Num Peaks: 9
77.038 4 112.985 3 121.030 999 122.033 71 123.034 6 146.941 4 165.020 968 166.023 86 167.024 11 
