Name: Rosmarinicacid
CAS: 537-15-5
MW: 360
Formula: C18H16O8
Synonym: CID: 5099
Synonym: MassBank: BD000335
Synonym: Rosmarinicacid
Synonym: Rosmarinate
Structure: 32362032372020302020302020312020302020302020302020302020303939392056323030300A20202032352E3437323720202D31352E3733383020202020302E303030302043202020302020302020302020302020302020302020302020302020302020302020302020300A20202032342E3235393820202D31362E3434333520202020302E303030302043202020302020302020302020302020302020302020302020302020302020302020302020300A20202032362E3637333820202D31362E3434333520202020302E303030302043202020302020302020302020302020302020302020302020302020302020302020302020300A20202032352E3437323720202D31342E3333383620202020302E303030302043202020302020302020302020302020302020302020302020302020302020302020302020300A20202032332E3035323820202D31352E3735353520202020302E303030302043202020302020302020312020302020302020302020302020302020302020302020302020300A20202032372E3838363720202D31352E3734333820202020302E303030302043202020302020302020302020302020302020302020302020302020302020302020302020300A20202032362E3637393720202D31332E3634343820202020302E303030302043202020302020302020302020302020302020302020302020302020302020302020302020300A20202032332E3035323820202D31342E3335303320202020302E30303030204F202020302020302020302020302020302020302020302020302020302020302020302020300A20202032312E3833343320202D31362E3434393420202020302E303030302043202020302020302020302020302020302020302020302020302020302020302020302020300A20202032372E3839323420202D31342E3334343520202020302E303030302043202020302020302020302020302020302020302020302020302020302020302020302020300A20202032392E3130353320202D31362E3434393420202020302E30303030204F202020302020302020302020302020302020302020302020302020302020302020302020300A20202032312E3834303020202D31332E3635363520202020302E303030302043202020302020302020302020302020302020302020302020302020302020302020302020300A20202032302E3632313320202D31352E3734333820202020302E30303030204F202020302020302020302020302020302020302020302020302020302020302020302020300A20202032312E3832383320202D31372E3835343620202020302E30303030204F202020302020302020302020302020302020302020302020302020302020302020302020300A20202032392E3130353320202D31332E3634343820202020302E30303030204F202020302020302020302020302020302020302020302020302020302020302020302020300A20202032302E3632373220202D31342E3335303320202020302E303030302043202020302020302020302020302020302020302020302020302020302020302020302020300A20202032312E3834303020202D31322E3235313120202020302E30303030204F202020302020302020302020302020302020302020302020302020302020302020302020300A20202031392E3432303220202D31332E3635363520202020302E303030302043202020302020302020302020302020302020302020302020302020302020302020302020300A20202031382E3231333220202D31342E3335303320202020302E303030302043202020302020302020302020302020302020302020302020302020302020302020302020300A20202031372E3030363220202D31332E3635363520202020302E303030302043202020302020302020302020302020302020302020302020302020302020302020302020300A20202031382E3231333220202D31352E3735353520202020302E303030302043202020302020302020302020302020302020302020302020302020302020302020302020300A20202031352E3738373620202D31342E3335303320202020302E303030302043202020302020302020302020302020302020302020302020302020302020302020302020300A20202031372E3030363220202D31362E3436313120202020302E303030302043202020302020302020302020302020302020302020302020302020302020302020302020300A20202031352E3738373620202D31352E3735353520202020302E303030302043202020302020302020302020302020302020302020302020302020302020302020302020300A20202031342E3537343720202D31332E3635303620202020302E30303030204F202020302020302020302020302020302020302020302020302020302020302020302020300A20202031342E3537343720202D31362E3436313120202020302E30303030204F202020302020302020302020302020302020302020302020302020302020302020302020300A2020312020322020312020302020202020302020300A2020312020332020312020302020202020302020300A2020312020342020322020302020202020302020300A2020322020352020312020302020202020302020300A2020332020362020322020302020202020302020300A2020342020372020312020302020202020302020300A2020352020382020312020362020202020302020300A2020352020392020312020302020202020302020300A2020362031302020312020302020202020302020300A2020362031312020312020302020202020302020300A2020382031322020312020302020202020302020300A2020392031332020312020302020202020302020300A2020392031342020322020302020202020302020300A2031302031352020312020302020202020302020300A2031322031362020312020302020202020302020300A2031322031372020322020302020202020302020300A2031362031382020322020302020202020302020300A2031382031392020312020302020202020302020300A2031392032302020312020302020202020302020300A2031392032312020322020302020202020302020300A2032302032322020322020302020202020302020300A2032312032332020312020302020202020302020300A2032322032342020312020302020202020302020300A2032322032352020312020302020202020302020300A2032342032362020312020302020202020302020300A2020372031302020322020302020202020302020300A2032332032342020322020302020202020302020300A4D2020454E44
Contributor: BSC
InstType: ESI
InstName: micrOTOF-Q
IoniMethod: ESI
IonPolarity: pos
IsolWidth: 10
TargetGas: Nitrogen
ColEnergy: 10
PeakWidth: 0.036
ChargeDecon: 2
Date: 2010-10-09 19:48:36+02:00
Column: Synergi Fusion RP 2.5 u
Mass: 21.4998-805.182
Num Peaks: 23
135.043 14 139.040 5 145.029 14 163.039 999 164.042 95 165.045 11 179.034 14 181.049 58 182.053 7 294.004 6 
323.055 6 343.079 156 344.082 30 345.085 6 359.073 10 361.091 357 362.094 67 363.098 10 378.116 7 379.042 8 
381.058 6 383.071 72 384.074 13 
