Name: Indole-3-propionicacid
CAS: 830-96-6
MW: 189
Formula: C11H11NO2
Synonym: CID: 3744
Synonym: MassBank: BD000590
Synonym: Indole-3-propionicacid
Synonym: 3-Indololpropionic acid
Synonym: 3-(3-Indolyl)propanoic acid
Synonym: 3-(3-Indolyl)propionic acid
Synonym: IPA
Structure: 31342031352020302020302020302020302020302020302020302020303939392056323030300A20202032312E3536303020202D31322E3838303020202020302E303030302043202020302020302020302020302020302020302020302020302020302020302020302020300A20202032322E3236303020202D31342E3039323420202020302E303030302043202020302020302020302020302020302020302020302020302020302020302020302020300A20202032332E3636303020202D31342E3039323420202020302E303030302043202020302020302020302020302020302020302020302020302020302020302020302020300A20202032342E3336303020202D31322E3838303020202020302E303030302043202020302020302020302020302020302020302020302020302020302020302020302020300A20202032332E3636303020202D31312E3636373620202020302E303030302043202020302020302020302020302020302020302020302020302020302020302020302020300A20202032322E3236303020202D31312E3636373620202020302E303030302043202020302020302020302020302020302020302020302020302020302020302020302020300A20202032302E3139303620202D31332E3137313120202020302E303030302043202020302020302020302020302020302020302020302020302020302020302020302020300A20202032302E3034343220202D31342E3536333420202020302E303030302043202020302020302020302020302020302020302020302020302020302020302020302020300A20202032312E3332333220202D31352E3133323820202020302E30303030204E202020302020302020302020302020302020302020302020302020302020302020302020300A20202031392E3132383020202D31322E3231343020202020302E303030302043202020302020302020302020302020302020302020302020302020302020302020302020300A20202031372E3739303720202D31322E3634383420202020302E303030302043202020302020302020302020302020302020302020302020302020302020302020302020300A20202031362E3735353320202D31312E3731363120202020302E303030302043202020302020302020302020302020302020302020302020302020302020302020302020300A20202031352E3430393120202D31322E3135333920202020302E30303030204F202020302020302020302020302020302020302020302020302020302020302020302020300A20202031372E3035303720202D31302E3332373220202020302E30303030204F202020302020302020302020302020302020302020302020302020302020302020302020300A2020312020322020322020302020202020302020300A2020322020332020312020302020202020302020300A2020332020342020322020302020202020302020300A2020342020352020312020302020202020302020300A2020352020362020322020302020202020302020300A2020312020362020312020302020202020302020300A2020312020372020312020302020202020302020300A2020372020382020322020302020202020302020300A2020382020392020312020302020202020302020300A2020322020392020312020302020202020302020300A2020372031302020312020302020202020302020300A2031302031312020312020302020202020302020300A2031312031322020312020302020202020302020300A2031322031332020322020302020202020302020300A2031322031342020312020302020202020302020300A4D2020454E44
Contributor: MGR
InstType: ESI
InstName: micrOTOF-Q
IoniMethod: ESI
IonPolarity: pos
IsolWidth: 10
TargetGas: Nitrogen
ColEnergy: 10
PeakWidth: 0.025
ChargeDecon: 2
Date: 2010-10-09 19:48:36+02:00
Column: Synergi Fusion RP 2.5 u
Mass: 44.7915-395.044
Num Peaks: 13
122.095 39 130.065 730 131.068 76 146.961 26 149.024 48 172.075 203 173.078 28 181.951 66 189.078 56 190.086 999 
191.089 126 212.068 280 213.071 32 
