Name: 5-Hydroxy-6-methyluracil
MW: 156
Formula: C6H8N2O3
Synonym: MassBank: BD001014
Synonym: 5-Hydroxy-6-methyluracil
Contributor: Bruker Library
InstType: ESI
InstName: micrOTOF-Q
IoniMethod: ESI
IonPolarity: neg
IsolWidth: 10
TargetGas: Nitrogen
ColEnergy: 10
PeakWidth: 0.028
ChargeDecon: 2
Date: 2010-10-09 19:48:36+02:00
Column: Synergi Fusion RP 2.5 u
Mass: 44.9899-394.861
Num Peaks: 12
96.960 3 112.040 9 137.036 224 138.038 15 146.940 6 155.047 999 156.049 71 157.050 7 180.974 3 199.020 2 
206.972 4 333.078 5 
