Name: Strychnine
MW: 334
Formula: C21H22N2O2
Synonym: CID: 5304
Synonym: MassBank: BD000366
Synonym: Strychnine
Structure: 353937390A20202D4F454368656D2D3032313530383036323232440A0A2032352033312020302020202020312020302020302020302020302020303939392056323030300A20202020362E383032322020202D322E3039383720202020302E30303030204F202020302020302020302020302020302020302020302020302020302020302020302020300A20202020332E353335312020202D322E3133363620202020302E30303030204F202020302020302020302020302020302020302020302020302020302020302020302020300A20202020352E3830393720202020322E3034303020202020302E30303030204E202020302020302020332020302020302020302020302020302020302020302020302020300A20202020342E343031312020202D302E3731323420202020302E30303030204E202020302020302020302020302020302020302020302020302020302020302020302020300A20202020352E3230313420202020302E3637333920202020302E303030302043202020302020302020322020302020302020302020302020302020302020302020302020300A20202020352E323031342020202D302E3235303320202020302E303030302043202020302020302020332020302020302020302020302020302020302020302020302020300A20202020362E3030313820202020312E3133363020202020302E303030302043202020302020302020322020302020302020302020302020302020302020302020302020300A20202020362E303031382020202D302E3731323420202020302E303030302043202020302020302020312020302020302020302020302020302020302020302020302020300A20202020362E383032322020202D302E3235303320202020302E303030302043202020302020302020312020302020302020302020302020302020302020302020302020300A20202020362E3830323220202020302E3637333920202020302E303030302043202020302020302020302020302020302020302020302020302020302020302020302020300A20202020342E3531343620202020312E3239323320202020302E303030302043202020302020302020302020302020302020302020302020302020302020302020302020300A20202020332E3630303720202020302E3637333920202020302E303030302043202020302020302020302020302020302020302020302020302020302020302020302020300A20202020342E3839303620202020322E3133363620202020302E303030302043202020302020302020302020302020302020302020302020302020302020302020302020300A20202020362E303031382020202D312E3633363620202020302E303030302043202020302020302020332020302020302020302020302020302020302020302020302020300A20202020372E363632352020202D302E3538373920202020302E303030302043202020302020302020302020302020302020302020302020302020302020302020302020300A20202020372E3632363620202020312E3233383720202020302E303030302043202020302020302020302020302020302020302020302020302020302020302020302020300A20202020332E363030372020202D302E3235303320202020302E303030302043202020302020302020302020302020302020302020302020302020302020302020302020300A20202020352E323031342020202D322E3039383720202020302E303030302043202020302020302020302020302020302020302020302020302020302020302020302020300A20202020342E343031312020202D312E3633363620202020302E303030302043202020302020302020302020302020302020302020302020302020302020302020302020300A20202020372E393735382020202D312E3232353820202020302E303030302043202020302020302020302020302020302020302020302020302020302020302020302020300A20202020322E3830303420202020312E3133363020202020302E303030302043202020302020302020302020302020302020302020302020302020302020302020302020300A20202020372E353233392020202D322E3038383420202020302E303030302043202020302020302020302020302020302020302020302020302020302020302020302020300A20202020322E383030342020202D302E3731323420202020302E303030302043202020302020302020302020302020302020302020302020302020302020302020302020300A20202020322E3030303020202020302E3637333920202020302E303030302043202020302020302020302020302020302020302020302020302020302020302020302020300A20202020322E303030302020202D302E3235303320202020302E303030302043202020302020302020302020302020302020302020302020302020302020302020302020300A2020312031342020312020302020302020302020300A2020312032322020312020302020302020302020300A2020322031392020322020302020302020302020300A2020332020372020312020302020302020302020300A2020332031332020312020302020302020302020300A2020332031362020312020302020302020302020300A2020342020362020312020302020302020302020300A2020342031372020312020302020302020302020300A2020342031392020312020302020302020302020300A2020352020362020312020302020302020302020300A2020352020372020312020302020302020302020300A2020352031312020312020302020302020302020300A2020352031322020312020362020302020302020300A2020362020382020312020302020302020302020300A2020372031302020312020302020302020302020300A2020382020392020312020302020302020302020300A2020382031342020312020302020302020302020300A2020392031302020312020302020302020302020300A2020392031352020312020302020302020302020300A2031312031332020312020302020302020302020300A2031322031372020312020302020302020302020300A2031322032312020322020302020302020302020300A2031342031382020312020302020302020302020300A2031352031362020312020302020302020302020300A2031352032302020322020302020302020302020300A2031372032332020322020302020302020302020300A2031382031392020312020302020302020302020300A2032302032322020312020302020302020302020300A2032312032342020312020302020302020302020300A2032332032352020312020302020302020302020300A2032342032352020322020302020302020302020300A4D2020454E44
Contributor: BSC
InstType: ESI
InstName: micrOTOF-Q
IoniMethod: ESI
IonPolarity: pos
IsolWidth: 10
TargetGas: Nitrogen
ColEnergy: 10
PeakWidth: 0.03
ChargeDecon: 2
Date: 2010-10-09 19:48:36+02:00
Column: Synergi Fusion RP 2.5 u
Mass: 330.108-347.248
Num Peaks: 4
335.175 999 336.179 237 337.182 31 338.185 3 
