Name: 3-Methylcatechol
CAS: 488-17-5
MW: 124
Formula: C7H8O2
Synonym: CID: 340
Synonym: MassBank: BD000502
Synonym: 3-Methylcatechol
Synonym: 2,3-Dihydroxytoluene
Structure: 392020392020302020302020302020302020302020302020302020303939392056323030300A20202032322E3434383320202D31352E3030333220202020302E303030302043202020302020302020302020302020302020302020302020302020302020302020302020300A20202032312E3232363120202D31342E3331323120202020302E303030302043202020302020302020302020302020302020302020302020302020302020302020302020300A20202032322E3434383320202D31362E3431313020202020302E303030302043202020302020302020302020302020302020302020302020302020302020302020302020300A20202032332E3635313420202D31342E3330353620202020302E30303030204F202020302020302020302020302020302020302020302020302020302020302020302020300A20202032302E3032323920202D31352E3030333220202020302E303030302043202020302020302020302020302020302020302020302020302020302020302020302020300A20202032312E3232363120202D31322E3931373120202020302E303030302043202020302020302020302020302020302020302020302020302020302020302020302020300A20202032312E3232363120202D31372E3132313420202020302E303030302043202020302020302020302020302020302020302020302020302020302020302020302020300A20202032332E3635373720202D31372E3130383620202020302E30303030204F202020302020302020302020302020302020302020302020302020302020302020302020300A20202032302E3032323920202D31362E3431313020202020302E303030302043202020302020302020302020302020302020302020302020302020302020302020302020300A2020312020322020312020302020202020302020300A2020312020332020322020302020202020302020300A2020312020342020312020302020202020302020300A2020322020352020322020302020202020302020300A2020322020362020312020302020202020302020300A2020332020372020312020302020202020302020300A2020332020382020312020302020202020302020300A2020352020392020312020302020202020302020300A2020372020392020322020302020202020302020300A4D2020454E44
Contributor: MGR
InstType: ESI
InstName: micrOTOF-Q
IoniMethod: ESI
IonPolarity: pos
IsolWidth: 10
TargetGas: Nitrogen
ColEnergy: 10
PeakWidth: 0.024
ChargeDecon: 2
Date: 2010-10-09 19:48:36+02:00
Column: Synergi Fusion RP 2.5 u
Mass: 44.7891-395.028
Num Peaks: 43
77.037 33 79.053 142 95.048 124 105.044 53 107.049 727 108.052 64 123.044 325 124.051 124 125.059 476 126.063 43 
145.025 737 146.029 57 149.023 55 161.033 36 162.045 119 163.038 73 167.517 22 168.016 50 169.023 27 169.531 20 
170.033 22 171.050 27 211.074 53 212.988 37 213.993 34 228.060 22 229.086 79 230.993 28 237.009 192 238.015 105 
245.082 179 246.089 400 247.097 999 248.101 142 289.067 49 291.082 55 300.011 45 302.025 35 303.033 75 318.022 473 
319.028 153 320.033 33 321.045 34 
