Name: 3-(2-Hydroxyphenyl)propionic acid
CAS: 495-78-3
MW: 166
Formula: C9H10O3
Synonym: CID: 873
Synonym: MassBank: BD000536
Synonym: 3-(2-Hydroxyphenyl)propionic acid
Synonym: 2-Hydroxyhydrocinnamic acid
Synonym: 2-Hydroxyphenylpropanoate
Synonym: 2-Hydroxyphenylpropionic acid
Synonym: 3-(2-Hydroxyphenyl)propanoate
Synonym: 3-(2-Hydroxyphenyl)propionate
Synonym: Melilotate
Synonym: Melilotic acid
Structure: 31322031322020302020302020302020302020302020302020302020303939392056323030300A20202031362E3433333520202D31332E3233353120202020302E303030302043202020302020302020302020302020302020302020302020302020302020302020302020300A20202031352E3734313520202D31322E3031373820202020302E303030302043202020302020302020302020302020302020302020302020302020302020302020302020300A20202031372E3833303020202D31332E3233353120202020302E303030302043202020302020302020302020302020302020302020302020302020302020302020302020300A20202031352E3733353220202D31342E3435383720202020302E303030302043202020302020302020302020302020302020302020302020302020302020302020302020300A20202031342E3332353820202D31322E3033303620202020302E303030302043202020302020302020302020302020302020302020302020302020302020302020302020300A20202031362E3433333520202D31302E3831333420202020302E30303030204F202020302020302020302020302020302020302020302020302020302020302020302020300A20202031382E3532313920202D31342E3434353820202020302E303030302043202020302020302020302020302020302020302020302020302020302020302020302020300A20202031342E3333383620202D31342E3436353020202020302E303030302043202020302020302020302020302020302020302020302020302020302020302020302020300A20202031332E3632373420202D31332E3235343220202020302E303030302043202020302020302020302020302020302020302020302020302020302020302020302020300A20202031392E3931383420202D31342E3434353820202020302E303030302043202020302020302020302020302020302020302020302020302020302020302020302020300A20202032302E3631303320202D31352E3635363620202020302E30303030204F202020302020302020302020302020302020302020302020302020302020302020302020300A20202032302E3631303320202D31332E3233353120202020302E30303030204F202020302020302020302020302020302020302020302020302020302020302020302020300A2020312020322020322020302020202020302020300A2020312020332020312020302020202020302020300A2020312020342020312020302020202020302020300A2020322020352020312020302020202020302020300A2020322020362020312020302020202020302020300A2020332020372020312020302020202020302020300A2020342020382020322020302020202020302020300A2020352020392020322020302020202020302020300A2020372031302020312020302020202020302020300A2031302031312020312020302020202020302020300A2031302031322020322020302020202020302020300A2020382020392020312020302020202020302020300A4D2020454E44
Contributor: MGR
InstType: ESI
InstName: micrOTOF-Q
IoniMethod: ESI
IonPolarity: pos
IsolWidth: 10
TargetGas: Nitrogen
ColEnergy: 10
PeakWidth: 0.025
ChargeDecon: 2
Date: 2010-10-09 19:48:36+02:00
Column: Synergi Fusion RP 2.5 u
Mass: 44.7882-395.024
Num Peaks: 19
77.038 6 79.053 10 91.054 13 93.070 16 95.049 16 103.054 30 105.045 7 107.049 199 108.052 16 121.065 309 
122.070 27 149.060 999 150.063 98 151.066 10 167.070 242 168.073 25 189.052 626 190.056 55 191.059 5 
