Name: 3-Methylxanthine
CAS: 1076-22-8
MW: 166
Formula: C6H6N4O2
Synonym: CID: 70639
Synonym: MassBank: BD000524
Synonym: 3-Methylxanthine
Synonym: 2,6-Dihydroxy-3-methylpurine
Synonym: 3-Methyl Xanthine
Synonym: 3-Methyl-3,9-dihydro-purine-2,6-dione
Synonym: 3-Methyl-xanthine
Structure: 31322031332020302020302020302020302020302020302020302020303939392056323030300A20202031372E3639323520202D31342E3539353120202020302E303030302043202020302020302020302020302020302020302020302020302020302020302020302020300A20202031372E3639323520202D31332E3236363120202020302E303030302043202020302020302020302020302020302020302020302020302020302020302020302020300A20202031362E3533383520202D31352E3236353820202020302E30303030204E202020302020302020302020302020302020302020302020302020302020302020302020300A20202031382E3834303220202D31352E3235393620202020302E30303030204E202020302020302020302020302020302020302020302020302020302020302020302020300A20202031362E3533383520202D31322E3630373620202020302E303030302043202020302020302020302020302020302020302020302020302020302020302020302020300A20202031392E3939343020202D31332E3236363120202020302E30303030204E202020302020302020302020302020302020302020302020302020302020302020302020300A20202031352E3430323920202D31342E3539353120202020302E303030302043202020302020302020302020302020302020302020302020302020302020302020302020300A20202031392E3939343020202D31342E3539353120202020302E303030302043202020302020302020302020302020302020302020302020302020302020302020302020300A20202031352E3430323920202D31332E3236363120202020302E30303030204E202020302020302020302020302020302020302020302020302020302020302020302020300A20202031362E3533383520202D31312E3336303920202020302E30303030204F202020302020302020302020302020302020302020302020302020302020302020302020300A20202031342E3236313020202D31352E3234313620202020302E30303030204F202020302020302020302020302020302020302020302020302020302020302020302020300A20202031362E3533333620202D31362E3635393920202020302E303030302043202020302020302020302020302020302020302020302020302020302020302020302020300A2020312020322020322020302020202020302020300A2020312020332020312020302020202020302020300A2020312020342020312020302020202020302020300A2020322020352020312020302020202020302020300A2020322020362020312020302020202020302020300A2020332020372020312020302020202020302020300A2020342020382020322020302020202020302020300A2020352020392020312020302020202020302020300A2020352031302020322020302020202020302020300A2020372031312020322020302020202020302020300A2020362020382020312020302020202020302020300A2020372020392020312020302020202020302020300A2020332031322020312020302020202020302020300A4D2020454E44
Contributor: MGR
InstType: ESI
InstName: micrOTOF-Q
IoniMethod: ESI
IonPolarity: pos
IsolWidth: 10
TargetGas: Nitrogen
ColEnergy: 10
PeakWidth: 0.026
ChargeDecon: 2
Date: 2010-10-09 19:48:36+02:00
Column: Synergi Fusion RP 2.5 u
Mass: 44.792-395.049
Num Peaks: 8
124.050 16 146.962 5 149.026 11 159.970 5 161.064 4 167.057 999 168.059 78 169.061 6 
