Name: Pimelicacid
CAS: 111-16-0
MW: 160
Formula: C7H12O4
Synonym: CID: 385
Synonym: MassBank: BD000290
Synonym: Pimelicacid
Synonym: Heptanedioic acid,6-carboxyhexanoate,Pimelate,Pimelic acid
Structure: 31312031302020302020302020302020302020302020302020302020303939392056323030300A20202032352E3437373920202D31352E3430353520202020302E303030302043202020302020302020302020302020302020302020302020302020302020302020302020300A20202032342E3236373320202D31362E3130373420202020302E303030302043202020302020302020302020302020302020302020302020302020302020302020302020300A20202032352E3437313320202D31342E3030383220202020302E30303030204F202020302020302020302020302020302020302020302020302020302020302020302020300A20202032362E3638383420202D31362E3130373420202020302E30303030204F202020302020302020302020302020302020302020302020302020302020302020302020300A20202032332E3035303420202D31352E3430353520202020302E303030302043202020302020302020302020302020302020302020302020302020302020302020302020300A20202032312E3833393920202D31362E3130373420202020302E303030302043202020302020302020302020302020302020302020302020302020302020302020302020300A20202032302E3632393420202D31352E3430353520202020302E303030302043202020302020302020302020302020302020302020302020302020302020302020302020300A20202031392E3431323520202D31362E3130373420202020302E303030302043202020302020302020302020302020302020302020302020302020302020302020302020300A20202031382E3230313920202D31352E3430353520202020302E303030302043202020302020302020302020302020302020302020302020302020302020302020302020300A20202031362E3939313420202D31362E3130373420202020302E30303030204F202020302020302020302020302020302020302020302020302020302020302020302020300A20202031382E3230313920202D31342E3030383220202020302E30303030204F202020302020302020302020302020302020302020302020302020302020302020302020300A2020312020322020312020302020202020302020300A2020312020332020312020302020202020302020300A2020312020342020322020302020202020302020300A2020322020352020312020302020202020302020300A2020352020362020312020302020202020302020300A2020362020372020312020302020202020302020300A2020372020382020312020302020202020302020300A2020382020392020312020302020202020302020300A2020392031302020312020302020202020302020300A2020392031312020322020302020202020302020300A4D2020454E44
Contributor: BSC
InstType: ESI
InstName: micrOTOF-Q
IoniMethod: ESI
IonPolarity: neg
IsolWidth: 10
TargetGas: Nitrogen
ColEnergy: 10
PeakWidth: 0.03
ChargeDecon: 2
Date: 2010-10-09 19:48:36+02:00
Column: Synergi Fusion RP 2.5 u
Mass: 154.027-171.108
Num Peaks: 3
159.066 999 160.070 78 161.071 11 
