Name: Ribitol
CAS: 488-81-3
MW: 152
Formula: C5H12O5
Synonym: CID: 827
Synonym: MassBank: BD000324
Synonym: Ribitol
Synonym: Adonitol,meso-ribitol,
Structure: 31302020392020302020302020302020302020302020302020302020303939392056323030300A20202032312E3737313520202D31352E3035303020202020302E303030302043202020302020302020332020302020302020302020302020302020302020302020302020300A20202032312E3737313520202D31332E3634363120202020302E303030302043202020302020302020332020302020302020302020302020302020302020302020302020300A20202032312E3737313520202D31362E3435333920202020302E303030302043202020302020302020332020302020302020302020302020302020302020302020302020300A20202032332E3136383920202D31352E3035303020202020302E30303030204F202020302020302020302020302020302020302020302020302020302020302020302020300A20202032312E3737313520202D31322E3234383520202020302E303030302043202020302020302020302020302020302020302020302020302020302020302020302020300A20202032332E3136383920202D31332E3634363120202020302E30303030204F202020302020302020302020302020302020302020302020302020302020302020302020300A20202032312E3737313520202D31372E3835313520202020302E303030302043202020302020302020302020302020302020302020302020302020302020302020302020300A20202032332E3136383920202D31362E3435333920202020302E30303030204F202020302020302020302020302020302020302020302020302020302020302020302020300A20202032322E3938323120202D31312E3534363420202020302E30303030204F202020302020302020302020302020302020302020302020302020302020302020302020300A20202032302E3535343120202D31382E3535333620202020302E30303030204F202020302020302020302020302020302020302020302020302020302020302020302020300A2020312020322020312020302020202020302020300A2020312020332020312020302020202020302020300A2020312020342020312020302020202020302020300A2020322020352020312020302020202020302020300A2020322020362020312020302020202020302020300A2020332020372020312020302020202020302020300A2020332020382020312020302020202020302020300A2020352020392020312020302020202020302020300A2020372031302020312020302020202020302020300A4D2020454E44
Contributor: BSC
InstType: ESI
InstName: micrOTOF-Q
IoniMethod: ESI
IonPolarity: neg
MSMS: 2
IsolWidth: 10
TargetGas: Nitrogen
ColEnergy: 10
PeakWidth: 0.031
ChargeDecon: 2
Date: 2010-10-09 19:48:36+02:00
Column: Synergi Fusion RP 2.5 u
Mass: 44.9957-394.893
Num Peaks: 16
71.013 255 83.012 72 85.028 78 87.007 27 89.023 679 90.027 27 101.023 999 102.027 52 103.036 29 113.023 44 
119.034 195 131.035 36 133.048 52 149.045 38 151.060 418 152.061 31 
