Name: 3-Methylindole
CAS: 83-34-1
MW: 131
Formula: C9H9N
Synonym: CID: 6736
Synonym: MassBank: BD000523
Synonym: 3-Methylindole
Synonym: Skatole
Structure: 31302031312020302020302020302020302020302020302020302020303939392056323030300A20202031372E3232353720202D31332E3436323720202020302E303030302043202020302020302020302020302020302020302020302020302020302020302020302020300A20202031372E3233373320202D31322E3034373320202020302E303030302043202020302020302020302020302020302020302020302020302020302020302020302020300A20202031382E3536353220202D31332E3931363820202020302E303030302043202020302020302020302020302020302020302020302020302020302020302020302020300A20202031362E3036313020202D31342E3138343920202020302E303030302043202020302020302020302020302020302020302020302020302020302020302020302020300A20202031362E3036313020202D31312E3333313120202020302E303030302043202020302020302020302020302020302020302020302020302020302020302020302020300A20202031382E3538383520202D31312E3632383120202020302E30303030204E202020302020302020302020302020302020302020302020302020302020302020302020300A20202031392E3430393620202D31322E3738313220202020302E303030302043202020302020302020302020302020302020302020302020302020302020302020302020300A20202031382E3535333520202D31352E3333323220202020302E303030302043202020302020302020302020302020302020302020302020302020302020302020302020300A20202031342E3839363120202D31332E3437343320202020302E303030302043202020302020302020302020302020302020302020302020302020302020302020302020300A20202031342E3839363120202D31322E3034313620202020302E303030302043202020302020302020302020302020302020302020302020302020302020302020302020300A2020312020322020322020302020202020302020300A2020312020332020312020302020202020302020300A2020312020342020312020302020202020302020300A2020322020352020312020302020202020302020300A2020322020362020312020302020202020302020300A2020332020372020322020302020202020302020300A2020332020382020312020302020202020302020300A2020342020392020322020302020202020302020300A2020352031302020322020302020202020302020300A2020362020372020312020302020202020302020300A2020392031302020312020302020202020302020300A4D2020454E44
Contributor: MGR
InstType: ESI
InstName: micrOTOF-Q
IoniMethod: ESI
IonPolarity: pos
MSMS: 2
IsolWidth: 10
TargetGas: Nitrogen
ColEnergy: 31
PeakWidth: 0.031
ChargeDecon: 2
Date: 2010-10-09 19:48:36+02:00
Column: Synergi Fusion RP 2.5 u
Mass: 44.7885-395.024
Num Peaks: 34
65.038 2 66.045 5 77.038 22 78.042 2 79.053 35 80.056 2 81.034 2 89.038 106 90.047 201 91.053 38 
92.056 3 93.055 2 94.042 3 95.049 36 96.052 3 102.046 2 103.054 42 104.055 7 105.067 82 106.070 8 
115.054 14 116.051 9 116.707 2 117.058 999 118.061 96 119.064 4 121.029 3 122.036 5 128.050 2 130.065 82 
131.072 42 132.081 56 133.083 6 134.062 2 
