Name: 3-Methoxytyramine
CAS: 554-52-9
MW: 167
Formula: C9H13NO2
Synonym: CID: 68384
Synonym: MassBank: BD000500
Synonym: 3-Methoxytyramine
Synonym: 3-Methoxy-4-hydroxyphenethylamine hydrochloride
Synonym: 3-MT
Synonym: 4-(2-Aminoethyl)-2-methoxy-phenol
Synonym: 4-(2-Aminoethyl)-2-methoxyphenol hydrochloride
Synonym: Methoxytyramine
Structure: 31322031322020302020302020302020302020302020302020302020303939392056323030300A20202031352E3435353420202D31332E3833373120202020302E303030302043202020302020302020302020302020302020302020302020302020302020302020302020300A20202031362E3835313920202D31332E3738323620202020302E303030302043202020302020302020302020302020302020302020302020302020302020302020302020300A20202031342E3731363320202D31322E3635313820202020302E303030302043202020302020302020302020302020302020302020302020302020302020302020302020300A20202031342E3439313520202D31342E3836353720202020302E30303030204F202020302020302020302020302020302020302020302020302020302020302020302020300A20202031372E3530393320202D31322E3534363220202020302E303030302043202020302020302020302020302020302020302020302020302020302020302020302020300A20202031352E3337303320202D31312E3431353320202020302E303030302043202020302020302020302020302020302020302020302020302020302020302020302020300A20202031332E3331333020202D31322E3634383420202020302E30303030204F202020302020302020302020302020302020302020302020302020302020302020302020300A20202031332E3133353920202D31352E3232363820202020302E303030302043202020302020302020302020302020302020302020302020302020302020302020302020300A20202031362E3736363820202D31312E3336343320202020302E303030302043202020302020302020302020302020302020302020302020302020302020302020302020300A20202031382E3731383520202D31312E3834313220202020302E303030302043202020302020302020302020302020302020302020302020302020302020302020302020300A20202031392E3932373620202D31322E3534323820202020302E303030302043202020302020302020302020302020302020302020302020302020302020302020302020300A20202032312E3133363720202D31312E3833373720202020302E30303030204E202020302020302020302020302020302020302020302020302020302020302020302020300A2020312020322020322020302020202020302020300A2020312020332020312020302020202020302020300A2020312020342020312020302020202020302020300A2020322020352020312020302020202020302020300A2020332020362020322020302020202020302020300A2020332020372020312020302020202020302020300A2020342020382020312020302020202020302020300A2020352020392020322020302020202020302020300A2020352031302020312020302020202020302020300A2031302031312020312020302020202020302020300A2031312031322020312020302020202020302020300A2020362020392020312020302020202020302020300A4D2020454E44
Contributor: MGR
InstType: ESI
InstName: micrOTOF-Q
IoniMethod: ESI
IonPolarity: pos
IsolWidth: 10
TargetGas: Nitrogen
ColEnergy: 10
PeakWidth: 0.03
ChargeDecon: 2
Date: 2010-10-09 19:48:36+02:00
Column: Synergi Fusion RP 2.5 u
Mass: 163.061-179.147
Num Peaks: 3
168.102 999 169.105 103 170.107 9 
