Name: D-Erythronolactone
CAS: 15667-21-7
MW: 118
Formula: C4H6O4
Synonym: CID: 5325915
Synonym: MassBank: BD000405
Synonym: D-Erythronolactone
Synonym: (3R,4R)-3,4-Dihydroxyoxolan-2-one
Structure: 382020382020302020302020312020302020302020302020302020303939392056323030300A20202020372E3037303020202D31302E3135303020202020302E303030302043202020302020302020302020302020302020302020302020302020302020302020302020300A20202020382E3437303020202D31302E3135303020202020302E303030302043202020302020302020302020302020302020302020302020302020302020302020302020300A20202020382E393032362020202D382E3831383520202020302E303030302043202020302020302020302020302020302020302020302020302020302020302020302020300A20202020372E373730302020202D372E3939353620202020302E30303030204F202020302020302020302020302020302020302020302020302020302020302020302020300A20202020362E363337342020202D382E3831383520202020302E303030302043202020302020302020302020302020302020302020302020302020302020302020302020300A20202020392E3239323920202D31312E3238323620202020302E30303030204F202020302020302020302020302020302020302020302020302020302020302020302020300A20202020362E3234373120202D31312E3238323620202020302E30303030204F202020302020302020302020302020302020302020302020302020302020302020302020300A20202020352E333137382020202D382E3338393720202020302E30303030204F202020302020302020302020302020302020302020302020302020302020302020302020300A2020312020322020312020302020202020302020300A2020322020332020312020302020202020302020300A2020332020342020312020302020202020302020300A2020342020352020312020302020202020302020300A2020312020352020312020302020202020302020300A2020322020362020312020312020202020302020300A2020312020372020312020312020202020302020300A2020352020382020322020302020202020302020300A4D2020454E44
Contributor: MGR
InstType: ESI
InstName: micrOTOF-Q
IoniMethod: ESI
IonPolarity: pos
IsolWidth: 10
TargetGas: Nitrogen
ColEnergy: 10
PeakWidth: 0.03
ChargeDecon: 2
Date: 2010-10-09 19:48:36+02:00
Column: Synergi Fusion RP 2.5 u
Mass: 114.001-130.07
Num Peaks: 3
119.034 999 120.037 46 121.038 9 
