Name: 3-(2-Hydroxyphenyl)propionic acid
CAS: 495-78-3
MW: 166
Formula: C9H10O3
Synonym: CID: 873
Synonym: MassBank: BD000535
Synonym: 3-(2-Hydroxyphenyl)propionic acid
Synonym: 2-Hydroxyhydrocinnamic acid
Synonym: 2-Hydroxyphenylpropanoate
Synonym: 2-Hydroxyphenylpropionic acid
Synonym: 3-(2-Hydroxyphenyl)propanoate
Synonym: 3-(2-Hydroxyphenyl)propionate
Synonym: Melilotate
Synonym: Melilotic acid
Structure: 31322031322020302020302020302020302020302020302020302020303939392056323030300A20202031362E3433333520202D31332E3233353120202020302E303030302043202020302020302020302020302020302020302020302020302020302020302020302020300A20202031352E3734313520202D31322E3031373820202020302E303030302043202020302020302020302020302020302020302020302020302020302020302020302020300A20202031372E3833303020202D31332E3233353120202020302E303030302043202020302020302020302020302020302020302020302020302020302020302020302020300A20202031352E3733353220202D31342E3435383720202020302E303030302043202020302020302020302020302020302020302020302020302020302020302020302020300A20202031342E3332353820202D31322E3033303620202020302E303030302043202020302020302020302020302020302020302020302020302020302020302020302020300A20202031362E3433333520202D31302E3831333420202020302E30303030204F202020302020302020302020302020302020302020302020302020302020302020302020300A20202031382E3532313920202D31342E3434353820202020302E303030302043202020302020302020302020302020302020302020302020302020302020302020302020300A20202031342E3333383620202D31342E3436353020202020302E303030302043202020302020302020302020302020302020302020302020302020302020302020302020300A20202031332E3632373420202D31332E3235343220202020302E303030302043202020302020302020302020302020302020302020302020302020302020302020302020300A20202031392E3931383420202D31342E3434353820202020302E303030302043202020302020302020302020302020302020302020302020302020302020302020302020300A20202032302E3631303320202D31352E3635363620202020302E30303030204F202020302020302020302020302020302020302020302020302020302020302020302020300A20202032302E3631303320202D31332E3233353120202020302E30303030204F202020302020302020302020302020302020302020302020302020302020302020302020300A2020312020322020322020302020202020302020300A2020312020332020312020302020202020302020300A2020312020342020312020302020202020302020300A2020322020352020312020302020202020302020300A2020322020362020312020302020202020302020300A2020332020372020312020302020202020302020300A2020342020382020322020302020202020302020300A2020352020392020322020302020202020302020300A2020372031302020312020302020202020302020300A2031302031312020312020302020202020302020300A2031302031322020322020302020202020302020300A2020382020392020312020302020202020302020300A4D2020454E44
Contributor: MGR
InstType: ESI
InstName: micrOTOF-Q
IoniMethod: ESI
IonPolarity: neg
MSMS: 2
IsolWidth: 10
TargetGas: Nitrogen
ColEnergy: -19
PeakWidth: 0.031
ChargeDecon: 2
Date: 2010-10-09 19:48:36+02:00
Column: Synergi Fusion RP 2.5 u
Mass: 44.9918-394.884
Num Peaks: 14
106.042 180 107.045 13 108.024 3 119.049 31 120.052 2 121.066 999 122.068 90 123.072 5 138.031 115 139.035 8 
147.045 50 148.048 5 165.055 19 166.059 2 
