Name: (DL) beta-leucine
CAS: 5699-54-7
MW: 131
Formula: C6H13NO2
Synonym: CID: 193411
Synonym: MassBank: BD000411
Synonym: (DL) beta-leucine
Synonym: 2-Amino-4-mercaptobutyric acid
Synonym: 2-Amino-4-mercapto-DL-butyrate
Synonym: 2-Amino-4-mercapto-DL-butyric acid
Synonym: 2-Amino-4-sulfanyl-butanoic acid
Synonym: (DL) homocysteine
Synonym: DL-Homocysteine
Structure: 392020382020302020302020302020302020302020302020302020303939392056323030300A20202020392E3435303020202D31322E3630303020202020302E303030302043202020302020302020302020302020302020302020302020302020302020302020302020300A20202020392E3435303020202D31342E3030303020202020302E303030302043202020302020302020302020302020302020302020302020302020302020302020302020300A20202031302E3636323420202D31342E3730303020202020302E303030302043202020302020302020302020302020302020302020302020302020302020302020302020300A20202031312E3837343920202D31342E3030303020202020302E30303030204F202020302020302020302020302020302020302020302020302020302020302020302020300A20202031312E3837343920202D31322E3630303020202020302E303030302043202020302020302020302020302020302020302020302020302020302020302020302020300A20202031302E3636323420202D31312E3930303020202020302E303030302043202020302020302020302020302020302020302020302020302020302020302020302020300A20202020382E3233373620202D31342E3730303020202020302E303030302043202020302020302020302020302020302020302020302020302020302020302020302020300A20202031332E3130363020202D31312E3838393020202020302E30303030204F202020302020302020302020302020302020302020302020302020302020302020302020300A20202020382E3233373620202D31312E3930303020202020302E30303030204E202020302020302020302020302020302020302020302020302020302020302020302020300A2020312020322020312020302020202020302020300A2020322020332020312020302020202020302020300A2020342020352020322020302020202020302020300A2020352020362020312020302020202020302020300A2020312020362020312020302020202020302020300A2020322020372020312020302020202020302020300A2020352020382020312020302020202020302020300A2020312020392020312020302020202020302020300A4D2020454E44
Contributor: MGR
InstType: ESI
InstName: micrOTOF-Q
IoniMethod: ESI
IonPolarity: pos
IsolWidth: 10
TargetGas: Nitrogen
ColEnergy: 10
PeakWidth: 0.026
ChargeDecon: 2
Date: 2010-10-09 19:48:36+02:00
Column: Synergi Fusion RP 2.5 u
Mass: 44.7908-395.04
Num Peaks: 35
73.010 8 88.037 13 90.037 432 91.039 22 92.032 22 100.025 5 101.005 3 102.039 29 116.052 14 118.032 113 
119.030 7 120.032 7 130.031 3 134.027 134 135.029 7 135.633 3 136.042 999 137.044 53 138.039 49 139.042 3 
148.042 143 149.037 10 150.038 9 158.025 64 159.028 4 160.021 3 162.058 60 163.061 5 269.064 691 270.066 71 
271.061 62 272.063 6 291.046 159 292.048 17 293.044 17 
