Name: D-Mannoheptulose
CAS: 654-29-5
MW: 210
Formula: C7H14O7
Synonym: CID: 102926
Synonym: MassBank: BD000424
Synonym: D-Mannoheptulose
Synonym: (+)-Mannoheptulose
Synonym: Alpha-D-Mannoheptulopyranose
Synonym: (D) Mannoheptulose
Synonym: Hept-2-ulose
Synonym: Mannoheptose
Synonym: D-Manno-2-heptulose
Structure: 31342031342020302020302020312020302020302020302020302020303939392056323030300A20202032322E3938383020202D31332E3838343320202020302E303030302043202020302020302020322020302020302020302020302020302020302020302020302020300A20202032312E3830353320202D31332E3230323720202020302E30303030204F202020302020302020302020302020302020302020302020302020302020302020302020300A20202032322E3938383020202D31352E3235333420202020302E303030302043202020302020302020322020302020302020302020302020302020302020302020302020300A20202032342E3034323420202D31322E3930353520202020302E303030302043202020302020302020302020302020302020302020302020302020302020302020302020300A20202032342E3332373920202D31342E3631383320202020302E30303030204F202020302020302020302020302020302020302020302020302020302020302020302020300A20202032302E3631313020202D31332E3838343320202020302E303030302043202020302020302020312020302020302020302020302020302020302020302020302020300A20202032312E3830353320202D31352E3932393220202020302E303030302043202020302020302020322020302020302020302020302020302020302020302020302020300A20202032342E3137363420202D31352E3932333320202020302E30303030204F202020302020302020302020302020302020302020302020302020302020302020302020300A20202032352E3435323320202D31332E3634353420202020302E30303030204F202020302020302020302020302020302020302020302020302020302020302020302020300A20202032302E3631313020202D31352E3235333420202020302E303030302043202020302020302020322020302020302020302020302020302020302020302020302020300A20202031392E3433343120202D31332E3139363820202020302E303030302043202020302020302020302020302020302020302020302020302020302020302020302020300A20202032312E3830353320202D31372E3239323520202020302E30303030204F202020302020302020302020302020302020302020302020302020302020302020302020300A20202031392E3432323420202D31352E3933353020202020302E30303030204F202020302020302020302020302020302020302020302020302020302020302020302020300A20202031382E3235313420202D31332E3838343320202020302E30303030204F202020302020302020302020302020302020302020302020302020302020302020302020300A2020312020322020312020302020202020302020300A2020312020332020312020302020202020302020300A2020312020342020312020312020202020302020300A2020312020352020312020362020202020302020300A2020322020362020312020302020202020302020300A2020332020372020312020302020202020302020300A2020332020382020312020312020202020302020300A2020342020392020312020302020202020302020300A2020362031302020312020302020202020302020300A2020362031312020312020312020202020302020300A2020372031322020312020312020202020302020300A2031302031332020312020362020202020302020300A2031312031342020312020302020202020302020300A2020372031302020312020302020202020302020300A4D2020454E44
Contributor: MGR
InstType: ESI
InstName: micrOTOF-Q
IoniMethod: ESI
IonPolarity: neg
IsolWidth: 10
TargetGas: Nitrogen
ColEnergy: 10
PeakWidth: 0.03
ChargeDecon: 2
Date: 2010-10-09 19:48:36+02:00
Column: Synergi Fusion RP 2.5 u
Mass: 204.015-221.125
Num Peaks: 4
209.067 999 210.070 80 211.071 17 212.074 1 
