Name: N-Acetyl-L-glutamine
CAS: 2490-97-3
MW: 188
Formula: C7H12N2O4
Synonym: CID: 25561
Synonym: MassBank: BD000184
Synonym: N-Acetyl-L-glutamine
Synonym: (2S)-2-Acetamido-5-amino-5-oxopentanoic acid
Structure: 31332031322020302020302020312020302020302020302020302020303939392056323030300A20202031392E3034303020202D31332E3136303020202020302E303030302043202020302020302020302020302020302020302020302020302020302020302020302020300A20202031392E3034303020202D31342E3536303020202020302E303030302043202020302020302020302020302020302020302020302020302020302020302020302020300A20202031372E3832373620202D31352E3236303020202020302E303030302043202020302020302020302020302020302020302020302020302020302020302020302020300A20202031372E3832373520202D31362E3635393820202020302E303030302043202020302020302020302020302020302020302020302020302020302020302020302020300A20202031362E3633313920202D31372E3335303220202020302E30303030204E202020302020302020302020302020302020302020302020302020302020302020302020300A20202031392E3035363820202D31372E3336393720202020302E30303030204F202020302020302020302020302020302020302020302020302020302020302020302020300A20202032302E3235323420202D31322E3436303020202020302E30303030204E202020302020302020302020302020302020302020302020302020302020302020302020300A20202031372E3832373620202D31322E3436303020202020302E303030302043202020302020302020302020302020302020302020302020302020302020302020302020300A20202031362E3633323120202D31332E3135303420202020302E30303030204F202020302020302020302020302020302020302020302020302020302020302020302020300A20202031372E3832373520202D31312E3036303220202020302E30303030204F202020302020302020302020302020302020302020302020302020302020302020302020300A20202032312E3434373920202D31332E3135303420202020302E303030302043202020302020302020302020302020302020302020302020302020302020302020302020300A20202032322E3633353320202D31322E3436343920202020302E303030302043202020302020302020302020302020302020302020302020302020302020302020302020300A20202032312E3434383020202D31342E3535393720202020302E30303030204F202020302020302020302020302020302020302020302020302020302020302020302020300A2020312020322020312020302020202020302020300A2020322020332020312020302020202020302020300A2020332020342020312020302020202020302020300A2020342020352020312020302020202020302020300A2020342020362020322020302020202020302020300A2020312020372020312020312020202020302020300A2020312020382020312020302020202020302020300A2020382020392020312020302020202020302020300A2020382031302020322020302020202020302020300A2020372031312020312020302020202020302020300A2031312031322020312020302020202020302020300A2031312031332020322020302020202020302020300A4D2020454E44
Contributor: BSC
InstType: ESI
InstName: micrOTOF-Q
IoniMethod: ESI
IonPolarity: pos
IsolWidth: 10
TargetGas: Nitrogen
ColEnergy: 10
PeakWidth: 0.03
ChargeDecon: 2
Date: 2010-10-09 19:48:36+02:00
Column: Synergi Fusion RP 2.5 u
Mass: 184.044-201.131
Num Peaks: 3
189.087 999 190.090 86 191.091 11 
