Name: Hesperidin
CAS: 520-26-3
MW: 610
Formula: C28H34O15
Synonym: MassBank: BD000857
Synonym: Hesperidin
Synonym: Hesperetin 7-O-rutinoside
Synonym: Ciratin
Synonym: Hesperetin 7-rhamnoglucoside
Synonym: D: 3594
Synonym: Hesperitin-7-rutinoside
Structure: 34332034372020302020302020312020302020302020302020302020303939392056323030300A20202031372E3535303220202D31352E3338383320202020302E303030302043202020302020302020302020302020302020302020302020302020302020302020302020300A20202031372E3535303220202D31362E3738373320202020302E303030302043202020302020302020302020302020302020302020302020302020302020302020302020300A20202031382E3733393320202D31372E3438363820202020302E303030302043202020302020302020302020302020302020302020302020302020302020302020302020300A20202031392E3939383420202D31362E3738373320202020302E303030302043202020302020302020302020302020302020302020302020302020302020302020302020300A20202031392E3939383420202D31352E3338383320202020302E303030302043202020302020302020302020302020302020302020302020302020302020302020302020300A20202031382E3733393320202D31342E3638383820202020302E30303030204F202020302020302020302020302020302020302020302020302020302020302020302020300A20202032312E3138373620202D31372E3438363820202020302E30303030204F202020302020302020302020302020302020302020302020302020302020302020302020300A20202032322E3337363720202D31362E3738373320202020302E303030302043202020302020302020302020302020302020302020302020302020302020302020302020300A20202032322E3337363720202D31352E3338383320202020302E303030302043202020302020302020302020302020302020302020302020302020302020302020302020300A20202032312E3138373620202D31342E3638383820202020302E30303030204F202020302020302020302020302020302020302020302020302020302020302020302020300A20202032332E3633353820202D31372E3438363820202020302E303030302043202020302020302020302020302020302020302020302020302020302020302020302020300A20202032342E3832343920202D31362E3738373320202020302E303030302043202020302020302020302020302020302020302020302020302020302020302020302020300A20202032342E3832343920202D31352E3338383320202020302E303030302043202020302020302020302020302020302020302020302020302020302020302020302020300A20202032332E3633353820202D31342E3638383820202020302E303030302043202020302020302020302020302020302020302020302020302020302020302020302020300A20202032362E3031343020202D31372E3438363820202020302E303030302043202020302020302020302020302020302020302020302020302020302020302020302020300A20202032372E3237333120202D31362E3738373320202020302E303030302043202020302020302020302020302020302020302020302020302020302020302020302020300A20202032372E3237333120202D31352E3338383320202020302E303030302043202020302020302020302020302020302020302020302020302020302020302020302020300A20202032362E3031343020202D31342E3638383820202020302E30303030204F202020302020302020302020302020302020302020302020302020302020302020302020300A20202032362E3031343020202D31382E3838353820202020302E30303030204F202020302020302020302020302020302020302020302020302020302020302020302020300A20202032332E3633353820202D31382E3838353820202020302E30303030204F202020302020302020302020302020302020302020302020302020302020302020302020300A20202031362E3336313120202D31342E3638383820202020302E303030302043202020302020302020302020302020302020302020302020302020302020302020302020300A20202032382E3436323220202D31342E3638383820202020302E303030302043202020302020302020302020302020302020302020302020302020302020302020302020300A20202031362E3336313120202D31372E3438363820202020302E30303030204F202020302020302020302020302020302020302020302020302020302020302020302020300A20202031382E3733393320202D31382E3838353820202020302E30303030204F202020302020302020302020302020302020302020302020302020302020302020302020300A20202031352E3137323020202D31352E3338383320202020302E30303030204F202020302020302020302020302020302020302020302020302020302020302020302020300A20202031332E3938323820202D31342E3638383820202020302E303030302043202020302020302020302020302020302020302020302020302020302020302020302020300A20202031332E3938323820202D31332E3238393920202020302E30303030204F202020302020302020302020302020302020302020302020302020302020302020302020300A20202031322E3732333820202D31322E3539303420202020302E303030302043202020302020302020302020302020302020302020302020302020302020302020302020300A20202031312E3533343620202D31332E3238393920202020302E303030302043202020302020302020302020302020302020302020302020302020302020302020302020300A20202031312E3533343620202D31342E3638383820202020302E303030302043202020302020302020302020302020302020302020302020302020302020302020302020300A20202031322E3732333820202D31352E3338383320202020302E303030302043202020302020302020302020302020302020302020302020302020302020302020302020300A20202032392E3732313320202D31352E3338383320202020302E303030302043202020302020302020302020302020302020302020302020302020302020302020302020300A20202033302E3931303420202D31342E3638383820202020302E303030302043202020302020302020302020302020302020302020302020302020302020302020302020300A20202033302E3931303420202D31332E3238393920202020302E303030302043202020302020302020302020302020302020302020302020302020302020302020302020300A20202032392E3732313320202D31322E3539303420202020302E303030302043202020302020302020302020302020302020302020302020302020302020302020302020300A20202032382E3436323220202D31332E3238393920202020302E303030302043202020302020302020302020302020302020302020302020302020302020302020302020300A20202032392E3732313320202D31312E3139313420202020302E30303030204F202020302020302020302020302020302020302020302020302020302020302020302020300A20202033322E3039393620202D31322E3539303420202020302E30303030204F202020302020302020302020302020302020302020302020302020302020302020302020300A20202033332E3335383620202D31332E3238393920202020302E303030302043202020302020302020302020302020302020302020302020302020302020302020302020300A20202031302E3334353520202D31352E3338383320202020302E30303030204F202020302020302020302020302020302020302020302020302020302020302020302020300A20202031322E3732333820202D31362E3738373320202020302E30303030204F202020302020302020302020302020302020302020302020302020302020302020302020300A20202031322E3732333820202D31312E3139313420202020302E303030302043202020302020302020302020302020302020302020302020302020302020302020302020300A20202031302E3334353520202D31322E3539303420202020302E30303030204F202020302020302020302020302020302020302020302020302020302020302020302020300A2020312020322020312020302020202020302020300A2020322020332020312020302020202020302020300A2020332020342020312020302020202020302020300A2020342020352020312020302020202020302020300A2020352020362020312020302020202020302020300A2020312020362020312020302020202020302020300A2020382020392020312020302020202020302020300A2020392031302020312020302020202020302020300A2020352031302020312020312020202020302020300A2020382031312020322020302020202020302020300A2031312031322020312020302020202020302020300A2031322031332020322020302020202020302020300A2031332031342020312020302020202020302020300A2020392031342020322020302020202020302020300A2031322031352020312020302020202020302020300A2031352031362020312020302020202020302020300A2031362031372020312020302020202020302020300A2031372031382020312020302020202020302020300A2031332031382020312020302020202020302020300A2031352031392020322020302020202020302020300A2031312032302020312020302020202020302020300A2020312032312020312020312020202020302020300A2031372032322020312020362020202020302020300A2020342020372020312020362020202020302020300A2020322032332020312020362020202020302020300A2020332032342020312020312020202020302020300A2032312032352020312020302020202020302020300A2032362032352020312020312020202020302020300A2032362032372020312020302020202020302020300A2032372032382020312020302020202020302020300A2032382032392020312020302020202020302020300A2032392033302020312020302020202020302020300A2033302033312020312020302020202020302020300A2032362033312020312020302020202020302020300A2032322033322020322020302020202020302020300A2033322033332020312020302020202020302020300A2033332033342020322020302020202020302020300A2033342033352020312020302020202020302020300A2033352033362020322020302020202020302020300A2032322033362020312020302020202020302020300A2033352033372020312020302020202020302020300A2033342033382020312020302020202020302020300A2033382033392020312020302020202020302020300A2033302034302020312020362020202020302020300A2033312034312020312020362020202020302020300A2032382034322020312020362020202020302020300A2032392034332020312020312020202020302020300A4D2020454E44
Contributor: MGR
InstType: ESI
InstName: micrOTOF-Q
IoniMethod: ESI
IonPolarity: pos
MSMS: 2
IsolWidth: 10
TargetGas: Nitrogen
ColEnergy: 20
PeakWidth: 0.036
ChargeDecon: 2
Date: 2010-10-09 19:48:36+02:00
Column: Synergi Fusion RP 2.5 u
Mass: 21.4929-805.185
Num Peaks: 42
71.048 6 85.028 66 86.031 3 103.039 3 129.055 121 130.058 9 145.049 3 147.065 112 148.069 7 153.018 3 
195.029 9 263.055 8 281.066 38 282.070 5 299.077 5 302.096 4 303.087 999 304.090 160 305.093 23 315.085 5 
327.087 7 345.097 78 346.100 14 347.104 2 369.098 26 370.101 5 395.115 5 413.124 72 414.128 16 415.129 3 
429.119 3 431.134 84 432.138 19 433.140 4 447.130 14 448.132 3 449.145 113 450.148 27 451.150 5 465.140 183 
466.143 44 467.145 8 
