Name: Isoferulicacid
CAS: 537-73-5
MW: 194
Formula: C10H10O4
Synonym: CID: 92126
Synonym: MassBank: BD000035
Synonym: Isoferulicacid
Synonym: Hesperetic acid,Hespertitinic acid,3-hydroxy-4-methoxycinnamic acid  ,Cinnamic acid, 3-hydroxy-4-methoxy-,2-propenoic acid, 3-(3-hydroxy-4-methoxyphenyl)-,3-hydroxy-4-methoxycinnamic acid, predominantly trans ,
Structure: 31342031342020302020302020302020302020302020302020302020303939392056323030300A20202032312E3235303020202D31342E3639343520202020302E303030302043202020302020302020302020302020302020302020302020302020302020302020302020300A20202032302E3032373820202D31352E3338343920202020302E303030302043202020302020302020302020302020302020302020302020302020302020302020302020300A20202032312E3235363420202D31332E3239383920202020302E303030302043202020302020302020302020302020302020302020302020302020302020302020302020300A20202032322E3435383020202D31352E3430323320202020302E303030302043202020302020302020302020302020302020302020302020302020302020302020302020300A20202032302E3032333420202D31362E3738383520202020302E303030302043202020302020302020302020302020302020302020302020302020302020302020302020300A20202032322E3437363020202D31322E3631333720202020302E303030302043202020302020302020302020302020302020302020302020302020302020302020302020300A20202032322E3434383720202D31362E3830333220202020302E303030302043202020302020302020302020302020302020302020302020302020302020302020302020300A20202032312E3233313420202D31372E3439363120202020302E303030302043202020302020302020302020302020302020302020302020302020302020302020302020300A20202032322E3438353320202D31312E3231333020202020302E303030302043202020302020302020302020302020302020302020302020302020302020302020302020300A20202032312E3232353020202D31382E3839313920202020302E30303030204F202020302020302020302020302020302020302020302020302020302020302020302020300A20202032312E3238303120202D31302E3530303520202020302E30303030204F202020302020302020302020302020302020302020302020302020302020302020302020300A20202032332E3730373520202D31302E3532333020202020302E30303030204F202020302020302020302020302020302020302020302020302020302020302020302020300A20202032302E3030373620202D31392E3538343820202020302E303030302043202020302020302020302020302020302020302020302020302020302020302020302020300A20202032332E3635323920202D31372E3530383620202020302E30303030204F202020302020302020302020302020302020302020302020302020302020302020302020300A2020312020322020312020302020202020302020300A2020312020332020312020302020202020302020300A2020312020342020322020302020202020302020300A2020322020352020322020302020202020302020300A2020332020362020322020302020202020302020300A2020342020372020312020302020202020302020300A2020352020382020312020302020202020302020300A2020362020392020312020302020202020302020300A2020382031302020312020302020202020302020300A2020392031312020322020302020202020302020300A2020392031322020312020302020202020302020300A2031302031332020312020302020202020302020300A2020372020382020322020302020202020302020300A2020372031342020312020302020202020302020300A4D2020454E44
Contributor: BSC
InstType: ESI
InstName: micrOTOF-Q
IoniMethod: ESI
IonPolarity: pos
IsolWidth: 10
TargetGas: Nitrogen
ColEnergy: 10
PeakWidth: 0.027
ChargeDecon: 2
Date: 2010-10-09 19:48:36+02:00
Column: Synergi Fusion RP 2.5 u
Mass: 44.796-395.017
Num Peaks: 31
89.039 1 117.033 2 134.035 2 135.043 3 145.028 8 146.959 2 149.058 19 150.061 2 153.054 4 163.039 17 
164.043 1 176.500 3 177.056 999 178.058 123 179.059 12 180.061 1 181.951 4 194.057 4 195.065 315 196.068 33 
197.071 4 204.967 1 213.074 1 216.041 2 217.046 116 218.049 11 219.051 2 224.127 1 235.058 66 236.062 7 
237.065 1 
