Name: Phenylaceticacid
CAS: 103-82-2
MW: 136
Formula: C8H8O2
Synonym: CID: 999
Synonym: MassBank: BD000232
Synonym: Phenylaceticacid
Synonym: Benzeneacetic acid,a-Tolylic acid,PAA,
Synonym: AIDS017618, 114-70-5 (hydrochloride salt), NSC 125718,52009-49-1 (calcium salt), AIDS-017618, 13005-36-2 (potassium salt), AI3-08920, NSC139637, STK297835, LS-3041, NCGC00159477-02, NCI60_000596,
Synonym: Kyselina fenyloctova, .alpha.-Toluic acid, 2-phenylethanoic acid, phenylacetic acid (natural), Kyselina fenyloctova [Czech], phenyl-acetic acid, .omega.-phenylacetic acid, bmse000220, FEMA No. 2878, UNII-ER5I1W795A
Synonym: NCI60_002571, C07086, 103-82-2, 4-09-00-01614 (Beilstein Handbook Reference), I14-7335, 8727557E-AA75-49E9-8E5A-7A2412D71888, InChI=1/C8H8O2/c9-8(10)6-7-4-2-1-3-5-7/H1-5H,6H2,(H,9,10, 114-70-5, 51146-16-8,PA, PAC
Synonym: P16621_ALDRicH, HSDB 5010, P6061_SIGMA, W287806_ALDRicH, W287814_ALDRicH, C8H8O2, CHEbi:30745, EineCS 203-148-6, AKL-PFB-011020, BRN 1099647, 7188-16-1 (ammonium salt), MolPort-001-002-105, NSC125718,
Synonym: Phenylacetate, Benzenacetic acid, alpha-Toluic acid, acetic acid, phenyl-, phenylethanoic acid, phenyllacetic acid, 2-phenylacetic acid, Benzylformic acid, Ucephan, Benzylcarboxylic acid, benzeneacetiic acid
Structure: 31302031302020302020302020302020302020302020302020302020303939392056323030300A20202031322E3131303020202D31362E3539303020202020302E303030302043202020302020302020302020302020302020302020302020302020302020302020302020300A20202031322E3131303020202D31372E3939303020202020302E303030302043202020302020302020302020302020302020302020302020302020302020302020302020300A20202031332E3332323420202D31382E3639303020202020302E303030302043202020302020302020302020302020302020302020302020302020302020302020302020300A20202031342E3533343920202D31372E3939303020202020302E303030302043202020302020302020302020302020302020302020302020302020302020302020302020300A20202031342E3533343920202D31362E3539303020202020302E303030302043202020302020302020302020302020302020302020302020302020302020302020302020300A20202031332E3332323420202D31352E3839303020202020302E303030302043202020302020302020302020302020302020302020302020302020302020302020302020300A20202031332E3332323420202D31342E3439303220202020302E303030302043202020302020302020302020302020302020302020302020302020302020302020302020300A20202031342E3531383020202D31332E3739393820202020302E303030302043202020302020302020302020302020302020302020302020302020302020302020302020300A20202031352E3730353220202D31342E3438353220202020302E30303030204F202020302020302020302020302020302020302020302020302020302020302020302020300A20202031342E3531383220202D31322E3339303320202020302E30303030204F202020302020302020302020302020302020302020302020302020302020302020302020300A2020312020322020322020302020202020302020300A2020322020332020312020302020202020302020300A2020332020342020322020302020202020302020300A2020342020352020312020302020202020302020300A2020352020362020322020302020202020302020300A2020312020362020312020302020202020302020300A2020362020372020312020302020202020302020300A2020372020382020312020302020202020302020300A2020382020392020322020302020202020302020300A2020382031302020312020302020202020302020300A4D2020454E44
Contributor: BSC
InstType: ESI
InstName: micrOTOF-Q
IoniMethod: ESI
IonPolarity: pos
IsolWidth: 10
TargetGas: Nitrogen
ColEnergy: 10
PeakWidth: 0.025
ChargeDecon: 2
Date: 2010-10-09 19:48:36+02:00
Column: Synergi Fusion RP 2.5 u
Mass: 44.7989-395.034
Num Peaks: 27
91.054 681 92.058 48 119.049 43 121.065 11 122.095 16 137.059 999 138.062 94 144.079 16 149.024 40 155.070 101 
159.041 298 160.045 25 162.092 13 165.034 22 181.023 319 182.026 32 201.059 15 208.024 12 224.126 20 240.061 19 
250.016 55 268.028 22 300.045 18 325.038 18 327.034 238 328.038 50 329.053 30 
