Name: m-Coumaric acid
CAS: 588-30-7
MW: 164
Formula: C9H8O3
Synonym: CID: 11496
Synonym: MassBank: BD000761
Synonym: m-Coumaric acid
Synonym: 3-Hydroxycinnamic acid
Synonym: (E)-3-(3-Hydroxyphenyl)prop-2-enoic acid
Synonym: 3- (3-Hydroxyphenyl)-2-propenoic acid
Synonym: 3-Coumarate
Synonym: 3-Coumaric acid
Synonym: m-Hydroxy-Cinnamic acid
Synonym: 3-(3-Hydroxyphenyl)acrylic acid
Synonym: Trans-3-hydroxycinnamate
Synonym: Trans-3-hydroxycinnamic acid
Structure: 31322031322020302020302020302020302020302020302020302020303939392056323030300A20202032302E3032373320202D31362E3435353520202020302E303030302043202020302020302020302020302020302020302020302020302020302020302020302020300A20202032302E3032373320202D31372E3835383820202020302E303030302043202020302020302020302020302020302020302020302020302020302020302020302020300A20202032312E3234363520202D31382E3535373020202020302E303030302043202020302020302020302020302020302020302020302020302020302020302020302020300A20202032322E3435313520202D31372E3835383820202020302E303030302043202020302020302020302020302020302020302020302020302020302020302020302020300A20202032322E3435313520202D31362E3435353520202020302E303030302043202020302020302020302020302020302020302020302020302020302020302020302020300A20202032312E3234363520202D31352E3735303420202020302E303030302043202020302020302020302020302020302020302020302020302020302020302020302020300A20202032312E3234303320202D31342E3335343220202020302E303030302043202020302020302020302020302020302020302020302020302020302020302020302020300A20202032322E3434363120202D31332E3635363020202020302E303030302043202020302020302020302020302020302020302020302020302020302020302020302020300A20202032322E3434363120202D31322E3235393820202020302E303030302043202020302020302020302020302020302020302020302020302020302020302020302020300A20202032332E3635383920202D31312E3535343520202020302E30303030204F202020302020302020302020302020302020302020302020302020302020302020302020300A20202032312E3233363420202D31312E3535353220202020302E30303030204F202020302020302020302020302020302020302020302020302020302020302020302020300A20202032332E3636383220202D31382E3535363120202020302E30303030204F202020302020302020302020302020302020302020302020302020302020302020302020300A2020362020312020312020302020202020302020300A2020362020372020312020302020202020302020300A2020312020322020322020302020202020302020300A2020372020382020312020302020202020302020300A2020322020332020312020302020202020302020300A2020382020392020312020302020202020302020300A2020332020342020322020302020202020302020300A2020392031302020312020302020202020302020300A2020342020352020312020302020202020302020300A2020392031312020322020302020202020302020300A2020352020362020322020302020202020302020300A2020342031322020312020302020202020302020300A4D2020454E44
Contributor: MGR
InstType: ESI
InstName: micrOTOF-Q
IoniMethod: ESI
IonPolarity: pos
IsolWidth: 10
TargetGas: Nitrogen
ColEnergy: 10
PeakWidth: 0.027
ChargeDecon: 2
Date: 2010-10-09 19:48:36+02:00
Column: Synergi Fusion RP 2.5 u
Mass: 44.7881-395.022
Num Peaks: 11
91.054 27 119.049 103 120.053 9 122.095 7 147.044 999 148.047 92 149.032 11 165.054 182 166.058 19 187.035 42 
188.038 5 
