Name: S-2-Phenylpropionic acid
CAS: 7782-24-3
MW: 150
Formula: C9H10O2
Synonym: CID: 10296
Synonym: MassBank: BD000485
Synonym: S-2-Phenylpropionic acid
Synonym: (S)-(+)-Hydratropic acid
Synonym: (S)-HTA
Structure: 31312031312020302020302020302020302020302020302020302020303939392056323030300A20202031312E3230303020202D31372E3433303020202020302E303030302043202020302020302020302020302020302020302020302020302020302020302020302020300A20202031312E3230303020202D31382E3833303020202020302E303030302043202020302020302020302020302020302020302020302020302020302020302020302020300A20202031322E3431323420202D31392E3533303020202020302E303030302043202020302020302020302020302020302020302020302020302020302020302020302020300A20202031332E3632343920202D31382E3833303020202020302E303030302043202020302020302020302020302020302020302020302020302020302020302020302020300A20202031332E3632343920202D31372E3433303020202020302E303030302043202020302020302020302020302020302020302020302020302020302020302020302020300A20202031322E3431323420202D31362E3733303020202020302E303030302043202020302020302020302020302020302020302020302020302020302020302020302020300A20202031322E3431323420202D31352E3333303220202020302E303030302043202020302020302020302020302020302020302020302020302020302020302020302020300A20202031312E3138333220202D31342E3632303320202020302E303030302043202020302020302020302020302020302020302020302020302020302020302020302020300A20202031332E3630383020202D31342E3633393820202020302E303030302043202020302020302020302020302020302020302020302020302020302020302020302020300A20202031342E3739353220202D31352E3332353220202020302E30303030204F202020302020302020302020302020302020302020302020302020302020302020302020300A20202031332E3630383220202D31332E3233303320202020302E30303030204F202020302020302020302020302020302020302020302020302020302020302020302020300A2020312020322020322020302020202020302020300A2020322020332020312020302020202020302020300A2020332020342020322020302020202020302020300A2020342020352020312020302020202020302020300A2020352020362020322020302020202020302020300A2020312020362020312020302020202020302020300A2020362020372020312020302020202020302020300A2020372020382020312020302020202020302020300A2020372020392020312020302020202020302020300A2020392031302020322020302020202020302020300A2020392031312020312020302020202020302020300A4D2020454E44
Contributor: MGR
InstType: ESI
InstName: micrOTOF-Q
IoniMethod: ESI
IonPolarity: pos
IsolWidth: 10
TargetGas: Nitrogen
ColEnergy: 10
PeakWidth: 0.03
ChargeDecon: 2
Date: 2010-10-09 19:48:36+02:00
Column: Synergi Fusion RP 2.5 u
Mass: 146.039-162.118
Num Peaks: 3
151.075 999 152.079 99 153.081 9 
