Name: Meso-tartaricacid
CAS: 147-73-9
MW: 150
Formula: C4H6O6
Synonym: CID: 447315
Synonym: MassBank: BD000144
Synonym: Meso-tartaricacid
Synonym: (2R,3S)-2,3-Dihydroxybutanedioic acid
Synonym: Meso-Tartrate,Erythraric acid,(2R,3S)-Tartaric acid,(2R,3S)-2,3-dihydroxysuccinic acid
Structure: 31302020392020302020302020302020302020302020302020302020303939392056323030300A20202032312E3937363920202D31342E3334383120202020302E303030302043202020302020302020332020302020302020302020302020302020302020302020302020300A20202032312E3937363920202D31352E3735313920202020302E303030302043202020302020302020332020302020302020302020302020302020302020302020302020300A20202032312E3937363920202D31322E3935313120202020302E303030302043202020302020302020302020302020302020302020302020302020302020302020302020300A20202032302E3537393720202D31342E3334383120202020302E30303030204F202020302020302020302020302020302020302020302020302020302020302020302020300A20202032312E3937363920202D31372E3134383920202020302E303030302043202020302020302020302020302020302020302020302020302020302020302020302020300A20202032302E3537393720202D31352E3735313920202020302E30303030204F202020302020302020302020302020302020302020302020302020302020302020302020300A20202032332E3139333720202D31322E3234393320202020302E30303030204F202020302020302020302020302020302020302020302020302020302020302020302020300A20202032302E3736363420202D31322E3234393320202020302E30303030204F202020302020302020302020302020302020302020302020302020302020302020302020300A20202032302E3736363420202D31372E3835303720202020302E30303030204F202020302020302020302020302020302020302020302020302020302020302020302020300A20202032332E3139333720202D31372E3835303720202020302E30303030204F202020302020302020302020302020302020302020302020302020302020302020302020300A2020312020322020312020302020202020302020300A2020312020332020312020302020202020302020300A2020312020342020312020302020202020302020300A2020322020352020312020302020202020302020300A2020322020362020312020302020202020302020300A2020332020372020312020302020202020302020300A2020332020382020322020302020202020302020300A2020352020392020312020302020202020302020300A2020352031302020322020302020202020302020300A4D2020454E44
Contributor: BSC
InstType: ESI
InstName: micrOTOF-Q
IoniMethod: ESI
IonPolarity: neg
IsolWidth: 10
TargetGas: Nitrogen
ColEnergy: 10
PeakWidth: 0.032
ChargeDecon: 2
Date: 2010-10-09 19:48:36+02:00
Column: Synergi Fusion RP 2.5 u
Mass: 44.9924-394.874
Num Peaks: 12
72.992 15 87.008 83 88.011 2 103.003 33 104.006 1 105.018 12 124.991 1 130.998 17 146.939 2 149.010 999 
150.013 51 151.014 15 
