Name: Phenylacetylglycine
CAS: 500-98-1
MW: 193
Formula: C10H11NO3
Synonym: CID: 68144
Synonym: MassBank: BD000243
Synonym: Phenylacetylglycine
Synonym: PAG
Synonym: Phenaceturic acid, phenacetylglycine, 2-[(2-phenylacetyl)amino]acetic acid
Synonym: CBDivE_012851, CHEbi:27480, MolPort-000-872-512, AIDS018669, HMS1433M15, AIDS-018669, NSC92778, EineCS 207-916-1, NSC408424
Synonym: NSC408424, IDI1_012370, AI3-23422, P0131, C05598, T5432838, 500-98-1
Synonym: Phenylacetylglycine, N-phenacetylglycine, N-phenylacetylglycine, N-(phenylacetyl)glycine, glycine, N-(phenylacetyl)-, Maybridge3_000983, Oprea1_379108, Oprea1_678863
Structure: 31342031342020302020302020302020302020302020302020302020303939392056323030300A20202032302E3336323520202D31332E3732333220202020302E303030302043202020302020302020302020302020302020302020302020302020302020302020302020300A20202032312E3732343320202D31332E3732303020202020302E303030302043202020302020302020302020302020302020302020302020302020302020302020302020300A20202031392E3638313620202D31342E3930353720202020302E303030302043202020302020302020302020302020302020302020302020302020302020302020302020300A20202031392E3637383220202D31322E3534343220202020302E303030302043202020302020302020302020302020302020302020302020302020302020302020302020300A20202032322E3535373920202D31342E3635333220202020302E303030302043202020302020302020302020302020302020302020302020302020302020302020302020300A20202031382E3331393820202D31342E3930393020202020302E303030302043202020302020302020302020302020302020302020302020302020302020302020302020300A20202031382E3331363620202D31322E3534373520202020302E303030302043202020302020302020302020302020302020302020302020302020302020302020302020300A20202032342E3038353720202D31352E3038313720202020302E30303030204E202020302020302020302020302020302020302020302020302020302020302020302020300A20202032332E3538303920202D31332E3231383420202020302E30303030204F202020302020302020302020302020302020302020302020302020302020302020302020300A20202031372E3633353720202D31332E3732393920202020302E303030302043202020302020302020302020302020302020302020302020302020302020302020302020300A20202032342E3037393120202D31362E3434363820202020302E303030302043202020302020302020302020302020302020302020302020302020302020302020302020300A20202032352E3434343220202D31362E3434363820202020302E303030302043202020302020302020302020302020302020302020302020302020302020302020302020300A20202032362E3132353120202D31372E3632393220202020302E30303030204F202020302020302020302020302020302020302020302020302020302020302020302020300A20202032362E3132353120202D31352E3236343420202020302E30303030204F202020302020302020302020302020302020302020302020302020302020302020302020300A2020312020322020312020302020202020302020300A2020312020332020312020302020202020302020300A2020312020342020322020302020202020302020300A2020322020352020312020302020202020302020300A2020332020362020322020302020202020302020300A2020342020372020312020302020202020302020300A2020352020382020312020302020202020302020300A2020352020392020322020302020202020302020300A2020362031302020312020302020202020302020300A2020382031312020312020302020202020302020300A2031312031322020312020302020202020302020300A2031322031332020312020302020202020302020300A2031322031342020322020302020202020302020300A2020372031302020322020302020202020302020300A4D2020454E44
Contributor: BSC
InstType: ESI
InstName: micrOTOF-Q
IoniMethod: ESI
IonPolarity: pos
MSMS: 2
IsolWidth: 10
TargetGas: Nitrogen
ColEnergy: 14
PeakWidth: 0.033
ChargeDecon: 2
Date: 2010-10-09 19:48:36+02:00
Column: Synergi Fusion RP 2.5 u
Mass: 44.7982-395.035
Num Peaks: 5
76.041 303 77.043 10 91.054 999 92.058 79 194.086 9 
