Name: Inosine
CAS: 58-63-9
MW: 268
Formula: C10H12N4O5
Synonym: CID: 804
Synonym: MassBank: BD000017
Synonym: Inosine
Synonym: Hypoxanthine 9-b-D-ribofuranoside,(-)-inosine,9-[(2R,3R,4S,5S)-3,4-dihydroxy-5-(hydroxymethyl)oxolan-2-yl]-3H-purin-6-one,,
Structure: 31392032312020302020302020312020302020302020302020302020303939392056323030300A20202032342E3134333520202D31342E3839373820202020302E30303030204E202020302020302020332020302020302020302020302020302020302020302020302020300A20202032322E3834313020202D31342E3431343420202020302E303030302043202020302020302020302020302020302020302020302020302020302020302020302020300A20202032332E3236303620202D31362E3733373620202020302E303030302043202020302020302020322020302020302020302020302020302020302020302020302020300A20202032342E3935313320202D31332E3733313820202020302E303030302043202020302020302020302020302020302020302020302020302020302020302020302020300A20202032322E3834313020202D31332E3033363820202020302E303030302043202020302020302020302020302020302020302020302020302020302020302020302020300A20202032312E3634353020202D31352E3130393520202020302E30303030204E202020302020302020302020302020302020302020302020302020302020302020302020300A20202032322E3135323120202D31352E3934323320202020302E30303030204F202020302020302020302020302020302020302020302020302020302020302020302020300A20202032322E3834313020202D31382E3034303120202020302E303030302043202020302020302020312020302020302020302020302020302020302020302020302020300A20202032342E3134393720202D31322E3631313020202020302E30303030204E202020302020302020302020302020302020302020302020302020302020302020302020300A20202032312E3634353020202D31322E3335343220202020302E303030302043202020302020302020302020302020302020302020302020302020302020302020302020300A20202032302E3436373620202D31342E3431343420202020302E303030302043202020302020302020302020302020302020302020302020302020302020302020302020300A20202032312E3035363420202D31362E3733373620202020302E303030302043202020302020302020312020302020302020302020302020302020302020302020302020300A20202032312E3436393720202D31382E3034303120202020302E303030302043202020302020302020312020302020302020302020302020302020302020302020302020300A20202032332E3634323520202D31392E3134323220202020302E30303030204F202020302020302020302020302020302020302020302020302020302020302020302020300A20202032302E3436373620202D31332E3033363820202020302E30303030204E202020302020302020302020302020302020302020302020302020302020302020302020300A20202032312E3633383820202D31312E3036353520202020302E30303030204F202020302020302020302020302020302020302020302020302020302020302020302020300A20202031392E3736363420202D31362E3331313720202020302E303030302043202020302020302020302020302020302020302020302020302020302020302020302020300A20202032302E3636383120202D31392E3133353820202020302E30303030204F202020302020302020302020302020302020302020302020302020302020302020302020300A20202031382E3735313920202D31372E3231393620202020302E30303030204F202020302020302020302020302020302020302020302020302020302020302020302020300A2020312020322020312020302020202020302020300A2020332020312020312020312020202020302020300A2020312020342020312020302020202020302020300A2020322020352020322020302020202020302020300A2020322020362020312020302020202020302020300A2020332020372020312020302020202020302020300A2020332020382020312020302020202020302020300A2020342020392020322020302020202020302020300A2020352031302020312020302020202020302020300A2020362031312020322020302020202020302020300A2020372031322020312020302020202020302020300A2020382031332020312020302020202020302020300A2020382031342020312020362020202020302020300A2031302031352020312020302020202020302020300A2031302031362020322020302020202020302020300A2031322031372020312020312020202020302020300A2031332031382020312020362020202020302020300A2031372031392020312020302020202020302020300A2020352020392020312020302020202020302020300A2031312031352020312020302020202020302020300A2031322031332020312020302020202020302020300A4D2020454E44
Contributor: BSC
InstType: ESI
InstName: micrOTOF-Q
IoniMethod: ESI
IonPolarity: neg
IsolWidth: 10
TargetGas: Nitrogen
ColEnergy: 10
PeakWidth: 0.039
ChargeDecon: 2
Date: 2010-10-09 19:48:36+02:00
Column: Synergi Fusion RP 2.5 u
Mass: 21.4625-805.26
Num Peaks: 7
146.938 9 267.073 999 268.076 118 269.077 16 413.002 9 535.154 114 536.156 28 
