Name: Nicotinamide-N-oxide
CAS: 1986-81-8
MW: 138
Formula: C6H6N2O2
Synonym: CID: 72661
Synonym: MassBank: BD000195
Synonym: Nicotinamide-N-oxide
Synonym: 1-Oxidopyridin-1-ium-3-carboxamide
Structure: 31302031302020302020302020302020302020302020302020302020303939392056323030300A20202032302E3836303020202D31342E3737303020202020302E303030302043202020302020302020302020302020302020302020302020302020302020302020302020300A20202032302E3836303020202D31362E3137303020202020302E303030302043202020302020302020302020302020302020302020302020302020302020302020302020300A20202032322E3037323420202D31362E3837303020202020302E30303030204E202020302020332020302020302020302020302020302020302020302020302020302020300A20202032332E3238343920202D31362E3137303020202020302E303030302043202020302020302020302020302020302020302020302020302020302020302020302020300A20202032332E3238343920202D31342E3737303020202020302E303030302043202020302020302020302020302020302020302020302020302020302020302020302020300A20202032322E3037323420202D31342E3037303020202020302E303030302043202020302020302020302020302020302020302020302020302020302020302020302020300A20202032322E3037323420202D31382E3236393820202020302E30303030204F202020302020352020302020302020302020302020302020302020302020302020302020300A20202031392E3634373620202D31342E3037303020202020302E303030302043202020302020302020302020302020302020302020302020302020302020302020302020300A20202031382E3435323120202D31342E3736303420202020302E30303030204F202020302020302020302020302020302020302020302020302020302020302020302020300A20202031392E3634373520202D31322E3637303220202020302E30303030204E202020302020302020302020302020302020302020302020302020302020302020302020300A2020312020322020322020302020202020302020300A2020322020332020312020302020202020302020300A2020332020342020322020302020202020302020300A2020342020352020312020302020202020302020300A2020352020362020322020302020202020302020300A2020312020362020312020302020202020302020300A2020332020372020312020302020202020302020300A2020312020382020312020302020202020302020300A2020382020392020322020302020202020302020300A2020382031302020312020302020202020302020300A4D202043484720203220202033202020312020203720202D310A4D2020454E44
Contributor: BSC
InstType: ESI
InstName: micrOTOF-Q
IoniMethod: ESI
IonPolarity: pos
IsolWidth: 10
TargetGas: Nitrogen
ColEnergy: 10
PeakWidth: 0.027
ChargeDecon: 2
Date: 2010-10-09 19:48:36+02:00
Column: Synergi Fusion RP 2.5 u
Mass: 44.7993-395.036
Num Peaks: 14
106.028 8 121.063 4 122.032 5 139.050 999 140.052 72 141.054 7 146.961 5 149.023 12 159.970 8 161.032 23 
163.941 5 179.041 4 180.101 5 181.952 21 
