Name: N-Methyl-Nicotinamide
MW: 136
Formula: C7H8N2O
Synonym: CID: 64950
Synonym: MassBank: BD000355
Synonym: N-Methyl-Nicotinamide
Structure: 36343935300A20202D4F454368656D2D3032313530383032353232440A0A2031302031302020302020202020302020302020302020302020302020303939392056323030300A20202020322E3030303020202020312E3235303020202020302E30303030204F202020302020302020302020302020302020302020302020302020302020302020302020300A20202020332E3733323120202020312E3235303020202020302E30303030204E202020302020302020302020302020302020302020302020302020302020302020302020300A20202020322E303030302020202D312E3735303020202020302E30303030204E202020302020302020302020302020302020302020302020302020302020302020302020300A20202020322E383636302020202D302E3235303020202020302E303030302043202020302020302020302020302020302020302020302020302020302020302020302020300A20202020322E3836363020202020302E3735303020202020302E303030302043202020302020302020302020302020302020302020302020302020302020302020302020300A20202020332E373332312020202D302E3735303020202020302E303030302043202020302020302020302020302020302020302020302020302020302020302020302020300A20202020322E303030302020202D302E3735303020202020302E303030302043202020302020302020302020302020302020302020302020302020302020302020302020300A20202020332E373332312020202D312E3735303020202020302E303030302043202020302020302020302020302020302020302020302020302020302020302020302020300A20202020332E3733323120202020322E3235303020202020302E303030302043202020302020302020302020302020302020302020302020302020302020302020302020300A20202020322E383636302020202D322E3235303020202020302E303030302043202020302020302020302020302020302020302020302020302020302020302020302020300A2020312020352020322020302020302020302020300A2020322020352020312020302020302020302020300A2020322020392020312020302020302020302020300A2020332020372020312020302020302020302020300A2020332031302020322020302020302020302020300A2020342020352020312020302020302020302020300A2020342020362020312020302020302020302020300A2020342020372020322020302020302020302020300A2020362020382020322020302020302020302020300A2020382031302020312020302020302020302020300A4D2020454E44
Contributor: BSC
InstType: ESI
InstName: micrOTOF-Q
IoniMethod: ESI
IonPolarity: neg
IsolWidth: 10
TargetGas: Nitrogen
ColEnergy: 10
PeakWidth: 0.025
ChargeDecon: 2
Date: 2010-10-09 19:48:36+02:00
Column: Synergi Fusion RP 2.5 u
Mass: 44.9915-394.874
Num Peaks: 21
89.023 94 112.986 712 135.056 82 157.013 34 180.974 154 181.062 999 182.064 84 183.078 94 190.928 73 225.081 42 
227.066 567 228.073 63 248.960 47 257.101 40 271.119 273 272.122 45 273.135 190 295.052 48 317.124 285 318.128 50 
363.128 47 
