Name: 3-Hydroxybenzoic acid
CAS: 99-06-9
MW: 138
Formula: C7H6O3
Synonym: CID: 7420
Synonym: MassBank: BD000995
Synonym: 3-Hydroxybenzoic acid
Synonym: 3-Hydroxybenzoate
Synonym: m-Hydroxybenzoic acid
Synonym: Meta-hydroxybenzoic acid
Structure: 31302031302020302020302020302020302020302020302020302020303939392056323030300A20202031372E3735323720202D31332E3239393820202020302E303030302043202020302020302020302020302020302020302020302020302020302020302020302020300A20202031362E3534373320202D31322E3539373620202020302E303030302043202020302020302020302020302020302020302020302020302020302020302020302020300A20202031372E3735323720202D31342E3639383220202020302E303030302043202020302020302020302020302020302020302020302020302020302020302020302020300A20202031382E3936393620202D31322E3630333620202020302E303030302043202020302020302020302020302020302020302020302020302020302020302020302020300A20202031352E3333303420202D31332E3239393820202020302E303030302043202020302020302020302020302020302020302020302020302020302020302020302020300A20202031362E3534373320202D31352E3430303420202020302E303030302043202020302020302020302020302020302020302020302020302020302020302020302020300A20202032302E3138303820202D31332E3239393820202020302E30303030204F202020302020302020302020302020302020302020302020302020302020302020302020300A20202031382E3936393620202D31312E3139393320202020302E30303030204F202020302020302020302020302020302020302020302020302020302020302020302020300A20202031352E3333303420202D31342E3639383220202020302E303030302043202020302020302020302020302020302020302020302020302020302020302020302020300A20202031342E3131393220202D31322E3539373620202020302E30303030204F202020302020302020302020302020302020302020302020302020302020302020302020300A2020312020322020322020302020202020302020300A2020312020332020312020302020202020302020300A2020312020342020312020302020202020302020300A2020322020352020312020302020202020302020300A2020332020362020322020302020202020302020300A2020342020372020312020302020202020302020300A2020342020382020322020302020202020302020300A2020352020392020322020302020202020302020300A2020352031302020312020302020202020302020300A2020362020392020312020302020202020302020300A4D2020454E44
Contributor: MGR
InstType: ESI
InstName: micrOTOF-Q
IoniMethod: ESI
IonPolarity: neg
IsolWidth: 10
TargetGas: Nitrogen
ColEnergy: 10
PeakWidth: 0.03
ChargeDecon: 2
Date: 2010-10-09 19:48:36+02:00
Column: Synergi Fusion RP 2.5 u
Mass: 131.983-148.068
Num Peaks: 3
137.024 999 138.028 77 139.029 9 
