Name: MassBank: BD000675
CAS: 6779-87-9
MW: 239
Formula: C9H13N5O3
Synonym: CID: 252
Synonym: MassBank: BD000675
Synonym: 7,8-Dihydrobiopterin
Synonym: 7,8-Dihydrobiopterin
Structure: 31372031382020302020302020302020302020302020302020302020303939392056323030300A20202031332E3136303020202D31332E3330303020202020302E30303030204E202020302020302020302020302020302020302020302020302020302020302020302020300A20202031332E3136303020202D31342E3730303020202020302E303030302043202020302020302020302020302020302020302020302020302020302020302020302020300A20202031342E3337323420202D31352E3430303020202020302E30303030204E202020302020302020302020302020302020302020302020302020302020302020302020300A20202031352E3538343920202D31342E3730303020202020302E303030302043202020302020302020302020302020302020302020302020302020302020302020302020300A20202031352E3538343920202D31332E3330303020202020302E303030302043202020302020302020302020302020302020302020302020302020302020302020302020300A20202031342E3337323420202D31322E3630303020202020302E303030302043202020302020302020302020302020302020302020302020302020302020302020302020300A20202031362E3739373320202D31352E3430303020202020302E30303030204E202020302020302020302020302020302020302020302020302020302020302020302020300A20202031382E3030393720202D31342E3730303020202020302E303030302043202020302020302020302020302020302020302020302020302020302020302020302020300A20202031382E3030393720202D31332E3330303020202020302E303030302043202020302020302020302020302020302020302020302020302020302020302020302020300A20202031362E3739373320202D31322E3630303020202020302E30303030204E202020302020302020302020302020302020302020302020302020302020302020302020300A20202031392E3230373320202D31322E3630383520202020302E303030302043202020302020302020302020302020302020302020302020302020302020302020302020300A20202032302E3339353620202D31332E3239343520202020302E303030302043202020302020302020302020302020302020302020302020302020302020302020302020300A20202032312E3538363420202D31322E3630363920202020302E30303030204F202020302020302020302020302020302020302020302020302020302020302020302020300A20202032302E3339353720202D31342E3639393820202020302E303030302043202020302020302020302020302020302020302020302020302020302020302020302020300A20202031392E3230373420202D31312E3230303320202020302E30303030204F202020302020302020302020302020302020302020302020302020302020302020302020300A20202031312E3934373620202D31352E3430303020202020302E30303030204E202020302020302020302020302020302020302020302020302020302020302020302020300A20202031342E3337323420202D31312E3230303220202020302E30303030204F202020302020302020302020302020302020302020302020302020302020302020302020300A2020312020322020322020302020202020302020300A2020322020332020312020302020202020302020300A2020332020342020312020302020202020302020300A2020342020352020322020302020202020302020300A2020352020362020312020302020202020302020300A2020312020362020312020302020202020302020300A2020342020372020312020302020202020302020300A2020372020382020312020302020202020302020300A2020382020392020312020302020202020302020300A2020392031302020322020302020202020302020300A2020352031302020312020302020202020302020300A2020392031312020312020302020202020302020300A2031312031322020312020302020202020302020300A2031322031332020312020302020202020302020300A2031322031342020312020302020202020302020300A2031312031352020312020302020202020302020300A2020322031362020312020302020202020302020300A2020362031372020322020302020202020302020300A4D2020454E44
Contributor: MGR
InstType: ESI
InstName: micrOTOF-Q
IoniMethod: ESI
IonPolarity: neg
MSMS: 2
IsolWidth: 10
TargetGas: Nitrogen
ColEnergy: -19
PeakWidth: 0.027
ChargeDecon: 2
Date: 2010-10-09 19:48:36+02:00
Column: Synergi Fusion RP 2.5 u
Mass: 44.994-394.898
Num Peaks: 18
82.030 186 96.020 190 106.039 158 108.021 170 109.039 327 123.068 467 124.052 897 125.047 139 133.051 999 138.041 325 
149.047 478 150.043 172 151.058 153 152.044 231 166.072 865 176.057 735 178.037 265 194.067 340 
