Name: N-Methyltryptamine
MW: 174
Formula: C11H14N2
Synonym: CID: 6088
Synonym: MassBank: BD000206
Synonym: N-Methyltryptamine
Synonym: 3-(2-(Methylamino)ethyl)indole,3-(2-methylaminoethyl)indole,3-(2-[methylamino]ethyl)indole ,Dipterine ,methyltryptamine  ,N-monomethyltryptamine ,N-omega-methyltryptamine ,dl-methyltryptamine
Structure: 31332031342020302020302020302020302020302020302020302020303939392056323030300A20202032302E3135343520202D31332E3737333620202020302E303030302043202020302020302020302020302020302020302020302020302020302020302020302020300A20202032302E3135343520202D31352E3131303520202020302E303030302043202020302020302020302020302020302020302020302020302020302020302020302020300A20202032322E3435373320202D31332E3737393920202020302E303030302043202020302020302020302020302020302020302020302020302020302020302020302020300A20202031382E3939363820202D31332E3130383420202020302E303030302043202020302020302020302020302020302020302020302020302020302020302020302020300A20202032312E3330353920202D31352E3737353720202020302E30303030204E202020302020302020332020302020302020302020302020302020302020302020302020300A20202031382E3939363820202D31352E3737353720202020302E303030302043202020302020302020302020302020302020302020302020302020302020302020302020300A20202032322E3435373320202D31352E3130343020202020302E303030302043202020302020302020302020302020302020302020302020302020302020302020302020300A20202032332E3630323420202D31332E3130313920202020302E303030302043202020302020302020302020302020302020302020302020302020302020302020302020300A20202031372E3834353420202D31332E3737333620202020302E303030302043202020302020302020302020302020302020302020302020302020302020302020302020300A20202032312E3239333120202D31372E3039333320202020302E303030302043202020302020302020302020302020302020302020302020302020302020302020302020300A20202031372E3834353420202D31352E3131303520202020302E303030302043202020302020302020302020302020302020302020302020302020302020302020302020300A20202032342E3734373320202D31332E3737333620202020302E303030302043202020302020302020302020302020302020302020302020302020302020302020302020300A20202032352E3839323320202D31332E3039353620202020302E30303030204E202020302020302020302020302020302020302020302020302020302020302020302020300A2020312020322020312020302020202020302020300A2020312020332020312020302020202020302020300A2020312020342020322020302020202020302020300A2020322020352020312020302020202020302020300A2020322020362020322020302020202020302020300A2020332020372020322020302020202020302020300A2020332020382020312020302020202020302020300A2020342020392020312020302020202020302020300A2020352031302020312020302020202020302020300A2020362031312020312020302020202020302020300A2020382031322020312020302020202020302020300A2031322031332020312020302020202020302020300A2020352020372020312020302020202020302020300A2020392031312020322020302020202020302020300A4D2020454E44
Contributor: BSC
InstType: ESI
InstName: micrOTOF-Q
IoniMethod: ESI
IonPolarity: pos
MSMS: 2
IsolWidth: 10
TargetGas: Nitrogen
ColEnergy: 13
PeakWidth: 0.028
ChargeDecon: 2
Date: 2010-10-09 19:48:36+02:00
Column: Synergi Fusion RP 2.5 u
Mass: 44.799-395.034
Num Peaks: 11
117.067 3 118.065 6 132.080 211 133.083 22 143.071 2 143.641 2 144.081 999 145.083 117 146.086 5 175.122 15 
176.125 2 
