Name: Daidzein
CAS: 486-66-8
MW: 254
Formula: C15H10O4
Synonym: CID: 5281708
Synonym: MassBank: BD000785
Synonym: Daidzein
Synonym: 7-Hydroxy-3-(4-hydroxy-phenyl)-4H-1-benzo-pyran-4-one
Synonym: 4',7-Dihydroxybutisobutflavone
Synonym: 7-Hydroxy-3-(4-hydroxy-phenyl)-chromone
Structure: 31392032312020302020302020302020302020302020302020302020303939392056323030300A20202032302E3035383220202D31342E3638323920202020302E303030302043202020302020302020302020302020302020302020302020302020302020302020302020300A20202032302E3036343120202D31332E3237393620202020302E303030302043202020302020302020302020302020302020302020302020302020302020302020302020300A20202032312E3236393420202D31352E3338313620202020302E303030302043202020302020302020302020302020302020302020302020302020302020302020302020300A20202031382E3835323820202D31352E3337353920202020302E303030302043202020302020302020302020302020302020302020302020302020302020302020302020300A20202032312E3238313120202D31322E3538303920202020302E30303030204F202020302020302020302020302020302020302020302020302020302020302020302020300A20202031382E3835323820202D31322E3537353020202020302E303030302043202020302020302020302020302020302020302020302020302020302020302020302020300A20202032322E3437343820202D31342E3638383820202020302E303030302043202020302020302020302020302020302020302020302020302020302020302020302020300A20202032312E3236333520202D31362E3738343920202020302E30303030204F202020302020302020302020302020302020302020302020302020302020302020302020300A20202031372E3633353820202D31342E3638323920202020302E303030302043202020302020302020302020302020302020302020302020302020302020302020302020300A20202032322E3438303520202D31332E3239313320202020302E303030302043202020302020302020302020302020302020302020302020302020302020302020302020300A20202031372E3633353820202D31332E3237393620202020302E303030302043202020302020302020302020302020302020302020302020302020302020302020302020300A20202032332E3638353820202D31352E3339333320202020302E303030302043202020302020302020302020302020302020302020302020302020302020302020302020300A20202031362E3432343720202D31322E3537353020202020302E30303030204F202020302020302020302020302020302020302020302020302020302020302020302020300A20202032332E3637343220202D31362E3739303820202020302E303030302043202020302020302020302020302020302020302020302020302020302020302020302020300A20202032342E3839363920202D31342E3730303420202020302E303030302043202020302020302020302020302020302020302020302020302020302020302020302020300A20202032342E3838353420202D31372E3530313220202020302E303030302043202020302020302020302020302020302020302020302020302020302020302020302020300A20202032362E3130383220202D31352E3339393220202020302E303030302043202020302020302020302020302020302020302020302020302020302020302020302020300A20202032362E3130323320202D31362E3830323420202020302E303030302043202020302020302020302020302020302020302020302020302020302020302020302020300A20202032372E3331333520202D31372E3531323820202020302E30303030204F202020302020302020302020302020302020302020302020302020302020302020302020300A2020312020322020322020302020202020302020300A2020312020332020312020302020202020302020300A2020312020342020312020302020202020302020300A2020322020352020312020302020202020302020300A2020322020362020312020302020202020302020300A2020332020372020312020302020202020302020300A2020332020382020322020302020202020302020300A2020342020392020322020302020202020302020300A2020352031302020312020302020202020302020300A2020362031312020322020302020202020302020300A2020372031322020312020302020202020302020300A2031312031332020312020302020202020302020300A2031322031342020322020302020202020302020300A2031322031352020312020302020202020302020300A2031342031362020312020302020202020302020300A2031352031372020322020302020202020302020300A2031362031382020322020302020202020302020300A2031382031392020312020302020202020302020300A2020372031302020322020302020202020302020300A2020392031312020312020302020202020302020300A2031372031382020312020302020202020302020300A4D2020454E44
Contributor: MGR
InstType: ESI
InstName: micrOTOF-Q
IoniMethod: ESI
IonPolarity: neg
MSMS: 2
IsolWidth: 10
TargetGas: Nitrogen
ColEnergy: -37
PeakWidth: 0.026
ChargeDecon: 2
Date: 2010-10-09 19:48:36+02:00
Column: Synergi Fusion RP 2.5 u
Mass: 44.9911-394.879
Num Peaks: 27
89.037 52 91.017 731 92.022 51 117.033 110 132.021 555 133.029 999 134.032 101 135.009 346 153.020 212 168.058 51 
169.064 171 180.057 238 181.064 101 182.041 58 183.046 87 195.044 201 196.051 288 197.059 233 208.051 584 209.058 367 
210.049 52 223.039 514 224.045 567 225.051 235 252.041 80 253.048 774 254.051 107 
