Name: 3-(3-Hydroxyphenyl)propionic acid
CAS: 621-54-5
MW: 166
Formula: C9H10O3
Synonym: CID: 91
Synonym: MassBank: BD000550
Synonym: 3-(3-Hydroxyphenyl)propionic acid
Synonym: Beta-(3-hydroxyphenyl)propionic acid
Synonym: 3-(3-Hydroxy-phenyl)propanoic acid
Synonym: 3-Hydroxydihydrocinnamic acid
Synonym: 3-(m-Hydroxyphenyl)propionic acid
Synonym: 3-(3-Hydroxyphenyl)propionate
Synonym: 3-(m-Hydroxyphenyl)propionate
Synonym: b-(3-Hydroxyphenyl)propionic acid
Synonym: 3HPP
Synonym: 3-Hydroxybenzenepropanoic acid
Synonym: 3-Hydroxyphenylpropionic acid
Synonym: 3-(3-Hydroxyphenyl)propanoate
Synonym: Dihydro-3-coumaric acid
Synonym: 3-Hydroxyphenylpropanoate
Synonym: 3-Hydroxyphenylpropionate
Synonym: m-Hydroxyphenylpropionate
Synonym: b-(3-Hydroxyphenyl)propionate
Synonym: b-(m-Hydroxyphenyl)propionic acid
Synonym: b-(m-Hydroxyphenyl)propionate
Synonym: m-Hydroxy-hydrocinnamic acid
Synonym: Beta-(3-hydroxyphenyl)propionate
Synonym: Beta-(m-hydroxyphenyl)propionic acid
Synonym: Beta-(m-hydroxyphenyl)propionate
Synonym: 3-Hydroxydihydrocinnamate
Synonym: Dihydro-m-coumarate
Synonym: Dihydro-m-coumaric acid
Synonym: MHPP
Synonym: m-Hydroxy-hydrocinnamate
Synonym: m-Hydroxyphenylpropionic acid
Structure: 31322031322020302020302020302020302020302020302020302020303939392056323030300A20202031352E3333373320202D31342E3730353520202020302E303030302043202020302020302020302020302020302020302020302020302020302020302020302020300A20202031352E3333373320202D31362E3130383820202020302E303030302043202020302020302020302020302020302020302020302020302020302020302020302020300A20202031362E3535363520202D31362E3830373020202020302E303030302043202020302020302020302020302020302020302020302020302020302020302020302020300A20202031372E3736313520202D31362E3130383820202020302E303030302043202020302020302020302020302020302020302020302020302020302020302020302020300A20202031372E3736313520202D31342E3730353520202020302E303030302043202020302020302020302020302020302020302020302020302020302020302020302020300A20202031362E3535363520202D31342E3030303420202020302E303030302043202020302020302020302020302020302020302020302020302020302020302020302020300A20202031362E3535303320202D31322E3630343220202020302E303030302043202020302020302020302020302020302020302020302020302020302020302020302020300A20202031372E3735363120202D31312E3930363020202020302E303030302043202020302020302020302020302020302020302020302020302020302020302020302020300A20202031372E3735363120202D31302E3530393820202020302E303030302043202020302020302020302020302020302020302020302020302020302020302020302020300A20202031382E393638392020202D392E3830343520202020302E30303030204F202020302020302020302020302020302020302020302020302020302020302020302020300A20202031362E353436342020202D392E3830353220202020302E30303030204F202020302020302020302020302020302020302020302020302020302020302020302020300A20202031382E3937383220202D31362E3830363120202020302E30303030204F202020302020302020302020302020302020302020302020302020302020302020302020300A2020362020312020312020302020202020302020300A2020362020372020312020302020202020302020300A2020312020322020322020302020202020302020300A2020372020382020312020302020202020302020300A2020322020332020312020302020202020302020300A2020382020392020312020302020202020302020300A2020332020342020322020302020202020302020300A2020392031302020312020302020202020302020300A2020342020352020312020302020202020302020300A2020392031312020322020302020202020302020300A2020352020362020322020302020202020302020300A2020342031322020312020302020202020302020300A4D2020454E44
Contributor: MGR
InstType: ESI
InstName: micrOTOF-Q
IoniMethod: ESI
IonPolarity: pos
MSMS: 2
IsolWidth: 10
TargetGas: Nitrogen
ColEnergy: 19
PeakWidth: 0.028
ChargeDecon: 2
Date: 2010-10-09 19:48:36+02:00
Column: Synergi Fusion RP 2.5 u
Mass: 44.7882-395.024
Num Peaks: 3
93.070 113 107.049 346 121.065 999 
