Name: Lipoicacid
CAS: 62-46-4
MW: 206
Formula: C8H14O2S2
Synonym: CID: 864
Synonym: MassBank: BD000111
Synonym: Lipoicacid
Synonym: (Oct)-1,2-Dithiolane-3-pentanoic acid,6,8-Dithiooctanoic acid,DL-6,8-Thioctic acid,Lipoate,alpha-Lipoic acid,Thioctic acid,5-[(3S)-Dithiolan-3-yl]pentanoic acid
Structure: 31322031322020302020302020302020302020302020302020302020303939392056323030300A20202031382E3931303720202D31332E3337373720202020302E303030302053202020302020302020302020302020302020302020302020302020302020302020302020300A20202031372E3530393720202D31332E3337373720202020302E303030302053202020302020302020302020302020302020302020302020302020302020302020302020300A20202031372E3037363920202D31342E3731303120202020302E303030302043202020302020302020302020302020302020302020302020302020302020302020302020300A20202031382E3231303220202D31352E3533333620202020302E303030302043202020302020302020302020302020302020302020302020302020302020302020302020300A20202031392E3334333620202D31342E3731303120202020302E303030302043202020302020302020302020302020302020302020302020302020302020302020302020300A20202032302E3534343320202D31352E3430393120202020302E303030302043202020302020302020302020302020302020302020302020302020302020302020302020300A20202032312E3735373620202D31342E3730383620202020302E303030302043202020302020302020302020302020302020302020302020302020302020302020302020300A20202032322E3937303820202D31352E3430393120202020302E303030302043202020302020302020302020302020302020302020302020302020302020302020302020300A20202032342E3138343020202D31342E3730383620202020302E303030302043202020302020302020302020302020302020302020302020302020302020302020302020300A20202032352E3339373420202D31352E3430393120202020302E303030302043202020302020302020302020302020302020302020302020302020302020302020302020300A20202032362E3631303620202D31342E3730383620202020302E30303030204F202020302020302020302020302020302020302020302020302020302020302020302020300A20202032352E3339373420202D31362E3831303220202020302E30303030204F202020302020302020302020302020302020302020302020302020302020302020302020300A2020312020322020312020302020202020302020300A2020322020332020312020302020202020302020300A2020332020342020312020302020202020302020300A2020342020352020312020302020202020302020300A2020312020352020312020302020202020302020300A2020352020362020312020302020202020302020300A2020362020372020312020302020202020302020300A2020372020382020312020302020202020302020300A2020382020392020312020302020202020302020300A2020392031302020312020302020202020302020300A2031302031312020312020302020202020302020300A2031302031322020322020302020202020302020300A4D2020454E44
Contributor: BSC
InstType: ESI
InstName: micrOTOF-Q
IoniMethod: ESI
IonPolarity: pos
IsolWidth: 10
TargetGas: Nitrogen
ColEnergy: 10
PeakWidth: 0.024
ChargeDecon: 2
Date: 2010-10-09 19:48:36+02:00
Column: Synergi Fusion RP 2.5 u
Mass: 44.7971-395.015
Num Peaks: 53
93.069 5 95.085 9 101.041 153 102.045 10 103.039 7 104.982 15 105.070 7 106.077 3 107.084 3 122.094 5 
123.081 16 124.084 4 127.057 64 128.060 7 137.041 20 138.048 13 141.090 5 149.022 10 155.052 8 161.045 631 
162.047 54 163.042 62 164.045 5 171.029 170 172.032 18 173.033 17 177.041 37 178.042 3 181.951 7 187.026 3 
188.034 3 189.041 999 190.043 91 191.036 86 192.040 8 193.034 3 205.035 45 206.043 64 207.048 33 208.044 9 
223.046 49 224.053 6 224.120 4 225.044 5 229.033 727 230.036 68 231.030 59 232.034 7 245.029 307 246.031 33 
247.031 38 248.034 4 251.015 20 
