Name: (DL) 2-amino-3-phosphonopropionic acid
CAS: 20263-06-3
MW: 169
Formula: C3H8NO5P
Synonym: CID: 3857
Synonym: MassBank: BD000802
Synonym: (DL) 2-amino-3-phosphonopropionic acid
Synonym: 2-Amino-3-phosphonopropionic acid
Synonym: 2-Amino-3-phosphonopropionate
Synonym: 3-Phosphono-DL-alanine
Synonym: 2-Amino-3-phosphonopropanoate
Synonym: DL-2-amino-3-phosphonopropionic acid
Synonym: AP-3
Synonym: Phosphonoalanine
Structure: 31302020392020302020302020302020302020302020302020302020303939392056323030300A20202032342E3332323120202D31332E3034363520202020302E303030302050202020302020302020332020302020302020302020302020302020302020302020302020300A20202032312E3732323120202D31332E3030383620202020302E303030302043202020302020302020302020302020302020302020302020302020302020302020302020300A20202032362E3032323120202D31332E3034363520202020302E30303030204F202020302020302020302020302020302020302020302020302020302020302020302020300A20202032342E3331383620202D31342E3734363620202020302E30303030204F202020302020302020302020302020302020302020302020302020302020302020302020300A20202032342E3331383620202D31312E3334363620202020302E30303030204F202020302020302020302020302020302020302020302020302020302020302020302020300A20202031392E3838303720202D31342E3834363620202020302E303030302043202020302020302020332020302020302020302020302020302020302020302020302020300A20202031392E3837373220202D31372E3434363620202020302E303030302043202020302020302020302020302020302020302020302020302020302020302020302020300A20202032322E3339343520202D31352E3531393020202020302E30303030204E202020302020302020302020302020302020302020302020302020302020302020302020300A20202031372E3632323120202D31382E3734333120202020302E30303030204F202020302020302020302020302020302020302020302020302020302020302020302020300A20202032322E3132353520202D31382E3735303020202020302E30303030204F202020302020302020302020302020302020302020302020302020302020302020302020300A2020312020322020312020302020202020302020300A2020312020332020312020302020202020302020300A2020312020342020312020302020202020302020300A2020312020352020322020302020202020302020300A2020322020362020312020302020202020302020300A2020362020372020312020302020202020302020300A2020362020382020312020302020202020302020300A2020372020392020312020302020202020302020300A2020372031302020322020302020202020302020300A4D2020454E44
Contributor: MGR
InstType: ESI
InstName: micrOTOF-Q
IoniMethod: ESI
IonPolarity: pos
IsolWidth: 10
TargetGas: Nitrogen
ColEnergy: 10
PeakWidth: 0.026
ChargeDecon: 2
Date: 2010-10-09 19:48:36+02:00
Column: Synergi Fusion RP 2.5 u
Mass: 44.7896-395.031
Num Peaks: 13
97.999 5 106.005 9 124.016 451 125.018 12 126.020 3 149.023 9 161.062 4 170.022 999 171.025 38 172.025 10 
339.040 128 340.042 10 341.044 3 
