Name: Glucosamine-O-sulfat
CAS: 91674-26-9
MW: 259
Formula: C6H13NO8S
Synonym: MassBank: BD001018
Synonym: Glucosamine-O-sulfat
Structure: 2D495349532D20203032313930383138303632440A0A2031362031362020302020302020302020302020302020302020302020303939392056323030300A20202020352E383933332020202D362E3038363720202020302E30303030204F202020302020302020302020302020302020302020302020302020302020302020302020300A20202020332E323935322020202D342E3538363720202020302E30303030204F202020302020302020302020302020302020302020302020302020302020302020302020300A20202020332E323935322020202D362E3538363720202020302E30303030204F202020302020302020302020302020302020302020302020302020302020302020302020300A20202020362E373539332020202D342E3538363720202020302E30303030204F202020302020302020302020302020302020302020302020302020302020302020302020300A20202020352E383933332020202D382E3038363720202020302E30303030204F202020302020302020302020302020302020302020302020302020302020302020302020300A20202020352E303237332020202D332E3538363720202020302E30303030204E202020302020302020302020302020302020302020302020302020302020302020302020300A20202020342E313631332020202D352E3038363720202020302E303030302043202020302020302020312020302020302020302020302020302020302020302020302020300A20202020342E313631332020202D362E3038363720202020302E303030302043202020302020302020312020302020302020302020302020302020302020302020302020300A20202020352E303237332020202D342E3538363720202020302E303030302043202020302020302020322020302020302020302020302020302020302020302020302020300A20202020352E303237332020202D362E3538363720202020302E303030302043202020302020302020312020302020302020302020302020302020302020302020302020300A20202020352E383933332020202D352E3038363720202020302E303030302043202020302020302020312020302020302020302020302020302020302020302020302020300A20202020352E303237332020202D372E3538363720202020302E303030302043202020302020302020302020302020302020302020302020302020302020302020302020300A20202020362E383837352020202D382E3038333320202020302E303030302053202020302020302020332020302020302020302020302020302020302020302020302020300A20202020362E383833332020202D372E3038373520202020302E30303030204F202020302020302020302020302020302020302020302020302020302020302020302020300A20202020372E383833332020202D382E3038333320202020302E30303030204F202020302020302020302020302020302020302020302020302020302020302020302020300A20202020362E383833332020202D392E3037393220202020302E30303030204F202020302020302020302020302020302020302020302020302020302020302020302020300A2020382020332020312020312020302020302020300A2031312020342020312020362020302020302020300A2020352031322020312020302020302020302020300A2020392020362020312020312020302020302020300A2020372020382020312020302020302020302020300A2020372020392020312020302020302020302020300A2020382031302020312020302020302020302020300A2020392031312020312020302020302020302020300A2031302031322020312020362020302020302020300A2020352031332020312020302020302020302020300A2020312031302020312020302020302020302020300A2031332031342020322020302020302020302020300A2020312031312020312020302020302020302020300A2031332031352020312020302020302020302020300A2020372020322020312020362020302020302020300A2031332031362020322020302020302020302020300A4D2020454E44
Contributor: GZ
InstType: ESI
InstName: micrOTOF-Q
IoniMethod: ESI
IonPolarity: neg
MSMS: 2
IsolWidth: 10
TargetGas: Nitrogen
ColEnergy: 10
PeakWidth: 0.026
ChargeDecon: 2
Date: 2010-10-09 19:48:36+02:00
Column: Synergi Fusion RP 2.5 u
Mass: 44.9898-394.862
Num Peaks: 7
96.959 416 138.970 519 168.980 71 198.991 999 199.994 51 200.989 54 258.028 183 
