Name: (DL) ethionine
CAS: 13073-35-3
MW: 163
Formula: C6H13NO2S
Synonym: CID: 6205
Synonym: MassBank: BD000867
Synonym: (DL) ethionine
Synonym: (2S)-2-Amino-4-ethylsulfanyl-butanoic acid
Synonym: 2-Amino-4-(ethylthio)butyric acid
Synonym: 2-Amino-4-ethylsulfanyl-butanoic acid
Synonym: D,L-Ethionine
Structure: 31302020392020302020302020302020302020302020302020302020303939392056323030300A20202031372E3539303720202D31352E3337313620202020302E303030302043202020302020302020302020302020302020302020302020302020302020302020302020300A20202031382E3830303620202D31342E3637333020202020302E303030302043202020302020302020302020302020302020302020302020302020302020302020302020300A20202032302E3031303520202D31352E3337313620202020302E303030302053202020302020302020302020302020302020302020302020302020302020302020302020300A20202032312E3232303520202D31342E3637333020202020302E303030302043202020302020302020302020302020302020302020302020302020302020302020302020300A20202032322E3433303420202D31352E3337313620202020302E303030302043202020302020302020302020302020302020302020302020302020302020302020302020300A20202032332E3634303320202D31342E3637333020202020302E303030302043202020302020302020302020302020302020302020302020302020302020302020302020300A20202032342E3835303320202D31352E3337313620202020302E303030302043202020302020302020302020302020302020302020302020302020302020302020302020300A20202032362E3038323920202D31342E3635393620202020302E30303030204F202020302020302020302020302020302020302020302020302020302020302020302020300A20202032342E3835303420202D31362E3736383420202020302E30303030204F202020302020302020302020302020302020302020302020302020302020302020302020300A20202032332E3634303320202D31332E3237363020202020302E30303030204E202020302020302020302020302020302020302020302020302020302020302020302020300A2020312020322020312020302020202020302020300A2020322020332020312020302020202020302020300A2020332020342020312020302020202020302020300A2020342020352020312020302020202020302020300A2020352020362020312020302020202020302020300A2020362020372020312020302020202020302020300A2020372020382020322020302020202020302020300A2020372020392020312020302020202020302020300A2020362031302020312020302020202020302020300A4D2020454E44
Contributor: MGR
InstType: ESI
InstName: micrOTOF-Q
IoniMethod: ESI
IonPolarity: pos
IsolWidth: 10
TargetGas: Nitrogen
ColEnergy: 10
PeakWidth: 0.029
ChargeDecon: 2
Date: 2010-10-09 19:48:36+02:00
Column: Synergi Fusion RP 2.5 u
Mass: 44.7905-395.04
Num Peaks: 30
73.010 11 74.058 4 75.025 31 76.029 2 77.020 1 84.044 2 85.028 5 89.040 2 91.021 1 101.042 29 
102.055 88 103.055 5 117.718 1 118.069 432 119.069 29 120.064 22 121.065 1 146.595 2 147.048 782 148.050 58 
149.044 39 150.046 3 163.567 2 164.075 999 165.077 80 166.071 58 167.072 4 186.055 21 187.058 1 188.054 1 
