Name: 2-Octenoic acid
CAS: 1871-67-6
MW: 142
Formula: C8H14O2
Synonym: CID: 5282714
Synonym: MassBank: BD000703
Synonym: 2-Octenoic acid
Synonym: 2-Octenic acid
Synonym: (2E)-2-Octenoic acid
Synonym: (E)-Oct-2-enoic acid
Synonym: 2Z-Octenoic acid
Synonym: Oct-2-enoic acid
Synonym: Trans-2-octenoic acid
Synonym: Trans-alpha-octenoic acid
Structure: 31302020392020302020302020302020302020302020302020302020303939392056323030300A20202020372E3931303020202D31302E3038303020202020302E303030302043202020302020302020302020302020302020302020302020302020302020302020302020300A20202020392E3132323420202D31302E3738303020202020302E303030302043202020302020302020302020302020302020302020302020302020302020302020302020300A20202031302E3333343920202D31302E3038303020202020302E303030302043202020302020302020302020302020302020302020302020302020302020302020302020300A20202031312E3534373320202D31302E3738303020202020302E303030302043202020302020302020302020302020302020302020302020302020302020302020302020300A20202031322E3735393720202D31302E3038303020202020302E303030302043202020302020302020302020302020302020302020302020302020302020302020302020300A20202031332E3937323220202D31302E3738303020202020302E303030302043202020302020302020302020302020302020302020302020302020302020302020302020300A20202031352E3138343620202D31302E3038303020202020302E303030302043202020302020302020302020302020302020302020302020302020302020302020302020300A20202031362E3339373020202D31302E3738303020202020302E303030302043202020302020302020302020302020302020302020302020302020302020302020302020300A20202031372E3539363620202D31302E3038373320202020302E30303030204F202020302020302020302020302020302020302020302020302020302020302020302020300A20202031362E3339373120202D31322E3137393920202020302E30303030204F202020302020302020302020302020302020302020302020302020302020302020302020300A2020312020322020312020302020202020302020300A2020322020332020312020302020202020302020300A2020332020342020312020302020202020302020300A2020342020352020312020302020202020302020300A2020352020362020312020302020202020302020300A2020362020372020322020302020202020302020300A2020372020382020312020302020202020302020300A2020382020392020312020302020202020302020300A2020382031302020322020302020202020302020300A4D2020454E44
Contributor: MGR
InstType: ESI
InstName: micrOTOF-Q
IoniMethod: ESI
IonPolarity: neg
IsolWidth: 10
TargetGas: Nitrogen
ColEnergy: 10
PeakWidth: 0.026
ChargeDecon: 2
Date: 2010-10-09 19:48:36+02:00
Column: Synergi Fusion RP 2.5 u
Mass: 44.9926-394.887
Num Peaks: 13
112.985 21 116.930 5 141.091 999 142.095 85 143.096 9 209.078 79 210.083 8 212.073 4 230.986 18 241.015 4 
287.023 4 305.171 184 306.174 32 
