Name: Ribitol
CAS: 488-81-3
MW: 152
Formula: C5H12O5
Synonym: CID: 827
Synonym: MassBank: BD000322
Synonym: Ribitol
Synonym: Adonitol,meso-ribitol,
Structure: 31302020392020302020302020302020302020302020302020302020303939392056323030300A20202032312E3737313520202D31352E3035303020202020302E303030302043202020302020302020332020302020302020302020302020302020302020302020302020300A20202032312E3737313520202D31332E3634363120202020302E303030302043202020302020302020332020302020302020302020302020302020302020302020302020300A20202032312E3737313520202D31362E3435333920202020302E303030302043202020302020302020332020302020302020302020302020302020302020302020302020300A20202032332E3136383920202D31352E3035303020202020302E30303030204F202020302020302020302020302020302020302020302020302020302020302020302020300A20202032312E3737313520202D31322E3234383520202020302E303030302043202020302020302020302020302020302020302020302020302020302020302020302020300A20202032332E3136383920202D31332E3634363120202020302E30303030204F202020302020302020302020302020302020302020302020302020302020302020302020300A20202032312E3737313520202D31372E3835313520202020302E303030302043202020302020302020302020302020302020302020302020302020302020302020302020300A20202032332E3136383920202D31362E3435333920202020302E30303030204F202020302020302020302020302020302020302020302020302020302020302020302020300A20202032322E3938323120202D31312E3534363420202020302E30303030204F202020302020302020302020302020302020302020302020302020302020302020302020300A20202032302E3535343120202D31382E3535333620202020302E30303030204F202020302020302020302020302020302020302020302020302020302020302020302020300A2020312020322020312020302020202020302020300A2020312020332020312020302020202020302020300A2020312020342020312020302020202020302020300A2020322020352020312020302020202020302020300A2020322020362020312020302020202020302020300A2020332020372020312020302020202020302020300A2020332020382020312020302020202020302020300A2020352020392020312020302020202020302020300A2020372031302020312020302020202020302020300A4D2020454E44
Contributor: BSC
InstType: ESI
InstName: micrOTOF-Q
IoniMethod: ESI
IonPolarity: neg
IsolWidth: 10
TargetGas: Nitrogen
ColEnergy: 10
PeakWidth: 0.029
ChargeDecon: 2
Date: 2010-10-09 19:48:36+02:00
Column: Synergi Fusion RP 2.5 u
Mass: 44.9957-394.893
Num Peaks: 36
71.013 7 75.007 4 83.012 2 85.028 3 87.008 2 89.023 46 90.026 2 101.023 48 102.029 3 103.037 2 
113.022 4 119.034 25 120.037 1 129.021 1 131.033 6 133.049 9 135.042 2 146.957 1 149.044 10 151.061 999 
152.064 56 153.065 10 165.039 7 171.070 1 174.955 2 187.036 2 193.020 1 195.047 7 197.066 80 198.069 6 
199.072 2 215.029 1 219.039 1 250.984 3 283.100 8 303.126 7 
