Name: Phenylethylamine
CAS: 64-04-0
MW: 121
Formula: C8H11N
Synonym: CID: 1001
Synonym: MassBank: BD000689
Synonym: Phenylethylamine
Synonym: 2-Phenethylamine
Synonym: 2-Phenylethylamine
Synonym: Benzeneethanamine
Synonym: Beta-aminoethylbenzene
Synonym: Beta-phenylethylamine
Synonym: Phenethylamine
Structure: 392020392020302020302020302020302020302020302020302020303939392056323030300A20202031362E3632313920202D31332E3739313720202020302E303030302043202020302020302020302020302020302020302020302020302020302020302020302020300A20202031352E3339393020202D31342E3530323520202020302E303030302043202020302020302020302020302020302020302020302020302020302020302020302020300A20202031362E3632313920202D31322E3338333120202020302E303030302043202020302020302020302020302020302020302020302020302020302020302020302020300A20202031372E3833323220202D31342E3438393720202020302E303030302043202020302020302020302020302020302020302020302020302020302020302020302020300A20202031342E3139353220202D31332E3739313720202020302E303030302043202020302020302020302020302020302020302020302020302020302020302020302020300A20202031352E3339393020202D31312E3639313620202020302E303030302043202020302020302020302020302020302020302020302020302020302020302020302020300A20202031392E3033353820202D31332E3738353420202020302E303030302043202020302020302020302020302020302020302020302020302020302020302020302020300A20202031342E3139353220202D31322E3338333120202020302E303030302043202020302020302020302020302020302020302020302020302020302020302020302020300A20202032302E3031353520202D31342E3736353020202020302E30303030204E202020302020302020302020302020302020302020302020302020302020302020302020300A2020312020322020312020302020202020302020300A2020312020332020322020302020202020302020300A2020312020342020312020302020202020302020300A2020322020352020322020302020202020302020300A2020332020362020312020302020202020302020300A2020342020372020312020302020202020302020300A2020352020382020312020302020202020302020300A2020372020392020312020302020202020302020300A2020362020382020322020302020202020302020300A4D2020454E44
Contributor: MGR
InstType: ESI
InstName: micrOTOF-Q
IoniMethod: ESI
IonPolarity: pos
IsolWidth: 10
TargetGas: Nitrogen
ColEnergy: 10
PeakWidth: 0.031
ChargeDecon: 2
Date: 2010-10-09 19:48:36+02:00
Column: Synergi Fusion RP 2.5 u
Mass: 44.7915-395.043
Num Peaks: 16
77.038 36 78.043 3 79.053 125 80.057 9 81.034 2 95.049 64 96.053 4 102.046 8 103.054 210 104.057 21 
104.762 2 105.070 999 106.073 93 107.076 4 122.096 274 123.099 24 
