Name: N-Acetyl-L-phenylalanine
CAS: 2018-61-3
MW: 207
Formula: C11H13NO3
Synonym: CID: 2000
Synonym: MassBank: BD000192
Synonym: N-Acetyl-L-phenylalanine
Synonym: (2S)-2-Acetamido-3-phenylpropanoic acid
Synonym: Acetyl-L-phenylalanine  ,L-N-acetylphenylalanine ,N-acetylphenylalanine ,N-acetyl-3-phenyl-L-Alanine,acetyl phenylalanine
Structure: 31352031352020302020302020312020302020302020302020302020303939392056323030300A20202032332E3030373620202D31342E3135363420202020302E303030302043202020302020302020322020302020302020302020302020302020302020302020302020300A20202032312E3932313220202D31332E3233303620202020302E303030302043202020302020302020302020302020302020302020302020302020302020302020302020300A20202032332E3030373620202D31352E3631343420202020302E30303030204E202020302020302020302020302020302020302020302020302020302020302020302020300A20202032342E3333313720202D31332E3638363920202020302E303030302043202020302020302020302020302020302020302020302020302020302020302020302020300A20202032302E3731393320202D31332E3934343220202020302E303030302043202020302020302020302020302020302020302020302020302020302020302020302020300A20202032342E3231363120202D31362E3332313420202020302E303030302043202020302020302020302020302020302020302020302020302020302020302020302020300A20202032352E3436393520202D31342E3530333420202020302E30303030204F202020302020302020302020302020302020302020302020302020302020302020302020300A20202032342E3335313020202D31322E3431343420202020302E30303030204F202020302020302020302020302020302020302020302020302020302020302020302020300A20202032302E3731393320202D31352E3334353420202020302E303030302043202020302020302020302020302020302020302020302020302020302020302020302020300A20202031392E3531303820202D31332E3233303620202020302E303030302043202020302020302020302020302020302020302020302020302020302020302020302020300A20202032342E3230393620202D31372E3731363420202020302E303030302043202020302020302020302020302020302020302020302020302020302020302020302020300A20202032352E3432343320202D31352E3632303820202020302E30303030204F202020302020302020302020302020302020302020302020302020302020302020302020300A20202031392E3531303820202D31362E3034363020202020302E303030302043202020302020302020302020302020302020302020302020302020302020302020302020300A20202031382E3237363920202D31332E3934343220202020302E303030302043202020302020302020302020302020302020302020302020302020302020302020302020300A20202031382E3237363920202D31352E3334353420202020302E303030302043202020302020302020302020302020302020302020302020302020302020302020302020300A2020312020322020312020302020202020302020300A2020312020332020312020312020202020302020300A2020312020342020312020302020202020302020300A2020322020352020312020302020202020302020300A2020332020362020312020302020202020302020300A2020342020372020312020302020202020302020300A2020342020382020322020302020202020302020300A2020352020392020312020302020202020302020300A2020352031302020322020302020202020302020300A2020362031312020312020302020202020302020300A2020362031322020322020302020202020302020300A2020392031332020322020302020202020302020300A2031302031342020312020302020202020302020300A2031332031352020312020302020202020302020300A2031342031352020322020302020202020302020300A4D2020454E44
Contributor: BSC
InstType: ESI
InstName: micrOTOF-Q
IoniMethod: ESI
IonPolarity: pos
IsolWidth: 10
TargetGas: Nitrogen
ColEnergy: 10
PeakWidth: 0.03
ChargeDecon: 2
Date: 2010-10-09 19:48:36+02:00
Column: Synergi Fusion RP 2.5 u
Mass: 203.052-220.142
Num Peaks: 3
208.097 999 209.100 125 210.104 13 
