Name: Ibuprofen
CAS: 15687-27-1
MW: 206
Formula: C13H18O2
Synonym: CID: 3672
Synonym: MassBank: BD000079
Synonym: Ibuprofen
Synonym: 2-[4-(2-Methylpropyl)phenyl]propanoic acid
Synonym: a-Methyl-4-(isobutyl)phenylacetic acid
Structure: 31352031352020302020302020302020302020302020302020302020303939392056323030300A20202032362E3730333220202D31342E3336333920202020302E30303030204F202020302020302020302020302020302020302020302020302020302020302020302020300A20202032352E3439313120202D31352E3036343620202020302E303030302043202020302020302020302020302020302020302020302020302020302020302020302020300A20202032342E3237383120202D31342E3336353120202020302E303030302043202020302020302020332020302020302020302020302020302020302020302020302020300A20202032352E3439313720202D31362E3436343720202020302E30303030204F202020302020302020302020302020302020302020302020302020302020302020302020300A20202032332E3036363020202D31352E3036353820202020302E303030302043202020302020302020302020302020302020302020302020302020302020302020302020300A20202032312E3835383820202D31342E3336333520202020302E303030302043202020302020302020302020302020302020302020302020302020302020302020302020300A20202032302E3634363820202D31352E3036343320202020302E303030302043202020302020302020302020302020302020302020302020302020302020302020302020300A20202032302E3634373420202D31362E3436343420202020302E303030302043202020302020302020302020302020302020302020302020302020302020302020302020300A20202032312E3836303320202D31372E3136333720202020302E303030302043202020302020302020302020302020302020302020302020302020302020302020302020300A20202032332E3037323320202D31362E3436323920202020302E303030302043202020302020302020302020302020302020302020302020302020302020302020302020300A20202031392E3433353220202D31372E3136343920202020302E303030302043202020302020302020302020302020302020302020302020302020302020302020302020300A20202031382E3232323320202D31362E3436353620202020302E303030302043202020302020302020332020302020302020302020302020302020302020302020302020300A20202031372E3031303220202D31372E3136363220202020302E303030302043202020302020302020302020302020302020302020302020302020302020302020302020300A20202031382E3232313620202D31352E3036353520202020302E303030302043202020302020302020302020302020302020302020302020302020302020302020302020300A20202032342E3237373320202D31322E3935393720202020302E303030302043202020302020302020302020302020302020302020302020302020302020302020302020300A2020322020342020322020302020202020302020300A2020332020352020312020302020202020302020300A2020352020362020322020302020202020302020300A2020362020372020312020302020202020302020300A2020372020382020322020302020202020302020300A2020382020392020312020302020202020302020300A2020392031302020322020302020202020302020300A2031302020352020312020302020202020302020300A2020382031312020312020302020202020302020300A2020312020322020312020302020202020302020300A2031312031322020312020302020202020302020300A2031322031332020312020302020202020302020300A2020322020332020312020302020202020302020300A2031322031342020312020302020202020302020300A2020332031352020312020302020202020302020300A4D2020454E44
Contributor: BSC
InstType: ESI
InstName: micrOTOF-Q
IoniMethod: ESI
IonPolarity: neg
IsolWidth: 10
TargetGas: Nitrogen
ColEnergy: 10
PeakWidth: 0.025
ChargeDecon: 2
Date: 2010-10-09 19:48:36+02:00
Column: Synergi Fusion RP 2.5 u
Mass: 44.9927-394.878
Num Peaks: 18
112.987 3 116.929 9 119.049 3 137.023 4 143.086 6 149.097 4 159.117 203 160.120 26 161.126 5 175.113 9 
194.082 21 203.107 7 205.123 999 206.126 130 207.129 13 245.114 3 273.109 114 274.112 17 
