Name: 3-Hydroxy-3-phenylpropionic acid
CAS: 3480-87-3
MW: 166
Formula: C9H10O3
Synonym: CID: 92959
Synonym: MassBank: BD000495
Synonym: 3-Hydroxy-3-phenylpropionic acid
Synonym: 3-Hydroxy-3-phenyl-propanoic acid
Synonym: Beta-hydroxy-benzenepropanoic acid
Synonym: Beta-hydroxyphenylpropionic acid
Structure: 31322031322020302020302020302020302020302020302020302020303939392056323030300A20202032302E3538363820202D31362E3339303520202020302E303030302043202020302020302020302020302020302020302020302020302020302020302020302020300A20202032302E3538363820202D31372E3739313320202020302E303030302043202020302020302020302020302020302020302020302020302020302020302020302020300A20202032312E3739393920202D31382E3439313720202020302E303030302043202020302020302020302020302020302020302020302020302020302020302020302020300A20202032332E3031333220202D31372E3739313320202020302E303030302043202020302020302020302020302020302020302020302020302020302020302020302020300A20202032332E3031333220202D31362E3339303520202020302E303030302043202020302020302020302020302020302020302020302020302020302020302020302020300A20202032312E3739393920202D31352E3639303120202020302E303030302043202020302020302020302020302020302020302020302020302020302020302020302020300A20202032312E3739393920202D31342E3238393420202020302E303030302043202020302020302020302020302020302020302020302020302020302020302020302020300A20202032322E3939363220202D31332E3539383620202020302E303030302043202020302020302020302020302020302020302020302020302020302020302020302020300A20202032322E3939363420202D31322E3138383320202020302E303030302043202020302020302020302020302020302020302020302020302020302020302020302020300A20202032342E3138383520202D31312E3530303020202020302E30303030204F202020302020302020302020302020302020302020302020302020302020302020302020300A20202032312E3736323220202D31312E3437353420202020302E30303030204F202020302020302020302020302020302020302020302020302020302020302020302020300A20202032302E3536313020202D31332E3537343020202020302E30303030204F202020302020302020302020302020302020302020302020302020302020302020302020300A2020312020322020322020302020202020302020300A2020322020332020312020302020202020302020300A2020332020342020322020302020202020302020300A2020342020352020312020302020202020302020300A2020352020362020322020302020202020302020300A2020312020362020312020302020202020302020300A2020362020372020312020302020202020302020300A2020372020382020312020302020202020302020300A2020382020392020312020302020202020302020300A2020392031302020312020302020202020302020300A2020392031312020322020302020202020302020300A2020372031322020312020302020202020302020300A4D2020454E44
Contributor: MGR
InstType: ESI
InstName: micrOTOF-Q
IoniMethod: ESI
IonPolarity: neg
IsolWidth: 10
TargetGas: Nitrogen
ColEnergy: 10
PeakWidth: 0.027
ChargeDecon: 2
Date: 2010-10-09 19:48:36+02:00
Column: Synergi Fusion RP 2.5 u
Mass: 44.9939-394.898
Num Peaks: 5
135.044 3 146.940 2 165.055 999 166.058 95 167.060 9 
