Name: Desthiobiotin
CAS: 533-48-2
MW: 214
Formula: C10H18N2O3
Synonym: CID: 643
Synonym: MassBank: BD000793
Synonym: Desthiobiotin
Synonym: 5-Methyl-2-oxo-4-imidazolidinehexanoic acid
Synonym: D-Desthiobiotin
Synonym: Dethiobiotin
Structure: 31352031352020302020302020302020302020302020302020302020303939392056323030300A20202031392E3532343020202D31332E3232373820202020302E303030302043202020302020302020332020302020302020302020302020302020302020302020302020300A20202031372E3435373020202D31332E3232373820202020302E303030302043202020302020302020332020302020302020302020302020302020302020302020302020300A20202031392E3532343020202D31342E3834383820202020302E30303030204E202020302020302020302020302020302020302020302020302020302020302020302020300A20202032302E3739353120202D31332E3230333920202020302E303030302043202020302020302020302020302020302020302020302020302020302020302020302020300A20202031372E3435373020202D31342E3834383820202020302E30303030204E202020302020302020302020302020302020302020302020302020302020302020302020300A20202031362E3136323120202D31332E3232373820202020302E303030302043202020302020302020302020302020302020302020302020302020302020302020302020300A20202031382E3533323020202D31352E3633323920202020302E303030302043202020302020302020302020302020302020302020302020302020302020302020302020300A20202032312E3931313820202D31332E3835313320202020302E303030302043202020302020302020302020302020302020302020302020302020302020302020302020300A20202031382E3533383020202D31362E3834363920202020302E30303030204F202020302020302020302020302020302020302020302020302020302020302020302020300A20202032332E3032383620202D31332E3230333920202020302E303030302043202020302020302020302020302020302020302020302020302020302020302020302020300A20202032342E3135313120202D31332E3835313320202020302E303030302043202020302020302020302020302020302020302020302020302020302020302020302020300A20202032352E3236373920202D31332E3230333920202020302E303030302043202020302020302020302020302020302020302020302020302020302020302020302020300A20202032362E3338343420202D31332E3835313320202020302E303030302043202020302020302020302020302020302020302020302020302020302020302020302020300A20202032362E3338343420202D31352E3431323120202020302E30303030204F202020302020302020302020302020302020302020302020302020302020302020302020300A20202032372E3530373120202D31332E3230333920202020302E30303030204F202020302020302020302020302020302020302020302020302020302020302020302020300A2020312020322020312020302020202020302020300A2020312020332020312020302020202020302020300A2020312020342020312020302020202020302020300A2020322020352020312020302020202020302020300A2020322020362020312020302020202020302020300A2020332020372020312020302020202020302020300A2020342020382020312020302020202020302020300A2020372020392020322020302020202020302020300A2020382031302020312020302020202020302020300A2031302031312020312020302020202020302020300A2031312031322020312020302020202020302020300A2031322031332020312020302020202020302020300A2031332031342020312020302020202020302020300A2031332031352020322020302020202020302020300A2020352020372020312020302020202020302020300A4D2020454E44
Contributor: MGR
InstType: ESI
InstName: micrOTOF-Q
IoniMethod: ESI
IonPolarity: pos
IsolWidth: 10
TargetGas: Nitrogen
ColEnergy: 10
PeakWidth: 0.024
ChargeDecon: 2
Date: 2010-10-09 19:48:36+02:00
Column: Synergi Fusion RP 2.5 u
Mass: 44.7917-395.045
Num Peaks: 18
122.096 3 131.975 2 146.960 3 149.022 5 154.123 3 159.969 3 164.551 2 179.119 3 181.951 8 197.129 352 
198.132 36 199.134 3 204.969 3 215.140 999 216.143 111 217.144 10 237.121 140 238.125 16 
