Name: Quinicacid
CAS: 77-95-2
MW: 192
Formula: C7H12O6
Synonym: CID: 1064
Synonym: MassBank: BD000311
Synonym: Quinicacid
Synonym: Chinic acid,Kinic acid,quinate  ,Chinasaure,L-Quinic acid,L-Quinate,(-)-quinic acid,D-(-)-Quinic acid,D-QUINic acid
Structure: 31332031332020302020302020312020302020302020302020302020303939392056323030300A20202032312E3833303320202D31342E3133363320202020302E303030302043202020302020302020312020302020302020302020302020302020302020302020302020300A20202032322E3531313120202D31322E3934303320202020302E303030302043202020302020302020302020302020302020302020302020302020302020302020302020300A20202032332E3032363320202D31342E3832393720202020302E303030302043202020302020302020302020302020302020302020302020302020302020302020302020300A20202032302E3633343620202D31342E3832393720202020302E303030302043202020302020302020302020302020302020302020302020302020302020302020302020300A20202032302E3931373020202D31332E3030393520202020302E30303030204F202020302020302020302020302020302020302020302020302020302020302020302020300A20202032332E3839313520202D31322E3934303320202020302E30303030204F202020302020302020302020302020302020302020302020302020302020302020302020300A20202032312E3831313420202D31312E3733383220202020302E30303030204F202020302020302020302020302020302020302020302020302020302020302020302020300A20202032332E3032363320202D31362E3230393920202020302E303030302043202020302020302020322020302020302020302020302020302020302020302020302020300A20202032302E3633343620202D31362E3230393920202020302E303030302043202020302020302020322020302020302020302020302020302020302020302020302020300A20202032312E3833303320202D31362E3930333420202020302E303030302043202020302020302020312020302020302020302020302020302020302020302020302020300A20202032342E3238343920202D31362E3937323520202020302E30303030204F202020302020302020302020302020302020302020302020302020302020302020302020300A20202031392E3433323220202D31362E3839373020202020302E30303030204F202020302020302020302020302020302020302020302020302020302020302020302020300A20202032312E3831373720202D31382E3335393120202020302E30303030204F202020302020302020302020302020302020302020302020302020302020302020302020300A2020312020322020312020312020202020302020300A2020312020332020312020302020202020302020300A2020312020342020312020302020202020302020300A2020312020352020312020362020202020302020300A2020322020362020312020302020202020302020300A2020322020372020322020302020202020302020300A2020332020382020312020302020202020302020300A2020342020392020312020302020202020302020300A2020382031302020312020302020202020302020300A2020382031312020312020312020202020302020300A2020392031322020312020362020202020302020300A2031302031332020312020362020202020302020300A2020392031302020312020302020202020302020300A4D2020454E44
Contributor: BSC
InstType: ESI
InstName: micrOTOF-Q
IoniMethod: ESI
IonPolarity: neg
MSMS: 2
IsolWidth: 10
TargetGas: Nitrogen
ColEnergy: 10
PeakWidth: 0.032
ChargeDecon: 2
Date: 2010-10-09 19:48:36+02:00
Column: Synergi Fusion RP 2.5 u
Mass: 44.9928-394.893
Num Peaks: 11
81.033 54 83.048 66 85.028 999 86.032 47 87.008 172 93.033 388 99.043 72 109.029 115 111.044 64 127.039 129 
191.056 220 
