Name: Lactulose
CAS: 4618-18-2
MW: 342
Formula: C12H22O11
Synonym: CID: 3872
Synonym: MassBank: BD000089
Synonym: Lactulose
Synonym: 4-O-(Z)--D-Galactopyranosyl-D-fructofuranose,4-O-(Z)--D-Galactopyranosyl-D-fructose
Synonym: (2S,3R,4S,5R,6R)-2-[(2R,3S,4S,5R)-4,5-Dihydroxy-2,5-bis(hydroxymethyl)oxolan-3-yl]oxy-6-(hydroxymethyl)oxane-3,4,5-triol
Structure: 32332032342020302020302020312020302020302020302020302020303939392056323030300A20202032332E3237353520202D31332E3431363220202020302E303030302043202020302020302020322020302020302020302020302020302020302020302020302020300A20202032322E3834393620202D31322E3130333020202020302E303030302043202020302020302020322020302020302020302020302020302020302020302020302020300A20202032342E3635383620202D31332E3431363220202020302E303030302043202020302020302020312020302020302020302020302020302020302020302020302020300A20202032322E3233363820202D31342E3638323620202020302E30303030204F202020302020302020302020302020302020302020302020302020302020302020302020300A20202032332E3936393920202D31312E3238363220202020302E30303030204F202020302020302020302020302020302020302020302020302020302020302020302020300A20202032312E3731373420202D31312E3430323820202020302E303030302043202020302020302020302020302020302020302020302020302020302020302020302020300A20202032352E3038343520202D31322E3130333020202020302E303030302043202020302020302020322020302020302020302020302020302020302020302020302020300A20202032352E3436393720202D31342E3533363720202020302E30303030204F202020302020302020302020302020302020302020302020302020302020302020302020300A20202032312E3033343520202D31352E3337313220202020302E303030302043202020302020302020322020302020302020302020302020302020302020302020302020300A20202032302E3532363820202D31322E3032373220202020302E30303030204F202020302020302020302020302020302020302020302020302020302020302020302020300A20202032362E3332373620202D31312E3430323820202020302E303030302043202020302020302020302020302020302020302020302020302020302020302020302020300A20202032362E3430333620202D31322E3939353920202020302E30303030204F202020302020302020302020302020302020302020302020302020302020302020302020300A20202031392E3834343120202D31342E3638323620202020302E30303030204F202020302020302020302020302020302020302020302020302020302020302020302020300A20202032312E3033343520202D31362E3735343220202020302E303030302043202020302020302020312020302020302020302020302020302020302020302020302020300A20202032372E3531383220202D31322E3039373320202020302E30303030204F202020302020302020302020302020302020302020302020302020302020302020302020300A20202031382E3634313820202D31352E3337313220202020302E303030302043202020302020302020312020302020302020302020302020302020302020302020302020300A20202031392E3834343120202D31372E3434323820202020302E303030302043202020302020302020322020302020302020302020302020302020302020302020302020300A20202032322E3233363820202D31372E3434323820202020302E30303030204F202020302020302020302020302020302020302020302020302020302020302020302020300A20202031382E3634313820202D31362E3735343220202020302E303030302043202020302020302020312020302020302020302020302020302020302020302020302020300A20202031372E3433393720202D31342E3638323620202020302E303030302043202020302020302020302020302020302020302020302020302020302020302020302020300A20202031392E3834343120202D31382E3832353820202020302E30303030204F202020302020302020302020302020302020302020302020302020302020302020302020300A20202031372E3433393720202D31372E3434323820202020302E30303030204F202020302020302020302020302020302020302020302020302020302020302020302020300A20202031362E3234333420202D31352E3337313220202020302E30303030204F202020302020302020302020302020302020302020302020302020302020302020302020300A2020312020322020312020302020202020302020300A2020312020332020312020302020202020302020300A2020312020342020312020362020202020302020300A2020322020352020312020302020202020302020300A2020322020362020312020312020202020302020300A2020332020372020312020302020202020302020300A2020332020382020312020312020202020302020300A2020392020342020312020312020202020302020300A2020362031302020312020302020202020302020300A2020372031312020312020362020202020302020300A2020372031322020312020312020202020302020300A2020392031332020312020302020202020302020300A2020392031342020312020302020202020302020300A2031312031352020312020302020202020302020300A2031332031362020312020302020202020302020300A2031342031372020312020302020202020302020300A2031342031382020312020362020202020302020300A2031362031392020312020302020202020302020300A2031362032302020312020312020202020302020300A2031372032312020312020312020202020302020300A2031392032322020312020312020202020302020300A2032302032332020312020302020202020302020300A2020352020372020312020302020202020302020300A2031372031392020312020302020202020302020300A4D2020454E44
Contributor: BSC
InstType: ESI
InstName: micrOTOF-Q
IoniMethod: ESI
IonPolarity: pos
IsolWidth: 10
TargetGas: Nitrogen
ColEnergy: 10
PeakWidth: 0.031
ChargeDecon: 2
Date: 2010-10-09 19:48:36+02:00
Column: Synergi Fusion RP 2.5 u
Mass: 21.5007-805.182
Num Peaks: 53
117.066 7 127.040 47 145.050 48 163.060 132 164.063 9 190.020 9 208.032 8 271.078 10 289.091 44 307.101 18 
325.112 273 326.116 33 327.118 7 343.124 7 352.074 19 360.148 85 360.577 8 361.085 25 361.585 8 362.100 15 
365.107 18 370.086 30 370.587 9 371.085 8 396.035 8 451.143 10 469.154 12 487.166 260 488.168 51 489.171 13 
505.175 18 533.160 11 540.647 7 541.145 62 541.647 24 542.145 17 631.207 19 649.219 999 650.221 253 651.225 65 
652.232 12 667.228 33 668.231 10 685.241 27 702.267 68 703.272 16 704.233 10 707.224 18 712.207 36 712.709 20 
713.210 15 738.150 12 739.156 7 
