Name: Phloroglucinol
CAS: 108-73-6
MW: 126
Formula: C6H6O3
Synonym: CID: 359
Synonym: MassBank: BD000265
Synonym: Phloroglucinol
Synonym: 1,3,5-Benzenetriol,1,3,5-trihydroxybenzene
Synonym: Phloroglucinol, Phloroglucin, Phloroglucine, Spasfon-Lyoc, benzene-S-triol, Dilospan S, 5-oxyresorcinol, S-trihydroxybenzene
Synonym: 4-06-00-07361 (Beilstein Handbook Reference), I04-0078, InChI=1/C6H6O3/c7-4-1-5(8)3-6(9)2-4/H1-3,7-9, 6099-90-7
Synonym: 79330_ALDRicH, P1178_SIGMA, C6H6O3, CPD-16, P3502_SIAL, 1,3,5-benzenetriol, dihydrate, NSC 1572, 79330_FLUKA, CHEbi:16204
Synonym: AI3-08848, BBR-006755, NCGC00166270-01, LS-105905, TL8000285, P0249, P1376, C02183, D00152, 108-73-6
Synonym: Dilospan S (TN), 1,3,5-triol, 5-oxyresorcinolphloroglucin, Phloroglucinol (JAN), Phloroglucinol dihydrate, benzene, 1,3,5-trihydroxy-, WLN: QR CQ EQ, 1,3,5-trihydroxycyclohexatriene, CCRIS 4147, P38005_ALDRicH
Synonym: EineCS 203-611-2, NSC1572, 1,3,5-THB, MolPort-000-871-966, AIDS017800, 1,3,5-trihydroxybenzene dihydrate, AIDS-017800, BRN 1341907, c0026, ZINC00391883
Synonym: Floroglucinol, Floroglucin, 5-hydroxyresorcinol, benzene, trihydroxy sym-trihydroxybenzene, 3,5-dihydroxyphenol, 5-benzenetriol, Floroglucin [Czech], benzene-1,3,5-triol, Floroglucinol [Czech]
Structure: 392020392020302020302020302020302020302020302020302020303939392056323030300A20202032302E3633303420202D31362E3435333820202020302E303030302043202020302020302020302020302020302020302020302020302020302020302020302020300A20202032302E3633303420202D31352E3034363020202020302E303030302043202020302020302020302020302020302020302020302020302020302020302020302020300A20202032312E3833333620202D31372E3136343320202020302E303030302043202020302020302020302020302020302020302020302020302020302020302020302020300A20202031392E3432303720202D31372E3134353020202020302E30303030204F202020302020302020302020302020302020302020302020302020302020302020302020300A20202032312E3833333620202D31342E3334383320202020302E303030302043202020302020302020302020302020302020302020302020302020302020302020302020300A20202032332E3035353820202D31362E3435333820202020302E303030302043202020302020302020302020302020302020302020302020302020302020302020302020300A20202032332E3035353820202D31352E3034363020202020302E303030302043202020302020302020302020302020302020302020302020302020302020302020302020300A20202032312E3833333620202D31322E3935393520202020302E30303030204F202020302020302020302020302020302020302020302020302020302020302020302020300A20202032342E3236353320202D31372E3134353020202020302E30303030204F202020302020302020302020302020302020302020302020302020302020302020302020300A2020312020322020312020302020202020302020300A2020312020332020322020302020202020302020300A2020312020342020312020302020202020302020300A2020322020352020322020302020202020302020300A2020332020362020312020302020202020302020300A2020352020372020312020302020202020302020300A2020352020382020312020302020202020302020300A2020362020392020312020302020202020302020300A2020362020372020322020302020202020302020300A4D2020454E44
Contributor: BSC
InstType: ESI
InstName: micrOTOF-Q
IoniMethod: ESI
IonPolarity: pos
IsolWidth: 10
TargetGas: Nitrogen
ColEnergy: 10
PeakWidth: 0.029
ChargeDecon: 2
Date: 2010-10-09 19:48:36+02:00
Column: Synergi Fusion RP 2.5 u
Mass: 44.7989-395.035
Num Peaks: 9
81.035 24 99.044 11 109.028 26 121.065 14 127.039 999 128.042 70 129.044 10 137.028 5 149.023 19 
