Name: Isohomovanillicacid
CAS: 1131-94-8
MW: 182
Formula: C9H10O4
Synonym: CID: 160562
Synonym: MassBank: BD000051
Synonym: Isohomovanillicacid
Synonym: Homoisovanillic acid,4-methoxy-3-hydroxyphenylacetic acid,3-hydroxy-4-methoxyphenylacetic acid,isohomovanillate,Homo-iso-vanillic acid,Homoisovanillate
Structure: 31332031332020302020302020302020302020302020302020302020303939392056323030300A20202031382E3535303020202D31312E3535303020202020302E303030302043202020302020302020302020302020302020302020302020302020302020302020302020300A20202031382E3535303020202D31322E3935303020202020302E303030302043202020302020302020302020302020302020302020302020302020302020302020302020300A20202031392E3736323420202D31332E3635303020202020302E303030302043202020302020302020302020302020302020302020302020302020302020302020302020300A20202032302E3937343920202D31322E3935303020202020302E303030302043202020302020302020302020302020302020302020302020302020302020302020302020300A20202032302E3937343920202D31312E3535303020202020302E303030302043202020302020302020302020302020302020302020302020302020302020302020302020300A20202031392E3736323420202D31302E3835303020202020302E303030302043202020302020302020302020302020302020302020302020302020302020302020302020300A20202032322E3230363020202D31332E3636313020202020302E303030302043202020302020302020302020302020302020302020302020302020302020302020302020300A20202032322E3230353720202D31352E3034393920202020302E303030302043202020302020302020302020302020302020302020302020302020302020302020302020300A20202032302E3938313420202D31352E3735363620202020302E30303030204F202020302020302020302020302020302020302020302020302020302020302020302020300A20202032332E3430363220202D31352E3734333420202020302E30303030204F202020302020302020302020302020302020302020302020302020302020302020302020300A20202031392E373632342020202D392E3435303220202020302E30303030204F202020302020302020302020302020302020302020302020302020302020302020302020300A20202031372E3333373620202D31302E3835303020202020302E30303030204F202020302020302020302020302020302020302020302020302020302020302020302020300A20202031362E3134323120202D31312E3534303420202020302E303030302043202020302020302020302020302020302020302020302020302020302020302020302020300A2020312020322020322020302020202020302020300A2020322020332020312020302020202020302020300A2020332020342020322020302020202020302020300A2020342020352020312020302020202020302020300A2020352020362020322020302020202020302020300A2020312020362020312020302020202020302020300A2020342020372020312020302020202020302020300A2020372020382020312020302020202020302020300A2020382020392020322020302020202020302020300A2020382031302020312020302020202020302020300A2020362031312020312020302020202020302020300A2020312031322020312020302020202020302020300A2031322031332020312020302020202020302020300A4D2020454E44
Contributor: BSC
InstType: ESI
InstName: micrOTOF-Q
IoniMethod: ESI
IonPolarity: pos
IsolWidth: 10
TargetGas: Nitrogen
ColEnergy: 10
PeakWidth: 0.026
ChargeDecon: 2
Date: 2010-10-09 19:48:36+02:00
Column: Synergi Fusion RP 2.5 u
Mass: 44.792-395.047
Num Peaks: 28
79.052 1 91.053 1 94.042 15 95.046 2 107.051 1 122.036 35 123.039 3 136.642 1 137.060 999 138.063 89 
139.066 7 144.077 1 149.024 2 165.052 1 167.064 2 179.035 2 180.102 3 182.056 10 183.066 452 184.068 40 
185.071 6 204.037 2 205.047 420 206.051 36 207.052 5 223.058 54 224.062 7 225.066 1 
