Name: 3-Hydroxydecanoic acid
MW: 216
Formula: C12H24O3
Synonym: CID: 26612
Synonym: MassBank: BD001010
Synonym: 3-Hydroxydecanoic acid
Structure: 2D495349532D20203032313430383131313132440A0A2033382033372020302020302020302020302020302020302020302020303939392056323030300A2020202D332E343034322020202D332E3737393220202020302E303030302043202020302020302020302020302020302020302020302020302020302020302020302020300A2020202D322E363931372020202D332E3336363720202020302E303030302043202020302020302020302020302020302020302020302020302020302020302020302020300A2020202D312E393739322020202D332E3737393220202020302E303030302043202020302020302020302020302020302020302020302020302020302020302020302020300A2020202D312E323636372020202D332E3336363720202020302E303030302043202020302020302020302020302020302020302020302020302020302020302020302020300A2020202D302E353534322020202D332E3737393220202020302E303030302043202020302020302020302020302020302020302020302020302020302020302020302020300A20202020302E313538332020202D332E3336363720202020302E303030302043202020302020302020302020302020302020302020302020302020302020302020302020300A20202020302E383730382020202D332E3737393220202020302E303030302043202020302020302020302020302020302020302020302020302020302020302020302020300A20202020312E353833332020202D332E3336363720202020302E303030302043202020302020302020302020302020302020302020302020302020302020302020302020300A20202020322E323935382020202D332E3737393220202020302E303030302043202020302020302020302020302020302020302020302020302020302020302020302020300A20202020332E303038332020202D332E3336363720202020302E303030302043202020302020302020332020302020302020302020302020302020302020302020302020300A20202020332E373230382020202D332E3737393220202020302E303030302043202020302020302020302020302020302020302020302020302020302020302020302020300A20202020342E343333332020202D332E3336363720202020302E303030302043202020302020302020302020302020302020302020302020302020302020302020302020300A20202020342E343239322020202D322E3534313720202020302E30303030204F202020302020302020302020302020302020302020302020302020302020302020302020300A20202020352E303136372020202D332E3935303020202020302E30303030204F202020302020302020302020302020302020302020302020302020302020302020302020300A20202020332E303034322020202D322E3534313720202020302E30303030204F202020302020302020302020302020302020302020302020302020302020302020302020300A2020202D342E313230382020202D332E3336363720202020302E303030302048202020302020302020302020302020302020302020302020302020302020302020302020300A2020202D332E343038332020202D342E3630343220202020302E303030302048202020302020302020302020302020302020302020302020302020302020302020302020300A2020202D332E363230382020202D322E3937393220202020302E303030302048202020302020302020302020302020302020302020302020302020302020302020302020300A2020202D322E393038332020202D322E3536363720202020302E303030302048202020302020302020302020302020302020302020302020302020302020302020302020300A2020202D322E313038332020202D322E3737393220202020302E303030302048202020302020302020302020302020302020302020302020302020302020302020302020300A2020202D322E333935382020202D342E3439313720202020302E303030302048202020302020302020302020302020302020302020302020302020302020302020302020300A2020202D312E353730382020202D342E3439313720202020302E303030302048202020302020302020302020302020302020302020302020302020302020302020302020300A2020202D312E363833332020202D322E3635303020202020302E303030302048202020302020302020302020302020302020302020302020302020302020302020302020300A2020202D302E383538332020202D322E3635303020202020302E303030302048202020302020302020302020302020302020302020302020302020302020302020302020300A2020202D302E393730382020202D342E3439313720202020302E303030302048202020302020302020302020302020302020302020302020302020302020302020302020300A2020202D302E313435382020202D342E3439313720202020302E303030302048202020302020302020302020302020302020302020302020302020302020302020302020300A2020202D302E323538332020202D322E3635303020202020302E303030302048202020302020302020302020302020302020302020302020302020302020302020302020300A20202020302E353636372020202D322E3635303020202020302E303030302048202020302020302020302020302020302020302020302020302020302020302020302020300A20202020302E343534322020202D342E3439313720202020302E303030302048202020302020302020302020302020302020302020302020302020302020302020302020300A20202020312E323739322020202D342E3439313720202020302E303030302048202020302020302020302020302020302020302020302020302020302020302020302020300A20202020312E313636372020202D322E3635303020202020302E303030302048202020302020302020302020302020302020302020302020302020302020302020302020300A20202020312E373935382020202D322E3536363720202020302E303030302048202020302020302020302020302020302020302020302020302020302020302020302020300A20202020312E383739322020202D342E3439313720202020302E303030302048202020302020302020302020302020302020302020302020302020302020302020302020300A20202020322E373034322020202D342E3439313720202020302E303030302048202020302020302020302020302020302020302020302020302020302020302020302020300A20202020352E323534322020202D322E3534313720202020302E303030302048202020302020302020302020302020302020302020302020302020302020302020302020300A20202020332E333034322020202D342E3439313720202020302E303030302048202020302020302020302020302020302020302020302020302020302020302020302020300A20202020342E333034322020202D342E3336323520202020302E303030302048202020302020302020302020302020302020302020302020302020302020302020302020300A20202020332E353837352020202D312E3935343220202020302E303030302048202020302020302020302020302020302020302020302020302020302020302020302020300A2020392031302020312020302020302020302020300A2020322032302020312020302020302020302020300A2020322020332020312020302020302020302020300A2020332032312020312020302020302020302020300A2031302031312020312020302020302020302020300A2020332032322020312020302020302020302020300A2020352020362020312020302020302020302020300A2020342032332020312020302020302020302020300A2031312031322020312020302020302020302020300A2020342032342020312020302020302020302020300A2020312020322020312020302020302020302020300A2020352032352020312020302020302020302020300A2031322031332020312020302020302020302020300A2020352032362020312020302020302020302020300A2020362020372020312020302020302020302020300A2020362032372020312020302020302020302020300A2031322031342020322020302020302020302020300A2020362032382020312020302020302020302020300A2020332020342020312020302020302020302020300A2020372032392020312020302020302020302020300A2031302031352020312020302020302020302020300A2020372033302020312020302020302020302020300A2020372020382020312020302020302020302020300A2020382033312020312020302020302020302020300A2020312031362020312020302020302020302020300A2020382033322020312020302020302020302020300A2020392033332020312020302020302020302020300A2020312031372020312020302020302020302020300A2020392033342020312020302020302020302020300A2020382020392020312020302020302020302020300A2031332033352020312020302020302020302020300A2020312031382020312020302020302020302020300A2031312033362020312020302020302020302020300A2020342020352020312020302020302020302020300A2031312033372020312020302020302020302020300A2020322031392020312020302020302020302020300A2031352033382020312020302020302020302020300A4D2020454E44
Contributor: GZ
InstType: ESI
InstName: micrOTOF-Q
IoniMethod: ESI
IonPolarity: pos
IsolWidth: 10
TargetGas: Nitrogen
ColEnergy: 10
PeakWidth: 0.03
ChargeDecon: 2
Date: 2010-10-09 19:48:36+02:00
Column: Synergi Fusion RP 2.5 u
Mass: 211.88-229.48
Num Peaks: 3
217.180 999 218.183 134 219.187 14 
