Name: Genistein
CAS: 446-72-0
MW: 270
Formula: C15H10O5
Synonym: CID: 5280961
Synonym: MassBank: BD000844
Synonym: Genistein
Synonym: 4',5,7-Trihydroxyisoflavone
Synonym: 5,7,4'-Trihydroxyisoflavone
Synonym: 5,7-Dihydroxy-3-(4-hydroxyphenyl)-4H-1-benzopyran-4-one
Structure: 32302032322020302020302020302020302020302020302020302020303939392056323030300A20202032302E3037323220202D31332E3332323720202020302E303030302043202020302020302020302020302020302020302020302020302020302020302020302020300A20202032302E3036363320202D31342E3732373920202020302E303030302043202020302020302020302020302020302020302020302020302020302020302020302020300A20202032312E3238343320202D31322E3633313820202020302E30303030204F202020302020302020302020302020302020302020302020302020302020302020302020300A20202031382E3836303120202D31322E3632353820202020302E303030302043202020302020302020302020302020302020302020302020302020302020302020302020300A20202032312E3237323620202D31352E3433303520202020302E303030302043202020302020302020302020302020302020302020302020302020302020302020302020300A20202031382E3836303120202D31352E3432343820202020302E303030302043202020302020302020302020302020302020302020302020302020302020302020302020300A20202032322E3439363420202D31332E3333343420202020302E303030302043202020302020302020302020302020302020302020302020302020302020302020302020300A20202031372E3634323120202D31332E3332323720202020302E303030302043202020302020302020302020302020302020302020302020302020302020302020302020300A20202032322E3439303520202D31342E3733333820202020302E303030302043202020302020302020302020302020302020302020302020302020302020302020302020300A20202032312E3236363620202D31362E3833303120202020302E30303030204F202020302020302020302020302020302020302020302020302020302020302020302020300A20202031372E3634323120202D31342E3732373920202020302E303030302043202020302020302020302020302020302020302020302020302020302020302020302020300A20202031382E3836353920202D31362E3832343220202020302E30303030204F202020302020302020302020302020302020302020302020302020302020302020302020300A20202031362E3433303220202D31322E3632353820202020302E30303030204F202020302020302020302020302020302020302020302020302020302020302020302020300A20202032332E3730323620202D31352E3434323320202020302E303030302043202020302020302020302020302020302020302020302020302020302020302020302020300A20202032332E3638353120202D31362E3834313820202020302E303030302043202020302020302020302020302020302020302020302020302020302020302020302020300A20202032342E3930383920202D31342E3734353520202020302E303030302043202020302020302020302020302020302020302020302020302020302020302020302020300A20202032342E3839373220202D31372E3534343520202020302E303030302043202020302020302020302020302020302020302020302020302020302020302020302020300A20202032362E3132303820202D31352E3434383220202020302E303030302043202020302020302020302020302020302020302020302020302020302020302020302020300A20202032362E3131353020202D31362E3835333520202020302E303030302043202020302020302020302020302020302020302020302020302020302020302020302020300A20202032372E3332313220202D31372E3535363220202020302E30303030204F202020302020302020302020302020302020302020302020302020302020302020302020300A2020312020322020322020302020202020302020300A2020312020332020312020302020202020302020300A2020312020342020312020302020202020302020300A2020322020352020312020302020202020302020300A2020322020362020312020302020202020302020300A2020332020372020312020302020202020302020300A2020342020382020322020302020202020302020300A2020352020392020312020302020202020302020300A2020352031302020322020302020202020302020300A2020362031312020322020302020202020302020300A2020362031322020312020302020202020302020300A2020382031332020312020302020202020302020300A2020392031342020312020302020202020302020300A2031342031352020322020302020202020302020300A2031342031362020312020302020202020302020300A2031352031372020312020302020202020302020300A2031362031382020322020302020202020302020300A2031372031392020322020302020202020302020300A2031392032302020312020302020202020302020300A2020372020392020322020302020202020302020300A2020382031312020312020302020202020302020300A2031382031392020312020302020202020302020300A4D2020454E44
Contributor: MGR
InstType: ESI
InstName: micrOTOF-Q
IoniMethod: ESI
IonPolarity: pos
MSMS: 2
IsolWidth: 10
TargetGas: Nitrogen
ColEnergy: 23
PeakWidth: 0.024
ChargeDecon: 2
Date: 2010-10-09 19:48:36+02:00
Column: Synergi Fusion RP 2.5 u
Mass: 44.791-395.039
Num Peaks: 33
91.055 3 111.009 2 119.050 4 121.030 1 131.052 1 133.036 1 145.030 10 146.033 1 149.024 19 150.028 2 
153.019 45 154.022 3 159.046 6 165.019 4 169.066 3 173.060 1 183.031 1 187.060 2 197.061 4 201.056 1 
215.071 58 216.074 7 225.055 3 227.069 1 243.066 45 244.070 7 253.051 14 254.055 2 270.187 2 271.064 999 
272.066 166 273.068 21 274.072 2 
