Name: p-Coumaric acid
CAS: 501-98-4
MW: 164
Formula: C9H8O3
Synonym: CID: 322
Synonym: MassBank: BD000748
Synonym: p-Coumaric acid
Synonym: Para-Coumaric acid
Synonym: Para-Coumarate
Synonym: 4-Hydroxycinnamic acid
Synonym: p-Coumarate
Synonym: Para-hydroxycinnamic acid
Synonym: 4-Coumarate
Synonym: 4-Hydroxycinnamate
Synonym: Trans-4-hydroxycinnamate
Synonym: (E)-3-(4-Hydroxyphenyl)prop-2-enoic acid
Synonym: Trans-4-hydroxycinnamic acid
Structure: 31322031322020302020302020302020302020302020302020302020303939392056323030300A20202032322E3435363820202D31352E3033383720202020302E303030302043202020302020302020302020302020302020302020302020302020302020302020302020300A20202032322E3435363820202D31362E3434323620202020302E303030302043202020302020302020302020302020302020302020302020302020302020302020302020300A20202032332E3637323620202D31372E3134343620202020302E303030302043202020302020302020302020302020302020302020302020302020302020302020302020300A20202032342E3838383420202D31362E3434323620202020302E303030302043202020302020302020302020302020302020302020302020302020302020302020302020300A20202032342E3838383420202D31352E3033383720202020302E303030302043202020302020302020302020302020302020302020302020302020302020302020302020300A20202032332E3637323620202D31342E3333363820202020302E303030302043202020302020302020302020302020302020302020302020302020302020302020302020300A20202032362E3132323920202D31372E3135353620202020302E30303030204F202020302020302020302020302020302020302020302020302020302020302020302020300A20202032312E3234313120202D31342E3333363820202020302E303030302043202020302020302020302020302020302020302020302020302020302020302020302020300A20202032302E3034323220202D31352E3032393120202020302E303030302043202020302020302020302020302020302020302020302020302020302020302020302020300A20202031382E3835313620202D31342E3334313720202020302E303030302043202020302020302020302020302020302020302020302020302020302020302020302020300A20202031372E3635373120202D31352E3033313620202020302E30303030204F202020302020302020302020302020302020302020302020302020302020302020302020300A20202031382E3835313420202D31322E3933333120202020302E30303030204F202020302020302020302020302020302020302020302020302020302020302020302020300A2020312020322020322020302020202020302020300A2020322020332020312020302020202020302020300A2020332020342020322020302020202020302020300A2020342020352020312020302020202020302020300A2020352020362020322020302020202020302020300A2020312020362020312020302020202020302020300A2020342020372020312020302020202020302020300A2020312020382020312020302020202020302020300A2020382020392020322020302020202020302020300A2020392031302020312020302020202020302020300A2031302031312020312020302020202020302020300A2031302031322020322020302020202020302020300A4D2020454E44
Contributor: MGR
InstType: ESI
InstName: micrOTOF-Q
IoniMethod: ESI
IonPolarity: pos
MSMS: 2
IsolWidth: 10
TargetGas: Nitrogen
ColEnergy: 19
PeakWidth: 0.029
ChargeDecon: 2
Date: 2010-10-09 19:48:36+02:00
Column: Synergi Fusion RP 2.5 u
Mass: 44.7902-395.035
Num Peaks: 11
91.054 352 92.057 26 95.049 25 103.054 4 119.050 999 120.052 89 121.058 5 123.044 32 147.044 975 148.047 104 
149.049 9 
