Name: Isohomovanillicacid
CAS: 1131-94-8
MW: 182
Formula: C9H10O4
Synonym: CID: 160562
Synonym: MassBank: BD000050
Synonym: Isohomovanillicacid
Synonym: Homoisovanillic acid,4-methoxy-3-hydroxyphenylacetic acid,3-hydroxy-4-methoxyphenylacetic acid,isohomovanillate,Homo-iso-vanillic acid,Homoisovanillate
Structure: 31332031332020302020302020302020302020302020302020302020303939392056323030300A20202031382E3535303020202D31312E3535303020202020302E303030302043202020302020302020302020302020302020302020302020302020302020302020302020300A20202031382E3535303020202D31322E3935303020202020302E303030302043202020302020302020302020302020302020302020302020302020302020302020302020300A20202031392E3736323420202D31332E3635303020202020302E303030302043202020302020302020302020302020302020302020302020302020302020302020302020300A20202032302E3937343920202D31322E3935303020202020302E303030302043202020302020302020302020302020302020302020302020302020302020302020302020300A20202032302E3937343920202D31312E3535303020202020302E303030302043202020302020302020302020302020302020302020302020302020302020302020302020300A20202031392E3736323420202D31302E3835303020202020302E303030302043202020302020302020302020302020302020302020302020302020302020302020302020300A20202032322E3230363020202D31332E3636313020202020302E303030302043202020302020302020302020302020302020302020302020302020302020302020302020300A20202032322E3230353720202D31352E3034393920202020302E303030302043202020302020302020302020302020302020302020302020302020302020302020302020300A20202032302E3938313420202D31352E3735363620202020302E30303030204F202020302020302020302020302020302020302020302020302020302020302020302020300A20202032332E3430363220202D31352E3734333420202020302E30303030204F202020302020302020302020302020302020302020302020302020302020302020302020300A20202031392E373632342020202D392E3435303220202020302E30303030204F202020302020302020302020302020302020302020302020302020302020302020302020300A20202031372E3333373620202D31302E3835303020202020302E30303030204F202020302020302020302020302020302020302020302020302020302020302020302020300A20202031362E3134323120202D31312E3534303420202020302E303030302043202020302020302020302020302020302020302020302020302020302020302020302020300A2020312020322020322020302020202020302020300A2020322020332020312020302020202020302020300A2020332020342020322020302020202020302020300A2020342020352020312020302020202020302020300A2020352020362020322020302020202020302020300A2020312020362020312020302020202020302020300A2020342020372020312020302020202020302020300A2020372020382020312020302020202020302020300A2020382020392020322020302020202020302020300A2020382031302020312020302020202020302020300A2020362031312020312020302020202020302020300A2020312031322020312020302020202020302020300A2031322031332020312020302020202020302020300A4D2020454E44
Contributor: BSC
InstType: ESI
InstName: micrOTOF-Q
IoniMethod: ESI
IonPolarity: pos
IsolWidth: 10
TargetGas: Nitrogen
ColEnergy: 10
PeakWidth: 0.03
ChargeDecon: 2
Date: 2010-10-09 19:48:36+02:00
Column: Synergi Fusion RP 2.5 u
Mass: 178.023-195.111
Num Peaks: 3
183.065 999 184.069 100 185.069 13 
