Name: N-Acetylcarnosine
MW: 268
Formula: C11H16N4O4
Synonym: CID: 91814
Synonym: MassBank: BD001036
Synonym: N-Acetylcarnosine
Contributor: GZ
InstType: ESI
InstName: micrOTOF-Q
IoniMethod: ESI
IonPolarity: pos
IsolWidth: 10
TargetGas: Nitrogen
ColEnergy: 10
PeakWidth: 0.024
ChargeDecon: 2
Date: 2010-10-09 19:48:36+02:00
Column: Synergi Fusion RP 2.5 u
Mass: 44.9437-395.145
Num Peaks: 36
97.967 11 106.990 10 110.072 16 113.963 12 118.087 7 119.049 8 125.001 11 128.949 20 131.973 16 136.953 9 
137.025 13 141.959 19 145.931 12 146.960 17 149.023 48 150.018 9 156.076 62 159.968 37 161.064 8 161.967 8 
163.941 32 176.010 8 177.975 8 181.074 17 181.951 68 186.957 14 201.054 13 204.968 11 210.084 8 223.117 10 
224.127 19 227.113 42 251.113 16 269.124 999 270.127 129 271.130 17 
