Name: 3-Hydroxysebacic acid
MW: 218
Formula: C10H18O5
Synonym: CID: 128458
Synonym: MassBank: BD000488
Synonym: 3-Hydroxysebacic acid
Synonym: Hydroxy-decanedioic acid
Structure: 31352031342020302020302020302020302020302020302020302020303939392056323030300A20202031312E3636303120202D31332E3036363620202020302E303030302043202020302020302020302020302020302020302020302020302020302020302020302020300A20202031322E3838353220202D31332E3734333420202020302E303030302043202020302020302020302020302020302020302020302020302020302020302020302020300A20202031302E3435383220202D31332E3736303820202020302E30303030204F202020302020302020302020302020302020302020302020302020302020302020302020300A20202031312E3636303120202D31312E3634393020202020302E30303030204F202020302020302020302020302020302020302020302020302020302020302020302020300A20202031342E3039383620202D31332E3033373420202020302E303030302043202020302020302020302020302020302020302020302020302020302020302020302020300A20202031352E3333353620202D31332E3731343120202020302E303030302043202020302020302020302020302020302020302020302020302020302020302020302020300A20202031362E3534393020202D31332E3033313620202020302E303030302043202020302020302020302020302020302020302020302020302020302020302020302020300A20202031372E3736323620202D31332E3730323620202020302E303030302043202020302020302020302020302020302020302020302020302020302020302020302020300A20202031382E3935383720202D31332E3031343220202020302E303030302043202020302020302020302020302020302020302020302020302020302020302020302020300A20202032302E3230373120202D31332E3730323620202020302E303030302043202020302020302020302020302020302020302020302020302020302020302020302020300A20202032312E3430333120202D31322E3938343920202020302E303030302043202020302020302020302020302020302020302020302020302020302020302020302020300A20202032322E3633343220202D31332E3639313020202020302E303030302043202020302020302020302020302020302020302020302020302020302020302020302020300A20202032332E3833353920202D31322E3938343920202020302E30303030204F202020302020302020302020302020302020302020302020302020302020302020302020300A20202032322E3634353820202D31352E3037393320202020302E30303030204F202020302020302020302020302020302020302020302020302020302020302020302020300A20202031342E3038303320202D31312E3632303020202020302E30303030204F202020302020302020302020302020302020302020302020302020302020302020302020300A2020312020322020312020302020202020302020300A2020312020332020312020302020202020302020300A2020312020342020322020302020202020302020300A2020322020352020312020302020202020302020300A2020352020362020312020302020202020302020300A2020362020372020312020302020202020302020300A2020372020382020312020302020202020302020300A2020382020392020312020302020202020302020300A2020392031302020312020302020202020302020300A2031302031312020312020302020202020302020300A2031312031322020312020302020202020302020300A2031322031332020312020302020202020302020300A2031322031342020322020302020202020302020300A2020352031352020312020302020202020302020300A4D2020454E44
Contributor: MGR
InstType: ESI
InstName: micrOTOF-Q
IoniMethod: ESI
IonPolarity: pos
IsolWidth: 10
TargetGas: Nitrogen
ColEnergy: 10
PeakWidth: 0.023
ChargeDecon: 2
Date: 2010-10-09 19:48:36+02:00
Column: Synergi Fusion RP 2.5 u
Mass: 44.7883-395.023
Num Peaks: 30
91.0545 21 93.0695 11 95.0839 26 101.0233 12 109.1006 21 119.0856 105 120.0883 12 137.0956 252 138.0982 30 147.0800 39 
149.0236 20 155.1056 83 156.1082 10 165.0907 206 166.0945 24 181.9509 19 183.1015 333 184.1049 36 185.1135 10 191.1068 17 
201.1124 676 202.1165 73 203.1179 9 209.1187 9 219.1231 358 220.1268 42 241.1056 999 242.1093 102 243.1102 16 285.1338 53 
