Name: L-Allo-threonine
CAS: 28954-12-3
MW: 119
Formula: C4H9NO3
Synonym: CID: 99289
Synonym: MassBank: BD000097
Synonym: L-Allo-threonine
Synonym: L-Allothreonine,(2S,3S)-2-amino-3-hydroxybutanoate ,(2S,3S)-2-amino-3-hydroxybutanoic acid,Allo-L-threonine
Structure: 382020372020302020302020312020302020302020302020302020303939392056323030300A20202031392E3435393920202D31352E3339393820202020302E30303030204F202020302020302020302020302020302020302020302020302020302020302020302020300A20202032302E3637323320202D31342E3639393820202020302E303030302043202020302020302020302020302020302020302020302020302020302020302020302020300A20202032312E3838343820202D31352E3339393820202020302E303030302043202020302020302020302020302020302020302020302020302020302020302020302020300A20202032332E3039373220202D31342E3639393820202020302E303030302043202020302020302020302020302020302020302020302020302020302020302020302020300A20202032342E3330393720202D31352E3339393820202020302E303030302043202020302020302020302020302020302020302020302020302020302020302020302020300A20202032302E3637323320202D31332E3239393920202020302E30303030204F202020302020302020302020302020302020302020302020302020302020302020302020300A20202032312E3838343820202D31362E3739393620202020302E30303030204E202020302020302020302020302020302020302020302020302020302020302020302020300A20202032332E3039373220202D31332E3239393420202020302E30303030204F202020302020302020302020302020302020302020302020302020302020302020302020300A2020312020322020312020302020202020302020300A2020322020332020312020302020202020302020300A2020332020342020312020302020202020302020300A2020342020352020312020302020202020302020300A2020322020362020322020302020202020302020300A2020332020372020312020362020202020302020300A2020342020382020312020312020202020302020300A4D2020454E44
Contributor: BSC
InstType: ESI
InstName: micrOTOF-Q
IoniMethod: ESI
IonPolarity: neg
MSMS: 2
IsolWidth: 10
TargetGas: Nitrogen
ColEnergy: 10
PeakWidth: 0.036
ChargeDecon: 2
Date: 2010-10-09 19:48:36+02:00
Column: Synergi Fusion RP 2.5 u
Mass: 44.9917-394.874
Num Peaks: 2
74.024 999 118.051 149 
