Name: 4-Hydroxyhippuric acid
CAS: 2482-25-9
MW: 195
Formula: C9H9NO4
Synonym: CID: 151012
Synonym: MassBank: BD000603
Synonym: 4-Hydroxyhippuric acid
Synonym: 4-Hydroxybenzoylglycine
Synonym: N-(4-Hydroxybenzoyl)glycine
Synonym: p-Hydroxyhippuric acid
Structure: 31342031342020302020302020302020302020302020302020302020303939392056323030300A20202031332E3739303020202D31372E3738303020202020302E303030302043202020302020302020302020302020302020302020302020302020302020302020302020300A20202031332E3739303020202D31392E3138303020202020302E303030302043202020302020302020302020302020302020302020302020302020302020302020302020300A20202031352E3030323420202D31392E3838303020202020302E303030302043202020302020302020302020302020302020302020302020302020302020302020302020300A20202031362E3231343920202D31392E3138303020202020302E303030302043202020302020302020302020302020302020302020302020302020302020302020302020300A20202031362E3231343920202D31372E3738303020202020302E303030302043202020302020302020302020302020302020302020302020302020302020302020302020300A20202031352E3030323420202D31372E3038303020202020302E303030302043202020302020302020302020302020302020302020302020302020302020302020302020300A20202031352E3030323420202D32312E3237393820202020302E30303030204F202020302020302020302020302020302020302020302020302020302020302020302020300A20202031352E3030323420202D31352E3638303220202020302E303030302043202020302020302020302020302020302020302020302020302020302020302020302020300A20202031332E3737333220202D31342E3937303320202020302E30303030204F202020302020302020302020302020302020302020302020302020302020302020302020300A20202031362E3139383020202D31342E3938393820202020302E30303030204E202020302020302020302020302020302020302020302020302020302020302020302020300A20202031362E3139383020202D31332E3538393820202020302E303030302043202020302020302020302020302020302020302020302020302020302020302020302020300A20202031372E3339333420202D31322E3839393320202020302E303030302043202020302020302020302020302020302020302020302020302020302020302020302020300A20202031382E3537323620202D31332E3537393820202020302E30303030204F202020302020302020302020302020302020302020302020302020302020302020302020300A20202031372E3339333520202D31312E3438303420202020302E30303030204F202020302020302020302020302020302020302020302020302020302020302020302020300A2020312020322020322020302020202020302020300A2020322020332020312020302020202020302020300A2020332020342020322020302020202020302020300A2020342020352020312020302020202020302020300A2020352020362020322020302020202020302020300A2020312020362020312020302020202020302020300A2020332020372020312020302020202020302020300A2020362020382020312020302020202020302020300A2020382020392020322020302020202020302020300A2020382031302020312020302020202020302020300A2031302031312020312020302020202020302020300A2031312031322020312020302020202020302020300A2031322031332020322020302020202020302020300A2031322031342020312020302020202020302020300A4D2020454E44
Contributor: MGR
InstType: ESI
InstName: micrOTOF-Q
IoniMethod: ESI
IonPolarity: neg
IsolWidth: 10
TargetGas: Nitrogen
ColEnergy: 10
PeakWidth: 0.03
ChargeDecon: 2
Date: 2010-10-09 19:48:36+02:00
Column: Synergi Fusion RP 2.5 u
Mass: 188.998-206.101
Num Peaks: 3
194.046 999 195.049 103 196.051 13 
