Name: Lipoamide
CAS: 940-69-2
MW: 205
Formula: C8H15NOS2
Synonym: CID: 863
Synonym: MassBank: BD000099
Synonym: Lipoamide
Synonym: 5-(Dithiolan-3-yl)pentanamide
Synonym: Thioctic acid amide,Thioctamide,Vitamin N,alpha-lipoic acid amide,a-Lipoic amide,DL-a-Lipoamide,DL-6,8-Thioctic acid amide,a-Lipoamide
Structure: 31322031322020302020302020302020302020302020302020302020303939392056323030300A20202031382E3930393020202D31332E3337353020202020302E303030302053202020302020302020302020302020302020302020302020302020302020302020302020300A20202031372E3530383620202D31332E3337353020202020302E303030302053202020302020302020302020302020302020302020302020302020302020302020302020300A20202031372E3038383520202D31342E3730353420202020302E303030302043202020302020302020302020302020302020302020302020302020302020302020302020300A20202031382E3230383820202D31352E3534353620202020302E303030302043202020302020302020302020302020302020302020302020302020302020302020302020300A20202031392E3332393220202D31342E3730353420202020302E303030302043202020302020302020302020302020302020302020302020302020302020302020302020300A20202032302E3531393520202D31352E3430353620202020302E303030302043202020302020302020302020302020302020302020302020302020302020302020302020300A20202032312E3737393920202D31342E3730353420202020302E303030302043202020302020302020302020302020302020302020302020302020302020302020302020300A20202032322E3937303320202D31352E3430353620202020302E303030302043202020302020302020302020302020302020302020302020302020302020302020302020300A20202032342E3136303720202D31342E3730353420202020302E303030302043202020302020302020302020302020302020302020302020302020302020302020302020300A20202032352E3432313120202D31352E3430353620202020302E303030302043202020302020302020302020302020302020302020302020302020302020302020302020300A20202032362E3631313420202D31342E3730353420202020302E30303030204E202020302020302020302020302020302020302020302020302020302020302020302020300A20202032352E3432313120202D31362E3830363020202020302E30303030204F202020302020302020302020302020302020302020302020302020302020302020302020300A2020312020322020312020302020202020302020300A2020322020332020312020302020202020302020300A2020332020342020312020302020202020302020300A2020342020352020312020302020202020302020300A2020312020352020312020302020202020302020300A2020352020362020312020302020202020302020300A2020362020372020312020302020202020302020300A2020372020382020312020302020202020302020300A2020382020392020312020302020202020302020300A2020392031302020312020302020202020302020300A2031302031312020312020302020202020302020300A2031302031322020322020302020202020302020300A4D2020454E44
Contributor: BSC
InstType: ESI
InstName: micrOTOF-Q
IoniMethod: ESI
IonPolarity: pos
IsolWidth: 10
TargetGas: Nitrogen
ColEnergy: 10
PeakWidth: 0.03
ChargeDecon: 2
Date: 2010-10-09 19:48:36+02:00
Column: Synergi Fusion RP 2.5 u
Mass: 201.019-218.107
Num Peaks: 5
206.067 999 207.070 108 208.063 98 209.066 9 210.058 3 
