Name: 6-Dimethylaminopurine
CAS: 938-55-6
MW: 163
Formula: C7H9N5
Synonym: CID: 3134
Synonym: MassBank: BD000657
Synonym: 6-Dimethylaminopurine
Synonym: 6,6-Dimethyladenine
Synonym: Dimethyladenine
Synonym: DMP
Synonym: N(6),N(6)-Dimethyladenine
Synonym: N,N-Dimethyl-6-aminopurine
Synonym: N,N-Dimethyladenine
Synonym: N,N-Dimethyl-Adenine
Synonym: N6,N6-Dimethyladenine
Synonym: N6,N6-Dimethyl-Adenine
Structure: 31322031332020302020302020302020302020302020302020302020303939392056323030300A20202032312E3936393120202D31352E3334313320202020302E303030302043202020302020302020302020302020302020302020302020302020302020302020302020300A20202032312E3935373420202D31362E3733383820202020302E303030302043202020302020302020302020302020302020302020302020302020302020302020302020300A20202032302E3735383820202D31342E3633333920202020302E303030302043202020302020302020302020302020302020302020302020302020302020302020302020300A20202032332E3330323220202D31342E3932363220202020302E30303030204E202020302020302020302020302020302020302020302020302020302020302020302020300A20202032332E3237383820202D31372E3138393020202020302E30303030204E202020302020302020302020302020302020302020302020302020302020302020302020300A20202032302E3734313420202D31372E3434303420202020302E30303030204E202020302020302020302020302020302020302020302020302020302020302020302020300A20202031392E3534323820202D31352E3332333820202020302E30303030204E202020302020302020302020302020302020302020302020302020302020302020302020300A20202032302E3735383820202D31332E3233363620202020302E30303030204E202020302020302020302020302020302020302020302020302020302020302020302020300A20202032342E3131343820202D31362E3036363320202020302E303030302043202020302020302020302020302020302020302020302020302020302020302020302020300A20202031392E3533313120202D31362E3732373120202020302E303030302043202020302020302020302020302020302020302020302020302020302020302020302020300A20202032312E3937343920202D31322E3534303720202020302E303030302043202020302020302020302020302020302020302020302020302020302020302020302020300A20202031392E3536383520202D31322E3534353920202020302E303030302043202020302020302020302020302020302020302020302020302020302020302020302020300A2020312020322020322020302020202020302020300A2020312020332020312020302020202020302020300A2020312020342020312020302020202020302020300A2020322020352020312020302020202020302020300A2020322020362020312020302020202020302020300A2020332020372020322020302020202020302020300A2020332020382020312020302020202020302020300A2020342020392020322020302020202020302020300A2020362031302020322020302020202020302020300A2020382031312020312020302020202020302020300A2020352020392020312020302020202020302020300A2020372031302020312020302020202020302020300A2020382031322020312020302020202020302020300A4D2020454E44
Contributor: MGR
InstType: ESI
InstName: micrOTOF-Q
IoniMethod: ESI
IonPolarity: pos
IsolWidth: 10
TargetGas: Nitrogen
ColEnergy: 10
PeakWidth: 0.03
ChargeDecon: 2
Date: 2010-10-09 19:48:36+02:00
Column: Synergi Fusion RP 2.5 u
Mass: 159.054-175.134
Num Peaks: 3
164.093 999 165.095 95 166.097 4 
