Name: MassBank: BD000676
CAS: 6779-87-9
MW: 239
Formula: C9H13N5O3
Synonym: CID: 252
Synonym: MassBank: BD000676
Synonym: 7,8-Dihydrobiopterin
Synonym: 7,8-Dihydrobiopterin
Structure: 31372031382020302020302020302020302020302020302020302020303939392056323030300A20202031332E3136303020202D31332E3330303020202020302E30303030204E202020302020302020302020302020302020302020302020302020302020302020302020300A20202031332E3136303020202D31342E3730303020202020302E303030302043202020302020302020302020302020302020302020302020302020302020302020302020300A20202031342E3337323420202D31352E3430303020202020302E30303030204E202020302020302020302020302020302020302020302020302020302020302020302020300A20202031352E3538343920202D31342E3730303020202020302E303030302043202020302020302020302020302020302020302020302020302020302020302020302020300A20202031352E3538343920202D31332E3330303020202020302E303030302043202020302020302020302020302020302020302020302020302020302020302020302020300A20202031342E3337323420202D31322E3630303020202020302E303030302043202020302020302020302020302020302020302020302020302020302020302020302020300A20202031362E3739373320202D31352E3430303020202020302E30303030204E202020302020302020302020302020302020302020302020302020302020302020302020300A20202031382E3030393720202D31342E3730303020202020302E303030302043202020302020302020302020302020302020302020302020302020302020302020302020300A20202031382E3030393720202D31332E3330303020202020302E303030302043202020302020302020302020302020302020302020302020302020302020302020302020300A20202031362E3739373320202D31322E3630303020202020302E30303030204E202020302020302020302020302020302020302020302020302020302020302020302020300A20202031392E3230373320202D31322E3630383520202020302E303030302043202020302020302020302020302020302020302020302020302020302020302020302020300A20202032302E3339353620202D31332E3239343520202020302E303030302043202020302020302020302020302020302020302020302020302020302020302020302020300A20202032312E3538363420202D31322E3630363920202020302E30303030204F202020302020302020302020302020302020302020302020302020302020302020302020300A20202032302E3339353720202D31342E3639393820202020302E303030302043202020302020302020302020302020302020302020302020302020302020302020302020300A20202031392E3230373420202D31312E3230303320202020302E30303030204F202020302020302020302020302020302020302020302020302020302020302020302020300A20202031312E3934373620202D31352E3430303020202020302E30303030204E202020302020302020302020302020302020302020302020302020302020302020302020300A20202031342E3337323420202D31312E3230303220202020302E30303030204F202020302020302020302020302020302020302020302020302020302020302020302020300A2020312020322020322020302020202020302020300A2020322020332020312020302020202020302020300A2020332020342020312020302020202020302020300A2020342020352020322020302020202020302020300A2020352020362020312020302020202020302020300A2020312020362020312020302020202020302020300A2020342020372020312020302020202020302020300A2020372020382020312020302020202020302020300A2020382020392020312020302020202020302020300A2020392031302020322020302020202020302020300A2020352031302020312020302020202020302020300A2020392031312020312020302020202020302020300A2031312031322020312020302020202020302020300A2031322031332020312020302020202020302020300A2031322031342020312020302020202020302020300A2031312031352020312020302020202020302020300A2020322031362020312020302020202020302020300A2020362031372020322020302020202020302020300A4D2020454E44
Contributor: MGR
InstType: ESI
InstName: micrOTOF-Q
IoniMethod: ESI
IonPolarity: neg
IsolWidth: 10
TargetGas: Nitrogen
ColEnergy: 10
PeakWidth: 0.024
ChargeDecon: 2
Date: 2010-10-09 19:48:36+02:00
Column: Synergi Fusion RP 2.5 u
Mass: 44.994-394.898
Num Peaks: 34
83.036 5 88.988 6 96.958 6 115.004 7 124.051 4 130.993 3 133.051 6 138.041 10 149.046 4 150.042 6 
151.061 14 152.048 8 164.057 6 166.073 65 167.073 5 176.058 105 177.052 13 178.038 23 179.042 7 180.052 13 
192.051 8 194.068 999 195.069 87 196.060 8 202.072 5 206.070 4 208.048 7 210.064 5 221.090 29 222.092 4 
236.078 14 238.094 784 239.096 88 240.099 10 
