Name: Propionylcarnitine
CAS: 17298-37-2
MW: 217
Formula: C10H19NO4
Synonym: CID: 107738
Synonym: MassBank: BD000296
Synonym: Propionylcarnitine
Synonym: Propionyl carnitine  ,L-propionylcarnitine  ,1-propanaminium, 3-carboxy-N,N,N-trimethyl-2-(1-oxopropoxy)-, inner salt,3-carboxy-N,N,N-trimethyl-2-(1-oxopropoxy)-1-propanaminium inner salt,O-propionylcarnitine,propionyl-L-carnitine,,
Structure: 31352031342020302020302020302020302020302020302020302020303939392056323030300A20202032332E3038333620202D31352E3432323920202020302E303030302043202020302020302020332020302020302020302020302020302020302020302020302020300A20202032312E3837323320202D31362E3132353120202020302E30303030204F202020302020302020302020302020302020302020302020302020302020302020302020300A20202032342E3239343820202D31362E3132353120202020302E303030302043202020302020302020302020302020302020302020302020302020302020302020302020300A20202032332E3038333620202D31342E3032343420202020302E303030302043202020302020302020302020302020302020302020302020302020302020302020302020300A20202032302E3635353020202D31352E3432323920202020302E303030302043202020302020302020302020302020302020302020302020302020302020302020302020300A20202032342E3239343820202D31372E3532333820202020302E30303030204E202020302020332020332020302020302020302020302020302020302020302020302020300A20202032342E3239343820202D31332E3332323220202020302E303030302043202020302020302020302020302020302020302020302020302020302020302020302020300A20202031392E3434333720202D31362E3132353120202020302E303030302043202020302020302020302020302020302020302020302020302020302020302020302020300A20202032302E3635353020202D31342E3032343420202020302E30303030204F202020302020302020302020302020302020302020302020302020302020302020302020300A20202032332E3038333620202D31382E3232363120202020302E303030302043202020302020302020302020302020302020302020302020302020302020302020302020300A20202032352E3530363120202D31382E3232363120202020302E303030302043202020302020302020302020302020302020302020302020302020302020302020302020300A20202032322E3934333120202D31372E3136313020202020302E303030302043202020302020302020302020302020302020302020302020302020302020302020302020300A20202032342E3239343820202D31312E3932333620202020302E30303030204F202020302020302020302020302020302020302020302020302020302020302020302020300A20202032352E3530363120202D31342E3032343420202020302E30303030204F202020302020352020302020302020302020302020302020302020302020302020302020300A20202031382E3233323320202D31352E3432323920202020302E303030302043202020302020302020302020302020302020302020302020302020302020302020302020300A2020312020322020312020302020202020302020300A2020312020332020312020302020202020302020300A2020312020342020312020302020202020302020300A2020322020352020312020302020202020302020300A2020332020362020312020302020202020302020300A2020342020372020312020302020202020302020300A2020352020382020312020302020202020302020300A2020352020392020322020302020202020302020300A2020362031302020312020302020202020302020300A2020362031312020312020302020202020302020300A2020362031322020312020302020202020302020300A2020372031332020322020302020202020302020300A2020372031342020312020302020202020302020300A2020382031352020312020302020202020302020300A4D202043484720203220202036202020312020313420202D310A4D2020454E44
Contributor: BSC
InstType: ESI
InstName: micrOTOF-Q
IoniMethod: ESI
IonPolarity: pos
MSMS: 2
IsolWidth: 10
TargetGas: Nitrogen
ColEnergy: 10
PeakWidth: 0.032
ChargeDecon: 2
Date: 2010-10-09 19:48:36+02:00
Column: Synergi Fusion RP 2.5 u
Mass: 44.7977-395.031
Num Peaks: 6
85.029 999 86.033 45 144.101 40 159.065 77 160.067 7 218.139 59 
