Name: Salicyl amide
MW: 137
Formula: C7H7NO2
Synonym: CID: 5147
Synonym: MassBank: BD000361
Synonym: Salicyl amide
Structure: 353134370A20202D4F454368656D2D3032313530383033303132440A0A2031302031302020302020202020302020302020302020302020302020303939392056323030300A20202020322E353336392020202D302E3036303020202020302E30303030204F202020302020302020302020302020302020302020302020302020302020302020302020300A20202020332E3430333020202020312E3434303020202020302E30303030204F202020302020302020302020302020302020302020302020302020302020302020302020300A20202020352E3133353020202020312E3434303020202020302E30303030204E202020302020302020302020302020302020302020302020302020302020302020302020300A20202020342E323639302020202D302E3036303020202020302E303030302043202020302020302020302020302020302020302020302020302020302020302020302020300A20202020332E343033302020202D302E3536303020202020302E303030302043202020302020302020302020302020302020302020302020302020302020302020302020300A20202020352E313335302020202D302E3536303020202020302E303030302043202020302020302020302020302020302020302020302020302020302020302020302020300A20202020332E343033302020202D312E3536303020202020302E303030302043202020302020302020302020302020302020302020302020302020302020302020302020300A20202020352E313335302020202D312E3536303020202020302E303030302043202020302020302020302020302020302020302020302020302020302020302020302020300A20202020342E323639302020202D322E3036303020202020302E303030302043202020302020302020302020302020302020302020302020302020302020302020302020300A20202020342E3236393020202020302E3934303020202020302E303030302043202020302020302020302020302020302020302020302020302020302020302020302020300A2020312020352020312020302020302020302020300A2020322031302020322020302020302020302020300A2020332031302020312020302020302020302020300A2020342020352020312020302020302020302020300A2020342020362020322020302020302020302020300A2020342031302020312020302020302020302020300A2020352020372020322020302020302020302020300A2020362020382020312020302020302020302020300A2020372020392020312020302020302020302020300A2020382020392020322020302020302020302020300A4D2020454E44
Contributor: BSC
InstType: ESI
InstName: micrOTOF-Q
IoniMethod: ESI
IonPolarity: neg
IsolWidth: 10
TargetGas: Nitrogen
ColEnergy: 10
PeakWidth: 0.027
ChargeDecon: 2
Date: 2010-10-09 19:48:36+02:00
Column: Synergi Fusion RP 2.5 u
Mass: 44.9916-394.864
Num Peaks: 7
91.017 12 93.033 25 118.029 188 119.033 13 136.040 999 137.043 82 138.045 6 
