Name: Phytosphingosine
CAS: 554-62-1
MW: 317
Formula: C18H39NO3
Synonym: CID: 248575
Synonym: MassBank: BD000280
Synonym: Phytosphingosine
Synonym: 4-Hydroxysphinganine,4-D-hydroxysphinganine  ,1,3,4-octadecanetriol, 2-amino-, (2S-(2R*,3R*,4S*))-,Phytosphingosine hydrochloride ,D-Ribo-1,3,4-trihydroxy-2-aminooctadecane,D-Ribo-2-aminooctadecane-1,3,4-triol
Synonym: Phytosphingosine, 4-hydroxysphinganine, 4-D-hydroxysphinganine, nchembio.191-comp6, D-Ribo-phytosphingosine, Phytosphingosine hydrochloride, P2795_SIGMA, CHEbi:46961, MolPort-003-959-216, CID122121, LMSP01030001, D-Ribo-2-aminooctadecane-1,3,4-triol, SMP2_000142, NCGC00163609-01, D-Ribo-1,3,4-trihydroxy-2-aminooctadecane, P1765, (2S,3S,4R)-2-amino-1,3,4-octadecanetriol, C12144, 1,3,4-octadecanetriol, 2-amino-, (2S-(2R*,3R*,4S*))-, 554-62-1, PHS
Structure: 32322032312020302020302020312020302020302020302020302020303939392056323030300A20202031332E3336343920202D31342E3733383220202020302E303030302043202020302020302020312020302020302020302020302020302020302020302020302020300A20202031342E3539343420202D31352E3432303520202020302E303030302043202020302020302020312020302020302020302020302020302020302020302020302020300A20202031332E3335333320202D31332E3333383320202020302E30303030204E202020302020302020302020302020302020302020302020302020302020302020302020300A20202031322E3135383620202D31352E3434393720202020302E303030302043202020302020302020302020302020302020302020302020302020302020302020302020300A20202031352E3739393320202D31342E3731343920202020302E303030302043202020302020302020312020302020302020302020302020302020302020302020302020300A20202031342E3630363020202D31362E3832363320202020302E30303030204F202020302020302020302020302020302020302020302020302020302020302020302020300A20202031302E3934373820202D31342E3736313520202020302E30303030204F202020302020302020302020302020302020302020302020302020302020302020302020300A20202031372E3031373320202D31352E3339373120202020302E303030302043202020302020302020302020302020302020302020302020302020302020302020302020300A20202031382E3232393320202D31342E3639313520202020302E303030302043202020302020302020302020302020302020302020302020302020302020302020302020300A20202031392E3435333020202D31352E3337343020202020302E303030302043202020302020302020302020302020302020302020302020302020302020302020302020300A20202032302E3635383120202D31342E3636383220202020302E303030302043202020302020302020302020302020302020302020302020302020302020302020302020300A20202032312E3837363020202D31352E3335303620202020302E303030302043202020302020302020302020302020302020302020302020302020302020302020302020300A20202032332E3039333820202D31342E3634343920202020302E303030302043202020302020302020302020302020302020302020302020302020302020302020302020300A20202032342E3330343720202D31352E3332303420202020302E303030302043202020302020302020302020302020302020302020302020302020302020302020302020300A20202032352E3531363720202D31342E3630383720202020302E303030302043202020302020302020302020302020302020302020302020302020302020302020302020300A20202032362E3734303420202D31352E3239373020202020302E303030302043202020302020302020302020302020302020302020302020302020302020302020302020300A20202032372E3935323420202D31342E3538353320202020302E303030302043202020302020302020302020302020302020302020302020302020302020302020302020300A20202032392E3136393020202D31352E3237333720202020302E303030302043202020302020302020302020302020302020302020302020302020302020302020302020300A20202033302E3337353320202D31342E3536323020202020302E303030302043202020302020302020302020302020302020302020302020302020302020302020302020300A20202033312E3630343720202D31352E3235303420202020302E303030302043202020302020302020302020302020302020302020302020302020302020302020302020300A20202033322E3830343120202D31342E3533383720202020302E303030302043202020302020302020302020302020302020302020302020302020302020302020302020300A20202031352E3738353920202D31332E3331393920202020302E30303030204F202020302020302020302020302020302020302020302020302020302020302020302020300A2020312020322020312020302020202020302020300A2020312020332020312020362020202020302020300A2020312020342020312020302020202020302020300A2020322020352020312020302020202020302020300A2020322020362020312020312020202020302020300A2020342020372020312020302020202020302020300A2020352020382020312020302020202020302020300A2020382020392020312020302020202020302020300A2020392031302020312020302020202020302020300A2031302031312020312020302020202020302020300A2031312031322020312020302020202020302020300A2031322031332020312020302020202020302020300A2031332031342020312020302020202020302020300A2031342031352020312020302020202020302020300A2031352031362020312020302020202020302020300A2031362031372020312020302020202020302020300A2031372031382020312020302020202020302020300A2031382031392020312020302020202020302020300A2031392032302020312020302020202020302020300A2032302032312020312020302020202020302020300A2020352032322020312020362020202020302020300A4D2020454E44
Contributor: BSC
InstType: ESI
InstName: micrOTOF-Q
IoniMethod: ESI
IonPolarity: neg
IsolWidth: 10
TargetGas: Nitrogen
ColEnergy: 10
PeakWidth: 0.038
ChargeDecon: 2
Date: 2010-10-09 19:48:36+02:00
Column: Synergi Fusion RP 2.5 u
Mass: 21.4601-805.243
Num Peaks: 20
84.008 3 89.024 1 112.986 3 116.929 2 230.987 2 255.230 1 316.284 17 317.287 4 336.291 1 352.259 3 
354.253 1 362.291 999 363.293 208 364.296 28 365.299 3 384.267 2 416.209 2 462.215 1 633.574 8 634.575 3 
