Name: 2-Hydroxy-5-methoxybenzoic acid
CAS: 2612-02-4
MW: 168
Formula: C8H8O4
Synonym: CID: 75787
Synonym: MassBank: BD000962
Synonym: 2-Hydroxy-5-methoxybenzoic acid
Synonym: 2-Hydroxy-5-methoxybenzoate
Synonym: 5-Methoxysalicylate
Synonym: 2-Hydroxy-5-methoxybenzoic acid
Synonym: 2-Hydroxy-5-methoxy-Benzoic acid
Synonym: 5-Methoxy-2-hydroxybenzoate
Synonym: 5-Methoxy-2-hydroxybenzoic acid
Synonym: 5-Methoxysalicylic acid
Synonym: 6-Hydroxy-m-Anisate
Synonym: 6-Hydroxy-m-Anisic acid
Synonym: 6-Methoxy-m-anisate
Synonym: 6-Methoxy-m-anisic acid
Structure: 31322031322020302020302020302020302020302020302020302020303939392056323030300A20202031352E3333303020202D31352E3534303020202020302E303030302043202020302020302020302020302020302020302020302020302020302020302020302020300A20202031352E3333303020202D31362E3934303020202020302E303030302043202020302020302020302020302020302020302020302020302020302020302020302020300A20202031362E3534323420202D31372E3634303020202020302E303030302043202020302020302020302020302020302020302020302020302020302020302020302020300A20202031372E3735343920202D31362E3934303020202020302E303030302043202020302020302020302020302020302020302020302020302020302020302020302020300A20202031372E3735343920202D31352E3534303020202020302E303030302043202020302020302020302020302020302020302020302020302020302020302020302020300A20202031362E3534323420202D31342E3834303020202020302E303030302043202020302020302020302020302020302020302020302020302020302020302020302020300A20202031382E3938363020202D31342E3832393020202020302E303030302043202020302020302020302020302020302020302020302020302020302020302020302020300A20202031342E3131373620202D31342E3834303020202020302E30303030204F202020302020302020302020302020302020302020302020302020302020302020302020300A20202031382E3938363020202D31372E3635313020202020302E30303030204F202020302020302020302020302020302020302020302020302020302020302020302020300A20202031322E3932323120202D31352E3533303420202020302E303030302043202020302020302020302020302020302020302020302020302020302020302020302020300A20202032302E3139313220202D31352E3532343720202020302E30303030204F202020302020302020302020302020302020302020302020302020302020302020302020300A20202031382E3938353720202D31332E3434303120202020302E30303030204F202020302020302020302020302020302020302020302020302020302020302020302020300A2020312020322020322020302020202020302020300A2020322020332020312020302020202020302020300A2020332020342020322020302020202020302020300A2020342020352020312020302020202020302020300A2020352020362020322020302020202020302020300A2020312020362020312020302020202020302020300A2020352020372020312020302020202020302020300A2020312020382020312020302020202020302020300A2020342020392020312020302020202020302020300A2020382031302020312020302020202020302020300A2020372031312020312020302020202020302020300A2020372031322020322020302020202020302020300A4D2020454E44
Contributor: MGR
InstType: ESI
InstName: micrOTOF-Q
IoniMethod: ESI
IonPolarity: pos
MSMS: 2
IsolWidth: 10
TargetGas: Nitrogen
ColEnergy: 18
PeakWidth: 0.029
ChargeDecon: 2
Date: 2010-10-09 19:48:36+02:00
Column: Synergi Fusion RP 2.5 u
Mass: 44.7913-395.039
Num Peaks: 10
95.049 999 96.052 63 107.013 55 108.021 226 110.037 46 111.045 39 121.034 52 123.044 317 141.054 114 151.039 363 
