Name: Indolpropionic acid
MW: 189
Formula: C11H11NO2
Synonym: CID: 10313462
Synonym: MassBank: BD000350
Synonym: Indolpropionic acid
Structure: 31342031352020302020302020302020302020302020302020302020303939392056323030300A20202032312E3536303020202D31322E3838303020202020302E303030302043202020302020302020302020302020302020302020302020302020302020302020302020300A20202032322E3236303020202D31342E3039323420202020302E303030302043202020302020302020302020302020302020302020302020302020302020302020302020300A20202032332E3636303020202D31342E3039323420202020302E303030302043202020302020302020302020302020302020302020302020302020302020302020302020300A20202032342E3336303020202D31322E3838303020202020302E303030302043202020302020302020302020302020302020302020302020302020302020302020302020300A20202032332E3636303020202D31312E3636373620202020302E303030302043202020302020302020302020302020302020302020302020302020302020302020302020300A20202032322E3236303020202D31312E3636373620202020302E303030302043202020302020302020302020302020302020302020302020302020302020302020302020300A20202032302E3139303620202D31332E3137313120202020302E303030302043202020302020302020302020302020302020302020302020302020302020302020302020300A20202032302E3034343220202D31342E3536333420202020302E303030302043202020302020302020302020302020302020302020302020302020302020302020302020300A20202032312E3332333220202D31352E3133323820202020302E30303030204E202020302020302020302020302020302020302020302020302020302020302020302020300A20202031392E3132383020202D31322E3231343020202020302E303030302043202020302020302020302020302020302020302020302020302020302020302020302020300A20202031372E3739303720202D31322E3634383420202020302E303030302043202020302020302020302020302020302020302020302020302020302020302020302020300A20202031362E3735353320202D31312E3731363120202020302E303030302043202020302020302020302020302020302020302020302020302020302020302020302020300A20202031352E3430393120202D31322E3135333920202020302E30303030204F202020302020302020302020302020302020302020302020302020302020302020302020300A20202031372E3035303720202D31302E3332373220202020302E30303030204F202020302020302020302020302020302020302020302020302020302020302020302020300A2020312020322020322020302020202020302020300A2020322020332020312020302020202020302020300A2020332020342020322020302020202020302020300A2020342020352020312020302020202020302020300A2020352020362020322020302020202020302020300A2020312020362020312020302020202020302020300A2020312020372020312020302020202020302020300A2020372020382020322020302020202020302020300A2020382020392020312020302020202020302020300A2020322020392020312020302020202020302020300A2020372031302020312020302020202020302020300A2031302031312020312020302020202020302020300A2031312031322020312020302020202020302020300A2031322031332020322020302020202020302020300A2031322031342020312020302020202020302020300A4D2020454E44
Contributor: BSC
InstType: ESI
InstName: micrOTOF-Q
IoniMethod: ESI
IonPolarity: pos
MSMS: 2
IsolWidth: 10
TargetGas: Nitrogen
ColEnergy: 10
PeakWidth: 0.028
ChargeDecon: 2
Date: 2010-10-09 19:48:36+02:00
Column: Synergi Fusion RP 2.5 u
Mass: 44.9445-395.142
Num Peaks: 5
130.065 999 131.068 115 144.080 13 172.075 49 190.086 12 
