Name: Genistein
CAS: 446-72-0
MW: 270
Formula: C15H10O5
Synonym: CID: 5280961
Synonym: MassBank: BD000841
Synonym: Genistein
Synonym: 4',5,7-Trihydroxyisoflavone
Synonym: 5,7,4'-Trihydroxyisoflavone
Synonym: 5,7-Dihydroxy-3-(4-hydroxyphenyl)-4H-1-benzopyran-4-one
Structure: 32302032322020302020302020302020302020302020302020302020303939392056323030300A20202032302E3037323220202D31332E3332323720202020302E303030302043202020302020302020302020302020302020302020302020302020302020302020302020300A20202032302E3036363320202D31342E3732373920202020302E303030302043202020302020302020302020302020302020302020302020302020302020302020302020300A20202032312E3238343320202D31322E3633313820202020302E30303030204F202020302020302020302020302020302020302020302020302020302020302020302020300A20202031382E3836303120202D31322E3632353820202020302E303030302043202020302020302020302020302020302020302020302020302020302020302020302020300A20202032312E3237323620202D31352E3433303520202020302E303030302043202020302020302020302020302020302020302020302020302020302020302020302020300A20202031382E3836303120202D31352E3432343820202020302E303030302043202020302020302020302020302020302020302020302020302020302020302020302020300A20202032322E3439363420202D31332E3333343420202020302E303030302043202020302020302020302020302020302020302020302020302020302020302020302020300A20202031372E3634323120202D31332E3332323720202020302E303030302043202020302020302020302020302020302020302020302020302020302020302020302020300A20202032322E3439303520202D31342E3733333820202020302E303030302043202020302020302020302020302020302020302020302020302020302020302020302020300A20202032312E3236363620202D31362E3833303120202020302E30303030204F202020302020302020302020302020302020302020302020302020302020302020302020300A20202031372E3634323120202D31342E3732373920202020302E303030302043202020302020302020302020302020302020302020302020302020302020302020302020300A20202031382E3836353920202D31362E3832343220202020302E30303030204F202020302020302020302020302020302020302020302020302020302020302020302020300A20202031362E3433303220202D31322E3632353820202020302E30303030204F202020302020302020302020302020302020302020302020302020302020302020302020300A20202032332E3730323620202D31352E3434323320202020302E303030302043202020302020302020302020302020302020302020302020302020302020302020302020300A20202032332E3638353120202D31362E3834313820202020302E303030302043202020302020302020302020302020302020302020302020302020302020302020302020300A20202032342E3930383920202D31342E3734353520202020302E303030302043202020302020302020302020302020302020302020302020302020302020302020302020300A20202032342E3839373220202D31372E3534343520202020302E303030302043202020302020302020302020302020302020302020302020302020302020302020302020300A20202032362E3132303820202D31352E3434383220202020302E303030302043202020302020302020302020302020302020302020302020302020302020302020302020300A20202032362E3131353020202D31362E3835333520202020302E303030302043202020302020302020302020302020302020302020302020302020302020302020302020300A20202032372E3332313220202D31372E3535363220202020302E30303030204F202020302020302020302020302020302020302020302020302020302020302020302020300A2020312020322020322020302020202020302020300A2020312020332020312020302020202020302020300A2020312020342020312020302020202020302020300A2020322020352020312020302020202020302020300A2020322020362020312020302020202020302020300A2020332020372020312020302020202020302020300A2020342020382020322020302020202020302020300A2020352020392020312020302020202020302020300A2020352031302020322020302020202020302020300A2020362031312020322020302020202020302020300A2020362031322020312020302020202020302020300A2020382031332020312020302020202020302020300A2020392031342020312020302020202020302020300A2031342031352020322020302020202020302020300A2031342031362020312020302020202020302020300A2031352031372020312020302020202020302020300A2031362031382020322020302020202020302020300A2031372031392020322020302020202020302020300A2031392032302020312020302020202020302020300A2020372020392020322020302020202020302020300A2020382031312020312020302020202020302020300A2031382031392020312020302020202020302020300A4D2020454E44
Contributor: MGR
InstType: ESI
InstName: micrOTOF-Q
IoniMethod: ESI
IonPolarity: neg
MSMS: 2
IsolWidth: 10
TargetGas: Nitrogen
ColEnergy: -33
PeakWidth: 0.025
ChargeDecon: 2
Date: 2010-10-09 19:48:36+02:00
Column: Synergi Fusion RP 2.5 u
Mass: 44.9953-394.904
Num Peaks: 54
83.012 20 89.003 38 91.018 108 107.013 255 108.017 17 117.034 27 123.044 59 131.049 25 132.021 60 133.029 777 
134.033 76 135.041 239 136.044 19 143.050 19 151.004 65 153.021 38 155.051 66 156.056 28 157.033 104 158.036 23 
159.045 331 160.048 33 161.026 43 167.049 17 168.057 14 169.064 85 171.046 44 173.058 36 176.011 15 180.057 105 
181.065 191 182.051 28 183.044 178 184.048 25 185.059 14 195.045 23 196.052 71 197.059 86 199.040 61 201.055 151 
202.057 19 213.055 62 223.039 24 224.047 130 225.054 119 226.055 15 227.035 40 239.034 15 240.041 37 241.048 45 
268.038 14 269.044 999 270.047 148 271.050 22 
