Name: Isethionicacid
CAS: 107-36-8
MW: 125
Formula: C2H6O4S
Synonym: CID: 7866
Synonym: MassBank: BD000015
Synonym: Isethionicacid
Synonym: 2-Hydroxyethanesulfonate,2-hydroxyethanesulfonic acid,2-hydroxyethane-1-sulfonic acid,2-hydroxyethane-1-sulfonate,Isethionate
Structure: 372020362020302020302020302020302020302020302020302020303939392056323030300A20202032312E3531313820202D31352E3034303820202020302E303030302043202020302020302020302020302020302020302020302020302020302020302020302020300A20202032322E3930353620202D31352E3033343220202020302E303030302053202020302020302020332020302020302020302020302020302020302020302020302020300A20202032322E3839393220202D31332E3634303420202020302E30303030204F202020302020302020302020302020302020302020302020302020302020302020302020300A20202032342E3239393420202D31352E3033343220202020302E30303030204F202020302020302020302020302020302020302020302020302020302020302020302020300A20202032322E3839393220202D31362E3433343420202020302E30303030204F202020302020302020302020302020302020302020302020302020302020302020302020300A20202032302E3739303020202D31332E3830343320202020302E303030302043202020302020302020302020302020302020302020302020302020302020302020302020300A20202031392E3430333520202D31332E3831313020202020302E30303030204F202020302020302020302020302020302020302020302020302020302020302020302020300A2020312020322020312020302020202020302020300A2020322020332020312020302020202020302020300A2020322020342020322020302020202020302020300A2020322020352020322020302020202020302020300A2020312020362020312020302020202020302020300A2020362020372020312020302020202020302020300A4D2020454E44
Contributor: BSC
InstType: ESI
InstName: micrOTOF-Q
IoniMethod: ESI
IonPolarity: neg
MSMS: 2
IsolWidth: 10
TargetGas: Nitrogen
ColEnergy: 10
PeakWidth: 0.033
ChargeDecon: 2
Date: 2010-10-09 19:48:36+02:00
Column: Synergi Fusion RP 2.5 u
Mass: 44.9909-394.869
Num Peaks: 13
79.957 999 80.960 13 81.953 48 94.980 338 95.982 6 96.976 18 106.981 96 107.982 4 108.976 6 122.974 15 
124.991 354 125.993 12 126.988 20 
