Name: Phloridzin
CAS: 60-81-1
MW: 436
Formula: C21H24O10
Synonym: CID: 4789
Synonym: MassBank: BD000262
Synonym: Phloridzin
Synonym: Phlorizin,Phlorhizin,Phlorizoside,Phlorrhizin  ,Phlorizine,Floridzin,Phloridzosid,Phlorrhizen
Synonym: Phloretin 2'-glucoside
Structure: 33312033332020302020302020312020302020302020302020302020303939392056323030300A20202032312E3237323820202D31332E3937363320202020302E303030302043202020302020302020302020302020302020302020302020302020302020302020302020300A20202032302E3035343920202D31342E3637343820202020302E303030302043202020302020302020302020302020302020302020302020302020302020302020302020300A20202032322E3438343320202D31342E3637343820202020302E303030302043202020302020302020302020302020302020302020302020302020302020302020302020300A20202032312E3237323820202D31322E3536363020202020302E303030302043202020302020302020302020302020302020302020302020302020302020302020302020300A20202032302E3034383620202D31362E3030323320202020302E30303030204F202020302020302020302020302020302020302020302020302020302020302020302020300A20202031382E3834333420202D31332E3937363320202020302E303030302043202020302020302020302020302020302020302020302020302020302020302020302020300A20202032332E3638393320202D31332E3938323620202020302E303030302043202020302020302020302020302020302020302020302020302020302020302020302020300A20202032322E3437373920202D31362E3037323320202020302E30303030204F202020302020302020302020302020302020302020302020302020302020302020302020300A20202032302E3035343920202D31312E3835343520202020302E303030302043202020302020302020302020302020302020302020302020302020302020302020302020300A20202032322E3438343320202D31312E3837333620202020302E30303030204F202020302020302020302020302020302020302020302020302020302020302020302020300A20202031382E3834333420202D31362E3737303920202020302E303030302043202020302020302020322020302020302020302020302020302020302020302020302020300A20202031382E3834333420202D31322E3536363020202020302E303030302043202020302020302020302020302020302020302020302020302020302020302020302020300A20202032332E3639353720202D31322E3538353320202020302E303030302043202020302020302020302020302020302020302020302020302020302020302020302020300A20202031372E3631393120202D31362E3037323320202020302E30303030204F202020302020302020302020302020302020302020302020302020302020302020302020300A20202031382E3834333420202D31382E3138313020202020302E303030302043202020302020302020312020302020302020302020302020302020302020302020302020300A20202031372E3633323020202D31312E3837333620202020302E30303030204F202020302020302020302020302020302020302020302020302020302020302020302020300A20202032342E3930303820202D31312E3839393320202020302E303030302043202020302020302020302020302020302020302020302020302020302020302020302020300A20202031362E3431343020202D31362E3737303920202020302E303030302043202020302020302020312020302020302020302020302020302020302020302020302020300A20202031372E3631393120202D31382E3839323720202020302E303030302043202020302020302020322020302020302020302020302020302020302020302020302020300A20202032302E3035343920202D31382E3837333520202020302E30303030204F202020302020302020302020302020302020302020302020302020302020302020302020300A20202032342E3930303820202D31302E3438393120202020302E303030302043202020302020302020302020302020302020302020302020302020302020302020302020300A20202032362E3131323320202D31322E3539383120202020302E303030302043202020302020302020302020302020302020302020302020302020302020302020302020300A20202031362E3431343020202D31382E3138313020202020302E303030302043202020302020302020322020302020302020302020302020302020302020302020302020300A20202031352E3230383920202D31362E3037323320202020302E303030302043202020302020302020302020302020302020302020302020302020302020302020302020300A20202031372E3631393120202D32302E3239303020202020302E30303030204F202020302020302020302020302020302020302020302020302020302020302020302020300A20202032362E313132332020202D392E3737373520202020302E303030302043202020302020302020302020302020302020302020302020302020302020302020302020300A20202032372E3333303220202D31312E3839393320202020302E303030302043202020302020302020302020302020302020302020302020302020302020302020302020300A20202031352E3230323620202D31382E3837333520202020302E30303030204F202020302020302020302020302020302020302020302020302020302020302020302020300A20202031352E3230383920202D31342E3638313320202020302E30303030204F202020302020302020302020302020302020302020302020302020302020302020302020300A20202032372E3333303220202D31302E3438393120202020302E303030302043202020302020302020302020302020302020302020302020302020302020302020302020300A20202032382E353431372020202D392E3739363920202020302E30303030204F202020302020302020302020302020302020302020302020302020302020302020302020300A2020312020322020322020302020202020302020300A2020312020332020312020302020202020302020300A2020312020342020312020302020202020302020300A2020322020352020312020302020202020302020300A2020322020362020312020302020202020302020300A2020332020372020312020302020202020302020300A2020332020382020322020302020202020302020300A2020342020392020322020302020202020302020300A2020342031302020312020302020202020302020300A2031312020352020312020312020202020302020300A2020362031322020322020302020202020302020300A2020372031332020312020302020202020302020300A2031312031342020312020302020202020302020300A2031312031352020312020302020202020302020300A2031322031362020312020302020202020302020300A2031332031372020312020302020202020302020300A2031342031382020312020302020202020302020300A2031352031392020312020302020202020302020300A2031352032302020312020362020202020302020300A2031372032312020322020302020202020302020300A2031372032322020312020302020202020302020300A2031382032332020312020302020202020302020300A2031382032342020312020312020202020302020300A2031392032352020312020312020202020302020300A2032312032362020312020302020202020302020300A2032322032372020322020302020202020302020300A2032332032382020312020362020202020302020300A2032342032392020312020302020202020302020300A2032362033302020322020302020202020302020300A2033302033312020312020302020202020302020300A2020392031322020312020302020202020302020300A2031392032332020312020302020202020302020300A2032372033302020312020302020202020302020300A4D2020454E44
Contributor: BSC
InstType: ESI
InstName: micrOTOF-Q
IoniMethod: ESI
IonPolarity: pos
IsolWidth: 10
TargetGas: Nitrogen
ColEnergy: 10
PeakWidth: 0.038
ChargeDecon: 2
Date: 2010-10-09 19:48:36+02:00
Column: Synergi Fusion RP 2.5 u
Mass: 21.5007-805.184
Num Peaks: 24
107.050 143 108.053 11 127.039 5 149.060 43 150.063 4 169.050 60 170.052 5 275.091 999 276.094 154 277.097 20 
278.099 3 317.102 7 419.132 12 420.134 3 437.144 127 438.146 29 439.149 5 459.125 94 460.129 20 461.125 5 
490.055 4 599.198 46 600.201 14 601.202 4 
