Name: Methyl-b-D-galactopyranoside
CAS: 1824-94-8
MW: 194
Formula: C7H14O6
Synonym: CID: 17751029
Synonym: MassBank: BD000155
Synonym: Methyl-b-D-galactopyranoside
Synonym: Methyl b-D-galactoside
Structure: 31332031332020302020302020312020302020302020302020302020303939392056323030300A20202032302E3534313020202D31332E3636363320202020302E303030302043202020302020302020312020302020302020302020302020302020302020302020302020300A20202032312E3735303920202D31322E3936343920202020302E30303030204F202020302020302020302020302020302020302020302020302020302020302020302020300A20202032302E3534313020202D31352E3036393220202020302E303030302043202020302020302020312020302020302020302020302020302020302020302020302020300A20202031392E3334343020202D31322E3936343920202020302E303030302043202020302020302020302020302020302020302020302020302020302020302020302020300A20202032322E3937333520202D31332E3636363320202020302E303030302043202020302020302020322020302020302020302020302020302020302020302020302020300A20202032312E3735303920202D31352E3736343420202020302E303030302043202020302020302020312020302020302020302020302020302020302020302020302020300A20202031392E3334343020202D31352E3736343420202020302E30303030204F202020302020302020302020302020302020302020302020302020302020302020302020300A20202031382E3236393220202D31332E3837323420202020302E30303030204F202020302020302020302020302020302020302020302020302020302020302020302020300A20202032322E3937333520202D31352E3036393220202020302E303030302043202020302020302020312020302020302020302020302020302020302020302020302020300A20202032342E3138393920202D31322E3936343920202020302E30303030204F202020302020302020302020302020302020302020302020302020302020302020302020300A20202032312E3735303920202D31372E3136373220202020302E30303030204F202020302020302020302020302020302020302020302020302020302020302020302020300A20202032342E3138393920202D31352E3736343420202020302E30303030204F202020302020302020302020302020302020302020302020302020302020302020302020300A20202032352E3339393620202D31332E3636363320202020302E303030302043202020302020302020302020302020302020302020302020302020302020302020302020300A2020312020322020312020302020202020302020300A2020312020332020312020302020202020302020300A2020312020342020312020312020202020302020300A2020322020352020312020302020202020302020300A2020332020362020312020302020202020302020300A2020332020372020312020312020202020302020300A2020342020382020312020302020202020302020300A2020352020392020312020302020202020302020300A2020352031302020312020312020202020302020300A2020362031312020312020312020202020302020300A2020392031322020312020362020202020302020300A2031302031332020312020302020202020302020300A2020362020392020312020302020202020302020300A4D2020454E44
Contributor: BSC
InstType: ESI
InstName: micrOTOF-Q
IoniMethod: ESI
IonPolarity: pos
IsolWidth: 10
TargetGas: Nitrogen
ColEnergy: 10
PeakWidth: 0.024
ChargeDecon: 2
Date: 2010-10-09 19:48:36+02:00
Column: Synergi Fusion RP 2.5 u
Mass: 44.7993-395.038
Num Peaks: 62
85.030 7 91.040 11 97.029 8 103.040 2 103.123 2 115.040 2 127.040 15 145.050 35 146.053 3 149.023 3 
161.050 2 162.557 2 163.061 956 164.064 57 165.066 11 170.082 3 181.072 12 185.033 2 189.041 3 190.025 4 
194.476 2 195.088 999 196.091 75 197.092 14 204.086 2 206.040 3 212.114 71 213.118 6 214.064 29 214.564 6 
217.070 85 218.073 7 221.049 3 221.550 2 222.049 46 222.551 8 223.052 12 223.553 1 224.048 4 224.128 3 
233.043 4 246.147 5 295.018 3 303.107 2 311.106 46 311.609 11 312.107 3 318.096 9 318.597 6 319.093 133 
319.595 35 320.095 29 320.594 8 321.091 10 321.590 2 325.117 18 326.120 2 357.145 45 358.148 5 359.151 2 
389.172 37 390.176 6 
