Name: Homogentisic acid
CAS: 451-13-8
MW: 168
Formula: C8H8O4
Synonym: CID: 780
Synonym: MassBank: BD000894
Synonym: Homogentisic acid
Synonym: 2,5-Dihydroxyphenylacetic acid
Synonym: 2,5-Dihydroxyphenylacetate
Synonym: Homogentisate
Structure: 31322031322020302020302020302020302020302020302020302020303939392056323030300A20202032312E3835363520202D31352E3337363120202020302E303030302043202020302020302020302020302020302020302020302020302020302020302020302020300A20202032332E3036373120202D31362E3037373920202020302E303030302043202020302020302020302020302020302020302020302020302020302020302020302020300A20202032302E3634303020202D31362E3037373920202020302E303030302043202020302020302020302020302020302020302020302020302020302020302020302020300A20202032312E3835363520202D31332E3937383320202020302E303030302043202020302020302020302020302020302020302020302020302020302020302020302020300A20202032332E3036373120202D31372E3437353520202020302E303030302043202020302020302020302020302020302020302020302020302020302020302020302020300A20202032342E3237373620202D31352E3337363120202020302E30303030204F202020302020302020302020302020302020302020302020302020302020302020302020300A20202032302E3634303020202D31372E3437353520202020302E303030302043202020302020302020302020302020302020302020302020302020302020302020302020300A20202032332E3037323920202D31332E3237363620202020302E303030302043202020302020302020302020302020302020302020302020302020302020302020302020300A20202032312E3835363520202D31382E3137373320202020302E303030302043202020302020302020302020302020302020302020302020302020302020302020302020300A20202031392E3432393520202D31382E3137373320202020302E30303030204F202020302020302020302020302020302020302020302020302020302020302020302020300A20202032342E3238333420202D31332E3937383320202020302E30303030204F202020302020302020302020302020302020302020302020302020302020302020302020300A20202032332E3037323920202D31312E3837393020202020302E30303030204F202020302020302020302020302020302020302020302020302020302020302020302020300A2020312020322020322020302020202020302020300A2020312020332020312020302020202020302020300A2020312020342020312020302020202020302020300A2020322020352020312020302020202020302020300A2020322020362020312020302020202020302020300A2020332020372020322020302020202020302020300A2020342020382020312020302020202020302020300A2020352020392020322020302020202020302020300A2020372031302020312020302020202020302020300A2020382031312020312020302020202020302020300A2020382031322020322020302020202020302020300A2020372020392020312020302020202020302020300A4D2020454E44
Contributor: MGR
InstType: ESI
InstName: micrOTOF-Q
IoniMethod: ESI
IonPolarity: neg
IsolWidth: 10
TargetGas: Nitrogen
ColEnergy: 10
PeakWidth: 0.027
ChargeDecon: 2
Date: 2010-10-09 19:48:36+02:00
Column: Synergi Fusion RP 2.5 u
Mass: 44.9955-394.905
Num Peaks: 10
99.044 18 108.021 46 109.029 55 122.037 255 123.044 855 124.047 72 137.023 59 146.940 28 167.034 999 168.037 81 
