Name: Tricarballic acid
MW: 176
Formula: C6H8O6
Synonym: CID: 14925
Synonym: MassBank: BD000370
Synonym: Tricarballic acid
Structure: 31343932350A20202D4F454368656D2D3032313530383036323932440A0A2031322031312020302020202020302020302020302020302020302020303939392056323030300A20202020352E3436343120202020302E3039353020202020302E30303030204F202020302020302020302020302020302020302020302020302020302020302020302020300A20202020342E3539383120202020312E3539353020202020302E30303030204F202020302020302020302020302020302020302020302020302020302020302020302020300A20202020322E383636302020202D322E3430353020202020302E30303030204F202020302020302020302020302020302020302020302020302020302020302020302020300A20202020322E3030303020202020322E3039353020202020302E30303030204F202020302020302020302020302020302020302020302020302020302020302020302020300A20202020322E303030302020202D302E3930353020202020302E30303030204F202020302020302020302020302020302020302020302020302020302020302020302020300A20202020332E3733323120202020322E3039353020202020302E30303030204F202020302020302020302020302020302020302020302020302020302020302020302020300A20202020332E3733323120202020302E3039353020202020302E303030302043202020302020302020302020302020302020302020302020302020302020302020302020300A20202020332E373332312020202D302E3930353020202020302E303030302043202020302020302020302020302020302020302020302020302020302020302020302020300A20202020322E3836363020202020302E3539353020202020302E303030302043202020302020302020302020302020302020302020302020302020302020302020302020300A20202020342E3539383120202020302E3539353020202020302E303030302043202020302020302020302020302020302020302020302020302020302020302020302020300A20202020322E383636302020202D312E3430353020202020302E303030302043202020302020302020302020302020302020302020302020302020302020302020302020300A20202020322E3836363020202020312E3539353020202020302E303030302043202020302020302020302020302020302020302020302020302020302020302020302020300A2020312031302020312020302020302020302020300A2020322031302020322020302020302020302020300A2020332031312020312020302020302020302020300A2020342031322020312020302020302020302020300A2020352031312020322020302020302020302020300A2020362031322020322020302020302020302020300A2020372020382020312020302020302020302020300A2020372020392020312020302020302020302020300A2020372031302020312020302020302020302020300A2020382031312020312020302020302020302020300A2020392031322020312020302020302020302020300A4D2020454E44
Contributor: BSC
InstType: ESI
InstName: micrOTOF-Q
IoniMethod: ESI
IonPolarity: neg
IsolWidth: 10
TargetGas: Nitrogen
ColEnergy: 10
PeakWidth: 0.03
ChargeDecon: 2
Date: 2010-10-09 19:48:36+02:00
Column: Synergi Fusion RP 2.5 u
Mass: 169.982-187.075
Num Peaks: 3
175.025 999 176.028 67 177.029 14 
