Name: 5-Hydroxymethylfurfural
CAS: 67-47-0
MW: 126
Formula: C6H6O3
Synonym: CID: 237332
Synonym: MassBank: BD000635
Synonym: 5-Hydroxymethylfurfural
Synonym: 5-Oxymethylfurfurole
Synonym: 2-Hydroxymethyl-5-furfural
Synonym: 5-(Hyddroxymethyl)furfurole
Synonym: 5-(Hydroxymethyl)-2-furfural
Synonym: 5-(Hydroxymethyl)furfural
Synonym: 5-Hydroxymethyl-2-furaldehyde
Synonym: 5-Hydroxymethylfuraldehyde
Synonym: HMF
Synonym: Hydroxymethylfurfural
Synonym: Hydroxymethylfurfuraldehyde
Synonym: Hydroxymethylfurfurole
Structure: 392020392020302020302020302020302020302020302020302020303939392056323030300A20202031382E3230303020202D31322E3131303020202020302E303030302043202020302020302020302020302020302020302020302020302020302020302020302020300A20202031362E3830303020202D31322E3131303020202020302E303030302043202020302020302020302020302020302020302020302020302020302020302020302020300A20202031362E3336373420202D31332E3434313520202020302E303030302043202020302020302020302020302020302020302020302020302020302020302020302020300A20202031372E3530303020202D31342E3236343420202020302E30303030204F202020302020302020302020302020302020302020302020302020302020302020302020300A20202031382E3633323620202D31332E3434313520202020302E303030302043202020302020302020302020302020302020302020302020302020302020302020302020300A20202031392E3935323220202D31332E3837303320202020302E303030302043202020302020302020302020302020302020302020302020302020302020302020302020300A20202032302E3234313120202D31352E3232393420202020302E30303030204F202020302020302020302020302020302020302020302020302020302020302020302020300A20202031352E3034373820202D31332E3837303320202020302E303030302043202020302020302020302020302020302020302020302020302020302020302020302020300A20202031342E3030333520202D31322E3933303120202020302E30303030204F202020302020302020302020302020302020302020302020302020302020302020302020300A2020312020322020312020302020202020302020300A2020322020332020322020302020202020302020300A2020332020342020312020302020202020302020300A2020342020352020312020302020202020302020300A2020312020352020322020302020202020302020300A2020352020362020312020302020202020302020300A2020362020372020322020302020202020302020300A2020332020382020312020302020202020302020300A2020382020392020312020302020202020302020300A4D2020454E44
Contributor: MGR
InstType: ESI
InstName: micrOTOF-Q
IoniMethod: ESI
IonPolarity: pos
MSMS: 2
IsolWidth: 10
TargetGas: Nitrogen
ColEnergy: 17
PeakWidth: 0.031
ChargeDecon: 2
Date: 2010-10-09 19:48:36+02:00
Column: Synergi Fusion RP 2.5 u
Mass: 44.7896-395.028
Num Peaks: 7
81.033 771 82.036 48 97.028 9 109.029 999 110.032 87 111.034 8 127.038 21 
