Name: Methyl-b-D-galactopyranoside
CAS: 1824-94-8
MW: 194
Formula: C7H14O6
Synonym: CID: 17751029
Synonym: MassBank: BD000150
Synonym: Methyl-b-D-galactopyranoside
Synonym: Methyl b-D-galactoside
Structure: 31332031332020302020302020312020302020302020302020302020303939392056323030300A20202032302E3534313020202D31332E3636363320202020302E303030302043202020302020302020312020302020302020302020302020302020302020302020302020300A20202032312E3735303920202D31322E3936343920202020302E30303030204F202020302020302020302020302020302020302020302020302020302020302020302020300A20202032302E3534313020202D31352E3036393220202020302E303030302043202020302020302020312020302020302020302020302020302020302020302020302020300A20202031392E3334343020202D31322E3936343920202020302E303030302043202020302020302020302020302020302020302020302020302020302020302020302020300A20202032322E3937333520202D31332E3636363320202020302E303030302043202020302020302020322020302020302020302020302020302020302020302020302020300A20202032312E3735303920202D31352E3736343420202020302E303030302043202020302020302020312020302020302020302020302020302020302020302020302020300A20202031392E3334343020202D31352E3736343420202020302E30303030204F202020302020302020302020302020302020302020302020302020302020302020302020300A20202031382E3236393220202D31332E3837323420202020302E30303030204F202020302020302020302020302020302020302020302020302020302020302020302020300A20202032322E3937333520202D31352E3036393220202020302E303030302043202020302020302020312020302020302020302020302020302020302020302020302020300A20202032342E3138393920202D31322E3936343920202020302E30303030204F202020302020302020302020302020302020302020302020302020302020302020302020300A20202032312E3735303920202D31372E3136373220202020302E30303030204F202020302020302020302020302020302020302020302020302020302020302020302020300A20202032342E3138393920202D31352E3736343420202020302E30303030204F202020302020302020302020302020302020302020302020302020302020302020302020300A20202032352E3339393620202D31332E3636363320202020302E303030302043202020302020302020302020302020302020302020302020302020302020302020302020300A2020312020322020312020302020202020302020300A2020312020332020312020302020202020302020300A2020312020342020312020312020202020302020300A2020322020352020312020302020202020302020300A2020332020362020312020302020202020302020300A2020332020372020312020312020202020302020300A2020342020382020312020302020202020302020300A2020352020392020312020302020202020302020300A2020352031302020312020312020202020302020300A2020362031312020312020312020202020302020300A2020392031322020312020362020202020302020300A2031302031332020312020302020202020302020300A2020362020392020312020302020202020302020300A4D2020454E44
Contributor: BSC
InstType: ESI
InstName: micrOTOF-Q
IoniMethod: ESI
IonPolarity: neg
MSMS: 2
IsolWidth: 10
TargetGas: Nitrogen
ColEnergy: 10
PeakWidth: 0.025
ChargeDecon: 2
Date: 2010-10-09 19:48:36+02:00
Column: Synergi Fusion RP 2.5 u
Mass: 44.9935-394.882
Num Peaks: 2
101.023 218 193.070 999 
