Name: Myo-inositol
CAS: 87-89-8
MW: 180
Formula: C6H12O6
Synonym: CID: 892
Synonym: MassBank: BD000159
Synonym: Myo-inositol
Synonym: Inositol,i-inositol  ,inositol-myo,meso-inositol,Dambose,mesoinositol  ,iso-inositol,Phaseomannitol,Phaseomannite,Mesoinosit,Mesoinosite,1,2,3,5/4,6-hexahydroxycyclohexane,,
Structure: 31322031322020302020302020312020302020302020302020302020303939392056323030300A20202032302E3735363620202D31342E3336373220202020302E303030302043202020302020302020312020302020302020302020302020302020302020302020302020300A20202032312E3933373720202D31332E3638323520202020302E303030302043202020302020302020312020302020302020302020302020302020302020302020302020300A20202032302E3735363620202D31352E3734393420202020302E303030302043202020302020302020312020302020302020302020302020302020302020302020302020300A20202031392E3336333820202D31332E3734373120202020302E30303030204F202020302020302020302020302020302020302020302020302020302020302020302020300A20202032332E3133373520202D31342E3336373220202020302E303030302043202020302020302020322020302020302020302020302020302020302020302020302020300A20202032312E3933313420202D31322E3331393320202020302E30303030204F202020302020302020302020302020302020302020302020302020302020302020302020300A20202032312E3933373720202D31362E3434363620202020302E303030302043202020302020302020312020302020302020302020302020302020302020302020302020300A20202031392E3432393320202D31362E3432373820202020302E30303030204F202020302020302020302020302020302020302020302020302020302020302020302020300A20202032332E3133373520202D31352E3734393420202020302E303030302043202020302020302020312020302020302020302020302020302020302020302020302020300A20202032342E3338383620202D31332E3638323520202020302E30303030204F202020302020302020302020302020302020302020302020302020302020302020302020300A20202032312E3933313420202D31372E3830393720202020302E30303030204F202020302020302020302020302020302020302020302020302020302020302020302020300A20202032342E3331383620202D31362E3432373820202020302E30303030204F202020302020302020302020302020302020302020302020302020302020302020302020300A2020312020322020312020302020202020302020300A2020312020332020312020302020202020302020300A2020312020342020312020312020202020302020300A2020322020352020312020302020202020302020300A2020322020362020312020362020202020302020300A2020332020372020312020302020202020302020300A2020332020382020312020312020202020302020300A2020352020392020312020302020202020302020300A2020352031302020312020312020202020302020300A2020372031312020312020312020202020302020300A2020392031322020312020362020202020302020300A2020372020392020312020302020202020302020300A4D2020454E44
Contributor: BSC
InstType: ESI
InstName: micrOTOF-Q
IoniMethod: ESI
IonPolarity: neg
IsolWidth: 10
TargetGas: Nitrogen
ColEnergy: 10
PeakWidth: 0.025
ChargeDecon: 2
Date: 2010-10-09 19:48:36+02:00
Column: Synergi Fusion RP 2.5 u
Mass: 44.9951-394.885
Num Peaks: 30
75.007 3 85.026 2 87.007 13 89.023 23 99.007 3 101.023 6 112.986 5 117.024 7 118.049 4 125.024 5 
129.018 3 141.019 5 159.029 5 161.045 47 162.047 3 177.039 6 179.055 999 180.058 67 181.060 13 205.039 3 
215.030 5 223.038 3 225.060 814 226.063 63 227.064 15 264.963 8 269.085 3 278.979 6 359.116 61 360.118 8 
