Name: 2-Keto-D-gluconic acid
CAS: 669-90-9
MW: 194
Formula: C6H10O7
Synonym: CID: 50
Synonym: MassBank: BD000459
Synonym: 2-Keto-D-gluconic acid
Synonym: D-Arabino-2-hexulopyranosonic acid hemicalcium salt hydrate
Synonym: 2-Keto-D-gluconic acid hemicalcium salt hydrate
Synonym: 2-Oxogluconic acid
Synonym: Alpha-D-Arabino-2-hexulosonic acid
Synonym: 2-Dehydro-D-gluconic acid
Synonym: Calcium 2-keto-D-gluconate
Synonym: D-Arabino-hex-2-ulosonic acid
Structure: 31332031322020302020302020302020302020302020302020302020303939392056323030300A20202032322E3832353520202D31322E3230323320202020302E303030302043202020302020302020332020302020302020302020302020302020302020302020302020300A20202032322E3831393620202D31332E3630303120202020302E303030302043202020302020302020332020302020302020302020302020302020302020302020302020300A20202032322E3833313320202D31302E3830343620202020302E303030302043202020302020302020302020302020302020302020302020302020302020302020302020300A20202032312E3432373920202D31322E3139363520202020302E30303030204F202020302020302020302020302020302020302020302020302020302020302020302020300A20202032322E3830373920202D31342E3939373820202020302E303030302043202020302020302020332020302020302020302020302020302020302020302020302020300A20202032342E3231373420202D31332E3630303120202020302E30303030204F202020302020302020302020302020302020302020302020302020302020302020302020300A20202032322E383337322020202D392E3430313020202020302E303030302043202020302020302020302020302020302020302020302020302020302020302020302020300A20202032342E3232393120202D31302E3830343620202020302E30303030204F202020302020302020302020302020302020302020302020302020302020302020302020300A20202032322E3830323120202D31362E3430313420202020302E303030302043202020302020302020302020302020302020302020302020302020302020302020302020300A20202032342E3231313520202D31342E3939373820202020302E30303030204F202020302020302020302020302020302020302020302020302020302020302020302020300A20202032312E363230372020202D382E3730353020202020302E30303030204F202020302020302020302020302020302020302020302020302020302020302020302020300A20202032342E303437382020202D382E3639393220202020302E30303030204F202020302020302020302020302020302020302020302020302020302020302020302020300A20202032312E3830373920202D31372E3338393620202020302E30303030204F202020302020302020302020302020302020302020302020302020302020302020302020300A2020312020322020312020302020202020302020300A2020312020332020312020302020202020302020300A2020312020342020312020302020202020302020300A2020322020352020312020302020202020302020300A2020322020362020312020302020202020302020300A2020332020372020312020302020202020302020300A2020332020382020322020302020202020302020300A2020352020392020312020302020202020302020300A2020352031302020312020302020202020302020300A2020372031312020312020302020202020302020300A2020372031322020322020302020202020302020300A2020392031332020312020302020202020302020300A4D2020454E44
Contributor: MGR
InstType: ESI
InstName: micrOTOF-Q
IoniMethod: ESI
IonPolarity: pos
IsolWidth: 10
TargetGas: Nitrogen
ColEnergy: 10
PeakWidth: 0.023
ChargeDecon: 2
Date: 2010-10-09 19:48:36+02:00
Column: Synergi Fusion RP 2.5 u
Mass: 44.7891-395.026
Num Peaks: 40
85.0270 80 87.0078 26 97.0262 26 103.0387 31 105.0177 100 113.0241 47 119.0812 24 121.0476 21 129.0183 86 131.0327 63 
141.0180 524 142.0200 43 144.0797 25 149.0279 56 159.0284 599 160.0333 40 177.0392 895 178.0432 58 179.0439 19 181.9520 37 
194.0669 62 195.0496 999 196.0505 64 197.0515 21 199.0237 25 205.0204 61 212.0770 54 214.0267 99 217.0324 117 218.0608 24 
224.1276 36 284.0346 47 293.0367 56 302.0450 51 311.0502 138 311.5513 31 317.0525 58 335.0641 141 353.0755 164 354.0798 26 
