Name: (DL) isocitric acid
CAS: 320-77-4
MW: 192
Formula: C6H8O7
Synonym: CID: 1198
Synonym: MassBank: BD000882
Synonym: (DL) isocitric acid
Synonym: 1-Hydroxytricarballylic acid
Synonym: Isocitrate
Synonym: 1-Hydroxypropane-1,2,3-tricarboxylic acid
Synonym: D,L-Isocitric acid
Structure: 31332031322020302020302020302020302020302020302020302020303939392056323030300A20202032322E3438363620202D31342E3639303220202020302E303030302043202020302020302020332020302020302020302020302020302020302020302020302020300A20202032332E3639323720202D31352E3339313520202020302E303030302043202020302020302020332020302020302020302020302020302020302020302020302020300A20202032312E3237333420202D31352E3339313520202020302E303030302043202020302020302020302020302020302020302020302020302020302020302020302020300A20202032322E3438363620202D31332E3239333320202020302E303030302043202020302020302020302020302020302020302020302020302020302020302020302020300A20202032332E3639323720202D31362E3739343220202020302E303030302043202020302020302020302020302020302020302020302020302020302020302020302020300A20202032342E3931313520202D31342E3639303220202020302E30303030204F202020302020302020302020302020302020302020302020302020302020302020302020300A20202032302E3036313620202D31342E3639303220202020302E303030302043202020302020302020302020302020302020302020302020302020302020302020302020300A20202032332E3639383420202D31322E3539373820202020302E30303030204F202020302020302020302020302020302020302020302020302020302020302020302020300A20202032312E3236373620202D31322E3539373820202020302E30303030204F202020302020302020302020302020302020302020302020302020302020302020302020300A20202032322E3438363620202D31372E3438393920202020302E30303030204F202020302020302020302020302020302020302020302020302020302020302020302020300A20202032342E3931313520202D31372E3438393920202020302E30303030204F202020302020302020302020302020302020302020302020302020302020302020302020300A20202032302E3036373320202D31332E3239333320202020302E30303030204F202020302020302020302020302020302020302020302020302020302020302020302020300A20202031382E3834383420202D31352E3339373520202020302E30303030204F202020302020302020302020302020302020302020302020302020302020302020302020300A2020312020322020312020302020202020302020300A2020312020332020312020302020202020302020300A2020312020342020312020302020202020302020300A2020322020352020312020302020202020302020300A2020322020362020312020302020202020302020300A2020332020372020312020302020202020302020300A2020342020382020312020302020202020302020300A2020342020392020322020302020202020302020300A2020352031302020312020302020202020302020300A2020352031312020322020302020202020302020300A2020372031322020312020302020202020302020300A2020372031332020322020302020202020302020300A4D2020454E44
Contributor: MGR
InstType: ESI
InstName: micrOTOF-Q
IoniMethod: ESI
IonPolarity: pos
IsolWidth: 10
TargetGas: Nitrogen
ColEnergy: 10
PeakWidth: 0.025
ChargeDecon: 2
Date: 2010-10-09 19:48:36+02:00
Column: Synergi Fusion RP 2.5 u
Mass: 44.7887-395.024
Num Peaks: 24
83.012 47 85.028 15 101.023 73 104.070 20 111.007 11 113.023 8 115.039 5 129.018 213 130.023 11 139.002 9 
147.029 49 149.025 10 157.013 117 158.015 9 175.024 407 176.027 26 177.029 6 181.952 4 193.035 999 194.038 65 
195.041 16 215.017 975 216.020 61 217.021 14 
