Name: 4-Hydroxyphenylethanol
CAS: 501-94-0
MW: 138
Formula: C8H10O2
Synonym: CID: 10393
Synonym: MassBank: BD000606
Synonym: 4-Hydroxyphenylethanol
Synonym: 4-Hydroxyphenylethylalcohol
Synonym: 2-(4-Hydroxyphenyl)ehanol
Structure: 31302031302020302020302020302020302020302020302020302020303939392056323030300A20202031372E3439363520202D31332E3334303620202020302E303030302043202020302020302020302020302020302020302020302020302020302020302020302020300A20202031362E3739373620202D31342E3535303420202020302E303030302043202020302020302020302020302020302020302020302020302020302020302020302020300A20202031362E3830343220202D31322E3133303820202020302E303030302043202020302020302020302020302020302020302020302020302020302020302020302020300A20202031382E3839333920202D31332E3333343220202020302E303030302043202020302020302020302020302020302020302020302020302020302020302020302020300A20202031352E3430303220202D31342E3535303420202020302E303030302043202020302020302020302020302020302020302020302020302020302020302020302020300A20202031352E3430363820202D31322E3132343320202020302E303030302043202020302020302020302020302020302020302020302020302020302020302020302020300A20202031392E3539393020202D31342E3535303420202020302E303030302043202020302020302020302020302020302020302020302020302020302020302020302020300A20202031342E3730313520202D31332E3333343220202020302E303030302043202020302020302020302020302020302020302020302020302020302020302020302020300A20202032312E3030323920202D31342E3535303420202020302E30303030204F202020302020302020302020302020302020302020302020302020302020302020302020300A20202031332E3239373520202D31332E3333343220202020302E30303030204F202020302020302020302020302020302020302020302020302020302020302020302020300A2020312020322020322020302020202020302020300A2020312020332020312020302020202020302020300A2020312020342020312020302020202020302020300A2020322020352020312020302020202020302020300A2020332020362020322020302020202020302020300A2020342020372020312020302020202020302020300A2020352020382020322020302020202020302020300A2020372020392020312020302020202020302020300A2020382031302020312020302020202020302020300A2020362020382020312020302020202020302020300A4D2020454E44
Contributor: MGR
InstType: ESI
InstName: micrOTOF-Q
IoniMethod: ESI
IonPolarity: pos
MSMS: 2
IsolWidth: 10
TargetGas: Nitrogen
ColEnergy: 17
PeakWidth: 0.031
ChargeDecon: 2
Date: 2010-10-09 19:48:36+02:00
Column: Synergi Fusion RP 2.5 u
Mass: 44.7914-395.04
Num Peaks: 15
77.038 276 78.042 27 91.054 571 92.058 50 93.070 342 94.064 27 95.049 503 96.052 39 102.046 31 103.054 999 
104.057 102 105.045 381 106.046 35 121.065 536 122.070 55 
