Name: Isovalerylcarnitine
CAS: 31023-24-2
MW: 245
Formula: C12H23NO4
Synonym: CID: 6426851
Synonym: MassBank: BD000059
Synonym: Isovalerylcarnitine
Synonym: 3-Methylbutyrylcarnitine  ,1-propanaminium, 3-carboxy-N,N,N-trimethyl-2-(3-methyl-1-oxobutoxy)-, inner salt, (R)-,
Structure: 31372031362020302020302020312020302020302020302020302020303939392056323030300A20202031332E3032303020202D31342E3432303020202020302E303030302043202020302020302020302020302020302020302020302020302020302020302020302020300A20202031332E3032303020202D31352E3832303020202020302E303030302043202020302020302020302020302020302020302020302020302020302020302020302020300A20202031342E3233323420202D31332E3732303020202020302E303030302043202020302020302020302020302020302020302020302020302020302020302020302020300A20202031352E3432373920202D31342E3431303420202020302E30303030204E202020302020332020302020302020302020302020302020302020302020302020302020300A20202031312E3830373620202D31362E3532303020202020302E303030302043202020302020302020302020302020302020302020302020302020302020302020302020300A20202031302E3631323120202D31352E3832393620202020302E30303030204F202020302020302020302020302020302020302020302020302020302020302020302020300A20202031312E3830373520202D31372E3931393820202020302E30303030204F202020302020352020302020302020302020302020302020302020302020302020302020300A20202031312E3830373620202D31332E3732303020202020302E30303030204F202020302020302020302020302020302020302020302020302020302020302020302020300A20202031312E3830373520202D31322E3332303220202020302E303030302043202020302020302020302020302020302020302020302020302020302020302020302020300A20202031302E3631313920202D31312E3632393820202020302E303030302043202020302020302020302020302020302020302020302020302020302020302020302020300A20202031332E3033363820202D31312E3631303320202020302E30303030204F202020302020302020302020302020302020302020302020302020302020302020302020300A20202020392E3432343820202D31322E3331353220202020302E303030302043202020302020302020302020302020302020302020302020302020302020302020302020300A20202020382E3233333420202D31312E3632373220202020302E303030302043202020302020302020302020302020302020302020302020302020302020302020302020300A20202020392E3432343720202D31332E3731393820202020302E303030302043202020302020302020302020302020302020302020302020302020302020302020302020300A20202031362E3631353320202D31332E3732343920202020302E303030302043202020302020302020302020302020302020302020302020302020302020302020302020300A20202031352E3432383020202D31352E3831393720202020302E303030302043202020302020302020302020302020302020302020302020302020302020302020302020300A20202031362E3634303420202D31352E3131303420202020302E303030302043202020302020302020302020302020302020302020302020302020302020302020302020300A2020312020322020312020302020202020302020300A2020312020332020312020302020202020302020300A2020332020342020312020302020202020302020300A2020322020352020312020302020202020302020300A2020352020362020322020302020202020302020300A2020352020372020312020302020202020302020300A2020312020382020312020312020202020302020300A2020382020392020312020302020202020302020300A2020392031302020312020302020202020302020300A2020392031312020322020302020202020302020300A2031302031322020312020302020202020302020300A2031322031332020312020302020202020302020300A2031322031342020312020302020202020302020300A2020342031352020312020302020202020302020300A2020342031362020312020302020202020302020300A2020342031372020312020302020202020302020300A4D202043484720203220202034202020312020203720202D310A4D2020454E44
Contributor: BSC
InstType: ESI
InstName: micrOTOF-Q
IoniMethod: ESI
IonPolarity: pos
IsolWidth: 10
TargetGas: Nitrogen
ColEnergy: 10
PeakWidth: 0.037
ChargeDecon: 2
Date: 2010-10-09 19:48:36+02:00
Column: Synergi Fusion RP 2.5 u
Mass: 21.5008-805.179
Num Peaks: 5
181.952 31 201.055 44 246.169 999 247.172 136 248.174 18 
