Name: N-Acetylarginine
CAS: 155-84-0
MW: 216
Formula: C8H16N4O3
Synonym: CID: 102807
Synonym: MassBank: BD000175
Synonym: N-Acetylarginine
Synonym: N2-Acetyl-L-arginine ,N-alpha-L-acetyl-arginine ,N-acetyl-L-arginine ,
Structure: 31352031342020302020302020312020302020302020302020302020303939392056323030300A20202032312E3730303020202D31312E3334303020202020302E303030302043202020302020302020302020302020302020302020302020302020302020302020302020300A20202032312E3730303020202D31322E3734303020202020302E303030302043202020302020302020302020302020302020302020302020302020302020302020302020300A20202032302E3438373620202D31332E3434303020202020302E303030302043202020302020302020302020302020302020302020302020302020302020302020302020300A20202032322E3931323420202D31302E3634303020202020302E30303030204E202020302020302020302020302020302020302020302020302020302020302020302020300A20202032302E3438373620202D31302E3634303020202020302E303030302043202020302020302020302020302020302020302020302020302020302020302020302020300A20202032302E3438373520202D31342E3833393820202020302E303030302043202020302020302020302020302020302020302020302020302020302020302020302020300A20202031392E3239313920202D31352E3533303220202020302E30303030204E202020302020302020302020302020302020302020302020302020302020302020302020300A20202031392E3239313920202D31362E3933303220202020302E303030302043202020302020302020302020302020302020302020302020302020302020302020302020300A20202032302E3530343420202D31372E3633303220202020302E30303030204E202020302020302020302020302020302020302020302020302020302020302020302020300A20202031382E3039363620202D31372E3632303720202020302E30303030204E202020302020302020302020302020302020302020302020302020302020302020302020300A20202032342E3132343920202D31312E3334303020202020302E303030302043202020302020302020302020302020302020302020302020302020302020302020302020300A20202032352E3335363020202D31302E3632393020202020302E303030302043202020302020302020302020302020302020302020302020302020302020302020302020300A20202032342E3132353020202D31322E3733393820202020302E30303030204F202020302020302020302020302020302020302020302020302020302020302020302020300A20202031392E3239323120202D31312E3333303420202020302E30303030204F202020302020302020302020302020302020302020302020302020302020302020302020300A20202032302E343837352020202D392E3234303220202020302E30303030204F202020302020302020302020302020302020302020302020302020302020302020302020300A2020312020322020312020302020202020302020300A2020322020332020312020302020202020302020300A2020312020342020312020312020202020302020300A2020312020352020312020302020202020302020300A2020332020362020312020302020202020302020300A2020362020372020312020302020202020302020300A2020372020382020322020302020202020302020300A2020382020392020312020302020202020302020300A2020382031302020312020302020202020302020300A2020342031312020312020302020202020302020300A2031312031322020312020302020202020302020300A2031312031332020322020302020202020302020300A2020352031342020312020302020202020302020300A2020352031352020322020302020202020302020300A4D2020454E44
Contributor: BSC
InstType: ESI
InstName: micrOTOF-Q
IoniMethod: ESI
IonPolarity: neg
IsolWidth: 10
TargetGas: Nitrogen
ColEnergy: 10
PeakWidth: 0.025
ChargeDecon: 2
Date: 2010-10-09 19:48:36+02:00
Column: Synergi Fusion RP 2.5 u
Mass: 44.9966-394.902
Num Peaks: 12
129.103 4 131.082 11 154.098 2 156.077 2 171.123 1 173.096 86 174.099 7 198.088 9 215.115 999 216.117 91 
217.119 10 251.091 3 
