Name: o-Coumaric acid
CAS: 614-60-8
MW: 164
Formula: C9H8O3
Synonym: CID: 11968
Synonym: MassBank: BD000757
Synonym: o-Coumaric acid
Synonym: Trans-2-hydroxycinnamic acid
Synonym: 2-Coumarate
Synonym: 2-Coumaric acid
Synonym: 2-Hydroxycinnamic acid
Synonym: o-Coumarate
Synonym: (E)-o-Hydroxycinnamic acid
Synonym: Trans-2-Coumaric acid
Synonym: Trans-2-hydroxycinnamate
Synonym: (E)-3-(2-Hydroxyphenyl)prop-2-enoic acid
Synonym: Trans-o-Coumaric acid
Structure: 31322031322020302020302020302020302020302020302020302020303939392056323030300A20202032302E3631393020202D31352E3032323920202020302E303030302043202020302020302020302020302020302020302020302020302020302020302020302020300A20202032302E3631393020202D31362E3433323920202020302E303030302043202020302020302020302020302020302020302020302020302020302020302020302020300A20202032312E3832333820202D31342E3332343520202020302E303030302043202020302020302020302020302020302020302020302020302020302020302020302020300A20202031392E3430313220202D31342E3333303820202020302E303030302043202020302020302020302020302020302020302020302020302020302020302020302020300A20202031392E3430313220202D31372E3134343420202020302E303030302043202020302020302020302020302020302020302020302020302020302020302020302020300A20202032312E3833303320202D31372E3133313620202020302E30303030204F202020302020302020302020302020302020302020302020302020302020302020302020300A20202032332E3033353320202D31352E3031363620202020302E303030302043202020302020302020302020302020302020302020302020302020302020302020302020300A20202031382E3138393920202D31352E3032323920202020302E303030302043202020302020302020302020302020302020302020302020302020302020302020302020300A20202031382E3138393920202D31362E3433323920202020302E303030302043202020302020302020302020302020302020302020302020302020302020302020302020300A20202032342E3234303120202D31342E3331373920202020302E303030302043202020302020302020302020302020302020302020302020302020302020302020302020300A20202032352E3434353020202D31352E3031363620202020302E30303030204F202020302020302020302020302020302020302020302020302020302020302020302020300A20202032342E3233333720202D31322E3932303820202020302E30303030204F202020302020302020302020302020302020302020302020302020302020302020302020300A2020312020322020322020302020202020302020300A2020312020332020312020302020202020302020300A2020312020342020312020302020202020302020300A2020322020352020312020302020202020302020300A2020322020362020312020302020202020302020300A2020332020372020322020302020202020302020300A2020342020382020322020302020202020302020300A2020352020392020322020302020202020302020300A2020372031302020312020302020202020302020300A2031302031312020312020302020202020302020300A2031302031322020322020302020202020302020300A2020382020392020312020302020202020302020300A4D2020454E44
Contributor: MGR
InstType: ESI
InstName: micrOTOF-Q
IoniMethod: ESI
IonPolarity: neg
MSMS: 2
IsolWidth: 10
TargetGas: Nitrogen
ColEnergy: -19
PeakWidth: 0.031
ChargeDecon: 2
Date: 2010-10-09 19:48:36+02:00
Column: Synergi Fusion RP 2.5 u
Mass: 44.9946-394.904
Num Peaks: 7
91.054 15 93.033 20 117.034 47 118.038 4 119.050 999 120.053 84 121.057 6 
