Name: MassBank: BD000922
CAS: 533-73-3
MW: 126
Formula: C6H6O3
Synonym: CID: 10787
Synonym: MassBank: BD000922
Synonym: 1,2,4-Trihydroxybenzol
Synonym: Hydroxyhydroquinone
Synonym: 1,2,4-Benzenetriol,
Synonym: 1,2,4-Trihydroxybenzene
Synonym: Hydroxyquinol
Structure: 392020392020302020302020302020302020302020302020302020303939392056323030300A20202032322E3433373620202D31342E3335393220202020302E303030302043202020302020302020302020302020302020302020302020302020302020302020302020300A20202032312E3232313120202D31332E3636313420202020302E303030302043202020302020302020302020302020302020302020302020302020302020302020302020300A20202032322E3433373620202D31352E3736383120202020302E303030302043202020302020302020302020302020302020302020302020302020302020302020302020300A20202032332E3634313420202D31332E3636313420202020302E30303030204F202020302020302020302020302020302020302020302020302020302020302020302020300A20202032302E3031303820202D31342E3335393220202020302E303030302043202020302020302020302020302020302020302020302020302020302020302020302020300A20202032312E3231343620202D31322E3237313920202020302E30303030204F202020302020302020302020302020302020302020302020302020302020302020302020300A20202032312E3232313120202D31362E3437383720202020302E303030302043202020302020302020302020302020302020302020302020302020302020302020302020300A20202032302E3031303820202D31352E3736383120202020302E303030302043202020302020302020302020302020302020302020302020302020302020302020302020300A20202032312E3231343620202D31372E3836383220202020302E30303030204F202020302020302020302020302020302020302020302020302020302020302020302020300A2020312020322020312020302020202020302020300A2020312020332020322020302020202020302020300A2020312020342020312020302020202020302020300A2020322020352020322020302020202020302020300A2020322020362020312020302020202020302020300A2020332020372020312020302020202020302020300A2020352020382020312020302020202020302020300A2020372020392020312020302020202020302020300A2020372020382020322020302020202020302020300A4D2020454E44
Contributor: MGR
InstType: ESI
InstName: micrOTOF-Q
IoniMethod: ESI
IonPolarity: neg
IsolWidth: 10
TargetGas: Nitrogen
ColEnergy: 10
PeakWidth: 0.031
ChargeDecon: 2
Date: 2010-10-09 19:48:36+02:00
Column: Synergi Fusion RP 2.5 u
Mass: 44.9911-394.882
Num Peaks: 14
69.033 4 79.017 10 81.033 5 83.012 12 95.011 8 97.028 33 98.032 2 107.012 12 108.019 3 123.008 25 
124.016 30 125.024 999 126.027 66 127.029 7 
