Name: Daidzein
CAS: 486-66-8
MW: 254
Formula: C15H10O4
Synonym: CID: 5281708
Synonym: MassBank: BD000781
Synonym: Daidzein
Synonym: 7-Hydroxy-3-(4-hydroxy-phenyl)-4H-1-benzo-pyran-4-one
Synonym: 4',7-Dihydroxybutisobutflavone
Synonym: 7-Hydroxy-3-(4-hydroxy-phenyl)-chromone
Structure: 31392032312020302020302020302020302020302020302020302020303939392056323030300A20202032302E3035383220202D31342E3638323920202020302E303030302043202020302020302020302020302020302020302020302020302020302020302020302020300A20202032302E3036343120202D31332E3237393620202020302E303030302043202020302020302020302020302020302020302020302020302020302020302020302020300A20202032312E3236393420202D31352E3338313620202020302E303030302043202020302020302020302020302020302020302020302020302020302020302020302020300A20202031382E3835323820202D31352E3337353920202020302E303030302043202020302020302020302020302020302020302020302020302020302020302020302020300A20202032312E3238313120202D31322E3538303920202020302E30303030204F202020302020302020302020302020302020302020302020302020302020302020302020300A20202031382E3835323820202D31322E3537353020202020302E303030302043202020302020302020302020302020302020302020302020302020302020302020302020300A20202032322E3437343820202D31342E3638383820202020302E303030302043202020302020302020302020302020302020302020302020302020302020302020302020300A20202032312E3236333520202D31362E3738343920202020302E30303030204F202020302020302020302020302020302020302020302020302020302020302020302020300A20202031372E3633353820202D31342E3638323920202020302E303030302043202020302020302020302020302020302020302020302020302020302020302020302020300A20202032322E3438303520202D31332E3239313320202020302E303030302043202020302020302020302020302020302020302020302020302020302020302020302020300A20202031372E3633353820202D31332E3237393620202020302E303030302043202020302020302020302020302020302020302020302020302020302020302020302020300A20202032332E3638353820202D31352E3339333320202020302E303030302043202020302020302020302020302020302020302020302020302020302020302020302020300A20202031362E3432343720202D31322E3537353020202020302E30303030204F202020302020302020302020302020302020302020302020302020302020302020302020300A20202032332E3637343220202D31362E3739303820202020302E303030302043202020302020302020302020302020302020302020302020302020302020302020302020300A20202032342E3839363920202D31342E3730303420202020302E303030302043202020302020302020302020302020302020302020302020302020302020302020302020300A20202032342E3838353420202D31372E3530313220202020302E303030302043202020302020302020302020302020302020302020302020302020302020302020302020300A20202032362E3130383220202D31352E3339393220202020302E303030302043202020302020302020302020302020302020302020302020302020302020302020302020300A20202032362E3130323320202D31362E3830323420202020302E303030302043202020302020302020302020302020302020302020302020302020302020302020302020300A20202032372E3331333520202D31372E3531323820202020302E30303030204F202020302020302020302020302020302020302020302020302020302020302020302020300A2020312020322020322020302020202020302020300A2020312020332020312020302020202020302020300A2020312020342020312020302020202020302020300A2020322020352020312020302020202020302020300A2020322020362020312020302020202020302020300A2020332020372020312020302020202020302020300A2020332020382020322020302020202020302020300A2020342020392020322020302020202020302020300A2020352031302020312020302020202020302020300A2020362031312020322020302020202020302020300A2020372031322020312020302020202020302020300A2031312031332020312020302020202020302020300A2031322031342020322020302020202020302020300A2031322031352020312020302020202020302020300A2031342031362020312020302020202020302020300A2031352031372020322020302020202020302020300A2031362031382020322020302020202020302020300A2031382031392020312020302020202020302020300A2020372031302020322020302020202020302020300A2020392031312020312020302020202020302020300A2031372031382020312020302020202020302020300A4D2020454E44
Contributor: MGR
InstType: ESI
InstName: micrOTOF-Q
IoniMethod: ESI
IonPolarity: pos
IsolWidth: 10
TargetGas: Nitrogen
ColEnergy: 10
PeakWidth: 0.024
ChargeDecon: 2
Date: 2010-10-09 19:48:36+02:00
Column: Synergi Fusion RP 2.5 u
Mass: 44.7884-395.022
Num Peaks: 15
122.093 2 149.022 2 152.106 1 181.952 2 184.515 2 193.521 1 213.146 1 254.246 3 255.068 999 256.069 181 
257.072 21 258.074 2 277.048 54 278.052 9 279.054 1 
