Name: Lipoicacid
CAS: 62-46-4
MW: 206
Formula: C8H14O2S2
Synonym: CID: 864
Synonym: MassBank: BD000112
Synonym: Lipoicacid
Synonym: (Oct)-1,2-Dithiolane-3-pentanoic acid,6,8-Dithiooctanoic acid,DL-6,8-Thioctic acid,Lipoate,alpha-Lipoic acid,Thioctic acid,5-[(3S)-Dithiolan-3-yl]pentanoic acid
Structure: 31322031322020302020302020302020302020302020302020302020303939392056323030300A20202031382E3931303720202D31332E3337373720202020302E303030302053202020302020302020302020302020302020302020302020302020302020302020302020300A20202031372E3530393720202D31332E3337373720202020302E303030302053202020302020302020302020302020302020302020302020302020302020302020302020300A20202031372E3037363920202D31342E3731303120202020302E303030302043202020302020302020302020302020302020302020302020302020302020302020302020300A20202031382E3231303220202D31352E3533333620202020302E303030302043202020302020302020302020302020302020302020302020302020302020302020302020300A20202031392E3334333620202D31342E3731303120202020302E303030302043202020302020302020302020302020302020302020302020302020302020302020302020300A20202032302E3534343320202D31352E3430393120202020302E303030302043202020302020302020302020302020302020302020302020302020302020302020302020300A20202032312E3735373620202D31342E3730383620202020302E303030302043202020302020302020302020302020302020302020302020302020302020302020302020300A20202032322E3937303820202D31352E3430393120202020302E303030302043202020302020302020302020302020302020302020302020302020302020302020302020300A20202032342E3138343020202D31342E3730383620202020302E303030302043202020302020302020302020302020302020302020302020302020302020302020302020300A20202032352E3339373420202D31352E3430393120202020302E303030302043202020302020302020302020302020302020302020302020302020302020302020302020300A20202032362E3631303620202D31342E3730383620202020302E30303030204F202020302020302020302020302020302020302020302020302020302020302020302020300A20202032352E3339373420202D31362E3831303220202020302E30303030204F202020302020302020302020302020302020302020302020302020302020302020302020300A2020312020322020312020302020202020302020300A2020322020332020312020302020202020302020300A2020332020342020312020302020202020302020300A2020342020352020312020302020202020302020300A2020312020352020312020302020202020302020300A2020352020362020312020302020202020302020300A2020362020372020312020302020202020302020300A2020372020382020312020302020202020302020300A2020382020392020312020302020202020302020300A2020392031302020312020302020202020302020300A2031302031312020312020302020202020302020300A2031302031322020322020302020202020302020300A4D2020454E44
Contributor: BSC
InstType: ESI
InstName: micrOTOF-Q
IoniMethod: ESI
IonPolarity: pos
IsolWidth: 10
TargetGas: Nitrogen
ColEnergy: 10
PeakWidth: 0.03
ChargeDecon: 2
Date: 2010-10-09 19:48:36+02:00
Column: Synergi Fusion RP 2.5 u
Mass: 183.998-201.083
Num Peaks: 5
189.040 999 190.044 104 191.036 97 192.039 8 193.032 3 
