Name: 2-Oxohexanoic acid
CAS: 2492-75-3
MW: 130
Formula: C6H10O3
Synonym: CID: 159664
Synonym: MassBank: BD000467
Synonym: 2-Oxohexanoic acid
Synonym: 2-Ketohexanoate
Synonym: 2-Ketocaproate
Synonym: 2-Ketocaproic acid
Synonym: 2-Ketocaproic acid sodium salt
Synonym: 2-Ketohexanoic acid
Synonym: 2-Ketohexanoic acid sodium salt
Synonym: 2-Keto-N-caproate sodium salt
Synonym: 2-Keto-N-caproic acid
Synonym: 2-Oxohexanoate
Synonym: 2-Oxo-hexanoate
Synonym: 2-Oxo-hexanoic acid
Synonym: a-Ketocaproic acid sodium salt
Synonym: Alpha-ketocaproate
Synonym: Alpha-ketocaproic acid
Structure: 392020382020302020302020302020302020302020302020302020303939392056323030300A20202032342E3035383620202D31332E3239333320202020302E303030302043202020302020302020302020302020302020302020302020302020302020302020302020300A20202032352E3237373420202D31322E3539333220202020302E303030302043202020302020302020302020302020302020302020302020302020302020302020302020300A20202032322E3833333420202D31322E3539333220202020302E303030302043202020302020302020302020302020302020302020302020302020302020302020302020300A20202032342E3035383620202D31342E3737363920202020302E30303030204F202020302020302020302020302020302020302020302020302020302020302020302020300A20202032362E3439353920202D31332E3239333320202020302E30303030204F202020302020302020302020302020302020302020302020302020302020302020302020300A20202032352E3237373420202D31312E3332303920202020302E30303030204F202020302020302020302020302020302020302020302020302020302020302020302020300A20202032312E3631343720202D31332E3239333320202020302E303030302043202020302020302020302020302020302020302020302020302020302020302020302020300A20202032302E3338393620202D31322E3539333220202020302E303030302043202020302020302020302020302020302020302020302020302020302020302020302020300A20202031392E3137303720202D31332E3239333320202020302E303030302043202020302020302020302020302020302020302020302020302020302020302020302020300A2020312020322020312020302020202020302020300A2020312020332020312020302020202020302020300A2020312020342020322020302020202020302020300A2020322020352020312020302020202020302020300A2020322020362020322020302020202020302020300A2020332020372020312020302020202020302020300A2020372020382020312020302020202020302020300A2020382020392020312020302020202020302020300A4D2020454E44
Contributor: MGR
InstType: ESI
InstName: micrOTOF-Q
IoniMethod: ESI
IonPolarity: neg
MSMS: 2
IsolWidth: 10
TargetGas: Nitrogen
ColEnergy: -11
PeakWidth: 0.028
ChargeDecon: 2
Date: 2010-10-09 19:48:36+02:00
Column: Synergi Fusion RP 2.5 u
Mass: 44.991-394.88
Num Peaks: 2
129.055 999 130.058 85 
