Name: Hesperidin
CAS: 520-26-3
MW: 610
Formula: C28H34O15
Synonym: MassBank: BD000861
Synonym: Hesperidin
Synonym: Hesperetin 7-O-rutinoside
Synonym: Ciratin
Synonym: Hesperetin 7-rhamnoglucoside
Synonym: D: 3594
Synonym: Hesperitin-7-rutinoside
Structure: 34332034372020302020302020312020302020302020302020302020303939392056323030300A20202031372E3535303220202D31352E3338383320202020302E303030302043202020302020302020302020302020302020302020302020302020302020302020302020300A20202031372E3535303220202D31362E3738373320202020302E303030302043202020302020302020302020302020302020302020302020302020302020302020302020300A20202031382E3733393320202D31372E3438363820202020302E303030302043202020302020302020302020302020302020302020302020302020302020302020302020300A20202031392E3939383420202D31362E3738373320202020302E303030302043202020302020302020302020302020302020302020302020302020302020302020302020300A20202031392E3939383420202D31352E3338383320202020302E303030302043202020302020302020302020302020302020302020302020302020302020302020302020300A20202031382E3733393320202D31342E3638383820202020302E30303030204F202020302020302020302020302020302020302020302020302020302020302020302020300A20202032312E3138373620202D31372E3438363820202020302E30303030204F202020302020302020302020302020302020302020302020302020302020302020302020300A20202032322E3337363720202D31362E3738373320202020302E303030302043202020302020302020302020302020302020302020302020302020302020302020302020300A20202032322E3337363720202D31352E3338383320202020302E303030302043202020302020302020302020302020302020302020302020302020302020302020302020300A20202032312E3138373620202D31342E3638383820202020302E30303030204F202020302020302020302020302020302020302020302020302020302020302020302020300A20202032332E3633353820202D31372E3438363820202020302E303030302043202020302020302020302020302020302020302020302020302020302020302020302020300A20202032342E3832343920202D31362E3738373320202020302E303030302043202020302020302020302020302020302020302020302020302020302020302020302020300A20202032342E3832343920202D31352E3338383320202020302E303030302043202020302020302020302020302020302020302020302020302020302020302020302020300A20202032332E3633353820202D31342E3638383820202020302E303030302043202020302020302020302020302020302020302020302020302020302020302020302020300A20202032362E3031343020202D31372E3438363820202020302E303030302043202020302020302020302020302020302020302020302020302020302020302020302020300A20202032372E3237333120202D31362E3738373320202020302E303030302043202020302020302020302020302020302020302020302020302020302020302020302020300A20202032372E3237333120202D31352E3338383320202020302E303030302043202020302020302020302020302020302020302020302020302020302020302020302020300A20202032362E3031343020202D31342E3638383820202020302E30303030204F202020302020302020302020302020302020302020302020302020302020302020302020300A20202032362E3031343020202D31382E3838353820202020302E30303030204F202020302020302020302020302020302020302020302020302020302020302020302020300A20202032332E3633353820202D31382E3838353820202020302E30303030204F202020302020302020302020302020302020302020302020302020302020302020302020300A20202031362E3336313120202D31342E3638383820202020302E303030302043202020302020302020302020302020302020302020302020302020302020302020302020300A20202032382E3436323220202D31342E3638383820202020302E303030302043202020302020302020302020302020302020302020302020302020302020302020302020300A20202031362E3336313120202D31372E3438363820202020302E30303030204F202020302020302020302020302020302020302020302020302020302020302020302020300A20202031382E3733393320202D31382E3838353820202020302E30303030204F202020302020302020302020302020302020302020302020302020302020302020302020300A20202031352E3137323020202D31352E3338383320202020302E30303030204F202020302020302020302020302020302020302020302020302020302020302020302020300A20202031332E3938323820202D31342E3638383820202020302E303030302043202020302020302020302020302020302020302020302020302020302020302020302020300A20202031332E3938323820202D31332E3238393920202020302E30303030204F202020302020302020302020302020302020302020302020302020302020302020302020300A20202031322E3732333820202D31322E3539303420202020302E303030302043202020302020302020302020302020302020302020302020302020302020302020302020300A20202031312E3533343620202D31332E3238393920202020302E303030302043202020302020302020302020302020302020302020302020302020302020302020302020300A20202031312E3533343620202D31342E3638383820202020302E303030302043202020302020302020302020302020302020302020302020302020302020302020302020300A20202031322E3732333820202D31352E3338383320202020302E303030302043202020302020302020302020302020302020302020302020302020302020302020302020300A20202032392E3732313320202D31352E3338383320202020302E303030302043202020302020302020302020302020302020302020302020302020302020302020302020300A20202033302E3931303420202D31342E3638383820202020302E303030302043202020302020302020302020302020302020302020302020302020302020302020302020300A20202033302E3931303420202D31332E3238393920202020302E303030302043202020302020302020302020302020302020302020302020302020302020302020302020300A20202032392E3732313320202D31322E3539303420202020302E303030302043202020302020302020302020302020302020302020302020302020302020302020302020300A20202032382E3436323220202D31332E3238393920202020302E303030302043202020302020302020302020302020302020302020302020302020302020302020302020300A20202032392E3732313320202D31312E3139313420202020302E30303030204F202020302020302020302020302020302020302020302020302020302020302020302020300A20202033322E3039393620202D31322E3539303420202020302E30303030204F202020302020302020302020302020302020302020302020302020302020302020302020300A20202033332E3335383620202D31332E3238393920202020302E303030302043202020302020302020302020302020302020302020302020302020302020302020302020300A20202031302E3334353520202D31352E3338383320202020302E30303030204F202020302020302020302020302020302020302020302020302020302020302020302020300A20202031322E3732333820202D31362E3738373320202020302E30303030204F202020302020302020302020302020302020302020302020302020302020302020302020300A20202031322E3732333820202D31312E3139313420202020302E303030302043202020302020302020302020302020302020302020302020302020302020302020302020300A20202031302E3334353520202D31322E3539303420202020302E30303030204F202020302020302020302020302020302020302020302020302020302020302020302020300A2020312020322020312020302020202020302020300A2020322020332020312020302020202020302020300A2020332020342020312020302020202020302020300A2020342020352020312020302020202020302020300A2020352020362020312020302020202020302020300A2020312020362020312020302020202020302020300A2020382020392020312020302020202020302020300A2020392031302020312020302020202020302020300A2020352031302020312020312020202020302020300A2020382031312020322020302020202020302020300A2031312031322020312020302020202020302020300A2031322031332020322020302020202020302020300A2031332031342020312020302020202020302020300A2020392031342020322020302020202020302020300A2031322031352020312020302020202020302020300A2031352031362020312020302020202020302020300A2031362031372020312020302020202020302020300A2031372031382020312020302020202020302020300A2031332031382020312020302020202020302020300A2031352031392020322020302020202020302020300A2031312032302020312020302020202020302020300A2020312032312020312020312020202020302020300A2031372032322020312020362020202020302020300A2020342020372020312020362020202020302020300A2020322032332020312020362020202020302020300A2020332032342020312020312020202020302020300A2032312032352020312020302020202020302020300A2032362032352020312020312020202020302020300A2032362032372020312020302020202020302020300A2032372032382020312020302020202020302020300A2032382032392020312020302020202020302020300A2032392033302020312020302020202020302020300A2033302033312020312020302020202020302020300A2032362033312020312020302020202020302020300A2032322033322020322020302020202020302020300A2033322033332020312020302020202020302020300A2033332033342020322020302020202020302020300A2033342033352020312020302020202020302020300A2033352033362020322020302020202020302020300A2032322033362020312020302020202020302020300A2033352033372020312020302020202020302020300A2033342033382020312020302020202020302020300A2033382033392020312020302020202020302020300A2033302034302020312020362020202020302020300A2033312034312020312020362020202020302020300A2032382034322020312020362020202020302020300A2032392034332020312020312020202020302020300A4D2020454E44
Contributor: MGR
InstType: ESI
InstName: micrOTOF-Q
IoniMethod: ESI
IonPolarity: pos
MSMS: 2
IsolWidth: 10
TargetGas: Nitrogen
ColEnergy: 29
PeakWidth: 0.038
ChargeDecon: 2
Date: 2010-10-09 19:48:36+02:00
Column: Synergi Fusion RP 2.5 u
Mass: 21.4929-805.184
Num Peaks: 54
71.047 15 75.043 2 85.027 116 86.030 6 87.041 3 103.039 3 111.045 3 127.040 2 129.054 118 130.058 8 
145.049 4 147.065 53 148.068 4 151.072 2 153.018 15 171.029 5 177.054 9 179.034 5 195.029 28 196.033 3 
219.029 7 245.044 5 263.054 32 264.057 4 281.065 25 282.066 4 285.077 2 299.078 3 301.070 4 302.097 4 
303.086 999 304.089 159 305.091 21 306.095 3 315.085 8 327.086 7 328.090 2 345.096 41 346.100 7 369.096 25 
370.101 5 395.112 10 396.115 2 413.123 35 414.126 8 415.127 2 429.116 2 431.133 16 432.136 4 447.130 3 
449.143 12 450.150 2 465.138 12 466.140 3 
