Name: Betaine aldehyde
MW: 102
Formula: C5H12NO
Synonym: CID: 249
Synonym: MassBank: BD000389
Synonym: Betaine aldehyde
Structure: 382020372020302020302020302020302020302020302020302020303939392056323030300A20202032312E3836323920202D31352E3732363720202020302E303030302043202020302020302020302020302020302020302020302020302020302020302020302020300A20202032312E3239333220202D31342E3539333320202020302E30303030204E202020302020332020332020302020302020302020302020302020302020302020302020300A20202032332E3030373620202D31352E3733313820202020302E303030302043202020302020302020302020302020302020302020302020302020302020302020302020300A20202032322E3731373420202D31332E3531373720202020302E303030302043202020302020302020302020302020302020302020302020302020302020302020302020300A20202032302E3034383220202D31352E3436393020202020302E303030302043202020302020302020302020302020302020302020302020302020302020302020302020300A20202032302E3630323120202D31332E3233383020202020302E303030302043202020302020302020302020302020302020302020302020302020302020302020302020300A20202032332E3538373920202D31342E3733343920202020302E30303030204F202020302020302020302020302020302020302020302020302020302020302020302020300A20202032332E3637363120202D31362E3936373820202020302E303030302048202020302020302020302020302020302020302020302020302020302020302020302020300A2020312020322020312020302020202020302020300A2020312020332020312020302020202020302020300A2020322020342020312020302020202020302020300A2020322020352020312020302020202020302020300A2020322020362020312020302020202020302020300A2020332020372020322020302020202020302020300A2020332020382020312020302020202020302020300A4D202043484720203120202032202020310A4D2020454E44
Contributor: MGR
InstType: ESI
InstName: micrOTOF-Q
IoniMethod: ESI
IonPolarity: pos
MSMS: 2
IsolWidth: 10
TargetGas: Nitrogen
ColEnergy: 10
PeakWidth: 0.031
ChargeDecon: 2
Date: 2010-10-09 19:48:36+02:00
Column: Synergi Fusion RP 2.5 u
Mass: 44.7893-395.029
Num Peaks: 5
74.096 5 102.092 999 103.095 62 120.102 418 121.105 26 
