Name: 6-Methylnicotinic acid
CAS: 3222-47-7
MW: 137
Formula: C7H7NO2
Synonym: CID: 137860
Synonym: MassBank: BD000667
Synonym: 6-Methylnicotinic acid
Synonym: 6-Methylpyridine-3-carboxylic acid
Structure: 31302031302020302020302020302020302020302020302020302020303939392056323030300A20202031342E3432303020202D31332E3136303020202020302E303030302043202020302020302020302020302020302020302020302020302020302020302020302020300A20202031342E3432303020202D31342E3536303020202020302E303030302043202020302020302020302020302020302020302020302020302020302020302020302020300A20202031352E3633323420202D31352E3236303020202020302E303030302043202020302020302020302020302020302020302020302020302020302020302020302020300A20202031362E3834343920202D31342E3536303020202020302E303030302043202020302020302020302020302020302020302020302020302020302020302020302020300A20202031362E3834343920202D31332E3136303020202020302E303030302043202020302020302020302020302020302020302020302020302020302020302020302020300A20202031352E3633323420202D31322E3436303020202020302E30303030204E202020302020302020302020302020302020302020302020302020302020302020302020300A20202031382E3037363020202D31352E3237313020202020302E303030302043202020302020302020302020302020302020302020302020302020302020302020302020300A20202031332E3230373620202D31322E3436303020202020302E303030302043202020302020302020302020302020302020302020302020302020302020302020302020300A20202031392E3238383420202D31342E3537313020202020302E30303030204F202020302020302020302020302020302020302020302020302020302020302020302020300A20202031382E3037353820202D31362E3635393920202020302E30303030204F202020302020302020302020302020302020302020302020302020302020302020302020300A2020312020322020322020302020202020302020300A2020322020332020312020302020202020302020300A2020332020342020322020302020202020302020300A2020342020352020312020302020202020302020300A2020352020362020322020302020202020302020300A2020312020362020312020302020202020302020300A2020342020372020312020302020202020302020300A2020312020382020312020302020202020302020300A2020372020392020312020302020202020302020300A2020372031302020322020302020202020302020300A4D2020454E44
Contributor: MGR
InstType: ESI
InstName: micrOTOF-Q
IoniMethod: ESI
IonPolarity: neg
MSMS: 2
IsolWidth: 10
TargetGas: Nitrogen
ColEnergy: -18
PeakWidth: 0.032
ChargeDecon: 2
Date: 2010-10-09 19:48:36+02:00
Column: Synergi Fusion RP 2.5 u
Mass: 44.994-394.898
Num Peaks: 3
92.049 999 93.052 74 136.040 34 
