Name: Trigonelline
CAS: 535-83-1
MW: 138
Formula: C7H8NO2
Synonym: CID: 5570
Synonym: MassBank: BD000373
Synonym: Trigonelline
Structure: 353537310A20202D4F454368656D2D3032313530383036333532440A0A2031302031302020302020202020302020302020302020302020302020303939392056323030300A20202020322E3836363020202020312E3834353020202020302E30303030204F202020302020302020302020302020302020302020302020302020302020302020302020300A20202020322E3030303020202020302E3334353020202020302E30303030204F202020302020302020302020302020302020302020302020302020302020302020302020300A20202020342E353938312020202D312E3135353020202020302E30303030204E202020302020332020302020302020302020302020302020302020302020302020302020300A20202020332E3733323120202020302E3334353020202020302E303030302043202020302020302020302020302020302020302020302020302020302020302020302020300A20202020332E373332312020202D302E3635353020202020302E303030302043202020302020302020302020302020302020302020302020302020302020302020302020300A20202020352E343634312020202D302E3635353020202020302E303030302043202020302020302020302020302020302020302020302020302020302020302020302020300A20202020342E3539383120202020302E3834353020202020302E303030302043202020302020302020302020302020302020302020302020302020302020302020302020300A20202020352E3436343120202020302E3334353020202020302E303030302043202020302020302020302020302020302020302020302020302020302020302020302020300A20202020342E353938312020202D322E3135353020202020302E303030302043202020302020302020302020302020302020302020302020302020302020302020302020300A20202020322E3836363020202020302E3834353020202020302E303030302043202020302020302020302020302020302020302020302020302020302020302020302020300A2020312031302020312020302020302020302020300A2020322031302020322020302020302020302020300A2020332020352020312020302020302020302020300A2020332020362020322020302020302020302020300A2020332020392020312020302020302020302020300A2020342020352020322020302020302020302020300A2020342020372020312020302020302020302020300A2020342031302020312020302020302020302020300A2020362020382020312020302020302020302020300A2020372020382020322020302020302020302020300A4D202043484720203120202033202020310A4D2020454E44
Contributor: BSC
InstType: ESI
InstName: micrOTOF-Q
IoniMethod: ESI
IonPolarity: pos
IsolWidth: 10
TargetGas: Nitrogen
ColEnergy: 10
PeakWidth: 0.03
ChargeDecon: 2
Date: 2010-10-09 19:48:36+02:00
Column: Synergi Fusion RP 2.5 u
Mass: 133.02-149.09
Num Peaks: 3
138.055 999 139.058 79 140.059 7 
