Name: Gallic acid
CAS: 149-91-7
MW: 170
Formula: C7H6O5
Synonym: CID: 370
Synonym: MassBank: BD000832
Synonym: Gallic acid
Synonym: Gallate
Synonym: 3,4,5-Trihydroxybenzoate
Synonym: 3,4,5-Trihydroxybenzoic acid
Synonym: Pyrogallol-5-carboxylic acid
Structure: 31322031322020302020302020302020302020302020302020302020303939392056323030300A20202032312E3834303220202D31332E3930343220202020302E303030302043202020302020302020302020302020302020302020302020302020302020302020302020300A20202032302E3631333920202D31342E3631313520202020302E303030302043202020302020302020302020302020302020302020302020302020302020302020302020300A20202032332E3037333220202D31342E3631313520202020302E303030302043202020302020302020302020302020302020302020302020302020302020302020302020300A20202032312E3833333920202D31322E3730383820202020302E303030302043202020302020302020302020302020302020302020302020302020302020302020302020300A20202032302E3631333920202D31362E3033393020202020302E303030302043202020302020302020302020302020302020302020302020302020302020302020302020300A20202032332E3037333220202D31362E3033393020202020302E303030302043202020302020302020302020302020302020302020302020302020302020302020302020300A20202032332E3035333620202D31322E3030313520202020302E30303030204F202020302020302020302020302020302020302020302020302020302020302020302020300A20202032302E3630373320202D31322E3030373820202020302E30303030204F202020302020302020302020302020302020302020302020302020302020302020302020300A20202032312E3834303220202D31362E3735393420202020302E303030302043202020302020302020302020302020302020302020302020302020302020302020302020300A20202031392E3338373420202D31362E3733393720202020302E30303030204F202020302020302020302020302020302020302020302020302020302020302020302020300A20202032342E3239393520202D31362E3733393720202020302E30303030204F202020302020302020302020302020302020302020302020302020302020302020302020300A20202032312E3833333920202D31382E3137333920202020302E30303030204F202020302020302020302020302020302020302020302020302020302020302020302020300A2020312020322020322020302020202020302020300A2020312020332020312020302020202020302020300A2020312020342020312020302020202020302020300A2020322020352020312020302020202020302020300A2020332020362020322020302020202020302020300A2020342020372020312020302020202020302020300A2020342020382020322020302020202020302020300A2020352020392020322020302020202020302020300A2020352031302020312020302020202020302020300A2020362031312020312020302020202020302020300A2020392031322020312020302020202020302020300A2020362020392020312020302020202020302020300A4D2020454E44
Contributor: MGR
InstType: ESI
InstName: micrOTOF-Q
IoniMethod: ESI
IonPolarity: pos
IsolWidth: 10
TargetGas: Nitrogen
ColEnergy: 10
PeakWidth: 0.026
ChargeDecon: 2
Date: 2010-10-09 19:48:36+02:00
Column: Synergi Fusion RP 2.5 u
Mass: 44.7908-395.041
Num Peaks: 17
107.012 15 109.029 48 125.022 30 127.039 313 128.043 23 129.060 6 137.032 7 144.080 18 146.961 10 149.023 20 
153.019 274 154.022 22 159.969 12 162.091 15 171.030 999 172.033 72 173.034 14 
