Name: Hydroferulic acid
CAS: 1135-23-5
MW: 196
Formula: C10H12O4
Synonym: CID: 14340
Synonym: MassBank: BD000910
Synonym: Hydroferulic acid
Synonym: 3-(4-Hydroxy-3-methoxyphenyl)propionic acid
Structure: 31342031342020302020302020302020302020302020302020302020303939392056323030300A20202032322E3433313920202D31352E3037383820202020302E303030302043202020302020302020302020302020302020302020302020302020302020302020302020300A20202032322E3433313920202D31362E3438303520202020302E303030302043202020302020302020302020302020302020302020302020302020302020302020302020300A20202032332E3634353820202D31372E3138313420202020302E303030302043202020302020302020302020302020302020302020302020302020302020302020302020300A20202032342E3835393820202D31362E3438303520202020302E303030302043202020302020302020302020302020302020302020302020302020302020302020302020300A20202032342E3835393820202D31352E3037383820202020302E303030302043202020302020302020302020302020302020302020302020302020302020302020302020300A20202032332E3634353820202D31342E3337373920202020302E303030302043202020302020302020302020302020302020302020302020302020302020302020302020300A20202032362E3039323520202D31342E3336363920202020302E30303030204F202020302020302020302020302020302020302020302020302020302020302020302020300A20202032362E3039323520202D31322E3936353120202020302E303030302043202020302020302020302020302020302020302020302020302020302020302020302020300A20202032362E3039323520202D31372E3139323420202020302E30303030204F202020302020302020302020302020302020302020302020302020302020302020302020300A20202032312E3231373920202D31342E3337373920202020302E303030302043202020302020302020302020302020302020302020302020302020302020302020302020300A20202032302E3032303920202D31352E3036393120202020302E303030302043202020302020302020302020302020302020302020302020302020302020302020302020300A20202031382E3833323020202D31342E3338323820202020302E303030302043202020302020302020302020302020302020302020302020302020302020302020302020300A20202031372E3633393320202D31352E3037313620202020302E30303030204F202020302020302020302020302020302020302020302020302020302020302020302020300A20202031382E3833313820202D31322E3937363320202020302E30303030204F202020302020302020302020302020302020302020302020302020302020302020302020300A2020312020322020322020302020202020302020300A2020322020332020312020302020202020302020300A2020332020342020322020302020202020302020300A2020342020352020312020302020202020302020300A2020352020362020322020302020202020302020300A2020312020362020312020302020202020302020300A2020352020372020312020302020202020302020300A2020372020382020312020302020202020302020300A2020342020392020312020302020202020302020300A2020312031302020312020302020202020302020300A2031302031312020312020302020202020302020300A2031312031322020312020302020202020302020300A2031322031332020312020302020202020302020300A2031322031342020322020302020202020302020300A4D2020454E44
Contributor: MGR
InstType: ESI
InstName: micrOTOF-Q
IoniMethod: ESI
IonPolarity: neg
IsolWidth: 10
TargetGas: Nitrogen
ColEnergy: 10
PeakWidth: 0.026
ChargeDecon: 2
Date: 2010-10-09 19:48:36+02:00
Column: Synergi Fusion RP 2.5 u
Mass: 44.9951-394.905
Num Peaks: 14
112.985 3 119.051 2 121.028 4 123.045 2 135.044 14 136.052 22 137.054 2 146.943 3 151.060 2 177.053 2 
180.973 2 195.067 999 196.070 111 197.071 13 
