Name: 3-Hydroxysebacic acid
MW: 218
Formula: C10H18O5
Synonym: CID: 128458
Synonym: MassBank: BD000487
Synonym: 3-Hydroxysebacic acid
Synonym: Hydroxy-decanedioic acid
Structure: 31352031342020302020302020302020302020302020302020302020303939392056323030300A20202031312E3636303120202D31332E3036363620202020302E303030302043202020302020302020302020302020302020302020302020302020302020302020302020300A20202031322E3838353220202D31332E3734333420202020302E303030302043202020302020302020302020302020302020302020302020302020302020302020302020300A20202031302E3435383220202D31332E3736303820202020302E30303030204F202020302020302020302020302020302020302020302020302020302020302020302020300A20202031312E3636303120202D31312E3634393020202020302E30303030204F202020302020302020302020302020302020302020302020302020302020302020302020300A20202031342E3039383620202D31332E3033373420202020302E303030302043202020302020302020302020302020302020302020302020302020302020302020302020300A20202031352E3333353620202D31332E3731343120202020302E303030302043202020302020302020302020302020302020302020302020302020302020302020302020300A20202031362E3534393020202D31332E3033313620202020302E303030302043202020302020302020302020302020302020302020302020302020302020302020302020300A20202031372E3736323620202D31332E3730323620202020302E303030302043202020302020302020302020302020302020302020302020302020302020302020302020300A20202031382E3935383720202D31332E3031343220202020302E303030302043202020302020302020302020302020302020302020302020302020302020302020302020300A20202032302E3230373120202D31332E3730323620202020302E303030302043202020302020302020302020302020302020302020302020302020302020302020302020300A20202032312E3430333120202D31322E3938343920202020302E303030302043202020302020302020302020302020302020302020302020302020302020302020302020300A20202032322E3633343220202D31332E3639313020202020302E303030302043202020302020302020302020302020302020302020302020302020302020302020302020300A20202032332E3833353920202D31322E3938343920202020302E30303030204F202020302020302020302020302020302020302020302020302020302020302020302020300A20202032322E3634353820202D31352E3037393320202020302E30303030204F202020302020302020302020302020302020302020302020302020302020302020302020300A20202031342E3038303320202D31312E3632303020202020302E30303030204F202020302020302020302020302020302020302020302020302020302020302020302020300A2020312020322020312020302020202020302020300A2020312020332020312020302020202020302020300A2020312020342020322020302020202020302020300A2020322020352020312020302020202020302020300A2020352020362020312020302020202020302020300A2020362020372020312020302020202020302020300A2020372020382020312020302020202020302020300A2020382020392020312020302020202020302020300A2020392031302020312020302020202020302020300A2031302031312020312020302020202020302020300A2031312031322020312020302020202020302020300A2031322031332020312020302020202020302020300A2031322031342020322020302020202020302020300A2020352031352020312020302020202020302020300A4D2020454E44
Contributor: MGR
InstType: ESI
InstName: micrOTOF-Q
IoniMethod: ESI
IonPolarity: pos
MSMS: 2
IsolWidth: 10
TargetGas: Nitrogen
ColEnergy: 20
PeakWidth: 0.029
ChargeDecon: 2
Date: 2010-10-09 19:48:36+02:00
Column: Synergi Fusion RP 2.5 u
Mass: 44.7883-395.023
Num Peaks: 7
91.055 395 93.069 369 95.085 999 109.100 453 119.085 958 137.096 821 147.079 213 
