Name: Hexanoylglycine
CAS: 24003-67-6
MW: 173
Formula: C8H15NO3
Synonym: CID: 99463
Synonym: MassBank: BD000438
Synonym: Hexanoylglycine
Synonym: 2-(Hexanoylamino)acetic acid
Synonym: N-(1-Oxohexyl)-glycine
Synonym: N-Caproylglycine
Structure: 31322031312020302020302020302020302020302020302020302020303939392056323030300A20202020332E3939303020202D31322E3935303020202020302E30303030204F202020302020302020302020302020302020302020302020302020302020302020302020300A20202020352E3230323420202D31332E3635303020202020302E303030302043202020302020302020302020302020302020302020302020302020302020302020302020300A20202020362E3431343920202D31322E3935303020202020302E303030302043202020302020302020302020302020302020302020302020302020302020302020302020300A20202020372E3632373320202D31332E3635303020202020302E30303030204E202020302020302020302020302020302020302020302020302020302020302020302020300A20202020382E3833393720202D31322E3935303020202020302E303030302043202020302020302020302020302020302020302020302020302020302020302020302020300A20202031302E3035323220202D31332E3635303020202020302E303030302043202020302020302020302020302020302020302020302020302020302020302020302020300A20202031312E3236343620202D31322E3935303020202020302E303030302043202020302020302020302020302020302020302020302020302020302020302020302020300A20202031322E3437373020202D31332E3635303020202020302E303030302043202020302020302020302020302020302020302020302020302020302020302020302020300A20202031332E3638393520202D31322E3935303020202020302E303030302043202020302020302020302020302020302020302020302020302020302020302020302020300A20202031342E3930313920202D31332E3635303020202020302E303030302043202020302020302020302020302020302020302020302020302020302020302020302020300A20202020352E3230323420202D31352E3034393820202020302E30303030204F202020302020302020302020302020302020302020302020302020302020302020302020300A20202020382E3833393720202D31312E3535303120202020302E30303030204F202020302020302020302020302020302020302020302020302020302020302020302020300A2020312020322020312020302020202020302020300A2020322020332020312020302020202020302020300A2020332020342020312020302020202020302020300A2020342020352020312020302020202020302020300A2020352020362020312020302020202020302020300A2020362020372020312020302020202020302020300A2020372020382020312020302020202020302020300A2020382020392020312020302020202020302020300A2020392031302020312020302020202020302020300A2020322031312020322020302020202020302020300A2020352031322020322020302020202020302020300A4D2020454E44
Contributor: MGR
InstType: ESI
InstName: micrOTOF-Q
IoniMethod: ESI
IonPolarity: neg
IsolWidth: 10
TargetGas: Nitrogen
ColEnergy: 10
PeakWidth: 0.028
ChargeDecon: 2
Date: 2010-10-09 19:48:36+02:00
Column: Synergi Fusion RP 2.5 u
Mass: 44.9948-394.903
Num Peaks: 7
74.023 119 75.024 5 128.107 24 146.940 5 172.097 999 173.100 81 174.101 9 
