Name: 3-Hydroxy-2-methylbutyric acid
MW: 118
Formula: C5H10O3
Synonym: CID: 160471
Synonym: MassBank: BD000592
Synonym: 3-Hydroxy-2-methylbutyric acid
Structure: 382020372020302020302020302020302020302020302020302020303939392056323030300A20202020382E3638303020202D31372E3031303020202020302E303030302043202020302020302020302020302020302020302020302020302020302020302020302020300A20202020392E3839323420202D31372E3731303020202020302E303030302043202020302020302020302020302020302020302020302020302020302020302020302020300A20202020372E3436373620202D31372E3731303020202020302E303030302043202020302020302020302020302020302020302020302020302020302020302020302020300A20202020382E3638303020202D31352E3631303020202020302E30303030204F202020302020302020302020302020302020302020302020302020302020302020302020300A20202031312E3038373920202D31372E3031393620202020302E303030302043202020302020302020302020302020302020302020302020302020302020302020302020300A20202031322E3237353320202D31372E3730353120202020302E30303030204F202020302020302020302020302020302020302020302020302020302020302020302020300A20202020392E3839323520202D31392E3130393820202020302E303030302043202020302020302020302020302020302020302020302020302020302020302020302020300A20202031312E3038383020202D31352E3631303320202020302E30303030204F202020302020302020302020302020302020302020302020302020302020302020302020300A2020312020322020312020302020202020302020300A2020312020332020312020302020202020302020300A2020312020342020312020302020202020302020300A2020322020352020312020302020202020302020300A2020352020362020312020302020202020302020300A2020322020372020312020302020202020302020300A2020352020382020322020302020202020302020300A4D2020454E44
Contributor: MGR
InstType: ESI
InstName: micrOTOF-Q
IoniMethod: ESI
IonPolarity: pos
IsolWidth: 10
TargetGas: Nitrogen
ColEnergy: 10
PeakWidth: 0.027
ChargeDecon: 2
Date: 2010-10-09 19:48:36+02:00
Column: Synergi Fusion RP 2.5 u
Mass: 44.7892-395.028
Num Peaks: 15
69.069 6 73.064 15 83.049 11 87.079 31 101.060 710 102.063 36 105.091 122 106.095 8 115.035 13 119.070 999 
120.074 59 121.075 9 290.048 166 291.052 36 292.053 5 
