Name: Isobutyrylcarnitine
MW: 231
Formula: C11H21NO4
Synonym: CID: 168379
Synonym: MassBank: BD000010
Synonym: Isobutyrylcarnitine
Synonym: Isobutyryl-1-carnitine,isobutyryl-carnitine,isobutyryl-L-carnitine,iso-butyryl-L(-)-carnitin,,
Structure: 31362031352020302020302020312020302020302020302020302020303939392056323030300A20202031322E3630303020202D31312E3736303020202020302E303030302043202020302020302020302020302020302020302020302020302020302020302020302020300A20202031322E3630303020202D31332E3136303020202020302E303030302043202020302020302020302020302020302020302020302020302020302020302020302020300A20202031332E3831323420202D31312E3036303020202020302E303030302043202020302020302020302020302020302020302020302020302020302020302020302020300A20202031312E3338373620202D31332E3836303020202020302E303030302043202020302020302020302020302020302020302020302020302020302020302020302020300A20202031352E3030373920202D31312E3735303420202020302E30303030204E202020302020332020302020302020302020302020302020302020302020302020302020300A20202031302E3139323120202D31332E3136393620202020302E30303030204F202020302020302020302020302020302020302020302020302020302020302020302020300A20202031312E3338373520202D31352E3235393820202020302E30303030204F202020302020352020302020302020302020302020302020302020302020302020302020300A20202031312E3338373620202D31312E3036303020202020302E30303030204F202020302020302020302020302020302020302020302020302020302020302020302020300A20202031312E333837352020202D392E3636303220202020302E303030302043202020302020302020302020302020302020302020302020302020302020302020302020300A20202031302E313931392020202D382E3936393820202020302E303030302043202020302020302020302020302020302020302020302020302020302020302020302020300A20202020392E303034382020202D392E3635353220202020302E303030302043202020302020302020302020302020302020302020302020302020302020302020302020300A20202031302E313931382020202D372E3536303320202020302E303030302043202020302020302020302020302020302020302020302020302020302020302020302020300A20202031322E363136382020202D382E3935303320202020302E30303030204F202020302020302020302020302020302020302020302020302020302020302020302020300A20202031362E3139353320202D31312E3036343920202020302E303030302043202020302020302020302020302020302020302020302020302020302020302020302020300A20202031352E3030383020202D31332E3135393720202020302E303030302043202020302020302020302020302020302020302020302020302020302020302020302020300A20202031362E3230333320202D31322E3434303920202020302E303030302043202020302020302020302020302020302020302020302020302020302020302020302020300A2020312020322020312020302020202020302020300A2020312020332020312020302020202020302020300A2020322020342020312020302020202020302020300A2020332020352020312020302020202020302020300A2020342020362020322020302020202020302020300A2020342020372020312020302020202020302020300A2020312020382020312020312020202020302020300A2020382020392020312020302020202020302020300A2020392031302020312020302020202020302020300A2031302031312020312020302020202020302020300A2031302031322020312020302020202020302020300A2020392031332020322020302020202020302020300A2020352031342020312020302020202020302020300A2020352031352020312020302020202020302020300A2020352031362020312020302020202020302020300A4D202043484720203220202035202020312020203720202D310A4D2020454E44
Contributor: BSC
InstType: ESI
InstName: micrOTOF-Q
IoniMethod: ESI
IonPolarity: neg
IsolWidth: 10
TargetGas: Nitrogen
ColEnergy: 10
PeakWidth: 0.023
ChargeDecon: 2
Date: 2010-10-09 19:48:36+02:00
Column: Synergi Fusion RP 2.5 u
Mass: 44.9934-394.875
Num Peaks: 25
87.0440 85 88.0480 3 88.9878 9 112.9854 4 133.0493 27 140.9846 4 144.1023 330 145.1048 25 186.1490 55 187.1532 7 
188.0918 149 189.0952 14 190.9278 9 230.1386 28 231.1423 3 232.1532 23 233.1571 3 235.9231 3 266.1159 7 276.1440 999 
277.1470 129 278.1490 18 318.1900 73 319.1913 12 320.1533 3 
