Name: L-Glutamine acid amide ??
MW: 146
Formula: C5H10N2O3
Synonym: CID: 738
Synonym: MassBank: BD000133
Synonym: L-Glutamine acid amide ??
Synonym: Glutamine
Synonym: L-Glutamine
Synonym: Levoglutamide
Synonym: (2S)-2,5-Diamino-5-oxopentanoic acid
Structure: 353936310A20202D4F454368656D2D3032323030383036303932440A0A2031302020392020302020202020312020302020302020302020302020303939392056323030300A20202020362E3030313020202020312E3036303020202020302E30303030204F202020302020302020302020302020302020302020302020302020302020302020302020300A20202020352E3133353020202020322E3536303020202020302E30303030204F202020302020302020302020302020302020302020302020302020302020302020302020300A20202020342E323639302020202D312E3934303020202020302E30303030204F202020302020302020302020302020302020302020302020302020302020302020302020300A20202020332E3430333020202020312E3536303020202020302E30303030204E202020302020302020302020302020302020302020302020302020302020302020302020300A20202020322E353336392020202D312E3934303020202020302E30303030204E202020302020302020302020302020302020302020302020302020302020302020302020300A20202020342E3236393020202020302E3036303020202020302E303030302043202020302020302020302020302020302020302020302020302020302020302020302020300A20202020342E3236393020202020312E3036303020202020302E303030302043202020302020302020312020302020302020302020302020302020302020302020302020300A20202020332E343033302020202D302E3434303020202020302E303030302043202020302020302020302020302020302020302020302020302020302020302020302020300A20202020352E3133353020202020312E3536303020202020302E303030302043202020302020302020302020302020302020302020302020302020302020302020302020300A20202020332E343033302020202D312E3434303020202020302E303030302043202020302020302020302020302020302020302020302020302020302020302020302020300A2020312020392020312020302020302020302020300A2020322020392020322020302020302020302020300A2020332031302020322020302020302020302020300A2020372020342020312020362020302020302020300A2020352031302020312020302020302020302020300A2020362020372020312020302020302020302020300A2020362020382020312020302020302020302020300A2020372020392020312020302020302020302020300A2020382031302020312020302020302020302020300A4D2020454E44
Contributor: BSC
InstType: ESI
InstName: micrOTOF-Q
IoniMethod: ESI
IonPolarity: neg
IsolWidth: 10
TargetGas: Nitrogen
ColEnergy: 10
PeakWidth: 0.03
ChargeDecon: 2
Date: 2010-10-09 19:48:36+02:00
Column: Synergi Fusion RP 2.5 u
Mass: 140.02-156.11
Num Peaks: 3
145.062 999 146.065 64 147.066 8 
