Name: N-Methyltyramine
CAS: 370-98-9
MW: 151
Formula: C9H13NO
Synonym: CID: 9727
Synonym: MassBank: BD000212
Synonym: N-Methyltyramine
Synonym: Methyl-4-tyramine,4-hydroxy-N-methylphenethylamine,p-(2-methylaminoethyl)phenol ,para-(2-methylaminoethyl)phenol ,4-[2-(methylamino)ethyl]phenol
Structure: 31312031312020302020302020302020302020302020302020302020303939392056323030300A20202032312E3236343220202D31352E3035353520202020302E303030302043202020302020302020302020302020302020302020302020302020302020302020302020300A20202032302E3035323820202D31352E3735343120202020302E303030302043202020302020302020302020302020302020302020302020302020302020302020302020300A20202032322E3438323120202D31352E3735343120202020302E303030302043202020302020302020302020302020302020302020302020302020302020302020302020300A20202032312E3235373920202D31332E3636343620202020302E303030302043202020302020302020302020302020302020302020302020302020302020302020302020300A20202032302E3035323820202D31372E3136343320202020302E303030302043202020302020302020302020302020302020302020302020302020302020302020302020300A20202032322E3438323120202D31372E3136343320202020302E303030302043202020302020302020302020302020302020302020302020302020302020302020302020300A20202032322E3436323820202D31322E3935393520202020302E303030302043202020302020302020302020302020302020302020302020302020302020302020302020300A20202032312E3236343220202D31372E3837353720202020302E303030302043202020302020302020302020302020302020302020302020302020302020302020302020300A20202032322E3435363520202D31312E3536383620202020302E30303030204E202020302020302020302020302020302020302020302020302020302020302020302020300A20202032312E3235373920202D31392E3236363720202020302E30303030204F202020302020302020302020302020302020302020302020302020302020302020302020300A20202032332E3636313520202D31302E3837303020202020302E303030302043202020302020302020302020302020302020302020302020302020302020302020302020300A2020312020322020312020302020202020302020300A2020312020332020322020302020202020302020300A2020312020342020312020302020202020302020300A2020322020352020322020302020202020302020300A2020332020362020312020302020202020302020300A2020342020372020312020302020202020302020300A2020352020382020312020302020202020302020300A2020372020392020312020302020202020302020300A2020382031302020312020302020202020302020300A2020392031312020312020302020202020302020300A2020362020382020322020302020202020302020300A4D2020454E44
Contributor: BSC
InstType: ESI
InstName: micrOTOF-Q
IoniMethod: ESI
IonPolarity: pos
IsolWidth: 10
TargetGas: Nitrogen
ColEnergy: 10
PeakWidth: 0.028
ChargeDecon: 2
Date: 2010-10-09 19:48:36+02:00
Column: Synergi Fusion RP 2.5 u
Mass: 44.7997-395.036
Num Peaks: 11
91.055 21 93.070 30 95.049 8 103.054 37 105.045 7 121.065 999 122.067 90 146.961 7 149.022 19 152.107 602 
153.110 63 
