Name: N-Acetylalanine
CAS: 97-69-8
MW: 131
Formula: C5H9NO3
Synonym: CID: 7345
Synonym: MassBank: BD000168
Synonym: N-Acetylalanine
Synonym: N-Acetyl-,Alanine
Synonym: 2-Acetamidopropionic acid
Synonym: Acetylalanine
Synonym: Acetylalanine,N-acetyl-S-alanine,2-acetamidopropionic acid,L-Alanine, N-acetyl-,Alanine, N-acetyl-, L-
Synonym: L-Alanine
Synonym: N-Acetyl-S-alanine
Structure: 392020382020302020302020302020302020302020302020302020303939392056323030300A20202031312E3431303020202D31332E3836303020202020302E30303030204F202020302020302020302020302020302020302020302020302020302020302020302020300A20202031322E3632323420202D31332E3136303020202020302E303030302043202020302020302020302020302020302020302020302020302020302020302020302020300A20202031332E3833343920202D31332E3836303020202020302E303030302043202020302020302020302020302020302020302020302020302020302020302020302020300A20202031352E3034373320202D31332E3136303020202020302E30303030204E202020302020302020302020302020302020302020302020302020302020302020302020300A20202031362E3235393720202D31332E3836303020202020302E303030302043202020302020302020302020302020302020302020302020302020302020302020302020300A20202031322E3632323420202D31312E3736303220202020302E30303030204F202020302020302020302020302020302020302020302020302020302020302020302020300A20202031372E3435373320202D31332E3136383520202020302E303030302043202020302020302020302020302020302020302020302020302020302020302020302020300A20202031332E3833343920202D31352E3235393820202020302E303030302043202020302020302020302020302020302020302020302020302020302020302020302020300A20202031362E3235393820202D31352E3235393920202020302E30303030204F202020302020302020302020302020302020302020302020302020302020302020302020300A2020312020322020312020302020202020302020300A2020322020332020312020302020202020302020300A2020332020342020312020302020202020302020300A2020342020352020312020302020202020302020300A2020322020362020322020302020202020302020300A2020352020372020312020302020202020302020300A2020332020382020312020302020202020302020300A2020352020392020322020302020202020302020300A4D2020454E44
Contributor: BSC
InstType: ESI
InstName: micrOTOF-Q
IoniMethod: ESI
IonPolarity: neg
IsolWidth: 10
TargetGas: Nitrogen
ColEnergy: 10
PeakWidth: 0.032
ChargeDecon: 2
Date: 2010-10-09 19:48:36+02:00
Column: Synergi Fusion RP 2.5 u
Mass: 44.994-394.879
Num Peaks: 6
88.039 218 89.042 8 90.043 1 130.051 999 131.053 57 132.055 9 
