Name: D-Lyxose
CAS: 1114-34-7
MW: 150
Formula: C5H10O5
Synonym: CID: 65550
Synonym: MassBank: BD000808
Synonym: D-Lyxose
Synonym: D-Lyx
Synonym: D-Lyxo-pentose
Structure: 31302031302020302020302020312020302020302020302020302020303939392056323030300A20202032312E3836393020202D31352E3735303620202020302E303030302043202020302020302020322020302020302020302020302020302020302020302020302020300A20202032332E3038393020202D31352E3035303220202020302E303030302043202020302020302020312020302020302020302020302020302020302020302020302020300A20202032302E3637323320202D31352E3035303220202020302E303030302043202020302020302020312020302020302020302020302020302020302020302020302020300A20202032312E3836393020202D31372E3135313620202020302E30303030204F202020302020302020302020302020302020302020302020302020302020302020302020300A20202032332E3038393020202D31332E3634393220202020302E303030302043202020302020302020332020302020302020302020302020302020302020302020302020300A20202032342E3330333220202D31352E3735303620202020302E30303030204F202020302020302020302020302020302020302020302020302020302020302020302020300A20202032302E3637323320202D31332E3634393220202020302E303030302043202020302020302020302020302020302020302020302020302020302020302020302020300A20202031392E3435323320202D31352E3735303620202020302E30303030204F202020302020302020302020302020302020302020302020302020302020302020302020300A20202032312E3836393020202D31322E3934383720202020302E30303030204F202020302020302020302020302020302020302020302020302020302020302020302020300A20202032342E3330333220202D31322E3934383720202020302E30303030204F202020302020302020302020302020302020302020302020302020302020302020302020300A2020312020322020312020302020202020302020300A2020312020332020312020302020202020302020300A2020312020342020312020312020202020302020300A2020322020352020312020302020202020302020300A2020322020362020312020312020202020302020300A2020332020372020312020302020202020302020300A2020332020382020312020362020202020302020300A2020352020392020312020302020202020302020300A2020352031302020312020342020202020302020300A2020372020392020312020302020202020302020300A4D2020454E44
Contributor: MGR
InstType: ESI
InstName: micrOTOF-Q
IoniMethod: ESI
IonPolarity: neg
IsolWidth: 10
TargetGas: Nitrogen
ColEnergy: 10
PeakWidth: 0.029
ChargeDecon: 2
Date: 2010-10-09 19:48:36+02:00
Column: Synergi Fusion RP 2.5 u
Mass: 44.9957-394.908
Num Peaks: 21
71.012 22 89.023 284 90.028 13 101.024 14 104.034 6 113.021 16 118.049 3 119.035 19 127.002 3 131.035 69 
132.038 4 135.029 4 146.947 4 149.046 999 150.048 60 151.053 12 193.036 5 195.050 52 196.053 4 299.097 28 
300.097 4 
