Name: Octanoyl-L-carnitine
CAS: 3671-77-0
MW: 287
Formula: C15H29NO4
Synonym: CID: 123701
Synonym: MassBank: BD000217
Synonym: Octanoyl-L-carnitine
Synonym: (3-Carboxy-2-hydroxypropyl)trimethyl-ammonium octanoate hydroxide inner salt ,DL-octanoylcarnitine ,L-octanoylcarnitine ,O-octanoyl-DL-carnitine ,octanoic acid ester with (+/-)-(3-carboxy-2-hydroxypropyl)trimethylammonium hydroxide inner salt
Structure: 32302031392020302020302020312020302020302020302020302020303939392056323030300A20202032362E3036333020202D31352E3032303320202020302E303030302043202020302020302020322020302020302020302020302020302020302020302020302020300A20202032342E3835323120202D31352E3731353620202020302E30303030204F202020302020302020302020302020302020302020302020302020302020302020302020300A20202032372E3236383220202D31352E3730393820202020302E303030302043202020302020302020302020302020302020302020302020302020302020302020302020300A20202032362E3035373320202D31332E3632343020202020302E303030302043202020302020302020302020302020302020302020302020302020302020302020302020300A20202032332E3634373120202D31352E3032303320202020302E303030302043202020302020302020302020302020302020302020302020302020302020302020302020300A20202032372E3237333920202D31372E3130363120202020302E30303030204E202020302020332020332020302020302020302020302020302020302020302020302020300A20202032372E3236383220202D31322E3932333020202020302E303030302043202020302020302020302020302020302020302020302020302020302020302020302020300A20202032322E3434323120202D31352E3731353620202020302E303030302043202020302020302020302020302020302020302020302020302020302020302020302020300A20202032332E3634373120202D31332E3632393920202020302E30303030204F202020302020302020302020302020302020302020302020302020302020302020302020300A20202032382E3534383720202D31372E3733313820202020302E303030302043202020302020302020302020302020302020302020302020302020302020302020302020300A20202032362E3036333020202D31372E3830373120202020302E303030302043202020302020302020302020302020302020302020302020302020302020302020302020300A20202032372E3633333220202D31382E3538393420202020302E303030302043202020302020302020302020302020302020302020302020302020302020302020302020300A20202032372E3236323420202D31312E3533323520202020302E30303030204F202020302020302020302020302020302020302020302020302020302020302020302020300A20202032382E3437333320202D31332E3632343020202020302E30303030204F202020302020352020302020302020302020302020302020302020302020302020302020300A20202032312E3234323820202D31352E3032363120202020302E303030302043202020302020302020302020302020302020302020302020302020302020302020302020300A20202032302E3034333420202D31352E3732313320202020302E303030302043202020302020302020302020302020302020302020302020302020302020302020302020300A20202031382E3833383320202D31352E3033373620202020302E303030302043202020302020302020302020302020302020302020302020302020302020302020302020300A20202031372E3633333220202D31352E3732373220202020302E303030302043202020302020302020302020302020302020302020302020302020302020302020302020300A20202031362E3432383120202D31352E3034333520202020302E303030302043202020302020302020302020302020302020302020302020302020302020302020302020300A20202031352E3232333120202D31352E3733383820202020302E303030302043202020302020302020302020302020302020302020302020302020302020302020302020300A2020312020322020312020362020202020302020300A2020312020332020312020302020202020302020300A2020312020342020312020302020202020302020300A2020322020352020312020302020202020302020300A2020332020362020312020302020202020302020300A2020342020372020312020302020202020302020300A2020352020382020312020302020202020302020300A2020352020392020322020302020202020302020300A2020362031302020312020302020202020302020300A2020362031312020312020302020202020302020300A2020362031322020312020302020202020302020300A2020372031332020322020302020202020302020300A2020372031342020312020302020202020302020300A2020382031352020312020302020202020302020300A2031352031362020312020302020202020302020300A2031362031372020312020302020202020302020300A2031372031382020312020302020202020302020300A2031382031392020312020302020202020302020300A2031392032302020312020302020202020302020300A4D202043484720203220202036202020312020313420202D310A4D2020454E44
Contributor: BSC
InstType: ESI
InstName: micrOTOF-Q
IoniMethod: ESI
IonPolarity: pos
IsolWidth: 10
TargetGas: Nitrogen
ColEnergy: 10
PeakWidth: 0.04
ChargeDecon: 2
Date: 2010-10-09 19:48:36+02:00
Column: Synergi Fusion RP 2.5 u
Mass: 283.14-300.304
Num Peaks: 4
288.217 999 289.220 171 290.224 22 291.225 2 
