Name: Maleimide
CAS: 541-59-3
MW: 97
Formula: C4H3NO2
Synonym: CID: 10935
Synonym: MassBank: BD000136
Synonym: Maleimide
Synonym: 2,5-Pyrroledione
Structure: 372020372020302020302020302020302020302020302020302020303939392056323030300A20202032322E3937333520202D31352E3333303320202020302E303030302043202020302020302020302020302020302020302020302020302020302020302020302020300A20202032312E3834303020202D31362E3134383220202020302E30303030204E202020302020302020302020302020302020302020302020302020302020302020302020300A20202032322E3534313120202D31332E3939383220202020302E303030302043202020302020302020302020302020302020302020302020302020302020302020302020300A20202032342E3330353720202D31352E3736323520202020302E30303030204F202020302020302020302020302020302020302020302020302020302020302020302020300A20202032302E3730363520202D31352E3333303320202020302E303030302043202020302020302020302020302020302020302020302020302020302020302020302020300A20202032312E3133383920202D31332E3939383220202020302E303030302043202020302020302020302020302020302020302020302020302020302020302020302020300A20202031392E3337343320202D31352E3736323520202020302E30303030204F202020302020302020302020302020302020302020302020302020302020302020302020300A2020312020322020312020302020202020302020300A2020312020332020312020302020202020302020300A2020312020342020322020302020202020302020300A2020322020352020312020302020202020302020300A2020332020362020322020302020202020302020300A2020352020372020322020302020202020302020300A2020352020362020312020302020202020302020300A4D2020454E44
Contributor: BSC
InstType: ESI
InstName: micrOTOF-Q
IoniMethod: ESI
IonPolarity: neg
IsolWidth: 10
TargetGas: Nitrogen
ColEnergy: 10
PeakWidth: 0.03
ChargeDecon: 2
Date: 2010-10-09 19:48:36+02:00
Column: Synergi Fusion RP 2.5 u
Mass: 90.9803-107.041
Num Peaks: 3
96.009 999 97.012 47 98.013 4 
