Name: Isonicotinicacid
CAS: 55-22-1
MW: 123
Formula: C6H5NO2
Synonym: CID: 5922
Synonym: MassBank: BD000070
Synonym: Isonicotinicacid
Synonym: 4-Picolinic acid,pyridine-4-carboxylic acid
Structure: 392020392020302020302020302020302020302020302020302020303939392056323030300A20202032312E3834303020202D31342E3637313620202020302E303030302043202020302020302020302020302020302020302020302020302020302020302020302020300A20202032302E3632343120202D31352E3336393720202020302E303030302043202020302020302020302020302020302020302020302020302020302020302020302020300A20202032332E3035303020202D31352E3336393720202020302E303030302043202020302020302020302020302020302020302020302020302020302020302020302020300A20202032312E3834303020202D31332E3236393720202020302E303030302043202020302020302020302020302020302020302020302020302020302020302020302020300A20202032302E3632343120202D31362E3736353920202020302E303030302043202020302020302020302020302020302020302020302020302020302020302020302020300A20202032332E3035303020202D31362E3736353920202020302E303030302043202020302020302020302020302020302020302020302020302020302020302020302020300A20202032332E3035353920202D31322E3537313520202020302E30303030204F202020302020302020302020302020302020302020302020302020302020302020302020300A20202032302E3633303020202D31322E3536353820202020302E30303030204F202020302020302020302020302020302020302020302020302020302020302020302020300A20202032312E3834303020202D31372E3436393920202020302E30303030204E202020302020302020302020302020302020302020302020302020302020302020302020300A2020312020322020312020302020202020302020300A2020312020332020322020302020202020302020300A2020312020342020312020302020202020302020300A2020322020352020322020302020202020302020300A2020332020362020312020302020202020302020300A2020342020372020312020302020202020302020300A2020342020382020322020302020202020302020300A2020352020392020312020302020202020302020300A2020362020392020322020302020202020302020300A4D2020454E44
Contributor: BSC
InstType: ESI
InstName: micrOTOF-Q
IoniMethod: ESI
IonPolarity: pos
MSMS: 2
IsolWidth: 10
TargetGas: Nitrogen
ColEnergy: 10
PeakWidth: 0.032
ChargeDecon: 2
Date: 2010-10-09 19:48:36+02:00
Column: Synergi Fusion RP 2.5 u
Mass: 44.7975-395.019
Num Peaks: 10
68.052 18 78.035 113 79.043 113 80.051 999 81.054 70 96.045 852 97.048 58 111.032 50 124.039 533 125.042 43 
