Name: 4-Hydroxyphenylethanol
CAS: 501-94-0
MW: 138
Formula: C8H10O2
Synonym: CID: 10393
Synonym: MassBank: BD000605
Synonym: 4-Hydroxyphenylethanol
Synonym: 4-Hydroxyphenylethylalcohol
Synonym: 2-(4-Hydroxyphenyl)ehanol
Structure: 31302031302020302020302020302020302020302020302020302020303939392056323030300A20202031372E3439363520202D31332E3334303620202020302E303030302043202020302020302020302020302020302020302020302020302020302020302020302020300A20202031362E3739373620202D31342E3535303420202020302E303030302043202020302020302020302020302020302020302020302020302020302020302020302020300A20202031362E3830343220202D31322E3133303820202020302E303030302043202020302020302020302020302020302020302020302020302020302020302020302020300A20202031382E3839333920202D31332E3333343220202020302E303030302043202020302020302020302020302020302020302020302020302020302020302020302020300A20202031352E3430303220202D31342E3535303420202020302E303030302043202020302020302020302020302020302020302020302020302020302020302020302020300A20202031352E3430363820202D31322E3132343320202020302E303030302043202020302020302020302020302020302020302020302020302020302020302020302020300A20202031392E3539393020202D31342E3535303420202020302E303030302043202020302020302020302020302020302020302020302020302020302020302020302020300A20202031342E3730313520202D31332E3333343220202020302E303030302043202020302020302020302020302020302020302020302020302020302020302020302020300A20202032312E3030323920202D31342E3535303420202020302E30303030204F202020302020302020302020302020302020302020302020302020302020302020302020300A20202031332E3239373520202D31332E3333343220202020302E30303030204F202020302020302020302020302020302020302020302020302020302020302020302020300A2020312020322020322020302020202020302020300A2020312020332020312020302020202020302020300A2020312020342020312020302020202020302020300A2020322020352020312020302020202020302020300A2020332020362020322020302020202020302020300A2020342020372020312020302020202020302020300A2020352020382020322020302020202020302020300A2020372020392020312020302020202020302020300A2020382031302020312020302020202020302020300A2020362020382020312020302020202020302020300A4D2020454E44
Contributor: MGR
InstType: ESI
InstName: micrOTOF-Q
IoniMethod: ESI
IonPolarity: pos
IsolWidth: 10
TargetGas: Nitrogen
ColEnergy: 10
PeakWidth: 0.028
ChargeDecon: 2
Date: 2010-10-09 19:48:36+02:00
Column: Synergi Fusion RP 2.5 u
Mass: 44.7914-395.04
Num Peaks: 20
77.038 10 91.054 43 92.058 4 93.070 48 94.073 4 95.049 21 102.046 4 103.054 78 104.058 7 105.045 15 
107.051 4 119.052 4 121.066 999 122.069 91 123.068 6 137.029 5 138.067 5 139.075 6 161.058 65 162.075 5 
