Name: Isoguanine
CAS: 3373-53-3
MW: 151
Formula: C5H5N5O
Synonym: CID: 76900
Synonym: MassBank: BD000077
Synonym: Isoguanine
Synonym: 6-Amino-3,7(9)-dihydro-purin-2-one
Synonym: 2H-Purin-2-one
Synonym: 2-Hydroxyadenine
Synonym: 2-Oxyadenineadenine
Synonym: 6-Amino-1,3-dihydro-
Synonym: 6-Amino-1,3-dihydro-2H-purin-2-one
Synonym: 2-Hydroxy-6-aminopurine
Synonym: 6-Amino-9H-purin-2-ol
Synonym: 2-OH-Ade
Synonym: 6-Amino-2-hydroxypurine
Synonym: 6-Amino-1,7-dihydropurin-2-one
Synonym: 2-Oxoadenine
Synonym: Guanopterin
Structure: 31312031322020302020302020302020302020302020302020302020303939392056323030300A20202031352E3139303020202D31332E3635303020202020302E30303030204E202020302020302020302020302020302020302020302020302020302020302020302020300A20202031352E3139303020202D31352E3035303020202020302E303030302043202020302020302020302020302020302020302020302020302020302020302020302020300A20202031362E3430323420202D31352E3735303020202020302E30303030204E202020302020302020302020302020302020302020302020302020302020302020302020300A20202031372E3631343920202D31352E3035303020202020302E303030302043202020302020302020302020302020302020302020302020302020302020302020302020300A20202031372E3631343920202D31332E3635303020202020302E303030302043202020302020302020302020302020302020302020302020302020302020302020302020300A20202031362E3430323420202D31322E3935303020202020302E303030302043202020302020302020302020302020302020302020302020302020302020302020302020300A20202031382E3934363420202D31352E3438323620202020302E30303030204E202020302020302020302020302020302020302020302020302020302020302020302020300A20202031392E3736393320202D31342E3335303020202020302E303030302043202020302020302020302020302020302020302020302020302020302020302020302020300A20202031382E3934363420202D31332E3231373420202020302E30303030204E202020302020302020302020302020302020302020302020302020302020302020302020300A20202031362E3430323420202D31312E3535303220202020302E30303030204E202020302020302020302020302020302020302020302020302020302020302020302020300A20202031332E3937373620202D31352E3735303020202020302E30303030204F202020302020302020302020302020302020302020302020302020302020302020302020300A2020312020322020312020302020202020302020300A2020322020332020312020302020202020302020300A2020332020342020322020302020202020302020300A2020342020352020312020302020202020302020300A2020352020362020322020302020202020302020300A2020312020362020312020302020202020302020300A2020342020372020312020302020202020302020300A2020372020382020322020302020202020302020300A2020382020392020312020302020202020302020300A2020352020392020312020302020202020302020300A2020362031302020312020302020202020302020300A2020322031312020322020302020202020302020300A4D2020454E44
Contributor: BSC
InstType: ESI
InstName: micrOTOF-Q
IoniMethod: ESI
IonPolarity: pos
IsolWidth: 10
TargetGas: Nitrogen
ColEnergy: 10
PeakWidth: 0.026
ChargeDecon: 2
Date: 2010-10-09 19:48:36+02:00
Column: Synergi Fusion RP 2.5 u
Mass: 44.7955-395.018
Num Peaks: 22
124.040 18 131.974 10 135.030 49 137.028 15 143.081 56 144.082 17 145.048 13 146.961 24 149.023 26 152.057 999 
153.058 64 159.970 14 161.066 9 162.094 11 181.953 23 194.117 14 201.057 23 222.992 9 224.130 20 232.155 38 
246.171 26 303.109 10 
