Name: 2-Hydroxysebacic acid
CAS: 103963-71-9
MW: 218
Formula: C10H18O5
Synonym: CID: 128458
Synonym: MassBank: BD000945
Synonym: 2-Hydroxysebacic acid
Synonym: 2-Hydroxy-decandioate
Synonym: 2-Hydroxy-decandioic acid
Synonym: 2-Hydroxydecanedioate
Synonym: 2-Hydroxy-decanedioic acid
Synonym: 2-Hydroxysebacate
Synonym: a-Hydroxysebasate
Synonym: a-Hydroxysebasic acid
Synonym: Alpha-hydroxysebasate
Synonym: Alpha-hydroxysebasic acid
Structure: 31352031342020302020302020302020302020302020302020302020303939392056323030300A20202031302E3232303020202D31342E3938303020202020302E303030302043202020302020302020302020302020302020302020302020302020302020302020302020300A20202031312E3632303020202D31342E3938353220202020302E303030302043202020302020302020302020302020302020302020302020302020302020302020302020300A20202031322E3331353520202D31362E3230303220202020302E303030302043202020302020302020302020302020302020302020302020302020302020302020302020300A20202020392E3531353520202D31362E3138393820202020302E30303030204F202020302020302020302020302020302020302020302020302020302020302020302020300A20202020392E3532343520202D31332E3736353020202020302E30303030204F202020302020302020302020302020302020302020302020302020302020302020302020300A20202031332E3731353520202D31362E3230353320202020302E303030302043202020302020302020302020302020302020302020302020302020302020302020302020300A20202031342E3431313020202D31372E3432303320202020302E303030302043202020302020302020302020302020302020302020302020302020302020302020302020300A20202031352E3831313020202D31372E3432353520202020302E303030302043202020302020302020302020302020302020302020302020302020302020302020302020300A20202031362E3531303720202D31382E3634373820202020302E303030302043202020302020302020302020302020302020302020302020302020302020302020302020300A20202031372E3931303720202D31382E3634373820202020302E303030302043202020302020302020302020302020302020302020302020302020302020302020302020300A20202031382E3631303720202D31372E3433353320202020302E303030302043202020302020302020302020302020302020302020302020302020302020302020302020300A20202032302E3031303720202D31372E3433353320202020302E303030302043202020302020302020302020302020302020302020302020302020302020302020302020300A20202031372E3931303720202D31362E3232333020202020302E30303030204F202020302020302020302020302020302020302020302020302020302020302020302020300A20202032302E3731303720202D31382E3634373820202020302E30303030204F202020302020302020302020302020302020302020302020302020302020302020302020300A20202032302E3731353320202D31362E3231343820202020302E30303030204F202020302020302020302020302020302020302020302020302020302020302020302020300A2020312020322020312020302020202020302020300A2020322020332020312020302020202020302020300A2020312020342020322020302020202020302020300A2020312020352020312020302020202020302020300A2020362020372020312020302020202020302020300A2020372020382020312020302020202020302020300A2020382020392020312020302020202020302020300A2020392031302020312020302020202020302020300A2031302031312020312020302020202020302020300A2031312031322020312020302020202020302020300A2031312031332020312020302020202020302020300A2031322031342020322020302020202020302020300A2031322031352020312020302020202020302020300A2020332020362020312020302020202020302020300A4D2020454E44
Contributor: MGR
InstType: ESI
InstName: micrOTOF-Q
IoniMethod: ESI
IonPolarity: pos
IsolWidth: 10
TargetGas: Nitrogen
ColEnergy: 10
PeakWidth: 0.023
ChargeDecon: 2
Date: 2010-10-09 19:48:36+02:00
Column: Synergi Fusion RP 2.5 u
Mass: 44.7911-395.039
Num Peaks: 29
67.0539 5 81.0680 3 91.0537 4 95.0836 3 109.1007 57 110.1049 5 111.0813 4 119.0851 9 122.0947 3 127.1111 2 
137.0950 16 138.0972 2 149.0227 5 155.1061 70 156.1093 8 173.1168 408 174.1202 44 175.1235 4 183.1009 12 195.0984 5 
201.1116 109 202.1151 13 219.1227 536 220.1260 61 221.1281 8 240.3347 3 241.1053 999 242.1081 101 243.1099 13 
