Name: Gentisic acid
CAS: 490-79-9
MW: 154
Formula: C7H6O4
Synonym: CID: 3469
Synonym: MassBank: BD000838
Synonym: Gentisic acid
Synonym: 2,5-Dihydroxybenzoate
Synonym: 2,5-Dioxybenzoate
Synonym: 2,5-Dioxybenzoic acid
Synonym: 5-Hydroxysalicylic acid
Synonym: Carboxyhydroquinone
Synonym: Gentisate
Synonym: Hydroquinonecarboxylic acid
Structure: 31312031312020302020302020302020302020302020302020302020303939392056323030300A20202032312E3834303220202D31342E3637373720202020302E303030302043202020302020302020302020302020302020302020302020302020302020302020302020300A20202032332E3035373120202D31352E3337353920202020302E303030302043202020302020302020302020302020302020302020302020302020302020302020302020300A20202032302E3632393820202D31352E3337353920202020302E303030302043202020302020302020302020302020302020302020302020302020302020302020302020300A20202032312E3833333920202D31332E3238313520202020302E303030302043202020302020302020302020302020302020302020302020302020302020302020302020300A20202032332E3035373120202D31362E3738343920202020302E303030302043202020302020302020302020302020302020302020302020302020302020302020302020300A20202032342E3236313320202D31342E3637313320202020302E30303030204F202020302020302020302020302020302020302020302020302020302020302020302020300A20202032302E3632393820202D31362E3738343920202020302E303030302043202020302020302020302020302020302020302020302020302020302020302020302020300A20202032332E3033373820202D31322E3538333520202020302E30303030204F202020302020302020302020302020302020302020302020302020302020302020302020300A20202032302E3632333320202D31322E3538393820202020302E30303030204F202020302020302020302020302020302020302020302020302020302020302020302020300A20202032312E3834303220202D31372E3439353920202020302E303030302043202020302020302020302020302020302020302020302020302020302020302020302020300A20202031392E3431393120202D31372E3437303320202020302E30303030204F202020302020302020302020302020302020302020302020302020302020302020302020300A2020312020322020312020302020202020302020300A2020312020332020322020302020202020302020300A2020312020342020312020302020202020302020300A2020322020352020322020302020202020302020300A2020322020362020312020302020202020302020300A2020332020372020312020302020202020302020300A2020342020382020312020302020202020302020300A2020342020392020322020302020202020302020300A2020352031302020312020302020202020302020300A2020372031312020312020302020202020302020300A2020372031302020322020302020202020302020300A4D2020454E44
Contributor: MGR
InstType: ESI
InstName: micrOTOF-Q
IoniMethod: ESI
IonPolarity: neg
IsolWidth: 10
TargetGas: Nitrogen
ColEnergy: 10
PeakWidth: 0.028
ChargeDecon: 2
Date: 2010-10-09 19:48:36+02:00
Column: Synergi Fusion RP 2.5 u
Mass: 44.9954-394.904
Num Peaks: 12
85.027 6 95.012 5 108.021 42 109.029 168 110.033 11 123.009 7 146.941 5 153.020 999 154.023 68 155.022 10 
329.026 47 330.030 8 
