Name: 2-Naphthol
CAS: 135-19-3
MW: 144
Formula: C10H8O
Synonym: CID: 8663
Synonym: MassBank: BD001002
Synonym: 2-Naphthol
Synonym: b-Naphthol
Synonym: Beta-naphthol
Synonym: 2-Hydroxynaphthalene
Synonym: 2-Naphthalenol
Synonym: Beta-hydroxynaphthalene
Structure: 31312031322020302020302020302020302020302020302020302020303939392056323030300A20202031392E3833313120202D31322E3239363020202020302E303030302043202020302020302020302020302020302020302020302020302020302020302020302020300A20202031392E3833313120202D31332E3639373120202020302E303030302043202020302020302020302020302020302020302020302020302020302020302020302020300A20202032312E3034313320202D31342E3339343120202020302E303030302043202020302020302020302020302020302020302020302020302020302020302020302020300A20202032312E3034313320202D31312E3539323020202020302E303030302043202020302020302020302020302020302020302020302020302020302020302020302020300A20202032322E3235313420202D31322E3239363020202020302E303030302043202020302020302020302020302020302020302020302020302020302020302020302020300A20202032322E3234353520202D31332E3639373120202020302E303030302043202020302020302020302020302020302020302020302020302020302020302020302020300A20202032332E3435363620202D31342E3339393120202020302E303030302043202020302020302020302020302020302020302020302020302020302020302020302020300A20202032342E3637333920202D31332E3730373420202020302E303030302043202020302020302020302020302020302020302020302020302020302020302020302020300A20202032342E3638303020202D31322E3330363320202020302E303030302043202020302020302020302020302020302020302020302020302020302020302020302020300A20202032332E3436383620202D31312E3539373220202020302E303030302043202020302020302020302020302020302020302020302020302020302020302020302020300A20202032352E3838353920202D31312E3539323020202020302E30303030204F202020302020302020302020302020302020302020302020302020302020302020302020300A2020312020322020312020302020202020302020300A2020322020332020322020302020202020302020300A2020332020362020312020302020202020302020300A2020352020342020312020302020202020302020300A2020342020312020322020302020202020302020300A2020352020362020322020302020202020302020300A2020362020372020312020302020202020302020300A2020372020382020322020302020202020302020300A2020382020392020312020302020202020302020300A2020392031302020322020302020202020302020300A2031302020352020312020302020202020302020300A2020392031312020312020302020202020302020300A4D2020454E44
Contributor: Bruker Library
InstType: ESI
InstName: micrOTOF-Q
IoniMethod: ESI
IonPolarity: pos
IsolWidth: 10
TargetGas: Nitrogen
ColEnergy: 10
PeakWidth: 0.026
ChargeDecon: 2
Date: 2010-10-09 19:48:36+02:00
Column: Synergi Fusion RP 2.5 u
Mass: 44.7908-395.038
Num Peaks: 25
91.055 4 103.054 8 115.054 20 116.061 3 117.070 66 118.074 6 119.084 5 122.096 6 126.046 4 127.054 15 
128.060 2 144.058 22 144.622 2 145.065 999 146.068 112 147.071 7 149.023 6 155.061 93 156.064 10 286.100 5 
287.108 64 288.112 13 309.091 99 310.094 21 311.098 2 
