Name: MassBank: BD000566
CAS: 99-50-3
MW: 154
Formula: C7H6O4
Synonym: CID: 72
Synonym: MassBank: BD000566
Synonym: 3,4-Dihydroxybenzoic acid
Synonym: 3,4-Dihydroxybenzoate
Synonym: 4,5-Dihydroxybenzoic acid
Synonym: 4-Carboxy-1,2-dihydroxybenzene
Synonym: Beta-Resorcylate
Synonym: Beta-Resorcylic acid
Synonym: b-Resorcylate
Synonym: b-Resorcylic acid
Synonym: Protocatechuic acid
Synonym: Protocatechuate
Synonym: Protocatehuic acid
Structure: 31312031312020302020302020302020302020302020302020302020303939392056323030300A20202031362E3537383720202D31322E3236383820202020302E303030302043202020302020302020302020302020302020302020302020302020302020302020302020300A20202031372E3739303220202D31322E3936373820202020302E303030302043202020302020302020302020302020302020302020302020302020302020302020302020300A20202031352E3336313320202D31322E3936373820202020302E303030302043202020302020302020302020302020302020302020302020302020302020302020302020300A20202031362E3538343520202D31302E3837303720202020302E303030302043202020302020302020302020302020302020302020302020302020302020302020302020300A20202031372E3739303220202D31342E3337313520202020302E303030302043202020302020302020302020302020302020302020302020302020302020302020302020300A20202031352E3336313320202D31342E3337313520202020302E303030302043202020302020302020302020302020302020302020302020302020302020302020302020300A20202031352E3337323920202D31302E3137313720202020302E30303030204F202020302020302020302020302020302020302020302020302020302020302020302020300A20202031372E3739363120202D31302E3136363020202020302E30303030204F202020302020302020302020302020302020302020302020302020302020302020302020300A20202031362E3537383720202D31352E3037303520202020302E303030302043202020302020302020302020302020302020302020302020302020302020302020302020300A20202031382E3939363020202D31352E3036343820202020302E30303030204F202020302020302020302020302020302020302020302020302020302020302020302020300A20202031362E3538343520202D31362E3436383520202020302E30303030204F202020302020302020302020302020302020302020302020302020302020302020302020300A2020312020322020322020302020202020302020300A2020312020332020312020302020202020302020300A2020312020342020312020302020202020302020300A2020322020352020312020302020202020302020300A2020332020362020322020302020202020302020300A2020342020372020312020302020202020302020300A2020342020382020322020302020202020302020300A2020352020392020322020302020202020302020300A2020352031302020312020302020202020302020300A2020392031312020312020302020202020302020300A2020362020392020312020302020202020302020300A4D2020454E44
Contributor: MGR
InstType: ESI
InstName: micrOTOF-Q
IoniMethod: ESI
IonPolarity: pos
IsolWidth: 10
TargetGas: Nitrogen
ColEnergy: 10
PeakWidth: 0.026
ChargeDecon: 2
Date: 2010-10-09 19:48:36+02:00
Column: Synergi Fusion RP 2.5 u
Mass: 44.7905-395.036
Num Peaks: 14
93.033 73 109.028 11 111.044 315 112.048 21 130.064 7 137.023 189 138.027 14 144.080 13 146.960 6 149.022 16 
153.017 11 155.033 999 156.036 74 157.038 10 
