Name: 5-Methylcytidine
CAS: 2140-61-6
MW: 257
Formula: C10H15N3O5
Synonym: CID: 262543
Synonym: MassBank: BD000708
Synonym: 5-Methylcytidine
Synonym: 5-Methyl-cytidine
Structure: 31382031392020302020302020312020302020302020302020302020303939392056323030300A20202031372E3232303020202D31342E3730303020202020302E30303030204E202020302020302020302020302020302020302020302020302020302020302020302020300A20202031372E3932303020202D31352E3931323420202020302E303030302043202020302020302020302020302020302020302020302020302020302020302020302020300A20202031392E3332303020202D31352E3931323420202020302E303030302043202020302020302020302020302020302020302020302020302020302020302020302020300A20202032302E3032303020202D31342E3730303020202020302E303030302043202020302020302020302020302020302020302020302020302020302020302020302020300A20202031392E3332303020202D31332E3438373620202020302E30303030204E202020302020302020302020302020302020302020302020302020302020302020302020300A20202031372E3932303020202D31332E3438373620202020302E303030302043202020302020302020302020302020302020302020302020302020302020302020302020300A20202032312E3432303020202D31342E3730303020202020302E30303030204E202020302020302020302020302020302020302020302020302020302020302020302020300A20202032302E3031303420202D31372E3130373920202020302E303030302043202020302020302020302020302020302020302020302020302020302020302020302020300A20202031372E3232393620202D31322E3239323120202020302E30303030204F202020302020302020302020302020302020302020302020302020302020302020302020300A20202031352E3832303020202D31342E3730303020202020302E303030302043202020302020302020302020302020302020302020302020302020302020302020302020300A20202031342E3939373120202D31332E3536373420202020302E303030302043202020302020302020302020302020302020302020302020302020302020302020302020300A20202031332E3636353620202D31342E3030303020202020302E303030302043202020302020302020302020302020302020302020302020302020302020302020302020300A20202031332E3636353620202D31352E3430303020202020302E303030302043202020302020302020302020302020302020302020302020302020302020302020302020300A20202031342E3939373120202D31352E3833323620202020302E30303030204F202020302020302020302020302020302020302020302020302020302020302020302020300A20202031322E3532323820202D31362E3233303420202020302E303030302043202020302020302020302020302020302020302020302020302020302020302020302020300A20202031352E3432343220202D31322E3235323320202020302E30303030204F202020302020302020302020302020302020302020302020302020302020302020302020300A20202031322E3532323820202D31332E3136393620202020302E30303030204F202020302020302020302020302020302020302020302020302020302020302020302020300A20202031312E3235333420202D31352E3636353320202020302E30303030204F202020302020302020302020302020302020302020302020302020302020302020302020300A2020312020322020312020302020202020302020300A2020322020332020322020302020202020302020300A2020332020342020312020302020202020302020300A2020342020352020322020302020202020302020300A2020352020362020312020302020202020302020300A2020312020362020312020302020202020302020300A2020342020372020312020302020202020302020300A2020332020382020312020302020202020302020300A2020362020392020322020302020202020302020300A2020312031302020312020302020202020302020300A2031302031312020312020302020202020302020300A2031312031322020312020302020202020302020300A2031322031332020312020302020202020302020300A2031332031342020312020302020202020302020300A2031302031342020312020302020202020302020300A2031332031352020312020362020202020302020300A2031312031362020312020312020202020302020300A2031322031372020312020312020202020302020300A2031352031382020312020302020202020302020300A4D2020454E44
Contributor: MGR
InstType: ESI
InstName: micrOTOF-Q
IoniMethod: ESI
IonPolarity: pos
IsolWidth: 10
TargetGas: Nitrogen
ColEnergy: 10
PeakWidth: 0.027
ChargeDecon: 2
Date: 2010-10-09 19:48:36+02:00
Column: Synergi Fusion RP 2.5 u
Mass: 44.7916-395.042
Num Peaks: 13
108.056 1 109.040 4 125.688 2 126.067 999 127.069 64 128.071 4 146.961 1 149.023 2 181.952 2 257.282 1 
258.110 486 259.112 56 260.115 7 
