Name: 1-Methylxanthine
CAS: 6136-37-4
MW: 166
Formula: C6H6N4O2
Synonym: CID: 80220
Synonym: MassBank: BD001020
Synonym: 1-Methylxanthine
Structure: 31322031332020302020302020302020302020302020302020302020303939392056323030300A20202032312E3031313520202D31342E3933373620202020302E303030302043202020302020302020302020302020302020302020302020302020302020302020302020300A20202032312E3031313520202D31362E3336333520202020302E303030302043202020302020302020302020302020302020302020302020302020302020302020302020300A20202032322E3231353420202D31342E3233303520202020302E303030302043202020302020302020302020302020302020302020302020302020302020302020302020300A20202031392E3730383320202D31342E3530353120202020302E30303030204E202020302020302020302020302020302020302020302020302020302020302020302020300A20202032322E3231353420202D31372E3034373220202020302E30303030204E202020302020302020332020302020302020302020302020302020302020302020302020300A20202031392E3730383320202D31362E3739363020202020302E30303030204E202020302020302020302020302020302020302020302020302020302020302020302020300A20202032332E3433363720202D31342E3936363820202020302E30303030204E202020302020302020332020302020302020302020302020302020302020302020302020300A20202032322E3231353420202D31322E3835313320202020302E30303030204F202020302020302020302020302020302020302020302020302020302020302020302020300A20202031382E3839303120202D31352E3636323320202020302E303030302043202020302020302020302020302020302020302020302020302020302020302020302020300A20202032332E3433363720202D31362E3331313020202020302E303030302043202020302020302020302020302020302020302020302020302020302020302020302020300A20202032342E3638373320202D31342E3238383920202020302E303030302043202020302020302020302020302020302020302020302020302020302020302020302020300A20202032342E3638373320202D31372E3031323220202020302E30303030204F202020302020302020302020302020302020302020302020302020302020302020302020300A2020312020322020322020302020202020302020300A2020312020332020312020302020202020302020300A2020312020342020312020302020202020302020300A2020322020352020312020302020202020302020300A2020322020362020312020302020202020302020300A2020332020372020312020302020202020302020300A2020332020382020322020302020202020302020300A2020342020392020312020302020202020302020300A2020352031302020312020302020202020302020300A2020372031312020312020302020202020302020300A2031302031322020322020302020202020302020300A2020362020392020322020302020202020302020300A2020372031302020312020302020202020302020300A4D2020454E44
Contributor: Bruker Library
InstType: ESI
InstName: micrOTOF-Q
IoniMethod: ESI
IonPolarity: neg
IsolWidth: 10
TargetGas: Nitrogen
ColEnergy: 10
PeakWidth: 0.026
ChargeDecon: 2
Date: 2010-10-09 19:48:36+02:00
Column: Synergi Fusion RP 2.5 u
Mass: 44.9893-394.861
Num Peaks: 11
108.021 6 112.986 11 146.940 19 154.972 6 165.042 999 166.044 69 167.046 6 174.957 6 180.973 8 206.972 11 
353.071 6 
