Name: (DL) isocitric acid
CAS: 320-77-4
MW: 192
Formula: C6H8O7
Synonym: CID: 1198
Synonym: MassBank: BD000883
Synonym: (DL) isocitric acid
Synonym: 1-Hydroxytricarballylic acid
Synonym: Isocitrate
Synonym: 1-Hydroxypropane-1,2,3-tricarboxylic acid
Synonym: D,L-Isocitric acid
Structure: 31332031322020302020302020302020302020302020302020302020303939392056323030300A20202032322E3438363620202D31342E3639303220202020302E303030302043202020302020302020332020302020302020302020302020302020302020302020302020300A20202032332E3639323720202D31352E3339313520202020302E303030302043202020302020302020332020302020302020302020302020302020302020302020302020300A20202032312E3237333420202D31352E3339313520202020302E303030302043202020302020302020302020302020302020302020302020302020302020302020302020300A20202032322E3438363620202D31332E3239333320202020302E303030302043202020302020302020302020302020302020302020302020302020302020302020302020300A20202032332E3639323720202D31362E3739343220202020302E303030302043202020302020302020302020302020302020302020302020302020302020302020302020300A20202032342E3931313520202D31342E3639303220202020302E30303030204F202020302020302020302020302020302020302020302020302020302020302020302020300A20202032302E3036313620202D31342E3639303220202020302E303030302043202020302020302020302020302020302020302020302020302020302020302020302020300A20202032332E3639383420202D31322E3539373820202020302E30303030204F202020302020302020302020302020302020302020302020302020302020302020302020300A20202032312E3236373620202D31322E3539373820202020302E30303030204F202020302020302020302020302020302020302020302020302020302020302020302020300A20202032322E3438363620202D31372E3438393920202020302E30303030204F202020302020302020302020302020302020302020302020302020302020302020302020300A20202032342E3931313520202D31372E3438393920202020302E30303030204F202020302020302020302020302020302020302020302020302020302020302020302020300A20202032302E3036373320202D31332E3239333320202020302E30303030204F202020302020302020302020302020302020302020302020302020302020302020302020300A20202031382E3834383420202D31352E3339373520202020302E30303030204F202020302020302020302020302020302020302020302020302020302020302020302020300A2020312020322020312020302020202020302020300A2020312020332020312020302020202020302020300A2020312020342020312020302020202020302020300A2020322020352020312020302020202020302020300A2020322020362020312020302020202020302020300A2020332020372020312020302020202020302020300A2020342020382020312020302020202020302020300A2020342020392020322020302020202020302020300A2020352031302020312020302020202020302020300A2020352031312020322020302020202020302020300A2020372031322020312020302020202020302020300A2020372031332020322020302020202020302020300A4D2020454E44
Contributor: MGR
InstType: ESI
InstName: micrOTOF-Q
IoniMethod: ESI
IonPolarity: neg
IsolWidth: 10
TargetGas: Nitrogen
ColEnergy: 10
PeakWidth: 0.029
ChargeDecon: 2
Date: 2010-10-09 19:48:36+02:00
Column: Synergi Fusion RP 2.5 u
Mass: 44.9932-394.891
Num Peaks: 22
72.992 5 85.028 24 86.031 1 101.024 2 111.009 167 112.012 8 113.008 1 117.019 33 118.022 2 129.019 49 
130.022 3 147.029 4 154.998 54 156.002 4 173.009 349 174.012 22 175.013 5 191.021 999 192.022 73 193.024 17 
194.026 1 194.991 1 
