Name: Cinnamic acid ethyl ester
MW: 176
Formula: C11H12O2
Synonym: CID: 637758
Synonym: MassBank: BD000381
Synonym: Cinnamic acid ethyl ester
Structure: 373634390A20202D4F454368656D2D3032313930383036303332440A0A2031332031332020302020202020302020302020302020302020302020303939392056323030300A20202020342E3539383120202020312E3735303020202020302E30303030204F202020302020302020302020302020302020302020302020302020302020302020302020300A20202020322E3836363020202020312E3735303020202020302E30303030204F202020302020302020302020302020302020302020302020302020302020302020302020300A20202020322E383636302020202D312E3235303020202020302E303030302043202020302020302020302020302020302020302020302020302020302020302020302020300A20202020332E373332312020202D312E3735303020202020302E303030302043202020302020302020302020302020302020302020302020302020302020302020302020300A20202020322E303030302020202D312E3735303020202020302E303030302043202020302020302020302020302020302020302020302020302020302020302020302020300A20202020322E383636302020202D302E3235303020202020302E303030302043202020302020302020302020302020302020302020302020302020302020302020302020300A20202020342E3539383120202020322E3735303020202020302E303030302043202020302020302020302020302020302020302020302020302020302020302020302020300A20202020332E373332312020202D322E3735303020202020302E303030302043202020302020302020302020302020302020302020302020302020302020302020302020300A20202020322E303030302020202D322E3735303020202020302E303030302043202020302020302020302020302020302020302020302020302020302020302020302020300A20202020322E383636302020202D332E3235303020202020302E303030302043202020302020302020302020302020302020302020302020302020302020302020302020300A20202020332E3733323120202020302E3235303020202020302E303030302043202020302020302020302020302020302020302020302020302020302020302020302020300A20202020352E3436343120202020332E3235303020202020302E303030302043202020302020302020302020302020302020302020302020302020302020302020302020300A20202020332E3733323120202020312E3235303020202020302E303030302043202020302020302020302020302020302020302020302020302020302020302020302020300A2020312020372020312020302020302020302020300A2020312031332020312020302020302020302020300A2020322031332020322020302020302020302020300A2020332020342020322020302020302020302020300A2020332020352020312020302020302020302020300A2020332020362020312020302020302020302020300A2020342020382020312020302020302020302020300A2020352020392020322020302020302020302020300A2020362031312020322020332020302020302020300A2020372031322020312020302020302020302020300A2020382031302020322020302020302020302020300A2020392031302020312020302020302020302020300A2031312031332020312020302020302020302020300A4D2020454E44
Contributor: BSC
InstType: ESI
InstName: micrOTOF-Q
IoniMethod: ESI
IonPolarity: pos
IsolWidth: 10
TargetGas: Nitrogen
ColEnergy: 10
PeakWidth: 0.03
ChargeDecon: 2
Date: 2010-10-09 19:48:36+02:00
Column: Synergi Fusion RP 2.5 u
Mass: 172.05-189.14
Num Peaks: 3
177.091 999 178.094 120 179.098 11 
