Name: 2-Hydroxypalmitic acid
CAS: 764-67-0
MW: 272
Formula: C16H32O3
Synonym: CID: 92836
Synonym: MassBank: BD000934
Synonym: 2-Hydroxypalmitic acid
Synonym: Alpha-hydroxypalmitic acid
Synonym: 2-Hydroxyhexadecanoate
Synonym: 2-Hydroxyhexadecanoic acid
Synonym: 2-Hydroxy-hexadecanoic acid
Synonym: 2-Hydroxy palmitic acid
Synonym: DL-a-hydroxypalmitic acid
Synonym: DL-alpha-hydroxypalmitic acid
Structure: 31392031382020302020302020302020302020302020302020302020303939392056323030300A20202020382E3534303020202D31362E3636303020202020302E303030302043202020302020302020302020302020302020302020302020302020302020302020302020300A20202020392E3735323420202D31352E3936303020202020302E303030302043202020302020302020302020302020302020302020302020302020302020302020302020300A20202031302E3936343920202D31362E3636303020202020302E303030302043202020302020302020302020302020302020302020302020302020302020302020302020300A20202031322E3137373320202D31352E3936303020202020302E303030302043202020302020302020302020302020302020302020302020302020302020302020302020300A20202031332E3338393720202D31362E3636303020202020302E303030302043202020302020302020302020302020302020302020302020302020302020302020302020300A20202031342E3630323220202D31352E3936303020202020302E303030302043202020302020302020302020302020302020302020302020302020302020302020302020300A20202031352E3831343620202D31362E3636303020202020302E303030302043202020302020302020302020302020302020302020302020302020302020302020302020300A20202031372E3032373020202D31352E3936303020202020302E303030302043202020302020302020302020302020302020302020302020302020302020302020302020300A20202031382E3233393520202D31362E3636303020202020302E303030302043202020302020302020302020302020302020302020302020302020302020302020302020300A20202031392E3435313920202D31352E3936303020202020302E303030302043202020302020302020302020302020302020302020302020302020302020302020302020300A20202032302E3636343420202D31362E3636303020202020302E303030302043202020302020302020302020302020302020302020302020302020302020302020302020300A20202032312E3837363820202D31352E3936303020202020302E303030302043202020302020302020302020302020302020302020302020302020302020302020302020300A20202032332E3038393220202D31362E3636303020202020302E303030302043202020302020302020302020302020302020302020302020302020302020302020302020300A20202032342E3330313720202D31352E3936303020202020302E303030302043202020302020302020302020302020302020302020302020302020302020302020302020300A20202032352E3531343120202D31362E3636303020202020302E303030302043202020302020302020302020302020302020302020302020302020302020302020302020300A20202032362E3732363520202D31352E3936303020202020302E303030302043202020302020302020302020302020302020302020302020302020302020302020302020300A20202032372E3933393020202D31362E3636303020202020302E30303030204F202020302020302020302020302020302020302020302020302020302020302020302020300A20202032362E3732363520202D31342E3536303120202020302E30303030204F202020302020302020302020302020302020302020302020302020302020302020302020300A20202032352E3531343120202D31382E3035393620202020302E30303030204F202020302020302020302020302020302020302020302020302020302020302020302020300A2020312020322020312020302020202020302020300A2020322020332020312020302020202020302020300A2020332020342020312020302020202020302020300A2020342020352020312020302020202020302020300A2020352020362020312020302020202020302020300A2020362020372020312020302020202020302020300A2020372020382020312020302020202020302020300A2020382020392020312020302020202020302020300A2020392031302020312020302020202020302020300A2031302031312020312020302020202020302020300A2031312031322020312020302020202020302020300A2031322031332020312020302020202020302020300A2031332031342020312020302020202020302020300A2031342031352020312020302020202020302020300A2031352031362020312020302020202020302020300A2031362031372020312020302020202020302020300A2031362031382020322020302020202020302020300A2031352031392020312020302020202020302020300A4D2020454E44
Contributor: MGR
InstType: ESI
InstName: micrOTOF-Q
IoniMethod: ESI
IonPolarity: pos
IsolWidth: 10
TargetGas: Nitrogen
ColEnergy: 10
PeakWidth: 0.5
ChargeDecon: 2
Date: 2010-10-09 19:48:36+02:00
Column: Synergi Fusion RP 2.5 u
Mass: 268.182-285.304
Num Peaks: 4
273.24 999 274.25 178 275.25 21 276.25 2 
