Name: D-Panthenol
CAS: 81-13-0
MW: 205
Formula: C9H19NO4
Synonym: CID: 131204
Synonym: MassBank: BD000818
Synonym: D-Panthenol
Synonym: (R)-(+)-2,4-Dihydroxy-N-(3-hydroxypropyl)-3,3-dimethylbutyramide
Synonym: (R)-2,4-Dihydroxy-3,3-dimethylbutyric 3-hydroxypropylamide
Synonym: Dexpanthenol
Synonym: Provitamin B
Synonym: D-Pantothenyl alcohol
Structure: 31342031332020302020302020312020302020302020302020302020303939392056323030300A20202031362E3432353820202D31352E3433313920202020302E30303030204F202020302020302020302020302020302020302020302020302020302020302020302020300A20202031372E3632343820202D31342E3733393620202020302E303030302043202020302020302020302020302020302020302020302020302020302020302020302020300A20202031382E3832333820202D31352E3433313920202020302E303030302043202020302020302020302020302020302020302020302020302020302020302020302020300A20202032302E3032323720202D31342E3733393620202020302E303030302043202020302020302020302020302020302020302020302020302020302020302020302020300A20202032312E3232313720202D31352E3433313920202020302E303030302043202020302020302020302020302020302020302020302020302020302020302020302020300A20202032322E3432303720202D31342E3733393620202020302E30303030204E202020302020302020302020302020302020302020302020302020302020302020302020300A20202032332E3631393720202D31352E3433313920202020302E303030302043202020302020302020302020302020302020302020302020302020302020302020302020300A20202032342E3831383520202D31342E3733393620202020302E303030302043202020302020302020302020302020302020302020302020302020302020302020302020300A20202032362E3031373520202D31352E3433313920202020302E303030302043202020302020302020302020302020302020302020302020302020302020302020302020300A20202032372E3231363520202D31342E3733393620202020302E30303030204F202020302020302020302020302020302020302020302020302020302020302020302020300A20202031372E3834343820202D31362E3534393220202020302E303030302043202020302020302020302020302020302020302020302020302020302020302020302020300A20202031392E3830323720202D31362E3534393220202020302E303030302043202020302020302020302020302020302020302020302020302020302020302020302020300A20202032302E3032323720202D31332E3335353220202020302E30303030204F202020302020302020302020302020302020302020302020302020302020302020302020300A20202032312E3232313720202D31362E3831363220202020302E30303030204F202020302020302020302020302020302020302020302020302020302020302020302020300A2020312020322020312020302020202020302020300A2020322020332020312020302020202020302020300A2020332020342020312020302020202020302020300A2020342020352020312020302020202020302020300A2020352020362020312020302020202020302020300A2020362020372020312020302020202020302020300A2020372020382020312020302020202020302020300A2020382020392020312020302020202020302020300A2020392031302020312020302020202020302020300A2020332031312020312020302020202020302020300A2020332031322020312020302020202020302020300A2020342031332020312020312020202020302020300A2020352031342020322020302020202020302020300A4D2020454E44
Contributor: MGR
InstType: ESI
InstName: micrOTOF-Q
IoniMethod: ESI
IonPolarity: pos
IsolWidth: 10
TargetGas: Nitrogen
ColEnergy: 10
PeakWidth: 0.03
ChargeDecon: 2
Date: 2010-10-09 19:48:36+02:00
Column: Synergi Fusion RP 2.5 u
Mass: 201.089-218.191
Num Peaks: 3
206.139 999 207.142 105 208.144 13 
