Name: 2-Phenylbutyric acid
CAS: 90-27-7
MW: 164
Formula: C10H12O2
Synonym: CID: 7012
Synonym: MassBank: BD000981
Synonym: 2-Phenylbutyric acid
Synonym: 2-Phenylbutanoate
Synonym: (RS)-2-phenylbutanoate
Synonym: (RS)-2-phenylbutanoic acid
Synonym: 2-Phenylbutyrate
Synonym: 2-Phenyl-butyric acid
Synonym: a-Ethyl-a-toluate
Synonym: a-Ethyl-a-toluic acid
Synonym: a-Ethylbenzeneacetate
Synonym: a-Ethylbenzeneacetic acid
Synonym: a-Ethyl-benzeneacetic acid
Synonym: a-Ethylphenylacetate
Synonym: a-Ethylphenylacetic acid
Synonym: Alpha-ethyl-alpha-toluate
Synonym: Alpha-ethyl-alpha-toluic acid
Synonym: Alpha-ethylbenzeneacetate
Synonym: Alpha-ethylbenzeneacetic acid
Synonym: Alpha-ethylphenylacetate
Synonym: Alpha-ethylphenylacetic acid
Synonym: Alpha-phenyl butyric acid
Synonym: Alpha-phenylbutyrate
Synonym: a-Phenylbutyrate
Synonym: a-Phenylbutyric acid
Structure: 31322031322020302020302020302020302020302020302020302020303939392056323030300A20202031352E3333303020202D31352E3832303020202020302E303030302043202020302020302020302020302020302020302020302020302020302020302020302020300A20202031352E3333303020202D31372E3232303020202020302E303030302043202020302020302020302020302020302020302020302020302020302020302020302020300A20202031362E3534323420202D31372E3932303020202020302E303030302043202020302020302020302020302020302020302020302020302020302020302020302020300A20202031372E3735343920202D31372E3232303020202020302E303030302043202020302020302020302020302020302020302020302020302020302020302020302020300A20202031372E3735343920202D31352E3832303020202020302E303030302043202020302020302020302020302020302020302020302020302020302020302020302020300A20202031362E3534323420202D31352E3132303020202020302E303030302043202020302020302020302020302020302020302020302020302020302020302020302020300A20202031362E3534323420202D31332E3732303220202020302E303030302043202020302020302020302020302020302020302020302020302020302020302020302020300A20202031352E3331333220202D31332E3031303320202020302E303030302043202020302020302020302020302020302020302020302020302020302020302020302020300A20202031372E3733383020202D31332E3032393820202020302E303030302043202020302020302020302020302020302020302020302020302020302020302020302020300A20202031352E3331333420202D31312E3632303120202020302E303030302043202020302020302020302020302020302020302020302020302020302020302020302020300A20202031372E3733383020202D31312E3632393820202020302E30303030204F202020302020302020302020302020302020302020302020302020302020302020302020300A20202031382E3932353220202D31332E3731353320202020302E30303030204F202020302020302020302020302020302020302020302020302020302020302020302020300A2020312020322020322020302020202020302020300A2020322020332020312020302020202020302020300A2020332020342020322020302020202020302020300A2020342020352020312020302020202020302020300A2020352020362020322020302020202020302020300A2020312020362020312020302020202020302020300A2020362020372020312020302020202020302020300A2020372020382020312020302020202020302020300A2020372020392020312020302020202020302020300A2020382031302020312020302020202020302020300A2020392031312020312020302020202020302020300A2020392031322020322020302020202020302020300A4D2020454E44
Contributor: MGR
InstType: ESI
InstName: micrOTOF-Q
IoniMethod: ESI
IonPolarity: neg
IsolWidth: 10
TargetGas: Nitrogen
ColEnergy: 10
PeakWidth: 0.03
ChargeDecon: 2
Date: 2010-10-09 19:48:36+02:00
Column: Synergi Fusion RP 2.5 u
Mass: 158.034-174.119
Num Peaks: 3
163.076 999 164.080 110 165.082 10 
