Name: L-Alpha-hydroxy isovalericacid
CAS: 503-74-2
MW: 118
Formula: C5H10O3
Synonym: CID: 853180
Synonym: MassBank: BD000116
Synonym: L-Alpha-hydroxy isovalericacid
Synonym: (2S)-2-Hydroxy-3-methylbutanoic acid
Structure: 382020372020302020302020312020302020302020302020302020303939392056323030300A20202020392E3130303020202D31342E3134303020202020302E303030302043202020302020302020302020302020302020302020302020302020302020302020302020300A20202031302E3331323420202D31332E3434303020202020302E303030302043202020302020302020302020302020302020302020302020302020302020302020302020300A20202031312E3532343920202D31342E3134303020202020302E303030302043202020302020302020302020302020302020302020302020302020302020302020302020300A20202031322E3733373320202D31332E3434303020202020302E303030302043202020302020302020302020302020302020302020302020302020302020302020302020300A20202031332E3934393720202D31342E3134303020202020302E30303030204F202020302020302020302020302020302020302020302020302020302020302020302020300A20202031302E3331323420202D31322E3034303220202020302E303030302043202020302020302020302020302020302020302020302020302020302020302020302020300A20202031312E3532343920202D31352E3533393820202020302E30303030204F202020302020302020302020302020302020302020302020302020302020302020302020300A20202031322E3733373320202D31322E3034303020202020302E30303030204F202020302020302020302020302020302020302020302020302020302020302020302020300A2020312020322020312020302020202020302020300A2020322020332020312020302020202020302020300A2020332020342020312020302020202020302020300A2020342020352020312020302020202020302020300A2020322020362020312020302020202020302020300A2020332020372020312020312020202020302020300A2020342020382020322020302020202020302020300A4D2020454E44
Contributor: BSC
InstType: ESI
InstName: micrOTOF-Q
IoniMethod: ESI
IonPolarity: pos
IsolWidth: 10
TargetGas: Nitrogen
ColEnergy: 10
PeakWidth: 0.026
ChargeDecon: 2
Date: 2010-10-09 19:48:36+02:00
Column: Synergi Fusion RP 2.5 u
Mass: 44.8006-395.037
Num Peaks: 60
73.067 553 74.070 28 91.075 103 92.079 7 101.043 14 106.028 6 115.035 34 119.070 999 120.073 55 137.080 198 
138.082 11 141.052 54 144.081 22 147.043 11 149.024 12 155.038 8 156.056 157 156.557 18 161.046 48 162.089 17 
163.007 32 165.056 8 171.031 14 173.117 8 181.021 12 189.041 81 190.042 8 191.028 9 191.128 22 197.077 126 
197.579 22 201.054 8 206.072 12 207.049 8 209.010 10 217.053 26 224.129 13 226.984 7 235.074 7 237.008 6 
237.136 19 245.047 13 246.055 18 253.105 24 261.087 14 262.057 7 263.061 85 264.063 12 265.064 9 279.105 54 
280.102 7 281.099 22 289.060 12 290.048 16 291.056 210 292.059 29 293.057 36 295.052 15 308.060 84 309.064 25 
