Name: Naringin
CAS: 10236-47-2
MW: 580
Formula: C27H32O14
Synonym: CID: 4441
Synonym: MassBank: BD001006
Synonym: Naringin
Structure: 34312034352020302020302020312020302020302020302020302020303939392056323030300A20202032332E3131353820202D31322E3131313520202020302E303030302043202020302020302020302020302020302020302020302020302020302020302020302020300A20202032332E3131303120202D31332E3439353820202020302E303030302043202020302020302020302020302020302020302020302020302020302020302020302020300A20202032342E3331393120202D31312E3432383220202020302E30303030204F202020302020302020302020302020302020302020302020302020302020302020302020300A20202032312E3933363120202D31312E3432323320202020302E303030302043202020302020302020302020302020302020302020302020302020302020302020302020300A20202032342E3330373420202D31342E3138353020202020302E303030302043202020302020302020302020302020302020302020302020302020302020302020302020300A20202032312E3933363120202D31342E3137393020202020302E303030302043202020302020302020302020302020302020302020302020302020302020302020302020300A20202032352E3530343720202D31322E3131373420202020302E303030302043202020302020302020312020302020302020302020302020302020302020302020302020300A20202032302E3733323920202D31322E3131313520202020302E303030302043202020302020302020302020302020302020302020302020302020302020302020302020300A20202032352E3439383820202D31332E3530313520202020302E303030302043202020302020302020302020302020302020302020302020302020302020302020302020300A20202032342E3330313520202D31352E3535373420202020302E30303030204F202020302020302020302020302020302020302020302020302020302020302020302020300A20202032302E3733323920202D31332E3439353820202020302E303030302043202020302020302020302020302020302020302020302020302020302020302020302020300A20202032312E3933363120202D31352E3535313720202020302E30303030204F202020302020302020302020302020302020302020302020302020302020302020302020300A20202031392E3534313520202D31312E3431363520202020302E30303030204F202020302020302020302020302020302020302020302020302020302020302020302020300A20202031382E3039383920202D31322E3134303820202020302E303030302043202020302020302020312020302020302020302020302020302020302020302020302020300A20202031382E3039383920202D31332E3531333220202020302E303030302043202020302020302020322020302020302020302020302020302020302020302020302020300A20202031362E3931333320202D31312E3435313620202020302E30303030204F202020302020302020302020302020302020302020302020302020302020302020302020300A20202031392E3236363920202D31342E3438323720202020302E30303030204F202020302020302020302020302020302020302020302020302020302020302020302020300A20202031362E3931333320202D31342E3230383320202020302E303030302043202020302020302020322020302020302020302020302020302020302020302020302020300A20202031352E3731353920202D31322E3134303820202020302E303030302043202020302020302020312020302020302020302020302020302020302020302020302020300A20202031392E3236363920202D31362E3535303320202020302E303030302043202020302020302020312020302020302020302020302020302020302020302020302020300A20202031352E3731353920202D31332E3531333220202020302E303030302043202020302020302020312020302020302020302020302020302020302020302020302020300A20202031362E3931393020202D31352E3538303820202020302E30303030204F202020302020302020302020302020302020302020302020302020302020302020302020300A20202031342E3533303320202D31312E3435313620202020302E303030302043202020302020302020302020302020302020302020302020302020302020302020302020300A20202032302E3435383520202D31372E3233333720202020302E303030302043202020302020302020312020302020302020302020302020302020302020302020302020300A20202031382E3037353520202D31372E3233333720202020302E30303030204F202020302020302020302020302020302020302020302020302020302020302020302020300A20202031342E3533303320202D31342E3230383320202020302E30303030204F202020302020302020302020302020302020302020302020302020302020302020302020300A20202031332E3333333020202D31322E3133343820202020302E30303030204F202020302020302020302020302020302020302020302020302020302020302020302020300A20202032302E3435383520202D31382E3631373920202020302E303030302043202020302020302020312020302020302020302020302020302020302020302020302020300A20202032312E3634393920202D31362E3535303320202020302E30303030204F202020302020302020302020302020302020302020302020302020302020302020302020300A20202031382E3037353520202D31382E3631373920202020302E303030302043202020302020302020322020302020302020302020302020302020302020302020302020300A20202031392E3236363920202D31392E3330313320202020302E303030302043202020302020302020322020302020302020302020302020302020302020302020302020300A20202032312E3634393920202D31392E3330313320202020302E30303030204F202020302020302020302020302020302020302020302020302020302020302020302020300A20202031362E3838343020202D31392E3330313320202020302E303030302043202020302020302020302020302020302020302020302020302020302020302020302020300A20202031392E3236363920202D32302E3637393720202020302E30303030204F202020302020302020302020302020302020302020302020302020302020302020302020300A20202032362E3730323020202D31312E3433393920202020302E303030302043202020302020302020302020302020302020302020302020302020302020302020302020300A20202032372E3838313820202D31322E3133343820202020302E303030302043202020302020302020302020302020302020302020302020302020302020302020302020300A20202032362E3730323020202D31302E3036373420202020302E303030302043202020302020302020302020302020302020302020302020302020302020302020302020300A20202032392E3037393120202D31312E3435313620202020302E303030302043202020302020302020302020302020302020302020302020302020302020302020302020300A20202032372E383939342020202D392E3338343020202020302E303030302043202020302020302020302020302020302020302020302020302020302020302020302020300A20202032392E3038353020202D31302E3037383920202020302E303030302043202020302020302020302020302020302020302020302020302020302020302020302020300A20202033302E323832332020202D392E3338393920202020302E30303030204F202020302020302020302020302020302020302020302020302020302020302020302020300A2020342020382020322020302020202020302020300A2020352020392020312020302020202020302020300A2020352031302020322020302020202020302020300A2020362031312020322020302020202020302020300A2020362031322020312020302020202020302020300A2020382031332020312020302020202020302020300A2031342031332020312020312020202020302020300A2031342031352020312020302020202020302020300A2031342031362020312020302020202020302020300A2031352031372020312020362020202020302020300A2031352031382020312020302020202020302020300A2031362031392020312020302020202020302020300A2032302031372020312020312020202020302020300A2031382032312020312020302020202020302020300A2031382032322020312020312020202020302020300A2031392032332020312020312020202020302020300A2032302032342020312020302020202020302020300A2032302032352020312020302020202020302020300A2032312032362020312020362020202020302020300A2032332032372020312020302020202020302020300A2032342032382020312020302020202020302020300A2032342032392020312020362020202020302020300A2032352033302020312020302020202020302020300A2032382033312020312020302020202020302020300A2032382033322020312020362020202020302020300A2033302033332020312020362020202020302020300A2033312033342020312020312020202020302020300A2020372020392020312020302020202020302020300A2020382031312020312020302020202020302020300A2031392032312020312020302020202020302020300A2033302033312020312020302020202020302020300A2020372033352020312020362020202020302020300A2020312020322020322020302020202020302020300A2020312020332020312020302020202020302020300A2020312020342020312020302020202020302020300A2020322020352020312020302020202020302020300A2020322020362020312020302020202020302020300A2020332020372020312020302020202020302020300A2033352033362020322020302020202020302020300A2033352033372020312020302020202020302020300A2033362033382020312020302020202020302020300A2033372033392020322020302020202020302020300A2033382034302020322020302020202020302020300A2034302034312020312020302020202020302020300A2033392034302020312020302020202020302020300A4D2020454E44
Contributor: GZ
InstType: ESI
InstName: micrOTOF-Q
IoniMethod: ESI
IonPolarity: neg
IsolWidth: 10
TargetGas: Nitrogen
ColEnergy: 10
PeakWidth: 0.03
ChargeDecon: 2
Date: 2010-10-09 19:48:36+02:00
Column: Synergi Fusion RP 2.5 u
Mass: 574.066-592.29
Num Peaks: 5
579.172 999 580.175 301 581.179 72 582.180 13 583.183 1 
