Name: MassBank: BD000543
CAS: 5631-68-5
MW: 182
Formula: C9H10O4
Synonym: CID: 96384
Synonym: MassBank: BD000543
Synonym: 3-(2,4-Dihydroxyphenyl)propionic acid
Synonym: 2,4-Dihydroxy-benzenepropanoic acid
Synonym: 2,4-Dihydroxyhydrocinnamic acid
Synonym: Hydroumbellic acid
Structure: 31332031332020302020302020302020302020302020302020302020303939392056323030300A20202032312E3136383720202D31342E3938393120202020302E303030302043202020302020302020302020302020302020302020302020302020302020302020302020300A20202031392E3935353820202D31352E3638333020202020302E303030302043202020302020302020302020302020302020302020302020302020302020302020302020300A20202032322E3338313520202D31352E3638383920202020302E303030302043202020302020302020302020302020302020302020302020302020302020302020302020300A20202032312E3136323920202D31332E3539353420202020302E303030302043202020302020302020302020302020302020302020302020302020302020302020302020300A20202031392E3934393920202D31372E3038383420202020302E303030302043202020302020302020302020302020302020302020302020302020302020302020302020300A20202032322E3338313520202D31372E3038323520202020302E303030302043202020302020302020302020302020302020302020302020302020302020302020302020300A20202032322E3336393920202D31322E3838393720202020302E303030302043202020302020302020302020302020302020302020302020302020302020302020302020300A20202032312E3136383720202D31372E3739343020202020302E303030302043202020302020302020302020302020302020302020302020302020302020302020302020300A20202032322E3336393920202D31312E3439303220202020302E303030302043202020302020302020302020302020302020302020302020302020302020302020302020300A20202032312E3136383720202D31392E3139333520202020302E30303030204F202020302020302020302020302020302020302020302020302020302020302020302020300A20202032332E3538323920202D31302E3739303420202020302E30303030204F202020302020302020302020302020302020302020302020302020302020302020302020300A20202032312E3135313220202D31302E3739363320202020302E30303030204F202020302020302020302020302020302020302020302020302020302020302020302020300A20202032332E3631313520202D31342E3937383520202020302E30303030204F202020302020302020302020302020302020302020302020302020302020302020302020300A2020312020322020312020302020202020302020300A2020312020332020322020302020202020302020300A2020312020342020312020302020202020302020300A2020322020352020322020302020202020302020300A2020332020362020312020302020202020302020300A2020342020372020312020302020202020302020300A2020352020382020312020302020202020302020300A2020372020392020312020302020202020302020300A2020382031302020312020302020202020302020300A2020392031312020312020302020202020302020300A2020392031322020322020302020202020302020300A2020362020382020322020302020202020302020300A2020332031332020312020302020202020302020300A4D2020454E44
Contributor: MGR
InstType: ESI
InstName: micrOTOF-Q
IoniMethod: ESI
IonPolarity: pos
IsolWidth: 10
TargetGas: Nitrogen
ColEnergy: 10
PeakWidth: 0.03
ChargeDecon: 2
Date: 2010-10-09 19:48:36+02:00
Column: Synergi Fusion RP 2.5 u
Mass: 178.025-195.113
Num Peaks: 3
183.065 999 184.069 100 185.070 13 
