Name: Cytidine-5'-diphosphocholine
CAS: 987-78-0
MW: 488
Formula: C14H26N4O11P2
Synonym: CID: 13013858
Synonym: MassBank: BD000852
Synonym: Cytidine-5'-diphosphocholine
Synonym: CDP-choline
Synonym: Citicoline
Synonym: Cytidine Diphosphate Choline
Structure: 33312033322020302020302020312020302020302020302020302020303939392056323030300A20202032362E3237373620202D31382E3237393420202020302E303030302043202020302020302020302020302020302020302020302020302020302020302020302020300A20202032372E3634373420202D31382E3237393420202020302E303030302043202020302020302020302020302020302020302020302020302020302020302020302020300A20202032382E3037303720202D31362E3937363520202020302E303030302043202020302020302020302020302020302020302020302020302020302020302020302020300A20202032362E3936323520202D31362E3137313420202020302E30303030204F202020302020302020302020302020302020302020302020302020302020302020302020300A20202032352E3835343320202D31362E3937363520202020302E303030302043202020302020302020302020302020302020302020302020302020302020302020302020300A20202032392E3235373120202D31342E3932313720202020302E30303030204E202020302020302020302020302020302020302020302020302020302020302020302020300A20202032342E3636373920202D31362E3239313620202020302E303030302043202020302020302020302020302020302020302020302020302020302020302020302020300A20202032332E3438313620202D31362E3937363520202020302E30303030204F202020302020302020302020302020302020302020302020302020302020302020302020300A20202032352E3437323420202D31392E3338373620202020302E30303030204F202020302020302020302020302020302020302020302020302020302020302020302020300A20202032382E3435323620202D31392E3338373620202020302E30303030204F202020302020302020302020302020302020302020302020302020302020302020302020300A20202033302E3434333420202D31342E3233363820202020302E303030302043202020302020302020302020302020302020302020302020302020302020302020302020300A20202033302E3434333420202D31322E3836363920202020302E303030302043202020302020302020302020302020302020302020302020302020302020302020302020300A20202032392E3235373120202D31322E3138323020202020302E303030302043202020302020302020302020302020302020302020302020302020302020302020302020300A20202032382E3037303820202D31322E3836363920202020302E30303030204E202020302020302020302020302020302020302020302020302020302020302020302020300A20202032382E3037303820202D31342E3233363820202020302E303030302043202020302020302020302020302020302020302020302020302020302020302020302020300A20202032362E3837343520202D31342E3932373520202020302E30303030204F202020302020302020302020302020302020302020302020302020302020302020302020300A20202032392E3235373120202D31302E3831343020202020302E30303030204E202020302020302020302020302020302020302020302020302020302020302020302020300A20202032322E3131313720202D31362E3937363520202020302E303030302050202020302020302020302020302020302020302020302020302020302020302020302020300A20202032302E3734313820202D31362E3937363520202020302E30303030204F202020302020302020302020302020302020302020302020302020302020302020302020300A20202031392E3337323020202D31362E3937363520202020302E303030302050202020302020302020302020302020302020302020302020302020302020302020302020300A20202031382E3030323120202D31362E3937363520202020302E30303030204F202020302020302020302020302020302020302020302020302020302020302020302020300A20202032322E3131313720202D31352E3630383220202020302E30303030204F202020302020302020302020302020302020302020302020302020302020302020302020300A20202032322E3131313720202D31382E3334373820202020302E30303030204F202020302020302020302020302020302020302020302020302020302020302020302020300A20202031392E3337323020202D31352E3630383220202020302E30303030204F202020302020302020302020302020302020302020302020302020302020302020302020300A20202031392E3337323020202D31382E3334373820202020302E30303030204F202020302020352020302020302020302020302020302020302020302020302020302020300A20202031362E3831353820202D31362E3239313620202020302E303030302043202020302020302020302020302020302020302020302020302020302020302020302020300A20202031352E3632393420202D31362E3937363520202020302E303030302043202020302020302020302020302020302020302020302020302020302020302020302020300A20202031342E3436373720202D31362E3330353520202020302E30303030204E202020302020332020302020302020302020302020302020302020302020302020302020300A20202031332E3239383220202D31352E3632393820202020302E303030302043202020302020302020302020302020302020302020302020302020302020302020302020300A20202031332E3739353420202D31372E3436393820202020302E303030302043202020302020302020302020302020302020302020302020302020302020302020302020300A20202031352E3136353220202D31352E3039373420202020302E303030302043202020302020302020302020302020302020302020302020302020302020302020302020300A2020312020322020312020302020202020302020300A2020322020332020312020302020202020302020300A2020332020342020312020302020202020302020300A2020342020352020312020302020202020302020300A2020312020352020312020302020202020302020300A2020332020362020312020312020202020302020300A2020352020372020312020312020202020302020300A2020372020382020312020302020202020302020300A2020312020392020312020362020202020302020300A2020322031302020312020362020202020302020300A2020362031312020312020302020202020302020300A2031312031322020322020302020202020302020300A2031322031332020312020302020202020302020300A2031332031342020322020302020202020302020300A2031342031352020312020302020202020302020300A2020362031352020312020302020202020302020300A2031352031362020322020302020202020302020300A2031332031372020312020302020202020302020300A2020382031382020312020302020202020302020300A2031382031392020312020302020202020302020300A2031392032302020312020302020202020302020300A2032302032312020312020302020202020302020300A2031382032322020322020302020202020302020300A2031382032332020312020302020202020302020300A2032302032342020322020302020202020302020300A2032302032352020312020302020202020302020300A2032312032362020312020302020202020302020300A2032362032372020312020302020202020302020300A2032372032382020312020302020202020302020300A2032382032392020312020302020202020302020300A2032382033302020312020302020202020302020300A2032382033312020312020302020202020302020300A4D20204348472020322020323520202D3120203238202020310A4D2020454E44
Contributor: MGR
InstType: ESI
InstName: micrOTOF-Q
IoniMethod: ESI
IonPolarity: pos
MSMS: 2
IsolWidth: 10
TargetGas: Nitrogen
ColEnergy: 24
PeakWidth: 0.036
ChargeDecon: 2
Date: 2010-10-09 19:48:36+02:00
Column: Synergi Fusion RP 2.5 u
Mass: 21.493-805.185
Num Peaks: 20
112.051 9 184.073 224 185.076 13 226.082 54 227.085 6 246.028 9 264.040 999 265.042 54 266.044 13 277.105 6 
280.093 20 360.060 465 361.063 50 362.066 11 378.071 320 379.074 36 380.076 8 489.115 207 490.116 34 491.118 7 
