Name: Paraxanthine
CAS: 611-59-6
MW: 180
Formula: C7H8N4O2
Synonym: CID: 4687
Synonym: MassBank: BD000221
Synonym: Paraxanthine
Synonym: 1,7-Dimethylxanthine
Synonym: 1,7-Dimethyl-3H-purine-2,6-dione
Structure: 31332031342020302020302020302020302020302020302020302020303939392056323030300A20202031312E3535303020202D31342E3037303020202020302E30303030204E202020302020302020302020302020302020302020302020302020302020302020302020300A20202031312E3535303020202D31352E3437303020202020302E303030302043202020302020302020302020302020302020302020302020302020302020302020302020300A20202031322E3736323420202D31362E3137303020202020302E30303030204E202020302020302020302020302020302020302020302020302020302020302020302020300A20202031332E3937343920202D31352E3437303020202020302E303030302043202020302020302020302020302020302020302020302020302020302020302020302020300A20202031332E3937343920202D31342E3037303020202020302E303030302043202020302020302020302020302020302020302020302020302020302020302020302020300A20202031322E3736323420202D31332E3337303020202020302E303030302043202020302020302020302020302020302020302020302020302020302020302020302020300A20202031352E3330363420202D31352E3930323620202020302E30303030204E202020302020302020302020302020302020302020302020302020302020302020302020300A20202031362E3132393320202D31342E3737303020202020302E303030302043202020302020302020302020302020302020302020302020302020302020302020302020300A20202031352E3330363420202D31332E3633373420202020302E30303030204E202020302020302020302020302020302020302020302020302020302020302020302020300A20202031302E3333373620202D31332E3337303020202020302E303030302043202020302020302020302020302020302020302020302020302020302020302020302020300A20202031352E3733373520202D31322E3331303620202020302E303030302043202020302020302020302020302020302020302020302020302020302020302020302020300A20202031322E3736323420202D31312E3937303220202020302E30303030204F202020302020302020302020302020302020302020302020302020302020302020302020300A20202031302E3333373620202D31362E3137303020202020302E30303030204F202020302020302020302020302020302020302020302020302020302020302020302020300A2020312020322020312020302020202020302020300A2020322020332020312020302020202020302020300A2020332020342020312020302020202020302020300A2020342020352020322020302020202020302020300A2020352020362020312020302020202020302020300A2020312020362020312020302020202020302020300A2020342020372020312020302020202020302020300A2020372020382020322020302020202020302020300A2020382020392020312020302020202020302020300A2020352020392020312020302020202020302020300A2020312031302020312020302020202020302020300A2020392031312020312020302020202020302020300A2020362031322020322020302020202020302020300A2020322031332020322020302020202020302020300A4D2020454E44
Contributor: BSC
InstType: ESI
InstName: micrOTOF-Q
IoniMethod: ESI
IonPolarity: pos
IsolWidth: 10
TargetGas: Nitrogen
ColEnergy: 10
PeakWidth: 0.03
ChargeDecon: 2
Date: 2010-10-09 19:48:36+02:00
Column: Synergi Fusion RP 2.5 u
Mass: 176.03-192.117
Num Peaks: 3
181.072 999 182.075 91 183.076 8 
