Name: Deoxycytidine
CAS: 951-77-9
MW: 227
Formula: C9H13N3O4
Synonym: CID: 637
Synonym: MassBank: BD000779
Synonym: Deoxycytidine
Synonym: 2'-Deoxycytidine
Synonym: 2'-Deoxy-cytidine
Synonym: 2-Deoxycytidine
Synonym: Cytosine deoxyribonucleoside
Synonym: Cytosine deoxyriboside
Synonym: DC
Synonym: DCYD
Synonym: Deoxyribose cytidine
Synonym: D-Cytidine
Synonym: Desoxycytidine
Structure: 31362031372020302020302020312020302020302020302020302020303939392056323030300A20202032312E3533303820202D31342E3835373420202020302E303030302043202020302020302020322020302020302020302020302020302020302020302020302020300A20202032322E3836303920202D31342E3433313620202020302E30303030204E202020302020302020332020302020302020302020302020302020302020302020302020300A20202032302E3338373420202D31332E3939343120202020302E30303030204F202020302020302020302020302020302020302020302020302020302020302020302020300A20202032312E3131363720202D31362E3135323620202020302E303030302043202020302020302020302020302020302020302020302020302020302020302020302020300A20202032332E3837353920202D31352E3338323520202020302E303030302043202020302020302020302020302020302020302020302020302020302020302020302020300A20202032332E3137353920202D31332E3038343120202020302E303030302043202020302020302020302020302020302020302020302020302020302020302020302020300A20202031392E3236313520202D31342E3833343220202020302E303030302043202020302020302020312020302020302020302020302020302020302020302020302020300A20202031392E3639393020202D31362E3135323620202020302E303030302043202020302020302020312020302020302020302020302020302020302020302020302020300A20202032352E3231373620202D31342E3938353820202020302E30303030204E202020302020302020302020302020302020302020302020302020302020302020302020300A20202032332E3536363720202D31362E3735333420202020302E30303030204F202020302020302020302020302020302020302020302020302020302020302020302020300A20202032342E3531313920202D31322E3636393820202020302E303030302043202020302020302020302020302020302020302020302020302020302020302020302020300A20202031372E3932353620202D31342E3430383320202020302E303030302043202020302020302020302020302020302020302020302020302020302020302020302020300A20202031392E3236373320202D31372E3531373720202020302E30303030204F202020302020302020302020302020302020302020302020302020302020302020302020300A20202032352E3532313020202D31332E3633323420202020302E303030302043202020302020302020302020302020302020302020302020302020302020302020302020300A20202031362E3839333120202D31352E3334373520202020302E30303030204F202020302020302020302020302020302020302020302020302020302020302020302020300A20202032362E3837343420202D31332E3233353720202020302E30303030204E202020302020302020302020302020302020302020302020302020302020302020302020300A2020312020322020312020312020202020302020300A2020312020332020312020302020202020302020300A2020312020342020312020302020202020302020300A2020322020352020312020302020202020302020300A2020322020362020312020302020202020302020300A2020332020372020312020302020202020302020300A2020342020382020312020302020202020302020300A2020352020392020312020302020202020302020300A2020352031302020322020302020202020302020300A2020362031312020322020302020202020302020300A2020372031322020312020312020202020302020300A2020382031332020312020362020202020302020300A2020392031342020322020302020202020302020300A2031322031352020312020302020202020302020300A2031342031362020312020302020202020302020300A2020372020382020312020302020202020302020300A2031312031342020312020302020202020302020300A4D2020454E44
Contributor: MGR
InstType: ESI
InstName: micrOTOF-Q
IoniMethod: ESI
IonPolarity: neg
IsolWidth: 10
TargetGas: Nitrogen
ColEnergy: 10
PeakWidth: 0.03
ChargeDecon: 2
Date: 2010-10-09 19:48:36+02:00
Column: Synergi Fusion RP 2.5 u
Mass: 221.032-238.136
Num Peaks: 4
226.083 999 227.086 111 228.088 14 229.091 1 
