Name: Isethionicacid
CAS: 107-36-8
MW: 125
Formula: C2H6O4S
Synonym: CID: 7866
Synonym: MassBank: BD000011
Synonym: Isethionicacid
Synonym: 2-Hydroxyethanesulfonate,2-hydroxyethanesulfonic acid,2-hydroxyethane-1-sulfonic acid,2-hydroxyethane-1-sulfonate,Isethionate
Structure: 372020362020302020302020302020302020302020302020302020303939392056323030300A20202032312E3531313820202D31352E3034303820202020302E303030302043202020302020302020302020302020302020302020302020302020302020302020302020300A20202032322E3930353620202D31352E3033343220202020302E303030302053202020302020302020332020302020302020302020302020302020302020302020302020300A20202032322E3839393220202D31332E3634303420202020302E30303030204F202020302020302020302020302020302020302020302020302020302020302020302020300A20202032342E3239393420202D31352E3033343220202020302E30303030204F202020302020302020302020302020302020302020302020302020302020302020302020300A20202032322E3839393220202D31362E3433343420202020302E30303030204F202020302020302020302020302020302020302020302020302020302020302020302020300A20202032302E3739303020202D31332E3830343320202020302E303030302043202020302020302020302020302020302020302020302020302020302020302020302020300A20202031392E3430333520202D31332E3831313020202020302E30303030204F202020302020302020302020302020302020302020302020302020302020302020302020300A2020312020322020312020302020202020302020300A2020322020332020312020302020202020302020300A2020322020342020322020302020202020302020300A2020322020352020322020302020202020302020300A2020312020362020312020302020202020302020300A2020362020372020312020302020202020302020300A4D2020454E44
Contributor: BSC
InstType: ESI
InstName: micrOTOF-Q
IoniMethod: ESI
IonPolarity: pos
IsolWidth: 10
TargetGas: Nitrogen
ColEnergy: 10
PeakWidth: 0.027
ChargeDecon: 2
Date: 2010-10-09 19:48:36+02:00
Column: Synergi Fusion RP 2.5 u
Mass: 44.7878-395.02
Num Peaks: 17
108.996 158 109.999 6 110.992 8 124.040 17 127.006 999 128.009 33 129.003 47 144.082 6 145.017 707 146.019 27 
147.013 35 148.988 311 149.994 10 150.985 17 163.029 18 167.000 52 170.970 139 
