Name: L-Alpha-hydroxy isovalericacid
CAS: 503-74-2
MW: 118
Formula: C5H10O3
Synonym: CID: 853180
Synonym: MassBank: BD000118
Synonym: L-Alpha-hydroxy isovalericacid
Synonym: (2S)-2-Hydroxy-3-methylbutanoic acid
Structure: 382020372020302020302020312020302020302020302020302020303939392056323030300A20202020392E3130303020202D31342E3134303020202020302E303030302043202020302020302020302020302020302020302020302020302020302020302020302020300A20202031302E3331323420202D31332E3434303020202020302E303030302043202020302020302020302020302020302020302020302020302020302020302020302020300A20202031312E3532343920202D31342E3134303020202020302E303030302043202020302020302020302020302020302020302020302020302020302020302020302020300A20202031322E3733373320202D31332E3434303020202020302E303030302043202020302020302020302020302020302020302020302020302020302020302020302020300A20202031332E3934393720202D31342E3134303020202020302E30303030204F202020302020302020302020302020302020302020302020302020302020302020302020300A20202031302E3331323420202D31322E3034303220202020302E303030302043202020302020302020302020302020302020302020302020302020302020302020302020300A20202031312E3532343920202D31352E3533393820202020302E30303030204F202020302020302020302020302020302020302020302020302020302020302020302020300A20202031322E3733373320202D31322E3034303020202020302E30303030204F202020302020302020302020302020302020302020302020302020302020302020302020300A2020312020322020312020302020202020302020300A2020322020332020312020302020202020302020300A2020332020342020312020302020202020302020300A2020342020352020312020302020202020302020300A2020322020362020312020302020202020302020300A2020332020372020312020312020202020302020300A2020342020382020322020302020202020302020300A4D2020454E44
Contributor: BSC
InstType: ESI
InstName: micrOTOF-Q
IoniMethod: ESI
IonPolarity: pos
MSMS: 2
IsolWidth: 10
TargetGas: Nitrogen
ColEnergy: 10
PeakWidth: 0.035
ChargeDecon: 2
Date: 2010-10-09 19:48:36+02:00
Column: Synergi Fusion RP 2.5 u
Mass: 44.8006-395.037
Num Peaks: 1
73.067 999 
