Name: Isobarbituricacid
CAS: 496-76-4
MW: 128
Formula: C4H4N2O3
Synonym: CID: 73268
Synonym: MassBank: BD000027
Synonym: Isobarbituricacid
Synonym: 5-Hydroxy-1H-pyrimidine-2,4-dione
Synonym: 2,4,5-Trihydroxypyrimidine &nbsp;,5-hydroxyuracil,
Structure: 392020392020302020302020302020302020302020302020302020303939392056323030300A20202031372E3433303020202D31342E3439303020202020302E303030302043202020302020302020302020302020302020302020302020302020302020302020302020300A20202031372E3433303020202D31352E3839303020202020302E303030302043202020302020302020302020302020302020302020302020302020302020302020302020300A20202031382E3634323420202D31362E3539303020202020302E30303030204E202020302020302020302020302020302020302020302020302020302020302020302020300A20202031392E3835343920202D31352E3839303020202020302E303030302043202020302020302020302020302020302020302020302020302020302020302020302020300A20202031392E3835343920202D31342E3439303020202020302E30303030204E202020302020302020302020302020302020302020302020302020302020302020302020300A20202031382E3634323420202D31332E3739303020202020302E303030302043202020302020302020302020302020302020302020302020302020302020302020302020300A20202032312E3038363020202D31362E3630313020202020302E30303030204F202020302020302020302020302020302020302020302020302020302020302020302020300A20202031362E3231373620202D31362E3539303020202020302E30303030204F202020302020302020302020302020302020302020302020302020302020302020302020300A20202031362E3231373620202D31332E3739303020202020302E30303030204F202020302020302020302020302020302020302020302020302020302020302020302020300A2020312020322020312020302020202020302020300A2020322020332020312020302020202020302020300A2020332020342020312020302020202020302020300A2020342020352020312020302020202020302020300A2020352020362020312020302020202020302020300A2020312020362020322020302020202020302020300A2020342020372020322020302020202020302020300A2020322020382020322020302020202020302020300A2020312020392020312020302020202020302020300A4D2020454E44
Contributor: BSC
InstType: ESI
InstName: micrOTOF-Q
IoniMethod: ESI
IonPolarity: neg
IsolWidth: 10
TargetGas: Nitrogen
ColEnergy: 10
PeakWidth: 0.03
ChargeDecon: 2
Date: 2010-10-09 19:48:36+02:00
Column: Synergi Fusion RP 2.5 u
Mass: 121.981-138.054
Num Peaks: 3
127.015 999 128.018 52 129.019 7 
