Name: R-Adrenaline
CAS: 51-43-4
MW: 183
Formula: C9H13NO3
Synonym: CID: 5816
Synonym: MassBank: BD000318
Synonym: R-Adrenaline
Synonym: L-Adrenaline,(R)-(-)-Adrenaline;,(R)-(-)-Epinephrine;,(R)-(-)-Epirenamine;,(R)-(-)-Adnephrine;,4-[(1R)-1-hydroxy-2-(methylamino)ethyl]-1,2-benzenediol,adrenaline-R,Epinephrine,(-)-3,4-dihydroxy-alpha-((methylamino)methyl)-benzyl alcohol,(-)-Adrenaline,4-(1-hydroxy-2-methylamino-ethyl)benzene-1,2-diol
Structure: 31332031332020302020302020312020302020302020302020302020303939392056323030300A20202032312E3237323820202D31352E3035333320202020302E303030302043202020302020302020302020302020302020302020302020302020302020302020302020300A20202032312E3237323820202D31362E3436383420202020302E303030302043202020302020302020302020302020302020302020302020302020302020302020302020300A20202032302E3035353720202D31342E3335343420202020302E303030302043202020302020302020302020302020302020302020302020302020302020302020302020300A20202032322E3437383320202D31342E3335343420202020302E303030302043202020302020302020322020302020302020302020302020302020302020302020302020300A20202032302E3035353720202D31372E3137383920202020302E303030302043202020302020302020302020302020302020302020302020302020302020302020302020300A20202031382E3834343220202D31352E3035333320202020302E303030302043202020302020302020302020302020302020302020302020302020302020302020302020300A20202032332E3638393620202D31352E3034373520202020302E303030302043202020302020302020302020302020302020302020302020302020302020302020302020300A20202032322E3437383320202D31322E3935363820202020302E30303030204F202020302020302020302020302020302020302020302020302020302020302020302020300A20202031382E3834343220202D31362E3436383420202020302E303030302043202020302020302020302020302020302020302020302020302020302020302020302020300A20202032342E3838393120202D31342E3334383720202020302E30303030204E202020302020302020302020302020302020302020302020302020302020302020302020300A20202031372E3633333020202D31372E3135353620202020302E30303030204F202020302020302020302020302020302020302020302020302020302020302020302020300A20202031372E3633373720202D31342E3335363520202020302E30303030204F202020302020302020302020302020302020302020302020302020302020302020302020300A20202032362E3039383420202D31352E3034303620202020302E303030302043202020302020302020302020302020302020302020302020302020302020302020302020300A2020312020332020312020302020202020302020300A2020312020342020312020302020202020302020300A2020322020352020312020302020202020302020300A2020332020362020322020302020202020302020300A2020342020372020312020302020202020302020300A2020342020382020312020312020202020302020300A2020352020392020322020302020202020302020300A2020372031302020312020302020202020302020300A2020392031312020312020302020202020302020300A2020362020392020312020302020202020302020300A2020362031322020312020302020202020302020300A2020312020322020322020302020202020302020300A2031302031332020312020302020202020302020300A4D2020454E44
Contributor: BSC
InstType: ESI
InstName: micrOTOF-Q
IoniMethod: ESI
IonPolarity: pos
MSMS: 2
IsolWidth: 10
TargetGas: Nitrogen
ColEnergy: 10
PeakWidth: 0.025
ChargeDecon: 2
Date: 2010-10-09 19:48:36+02:00
Column: Synergi Fusion RP 2.5 u
Mass: 44.799-395.033
Num Peaks: 9
107.049 274 120.079 131 135.043 178 148.075 110 151.062 154 152.070 232 166.086 999 167.089 108 180.067 251 
