Name: o-Coumaric acid
CAS: 614-60-8
MW: 164
Formula: C9H8O3
Synonym: CID: 11968
Synonym: MassBank: BD000755
Synonym: o-Coumaric acid
Synonym: Trans-2-hydroxycinnamic acid
Synonym: 2-Coumarate
Synonym: 2-Coumaric acid
Synonym: 2-Hydroxycinnamic acid
Synonym: o-Coumarate
Synonym: (E)-o-Hydroxycinnamic acid
Synonym: Trans-2-Coumaric acid
Synonym: Trans-2-hydroxycinnamate
Synonym: (E)-3-(2-Hydroxyphenyl)prop-2-enoic acid
Synonym: Trans-o-Coumaric acid
Structure: 31322031322020302020302020302020302020302020302020302020303939392056323030300A20202032302E3631393020202D31352E3032323920202020302E303030302043202020302020302020302020302020302020302020302020302020302020302020302020300A20202032302E3631393020202D31362E3433323920202020302E303030302043202020302020302020302020302020302020302020302020302020302020302020302020300A20202032312E3832333820202D31342E3332343520202020302E303030302043202020302020302020302020302020302020302020302020302020302020302020302020300A20202031392E3430313220202D31342E3333303820202020302E303030302043202020302020302020302020302020302020302020302020302020302020302020302020300A20202031392E3430313220202D31372E3134343420202020302E303030302043202020302020302020302020302020302020302020302020302020302020302020302020300A20202032312E3833303320202D31372E3133313620202020302E30303030204F202020302020302020302020302020302020302020302020302020302020302020302020300A20202032332E3033353320202D31352E3031363620202020302E303030302043202020302020302020302020302020302020302020302020302020302020302020302020300A20202031382E3138393920202D31352E3032323920202020302E303030302043202020302020302020302020302020302020302020302020302020302020302020302020300A20202031382E3138393920202D31362E3433323920202020302E303030302043202020302020302020302020302020302020302020302020302020302020302020302020300A20202032342E3234303120202D31342E3331373920202020302E303030302043202020302020302020302020302020302020302020302020302020302020302020302020300A20202032352E3434353020202D31352E3031363620202020302E30303030204F202020302020302020302020302020302020302020302020302020302020302020302020300A20202032342E3233333720202D31322E3932303820202020302E30303030204F202020302020302020302020302020302020302020302020302020302020302020302020300A2020312020322020322020302020202020302020300A2020312020332020312020302020202020302020300A2020312020342020312020302020202020302020300A2020322020352020312020302020202020302020300A2020322020362020312020302020202020302020300A2020332020372020322020302020202020302020300A2020342020382020322020302020202020302020300A2020352020392020322020302020202020302020300A2020372031302020312020302020202020302020300A2031302031312020312020302020202020302020300A2031302031322020322020302020202020302020300A2020382020392020312020302020202020302020300A4D2020454E44
Contributor: MGR
InstType: ESI
InstName: micrOTOF-Q
IoniMethod: ESI
IonPolarity: pos
IsolWidth: 10
TargetGas: Nitrogen
ColEnergy: 10
PeakWidth: 0.026
ChargeDecon: 2
Date: 2010-10-09 19:48:36+02:00
Column: Synergi Fusion RP 2.5 u
Mass: 44.7902-395.035
Num Peaks: 21
91.055 17 95.049 23 103.054 145 104.058 13 105.046 4 119.049 4 121.065 41 122.086 3 123.045 289 124.048 22 
125.049 3 147.044 999 148.047 91 149.038 7 165.055 390 166.058 37 167.057 4 187.036 223 188.039 21 205.048 104 
206.051 10 
