Name: Isobutyrylglycine
CAS: 15926-18-8
MW: 145
Formula: C6H11NO3
Synonym: CID: 42811
Synonym: MassBank: BD000041
Synonym: Isobutyrylglycine
Synonym: 2-(Butan-2-ylamino)acetic acid
Synonym: Isobutyroylglycine
Structure: 2D495349532D20203036313631303039353432440A0A2031302020392020302020302020302020302020302020302020302020303939392056323030300A20202020392E363239322020202D312E3530343220202020302E30303030204F202020302020302020302020302020302020302020302020302020302020302020302020300A20202020342E373830302020202D322E3930373520202020302E30303030204F202020302020302020302020302020302020302020302020302020302020302020302020300A20202020352E393932342020202D332E3630373520202020302E303030302043202020302020302020302020302020302020302020302020302020302020302020302020300A20202020372E323034392020202D322E3930373520202020302E303030302043202020302020302020302020302020302020302020302020302020302020302020302020300A20202020382E343137332020202D332E3630373520202020302E30303030204E202020302020302020302020302020302020302020302020302020302020302020302020300A20202020392E363239372020202D322E3930373520202020302E303030302043202020302020302020302020302020302020302020302020302020302020302020302020300A20202031302E383432322020202D332E3630373520202020302E303030302043202020302020302020332020302020302020302020302020302020302020302020302020300A20202031322E303534362020202D322E3930373520202020302E303030302043202020302020302020302020302020302020302020302020302020302020302020302020300A20202020352E393932342020202D352E3030373320202020302E30303030204F202020302020302020302020302020302020302020302020302020302020302020302020300A20202031302E383337352020202D352E3030343220202020302E303030302043202020302020302020302020302020302020302020302020302020302020302020302020300A2020322020332020312020302020302020302020300A2020332020342020312020302020302020302020300A2020342020352020312020302020302020302020300A2020352020362020312020302020302020302020300A2020362020372020312020302020302020302020300A2020372020382020312020302020302020302020300A2020332020392020322020302020302020302020300A2020362020312020322020302020302020302020300A2020372031302020312020302020302020302020300A4D2020454E44
Contributor: BSC
InstType: ESI
InstName: micrOTOF-Q
IoniMethod: ESI
IonPolarity: pos
IsolWidth: 10
TargetGas: Nitrogen
ColEnergy: 10
PeakWidth: 0.025
ChargeDecon: 2
Date: 2010-10-09 19:48:36+02:00
Column: Synergi Fusion RP 2.5 u
Mass: 44.7959-395.018
Num Peaks: 25
76.040 37 104.070 6 124.039 6 128.069 12 146.081 999 146.960 7 147.083 71 148.085 7 149.023 14 159.967 6 
168.063 105 169.067 6 181.952 18 219.021 6 224.128 5 232.154 18 246.007 8 263.011 14 264.019 12 315.115 16 
335.123 11 344.069 24 345.078 46 346.081 8 347.110 6 
