Name: D-Tagatose
CAS: 87-81-0
MW: 180
Formula: C6H12O6
Synonym: CID: 3426
Synonym: MassBank: BD000875
Synonym: D-Tagatose
Synonym: (3S,4S,5R)-1,3,4,5,6-Pentahydroxyhexan-2-one
Synonym: D-Tag
Synonym: DL-Tagatose
Synonym: Tagatose
Synonym: Lyxo-hexulose
Structure: 31322031322020302020302020312020302020302020302020302020303939392056323030300A20202032322E3435333720202D31332E3731373520202020302E303030302043202020302020302020332020302020302020302020302020302020302020302020302020300A20202032322E3435333720202D31352E3130333520202020302E303030302043202020302020302020322020302020302020302020302020302020302020302020302020300A20202032312E3237383220202D31332E3031353720202020302E30303030204F202020302020302020302020302020302020302020302020302020302020302020302020300A20202032332E3635383520202D31332E3031353720202020302E303030302043202020302020302020302020302020302020302020302020302020302020302020302020300A20202032332E3832383120202D31342E3438333620202020302E30303030204F202020302020302020302020302020302020302020302020302020302020302020302020300A20202032312E3237383220202D31352E3738373820202020302E303030302043202020302020302020322020302020302020302020302020302020302020302020302020300A20202032332E3635383520202D31352E3738373820202020302E30303030204F202020302020302020302020302020302020302020302020302020302020302020302020300A20202032302E3036373620202D31332E3731373520202020302E303030302043202020302020302020302020302020302020302020302020302020302020302020302020300A20202032342E3835373220202D31332E3731373520202020302E30303030204F202020302020302020302020302020302020302020302020302020302020302020302020300A20202032302E3036373620202D31352E3130333520202020302E303030302043202020302020302020312020302020302020302020302020302020302020302020302020300A20202032312E3237383220202D31372E3137333820202020302E30303030204F202020302020302020302020302020302020302020302020302020302020302020302020300A20202031382E3836383720202D31352E3738373820202020302E30303030204F202020302020302020302020302020302020302020302020302020302020302020302020300A2020312020322020312020302020202020302020300A2020312020332020312020302020202020302020300A2020312020342020312020342020202020302020300A2020312020352020312020302020202020302020300A2020322020362020312020302020202020302020300A2020322020372020312020312020202020302020300A2020332020382020312020302020202020302020300A2020342020392020312020302020202020302020300A2020362031302020312020302020202020302020300A2020362031312020312020312020202020302020300A2031302031322020312020362020202020302020300A2020382031302020312020302020202020302020300A4D2020454E44
Contributor: MGR
InstType: ESI
InstName: micrOTOF-Q
IoniMethod: ESI
IonPolarity: neg
IsolWidth: 10
TargetGas: Nitrogen
ColEnergy: 10
PeakWidth: 0.028
ChargeDecon: 2
Date: 2010-10-09 19:48:36+02:00
Column: Synergi Fusion RP 2.5 u
Mass: 44.9916-394.879
Num Peaks: 24
71.012 19 72.992 4 75.008 12 85.029 11 87.007 11 89.023 210 90.027 7 101.023 30 103.003 200 104.011 7 
113.023 62 119.034 39 121.015 48 131.035 14 135.030 5 143.035 27 146.944 10 149.046 32 161.045 94 162.048 8 
174.955 8 179.055 999 180.059 63 181.059 14 
