Name: Phloreticacid
CAS: 501-97-3
MW: 166
Formula: C9H10O3
Synonym: CID: 10394
Synonym: MassBank: BD000256
Synonym: Phloreticacid
Synonym: 3-(4-Hydroxyphenyl)propanoic acid, 3-(p-hydroxyphenyl)propionic acid, 4-hydroxybenzenepropanoic acid, p-hydroxyphenylpropionic acid, Oprea1_221751, H52406_ALDRicH, beta-(p-hydroxyphenyl)propionic acid, 4-hydroxyhydrOCINNAMic acid, hydroxyphenyl propIONic acid, 56190_FLUKA
Synonym: 4-10-00-00631 (Beilstein Handbook Reference), HPP, InChI=1/C9H10O3/c10-8-4-1-7(2-5-8)3-6-9(11)12/H1-2,4-5,10H,3,6H2,(H,11,12
Synonym: Beta.-(p-hydroxyphenyl)propionic acid, AC-5144, AI3-31909, DB03897, benzenepropanoic acid, 4-hydroxy- (9CI), LS-77204, 3-(p-hydroxyphenyl)-propIONic acid, H0599, C01744, 501-97-3
Synonym: CHEbi:32980, EineCS 207-931-3, MolPort-001-769-769, NSC 40949, BB_NC-0339, NSC40949, NSC65596, BRN 2209841, STK803270
Synonym: Phloretate,hydro-p-coumaric acid,dihydro-p-coumaric acid  ,p-hydroxyhydrocinnamic acid,4-hydroxyhydrocinnamic acid,4-hydroxyphenylpropionic acid  ,uHLORETic acid,3-(4-hydroxyphenyl)propanoic acid  ,3-(4-hydroxyphenyl)propionic acid  ,p-hydroxyphenylpropionic acid  ,benzenepropanoic acid, 4-hydroxy-
Structure: 31322031322020302020302020302020302020302020302020302020303939392056323030300A20202032312E3235383520202D31352E3030303620202020302E303030302043202020302020302020302020302020302020302020302020302020302020302020302020300A20202032302E3036333320202D31352E3639333520202020302E303030302043202020302020302020302020302020302020302020302020302020302020302020302020300A20202032322E3437323620202D31352E3639333520202020302E303030302043202020302020302020302020302020302020302020302020302020302020302020302020300A20202032312E3235383520202D31332E3632313120202020302E303030302043202020302020302020302020302020302020302020302020302020302020302020302020300A20202032302E3036333320202D31372E3039313820202020302E303030302043202020302020302020302020302020302020302020302020302020302020302020302020300A20202032322E3437323620202D31372E3039313820202020302E303030302043202020302020302020302020302020302020302020302020302020302020302020302020300A20202032322E3435333320202D31322E3932313920202020302E303030302043202020302020302020302020302020302020302020302020302020302020302020302020300A20202032312E3235383520202D31372E3739373420202020302E303030302043202020302020302020302020302020302020302020302020302020302020302020302020300A20202032322E3434373120202D31312E3534323520202020302E303030302043202020302020302020302020302020302020302020302020302020302020302020302020300A20202032312E3235383520202D31392E3331353620202020302E30303030204F202020302020302020302020302020302020302020302020302020302020302020302020300A20202032332E3634383420202D31302E3834393820202020302E30303030204F202020302020302020302020302020302020302020302020302020302020302020302020300A20202032312E3234353820202D31302E3835363020202020302E30303030204F202020302020302020302020302020302020302020302020302020302020302020302020300A2020312020322020322020302020202020302020300A2020312020332020312020302020202020302020300A2020312020342020312020302020202020302020300A2020322020352020312020302020202020302020300A2020332020362020322020302020202020302020300A2020342020372020312020302020202020302020300A2020352020382020322020302020202020302020300A2020372020392020312020302020202020302020300A2020382031302020312020302020202020302020300A2020392031312020312020302020202020302020300A2020392031322020322020302020202020302020300A2020362020382020312020302020202020302020300A4D2020454E44
Contributor: BSC
InstType: ESI
InstName: micrOTOF-Q
IoniMethod: ESI
IonPolarity: pos
IsolWidth: 10
TargetGas: Nitrogen
ColEnergy: 10
PeakWidth: 0.025
ChargeDecon: 2
Date: 2010-10-09 19:48:36+02:00
Column: Synergi Fusion RP 2.5 u
Mass: 44.7992-395.035
Num Peaks: 19
77.041 11 79.055 6 95.050 17 105.045 14 107.049 397 108.053 32 121.064 30 149.059 397 150.063 42 151.064 5 
152.103 4 166.064 6 167.070 395 168.074 43 169.074 6 185.081 16 189.053 999 190.056 92 191.059 10 
