Name: 2-Keto-D-gluconic acid
CAS: 669-90-9
MW: 194
Formula: C6H10O7
Synonym: CID: 50
Synonym: MassBank: BD000456
Synonym: 2-Keto-D-gluconic acid
Synonym: D-Arabino-2-hexulopyranosonic acid hemicalcium salt hydrate
Synonym: 2-Keto-D-gluconic acid hemicalcium salt hydrate
Synonym: 2-Oxogluconic acid
Synonym: Alpha-D-Arabino-2-hexulosonic acid
Synonym: 2-Dehydro-D-gluconic acid
Synonym: Calcium 2-keto-D-gluconate
Synonym: D-Arabino-hex-2-ulosonic acid
Structure: 31332031322020302020302020302020302020302020302020302020303939392056323030300A20202032322E3832353520202D31322E3230323320202020302E303030302043202020302020302020332020302020302020302020302020302020302020302020302020300A20202032322E3831393620202D31332E3630303120202020302E303030302043202020302020302020332020302020302020302020302020302020302020302020302020300A20202032322E3833313320202D31302E3830343620202020302E303030302043202020302020302020302020302020302020302020302020302020302020302020302020300A20202032312E3432373920202D31322E3139363520202020302E30303030204F202020302020302020302020302020302020302020302020302020302020302020302020300A20202032322E3830373920202D31342E3939373820202020302E303030302043202020302020302020332020302020302020302020302020302020302020302020302020300A20202032342E3231373420202D31332E3630303120202020302E30303030204F202020302020302020302020302020302020302020302020302020302020302020302020300A20202032322E383337322020202D392E3430313020202020302E303030302043202020302020302020302020302020302020302020302020302020302020302020302020300A20202032342E3232393120202D31302E3830343620202020302E30303030204F202020302020302020302020302020302020302020302020302020302020302020302020300A20202032322E3830323120202D31362E3430313420202020302E303030302043202020302020302020302020302020302020302020302020302020302020302020302020300A20202032342E3231313520202D31342E3939373820202020302E30303030204F202020302020302020302020302020302020302020302020302020302020302020302020300A20202032312E363230372020202D382E3730353020202020302E30303030204F202020302020302020302020302020302020302020302020302020302020302020302020300A20202032342E303437382020202D382E3639393220202020302E30303030204F202020302020302020302020302020302020302020302020302020302020302020302020300A20202032312E3830373920202D31372E3338393620202020302E30303030204F202020302020302020302020302020302020302020302020302020302020302020302020300A2020312020322020312020302020202020302020300A2020312020332020312020302020202020302020300A2020312020342020312020302020202020302020300A2020322020352020312020302020202020302020300A2020322020362020312020302020202020302020300A2020332020372020312020302020202020302020300A2020332020382020322020302020202020302020300A2020352020392020312020302020202020302020300A2020352031302020312020302020202020302020300A2020372031312020312020302020202020302020300A2020372031322020322020302020202020302020300A2020392031332020312020302020202020302020300A4D2020454E44
Contributor: MGR
InstType: ESI
InstName: micrOTOF-Q
IoniMethod: ESI
IonPolarity: neg
IsolWidth: 10
TargetGas: Nitrogen
ColEnergy: 10
PeakWidth: 0.03
ChargeDecon: 2
Date: 2010-10-09 19:48:36+02:00
Column: Synergi Fusion RP 2.5 u
Mass: 187.99-205.084
Num Peaks: 4
193.035 999 194.039 69 195.040 16 196.043 1 
