Name: Hydroxypyruvic acid
CAS: 1113-60-6
MW: 104
Formula: C3H4O4
Synonym: CID: 964
Synonym: MassBank: BD000385
Synonym: Hydroxypyruvic acid
Synonym: 3-Hydroxypyruvate
Synonym: 3-Hydroxy-2-oxopropanoic acid
Synonym: 3-Hydroxypyruvic acid
Synonym: Beta-hydroxypyruvate
Synonym: Beta-hydroxypyruvic acid
Synonym: Hydroxypyruvate
Synonym: OH-pyr
Synonym: OH-pyruvate
Structure: 372020362020302020302020302020302020302020302020302020303939392056323030300A20202032312E3839343220202D31352E3037383520202020302E303030302043202020302020302020302020302020302020302020302020302020302020302020302020300A20202032312E3930373020202D31332E3639343320202020302E303030302043202020302020302020302020302020302020302020302020302020302020302020302020300A20202032302E3638323220202D31352E3736303920202020302E303030302043202020302020302020302020302020302020302020302020302020302020302020302020300A20202032332E3038373120202D31352E3738363420202020302E30303030204F202020302020302020302020302020302020302020302020302020302020302020302020300A20202032332E3131383920202D31332E3030353320202020302E30303030204F202020302020302020302020302020302020302020302020302020302020302020302020300A20202032302E3730373720202D31322E3937393820202020302E30303030204F202020302020302020302020302020302020302020302020302020302020302020302020300A20202032302E3730373720202D31372E3230383420202020302E30303030204F202020302020302020302020302020302020302020302020302020302020302020302020300A2020312020322020312020302020202020302020300A2020312020332020312020302020202020302020300A2020312020342020322020302020202020302020300A2020322020352020312020302020202020302020300A2020322020362020322020302020202020302020300A2020332020372020312020302020202020302020300A4D2020454E44
Contributor: MGR
InstType: ESI
InstName: micrOTOF-Q
IoniMethod: ESI
IonPolarity: neg
IsolWidth: 10
TargetGas: Nitrogen
ColEnergy: 10
PeakWidth: 0.03
ChargeDecon: 2
Date: 2010-10-09 19:48:36+02:00
Column: Synergi Fusion RP 2.5 u
Mass: 44.9911-394.878
Num Peaks: 23
73.027 2 87.008 1 89.022 2 99.008 5 101.002 4 103.003 709 104.007 23 105.008 6 121.015 999 122.018 37 
123.019 11 163.025 76 164.028 5 165.026 1 207.015 76 208.019 5 209.029 14 223.045 59 224.049 5 225.025 41 
226.028 3 227.025 1 228.999 4 
