Name: 4-Phenylbutyric acid
CAS: 1821-12-1
MW: 164
Formula: C10H12O2
Synonym: CID: 4775
Synonym: MassBank: BD000613
Synonym: 4-Phenylbutyric acid
Structure: 31322031322020302020302020302020302020302020302020302020303939392056323030300A20202031332E3739303020202D31372E3738303020202020302E303030302043202020302020302020302020302020302020302020302020302020302020302020302020300A20202031332E3739303020202D31392E3138303020202020302E303030302043202020302020302020302020302020302020302020302020302020302020302020302020300A20202031352E3030323420202D31392E3838303020202020302E303030302043202020302020302020302020302020302020302020302020302020302020302020302020300A20202031362E3231343920202D31392E3138303020202020302E303030302043202020302020302020302020302020302020302020302020302020302020302020302020300A20202031362E3231343920202D31372E3738303020202020302E303030302043202020302020302020302020302020302020302020302020302020302020302020302020300A20202031352E3030323420202D31372E3038303020202020302E303030302043202020302020302020302020302020302020302020302020302020302020302020302020300A20202031352E3030323420202D31352E3638303220202020302E303030302043202020302020302020302020302020302020302020302020302020302020302020302020300A20202031362E3231343920202D31342E3938303220202020302E303030302043202020302020302020302020302020302020302020302020302020302020302020302020300A20202031362E3139383020202D31332E3538393820202020302E303030302043202020302020302020302020302020302020302020302020302020302020302020302020300A20202031372E3339333420202D31322E3839393320202020302E303030302043202020302020302020302020302020302020302020302020302020302020302020302020300A20202031382E3537323620202D31332E3537393820202020302E30303030204F202020302020302020302020302020302020302020302020302020302020302020302020300A20202031372E3339333520202D31312E3438303420202020302E30303030204F202020302020302020302020302020302020302020302020302020302020302020302020300A2020312020322020322020302020202020302020300A2020322020332020312020302020202020302020300A2020332020342020322020302020202020302020300A2020342020352020312020302020202020302020300A2020352020362020322020302020202020302020300A2020312020362020312020302020202020302020300A2020362020372020312020302020202020302020300A2020372020382020312020302020202020302020300A2020392031302020312020302020202020302020300A2031302031312020322020302020202020302020300A2031302031322020312020302020202020302020300A2020382020392020312020302020202020302020300A4D2020454E44
Contributor: MGR
InstType: ESI
InstName: micrOTOF-Q
IoniMethod: ESI
IonPolarity: neg
IsolWidth: 10
TargetGas: Nitrogen
ColEnergy: 10
PeakWidth: 0.027
ChargeDecon: 2
Date: 2010-10-09 19:48:36+02:00
Column: Synergi Fusion RP 2.5 u
Mass: 44.9922-394.889
Num Peaks: 10
91.053 18 112.987 3 135.044 2 146.938 2 163.076 999 164.079 101 165.081 8 349.140 65 350.142 13 351.144 2 
