Name: Lipoamide
CAS: 940-69-2
MW: 205
Formula: C8H15NOS2
Synonym: CID: 863
Synonym: MassBank: BD000101
Synonym: Lipoamide
Synonym: 5-(Dithiolan-3-yl)pentanamide
Synonym: Thioctic acid amide,Thioctamide,Vitamin N,alpha-lipoic acid amide,a-Lipoic amide,DL-a-Lipoamide,DL-6,8-Thioctic acid amide,a-Lipoamide
Structure: 31322031322020302020302020302020302020302020302020302020303939392056323030300A20202031382E3930393020202D31332E3337353020202020302E303030302053202020302020302020302020302020302020302020302020302020302020302020302020300A20202031372E3530383620202D31332E3337353020202020302E303030302053202020302020302020302020302020302020302020302020302020302020302020302020300A20202031372E3038383520202D31342E3730353420202020302E303030302043202020302020302020302020302020302020302020302020302020302020302020302020300A20202031382E3230383820202D31352E3534353620202020302E303030302043202020302020302020302020302020302020302020302020302020302020302020302020300A20202031392E3332393220202D31342E3730353420202020302E303030302043202020302020302020302020302020302020302020302020302020302020302020302020300A20202032302E3531393520202D31352E3430353620202020302E303030302043202020302020302020302020302020302020302020302020302020302020302020302020300A20202032312E3737393920202D31342E3730353420202020302E303030302043202020302020302020302020302020302020302020302020302020302020302020302020300A20202032322E3937303320202D31352E3430353620202020302E303030302043202020302020302020302020302020302020302020302020302020302020302020302020300A20202032342E3136303720202D31342E3730353420202020302E303030302043202020302020302020302020302020302020302020302020302020302020302020302020300A20202032352E3432313120202D31352E3430353620202020302E303030302043202020302020302020302020302020302020302020302020302020302020302020302020300A20202032362E3631313420202D31342E3730353420202020302E30303030204E202020302020302020302020302020302020302020302020302020302020302020302020300A20202032352E3432313120202D31362E3830363020202020302E30303030204F202020302020302020302020302020302020302020302020302020302020302020302020300A2020312020322020312020302020202020302020300A2020322020332020312020302020202020302020300A2020332020342020312020302020202020302020300A2020342020352020312020302020202020302020300A2020312020352020312020302020202020302020300A2020352020362020312020302020202020302020300A2020362020372020312020302020202020302020300A2020372020382020312020302020202020302020300A2020382020392020312020302020202020302020300A2020392031302020312020302020202020302020300A2031302031312020312020302020202020302020300A2031302031322020322020302020202020302020300A4D2020454E44
Contributor: BSC
InstType: ESI
InstName: micrOTOF-Q
IoniMethod: ESI
IonPolarity: pos
MSMS: 2
IsolWidth: 10
TargetGas: Nitrogen
ColEnergy: 10
PeakWidth: 0.027
ChargeDecon: 2
Date: 2010-10-09 19:48:36+02:00
Column: Synergi Fusion RP 2.5 u
Mass: 44.7958-395.015
Num Peaks: 62
78.968 7 79.055 16 81.070 51 82.073 3 85.011 6 86.060 6 87.027 6 91.054 4 92.983 3 93.070 45 
94.072 4 95.085 106 96.088 9 97.100 12 98.096 34 99.027 4 99.093 3 101.042 629 102.044 41 102.967 5 
103.038 27 104.983 107 105.069 41 105.984 5 106.077 18 106.979 9 107.084 16 111.027 9 113.041 15 115.056 7 
118.997 6 121.065 10 123.081 124 124.085 13 125.043 4 127.057 325 128.060 26 129.053 14 135.026 4 137.042 70 
138.049 51 139.046 6 140.106 63 141.110 8 142.998 3 145.013 14 147.028 10 155.052 38 156.054 4 161.045 999 
162.048 93 163.041 92 164.045 7 165.037 3 171.029 253 172.033 28 173.026 24 189.040 484 190.043 47 191.037 47 
192.039 4 206.066 4 
