Name: Isoferulicacid
CAS: 537-73-5
MW: 194
Formula: C10H10O4
Synonym: CID: 92126
Synonym: MassBank: BD000039
Synonym: Isoferulicacid
Synonym: Hesperetic acid,Hespertitinic acid,3-hydroxy-4-methoxycinnamic acid  ,Cinnamic acid, 3-hydroxy-4-methoxy-,2-propenoic acid, 3-(3-hydroxy-4-methoxyphenyl)-,3-hydroxy-4-methoxycinnamic acid, predominantly trans ,
Structure: 31342031342020302020302020302020302020302020302020302020303939392056323030300A20202032312E3235303020202D31342E3639343520202020302E303030302043202020302020302020302020302020302020302020302020302020302020302020302020300A20202032302E3032373820202D31352E3338343920202020302E303030302043202020302020302020302020302020302020302020302020302020302020302020302020300A20202032312E3235363420202D31332E3239383920202020302E303030302043202020302020302020302020302020302020302020302020302020302020302020302020300A20202032322E3435383020202D31352E3430323320202020302E303030302043202020302020302020302020302020302020302020302020302020302020302020302020300A20202032302E3032333420202D31362E3738383520202020302E303030302043202020302020302020302020302020302020302020302020302020302020302020302020300A20202032322E3437363020202D31322E3631333720202020302E303030302043202020302020302020302020302020302020302020302020302020302020302020302020300A20202032322E3434383720202D31362E3830333220202020302E303030302043202020302020302020302020302020302020302020302020302020302020302020302020300A20202032312E3233313420202D31372E3439363120202020302E303030302043202020302020302020302020302020302020302020302020302020302020302020302020300A20202032322E3438353320202D31312E3231333020202020302E303030302043202020302020302020302020302020302020302020302020302020302020302020302020300A20202032312E3232353020202D31382E3839313920202020302E30303030204F202020302020302020302020302020302020302020302020302020302020302020302020300A20202032312E3238303120202D31302E3530303520202020302E30303030204F202020302020302020302020302020302020302020302020302020302020302020302020300A20202032332E3730373520202D31302E3532333020202020302E30303030204F202020302020302020302020302020302020302020302020302020302020302020302020300A20202032302E3030373620202D31392E3538343820202020302E303030302043202020302020302020302020302020302020302020302020302020302020302020302020300A20202032332E3635323920202D31372E3530383620202020302E30303030204F202020302020302020302020302020302020302020302020302020302020302020302020300A2020312020322020312020302020202020302020300A2020312020332020312020302020202020302020300A2020312020342020322020302020202020302020300A2020322020352020322020302020202020302020300A2020332020362020322020302020202020302020300A2020342020372020312020302020202020302020300A2020352020382020312020302020202020302020300A2020362020392020312020302020202020302020300A2020382031302020312020302020202020302020300A2020392031312020322020302020202020302020300A2020392031322020312020302020202020302020300A2031302031332020312020302020202020302020300A2020372020382020322020302020202020302020300A2020372031342020312020302020202020302020300A4D2020454E44
Contributor: BSC
InstType: ESI
InstName: micrOTOF-Q
IoniMethod: ESI
IonPolarity: pos
MSMS: 2
IsolWidth: 10
TargetGas: Nitrogen
ColEnergy: 10
PeakWidth: 0.026
ChargeDecon: 2
Date: 2010-10-09 19:48:36+02:00
Column: Synergi Fusion RP 2.5 u
Mass: 44.796-395.017
Num Peaks: 35
79.056 4 89.038 154 90.042 11 91.054 17 93.035 5 95.048 4 103.053 12 106.041 13 107.049 5 111.044 9 
117.033 232 118.037 26 119.049 9 121.064 32 125.059 13 131.055 5 133.055 5 134.036 95 135.044 239 136.047 23 
145.028 272 146.032 28 147.041 8 149.059 528 150.063 54 151.063 4 153.055 12 159.043 3 162.031 31 163.039 405 
164.042 43 165.043 4 177.055 999 178.058 116 179.054 11 
