Name: N-Methyl aspartic acid
CAS: 6384-92-5
MW: 147
Formula: C5H9NO4
Synonym: CID: 22880
Synonym: MassBank: BD000717
Synonym: N-Methyl aspartic acid
Synonym: (2R)-2-Methylaminobutanedioic acid
Synonym: (R)-2-(Methylamino)succinic acid
Synonym: NMDA
Synonym: Methyl aspartic acid
Synonym: N-Methylaspartate
Synonym: N-Methyl-aspartic acid
Synonym: N-Methyl-D-aspartate
Synonym: N-Methyl-D-aspartic acid
Structure: 31302020392020302020302020312020302020302020302020302020303939392056323030300A20202032312E3235333420202D31352E3036333920202020302E303030302043202020302020302020322020302020302020302020302020302020302020302020302020300A20202032322E3436323720202D31342E3336323820202020302E303030302043202020302020302020302020302020302020302020302020302020302020302020302020300A20202032302E3033303920202D31342E3336323820202020302E303030302043202020302020302020302020302020302020302020302020302020302020302020302020300A20202032312E3235333420202D31362E3436363120202020302E30303030204E202020302020302020302020302020302020302020302020302020302020302020302020300A20202032332E3638333620202D31352E3036333920202020302E303030302043202020302020302020302020302020302020302020302020302020302020302020302020300A20202031382E3831373020202D31352E3036333920202020302E30303030204F202020302020302020302020302020302020302020302020302020302020302020302020300A20202032302E3033303920202D31322E3935333520202020302E30303030204F202020302020302020302020302020302020302020302020302020302020302020302020300A20202032342E3839383920202D31342E3336323820202020302E30303030204F202020302020302020302020302020302020302020302020302020302020302020302020300A20202032332E3638333620202D31362E3436303120202020302E30303030204F202020302020302020302020302020302020302020302020302020302020302020302020300A20202032302E3036343020202D31372E3135303720202020302E303030302043202020302020302020302020302020302020302020302020302020302020302020302020300A2020312020322020312020302020202020302020300A2020312020332020312020302020202020302020300A2020312020342020312020312020202020302020300A2020322020352020312020302020202020302020300A2020332020362020312020302020202020302020300A2020332020372020322020302020202020302020300A2020352020382020312020302020202020302020300A2020352020392020322020302020202020302020300A2020342031302020312020302020202020302020300A4D2020454E44
Contributor: MGR
InstType: ESI
InstName: micrOTOF-Q
IoniMethod: ESI
IonPolarity: pos
MSMS: 2
IsolWidth: 10
TargetGas: Nitrogen
ColEnergy: 18
PeakWidth: 0.032
ChargeDecon: 2
Date: 2010-10-09 19:48:36+02:00
Column: Synergi Fusion RP 2.5 u
Mass: 44.7898-395.034
Num Peaks: 6
84.043 197 85.046 11 88.039 999 89.043 40 102.055 346 103.059 18 
