Name: 3-Hydroxydecanoic acid
MW: 216
Formula: C12H24O3
Synonym: CID: 26612
Synonym: MassBank: BD001011
Synonym: 3-Hydroxydecanoic acid
Structure: 2D495349532D20203032313430383131313132440A0A2033382033372020302020302020302020302020302020302020302020303939392056323030300A2020202D332E343034322020202D332E3737393220202020302E303030302043202020302020302020302020302020302020302020302020302020302020302020302020300A2020202D322E363931372020202D332E3336363720202020302E303030302043202020302020302020302020302020302020302020302020302020302020302020302020300A2020202D312E393739322020202D332E3737393220202020302E303030302043202020302020302020302020302020302020302020302020302020302020302020302020300A2020202D312E323636372020202D332E3336363720202020302E303030302043202020302020302020302020302020302020302020302020302020302020302020302020300A2020202D302E353534322020202D332E3737393220202020302E303030302043202020302020302020302020302020302020302020302020302020302020302020302020300A20202020302E313538332020202D332E3336363720202020302E303030302043202020302020302020302020302020302020302020302020302020302020302020302020300A20202020302E383730382020202D332E3737393220202020302E303030302043202020302020302020302020302020302020302020302020302020302020302020302020300A20202020312E353833332020202D332E3336363720202020302E303030302043202020302020302020302020302020302020302020302020302020302020302020302020300A20202020322E323935382020202D332E3737393220202020302E303030302043202020302020302020302020302020302020302020302020302020302020302020302020300A20202020332E303038332020202D332E3336363720202020302E303030302043202020302020302020332020302020302020302020302020302020302020302020302020300A20202020332E373230382020202D332E3737393220202020302E303030302043202020302020302020302020302020302020302020302020302020302020302020302020300A20202020342E343333332020202D332E3336363720202020302E303030302043202020302020302020302020302020302020302020302020302020302020302020302020300A20202020342E343239322020202D322E3534313720202020302E30303030204F202020302020302020302020302020302020302020302020302020302020302020302020300A20202020352E303136372020202D332E3935303020202020302E30303030204F202020302020302020302020302020302020302020302020302020302020302020302020300A20202020332E303034322020202D322E3534313720202020302E30303030204F202020302020302020302020302020302020302020302020302020302020302020302020300A2020202D342E313230382020202D332E3336363720202020302E303030302048202020302020302020302020302020302020302020302020302020302020302020302020300A2020202D332E343038332020202D342E3630343220202020302E303030302048202020302020302020302020302020302020302020302020302020302020302020302020300A2020202D332E363230382020202D322E3937393220202020302E303030302048202020302020302020302020302020302020302020302020302020302020302020302020300A2020202D322E393038332020202D322E3536363720202020302E303030302048202020302020302020302020302020302020302020302020302020302020302020302020300A2020202D322E313038332020202D322E3737393220202020302E303030302048202020302020302020302020302020302020302020302020302020302020302020302020300A2020202D322E333935382020202D342E3439313720202020302E303030302048202020302020302020302020302020302020302020302020302020302020302020302020300A2020202D312E353730382020202D342E3439313720202020302E303030302048202020302020302020302020302020302020302020302020302020302020302020302020300A2020202D312E363833332020202D322E3635303020202020302E303030302048202020302020302020302020302020302020302020302020302020302020302020302020300A2020202D302E383538332020202D322E3635303020202020302E303030302048202020302020302020302020302020302020302020302020302020302020302020302020300A2020202D302E393730382020202D342E3439313720202020302E303030302048202020302020302020302020302020302020302020302020302020302020302020302020300A2020202D302E313435382020202D342E3439313720202020302E303030302048202020302020302020302020302020302020302020302020302020302020302020302020300A2020202D302E323538332020202D322E3635303020202020302E303030302048202020302020302020302020302020302020302020302020302020302020302020302020300A20202020302E353636372020202D322E3635303020202020302E303030302048202020302020302020302020302020302020302020302020302020302020302020302020300A20202020302E343534322020202D342E3439313720202020302E303030302048202020302020302020302020302020302020302020302020302020302020302020302020300A20202020312E323739322020202D342E3439313720202020302E303030302048202020302020302020302020302020302020302020302020302020302020302020302020300A20202020312E313636372020202D322E3635303020202020302E303030302048202020302020302020302020302020302020302020302020302020302020302020302020300A20202020312E373935382020202D322E3536363720202020302E303030302048202020302020302020302020302020302020302020302020302020302020302020302020300A20202020312E383739322020202D342E3439313720202020302E303030302048202020302020302020302020302020302020302020302020302020302020302020302020300A20202020322E373034322020202D342E3439313720202020302E303030302048202020302020302020302020302020302020302020302020302020302020302020302020300A20202020352E323534322020202D322E3534313720202020302E303030302048202020302020302020302020302020302020302020302020302020302020302020302020300A20202020332E333034322020202D342E3439313720202020302E303030302048202020302020302020302020302020302020302020302020302020302020302020302020300A20202020342E333034322020202D342E3336323520202020302E303030302048202020302020302020302020302020302020302020302020302020302020302020302020300A20202020332E353837352020202D312E3935343220202020302E303030302048202020302020302020302020302020302020302020302020302020302020302020302020300A2020392031302020312020302020302020302020300A2020322032302020312020302020302020302020300A2020322020332020312020302020302020302020300A2020332032312020312020302020302020302020300A2031302031312020312020302020302020302020300A2020332032322020312020302020302020302020300A2020352020362020312020302020302020302020300A2020342032332020312020302020302020302020300A2031312031322020312020302020302020302020300A2020342032342020312020302020302020302020300A2020312020322020312020302020302020302020300A2020352032352020312020302020302020302020300A2031322031332020312020302020302020302020300A2020352032362020312020302020302020302020300A2020362020372020312020302020302020302020300A2020362032372020312020302020302020302020300A2031322031342020322020302020302020302020300A2020362032382020312020302020302020302020300A2020332020342020312020302020302020302020300A2020372032392020312020302020302020302020300A2031302031352020312020302020302020302020300A2020372033302020312020302020302020302020300A2020372020382020312020302020302020302020300A2020382033312020312020302020302020302020300A2020312031362020312020302020302020302020300A2020382033322020312020302020302020302020300A2020392033332020312020302020302020302020300A2020312031372020312020302020302020302020300A2020392033342020312020302020302020302020300A2020382020392020312020302020302020302020300A2031332033352020312020302020302020302020300A2020312031382020312020302020302020302020300A2031312033362020312020302020302020302020300A2020342020352020312020302020302020302020300A2031312033372020312020302020302020302020300A2020322031392020312020302020302020302020300A2031352033382020312020302020302020302020300A4D2020454E44
Contributor: Bruker Library
InstType: ESI
InstName: micrOTOF-Q
IoniMethod: ESI
IonPolarity: pos
IsolWidth: 10
TargetGas: Nitrogen
ColEnergy: 10
PeakWidth: 0.025
ChargeDecon: 2
Date: 2010-10-09 19:48:36+02:00
Column: Synergi Fusion RP 2.5 u
Mass: 49.999-390.001
Num Peaks: 250
69.072 2 71.086 4 79.054 2 81.071 22 82.072 1 83.085 31 84.089 1 85.097 10 93.071 9 95.085 17 
97.096 30 98.100 4 99.081 5 101.061 8 105.034 6 107.062 2 107.083 24 108.085 2 109.101 13 110.268 1 
111.082 25 112.088 1 113.128 2 113.961 1 115.080 16 118.086 2 121.101 24 122.097 18 123.114 18 124.119 1 
125.096 28 126.099 2 127.111 4 128.951 2 129.091 19 130.092 1 131.972 1 135.116 11 136.117 1 137.129 6 
139.137 21 140.065 2 143.107 20 145.930 3 146.963 3 149.028 19 151.078 4 153.083 1 157.124 11 158.145 1 
159.971 1 161.095 2 162.690 5 163.148 521 163.943 6 164.151 68 165.088 2 165.154 5 166.099 7 167.033 1 
167.104 2 169.085 2 171.139 2 173.085 2 175.128 1 179.095 2 180.648 6 181.159 751 181.953 8 182.080 2 
182.162 103 183.080 41 183.160 8 184.083 7 185.105 1 186.960 4 187.126 1 191.087 1 191.160 1 193.097 1 
194.109 1 195.088 2 195.111 1 196.097 4 197.083 6 198.602 4 199.041 2 199.062 2 199.169 485 200.173 63 
201.056 4 201.174 5 203.057 4 204.967 3 205.076 1 207.150 1 209.086 2 209.149 6 210.021 2 211.092 2 
211.127 1 213.106 1 214.021 3 214.110 4 215.034 6 216.555 2 216.577 1 217.079 1 217.180 393 218.182 49 
219.038 1 219.177 6 221.127 5 222.119 1 223.105 6 224.043 3 224.126 7 225.112 5 227.127 5 228.033 3 
229.060 2 229.138 3 231.129 3 231.646 1 232.119 2 233.122 3 234.206 4 235.143 2 235.178 4 236.138 3 
237.145 19 238.054 13 238.145 2 238.471 7 238.980 1 239.162 999 239.473 1 240.057 6 240.165 131 241.082 2 
241.166 14 242.057 2 243.126 4 243.190 1 245.087 3 245.123 2 245.147 3 247.144 3 249.114 13 250.127 1 
251.148 7 252.062 1 252.087 1 252.153 1 253.138 7 254.159 6 255.149 4 257.172 18 258.173 2 259.130 51 
260.136 8 261.143 43 262.147 7 263.141 5 265.124 2 265.172 11 265.657 2 266.170 3 267.142 6 269.138 16 
270.103 6 271.114 2 271.142 1 273.152 4 275.150 1 277.163 10 278.171 3 279.183 24 280.180 4 281.142 5 
283.133 4 285.145 1 287.159 2 289.138 2 291.158 9 293.161 6 295.188 27 296.190 5 297.166 1 297.202 1 
299.172 3 301.151 4 302.170 3 303.166 2 304.298 1 305.158 7 307.156 7 309.157 6 311.164 4 312.128 1 
313.123 1 313.227 3 315.152 4 317.171 34 318.172 7 319.171 5 320.167 1 321.178 4 323.155 6 325.153 4 
330.129 1 331.129 8 331.304 3 332.116 3 333.163 6 334.110 15 335.202 13 335.733 1 336.218 4 337.141 3 
337.203 2 339.152 3 339.224 1 343.252 3 344.237 30 344.741 10 345.234 4 347.175 2 349.170 3 351.187 4 
351.726 4 352.223 18 352.727 7 353.231 9 353.282 1 353.727 4 354.227 2 354.314 19 354.722 2 355.214 2 
355.317 6 357.127 5 358.119 1 359.235 5 363.179 1 365.183 2 367.201 5 367.328 6 369.185 1 383.253 4 
