Name: Glycochenodeoxycholic acid
CAS: 640-79-9
MW: 449
Formula: C26H43NO5
Synonym: CID: 27929
Synonym: MassBank: BD000904
Synonym: Glycochenodeoxycholic acid
Synonym: Chenodeoxycholylglycine
Synonym: Glycine chenodeoxycholate
Synonym: Glycochenodeoxycholate
Synonym: N-(3Alpha,7alpha-dihydroxy-5beta-cholan-24-oyl)glycine
Synonym: [(3Alpha,7alpha-dihydroxy-24-oxo-5beta-cholan-24-yl)amino]acetic acid
Structure: 33372034302020302020302020312020302020302020302020302020303939392056323030300A20202032302E3731393420202D31362E3134363920202020302E303030302043202020302020302020332020302020302020302020302020302020302020302020302020300A20202031392E3435313720202D31362E3833303520202020302E303030302043202020302020302020332020302020302020302020302020302020302020302020302020300A20202032302E3636363920202D31342E3737393920202020302E303030302043202020302020302020312020302020302020302020302020302020302020302020302020300A20202032332E3032313220202D31362E3130363120202020302E303030302043202020302020302020302020302020302020302020302020302020302020302020302020300A20202031382E3237313720202D31362E3132393520202020302E303030302043202020302020302020332020302020302020302020302020302020302020302020302020300A20202031392E3435313720202D31382E3230333320202020302E303030302043202020302020302020312020302020302020302020302020302020302020302020302020300A20202032312E3835383720202D31342E3130323220202020302E303030302043202020302020302020332020302020302020302020302020302020302020302020302020300A20202031392E3437353020202D31342E3037383820202020302E303030302043202020302020302020302020302020302020302020302020302020302020302020302020300A20202032302E3635353320202D31332E3430313220202020302E303030302043202020302020302020302020302020302020302020302020302020302020302020302020300A20202032332E3032373120202D31342E3830393220202020302E303030302043202020302020302020302020302020302020302020302020302020302020302020302020300A20202031372E3037343120202D31362E3831383820202020302E303030302043202020302020302020322020302020302020302020302020302020302020302020302020300A20202031382E3238333420202D31342E3735363520202020302E303030302043202020302020302020302020302020302020302020302020302020302020302020302020300A20202031382E3236303120202D31382E3838313020202020302E303030302043202020302020302020302020302020302020302020302020302020302020302020302020300A20202032302E3634393320202D31382E3839323720202020302E30303030204F202020302020302020302020302020302020302020302020302020302020302020302020300A20202032312E3837303320202D31322E3732393420202020302E303030302043202020302020302020332020302020302020302020302020302020302020302020302020300A20202031372E3036383220202D31382E3139313620202020302E303030302043202020302020302020322020302020302020302020302020302020302020302020302020300A20202031352E3838383220202D31362E3132333520202020302E303030302043202020302020302020302020302020302020302020302020302020302020302020302020300A20202031372E3036323420202D31352E3434303120202020302E303030302043202020302020302020302020302020302020302020302020302020302020302020302020300A20202032332E3036373920202D31322E3035373520202020302E303030302043202020302020302020302020302020302020302020302020302020302020302020302020300A20202032302E3639303320202D31322E3032383420202020302E303030302043202020302020302020302020302020302020302020302020302020302020302020302020300A20202031352E3838383220202D31382E3838313020202020302E303030302043202020302020302020302020302020302020302020302020302020302020302020302020300A20202031342E3639303620202D31362E3831383820202020302E303030302043202020302020302020302020302020302020302020302020302020302020302020302020300A20202032342E3236353520202D31322E3733353120202020302E303030302043202020302020302020302020302020302020302020302020302020302020302020302020300A20202031342E3639303620202D31382E3139313620202020302E303030302043202020302020302020312020302020302020302020302020302020302020302020302020300A20202032352E3435313520202D31322E3035313820202020302E303030302043202020302020302020302020302020302020302020302020302020302020302020302020300A20202031332E3530343620202D31382E3838313020202020302E30303030204F202020302020302020302020302020302020302020302020302020302020302020302020300A20202032362E3634333220202D31322E3733353120202020302E30303030204E202020302020302020302020302020302020302020302020302020302020302020302020300A20202032352E3435313520202D31302E3637333120202020302E30303030204F202020302020302020302020302020302020302020302020302020302020302020302020300A20202032372E3832393120202D31322E3035313820202020302E303030302043202020302020302020302020302020302020302020302020302020302020302020302020300A20202032392E3032303920202D31322E3733353120202020302E303030302043202020302020302020302020302020302020302020302020302020302020302020302020300A20202033302E3230363920202D31322E3034353820202020302E30303030204F202020302020302020302020302020302020302020302020302020302020302020302020300A20202032392E3032303920202D31342E3131343020202020302E30303030204F202020302020302020302020302020302020302020302020302020302020302020302020300A20202031372E3035363520202D31392E3536343620202020302E303030302048202020302020302020302020302020302020302020302020302020302020302020302020300A20202031382E3237313720202D31372E3533313420202020302E303030302048202020302020302020302020302020302020302020302020302020302020302020302020300A20202032302E3731393420202D31372E3534383820202020302E303030302048202020302020302020302020302020302020302020302020302020302020302020302020300A20202031392E3435313720202D31352E3432383620202020302E303030302048202020302020302020302020302020302020302020302020302020302020302020302020300A20202032332E3231323820202D31332E3733393320202020302E303030302048202020302020302020302020302020302020302020302020302020302020302020302020300A2020312020322020312020302020202020302020300A2020312020332020312020302020202020302020300A2020312020342020312020302020202020302020300A2020322020352020312020302020202020302020300A2020322020362020312020302020202020302020300A2020332020372020312020302020202020302020300A2020332020382020312020302020202020302020300A2020332020392020312020312020202020302020300A2020342031302020312020302020202020302020300A2020352031312020312020302020202020302020300A2020352031322020312020302020202020302020300A2020362031332020312020302020202020302020300A2020362031342020312020362020202020302020300A2020372031352020312020302020202020302020300A2031312031362020312020302020202020302020300A2031312031372020312020302020202020302020300A2031312031382020312020312020202020302020300A2031352031392020312020302020202020302020300A2031352032302020312020362020202020302020300A2031362032312020312020302020202020302020300A2031372032322020312020302020202020302020300A2031392032332020312020302020202020302020300A2032312032342020312020302020202020302020300A2032332032352020312020302020202020302020300A2032342032362020312020362020202020302020300A2032352032372020312020302020202020302020300A2032352032382020322020302020202020302020300A2032372032392020312020302020202020302020300A2032392033302020312020302020202020302020300A2033302033312020312020302020202020302020300A2033302033322020322020302020202020302020300A2020372031302020312020302020202020302020300A2020382031322020312020302020202020302020300A2031332031362020312020302020202020302020300A2032322032342020312020302020202020302020300A2031362033332020312020312020202020302020300A2020352033342020312020362020202020302020300A2020312033352020312020362020202020302020300A2020322033362020312020312020202020302020300A2020372033372020312020362020202020302020300A4D2020454E44
Contributor: MGR
InstType: ESI
InstName: micrOTOF-Q
IoniMethod: ESI
IonPolarity: pos
MSMS: 2
IsolWidth: 10
TargetGas: Nitrogen
ColEnergy: 28
PeakWidth: 0.039
ChargeDecon: 2
Date: 2010-10-09 19:48:36+02:00
Column: Synergi Fusion RP 2.5 u
Mass: 21.4929-805.2
Num Peaks: 114
76.037 52 81.067 15 85.062 22 93.069 8 95.085 16 105.070 9 107.086 25 109.100 14 119.086 13 121.101 30 
123.115 11 125.097 9 131.086 6 133.100 18 135.116 46 137.099 9 145.101 14 147.117 40 148.120 6 149.131 62 
150.135 8 151.114 9 156.065 9 158.081 163 159.107 19 161.131 81 162.136 10 163.136 30 172.097 17 173.129 12 
175.147 110 176.151 14 177.129 41 178.131 5 184.097 9 185.131 16 186.118 8 187.146 22 189.160 59 190.164 10 
191.144 17 197.130 5 198.113 13 199.147 15 200.132 8 201.163 184 202.166 30 203.163 17 205.162 6 210.112 7 
211.147 20 212.130 32 213.159 25 214.155 5 215.178 118 216.181 23 217.174 16 224.128 21 225.162 13 226.146 29 
227.174 20 229.175 28 230.176 5 231.174 16 238.143 69 239.170 19 240.161 17 241.192 13 243.200 36 244.206 6 
245.192 8 250.143 25 252.159 74 253.171 13 254.192 8 255.205 6 257.192 29 258.197 5 264.158 35 265.181 8 
266.175 30 267.185 6 278.175 24 279.197 5 280.192 13 292.190 27 293.204 6 294.207 7 295.240 7 297.249 16 
298.257 5 304.190 36 305.194 7 306.205 24 307.212 5 308.219 5 311.263 8 318.206 21 320.222 12 321.257 190 
322.260 51 323.262 5 332.221 35 333.226 10 334.238 5 339.268 438 340.271 105 341.274 15 358.241 5 396.289 10 
414.300 999 415.303 294 416.306 43 432.310 9 
