Name: Gentisic acid
CAS: 490-79-9
MW: 154
Formula: C7H6O4
Synonym: CID: 3469
Synonym: MassBank: BD000840
Synonym: Gentisic acid
Synonym: 2,5-Dihydroxybenzoate
Synonym: 2,5-Dioxybenzoate
Synonym: 2,5-Dioxybenzoic acid
Synonym: 5-Hydroxysalicylic acid
Synonym: Carboxyhydroquinone
Synonym: Gentisate
Synonym: Hydroquinonecarboxylic acid
Structure: 31312031312020302020302020302020302020302020302020302020303939392056323030300A20202032312E3834303220202D31342E3637373720202020302E303030302043202020302020302020302020302020302020302020302020302020302020302020302020300A20202032332E3035373120202D31352E3337353920202020302E303030302043202020302020302020302020302020302020302020302020302020302020302020302020300A20202032302E3632393820202D31352E3337353920202020302E303030302043202020302020302020302020302020302020302020302020302020302020302020302020300A20202032312E3833333920202D31332E3238313520202020302E303030302043202020302020302020302020302020302020302020302020302020302020302020302020300A20202032332E3035373120202D31362E3738343920202020302E303030302043202020302020302020302020302020302020302020302020302020302020302020302020300A20202032342E3236313320202D31342E3637313320202020302E30303030204F202020302020302020302020302020302020302020302020302020302020302020302020300A20202032302E3632393820202D31362E3738343920202020302E303030302043202020302020302020302020302020302020302020302020302020302020302020302020300A20202032332E3033373820202D31322E3538333520202020302E30303030204F202020302020302020302020302020302020302020302020302020302020302020302020300A20202032302E3632333320202D31322E3538393820202020302E30303030204F202020302020302020302020302020302020302020302020302020302020302020302020300A20202032312E3834303220202D31372E3439353920202020302E303030302043202020302020302020302020302020302020302020302020302020302020302020302020300A20202031392E3431393120202D31372E3437303320202020302E30303030204F202020302020302020302020302020302020302020302020302020302020302020302020300A2020312020322020312020302020202020302020300A2020312020332020322020302020202020302020300A2020312020342020312020302020202020302020300A2020322020352020322020302020202020302020300A2020322020362020312020302020202020302020300A2020332020372020312020302020202020302020300A2020342020382020312020302020202020302020300A2020342020392020322020302020202020302020300A2020352031302020312020302020202020302020300A2020372031312020312020302020202020302020300A2020372031302020322020302020202020302020300A4D2020454E44
Contributor: MGR
InstType: ESI
InstName: micrOTOF-Q
IoniMethod: ESI
IonPolarity: pos
MSMS: 2
IsolWidth: 10
TargetGas: Nitrogen
ColEnergy: 18
PeakWidth: 0.028
ChargeDecon: 2
Date: 2010-10-09 19:48:36+02:00
Column: Synergi Fusion RP 2.5 u
Mass: 44.7906-395.039
Num Peaks: 9
81.033 157 96.021 38 109.028 97 111.043 41 121.041 15 127.040 102 137.024 999 138.028 82 155.033 15 
