Name: 3-Methylglutaric acid
CAS: 626-51-7
MW: 146
Formula: C6H10O4
Synonym: CID: 12046
Synonym: MassBank: BD000517
Synonym: 3-Methylglutaric acid
Structure: 31302020392020302020302020302020302020302020302020302020303939392056323030300A20202031372E3135303220202D31332E3330303120202020302E303030302043202020302020302020332020302020302020302020302020302020302020302020302020300A20202031382E3335393420202D31322E3539393020202020302E303030302043202020302020302020302020302020302020302020302020302020302020302020302020300A20202031352E3934303920202D31322E3539393020202020302E303030302043202020302020302020302020302020302020302020302020302020302020302020302020300A20202031372E3135303220202D31312E3930343320202020302E303030302043202020302020302020302020302020302020302020302020302020302020302020302020300A20202031392E3537353020202D31332E3330303120202020302E303030302043202020302020302020302020302020302020302020302020302020302020302020302020300A20202031342E3732353320202D31332E3330303120202020302E303030302043202020302020302020302020302020302020302020302020302020302020302020302020300A20202031392E3536383720202D31342E3730323220202020302E30303030204F202020302020302020302020302020302020302020302020302020302020302020302020300A20202032302E3738343320202D31322E3539393020202020302E30303030204F202020302020302020302020302020302020302020302020302020302020302020302020300A20202031332E3531363020202D31322E3539393020202020302E30303030204F202020302020302020302020302020302020302020302020302020302020302020302020300A20202031342E3733313620202D31342E3730323220202020302E30303030204F202020302020302020302020302020302020302020302020302020302020302020302020300A2020312020322020312020302020202020302020300A2020312020332020312020302020202020302020300A2020312020342020312020302020202020302020300A2020322020352020312020302020202020302020300A2020332020362020312020302020202020302020300A2020352020372020312020302020202020302020300A2020352020382020322020302020202020302020300A2020362020392020312020302020202020302020300A2020362031302020322020302020202020302020300A4D2020454E44
Contributor: MGR
InstType: ESI
InstName: micrOTOF-Q
IoniMethod: ESI
IonPolarity: neg
MSMS: 2
IsolWidth: 10
TargetGas: Nitrogen
ColEnergy: -18
PeakWidth: 0.031
ChargeDecon: 2
Date: 2010-10-09 19:48:36+02:00
Column: Synergi Fusion RP 2.5 u
Mass: 44.9924-394.887
Num Peaks: 5
83.048 82 101.060 999 102.063 59 127.039 21 145.051 54 
