Name: 5-Hydroxy-6-methyluracil
MW: 156
Formula: C6H8N2O3
Synonym: MassBank: BD001016
Synonym: 5-Hydroxy-6-methyluracil
Contributor: GZ
InstType: ESI
InstName: micrOTOF-Q
IoniMethod: ESI
IonPolarity: neg
IsolWidth: 10
TargetGas: Nitrogen
ColEnergy: 10
PeakWidth: 0.03
ChargeDecon: 2
Date: 2010-10-09 19:48:36+02:00
Column: Synergi Fusion RP 2.5 u
Mass: 150.006-166.085
Num Peaks: 3
155.046 999 156.050 73 157.050 8 
