Name: Zeaxanthin
MW: 568
Formula: C40H56O2
Synonym: KEGG: C06098
Synonym: CID: 5280899
Synonym: MassBank: CA000115
Synonym: Zeaxanthin
Structure: 310A39300A20204143442F4C6162733130303430373138333532440A2034322034332020302020302020312020302020302020302020302020302020312056323030300A20202020382E393233372020202D362E3038313320202020302E303030302043202020302020302020302020302020302020302020302020302020302020302020302020300A20202020382E393233372020202D372E3431313320202020302E303030302043202020302020302020302020302020302020302020302020302020302020302020302020300A20202020372E373731382020202D352E3431363320202020302E303030302043202020302020302020302020302020302020302020302020302020302020302020302020300A20202020372E373731382020202D382E3037363320202020302E303030302043202020302020302020302020302020302020302020302020302020302020302020302020300A20202020362E363230302020202D362E3038313320202020302E303030302043202020302020302020302020302020302020302020302020302020302020302020302020300A20202020362E363230302020202D372E3431313320202020302E303030302043202020302020302020302020302020302020302020302020302020302020302020302020300A20202031302E303735352020202D382E3037363320202020302E303030302043202020302020302020302020302020302020302020302020302020302020302020302020300A20202031302E303735352020202D352E3431363320202020302E303030302043202020302020302020302020302020302020302020302020302020302020302020302020300A20202031312E323237332020202D362E3038313320202020302E303030302043202020302020302020302020302020302020302020302020302020302020302020302020300A20202031322E333739312020202D352E3431363320202020302E303030302043202020302020302020302020302020302020302020302020302020302020302020302020300A20202031332E353330392020202D362E3038313320202020302E303030302043202020302020302020302020302020302020302020302020302020302020302020302020300A20202031342E363832392020202D352E3431363320202020302E303030302043202020302020302020302020302020302020302020302020302020302020302020302020300A20202031352E383334372020202D362E3038313320202020302E303030302043202020302020302020302020302020302020302020302020302020302020302020302020300A20202031362E393836362020202D352E3431363320202020302E303030302043202020302020302020302020302020302020302020302020302020302020302020302020300A20202031382E313338342020202D362E3038313320202020302E303030302043202020302020302020302020302020302020302020302020302020302020302020302020300A20202031392E323930322020202D352E3431363320202020302E303030302043202020302020302020302020302020302020302020302020302020302020302020302020300A20202032302E343432302020202D362E3038313320202020302E303030302043202020302020302020302020302020302020302020302020302020302020302020302020300A20202032312E353933382020202D352E3431363320202020302E303030302043202020302020302020302020302020302020302020302020302020302020302020302020300A20202032322E373435362020202D362E3038313320202020302E303030302043202020302020302020302020302020302020302020302020302020302020302020302020300A20202032332E383937342020202D352E3431363320202020302E303030302043202020302020302020302020302020302020302020302020302020302020302020302020300A20202032352E303439332020202D362E3038313320202020302E303030302043202020302020302020302020302020302020302020302020302020302020302020302020300A20202032362E323031332020202D352E3431363320202020302E303030302043202020302020302020302020302020302020302020302020302020302020302020302020300A20202032372E333533312020202D362E3038313320202020302E303030302043202020302020302020302020302020302020302020302020302020302020302020302020300A20202032382E353034392020202D352E3431363320202020302E303030302043202020302020302020302020302020302020302020302020302020302020302020302020300A20202032392E363536372020202D362E3038313320202020302E303030302043202020302020302020302020302020302020302020302020302020302020302020302020300A20202031322E333739312020202D342E3038363320202020302E303030302043202020302020302020302020302020302020302020302020302020302020302020302020300A20202031362E393836362020202D342E3038363320202020302E303030302043202020302020302020302020302020302020302020302020302020302020302020302020300A20202032322E373435362020202D372E3431313320202020302E303030302043202020302020302020302020302020302020302020302020302020302020302020302020300A20202032372E333533312020202D372E3431313320202020302E303030302043202020302020302020302020302020302020302020302020302020302020302020302020300A20202033302E383038352020202D352E3431363320202020302E303030302043202020302020302020302020302020302020302020302020302020302020302020302020300A20202033332E313132322020202D342E3038363320202020302E303030302043202020302020302020302020302020302020302020302020302020302020302020302020300A20202033332E313132322020202D352E3431363320202020302E303030302043202020302020302020302020302020302020302020302020302020302020302020302020300A20202033312E393630332020202D332E3432313320202020302E303030302043202020302020302020302020302020302020302020302020302020302020302020302020300A20202033312E393630332020202D362E3038313320202020302E303030302043202020302020302020302020302020302020302020302020302020302020302020302020300A20202033302E383038352020202D342E3038363320202020302E303030302043202020302020302020302020302020302020302020302020302020302020302020302020300A20202032392E363536372020202D332E3432313320202020302E303030302043202020302020302020302020302020302020302020302020302020302020302020302020300A20202033322E363235332020202D372E3233333120202020302E303030302043202020302020302020302020302020302020302020302020302020302020302020302020300A20202033312E323935332020202D372E3233333120202020302E303030302043202020302020302020302020302020302020302020302020302020302020302020302020300A20202020372E313036372020202D342E3236343520202020302E303030302043202020302020302020302020302020302020302020302020302020302020302020302020300A20202020382E343336382020202D342E3236343520202020302E303030302043202020302020302020302020302020302020302020302020302020302020302020302020300A20202020352E343638322020202D382E3037363320202020302E30303030204F202020302020302020302020302020302020302020302020302020302020302020302020300A20202033342E323634302020202D332E3432313220202020302E30303030204F202020302020302020302020302020302020302020302020302020302020302020302020300A2020322020312020322020302020302020302020300A2020332020312020312020302020302020302020300A2020342020322020312020302020302020302020300A2020352020332020312020302020302020302020300A2020362020342020312020302020302020302020300A2020362020352020312020302020302020302020300A2020322020372020312020302020302020302020300A2020312020382020312020302020302020302020300A2020392020382020322020302020302020302020300A2031302020392020312020302020302020302020300A2031312031302020322020302020302020302020300A2031322031312020312020302020302020302020300A2031332031322020322020302020302020302020300A2031342031332020312020302020302020302020300A2031352031342020322020302020302020302020300A2031362031352020312020302020302020302020300A2031372031362020322020302020302020302020300A2031382031372020312020302020302020302020300A2031392031382020322020302020302020302020300A2032302031392020312020302020302020302020300A2032312032302020322020302020302020302020300A2032322032312020312020302020302020302020300A2032332032322020322020302020302020302020300A2032342032332020312020302020302020302020300A2032352032342020322020302020302020302020300A2031302032362020312020302020302020302020300A2031342032372020312020302020302020302020300A2031392032382020312020302020302020302020300A2032332032392020312020302020302020302020300A2033302032352020312020302020302020302020300A2033322033312020312020302020302020302020300A2033332033312020312020302020302020302020300A2033342033322020312020302020302020302020300A2033352033332020312020302020302020302020300A2033302033342020312020302020302020302020300A2033302033352020322020302020302020302020300A2033352033362020312020302020302020302020300A2033342033372020312020312020302020302020300A2033342033382020312020362020302020302020300A2020332033392020312020312020302020302020300A2020332034302020312020362020302020302020300A2020362034312020312020312020302020302020300A2033312034322020312020312020302020302020300A4D2020454E44
Contributor: Akimoto N, Graduate School of Pharmaceutical Sciences, Kyoto University and Maoka T, Research Institute for Production Development
InstType: EI
InstName: JMS-HX/HX 110A, JEOL
IoniMethod: EI
IonPolarity: pos
Date: 2010-10-09 19:48:36+02:00
Num Peaks: 131
41.0000 14 43.0000 14 44.0000 9 55.0000 17 57.0000 16 67.0000 12 69.0000 16 77.0000 11 79.0000 16 81.0000 24 
83.0000 10 85.0000 10 91.0000 41 92.0000 13 93.0000 28 95.0000 24 105.0000 50 106.0000 14 107.0000 36 109.0000 23 
115.0000 9 117.0000 15 119.0000 68 120.0000 18 121.0000 37 123.0000 12 128.0000 12 129.0000 21 130.0000 12 131.0000 33 
132.0000 11 133.0000 44 134.0000 11 135.0000 28 137.0000 9 141.0000 13 142.0000 17 143.0000 37 144.0000 17 145.0000 57 
146.0000 14 147.0000 28 149.0000 17 155.0000 18 156.0000 21 157.0000 53 158.0000 20 159.0000 39 160.0000 12 161.0000 15 
163.0000 9 165.0000 10 167.0000 14 168.0000 9 169.0000 26 170.0000 15 171.0000 38 172.0000 14 173.0000 37 174.0000 9 
175.0000 34 179.0000 14 180.0000 10 181.0000 19 182.0000 12 183.0000 35 184.0000 14 185.0000 25 186.0000 8 187.0000 20 
189.0000 8 191.0000 8 192.0000 8 193.0000 18 194.0000 12 195.0000 28 196.0000 15 197.0000 35 198.0000 12 199.0000 17 
201.0000 15 203.0000 8 207.0000 18 208.0000 12 209.0000 45 210.0000 15 211.0000 20 213.0000 9 217.0000 14 219.0000 12 
221.0000 17 222.0000 10 223.0000 19 224.0000 8 225.0000 13 233.0000 11 235.0000 16 237.0000 14 239.0000 10 247.0000 12 
249.0000 12 251.0000 9 255.0000 8 257.0000 8 259.0000 10 261.0000 11 263.0000 9 265.0000 8 275.0000 11 283.0000 11 
284.0000 25 297.0000 8 349.0000 9 362.0000 9 375.0000 9 399.0000 10 410.0000 21 415.0000 10 462.0000 29 463.0000 12 
476.0000 155 477.0000 58 478.0000 12 489.0000 9 550.0000 26 551.0000 14 566.0000 33 568.0000 999 569.0000 441 570.0000 106 
571.0000 20 
