Name: alpah-Carotene
MW: 536
Formula: C40H56
Synonym: KEGG: C02094
Synonym: CID: 5280489
Synonym: MassBank: CA000116
Synonym: alpah-Carotene
Structure: 310A38360A20204143442F4C6162733130303430373134323132440A2034302034312020302020302020312020302020302020302020302020302020312056323030300A20202020382E393037362020202D362E3036353220202020302E303030302043202020302020302020302020302020302020302020302020302020302020302020302020300A20202020382E393037362020202D372E3339353220202020302E303030302043202020302020302020302020302020302020302020302020302020302020302020302020300A20202020372E373535372020202D352E3430303220202020302E303030302043202020302020302020302020302020302020302020302020302020302020302020302020300A20202020372E373535372020202D382E3036303220202020302E303030302043202020302020302020302020302020302020302020302020302020302020302020302020300A20202020362E363033392020202D362E3036353220202020302E303030302043202020302020302020302020302020302020302020302020302020302020302020302020300A20202020362E363033392020202D372E3339353220202020302E303030302043202020302020302020302020302020302020302020302020302020302020302020302020300A20202031302E303539342020202D382E3036303220202020302E303030302043202020302020302020302020302020302020302020302020302020302020302020302020300A20202031302E303539342020202D352E3430303220202020302E303030302043202020302020302020302020302020302020302020302020302020302020302020302020300A20202031312E323131322020202D362E3036353220202020302E303030302043202020302020302020302020302020302020302020302020302020302020302020302020300A20202031322E333633302020202D352E3430303220202020302E303030302043202020302020302020302020302020302020302020302020302020302020302020302020300A20202031332E353134382020202D362E3036353220202020302E303030302043202020302020302020302020302020302020302020302020302020302020302020302020300A20202031342E363636372020202D352E3430303220202020302E303030302043202020302020302020302020302020302020302020302020302020302020302020302020300A20202031352E383138352020202D362E3036353220202020302E303030302043202020302020302020302020302020302020302020302020302020302020302020302020300A20202031362E393730342020202D352E3430303220202020302E303030302043202020302020302020302020302020302020302020302020302020302020302020302020300A20202031382E313232322020202D362E3036353220202020302E303030302043202020302020302020302020302020302020302020302020302020302020302020302020300A20202031392E323734302020202D352E3430303220202020302E303030302043202020302020302020302020302020302020302020302020302020302020302020302020300A20202032302E343235382020202D362E3036353220202020302E303030302043202020302020302020302020302020302020302020302020302020302020302020302020300A20202032312E353737362020202D352E3430303220202020302E303030302043202020302020302020302020302020302020302020302020302020302020302020302020300A20202032322E373239342020202D362E3036353220202020302E303030302043202020302020302020302020302020302020302020302020302020302020302020302020300A20202032332E383831322020202D352E3430303220202020302E303030302043202020302020302020302020302020302020302020302020302020302020302020302020300A20202032352E303333302020202D362E3036353220202020302E303030302043202020302020302020302020302020302020302020302020302020302020302020302020300A20202032362E313835302020202D352E3430303220202020302E303030302043202020302020302020302020302020302020302020302020302020302020302020302020300A20202032372E333336382020202D362E3036353220202020302E303030302043202020302020302020302020302020302020302020302020302020302020302020302020300A20202032382E343838362020202D352E3430303220202020302E303030302043202020302020302020302020302020302020302020302020302020302020302020302020300A20202032392E363430342020202D362E3036353220202020302E303030302043202020302020302020302020302020302020302020302020302020302020302020302020300A20202031322E333633302020202D342E3037303220202020302E303030302043202020302020302020302020302020302020302020302020302020302020302020302020300A20202031362E393730342020202D342E3037303220202020302E303030302043202020302020302020302020302020302020302020302020302020302020302020302020300A20202032322E373239342020202D372E3339353220202020302E303030302043202020302020302020302020302020302020302020302020302020302020302020302020300A20202032372E333336382020202D372E3339353220202020302E303030302043202020302020302020302020302020302020302020302020302020302020302020302020300A20202033302E373932322020202D352E3430303220202020302E303030302043202020302020302020302020302020302020302020302020302020302020302020302020300A20202033332E303935392020202D342E3037303220202020302E303030302043202020302020302020302020302020302020302020302020302020302020302020302020300A20202033332E303935392020202D352E3430303220202020302E303030302043202020302020302020302020302020302020302020302020302020302020302020302020300A20202033312E393434302020202D332E3430353220202020302E303030302043202020302020302020302020302020302020302020302020302020302020302020302020300A20202033312E393434302020202D362E3036353220202020302E303030302043202020302020302020302020302020302020302020302020302020302020302020302020300A20202033302E373932322020202D342E3037303220202020302E303030302043202020302020302020302020302020302020302020302020302020302020302020302020300A20202032392E363430342020202D332E3430353220202020302E303030302043202020302020302020302020302020302020302020302020302020302020302020302020300A20202033322E363039302020202D372E3231373020202020302E303030302043202020302020302020302020302020302020302020302020302020302020302020302020300A20202033312E323739302020202D372E3231373020202020302E303030302043202020302020302020302020302020302020302020302020302020302020302020302020300A20202020372E303930362020202D342E3234383420202020302E303030302043202020302020302020302020302020302020302020302020302020302020302020302020300A20202020382E343230372020202D342E3234383420202020302E303030302043202020302020302020302020302020302020302020302020302020302020302020302020300A2020322020312020322020302020302020302020300A2020332020312020312020302020302020302020300A2020342020322020312020302020302020302020300A2020352020332020312020302020302020302020300A2020362020342020312020302020302020302020300A2020362020352020312020302020302020302020300A2020322020372020312020302020302020302020300A2020312020382020312020302020302020302020300A2020392020382020322020302020302020302020300A2031302020392020312020302020302020302020300A2031312031302020322020302020302020302020300A2031322031312020312020302020302020302020300A2031332031322020322020302020302020302020300A2031342031332020312020302020302020302020300A2031352031342020322020302020302020302020300A2031362031352020312020302020302020302020300A2031372031362020322020302020302020302020300A2031382031372020312020302020302020302020300A2031392031382020322020302020302020302020300A2032302031392020312020302020302020302020300A2032312032302020322020302020302020302020300A2032322032312020312020302020302020302020300A2032332032322020322020302020302020302020300A2032342032332020312020302020302020302020300A2032352032342020322020302020302020302020300A2031302032362020312020302020302020302020300A2031342032372020312020302020302020302020300A2031392032382020312020302020302020302020300A2032332032392020312020302020302020302020300A2033302032352020312020312020302020302020300A2033322033312020312020302020302020302020300A2033332033312020312020302020302020302020300A2033342033322020312020302020302020302020300A2033352033332020312020302020302020302020300A2033302033342020312020302020302020302020300A2033302033352020322020302020302020302020300A2033352033362020312020302020302020302020300A2033342033372020312020312020302020302020300A2033342033382020312020362020302020302020300A2020332033392020312020312020302020302020300A2020332034302020312020362020302020302020300A4D2020454E44
Contributor: Akimoto N, Graduate School of Pharmaceutical Sciences, Kyoto University and Maoka T, Research Institute for Production Development
InstType: EI
InstName: JMS-HX/HX 110A, JEOL
IoniMethod: EI
IonPolarity: pos
Date: 2010-10-09 19:48:36+02:00
Num Peaks: 231
28.0000 6 29.0000 5 39.0000 3 41.0000 19 42.0000 3 43.0000 15 53.0000 4 55.0000 29 56.0000 8 57.0000 16 
67.0000 11 69.0000 45 70.0000 3 77.0000 11 79.0000 19 80.0000 5 81.0000 42 82.0000 4 83.0000 12 86.0000 3 
91.0000 37 92.0000 9 93.0000 42 94.0000 6 95.0000 42 96.0000 4 97.0000 4 103.0000 4 105.0000 71 106.0000 14 
107.0000 48 108.0000 8 109.0000 23 111.0000 4 115.0000 9 116.0000 6 117.0000 19 118.0000 7 119.0000 88 120.0000 19 
121.0000 45 122.0000 13 123.0000 61 124.0000 7 127.0000 3 128.0000 13 129.0000 23 130.0000 14 131.0000 35 132.0000 20 
133.0000 56 134.0000 11 135.0000 12 137.0000 15 139.0000 4 141.0000 12 142.0000 18 143.0000 45 144.0000 20 145.0000 88 
146.0000 20 147.0000 31 148.0000 6 149.0000 7 151.0000 3 152.0000 4 153.0000 8 154.0000 5 155.0000 21 156.0000 21 
157.0000 58 158.0000 21 159.0000 43 160.0000 10 161.0000 17 162.0000 3 163.0000 4 165.0000 11 166.0000 10 167.0000 13 
168.0000 9 169.0000 31 170.0000 15 171.0000 40 172.0000 17 173.0000 22 174.0000 8 175.0000 19 176.0000 5 177.0000 23 
178.0000 6 179.0000 16 180.0000 8 181.0000 19 182.0000 12 183.0000 36 184.0000 13 185.0000 28 186.0000 9 187.0000 14 
188.0000 5 189.0000 11 190.0000 4 191.0000 4 192.0000 6 193.0000 13 194.0000 12 195.0000 29 196.0000 14 197.0000 45 
198.0000 16 199.0000 19 200.0000 8 201.0000 10 202.0000 4 203.0000 17 204.0000 4 205.0000 7 206.0000 6 207.0000 39 
208.0000 11 209.0000 45 210.0000 14 211.0000 30 212.0000 9 213.0000 10 214.0000 5 215.0000 6 217.0000 3 218.0000 3 
219.0000 6 220.0000 5 221.0000 14 222.0000 8 223.0000 24 224.0000 9 225.0000 11 226.0000 6 227.0000 6 229.0000 3 
231.0000 4 232.0000 4 233.0000 8 234.0000 4 235.0000 13 236.0000 5 237.0000 12 238.0000 4 239.0000 9 240.0000 19 
241.0000 10 242.0000 3 243.0000 10 245.0000 4 247.0000 6 248.0000 3 249.0000 8 250.0000 3 251.0000 7 252.0000 3 
253.0000 6 254.0000 6 255.0000 8 256.0000 4 259.0000 3 261.0000 7 262.0000 3 263.0000 8 264.0000 4 265.0000 7 
266.0000 5 267.0000 16 268.0000 25 269.0000 10 275.0000 7 276.0000 3 277.0000 6 278.0000 3 279.0000 5 280.0000 4 
281.0000 9 282.0000 6 289.0000 4 290.0000 5 291.0000 4 293.0000 6 294.0000 3 295.0000 4 303.0000 3 305.0000 4 
307.0000 5 319.0000 4 320.0000 4 321.0000 9 322.0000 8 331.0000 5 333.0000 12 334.0000 5 335.0000 4 345.0000 4 
346.0000 6 347.0000 4 348.0000 4 359.0000 7 368.0000 9 378.0000 10 379.0000 4 388.0000 23 389.0000 8 390.0000 4 
391.0000 3 399.0000 4 413.0000 7 414.0000 5 429.0000 3 430.0000 9 431.0000 4 444.0000 95 445.0000 36 446.0000 7 
447.0000 9 456.0000 3 457.0000 5 458.0000 3 480.0000 7 481.0000 3 521.0000 3 536.0000 999 537.0000 449 538.0000 105 
539.0000 18 
