Name: alpha-Tocotrienol
MW: 424
Formula: C29H44O2
Synonym: CID: 6538275
Synonym: MassBank: CA000178
Synonym: alpha-Tocotrienol
Structure: 546F636F747269656E6F6C6C2E736B322D302D340A20204D61737342616E6B3030303030303030303032440A2033312033322020302020302020312020302020302020302020302020302020312056323030300A20203935332E343732322D313533332E3534343820202020302E303030302043202020302020302020302020302020302020302020302020302020302020302020302020300A20313030352E333433392D313530332E3534383120202020302E303030302043202020302020302020302020302020302020302020302020302020302020302020302020300A20313035372E343237322D313533332E3534343820202020302E303030302043202020302020302020302020302020302020302020302020302020302020302020302020300A20313130392E323939312D313530332E3534383120202020302E303030302043202020302020302020302020302020302020302020302020302020302020302020302020300A20313136312E333832332D313533332E3534343820202020302E303030302043202020302020302020302020302020302020302020302020302020302020302020302020300A20313231332E323730342D313530332E3534383120202020302E303030302043202020302020302020302020302020302020302020302020302020302020302020302020300A20313236352E313432312D313533332E3534343820202020302E303030302043202020302020302020302020302020302020302020302020302020302020302020302020300A20313331372E323235352D313530332E3534383120202020302E303030302043202020302020302020302020302020302020302020302020302020302020302020302020300A20313336392E303937322D313533332E3534343820202020302E303030302043202020302020302020302020302020302020302020302020302020302020302020302020300A20313432302E393639302D313530332E3534383120202020302E303030302043202020302020302020302020302020302020302020302020302020302020302020302020300A20313437332E303532322D313533332E3534343820202020302E303030302043202020302020302020302020302020302020302020302020302020302020302020302020300A20313532342E393234312D313530332E3534383120202020302E303030302043202020302020302020302020302020302020302020302020302020302020302020302020300A20313537372E303037332D313533332E3534343820202020302E303030302043202020302020302020302020302020302020302020302020302020302020302020302020300A20313632382E383935342D313530332E3534383120202020302E303030302043202020302020302020302020302020302020302020302020302020302020302020302020300A20203930312E363030352D313530332E3534383120202020302E30303030204F202020302020302020302020302020302020302020302020302020302020302020302020300A20203834392E353137322D313533332E3534343820202020302E303030302043202020302020302020302020302020302020302020302020302020302020302020302020300A20203834392E353137322D313539332E3734393920202020302E303030302043202020302020302020302020302020302020302020302020302020302020302020302020300A20203930312E363030352D313632332E3935383320202020302E303030302043202020302020302020302020302020302020302020302020302020302020302020302020300A20203935332E343732322D313539332E3734393920202020302E303030302043202020302020302020302020302020302020302020302020302020302020302020302020300A20203739372E363435342D313530332E3534383120202020302E303030302043202020302020302020302020302020302020302020302020302020302020302020302020300A20203734352E353632312D313533332E3534343820202020302E303030302043202020302020302020302020302020302020302020302020302020302020302020302020300A20203734352E353632312D313539332E3734393920202020302E303030302043202020302020302020302020302020302020302020302020302020302020302020302020300A20203739372E363435342D313632332E3935383320202020302E303030302043202020302020302020302020302020302020302020302020302020302020302020302020300A20203739372E363435342D313434332E3533383320202020302E303030302043202020302020302020302020302020302020302020302020302020302020302020302020300A20203639332E363734302D313530332E3534383120202020302E303030302043202020302020302020302020302020302020302020302020302020302020302020302020300A20203739372E363435342D313638332E3935313820202020302E303030302043202020302020302020302020302020302020302020302020302020302020302020302020300A20203639332E363734302D313632332E3734363720202020302E30303030204F202020302020302020302020302020302020302020302020302020302020302020302020300A20313537372E303037332D313539332E3533383320202020302E303030302043202020302020302020302020302020302020302020302020302020302020302020302020300A20313030352E343238302D313536332E3534313620202020302E303030302043202020302020302020302020302020302020302020302020302020302020302020302020300A20313336392E303937322D313539332E3533383320202020302E303030302043202020302020302020302020302020302020302020302020302020302020302020302020300A20313136312E333832332D313539332E3533383320202020302E303030302043202020302020302020302020302020302020302020302020302020302020302020302020300A2020322020332020312020302020302020302020300A2020332020342020312020302020302020302020300A2020342020352020322020302020302020302020300A2020352020362020312020302020302020302020300A2020362020372020312020302020302020302020300A2020372020382020312020302020302020302020300A2020382020392020322020302020302020302020300A2020392031302020312020302020302020302020300A2031302031312020312020302020302020302020300A2031312031322020312020302020302020302020300A2031322031332020322020302020302020302020300A2031332031342020312020302020302020302020300A2020312031352020312020302020302020302020300A2031352031362020312020302020302020302020300A2031362031372020312020302020302020302020300A2031372031382020312020302020302020302020300A2031382031392020312020302020302020302020300A2020312031392020312020302020302020302020300A2031362032302020322020302020302020302020300A2032302032312020312020302020302020302020300A2032312032322020322020302020302020302020300A2032322032332020312020302020302020302020300A2031372032332020322020302020302020302020300A2032302032342020312020302020302020302020300A2032312032352020312020302020302020302020300A2032332032362020312020302020302020302020300A2032372032322020312020302020302020302020300A2031332032382020312020302020302020302020300A2020312020322020312020302020302020302020300A2020312032392020312020302020302020302020300A2020392033302020312020302020302020302020300A2020352033312020312020302020302020302020300A4D2020454E44
Contributor: Akimoto N, Graduate School of Pharmaceutical Sciences, Kyoto University and Maoka T, Research Institute for Production Development
InstType: EI
InstName: JMS-HX/HX 110A, JEOL
IoniMethod: EI
IonPolarity: pos
Date: 2010-10-09 19:48:36+02:00
Num Peaks: 472
13.0235 0 14.0048 0 15.0323 1 16.0063 0 19.8844 0 23.0020 301 24.3413 0 25.0555 0 26.0106 1 27.0339 5 
28.0383 1 29.0467 3 37.0359 0 38.0510 0 39.0229 2 40.0148 0 41.0303 7 42.0247 0 43.0111 1 48.0395 0 
48.9343 0 50.0131 1 51.0004 3 52.0207 1 53.0228 6 54.0346 1 55.0275 8 56.0348 0 57.0921 0 59.7476 0 
60.9925 0 61.9771 1 63.0323 1 63.5304 0 63.7574 0 64.0110 1 64.1782 0 64.7355 0 65.0371 4 66.0483 2 
66.3245 0 66.7089 0 67.0475 14 68.0282 10 69.0462 70 69.5699 0 70.0757 0 71.0177 0 72.9892 0 74.0022 1 
75.0044 1 75.3049 0 75.9596 0 76.3942 0 77.0422 10 77.6520 0 78.0354 3 78.6393 0 79.0502 12 80.0291 2 
80.5419 0 81.0585 18 82.0539 1 83.0430 1 84.1291 0 85.0072 0 85.9866 0 87.0286 0 88.0480 0 89.0635 1 
89.5423 0 90.0030 0 90.2962 0 91.0720 19 92.0895 2 93.0673 11 93.5530 0 94.0513 2 95.0854 7 95.9362 0 
96.3197 0 97.0245 0 97.9435 0 99.1096 0 99.7379 0 101.0617 0 101.7693 0 102.0601 1 102.4944 0 103.0690 2 
104.0550 1 105.0747 7 106.0479 1 107.0796 9 108.0388 1 108.3256 0 109.0789 2 109.8611 0 110.1025 0 111.0320 0 
112.1112 0 113.0126 0 114.0032 0 114.6751 0 115.0662 3 116.0026 1 116.4554 0 117.0263 2 117.5794 0 117.9888 1 
118.1930 0 119.0603 4 119.6613 0 120.0683 1 120.5073 0 121.0592 8 122.0444 2 123.0581 1 123.5807 0 124.2304 0 
125.0224 0 126.0667 0 127.0831 0 127.4192 0 128.0343 1 128.5062 0 129.0748 2 130.0141 0 130.2292 0 131.0544 1 
132.0058 1 132.4968 0 133.0711 2 134.0717 1 135.0697 6 135.6788 0 136.0651 6 137.0845 3 137.4157 0 137.6103 0 
138.0667 1 139.0647 0 139.5612 0 140.1205 0 141.0877 1 141.7512 0 142.0836 0 142.3964 0 143.1060 1 144.0488 0 
145.0867 2 145.4946 0 146.1126 1 146.5885 0 147.0763 3 147.6705 0 148.0220 1 149.0911 4 150.0581 1 150.5542 0 
151.0609 0 152.0504 1 152.2683 0 153.1378 0 154.0161 0 154.6650 0 155.1098 1 156.1342 1 156.7512 0 157.1119 2 
158.1546 1 158.4559 0 159.1195 2 160.0381 1 160.2446 0 161.1122 3 162.1024 1 162.4984 0 163.0791 1 163.2872 0 
164.0658 5 165.0872 13 165.5758 0 166.0633 1 167.0895 1 168.1434 0 169.0906 0 170.0371 1 171.0597 2 172.0698 1 
173.0900 2 174.1061 2 175.1037 8 176.0900 2 176.4856 0 177.1266 0 177.5201 0 178.0452 1 178.3345 0 179.0567 1 
179.9691 0 181.0136 0 181.9768 0 182.2655 0 182.4710 0 183.1115 1 183.4812 0 184.0138 1 185.0461 5 185.4792 0 
186.0539 47 187.0670 10 187.6648 0 188.0531 5 189.0910 7 189.5344 0 190.1150 3 190.6790 0 191.1036 1 191.9973 0 
195.0351 0 195.5955 0 197.1007 0 198.1700 0 199.1118 0 200.0491 0 201.1209 2 202.1189 2 203.1268 13 203.7838 0 
204.1484 4 205.1403 3 205.7570 0 206.0570 1 207.1012 0 207.8108 0 208.1171 0 209.1249 0 210.0862 0 211.0964 0 
212.1045 4 213.1346 2 214.1229 1 215.1429 1 216.1824 1 217.2019 1 218.1471 1 219.1106 0 220.0938 0 220.2490 0 
222.1067 0 223.0823 0 224.1486 1 225.1333 4 226.1182 13 227.1529 8 228.1554 1 229.0906 1 229.2945 0 229.5166 0 
229.7375 0 230.2264 0 230.7190 0 231.1766 0 231.4036 0 232.1911 0 232.4556 0 233.2349 0 233.4753 0 236.2384 0 
236.6767 0 237.2418 0 238.0812 0 239.1479 1 240.1787 5 241.1602 3 241.3270 1 242.1661 1 243.2376 0 243.4880 0 
245.1806 0 248.2011 0 251.2357 0 252.1934 0 253.2289 0 254.1786 1 255.1262 1 256.1320 1 256.8339 0 257.1818 0 
258.2646 0 259.1548 0 261.2098 0 261.5800 0 263.2367 0 263.8049 0 264.2019 0 265.1042 0 266.1277 0 266.3266 0 
267.2122 0 268.1306 0 269.1815 0 269.3890 0 270.1719 0 271.2766 0 271.4284 0 271.8498 0 275.2533 0 278.0718 0 
278.8135 0 279.1078 0 280.1718 1 281.1546 1 282.1327 0 282.3870 0 282.6936 0 283.2570 8 284.1637 0 284.7516 0 
285.2494 1 286.3257 0 288.3216 0 288.7808 0 291.3052 0 292.2180 0 292.7128 0 293.2272 0 294.2305 5 295.1938 1 
296.1120 1 297.0573 0 303.4401 0 304.2494 0 304.6139 0 305.1027 0 305.7001 0 306.3086 0 306.6439 0 307.1780 1 
307.5304 0 308.2244 29 309.2344 22 310.2091 6 310.8777 0 311.4219 0 312.3360 0 313.6126 0 314.7247 0 318.1682 0 
320.3451 0 321.1405 0 321.4594 0 322.2574 7 323.2278 1 323.4417 0 324.2264 1 325.2093 0 327.3790 0 331.5800 0 
333.4565 0 334.3582 0 336.2892 1 336.5532 0 339.2084 1 347.0692 0 348.2121 1 348.4015 1 349.0555 0 349.3502 0 
350.2964 0 351.6464 0 353.7058 0 354.4348 0 354.7394 0 359.7046 0 360.0840 0 360.2602 0 360.6103 0 361.2762 0 
361.4206 0 362.2983 8 362.7647 0 363.2985 1 363.6205 0 364.1102 1 364.4335 0 364.9955 0 365.6102 0 368.1830 0 
369.6002 0 370.0368 0 370.2092 0 371.7037 0 372.0242 0 372.3214 0 373.1691 0 374.2260 0 374.5356 0 375.2342 1 
375.8006 0 376.3145 29 377.2984 14 378.3508 2 379.2296 0 379.6114 0 380.2051 0 381.3178 0 382.2494 0 383.2234 0 
384.3595 0 386.0203 0 388.2343 0 390.3226 3 391.2807 4 392.2290 1 392.9290 0 393.4650 0 394.0843 0 399.1229 0 
400.3865 0 401.1947 0 401.9638 0 402.2969 2 402.6239 0 403.3428 1 404.3153 1 405.4214 0 406.2385 0 408.4597 0 
410.0502 0 410.5747 0 412.0355 0 412.4939 0 413.2648 0 414.1406 0 415.0302 0 415.7473 0 416.3298 3 416.6027 1 
417.3908 0 418.4703 0 420.2403 0 422.5515 0 423.4269 0 425.4669 0 425.9592 0 426.3596 0 426.8127 0 427.3797 0 
427.8758 0 428.2848 0 429.3884 1 429.7730 0 430.3499 15 431.3813 15 432.4018 1 435.2039 0 435.5764 0 436.5370 0 
436.9464 0 437.3986 0 437.7307 0 438.1559 0 438.7176 1 446.3496 999 447.3312 48 448.0155 17 448.9641 7 449.6644 4 
451.0771 2 452.7875 1 
