Name: Lutein
MW: 568
Formula: C40H56O2
Synonym: KEGG: C08601
Synonym: CID: 5281243
Synonym: MassBank: CA000113
Synonym: Lutein
Structure: 310A39300A20204143442F4C6162733130303430373136313532440A2034322034332020302020302020312020302020302020302020302020302020312056323030300A20202020382E393233372020202D362E3038313320202020302E303030302043202020302020302020302020302020302020302020302020302020302020302020302020300A20202020382E393233372020202D372E3431313320202020302E303030302043202020302020302020302020302020302020302020302020302020302020302020302020300A20202020372E373731382020202D352E3431363320202020302E303030302043202020302020302020302020302020302020302020302020302020302020302020302020300A20202020372E373731382020202D382E3037363320202020302E303030302043202020302020302020302020302020302020302020302020302020302020302020302020300A20202020362E363230302020202D362E3038313320202020302E303030302043202020302020302020302020302020302020302020302020302020302020302020302020300A20202020362E363230302020202D372E3431313320202020302E303030302043202020302020302020302020302020302020302020302020302020302020302020302020300A20202031302E303735352020202D382E3037363320202020302E303030302043202020302020302020302020302020302020302020302020302020302020302020302020300A20202031302E303735352020202D352E3431363320202020302E303030302043202020302020302020302020302020302020302020302020302020302020302020302020300A20202031312E323237332020202D362E3038313320202020302E303030302043202020302020302020302020302020302020302020302020302020302020302020302020300A20202031322E333739312020202D352E3431363320202020302E303030302043202020302020302020302020302020302020302020302020302020302020302020302020300A20202031332E353330392020202D362E3038313320202020302E303030302043202020302020302020302020302020302020302020302020302020302020302020302020300A20202031342E363832392020202D352E3431363320202020302E303030302043202020302020302020302020302020302020302020302020302020302020302020302020300A20202031352E383334372020202D362E3038313320202020302E303030302043202020302020302020302020302020302020302020302020302020302020302020302020300A20202031362E393836362020202D352E3431363320202020302E303030302043202020302020302020302020302020302020302020302020302020302020302020302020300A20202031382E313338342020202D362E3038313320202020302E303030302043202020302020302020302020302020302020302020302020302020302020302020302020300A20202031392E323930322020202D352E3431363320202020302E303030302043202020302020302020302020302020302020302020302020302020302020302020302020300A20202032302E343432302020202D362E3038313320202020302E303030302043202020302020302020302020302020302020302020302020302020302020302020302020300A20202032312E353933382020202D352E3431363320202020302E303030302043202020302020302020302020302020302020302020302020302020302020302020302020300A20202032322E373435362020202D362E3038313320202020302E303030302043202020302020302020302020302020302020302020302020302020302020302020302020300A20202032332E383937342020202D352E3431363320202020302E303030302043202020302020302020302020302020302020302020302020302020302020302020302020300A20202032352E303439332020202D362E3038313320202020302E303030302043202020302020302020302020302020302020302020302020302020302020302020302020300A20202032362E323031332020202D352E3431363320202020302E303030302043202020302020302020302020302020302020302020302020302020302020302020302020300A20202032372E333533312020202D362E3038313320202020302E303030302043202020302020302020302020302020302020302020302020302020302020302020302020300A20202032382E353034392020202D352E3431363320202020302E303030302043202020302020302020302020302020302020302020302020302020302020302020302020300A20202032392E363536372020202D362E3038313320202020302E303030302043202020302020302020302020302020302020302020302020302020302020302020302020300A20202031322E333739312020202D342E3038363320202020302E303030302043202020302020302020302020302020302020302020302020302020302020302020302020300A20202031362E393836362020202D342E3038363320202020302E303030302043202020302020302020302020302020302020302020302020302020302020302020302020300A20202032322E373435362020202D372E3431313320202020302E303030302043202020302020302020302020302020302020302020302020302020302020302020302020300A20202032372E333533312020202D372E3431313320202020302E303030302043202020302020302020302020302020302020302020302020302020302020302020302020300A20202033302E383038352020202D352E3431363320202020302E303030302043202020302020302020302020302020302020302020302020302020302020302020302020300A20202033332E313132322020202D342E3038363320202020302E303030302043202020302020302020302020302020302020302020302020302020302020302020302020300A20202033332E313132322020202D352E3431363320202020302E303030302043202020302020302020302020302020302020302020302020302020302020302020302020300A20202033312E393630332020202D332E3432313320202020302E303030302043202020302020302020302020302020302020302020302020302020302020302020302020300A20202033312E393630332020202D362E3038313320202020302E303030302043202020302020302020302020302020302020302020302020302020302020302020302020300A20202033302E383038352020202D342E3038363320202020302E303030302043202020302020302020302020302020302020302020302020302020302020302020302020300A20202032392E363536372020202D332E3432313320202020302E303030302043202020302020302020302020302020302020302020302020302020302020302020302020300A20202033322E363235332020202D372E3233333120202020302E303030302043202020302020302020302020302020302020302020302020302020302020302020302020300A20202033312E323935332020202D372E3233333120202020302E303030302043202020302020302020302020302020302020302020302020302020302020302020302020300A20202020372E313036372020202D342E3236343520202020302E303030302043202020302020302020302020302020302020302020302020302020302020302020302020300A20202020382E343336382020202D342E3236343520202020302E303030302043202020302020302020302020302020302020302020302020302020302020302020302020300A20202020352E343638322020202D382E3037363320202020302E30303030204F202020302020302020302020302020302020302020302020302020302020302020302020300A20202033342E323634302020202D332E3432313220202020302E30303030204F202020302020302020302020302020302020302020302020302020302020302020302020300A2020322020312020322020302020302020302020300A2020332020312020312020302020302020302020300A2020342020322020312020302020302020302020300A2020352020332020312020302020302020302020300A2020362020342020312020302020302020302020300A2020362020352020312020302020302020302020300A2020322020372020312020302020302020302020300A2020312020382020312020302020302020302020300A2020392020382020322020302020302020302020300A2031302020392020312020302020302020302020300A2031312031302020322020302020302020302020300A2031322031312020312020302020302020302020300A2031332031322020322020302020302020302020300A2031342031332020312020302020302020302020300A2031352031342020322020302020302020302020300A2031362031352020312020302020302020302020300A2031372031362020322020302020302020302020300A2031382031372020312020302020302020302020300A2031392031382020322020302020302020302020300A2032302031392020312020302020302020302020300A2032312032302020322020302020302020302020300A2032322032312020312020302020302020302020300A2032332032322020322020302020302020302020300A2032342032332020312020302020302020302020300A2032352032342020322020302020302020302020300A2031302032362020312020302020302020302020300A2031342032372020312020302020302020302020300A2031392032382020312020302020302020302020300A2032332032392020312020302020302020302020300A2033302032352020312020312020302020302020300A2033322033312020312020302020302020302020300A2033332033312020312020302020302020302020300A2033342033322020312020302020302020302020300A2033352033332020322020302020302020302020300A2033302033342020312020302020302020302020300A2033302033352020312020302020302020302020300A2033352033362020312020302020302020302020300A2033342033372020312020312020302020302020300A2033342033382020312020362020302020302020300A2020332033392020312020312020302020302020300A2020332034302020312020362020302020302020300A2020362034312020312020312020302020302020300A2033312034322020312020362020302020302020300A4D2020454E44
Contributor: Akimoto N, Graduate School of Pharmaceutical Sciences, Kyoto University and Maoka T, Research Institute for Production Development
InstType: EI
InstName: JMS-HX/HX 110A, JEOL
IoniMethod: EI
IonPolarity: pos
Date: 2010-10-09 19:48:36+02:00
Num Peaks: 322
28.0000 9 29.0000 5 39.0000 6 41.0000 19 43.0000 18 44.0000 20 51.0000 4 53.0000 6 55.0000 28 57.0000 18 
59.0000 4 65.0000 7 67.0000 17 69.0000 30 70.0000 4 71.0000 6 73.0000 4 77.0000 18 78.0000 6 79.0000 25 
80.0000 6 81.0000 37 82.0000 7 83.0000 15 85.0000 9 89.0000 5 91.0000 79 92.0000 28 93.0000 49 94.0000 8 
95.0000 33 96.0000 6 97.0000 9 103.0000 7 104.0000 5 105.0000 82 106.0000 27 107.0000 51 108.0000 10 109.0000 36 
110.0000 6 111.0000 6 115.0000 14 116.0000 9 117.0000 25 118.0000 9 119.0000 103 120.0000 25 121.0000 66 122.0000 11 
123.0000 21 124.0000 4 125.0000 5 127.0000 6 128.0000 18 129.0000 35 130.0000 19 131.0000 53 132.0000 22 133.0000 67 
134.0000 15 135.0000 38 136.0000 7 137.0000 12 138.0000 12 139.0000 7 141.0000 18 142.0000 26 143.0000 61 144.0000 27 
145.0000 105 146.0000 23 147.0000 38 148.0000 9 149.0000 17 150.0000 4 151.0000 8 152.0000 7 153.0000 11 154.0000 8 
155.0000 27 156.0000 30 157.0000 80 158.0000 30 159.0000 62 160.0000 17 161.0000 22 162.0000 5 163.0000 9 164.0000 4 
165.0000 15 166.0000 10 167.0000 18 168.0000 13 169.0000 40 170.0000 22 171.0000 54 172.0000 21 173.0000 74 174.0000 16 
175.0000 40 176.0000 8 177.0000 7 178.0000 15 179.0000 21 180.0000 13 181.0000 30 182.0000 18 183.0000 47 184.0000 18 
185.0000 42 186.0000 16 187.0000 28 188.0000 8 189.0000 9 190.0000 6 191.0000 14 192.0000 11 193.0000 26 194.0000 18 
195.0000 39 196.0000 22 197.0000 53 198.0000 19 199.0000 33 200.0000 13 201.0000 21 202.0000 7 203.0000 9 204.0000 6 
205.0000 11 206.0000 14 207.0000 26 208.0000 17 209.0000 61 210.0000 19 211.0000 35 212.0000 11 213.0000 15 214.0000 6 
215.0000 18 216.0000 6 217.0000 13 218.0000 8 219.0000 15 220.0000 10 221.0000 25 222.0000 15 223.0000 32 224.0000 12 
225.0000 18 226.0000 8 227.0000 9 228.0000 6 229.0000 8 230.0000 5 231.0000 10 232.0000 7 233.0000 13 234.0000 8 
235.0000 21 236.0000 11 237.0000 23 238.0000 9 239.0000 17 240.0000 7 241.0000 9 242.0000 6 243.0000 6 244.0000 5 
245.0000 9 246.0000 7 247.0000 13 248.0000 7 249.0000 16 250.0000 7 251.0000 14 252.0000 8 253.0000 11 254.0000 7 
255.0000 9 256.0000 10 257.0000 9 258.0000 6 259.0000 12 260.0000 7 261.0000 14 262.0000 7 263.0000 15 264.0000 9 
265.0000 17 266.0000 9 267.0000 9 268.0000 5 269.0000 7 270.0000 7 271.0000 9 272.0000 7 273.0000 9 274.0000 5 
275.0000 33 276.0000 9 277.0000 9 278.0000 6 279.0000 8 280.0000 5 281.0000 6 282.0000 5 283.0000 11 284.0000 9 
285.0000 11 286.0000 4 287.0000 6 288.0000 4 289.0000 8 290.0000 5 291.0000 7 292.0000 4 293.0000 5 295.0000 5 
296.0000 4 297.0000 9 298.0000 5 299.0000 4 301.0000 5 303.0000 6 305.0000 5 307.0000 4 309.0000 5 311.0000 5 
313.0000 8 315.0000 4 317.0000 5 319.0000 5 321.0000 4 323.0000 6 324.0000 5 325.0000 5 326.0000 5 327.0000 5 
329.0000 6 330.0000 4 331.0000 8 332.0000 6 333.0000 5 336.0000 5 337.0000 8 338.0000 14 339.0000 7 343.0000 5 
344.0000 6 345.0000 6 346.0000 4 347.0000 5 349.0000 9 350.0000 4 351.0000 6 357.0000 6 358.0000 4 362.0000 7 
368.0000 8 369.0000 6 375.0000 7 380.0000 5 381.0000 6 382.0000 7 383.0000 7 384.0000 5 392.0000 13 393.0000 7 
394.0000 5 395.0000 4 396.0000 8 397.0000 8 398.0000 6 399.0000 7 400.0000 6 410.0000 6 411.0000 6 412.0000 7 
413.0000 4 415.0000 4 427.0000 5 428.0000 7 429.0000 10 430.0000 14 431.0000 6 440.0000 6 444.0000 27 445.0000 13 
446.0000 5 458.0000 67 459.0000 26 460.0000 8 462.0000 13 463.0000 6 471.0000 5 476.0000 35 477.0000 14 478.0000 4 
517.0000 6 530.0000 11 531.0000 7 532.0000 58 533.0000 27 534.0000 16 535.0000 11 536.0000 6 548.0000 30 549.0000 22 
550.0000 999 551.0000 441 552.0000 124 553.0000 25 554.0000 6 564.0000 4 566.0000 22 567.0000 12 568.0000 605 569.0000 266 
570.0000 63 571.0000 12 
