Name: alpha-Tocotrienol
MW: 424
Formula: C29H44O2
Synonym: CID: 6538275
Synonym: MassBank: CA000177
Synonym: alpha-Tocotrienol
Structure: 546F636F747269656E6F6C6C2E736B322D302D340A20204D61737342616E6B3030303030303030303032440A2033312033322020302020302020312020302020302020302020302020302020312056323030300A20203935332E343732322D313533332E3534343820202020302E303030302043202020302020302020302020302020302020302020302020302020302020302020302020300A20313030352E333433392D313530332E3534383120202020302E303030302043202020302020302020302020302020302020302020302020302020302020302020302020300A20313035372E343237322D313533332E3534343820202020302E303030302043202020302020302020302020302020302020302020302020302020302020302020302020300A20313130392E323939312D313530332E3534383120202020302E303030302043202020302020302020302020302020302020302020302020302020302020302020302020300A20313136312E333832332D313533332E3534343820202020302E303030302043202020302020302020302020302020302020302020302020302020302020302020302020300A20313231332E323730342D313530332E3534383120202020302E303030302043202020302020302020302020302020302020302020302020302020302020302020302020300A20313236352E313432312D313533332E3534343820202020302E303030302043202020302020302020302020302020302020302020302020302020302020302020302020300A20313331372E323235352D313530332E3534383120202020302E303030302043202020302020302020302020302020302020302020302020302020302020302020302020300A20313336392E303937322D313533332E3534343820202020302E303030302043202020302020302020302020302020302020302020302020302020302020302020302020300A20313432302E393639302D313530332E3534383120202020302E303030302043202020302020302020302020302020302020302020302020302020302020302020302020300A20313437332E303532322D313533332E3534343820202020302E303030302043202020302020302020302020302020302020302020302020302020302020302020302020300A20313532342E393234312D313530332E3534383120202020302E303030302043202020302020302020302020302020302020302020302020302020302020302020302020300A20313537372E303037332D313533332E3534343820202020302E303030302043202020302020302020302020302020302020302020302020302020302020302020302020300A20313632382E383935342D313530332E3534383120202020302E303030302043202020302020302020302020302020302020302020302020302020302020302020302020300A20203930312E363030352D313530332E3534383120202020302E30303030204F202020302020302020302020302020302020302020302020302020302020302020302020300A20203834392E353137322D313533332E3534343820202020302E303030302043202020302020302020302020302020302020302020302020302020302020302020302020300A20203834392E353137322D313539332E3734393920202020302E303030302043202020302020302020302020302020302020302020302020302020302020302020302020300A20203930312E363030352D313632332E3935383320202020302E303030302043202020302020302020302020302020302020302020302020302020302020302020302020300A20203935332E343732322D313539332E3734393920202020302E303030302043202020302020302020302020302020302020302020302020302020302020302020302020300A20203739372E363435342D313530332E3534383120202020302E303030302043202020302020302020302020302020302020302020302020302020302020302020302020300A20203734352E353632312D313533332E3534343820202020302E303030302043202020302020302020302020302020302020302020302020302020302020302020302020300A20203734352E353632312D313539332E3734393920202020302E303030302043202020302020302020302020302020302020302020302020302020302020302020302020300A20203739372E363435342D313632332E3935383320202020302E303030302043202020302020302020302020302020302020302020302020302020302020302020302020300A20203739372E363435342D313434332E3533383320202020302E303030302043202020302020302020302020302020302020302020302020302020302020302020302020300A20203639332E363734302D313530332E3534383120202020302E303030302043202020302020302020302020302020302020302020302020302020302020302020302020300A20203739372E363435342D313638332E3935313820202020302E303030302043202020302020302020302020302020302020302020302020302020302020302020302020300A20203639332E363734302D313632332E3734363720202020302E30303030204F202020302020302020302020302020302020302020302020302020302020302020302020300A20313537372E303037332D313539332E3533383320202020302E303030302043202020302020302020302020302020302020302020302020302020302020302020302020300A20313030352E343238302D313536332E3534313620202020302E303030302043202020302020302020302020302020302020302020302020302020302020302020302020300A20313336392E303937322D313539332E3533383320202020302E303030302043202020302020302020302020302020302020302020302020302020302020302020302020300A20313136312E333832332D313539332E3533383320202020302E303030302043202020302020302020302020302020302020302020302020302020302020302020302020300A2020322020332020312020302020302020302020300A2020332020342020312020302020302020302020300A2020342020352020322020302020302020302020300A2020352020362020312020302020302020302020300A2020362020372020312020302020302020302020300A2020372020382020312020302020302020302020300A2020382020392020322020302020302020302020300A2020392031302020312020302020302020302020300A2031302031312020312020302020302020302020300A2031312031322020312020302020302020302020300A2031322031332020322020302020302020302020300A2031332031342020312020302020302020302020300A2020312031352020312020302020302020302020300A2031352031362020312020302020302020302020300A2031362031372020312020302020302020302020300A2031372031382020312020302020302020302020300A2031382031392020312020302020302020302020300A2020312031392020312020302020302020302020300A2031362032302020322020302020302020302020300A2032302032312020312020302020302020302020300A2032312032322020322020302020302020302020300A2032322032332020312020302020302020302020300A2031372032332020322020302020302020302020300A2032302032342020312020302020302020302020300A2032312032352020312020302020302020302020300A2032332032362020312020302020302020302020300A2032372032322020312020302020302020302020300A2031332032382020312020302020302020302020300A2020312020322020312020302020302020302020300A2020312032392020312020302020302020302020300A2020392033302020312020302020302020302020300A2020352033312020312020302020302020302020300A4D2020454E44
Contributor: Akimoto N, Graduate School of Pharmaceutical Sciences, Kyoto University and Maoka T, Research Institute for Production Development
InstType: EI
InstName: JMS-HX/HX 110A, JEOL
IoniMethod: EI
IonPolarity: pos
Date: 2010-10-09 19:48:36+02:00
Num Peaks: 602
2.4471 0 5.2814 0 5.4024 0 6.0204 9 6.2511 0 6.2961 0 7.0216 99 13.0091 0 14.0247 0 15.0342 1 
17.4535 0 23.9932 0 25.0277 1 26.0204 1 27.0246 5 28.0225 1 29.0455 1 30.0475 0 35.0197 0 35.9804 0 
37.0251 0 38.0069 1 39.0223 3 40.0173 0 41.0333 5 42.0530 0 43.0439 1 44.0727 0 44.9604 0 47.8927 0 
49.0034 0 50.0244 1 51.0068 3 52.0317 1 52.5557 0 53.0256 7 54.0288 1 55.0291 7 56.0320 0 57.0429 1 
58.0109 0 59.0142 0 60.0450 0 61.0141 0 62.0413 1 63.0118 4 63.5257 0 64.0260 3 64.3440 0 65.0196 6 
65.7133 0 66.0379 2 66.3289 0 67.0449 12 67.3583 0 68.0386 5 68.3412 0 69.0442 43 70.0439 1 71.0378 1 
72.0305 0 73.0380 0 74.0362 2 75.0302 5 75.2293 1 76.0547 5 76.3502 0 77.0399 11 77.5023 0 77.6165 0 
78.0345 3 78.3566 0 78.5202 0 79.0476 11 80.0521 1 81.0509 11 82.0408 1 83.0593 1 84.0750 0 85.0826 2 
86.0353 1 86.2855 0 87.1248 0 88.0454 0 88.1898 0 88.5904 0 89.0529 1 89.3464 0 90.0777 1 90.3090 0 
90.6495 0 91.0736 17 91.6176 0 92.0641 2 93.0843 6 93.5414 0 94.0836 2 95.0888 4 96.0469 0 97.0721 1 
98.0187 1 98.1761 0 98.3867 0 99.0649 1 100.1159 2 101.0515 0 101.3504 0 102.0492 1 103.0756 3 103.7237 0 
104.0627 1 104.5940 0 105.0816 8 106.0704 1 106.5242 0 107.0764 6 108.1123 1 109.0820 2 109.5620 0 110.0137 0 
110.5240 0 111.0187 1 112.0153 1 112.3358 0 113.0749 1 113.5457 0 113.7891 0 114.0092 1 114.1922 0 114.6476 0 
115.0565 4 115.4335 0 116.0496 2 117.0449 4 118.0509 0 119.0603 3 120.0365 1 120.3675 0 121.0813 5 122.0629 1 
123.0541 1 123.4442 0 124.0216 0 125.0224 1 126.0348 2 127.0537 8 128.0520 6 128.5245 0 129.0556 4 129.6497 0 
130.0644 2 131.0753 2 131.5340 0 131.7032 0 132.0536 1 132.3020 0 133.0913 2 134.0767 1 134.5203 0 135.0804 4 
136.0773 4 136.4411 0 136.6578 0 137.0664 2 138.0923 1 139.0688 2 140.0800 2 140.4187 0 141.0910 28 142.1126 104 
143.0879 6 144.0847 4 145.0955 3 146.1257 1 147.0875 1 148.0995 1 149.0979 3 150.0331 0 150.3853 0 151.1077 2 
151.5847 0 152.1016 2 152.5524 1 153.1237 3 153.6841 0 154.1233 6 155.1004 22 156.0988 23 156.5537 0 157.1034 16 
157.6214 0 158.1152 26 159.1277 5 159.7358 0 160.1188 1 161.1447 2 162.1082 1 163.0878 1 163.3587 0 164.0934 7 
164.5626 0 165.0962 20 165.6986 0 166.0919 4 167.1058 9 168.0993 17 169.0877 59 170.0901 436 171.0918 133 172.0974 46 
172.6821 1 173.1325 5 173.5184 0 174.0902 1 174.4351 0 174.6532 0 175.0840 5 175.4169 0 176.0249 1 176.5506 1 
177.1277 2 177.5646 0 178.1030 2 178.3706 0 178.5802 0 179.1066 3 179.5450 0 180.0861 2 180.6051 0 181.1085 11 
182.1002 20 183.1001 7 184.1094 5 184.6662 0 185.1002 3 186.0836 3 187.1032 3 188.0785 2 188.4906 0 189.1281 6 
189.6660 0 190.0336 3 190.2119 1 190.4484 0 190.7264 0 191.1144 5 191.5742 0 192.1228 8 193.1024 4 194.1082 7 
194.4406 1 195.1257 34 196.1278 108 197.1348 28 198.1468 2 198.6720 0 199.1197 2 199.6677 1 200.1898 1 200.5376 0 
200.7886 0 201.1714 3 201.6376 0 202.1286 2 202.4969 0 203.1469 6 203.6382 1 204.1341 7 204.4384 1 205.1487 7 
206.1569 6 206.5799 1 207.1620 11 207.7138 1 208.1607 14 208.5268 1 209.1623 67 210.1587 77 211.1711 46 212.1568 4 
213.2117 1 213.5638 0 214.0683 0 214.4171 0 214.7151 0 215.1329 1 216.2351 1 216.7547 0 217.1908 1 217.7128 0 
218.1796 1 218.6678 0 219.1619 1 219.5225 0 220.1151 1 220.2734 1 220.5301 0 221.1669 2 222.2045 3 222.7522 1 
223.1800 18 224.1853 32 225.1887 67 225.8524 0 226.1934 4 227.2211 0 227.5940 0 228.2027 1 228.8511 0 229.1198 0 
229.3863 0 230.1484 0 231.0861 1 231.2684 1 232.2088 1 233.2786 1 234.2092 1 234.7194 0 235.1242 1 235.3590 1 
235.5608 0 236.2641 2 237.2113 4 237.7026 0 238.1997 5 238.7229 0 239.1951 10 240.0931 0 241.1435 0 243.1747 1 
244.1736 0 244.4396 0 245.1830 1 245.3865 0 246.1949 0 247.1746 0 247.8041 0 248.2700 0 248.7655 0 249.2190 2 
249.6294 0 250.2330 2 251.2735 5 252.2197 2 253.1707 1 253.3232 0 254.0992 0 255.1371 0 255.3682 0 256.2504 0 
256.7377 0 257.1624 0 257.3662 0 257.7978 0 258.2067 0 258.6646 0 259.2729 1 259.6272 0 260.1091 0 260.3176 0 
261.2616 1 261.7156 0 262.2642 1 262.5499 0 262.7935 0 263.2727 3 264.2701 3 265.2961 11 266.2973 6 266.6413 0 
267.3123 165 268.2968 5 268.8631 0 269.3259 2 270.2560 1 270.4543 0 270.8522 0 271.1498 0 272.1863 0 273.1968 1 
273.7295 0 274.2155 1 275.2834 4 276.2088 3 276.6448 0 277.2269 6 277.5716 1 278.2691 27 279.2385 7 280.1338 1 
280.5381 0 281.1902 0 281.3433 0 282.6948 0 283.2227 0 285.1678 0 286.0822 0 286.2480 0 286.5064 0 286.7568 0 
287.0757 0 287.3536 0 287.6269 0 288.3668 0 288.6653 0 289.1559 1 289.4659 0 290.3284 1 290.6899 0 291.2368 7 
291.5652 1 292.2472 60 293.2577 111 294.2535 12 294.9015 0 295.3022 2 295.9766 0 296.3040 0 297.2362 0 298.0872 0 
300.1398 0 300.4258 0 301.3088 0 303.1794 0 303.3442 0 303.5948 0 304.3546 1 304.8559 0 305.3206 1 305.6800 0 
306.2730 7 306.8167 0 307.2541 6 308.2376 1 308.4678 0 308.9968 0 311.8959 0 312.5867 0 315.0138 0 315.4597 0 
316.3251 1 317.2995 2 318.2397 1 318.4656 1 318.7488 0 319.1501 1 319.3623 0 320.2683 1 320.7167 0 321.3063 0 
322.5759 0 323.1292 0 325.6909 0 326.3234 0 327.2608 0 327.5026 0 328.0905 0 328.5490 0 328.8608 0 329.1955 0 
329.5475 0 329.7664 0 330.3098 0 331.2970 1 331.7809 0 332.3921 3 333.2556 0 333.6880 0 334.2545 1 336.8710 0 
338.2828 0 338.5705 0 339.0851 0 340.1912 0 340.8813 0 342.0863 0 342.4842 0 342.8476 0 343.1997 0 343.5403 0 
343.8659 0 344.2742 1 344.4955 0 344.7238 0 345.3328 3 346.3329 13 347.3160 5 347.8082 0 348.2384 1 348.4645 0 
348.7513 0 350.5196 0 350.8558 0 353.4773 0 353.6369 0 354.6620 0 355.1236 0 355.4577 0 356.6518 0 357.3419 1 
357.6819 1 357.9965 1 358.2343 0 358.5064 1 358.7224 0 359.3391 5 359.6194 1 360.3477 43 361.3505 59 362.3087 3 
362.9286 0 363.2578 0 363.6042 0 364.8269 0 368.1346 0 369.1972 0 369.4049 0 371.1161 0 371.4088 1 372.4258 1 
373.0594 0 373.3946 1 374.3613 4 375.3613 12 376.4177 2 377.0470 0 377.8444 0 379.3321 0 379.6280 0 380.2131 0 
382.4549 0 382.7716 0 383.1628 0 383.7779 0 384.3884 0 384.7350 0 385.1561 1 385.5154 0 386.2499 1 386.4588 0 
387.3667 2 387.7352 0 388.3619 2 389.3194 1 392.0405 0 393.4598 0 393.6539 0 394.2017 0 395.9785 0 397.5040 1 
398.2668 1 398.4150 0 398.7458 0 399.4444 1 399.6431 0 399.8591 0 400.4037 4 400.8921 0 401.3299 1 401.6298 0 
402.4468 1 406.0155 0 407.1190 0 407.9233 0 408.2240 0 408.6819 1 409.0457 0 409.4210 1 409.7906 0 410.0213 0 
410.3071 1 410.5653 1 411.1243 1 411.6282 1 412.3870 2 412.7877 1 413.3915 3 414.4190 25 415.4099 55 416.3560 2 
416.7648 0 417.1345 0 417.2815 0 417.7546 0 418.0096 0 419.6288 0 419.9297 0 420.5327 0 420.9267 0 421.3701 0 
421.9984 0 422.4739 0 422.9553 1 423.5618 1 424.4717 2 429.4355 280 430.4216 999 432.3158 19 433.0593 10 433.4104 5 
434.6118 2 435.3703 2 
