Name: MassBank: JP003567
MW: 480
Formula: C28H52N2O4
Synonym: MassBank: JP003567
Synonym: BIS(2,2,6,6-TETRAMETHYL-4-PIPERIDINYL)SEBACATE
Structure: 42495328322C322C362C362D54455452414D455448594C2D342D50495045524944494E594C2953454241434154452E6D6F6C0A20204368656D447261773039303531303231333932440A2033342033352020302020302020302020302020302020302020302020303939392056323030300A20202020322E383537392020202D302E3431323520202020302E303030302043202020302020302020302020302020302020302020302020302020302020302020302020300A20202020322E313433342020202D302E3832353020202020302E303030302043202020302020302020302020302020302020302020302020302020302020302020302020300A20202020312E343238392020202D302E3431323520202020302E303030302043202020302020302020302020302020302020302020302020302020302020302020302020300A20202020302E373134352020202D302E3832353020202020302E303030302043202020302020302020302020302020302020302020302020302020302020302020302020300A2020202D302E303030302020202D302E3431323520202020302E303030302043202020302020302020302020302020302020302020302020302020302020302020302020300A2020202D302E373134352020202D302E3832353020202020302E303030302043202020302020302020302020302020302020302020302020302020302020302020302020300A2020202D312E343238392020202D302E3431323520202020302E303030302043202020302020302020302020302020302020302020302020302020302020302020302020300A2020202D322E313433342020202D302E3832353020202020302E303030302043202020302020302020302020302020302020302020302020302020302020302020302020300A20202020332E3537323420202020302E3832353020202020302E30303030204F202020302020302020302020302020302020302020302020302020302020302020302020300A20202020322E3835373920202020302E3431323520202020302E303030302043202020302020302020302020302020302020302020302020302020302020302020302020300A20202020322E3134333420202020302E3832353020202020302E30303030204F202020302020302020302020302020302020302020302020302020302020302020302020300A2020202D332E353732342020202D302E3832353020202020302E30303030204F202020302020302020302020302020302020302020302020302020302020302020302020300A2020202D322E383537392020202D302E3431323520202020302E303030302043202020302020302020302020302020302020302020302020302020302020302020302020300A2020202D322E3835373920202020302E3431323520202020302E30303030204F202020302020302020302020302020302020302020302020302020302020302020302020300A20202020352E373135382020202D302E3431323520202020302E30303030204E202020302020302020302020302020302020302020302020302020302020302020302020300A20202020352E303031332020202D302E3832353020202020302E303030302043202020302020302020302020302020302020302020302020302020302020302020302020300A20202020342E323836382020202D302E3431323520202020302E303030302043202020302020302020302020302020302020302020302020302020302020302020302020300A20202020342E3238363820202020302E3431323520202020302E303030302043202020302020302020302020302020302020302020302020302020302020302020302020300A20202020352E3030313320202020302E3832353020202020302E303030302043202020302020302020302020302020302020302020302020302020302020302020302020300A20202020352E3731353820202020302E3431323520202020302E303030302043202020302020302020302020302020302020302020302020302020302020302020302020300A20202020352E3939373920202020312E3138373720202020302E303030302043202020302020302020302020302020302020302020302020302020302020302020302020300A20202020362E3532383220202020302E3236393220202020302E303030302043202020302020302020302020302020302020302020302020302020302020302020302020300A20202020352E353331362020202D312E3435373020202020302E303030302043202020302020302020302020302020302020302020302020302020302020302020302020300A20202020342E343731302020202D312E3435373020202020302E303030302043202020302020302020302020302020302020302020302020302020302020302020302020300A2020202D352E3731353820202020302E3431323520202020302E30303030204E202020302020302020302020302020302020302020302020302020302020302020302020300A2020202D352E3030313320202020302E3832353020202020302E303030302043202020302020302020302020302020302020302020302020302020302020302020302020300A2020202D342E3238363820202020302E3431323520202020302E303030302043202020302020302020302020302020302020302020302020302020302020302020302020300A2020202D342E323836382020202D302E3431323520202020302E303030302043202020302020302020302020302020302020302020302020302020302020302020302020300A2020202D352E303031332020202D302E3832353020202020302E303030302043202020302020302020302020302020302020302020302020302020302020302020302020300A2020202D352E373135382020202D302E3431323520202020302E303030302043202020302020302020302020302020302020302020302020302020302020302020302020300A2020202D352E393937392020202D312E3138373720202020302E303030302043202020302020302020302020302020302020302020302020302020302020302020302020300A2020202D362E353238322020202D302E3236393220202020302E303030302043202020302020302020302020302020302020302020302020302020302020302020302020300A2020202D352E3533313620202020312E3435373020202020302E303030302043202020302020302020302020302020302020302020302020302020302020302020302020300A2020202D342E3437313020202020312E3435373020202020302E303030302043202020302020302020302020302020302020302020302020302020302020302020302020300A2020312020322020312020302020202020200A2020322020332020312020302020202020200A2020332020342020312020302020202020200A2020342020352020312020302020202020200A2020352020362020312020302020202020200A2020362020372020312020302020202020200A2020372020382020312020302020202020200A2031302031312020322020302020202020200A2020392031302020312020302020202020200A2020312031302020312020302020202020200A2031332031342020322020302020202020200A2031322031332020312020302020202020200A2020382031332020312020302020202020200A2031352031362020312020302020202020200A2031362031372020312020302020202020200A2031372031382020312020302020202020200A2031382031392020312020302020202020200A2031392032302020312020302020202020200A2031352032302020312020302020202020200A2032302032312020312020362020202020200A2032302032322020312020312020202020200A2031362032332020312020362020202020200A2031362032342020312020312020202020200A2020392031382020312020302020202020200A2032352032362020312020302020202020200A2032362032372020312020302020202020200A2032372032382020312020302020202020200A2032382032392020312020302020202020200A2032392033302020312020302020202020200A2032352033302020312020302020202020200A2033302033312020312020362020202020200A2033302033322020312020312020202020200A2032362033332020312020362020202020200A2032362033342020312020312020202020200A2031322032382020312020302020202020200A4D2020454E44
Contributor: MASS SPECTROSCOPY SOC. OF JAPAN (MSSJ)
InstType: EI
InstName: Unknown
IoniMethod: EI
IonPolarity: pos
Date: 2010-10-09 19:48:36+02:00
Num Peaks: 8
41 26 42 29 55 35 58 213 124 999 125 97 140 106 342 24 
