Name: N-ACETYL-GLYCYL-GLYCYL-GLYCINE METHYL ESTER
MW: 245
Formula: C9H15N3O5
Synonym: MassBank: JP000295
Synonym: N-ACETYL-GLYCYL-GLYCYL-GLYCINE METHYL ESTER
Structure: 4E2D41434554594C2D474C5943594C2D474C5943594C2D474C5943494E45204D455448594C2045535445522E6D6F6C0A20204368656D447261773038313231303031333432440A2031372031362020302020302020302020302020302020302020302020303939392056323030300A20202020332E3231353120202020302E3230363320202020302E303030302043202020302020302020302020302020302020302020302020302020302020302020302020300A20202020312E3738363220202020302E3230363320202020302E30303030204E202020302020302020302020302020302020302020302020302020302020302020302020300A20202020322E353030362020202D302E3230363220202020302E303030302043202020302020302020302020302020302020302020302020302020302020302020302020300A20202020332E3231353120202020312E3033313320202020302E30303030204F202020302020302020302020302020302020302020302020302020302020302020302020300A20202020332E393239362020202D302E3230363220202020302E30303030204F202020302020302020302020302020302020302020302020302020302020302020302020300A20202020312E303731372020202D302E3230363220202020302E303030302043202020302020302020302020302020302020302020302020302020302020302020302020300A2020202D302E333537322020202D302E3230363220202020302E30303030204E202020302020302020302020302020302020302020302020302020302020302020302020300A20202020302E3335373220202020302E3230363320202020302E303030302043202020302020302020302020302020302020302020302020302020302020302020302020300A20202020312E303731372020202D312E3033313220202020302E30303030204F202020302020302020302020302020302020302020302020302020302020302020302020300A2020202D312E3037313720202020302E3230363220202020302E303030302043202020302020302020302020302020302020302020302020302020302020302020302020300A2020202D322E3530303620202020302E3230363220202020302E30303030204E202020302020302020302020302020302020302020302020302020302020302020302020300A2020202D312E373836322020202D302E3230363220202020302E303030302043202020302020302020302020302020302020302020302020302020302020302020302020300A2020202D312E3037313720202020312E3033313320202020302E30303030204F202020302020302020302020302020302020302020302020302020302020302020302020300A2020202D332E323135312020202D302E3230363220202020302E303030302043202020302020302020302020302020302020302020302020302020302020302020302020300A2020202D332E323135312020202D312E3033313320202020302E30303030204F202020302020302020302020302020302020302020302020302020302020302020302020300A2020202D332E3932393620202020302E3230363220202020302E303030302043202020302020302020302020302020302020302020302020302020302020302020302020300A20202020332E393239362020202D312E3033313220202020302E303030302043202020302020302020302020302020302020302020302020302020302020302020302020300A2020322020332020312020302020202020200A2020312020332020312020302020202020200A2020312020342020322020302020202020200A2020312020352020312020302020202020200A2020372020382020312020302020202020200A2020362020382020312020302020202020200A2020362020392020322020302020202020200A2031312031322020312020302020202020200A2031302031322020312020302020202020200A2031302031332020322020302020202020200A2020372031302020312020302020202020200A2020322020362020312020302020202020200A2031342031352020322020302020202020200A2031342031362020312020302020202020200A2031312031342020312020302020202020200A2020352031372020312020302020202020200A4D2020454E44
Contributor: YAMAMOTO M, DEP. CHEMISTRY, FAC. SCIENCE, NARA WOMEN'S UNIV.
InstType: EI
InstName: HITACHI RMU-6M
IoniMethod: _ENERGY 70 eV
IonPolarity: pos
Date: 2010-10-09 19:48:36+02:00
Num Peaks: 51
14 12 15 108 27 15 28 20 29 46 30 999 31 65 32 2 41 18 42 61 
43 292 44 9 45 57 55 17 56 99 57 2 58 26 59 29 60 38 71 5 
72 296 73 317 74 23 85 5 87 17 88 67 89 13 90 7 99 19 100 405 
101 24 103 2 113 93 114 22 115 14 129 6 130 273 131 59 141 42 146 3 
147 18 149 11 156 13 157 12 158 11 173 118 174 11 186 2 213 21 245 41 
246 11 
