Name: MassBank: JP009429
MW: 188
Formula: C12H12O2
Synonym: MassBank: JP009429
Synonym: 1,6-DIMETHYL-3,4-BENZO-2-OXABICYCLO(4.1.0)HEPT-3-EN-5-ONE
Structure: 312C362D44494D455448594C2D332C342D42454E5A4F2D322D4F584142494359434C4F28342E312E3029484550542D332D454E2D352D4F4E452E6D6F6C0A20204368656D447261773131313630393134333132440A2031342031362020302020302020302020302020302020302020302020303939392056323030300A20202020312E3037313720202020302E3637343020202020302E303030302043202020302020302020302020302020302020302020302020302020302020302020302020300A20202020312E303731372020202D302E3135313020202020302E303030302043202020302020302020302020302020302020302020302020302020302020302020302020300A20202020302E333537332020202D302E3536333520202020302E303030302043202020302020302020302020302020302020302020302020302020302020302020302020300A2020202D302E333537322020202D302E3135313020202020302E303030302043202020302020302020302020302020302020302020302020302020302020302020302020300A2020202D312E303731362020202D302E3536333520202020302E303030302043202020302020302020302020302020302020302020302020302020302020302020302020300A2020202D312E373836312020202D302E3135313020202020302E303030302043202020302020302020302020302020302020302020302020302020302020302020302020300A2020202D312E3738363120202020302E3637343020202020302E303030302043202020302020302020302020302020302020302020302020302020302020302020302020300A2020202D312E3037313620202020312E3038363520202020302E303030302043202020302020302020302020302020302020302020302020302020302020302020302020300A2020202D302E3335373220202020302E3637343020202020302E303030302043202020302020302020302020302020302020302020302020302020302020302020302020300A20202020302E3335373320202020312E3038363520202020302E30303030204F202020302020302020302020302020302020302020302020302020302020302020302020300A20202020312E3738363120202020302E3236313520202020302E303030302043202020302020302020302020302020302020302020302020302020302020302020302020300A20202020302E333537332020202D312E3338383520202020302E30303030204F202020302020302020302020302020302020302020302020302020302020302020302020300A20202020312E343834322020202D302E3836353520202020302E303030302043202020302020302020302020302020302020302020302020302020302020302020302020300A20202020312E3438343220202020312E3338383520202020302E303030302043202020302020302020302020302020302020302020302020302020302020302020302020300A2020312020322020312020302020202020200A2020322020332020312020302020202020200A2020332020342020312020302020202020200A2020342020352020312020302020202020200A2020352020362020322020302020202020200A2020362020372020312020302020202020200A2020372020382020322020302020202020200A2020382020392020312020302020202020200A2020342020392020322020302020202020200A2020392031302020312020302020202020200A2020312031302020312020302020202020200A2020312031312020312020302020202020200A2020322031312020312020302020202020200A2020332031322020322020302020202020200A2020322031332020312020302020202020200A2020312031342020312020302020202020200A4D2020454E44
Contributor: EGUCHI S, FAC. OF SCIENCE, HIROSHIMA UNIV.
InstType: EI
InstName: HITACHI RMU-7L
IoniMethod: _ENERGY 70 eV
IonPolarity: pos
Date: 2010-10-09 19:48:36+02:00
Num Peaks: 73
50 140 51 161 52 45 53 135 54 19 55 25 62 35 63 17 64 13 65 311 
66 65 67 205 68 15 69 125 73 74 75 40 76 280 77 140 78 30 79 15 
80 10 85 15 89 30 90 10 91 170 92 130 93 80 94 44 95 50 102 30 
103 40 104 201 105 50 106 10 107 40 114 10 115 125 116 40 117 110 118 50 
119 20 120 39 121 465 122 65 127 10 128 15 129 15 130 10 131 120 132 30 
133 10 141 10 142 15 143 25 144 30 145 490 146 160 147 65 148 225 149 15 
158 20 159 190 160 60 161 20 171 70 172 30 173 270 174 50 175 10 187 100 
188 999 189 445 190 70 
