Name: CAMPHENE
MW: 136
Formula: C10H16
Synonym: MassBank: JP006891
Synonym: CAMPHENE
Synonym: 2,2-DIMETHYL-3-METHYLENEBICYCLO(2.2.1)HEPTANE
Structure: 43414D5048454E452E6D6F6C0A20204368656D447261773132323030393036343232440A2031302031312020302020302020302020302020302020302020302020303939392056323030300A2020202D302E3330323020202020302E3832353020202020302E303030302043202020302020302020302020302020302020302020302020302020302020302020302020300A2020202D302E3330323020202020302E3030303020202020302E303030302043202020302020302020302020302020302020302020302020302020302020302020302020300A20202020302E343132352020202D302E3431323520202020302E303030302043202020302020302020302020302020302020302020302020302020302020302020302020300A20202020312E3132373020202020302E3030303020202020302E303030302043202020302020302020302020302020302020302020302020302020302020302020302020300A20202020312E3132373020202020302E3832353020202020302E303030302043202020302020302020302020302020302020302020302020302020302020302020302020300A20202020302E3431323520202020312E3233373520202020302E303030302043202020302020302020302020302020302020302020302020302020302020302020302020300A20202020302E3439343920202020302E3631313520202020302E303030302043202020302020302020302020302020302020302020302020302020302020302020302020300A2020202D312E3132373020202020302E3030303020202020302E303030302043202020302020302020302020302020302020302020302020302020302020302020302020300A2020202D302E353135352020202D302E3739363920202020302E303030302043202020302020302020302020302020302020302020302020302020302020302020302020300A20202020302E343132352020202D312E3233373520202020302E303030302043202020302020302020302020302020302020302020302020302020302020302020302020300A2020312020322020312020302020202020200A2020322020332020312020302020202020200A2020332020342020312020302020202020200A2020342020352020312020302020202020200A2020352020362020312020302020202020200A2020362020312020312020302020202020200A2020312020372020312020302020202020200A2020372020342020312020302020202020200A2020322020382020312020312020202020200A2020322020392020312020362020202020200A2020332031302020322020302020202020200A4D2020454E44
Contributor: TAJIMA S, GUNMA COLLEGE OF TECHNOLOGY
InstType: EI
InstName: HITACHI M-80B
IoniMethod: _ENERGY 70 eV
IonPolarity: pos
Date: 2010-10-09 19:48:36+02:00
Num Peaks: 43
15 14 27 190 29 76 38 15 39 312 40 60 41 378 42 29 43 53 50 20 
51 90 52 45 53 170 54 19 55 109 63 30 65 105 66 83 67 299 68 175 
69 71 70 16 77 238 78 51 79 375 80 102 81 77 82 48 91 271 92 111 
93 999 94 168 95 192 96 11 103 11 105 61 106 15 107 289 108 96 121 670 
122 65 136 164 137 15 
