Name: MassBank: JP005051
MW: 290
Formula: C16H19ClN2O
Synonym: MassBank: JP005051
Synonym: 2-(3-CHLOROPROPIONYL)-5,7-DIMETHYL-1,2,3,4-TETRAHYDROPYRIMIDO(1,6-A)INDOLE
Structure: 322D28332D43484C4F524F50524F50494F4E594C292D352C372D44494D455448594C2D312C322C332C342D5445545241485944524F505952494D49444F28312C362D4129494E444F4C452E6D6F6C0A20204368656D447261773132323130393138303132440A2032302032322020302020302020302020302020302020302020302020303939392056323030300A2020202D302E3532303420202020302E3331333520202020302E30303030204E202020302020302020302020302020302020302020302020302020302020302020302020300A2020202D302E353230342020202D302E3531313520202020302E303030302043202020302020302020302020302020302020302020302020302020302020302020302020300A2020202D312E333035302020202D302E3736363420202020302E303030302043202020302020302020302020302020302020302020302020302020302020302020302020300A2020202D312E373839392020202D302E3039393020202020302E303030302043202020302020302020302020302020302020302020302020302020302020302020302020300A2020202D322E363130342020202D302E3031323720202020302E303030302043202020302020302020302020302020302020302020302020302020302020302020302020300A2020202D322E3934363020202020302E3734303920202020302E303030302043202020302020302020302020302020302020302020302020302020302020302020302020300A2020202D322E3436313020202020312E3430383420202020302E303030302043202020302020302020302020302020302020302020302020302020302020302020302020300A2020202D312E3634303620202020312E3332323120202020302E303030302043202020302020302020302020302020302020302020302020302020302020302020302020300A2020202D312E3330353020202020302E3536383520202020302E303030302043202020302020302020302020302020302020302020302020302020302020302020302020300A20202020302E3139343120202020302E3732363020202020302E303030302043202020302020302020302020302020302020302020302020302020302020302020302020300A20202020302E3930383620202020302E3331333520202020302E30303030204E202020302020302020302020302020302020302020302020302020302020302020302020300A20202020302E393038362020202D302E3531313520202020302E303030302043202020302020302020302020302020302020302020302020302020302020302020302020300A20202020302E313934312020202D302E3932343020202020302E303030302043202020302020302020302020302020302020302020302020302020302020302020302020300A2020202D332E3736363420202020302E3832373220202020302E303030302043202020302020302020302020302020302020302020302020302020302020302020302020300A2020202D312E353539392020202D312E3535313020202020302E303030302043202020302020302020302020302020302020302020302020302020302020302020302020300A20202020312E3632333020202020302E3732363020202020302E303030302043202020302020302020302020302020302020302020302020302020302020302020302020300A20202020312E3632333020202020312E3535313020202020302E30303030204F202020302020302020302020302020302020302020302020302020302020302020302020300A20202020322E3333373520202020302E3331333520202020302E303030302043202020302020302020302020302020302020302020302020302020302020302020302020300A20202020332E3035323020202020302E3732363020202020302E303030302043202020302020302020302020302020302020302020302020302020302020302020302020300A20202020332E3736363420202020302E3331333520202020302E3030303020436C2020302020302020302020302020302020302020302020302020302020302020302020300A2020312020322020312020302020202020200A2020322020332020322020302020202020200A2020332020342020312020302020202020200A2020342020352020312020302020202020200A2020352020362020322020302020202020200A2020362020372020312020302020202020200A2020372020382020322020302020202020200A2020382020392020312020302020202020200A2020312020392020312020302020202020200A2020342020392020322020302020202020200A2031302031312020312020302020202020200A2031312031322020312020302020202020200A2031322031332020312020302020202020200A2020312031302020312020302020202020200A2020322031332020312020302020202020200A2020362031342020312020302020202020200A2020332031352020312020302020202020200A2031362031372020322020302020202020200A2031362031382020312020302020202020200A2031382031392020312020302020202020200A2031392032302020312020302020202020200A2031312031362020312020302020202020200A4D2020454E44
Contributor: SASAKI S, TOYOHASHI UNIV. OF TECH.
InstType: EI
InstName: Unknown
IoniMethod: _ENERGY 75 eV
IonPolarity: pos
Date: 2010-10-09 19:48:36+02:00
Num Peaks: 23
43 34 55 21 58 13 63 4 65 12 69 24 77 24 91 1 115 28 128 32 
130 29 142 2 143 50 144 383 145 41 156 11 157 999 158 121 185 60 186 1 
276 374 277 62 278 115 
