Name: MassBank: JP000782
MW: 254
Formula: C15H14N2O2
Synonym: MassBank: JP000782
Synonym: 3,7-DIMETHYL-5-PHENYLAZOTROPOLONE
Structure: 332C372D44494D455448594C2D352D5048454E594C415A4F54524F504F4C4F4E452E6D6F6C0A20204368656D447261773032323231303036303632440A2031392032302020302020302020302020302020302020302020302020303939392056323030300A2020202D332E313331302020202D302E3737363520202020302E30303030204F202020302020302020302020302020302020302020302020302020302020302020302020300A2020202D322E333931362020202D302E3431343820202020302E303030302043202020302020302020302020302020302020302020302020302020302020302020302020300A2020202D312E373431392020202D302E3932363020202020302E303030302043202020302020302020302020302020302020302020302020302020302020302020302020300A2020202D302E393338362020202D302E3733383420202020302E303030302043202020302020302020302020302020302020302020302020302020302020302020302020300A2020202D302E3538343320202020302E3030383820202020302E303030302043202020302020302020302020302020302020302020302020302020302020302020302020300A2020202D302E3934363020202020302E3734383220202020302E303030302043202020302020302020302020302020302020302020302020302020302020302020302020300A2020202D312E3735313220202020302E3932373820202020302E303030302043202020302020302020302020302020302020302020302020302020302020302020302020300A2020202D322E3339313620202020302E3431303220202020302E303030302043202020302020302020302020302020302020302020302020302020302020302020302020300A2020202D332E3133383720202020302E3736343420202020302E30303030204F202020302020302020302020302020302020302020302020302020302020302020302020300A20202020302E3234303720202020302E3030383820202020302E30303030204E202020302020302020302020302020302020302020302020302020302020302020302020300A20202020302E363532332020202D302E3730343220202020302E30303030204E202020302020302020302020302020302020302020302020302020302020302020302020300A20202020312E343831372020202D302E3730343220202020302E303030302043202020302020302020302020302020302020302020302020302020302020302020302020300A20202020312E383931332020202D312E3431333620202020302E303030302043202020302020302020302020302020302020302020302020302020302020302020302020300A20202020322E373232382020202D312E3431333620202020302E303030302043202020302020302020302020302020302020302020302020302020302020302020302020300A20202020332E313338372020202D302E3639333220202020302E303030302043202020302020302020302020302020302020302020302020302020302020302020302020300A20202020322E3732323720202020302E3032373320202020302E303030302043202020302020302020302020302020302020302020302020302020302020302020302020300A20202020312E3839303720202020302E3032373320202020302E303030302043202020302020302020302020302020302020302020302020302020302020302020302020300A2020202D312E393231352020202D312E3733313220202020302E303030302043202020302020302020302020302020302020302020302020302020302020302020302020300A2020202D312E3933383820202020312E3733313220202020302E303030302043202020302020302020302020302020302020302020302020302020302020302020302020300A2020312020322020322020302020202020200A2020322020332020312020302020202020200A2020332020342020322020302020202020200A2020342020352020312020302020202020200A2020352020362020322020302020202020200A2020362020372020312020302020202020200A2020372020382020322020302020202020200A2020322020382020312020302020202020200A2020382020392020312020302020202020200A2031302031312020322020302020202020200A2031322031332020312020302020202020200A2031332031342020322020302020202020200A2031342031352020312020302020202020200A2031352031362020322020302020202020200A2031362031372020312020302020202020200A2031322031372020322020302020202020200A2031312031322020312020302020202020200A2020352031302020312020302020202020200A2020332031382020312020302020202020200A2020372031392020312020302020202020200A4D2020454E44
Contributor: ITO S, DEPT. OF CHEM., TOHOKU UNIV.
InstType: EI
InstName: Unknown
IoniMethod: _ENERGY 25 eV
IonPolarity: pos
Date: 2010-10-09 19:48:36+02:00
Num Peaks: 17
51 65 53 65 55 35 65 7 77 999 78 100 91 140 92 3 93 100 105 260 
106 30 121 18 131 60 149 145 150 30 254 59 255 100 
