Name: ORTHO-XYLENE
MW: 106
Formula: C8H10
Synonym: MassBank: JP001533
Synonym: ORTHO-XYLENE
Synonym: 1,2-DIMETHYLBENZENE
Structure: 310A32310A4F5254484F2D58594C454E452E6D6F6C0A20204368656D447261773131303530393133313132440A2020382020382020302020302020302020302020302020302020302020303939392056323030300A2020202D302E3832353020202020312E3037313720202020302E303030302043202020302020302020302020302020302020302020302020302020302020302020302020300A2020202D302E3431323520202020302E3335373220202020302E303030302043202020302020302020302020302020302020302020302020302020302020302020302020300A20202020302E3431323520202020302E3335373220202020302E303030302043202020302020302020302020302020302020302020302020302020302020302020302020300A20202020302E383235302020202D302E3335373220202020302E303030302043202020302020302020302020302020302020302020302020302020302020302020302020300A20202020302E343132352020202D312E3037313720202020302E303030302043202020302020302020302020302020302020302020302020302020302020302020302020300A2020202D302E343132352020202D312E3037313720202020302E303030302043202020302020302020302020302020302020302020302020302020302020302020302020300A2020202D302E383235302020202D302E3335373220202020302E303030302043202020302020302020302020302020302020302020302020302020302020302020302020300A20202020302E3832353020202020312E3037313720202020302E303030302043202020302020302020302020302020302020302020302020302020302020302020302020300A2020312020322020312020302020202020200A2020322020332020312020302020202020200A2020332020342020322020302020202020200A2020342020352020312020302020202020200A2020352020362020322020302020202020200A2020362020372020312020302020202020200A2020322020372020322020302020202020200A2020332020382020312020302020202020200A4D2020454E44
Contributor: YAMAMOTO M, DEP. CHEMISTRY, FAC. SCIENCE, NARA WOMEN'S UNIV.
InstType: EI
InstName: HITACHI RMU-6M
IoniMethod: _ENERGY 70 eV
IonPolarity: pos
Date: 2010-10-09 19:48:36+02:00
Num Peaks: 32
26 13 27 96 37 12 38 28 39 181 40 22 41 31 50 71 51 167 52 74 
53 50 61 14 62 32 63 77 64 18 65 98 66 13 74 23 75 17 76 16 
77 148 78 88 79 72 89 28 90 999 92 83 102 14 103 58 104 28 105 219 
106 558 107 51 
