Name: 24-METHYLENECHOLESTEROL
CAS: 474-63-5
MW: 398
Formula: C28H46O
Synonym: MassBank: JP008184
Synonym: 24-METHYLENECHOLESTEROL
Structure: 32342D4D455448594C454E4543484F4C45535445524F4C2E6D6F6C0A20204368656D447261773032323131303137313832440A2033342033372020302020302020302020302020302020302020302020303939392056323030300A2020202D332E343837322020202D322E3230343220202020302E303030302043202020302020302020302020302020302020302020302020302020302020302020302020300A2020202D332E343837322020202D312E3337393220202020302E303030302043202020302020302020302020302020302020302020302020302020302020302020302020300A2020202D322E373732382020202D302E3936363720202020302E303030302043202020302020302020302020302020302020302020302020302020302020302020302020300A2020202D322E373732382020202D322E3631363720202020302E303030302043202020302020302020302020302020302020302020302020302020302020302020302020300A2020202D322E303538332020202D322E3230343220202020302E303030302043202020302020302020302020302020302020302020302020302020302020302020302020300A2020202D312E333433382020202D322E3631363720202020302E303030302043202020302020302020302020302020302020302020302020302020302020302020302020300A2020202D302E363239342020202D322E3230343220202020302E303030302043202020302020302020302020302020302020302020302020302020302020302020302020300A2020202D302E363239342020202D312E3337393220202020302E303030302043202020302020302020302020302020302020302020302020302020302020302020302020300A20202020302E303835312020202D302E3936363720202020302E303030302043202020302020302020302020302020302020302020302020302020302020302020302020300A20202020302E383639372020202D312E3232313620202020302E303030302043202020302020302020302020302020302020302020302020302020302020302020302020300A20202020312E333534372020202D302E3535343220202020302E303030302043202020302020302020302020302020302020302020302020302020302020302020302020300A20202020302E3836393720202020302E3131333220202020302E303030302043202020302020302020302020302020302020302020302020302020302020302020302020300A20202020312E3132343720202020302E3839373920202020302E303030302043202020302020302020302020302020302020302020302020302020302020302020302020300A20202020312E3932313620202020312E3131313420202020302E303030302043202020302020302020302020302020302020302020302020302020302020302020302020300A20202020322E3133353120202020312E3930383320202020302E303030302043202020302020302020302020302020302020302020302020302020302020302020302020300A20202020322E3933323020202020322E3132313820202020302E303030302043202020302020302020302020302020302020302020302020302020302020302020302020300A20202020332E3531353320202020312E3533383420202020302E303030302043202020302020302020302020302020302020302020302020302020302020302020302020300A20202020332E3330313820202020302E3734313520202020302E303030302043202020302020302020302020302020302020302020302020302020302020302020302020300A20202020342E3331323220202020312E3735323020202020302E303030302043202020302020302020302020302020302020302020302020302020302020302020302020300A20202020302E3534313320202020312E3438313220202020302E303030302043202020302020302020302020302020302020302020302020302020302020302020302020300A20202020302E303835312020202D302E3134313720202020302E303030302043202020302020302020302020302020302020302020302020302020302020302020302020300A20202020302E3038353120202020302E3638333320202020302E303030302043202020302020302020302020302020302020302020302020302020302020302020302020300A2020202D302E3632393420202020302E3237303820202020302E303030302043202020302020302020302020302020302020302020302020302020302020302020302020300A2020202D312E333433382020202D302E3134313720202020302E303030302043202020302020302020302020302020302020302020302020302020302020302020302020300A2020202D312E333433382020202D302E3936363720202020302E303030302043202020302020302020302020302020302020302020302020302020302020302020302020300A2020202D322E303538332020202D312E3337393220202020302E303030302043202020302020302020302020302020302020302020302020302020302020302020302020300A2020202D312E333433382020202D312E3739313720202020302E303030302043202020302020302020302020302020302020302020302020302020302020302020302020300A20202020332E3134353520202020322E3931383720202020302E303030302043202020302020302020302020302020302020302020302020302020302020302020302020300A2020202D332E383939372020202D322E3931383720202020302E30303030204F202020302020302020302020302020302020302020302020302020302020302020302020300A2020202D322E303538332020202D302E3535343220202020302E303030302048202020302020302020302020302020302020302020302020302020302020302020302020300A2020202D302E303436302020202D312E3936323620202020302E303030302048202020302020302020302020302020302020302020302020302020302020302020302020300A20202020302E323938362020202D312E3736333620202020302E303030302048202020302020302020302020302020302020302020302020302020302020302020302020300A2020202D342E333132322020202D322E3230343220202020302E303030302048202020302020302020302020302020302020302020302020302020302020302020302020300A20202020312E3636363620202020302E3332363820202020302E303030302048202020302020302020302020302020302020302020302020302020302020302020302020300A2020312020322020312020302020202020200A2020322020332020312020302020202020200A2020312020342020312020302020202020200A2020342020352020312020302020202020200A2020352020362020322020302020202020200A2020362020372020312020302020202020200A2020372020382020312020302020202020200A2020382020392020312020302020202020200A2020392031302020312020302020202020200A2031302031312020312020302020202020200A2031312031322020312020302020202020200A2031322031332020312020302020202020200A2031332031342020312020302020202020200A2031342031352020312020302020202020200A2031352031362020312020302020202020200A2031362031372020312020302020202020200A2031372031382020312020302020202020200A2031372031392020312020302020202020200A2031332032302020312020302020202020200A2031322032312020312020302020202020200A2020392032312020312020302020202020200A2032312032322020312020312020202020200A2032312032332020312020302020202020200A2032332032342020312020302020202020200A2032342032352020312020302020202020200A2020382032352020312020302020202020200A2032352032362020312020302020202020200A2020332032362020312020302020202020200A2020352032362020312020302020202020200A2032362032372020312020312020202020200A2031362032382020322020302020202020200A2020312032392020312020312020202020200A2032352033302020312020362020202020200A2020382033312020312020312020202020200A2020392033322020312020362020202020200A2020312033332020312020362020202020200A2031322033342020312020362020202020200A4D2020454E44
Contributor: NARA WOMEN'S UNIVERSITY
InstType: EI
InstName: HITACHI M-80
IoniMethod: _ENERGY 70 eV
IonPolarity: pos
Date: 2010-10-09 19:48:36+02:00
Num Peaks: 249
26 49 27 237 28 615 29 323 30 15 31 36 32 148 36 12 37 15 38 30 
39 264 40 66 41 974 42 147 43 791 44 46 45 60 50 28 51 48 52 22 
53 166 54 73 55 977 56 210 57 469 58 34 59 44 60 90 61 26 62 11 
63 27 65 66 66 40 67 390 68 125 69 910 70 157 71 208 72 17 73 94 
74 20 75 14 76 16 77 162 78 49 79 359 80 77 81 482 82 145 83 393 
84 199 85 137 86 13 87 31 89 18 91 363 92 80 93 317 94 97 95 358 
96 91 97 212 98 58 99 43 100 10 101 22 102 18 103 40 104 39 105 379 
106 100 107 323 108 83 109 209 110 53 111 93 112 36 113 38 114 13 115 76 
116 38 117 136 118 63 119 225 120 133 121 180 122 55 123 124 124 53 125 72 
126 29 127 39 128 60 129 120 130 59 131 180 132 67 133 207 134 70 135 131 
136 36 137 65 138 28 139 26 140 15 141 44 142 38 143 133 144 68 145 252 
146 65 147 145 148 41 149 117 150 34 151 52 152 25 153 21 154 15 155 40 
156 29 157 115 158 103 159 199 160 85 161 148 162 40 163 78 164 26 165 33 
166 19 167 30 168 14 169 40 170 18 171 93 172 38 173 110 174 41 175 77 
176 48 177 48 178 29 179 21 180 12 181 16 182 11 183 37 184 18 185 87 
186 38 187 76 188 30 189 56 190 24 191 27 192 11 193 14 194 11 195 14 
196 13 197 57 198 21 199 82 200 30 201 45 202 36 203 64 204 16 205 17 
211 84 212 33 213 167 214 54 215 60 216 21 217 41 218 18 219 18 220 11 
223 11 225 31 226 16 227 54 228 67 229 194 230 62 231 100 232 42 233 18 
239 44 240 17 241 34 242 18 243 24 244 22 245 29 246 33 247 12 253 70 
254 35 255 69 256 59 257 41 258 38 259 25 267 24 268 12 269 17 270 83 
271 448 272 174 273 46 274 12 279 15 281 190 282 54 283 48 284 31 285 32 
286 22 287 47 288 15 295 12 296 100 297 32 298 15 299 278 300 171 301 52 
302 11 312 16 313 42 314 999 315 242 316 38 338 12 339 11 365 58 367 18 
381 37 382 15 383 124 384 41 385 12 396 10 398 203 399 72 400 21 
