Name: MassBank: JP000763
MW: 244
Formula: C11H13ClO4
Synonym: MassBank: JP000763
Synonym: 5-CHLORO-3,7-BIS(METHOXYMETHYL)TROPOLONE
Structure: 352D43484C4F524F2D332C372D424953284D4554484F58594D455448594C2954524F504F4C4F4E452E6D6F6C0A20204368656D447261773034323331303034343332440A2031362031362020302020302020302020302020302020302020302020303939392056323030300A20202020312E3337373020202020312E3132333520202020302E30303030204F202020302020302020302020302020302020302020302020302020302020302020302020300A20202020302E3733353920202020302E3630343320202020302E303030302043202020302020302020302020302020302020302020302020302020302020302020302020300A2020202D302E3031333220202020302E3935363720202020302E303030302043202020302020302020302020302020302020302020302020302020302020302020302020300A2020202D302E3735303720202020302E3539333220202020302E303030302043202020302020302020302020302020302020302020302020302020302020302020302020300A2020202D302E393238322020202D302E3231323520202020302E303030302043202020302020302020302020302020302020302020302020302020302020302020302020300A2020202D302E343039302020202D302E3835303620202020302E303030302043202020302020302020302020302020302020302020302020302020302020302020302020300A20202020302E343135392020202D302E3835303620202020302E303030302043202020302020302020302020302020302020302020302020302020302020302020302020300A20202020302E393235352020202D302E3139383620202020302E303030302043202020302020302020302020302020302020302020302020302020302020302020302020300A20202020312E373331312020202D302E3337363220202020302E30303030204F202020302020302020302020302020302020302020302020302020302020302020302020300A2020202D302E3031333220202020312E3738313720202020302E303030302043202020302020302020302020302020302020302020302020302020302020302020302020300A2020202D302E3732393920202020322E3139353520202020302E30303030204F202020302020302020302020302020302020302020302020302020302020302020302020300A2020202D302E3732393920202020332E3031333820202020302E303030302043202020302020302020302020302020302020302020302020302020302020302020302020300A20202020302E373739342020202D312E3538383120202020302E303030302043202020302020302020302020302020302020302020302020302020302020302020302020300A20202020302E333139382020202D322E3237333220202020302E30303030204F202020302020302020302020302020302020302020302020302020302020302020302020300A20202020302E363833332020202D332E3031333820202020302E303030302043202020302020302020302020302020302020302020302020302020302020302020302020300A2020202D312E373331312020202D302E3430323120202020302E3030303020436C2020302020302020302020302020302020302020302020302020302020302020302020300A2020312020322020322020302020202020200A2020322020332020312020302020202020200A2020332020342020322020302020202020200A2020342020352020312020302020202020200A2020352020362020322020302020202020200A2020362020372020312020302020202020200A2020372020382020322020302020202020200A2020322020382020312020302020202020200A2020382020392020312020302020202020200A2031312031322020312020302020202020200A2031302031312020312020302020202020200A2020332031302020312020302020202020200A2031342031352020312020302020202020200A2031332031342020312020302020202020200A2020372031332020312020302020202020200A2020352031362020312020302020202020200A4D2020454E44
Contributor: ITO S, DEPT. OF CHEM., TOHOKU UNIV.
InstType: EI
InstName: Unknown
IoniMethod: _ENERGY 25 eV
IonPolarity: pos
Date: 2010-10-09 19:48:36+02:00
Num Peaks: 80
45 520 51 100 53 50 55 6 59 35 63 80 65 150 75 5 76 20 77 600 
78 130 79 8 85 220 86 35 89 305 90 8 91 470 92 45 93 55 99 12 
101 50 105 70 106 35 107 4 111 30 112 50 113 160 115 7 117 30 118 35 
119 40 121 53 122 40 123 30 124 75 125 22 126 110 127 170 128 120 129 9 
130 60 135 30 139 80 141 14 142 30 143 40 144 60 145 3 149 75 152 90 
153 80 154 23 155 230 156 110 157 90 158 16 160 55 167 140 169 955 170 15 
171 30 177 65 180 30 181 9 182 115 183 80 184 145 185 4 186 75 197 140 
199 50 212 999 213 210 214 660 215 50 216 7 244 470 245 70 246 125 247 35 
