Name: MassBank: JP001863
MW: 474
Formula: C30H54O2Si
Synonym: MassBank: JP001863
Synonym: 3BETA-TRIMETHYLSILOXY-5ALPHA,6ALPHA-EPOXYCHOLESTANE
Synonym: TRIMETHYLSILYL ALPHA-EPOXYCHOLESTEROL
Structure: 33424554412D5452494D455448594C53494C4F58592D35414C5048412C36414C5048412D45504F585943484F4C455354414E452E6D6F6C0A20204368656D447261773038313131303135313632440A2033362034302020302020302020302020302020302020302020302020303939392056323030300A2020202D312E363337372020202D322E3832353320202020302E303030302043202020302020302020302020302020302020302020302020302020302020302020302020300A2020202D312E363337372020202D322E3030303320202020302E303030302043202020302020302020302020302020302020302020302020302020302020302020302020300A2020202D302E393233332020202D312E3538373820202020302E303030302043202020302020302020302020302020302020302020302020302020302020302020302020300A2020202D302E393233332020202D332E3233373820202020302E303030302043202020302020302020302020302020302020302020302020302020302020302020302020300A2020202D302E323038382020202D322E3832353320202020302E303030302043202020302020302020302020302020302020302020302020302020302020302020302020300A20202020302E353035372020202D332E3233373820202020302E303030302043202020302020302020302020302020302020302020302020302020302020302020302020300A20202020312E323230312020202D322E3832353320202020302E303030302043202020302020302020302020302020302020302020302020302020302020302020302020300A20202020312E323230312020202D322E3030303320202020302E303030302043202020302020302020302020302020302020302020302020302020302020302020302020300A20202020312E393334362020202D312E3538373820202020302E303030302043202020302020302020302020302020302020302020302020302020302020302020302020300A20202020322E373139322020202D312E3834323820202020302E303030302043202020302020302020302020302020302020302020302020302020302020302020302020300A20202020332E323034322020202D312E3137353320202020302E303030302043202020302020302020302020302020302020302020302020302020302020302020302020300A20202020322E373139322020202D302E3530373920202020302E303030302043202020302020302020302020302020302020302020302020302020302020302020302020300A20202020322E3937343220202020302E3237363720202020302E303030302043202020302020302020302020302020302020302020302020302020302020302020302020300A20202020322E3432323120202020302E3838393820202020302E303030302043202020302020302020302020302020302020302020302020302020302020302020302020300A20202020322E3633353720202020312E3638363720202020302E303030302043202020302020302020302020302020302020302020302020302020302020302020302020300A20202020322E3035323320202020322E3237303120202020302E303030302043202020302020302020302020302020302020302020302020302020302020302020302020300A20202020322E3236353820202020332E3036373020202020302E303030302043202020302020302020302020302020302020302020302020302020302020302020302020300A20202020312E3638323520202020332E3635303320202020302E303030302043202020302020302020302020302020302020302020302020302020302020302020302020300A20202020332E3036323720202020332E3238303520202020302E303030302043202020302020302020302020302020302020302020302020302020302020302020302020300A20202020332E3738313120202020302E3434383320202020302E303030302043202020302020302020302020302020302020302020302020302020302020302020302020300A20202020312E393334362020202D302E3736323820202020302E303030302043202020302020302020302020302020302020302020302020302020302020302020302020300A20202020312E3933343620202020302E3036323220202020302E303030302043202020302020302020302020302020302020302020302020302020302020302020302020300A20202020312E323230312020202D302E3335303320202020302E303030302043202020302020302020302020302020302020302020302020302020302020302020302020300A20202020302E353035372020202D302E3736323820202020302E303030302043202020302020302020302020302020302020302020302020302020302020302020302020300A20202020302E353035372020202D312E3538373820202020302E303030302043202020302020302020302020302020302020302020302020302020302020302020302020300A2020202D302E323038382020202D322E3030303320202020302E303030302043202020302020302020302020302020302020302020302020302020302020302020302020300A2020202D302E323038382020202D312E3137353320202020302E303030302043202020302020302020302020302020302020302020302020302020302020302020302020300A2020202D302E323038382020202D332E3635303320202020302E30303030204F202020302020302020302020302020302020302020302020302020302020302020302020300A2020202D322E333532322020202D332E3233373820202020302E30303030204F202020302020302020302020302020302020302020302020302020302020302020302020300A2020202D332E303636372020202D322E3832353320202020302E303030302053692020302020302020302020302020302020302020302020302020302020302020302020300A2020202D332E343739322020202D332E3533393820202020302E303030302043202020302020302020302020302020302020302020302020302020302020302020302020300A2020202D332E373831312020202D322E3431323820202020302E303030302043202020302020302020302020302020302020302020302020302020302020302020302020300A2020202D322E363534322020202D322E3131303920202020302E303030302043202020302020302020302020302020302020302020302020302020302020302020302020300A20202020302E353035372020202D322E3431323820202020302E303030302048202020302020302020302020302020302020302020302020302020302020302020302020300A20202020312E323230312020202D312E3137353320202020302E303030302048202020302020302020302020302020302020302020302020302020302020302020302020300A20202020312E393334362020202D322E3431323820202020302E303030302048202020302020302020302020302020302020302020302020302020302020302020302020300A2020312020322020312020302020202020200A2020322020332020312020302020202020200A2020312020342020312020302020202020200A2020342020352020312020302020202020200A2020352020362020312020302020202020200A2020362020372020312020302020202020200A2020372020382020312020302020202020200A2020382020392020312020302020202020200A2020392031302020312020302020202020200A2031302031312020312020302020202020200A2031322031312020312020312020202020200A2031322031332020312020302020202020200A2031332031342020312020302020202020200A2031342031352020312020302020202020200A2031352031362020312020302020202020200A2031362031372020312020302020202020200A2031372031382020312020302020202020200A2031372031392020312020302020202020200A2031332032302020312020312020202020200A2031322032312020312020302020202020200A2020392032312020312020302020202020200A2032312032322020312020312020202020200A2032312032332020312020302020202020200A2032332032342020312020302020202020200A2032342032352020312020302020202020200A2020382032352020312020302020202020200A2032352032362020312020302020202020200A2020332032362020312020302020202020200A2020352032362020312020302020202020200A2032362032372020312020312020202020200A2020352032382020312020362020202020200A2020362032382020312020362020202020200A2032392033302020312020302020202020200A2033302033312020312020302020202020200A2033302033322020312020302020202020200A2033302033332020312020302020202020200A2020312032392020312020312020202020200A2032352033342020312020362020202020200A2020382033352020312020312020202020200A2020392033362020312020362020202020200A4D2020454E44
Contributor: SEYAMA Y, DEPT. OF PHYSIOL. CHEMISTRY AND NUTRITION, FAC. OF MEDICINE, UNIV. OF TOKYO
InstType: EI
InstName: SHIMADZU QP-1000
IoniMethod: _ENERGY 70 eV
IonPolarity: pos
Date: 2010-10-09 19:48:36+02:00
Num Peaks: 210
53 70 54 25 55 863 56 126 57 816 58 41 59 87 60 11 61 56 65 32 
66 19 67 417 68 87 69 474 70 69 71 330 72 34 73 999 74 92 75 588 
76 46 77 152 78 29 79 349 80 65 81 548 82 80 83 232 84 31 85 65 
87 10 89 26 91 308 92 84 93 542 94 201 95 617 96 400 97 144 98 15 
99 28 101 112 102 12 103 52 104 17 105 236 106 79 107 324 108 156 109 264 
110 133 111 78 112 12 113 20 115 45 116 38 117 118 118 73 119 203 120 160 
121 247 122 141 123 300 124 42 125 32 127 38 128 18 129 183 130 55 131 167 
132 55 133 219 134 141 135 311 136 129 137 78 138 19 139 16 141 28 142 60 
143 208 144 64 145 151 146 48 147 140 148 54 149 126 150 37 151 39 152 10 
153 14 154 10 155 99 156 49 157 110 158 74 159 172 160 49 161 127 162 41 
163 125 164 39 165 33 167 17 168 24 169 86 170 31 171 65 172 28 173 82 
174 28 175 76 176 33 177 52 178 14 179 27 180 11 181 112 182 63 183 90 
184 27 185 63 186 47 187 56 188 17 189 35 190 12 191 31 192 10 193 40 
194 12 195 24 196 12 197 181 198 49 199 61 200 39 201 84 202 19 203 37 
205 17 206 30 207 88 208 28 209 23 210 10 211 110 212 31 213 44 214 13 
215 28 216 20 217 28 219 32 221 16 225 21 226 22 227 39 228 11 229 31 
230 11 231 15 233 19 239 15 243 32 244 11 245 23 246 18 247 56 248 20 
249 25 251 11 253 49 254 13 255 11 259 15 260 17 261 16 262 15 271 35 
272 10 273 23 274 20 275 31 276 11 281 16 288 20 289 16 291 23 299 10 
325 12 329 11 340 12 341 28 342 12 343 13 351 25 356 48 357 16 366 38 
367 25 369 29 370 10 384 66 385 21 445 11 456 10 459 13 474 66 475 25 
