Name: MassBank: JP009952
MW: 300
Formula: C16H12O6
Synonym: MassBank: JP009952
Synonym: 1,3-BENZODIOXOL-5-METHYL 1,3-BENZODIOXOLE-5-CARBOXYLATE
Structure: 312C332D42454E5A4F44494F584F4C2D352D4D455448594C20312C332D42454E5A4F44494F584F4C452D352D434152424F58594C4154452E6D6F6C0A20204368656D447261773131313130393138353132440A2032322032352020302020302020302020302020302020302020302020303939392056323030300A2020202D312E303331322020202D302E3636333820202020302E303030302043202020302020302020302020302020302020302020302020302020302020302020302020300A2020202D302E323036322020202D302E3636333820202020302E303030302043202020302020302020302020302020302020302020302020302020302020302020302020300A20202020302E3230363320202020302E3035303720202020302E30303030204F202020302020302020302020302020302020302020302020302020302020302020302020300A20202020302E323036332020202D312E3337383320202020302E30303030204F202020302020302020302020302020302020302020302020302020302020302020302020300A20202020312E303331332020202D312E3337383320202020302E303030302043202020302020302020302020302020302020302020302020302020302020302020302020300A20202020312E343433382020202D302E3636333820202020302E303030302043202020302020302020302020302020302020302020302020302020302020302020302020300A20202020322E323638382020202D302E3636333820202020302E303030302043202020302020302020302020302020302020302020302020302020302020302020302020300A20202020322E3638313320202020302E3035303720202020302E303030302043202020302020302020302020302020302020302020302020302020302020302020302020300A20202020322E3236383820202020302E3736353220202020302E303030302043202020302020302020302020302020302020302020302020302020302020302020302020300A20202020312E3434333820202020302E3736353220202020302E303030302043202020302020302020302020302020302020302020302020302020302020302020302020300A20202020312E3033313320202020302E3035303720202020302E303030302043202020302020302020302020302020302020302020302020302020302020302020302020300A2020202D312E3434333720202020302E3035303720202020302E303030302043202020302020302020302020302020302020302020302020302020302020302020302020300A2020202D322E3236383720202020302E3035303720202020302E303030302043202020302020302020302020302020302020302020302020302020302020302020302020300A2020202D322E363831322020202D302E3636333820202020302E303030302043202020302020302020302020302020302020302020302020302020302020302020302020300A2020202D322E323638372020202D312E3337383320202020302E303030302043202020302020302020302020302020302020302020302020302020302020302020302020300A2020202D312E343433372020202D312E3337383320202020302E303030302043202020302020302020302020302020302020302020302020302020302020302020302020300A20202020332E3438383220202020302E3232323220202020302E30303030204F202020302020302020302020302020302020302020302020302020302020302020302020300A20202020332E3537343520202020312E3034323720202020302E303030302043202020302020302020302020302020302020302020302020302020302020302020302020300A20202020322E3832303820202020312E3337383320202020302E30303030204F202020302020302020302020302020302020302020302020302020302020302020302020300A2020202D322E3832303820202020302E3636333820202020302E30303030204F202020302020302020302020302020302020302020302020302020302020302020302020300A2020202D332E3537343520202020302E3332383220202020302E303030302043202020302020302020302020302020302020302020302020302020302020302020302020300A2020202D332E343838322020202D302E3439323320202020302E30303030204F202020302020302020302020302020302020302020302020302020302020302020302020300A2020312020322020312020302020202020200A2020322020332020322020302020202020200A2020322020342020312020302020202020200A2020342020352020312020302020202020200A2020352020362020312020302020202020200A2020362020372020322020302020202020200A2020372020382020312020302020202020200A2020382020392020322020302020202020200A2020392031302020312020302020202020200A2031302031312020322020302020202020200A2031312020362020312020302020202020200A2020312031322020322020302020202020200A2031322031332020312020302020202020200A2031332031342020322020302020202020200A2031342031352020312020302020202020200A2031352031362020322020302020202020200A2031362020312020312020302020202020200A2020382031372020312020302020202020200A2031372031382020312020302020202020200A2031382031392020312020302020202020200A2031392020392020312020302020202020200A2031332032302020312020302020202020200A2032302032312020312020302020202020200A2032312032322020312020302020202020200A2032322031342020312020302020202020200A4D2020454E44
Contributor: KURARAY CO., LTD.
InstType: EI
InstName: JEOL JMS-D-300
IoniMethod: _ENERGY 70 eV
IonPolarity: pos
Date: 2010-10-09 19:48:36+02:00
Num Peaks: 6
77 113 135 999 136 114 149 36 150 116 300 359 
