Name: 5-AMINO-2-MESYLPYRIMIDINE
MW: 173
Formula: C5H7N3O2S
Synonym: MassBank: JP004438
Synonym: 5-AMINO-2-MESYLPYRIMIDINE
Structure: 352D414D494E4F2D322D4D4553594C505952494D4944494E452E6D6F6C0A20204368656D447261773034323331303034313932440A2031312031312020302020302020302020302020302020302020302020303939392056323030300A20202020302E3431323520202020302E3030303020202020302E303030302043202020302020302020302020302020302020302020302020302020302020302020302020300A20202020302E303030302020202D302E3731343520202020302E30303030204E202020302020302020302020302020302020302020302020302020302020302020302020300A2020202D302E383235302020202D302E3731343520202020302E303030302043202020302020302020302020302020302020302020302020302020302020302020302020300A2020202D312E3233373520202020302E3030303020202020302E303030302043202020302020302020302020302020302020302020302020302020302020302020302020300A2020202D302E3832353020202020302E3731343520202020302E303030302043202020302020302020302020302020302020302020302020302020302020302020302020300A20202020302E3030303020202020302E3731343520202020302E30303030204E202020302020302020302020302020302020302020302020302020302020302020302020300A20202020312E3233373520202020302E3030303020202020302E303030302053202020302020302020302020302020302020302020302020302020302020302020302020300A20202020312E323337352020202D302E3832353020202020302E30303030204F202020302020302020302020302020302020302020302020302020302020302020302020300A20202020312E3233373520202020302E3832353020202020302E30303030204F202020302020302020302020302020302020302020302020302020302020302020302020300A20202020322E3036323520202020302E3030303020202020302E303030302043202020302020302020302020302020302020302020302020302020302020302020302020300A2020202D322E3036323520202020302E3030303020202020302E30303030204E202020302020302020302020302020302020302020302020302020302020302020302020300A2020312020322020312020302020202020200A2020322020332020322020302020202020200A2020332020342020312020302020202020200A2020342020352020322020302020202020200A2020352020362020312020302020202020200A2020312020362020322020302020202020200A2020372020382020322020302020202020200A2020372020392020322020302020202020200A2020372031302020312020302020202020200A2020312020372020312020302020202020200A2020342031312020312020302020202020200A4D2020454E44
Contributor: SASAKI S, TOYOHASHI UNIV. OF TECH.
InstType: EI
InstName: MS-902
IoniMethod: _ENERGY 70 eV
IonPolarity: pos
Date: 2010-10-09 19:48:36+02:00
Num Peaks: 95
36 18 38 29 39 100 40 47 41 327 42 81 43 70 44 2 45 57 46 21 
47 16 48 3 49 3 50 3 51 11 52 4 53 76 54 28 55 149 56 6 
57 15 58 2 59 4 60 1 62 2 63 57 64 104 65 2 66 171 67 999 
68 80 69 2 70 7 71 9 72 6 73 0 74 5 75 6 76 3 77 1 
78 2 79 53 80 9 81 1 82 214 83 490 84 28 85 1 87 4 90 2 
91 2 93 1 94 541 95 63 96 8 97 1 98 3 99 5 102 4 103 0 
104 6 106 6 108 11 109 4 110 867 111 949 112 61 113 1 115 14 120 2 
122 5 123 0 124 10 125 4 126 5 136 0 137 2 138 2 139 20 143 0 
141 4 142 10 145 3 149 2 150 2 152 2 153 3 158 3 159 2 160 2 
167 4 173 59 174 67 175 37 176 4 
