Name: DIETHYL (2-TRIMETHYLSILOXY-2-PROPENYL)MALONATE
MW: 288
Formula: C13H24O5Si
Synonym: MassBank: JP004773
Synonym: DIETHYL (2-TRIMETHYLSILOXY-2-PROPENYL)MALONATE
Structure: 4449455448594C2028322D5452494D455448594C53494C4F58592D322D50524F50454E594C294D414C4F4E4154452E6D6F6C0A20204368656D447261773039323131303139303832440A2031392031382020302020302020302020302020302020302020302020303939392056323030300A20202020302E3335373220202020302E3230363220202020302E303030302043202020302020302020302020302020302020302020302020302020302020302020302020300A20202020302E333537322020202D302E3631383820202020302E303030302043202020302020302020302020302020302020302020302020302020302020302020302020300A20202020312E303731372020202D312E3033313320202020302E303030302043202020302020302020302020302020302020302020302020302020302020302020302020300A20202020312E3037313720202020302E3631383820202020302E30303030204F202020302020302020302020302020302020302020302020302020302020302020302020300A2020202D302E3335373220202020302E3631383820202020302E30303030204F202020302020302020302020302020302020302020302020302020302020302020302020300A20202020312E303731372020202D312E3835363220202020302E30303030204F202020302020302020302020302020302020302020302020302020302020302020302020300A20202020312E373836322020202D302E3631383820202020302E30303030204F202020302020302020302020302020302020302020302020302020302020302020302020300A2020202D302E333537322020202D312E3033313320202020302E303030302043202020302020302020302020302020302020302020302020302020302020302020302020300A2020202D312E303731372020202D302E3631383820202020302E303030302043202020302020302020302020302020302020302020302020302020302020302020302020300A2020202D312E3037313720202020302E3230363220202020302E303030302043202020302020302020302020302020302020302020302020302020302020302020302020300A2020202D312E373836322020202D312E3033313320202020302E30303030204F202020302020302020302020302020302020302020302020302020302020302020302020300A2020202D322E353030362020202D302E3631383820202020302E303030302053692020302020302020302020302020302020302020302020302020302020302020302020300A2020202D322E393133312020202D312E3333333220202020302E303030302043202020302020302020302020302020302020302020302020302020302020302020302020300A2020202D332E323135312020202D302E3230363320202020302E303030302043202020302020302020302020302020302020302020302020302020302020302020302020300A2020202D322E3038383120202020302E3039353720202020302E303030302043202020302020302020302020302020302020302020302020302020302020302020302020300A2020202D302E3335373220202020312E3434333720202020302E303030302043202020302020302020302020302020302020302020302020302020302020302020302020300A2020202D312E3037313720202020312E3835363220202020302E303030302043202020302020302020302020302020302020302020302020302020302020302020302020300A20202020322E353030362020202D312E3033313220202020302E303030302043202020302020302020302020302020302020302020302020302020302020302020302020300A20202020332E323135312020202D302E3631383720202020302E303030302043202020302020302020302020302020302020302020302020302020302020302020302020300A2020312020322020312020302020202020200A2020322020332020312020302020202020200A2020312020342020322020302020202020200A2020312020352020312020302020202020200A2020332020362020322020302020202020200A2020332020372020312020302020202020200A2020382020392020312020302020202020200A2020392031302020322020302020202020200A2031312031322020312020302020202020200A2031322031332020312020302020202020200A2031322031342020312020302020202020200A2031322031352020312020302020202020200A2020392031312020312020302020202020200A2020322020382020312020302020202020200A2031362031372020312020302020202020200A2020352031362020312020302020202020200A2031382031392020312020302020202020200A2020372031382020312020302020202020200A4D2020454E44
Contributor: MASS SPECTROSCOPY SOC. OF JAPAN (MSSJ)
InstType: EI
InstName: JEOL JMS-D-3000
IoniMethod: _ENERGY 70 eV
IonPolarity: pos
Date: 2010-10-09 19:48:36+02:00
Num Peaks: 58
42 129 44 69 46 24 51 18 53 84 58 25 60 25 72 25 73 617 74 53 
75 310 76 22 77 31 81 21 85 19 96 17 97 583 98 44 99 42 101 69 
102 22 103 47 111 22 124 165 125 153 127 135 128 86 129 36 130 17 141 189 
142 30 143 88 145 18 155 47 169 58 170 38 171 227 172 31 173 44 174 54 
185 23 187 46 197 207 198 43 199 103 214 21 215 999 216 192 217 114 218 16 
227 32 242 103 243 195 244 39 245 66 273 81 288 113 289 23 
