Name: 3-(4-AMINO-4-METHYLPENTYL)INDOLE
MW: 216
Formula: C14H20N2
Synonym: MassBank: JP004350
Synonym: 3-(4-AMINO-4-METHYLPENTYL)INDOLE
Structure: 332D28342D414D494E4F2D342D4D455448594C50454E54594C29494E444F4C452E6D6F6C0A20204368656D447261773032323231303130303732440A2031362031372020302020302020302020302020302020302020302020303939392056323030300A20202020312E303431352020202D302E3834333920202020302E30303030204E202020302020302020302020302020302020302020302020302020302020302020302020300A20202020302E323837382020202D302E3530383420202020302E303030302043202020302020302020302020302020302020302020302020302020302020302020302020300A20202020302E3337343020202020302E3331323120202020302E303030302043202020302020302020302020302020302020302020302020302020302020302020302020300A20202020312E3138313020202020302E3438333620202020302E303030302043202020302020302020302020302020302020302020302020302020302020302020302020300A20202020312E3539333520202020312E3139383120202020302E303030302043202020302020302020302020302020302020302020302020302020302020302020302020300A20202020322E3431383520202020312E3139383120202020302E303030302043202020302020302020302020302020302020302020302020302020302020302020302020300A20202020322E3833313020202020302E3438333620202020302E303030302043202020302020302020302020302020302020302020302020302020302020302020302020300A20202020322E343138352020202D302E3233303820202020302E303030302043202020302020302020302020302020302020302020302020302020302020302020302020300A20202020312E353933352020202D302E3233303820202020302E303030302043202020302020302020302020302020302020302020302020302020302020302020302020300A2020202D302E3233393120202020302E3836343120202020302E303030302043202020302020302020302020302020302020302020302020302020302020302020302020300A2020202D312E3032333720202020302E3630393220202020302E303030302043202020302020302020302020302020302020302020302020302020302020302020302020300A2020202D312E323337322020202D302E3138373720202020302E303030302043202020302020302020302020302020302020302020302020302020302020302020302020300A2020202D322E303334312020202D302E3430313220202020302E303030302043202020302020302020302020302020302020302020302020302020302020302020302020300A2020202D312E383230362020202D312E3139383120202020302E303030302043202020302020302020302020302020302020302020302020302020302020302020302020300A2020202D322E383331302020202D302E3631343720202020302E303030302043202020302020302020302020302020302020302020302020302020302020302020302020300A2020202D322E3234373620202020302E3339353720202020302E30303030204E202020302020302020302020302020302020302020302020302020302020302020302020300A2020312020322020312020302020202020200A2020322020332020322020302020202020200A2020332020342020312020302020202020200A2020342020352020312020302020202020200A2020352020362020322020302020202020200A2020362020372020312020302020202020200A2020372020382020322020302020202020200A2020382020392020312020302020202020200A2020312020392020312020302020202020200A2020342020392020322020302020202020200A2031302031312020312020302020202020200A2031312031322020312020302020202020200A2031322031332020312020302020202020200A2031332031342020312020302020202020200A2031332031352020312020302020202020200A2031332031362020312020302020202020200A2020332031302020312020302020202020200A4D2020454E44
Contributor: SASAKI S, TOYOHASHI UNIV. OF TECH.
InstType: EI
InstName: MX-1303
IoniMethod: _ENERGY 50 eV
IonPolarity: pos
Date: 2010-10-09 19:48:36+02:00
Num Peaks: 51
27 16 29 12 30 30 39 2 41 19 42 64 43 26 45 7 51 15 56 11 
57 13 58 999 59 41 63 14 70 14 71 3 73 30 76 11 77 45 83.5 2 
84 64 89 13 91 12 101 1 102 18 103 27 115 26 116 1 117 17 127 13 
128 22 129 2 130 96 131 26 139 12 140 1 142 10 143 74 144 24 145 1 
154 30 155 30 157 16 166 2 167 86 168 64 169 31 170 2 171 23 216 173 
217 26 
