Name: MassBank: JP003553
MW: 636
Formula: C40H64N2O4
Synonym: MassBank: JP003553
Synonym: N,N'-HEXAMETHYLENE BIS(3,5-DI-TERT-BUTYL-4-HYDROXYHYDROCINNAMIDE)
Structure: 4E2C4E272D484558414D455448594C454E452042495328332C352D44492D544552542D425554594C2D342D485944524F5859485944524F43494E4E414D494445292E6D6F6C0A20204368656D447261773038313231303032333132440A2034362034372020302020302020302020302020302020302020302020303939392056323030300A20202020312E343433382020202D322E3530303620202020302E303030302043202020302020302020302020302020302020302020302020302020302020302020302020300A20202020312E303331322020202D312E3738363220202020302E303030302043202020302020302020302020302020302020302020302020302020302020302020302020300A20202020302E323036322020202D312E3738363220202020302E303030302043202020302020302020302020302020302020302020302020302020302020302020302020300A2020202D302E323036332020202D312E3037313720202020302E303030302043202020302020302020302020302020302020302020302020302020302020302020302020300A2020202D312E303331332020202D312E3037313720202020302E303030302043202020302020302020302020302020302020302020302020302020302020302020302020300A2020202D312E343433382020202D302E3335373220202020302E303030302043202020302020302020302020302020302020302020302020302020302020302020302020300A20202020322E363831332020202D312E3738363220202020302E303030302043202020302020302020302020302020302020302020302020302020302020302020302020300A20202020332E353036332020202D312E3738363220202020302E303030302043202020302020302020302020302020302020302020302020302020302020302020302020300A20202020332E393138382020202D312E3037313720202020302E303030302043202020302020302020302020302020302020302020302020302020302020302020302020300A20202020342E373433382020202D312E3037313720202020302E303030302043202020302020302020302020302020302020302020302020302020302020302020302020300A20202020352E313536322020202D302E3335373220202020302E303030302043202020302020302020302020302020302020302020302020302020302020302020302020300A20202020352E393831322020202D302E3335373220202020302E303030302043202020302020302020302020302020302020302020302020302020302020302020302020300A20202020362E333933382020202D312E3037313720202020302E303030302043202020302020302020302020302020302020302020302020302020302020302020302020300A20202020352E393831332020202D312E3738363220202020302E303030302043202020302020302020302020302020302020302020302020302020302020302020302020300A20202020352E313536322020202D312E3738363220202020302E303030302043202020302020302020302020302020302020302020302020302020302020302020302020300A20202020322E323638372020202D312E3037313720202020302E30303030204F202020302020302020302020302020302020302020302020302020302020302020302020300A20202020322E323638372020202D322E3530303620202020302E30303030204E202020302020302020302020302020302020302020302020302020302020302020302020300A20202020372E323138372020202D312E3037313720202020302E30303030204F202020302020302020302020302020302020302020302020302020302020302020302020300A20202020362E333933372020202D322E3530303620202020302E303030302043202020302020302020302020302020302020302020302020302020302020302020302020300A20202020352E363739332020202D322E3931333120202020302E303030302043202020302020302020302020302020302020302020302020302020302020302020302020300A20202020372E313038322020202D322E3038383120202020302E303030302043202020302020302020302020302020302020302020302020302020302020302020302020300A20202020362E383036332020202D332E3231353120202020302E303030302043202020302020302020302020302020302020302020302020302020302020302020302020300A20202020362E3339333720202020302E3335373220202020302E303030302043202020302020302020302020302020302020302020302020302020302020302020302020300A20202020352E3637393320202020302E3736393720202020302E303030302043202020302020302020302020302020302020302020302020302020302020302020302020300A20202020362E3830363220202020312E3037313720202020302E303030302043202020302020302020302020302020302020302020302020302020302020302020302020300A20202020372E313038322020202D302E3035353320202020302E303030302043202020302020302020302020302020302020302020302020302020302020302020302020300A2020202D322E3638313320202020302E3335373220202020302E303030302043202020302020302020302020302020302020302020302020302020302020302020302020300A2020202D332E3530363320202020302E3335373220202020302E303030302043202020302020302020302020302020302020302020302020302020302020302020302020300A2020202D332E3931383820202020312E3037313720202020302E303030302043202020302020302020302020302020302020302020302020302020302020302020302020300A2020202D342E3734333820202020312E3037313720202020302E303030302043202020302020302020302020302020302020302020302020302020302020302020302020300A2020202D352E3135363320202020302E3335373220202020302E303030302043202020302020302020302020302020302020302020302020302020302020302020302020300A2020202D352E3938313320202020302E3335373220202020302E303030302043202020302020302020302020302020302020302020302020302020302020302020302020300A2020202D362E3339333820202020312E3037313720202020302E303030302043202020302020302020302020302020302020302020302020302020302020302020302020300A2020202D352E3938313320202020312E3738363220202020302E303030302043202020302020302020302020302020302020302020302020302020302020302020302020300A2020202D352E3135363320202020312E3738363220202020302E303030302043202020302020302020302020302020302020302020302020302020302020302020302020300A2020202D322E3236383820202020312E3037313720202020302E30303030204F202020302020302020302020302020302020302020302020302020302020302020302020300A2020202D322E323638372020202D302E3335373220202020302E30303030204E202020302020302020302020302020302020302020302020302020302020302020302020300A2020202D372E3231383720202020312E3037313720202020302E30303030204F202020302020302020302020302020302020302020302020302020302020302020302020300A2020202D362E3339333820202020322E3530303620202020302E303030302043202020302020302020302020302020302020302020302020302020302020302020302020300A2020202D372E3130383220202020322E3038383120202020302E303030302043202020302020302020302020302020302020302020302020302020302020302020302020300A2020202D362E3830363320202020332E3231353120202020302E303030302043202020302020302020302020302020302020302020302020302020302020302020302020300A2020202D352E3637393320202020322E3931333120202020302E303030302043202020302020302020302020302020302020302020302020302020302020302020302020300A2020202D362E333933382020202D302E3335373220202020302E303030302043202020302020302020302020302020302020302020302020302020302020302020302020300A2020202D352E363739332020202D302E3736393720202020302E303030302043202020302020302020302020302020302020302020302020302020302020302020302020300A2020202D362E383036332020202D312E3037313720202020302E303030302043202020302020302020302020302020302020302020302020302020302020302020302020300A2020202D372E3130383220202020302E3035353320202020302E303030302043202020302020302020302020302020302020302020302020302020302020302020302020300A2020312020322020312020302020202020200A2020322020332020312020302020202020200A2020332020342020312020302020202020200A2020342020352020312020302020202020200A2020352020362020312020302020202020200A2020372020382020312020302020202020200A2020382020392020312020302020202020200A2020392031302020312020302020202020200A2031302031312020312020302020202020200A2031312031322020322020302020202020200A2031322031332020312020302020202020200A2031332031342020322020302020202020200A2031342031352020312020302020202020200A2031302031352020322020302020202020200A2020372031362020322020302020202020200A2020372031372020312020302020202020200A2031332031382020312020302020202020200A2031392032302020312020302020202020200A2031392032322020312020302020202020200A2031392032312020312020302020202020200A2031342031392020312020302020202020200A2032332032342020312020302020202020200A2032332032362020312020302020202020200A2032332032352020312020302020202020200A2031322032332020312020302020202020200A2020312031372020312020302020202020200A2032372032382020312020302020202020200A2032382032392020312020302020202020200A2032392033302020312020302020202020200A2033302033312020312020302020202020200A2033312033322020322020302020202020200A2033322033332020312020302020202020200A2033332033342020322020302020202020200A2033342033352020312020302020202020200A2033302033352020322020302020202020200A2032372033362020322020302020202020200A2032372033372020312020302020202020200A2033332033382020312020302020202020200A2033392034302020312020302020202020200A2033392034322020312020302020202020200A2033392034312020312020302020202020200A2033342033392020312020302020202020200A2034332034342020312020302020202020200A2034332034362020312020302020202020200A2034332034352020312020302020202020200A2033322034332020312020302020202020200A2020362033372020312020302020202020200A4D2020454E44
Contributor: MASS SPECTROSCOPY SOC. OF JAPAN (MSSJ)
InstType: EI
InstName: Unknown
IoniMethod: EI
IonPolarity: pos
Date: 2010-10-09 19:48:36+02:00
Num Peaks: 115
29 105 30 193 41 226 43 123 44 64 55 211 56 69 57 999 58 62 69 59 
72 68 81 32 83 52 86 175 87 26 91 34 97 33 98 287 99 29 100 527 
101 60 105 47 107 71 115 34 117 262 119 54 121 49 128 84 129 50 131 32 
133 47 141 22 142 35 143 140 144 46 145 49 147 197 148 24 149 30 157 38 
158 31 159 120 160 26 161 114 162 25 163 122 173 37 175 46 176 27 177 33 
181 36 185 31 187 81 188 34 189 55 201 54 203 286 204 60 205 25 206 23 
216 22 217 204 218 47 219 392 220 81 232 105 233 66 234 27 245 29 248 29 
259 315 260 105 262 48 263 24 265 25 275 43 276 43 277 20 288 25 290 52 
291 49 302 22 303 31 304 34 305 119 306 30 319 50 320 34 321 195 322 43 
346 38 347 76 348 22 358 23 359 31 360 23 361 74 362 37 375 40 376 171 
377 157 378 39 418 50 474 28 523 21 524 69 525 25 529 268 565 23 580 220 
581 75 621 21 636 724 637 303 638 70 
