Name: BIS(TERT-BUTYLDIMETHYLSILYL)AMINE
MW: 245
Formula: C12H31NSi2
Synonym: MassBank: JP004768
Synonym: BIS(TERT-BUTYLDIMETHYLSILYL)AMINE
Structure: 42495328544552542D425554594C44494D455448594C53494C594C29414D494E452E6D6F6C0A20204368656D447261773039303631303030353432440A2031352031342020302020302020302020302020302020302020302020303939392056323030300A20202020302E3030303020202020302E3631383820202020302E30303030204E202020302020302020302020302020302020302020302020302020302020302020302020300A2020202D302E3731343520202020302E3230363220202020302E303030302053692020302020302020302020302020302020302020302020302020302020302020302020300A2020202D312E3132373020202020302E3932303720202020302E303030302043202020302020302020302020302020302020302020302020302020302020302020302020300A2020202D302E333032302020202D302E3530383220202020302E303030302043202020302020302020302020302020302020302020302020302020302020302020302020300A2020202D312E343238392020202D302E3230363220202020302E303030302043202020302020302020302020302020302020302020302020302020302020302020302020300A2020202D312E303136342020202D302E3932303720202020302E303030302043202020302020302020302020302020302020302020302020302020302020302020302020300A2020202D312E3834313420202020302E3530383220202020302E303030302043202020302020302020302020302020302020302020302020302020302020302020302020300A2020202D322E313433342020202D302E3631383820202020302E303030302043202020302020302020302020302020302020302020302020302020302020302020302020300A20202020302E3731343520202020302E3230363320202020302E303030302053692020302020302020302020302020302020302020302020302020302020302020302020300A20202020312E3132373020202020302E3932303720202020302E303030302043202020302020302020302020302020302020302020302020302020302020302020302020300A20202020302E333032302020202D302E3530383220202020302E303030302043202020302020302020302020302020302020302020302020302020302020302020302020300A20202020312E343238392020202D302E3230363220202020302E303030302043202020302020302020302020302020302020302020302020302020302020302020302020300A20202020312E303136342020202D302E3932303720202020302E303030302043202020302020302020302020302020302020302020302020302020302020302020302020300A20202020322E313433342020202D302E3631383820202020302E303030302043202020302020302020302020302020302020302020302020302020302020302020302020300A20202020312E3834313420202020302E3530383220202020302E303030302043202020302020302020302020302020302020302020302020302020302020302020302020300A2020322020332020312020302020202020200A2020322020342020312020302020202020200A2020352020362020312020312020202020200A2020352020382020312020302020202020200A2020352020372020312020312020202020200A2020322020352020312020302020202020200A2020312020322020312020302020202020200A2020392031302020312020312020202020200A2020392031312020312020312020202020200A2031322031332020312020312020202020200A2031322031352020312020312020202020200A2031322031342020312020302020202020200A2020392031322020312020302020202020200A2020312020392020312020302020202020200A4D2020454E44
Contributor: MASS SPECTROSCOPY SOC. OF JAPAN (MSSJ)
InstType: EI
InstName: JEOL JMS-D-3000
IoniMethod: _ENERGY 70 eV
IonPolarity: pos
Date: 2010-10-09 19:48:36+02:00
Num Peaks: 27
41 35 45 21 57 37 59 34 66 24 73 151 74 75 75 11 99 27 100 43 
102 12 113 12 116 73 117 14 130 181 131 29 132 72 133 12 146 999 147 167 
148 77 188 939 189 187 190 74 230 45 231 11 245 7 
