Name: MassBank: JP004972
MW: 263
Formula: C11H26ClNSi2
Synonym: MassBank: JP004972
Synonym: 1-(4-CHLOROBUTYL)-2,2,6,6-TETRAMETHYL-2,6-DISILAPIPERIDINE
Structure: 312D28342D43484C4F524F425554594C292D322C322C362C362D54455452414D455448594C2D322C362D444953494C4150495045524944494E452E6D6F6C0A20204368656D447261773131313730393137333732440A2031352031352020302020302020302020302020302020302020302020303939392056323030300A2020202D302E3634333620202020302E3330383220202020302E30303030204E202020302020302020302020302020302020302020302020302020302020302020302020300A2020202D302E323331312020202D302E3430363220202020302E303030302053692020302020302020302020302020302020302020302020302020302020302020302020300A2020202D302E363433362020202D312E3132303720202020302E303030302043202020302020302020302020302020302020302020302020302020302020302020302020300A2020202D312E343638362020202D312E3132303720202020302E303030302043202020302020302020302020302020302020302020302020302020302020302020302020300A2020202D312E383831312020202D302E3430363220202020302E303030302043202020302020302020302020302020302020302020302020302020302020302020302020300A2020202D312E3436383620202020302E3330383220202020302E303030302053692020302020302020302020302020302020302020302020302020302020302020302020300A2020202D312E3332353420202020312E3132303720202020302E303030302043202020302020302020302020302020302020302020302020302020302020302020302020300A2020202D322E3234333920202020302E3539303420202020302E303030302043202020302020302020302020302020302020302020302020302020302020302020302020300A20202020302E3430303920202020302E3132343120202020302E303030302043202020302020302020302020302020302020302020302020302020302020302020302020300A20202020302E343030392020202D302E3933363520202020302E303030302043202020302020302020302020302020302020302020302020302020302020302020302020300A2020202D302E3233313120202020312E3032323720202020302E303030302043202020302020302020302020302020302020302020302020302020302020302020302020300A20202020302E3539333920202020312E3032323720202020302E303030302043202020302020302020302020302020302020302020302020302020302020302020302020300A20202020312E3030363420202020302E3330383220202020302E303030302043202020302020302020302020302020302020302020302020302020302020302020302020300A20202020312E3833313420202020302E3330383220202020302E303030302043202020302020302020302020302020302020302020302020302020302020302020302020300A20202020322E323433392020202D302E3430363220202020302E3030303020436C2020302020302020302020302020302020302020302020302020302020302020302020300A2020312020322020312020302020202020200A2020322020332020312020302020202020200A2020332020342020312020302020202020200A2020342020352020312020302020202020200A2020352020362020312020302020202020200A2020312020362020312020302020202020200A2020362020372020312020312020202020200A2020362020382020312020362020202020200A2020322020392020312020362020202020200A2020322031302020312020312020202020200A2031312031322020312020302020202020200A2031322031332020312020302020202020200A2031332031342020312020302020202020200A2031342031352020312020302020202020200A2020312031312020312020302020202020200A4D2020454E44
Contributor: MASS SPECTROSCOPY SOC. OF JAPAN (MSSJ)
InstType: EI
InstName: JEOL JMS-D-3000
IoniMethod: _ENERGY 70 eV
IonPolarity: pos
Date: 2010-10-09 19:48:36+02:00
Num Peaks: 23
41 38 43 40 45 37 59 188 73 113 85 47 86 55 88 68 93 39 99 40 
100 29 117 18 130 18 144 36 158 18 170 29 186 999 187 197 188 93 206 93 
207 17 208 39 263 12 
