Name: MassBank: JP007293
MW: 194
Formula: C11H14O3
Synonym: MassBank: JP007293
Synonym: (3S,4S)-4-BENZYLOXYTETRAHYDROFURAN-3-OL
Structure: 2833532C3453292D342D42454E5A594C4F58595445545241485944524F465552414E2D332D4F4C2E6D6F6C0A20204368656D447261773130323130393130343332440A2031362031372020302020302020302020302020302020302020302020303939392056323030300A2020202D322E343530302020202D302E3139373220202020302E303030302043202020302020302020302020302020302020302020302020302020302020302020302020300A2020202D322E343530302020202D312E3032323220202020302E303030302043202020302020302020302020302020302020302020302020302020302020302020302020300A2020202D312E373335352020202D312E3433343720202020302E303030302043202020302020302020302020302020302020302020302020302020302020302020302020300A2020202D312E303231302020202D312E3032323220202020302E303030302043202020302020302020302020302020302020302020302020302020302020302020302020300A2020202D312E303231302020202D302E3139373220202020302E303030302043202020302020302020302020302020302020302020302020302020302020302020302020300A2020202D312E3733353520202020302E3231353320202020302E303030302043202020302020302020302020302020302020302020302020302020302020302020302020300A2020202D302E3330363520202020302E3231353320202020302E303030302043202020302020302020302020302020302020302020302020302020302020302020302020300A20202020302E343037392020202D302E3139373220202020302E30303030204F202020302020302020302020302020302020302020302020302020302020302020302020300A20202020312E3132323420202020302E3231353320202020302E303030302043202020302020302020302020302020302020302020302020302020302020302020302020300A20202020312E343538302020202D302E3533383420202020302E303030302043202020302020302020302020302020302020302020302020302020302020302020302020300A20202020322E323738342020202D302E3435323420202020302E30303030204F202020302020302020302020302020302020302020302020302020302020302020302020300A20202020322E3435303020202020302E3335343820202020302E303030302043202020302020302020302020302020302020302020302020302020302020302020302020300A20202020312E3733353520202020302E3736373320202020302E303030302043202020302020302020302020302020302020302020302020302020302020302020302020300A20202020322E3232303420202020312E3433343720202020302E303030302048202020302020302020302020302020302020302020302020302020302020302020302020300A20202020312E3132323420202020312E3331393320202020302E30303030204F202020302020302020302020302020302020302020302020302020302020302020302020300A20202020302E3633373520202020302E3838323720202020302E303030302048202020302020302020302020302020302020302020302020302020302020302020302020300A2020312020322020322020302020202020200A2020322020332020312020302020202020200A2020332020342020322020302020202020200A2020342020352020312020302020202020200A2020352020362020322020302020202020200A2020362020312020312020302020202020200A2020352020372020312020302020202020200A2020372020382020312020302020202020200A2020392020382020312020362020202020200A2020392031302020312020302020202020200A2031302031312020312020302020202020200A2031312031322020312020302020202020200A2031322031332020312020302020202020200A2031332020392020312020302020202020200A2031332031342020312020362020202020200A2031332031352020312020312020202020200A2020392031362020312020312020202020200A4D2020454E44
Contributor: ITO S, DEPT. OF CHEM., TOHOKU UNIV.
InstType: EI
InstName: HITACHI M-52
IoniMethod: _ENERGY 14 eV
IonPolarity: pos
Date: 2010-10-09 19:48:36+02:00
Num Peaks: 27
44 25 45 36 58 59 68 3 69 59 70 344 71 41 73 5 85 36 91 763 
92 226 93 4 103 398 104 73 105 102 106 10 107 999 108 50 116 36 117 3 
120 23 121 102 134 151 135 5 194 301 195 61 196 14 
