Name: ALPHA-BROMOALLYLTRIMETHYLSILANE
CAS: 94397-40-7
MW: 191
Formula: C6H13BrSi
Synonym: MassBank: JP004985
Synonym: ALPHA-BROMOALLYLTRIMETHYLSILANE
Structure: 310A32300A414C5048412D42524F4D4F414C4C594C5452494D455448594C53494C414E452E6D6F6C0A20204368656D447261773038303631303035353932440A2020382020372020302020302020302020302020302020302020302020303939392056323030300A2020202D302E3330323020202020302E3230363320202020302E303030302053692020302020302020302020302020302020302020302020302020302020302020302020300A2020202D302E3330323020202020312E3033313320202020302E303030302043202020302020302020302020302020302020302020302020302020302020302020302020300A20202020302E3532333020202020302E3230363320202020302E303030302043202020302020302020302020302020302020302020302020302020302020302020302020300A2020202D312E3132373020202020302E3230363320202020302E303030302043202020302020302020302020302020302020302020302020302020302020302020302020300A2020202D302E333032302020202D302E3631383720202020302E303030302043202020302020302020302020302020302020302020302020302020302020302020302020300A20202020302E343132352020202D312E3033313320202020302E303030302043202020302020302020302020302020302020302020302020302020302020302020302020300A20202020312E313237302020202D302E3631383820202020302E303030302043202020302020302020302020302020302020302020302020302020302020302020302020300A2020202D312E303136342020202D312E3033313320202020302E303030302042722020302020302020302020302020302020302020302020302020302020302020302020300A2020312020322020312020302020202020200A2020312020332020312020302020202020200A2020312020342020312020302020202020200A2020352020362020312020302020202020200A2020362020372020322020302020202020200A2020352020382020312020302020202020200A2020312020352020312020302020202020200A4D2020454E44
Contributor: MASS SPECTROSCOPY SOC. OF JAPAN (MSSJ)
InstType: EI
InstName: JEOL JMS-D-3000
IoniMethod: _ENERGY 70 eV
IonPolarity: pos
Date: 2010-10-09 19:48:36+02:00
Num Peaks: 21
41 26 43 319 45 264 46 11 58 127 59 329 60 13 73 999 74 292 75 36 
93 16 97 58 98 10 113 33 123 28 125 26 133 18 149 32 151 37 192 12 
194 17 
