Name: MassBank: JP006747
MW: 218
Formula: C13H14O3
Synonym: MassBank: JP006747
Synonym: 1,6-DIMETHYL-3,4-(5'-METHOXY)BENZO-2-OXABICYCLO(4.1.0)HEPT-3-EN-5-ONE
Synonym: 2,3-DIMETHYL-7-METHOXY-2,3-METHANOCHROMAN-4-ONE
Structure: 312C362D44494D455448594C2D332C342D2835272D4D4554484F58592942454E5A4F2D322D4F584142494359434C4F28342E312E3029484550542D332D454E2D352D4F4E452E6D6F6C0A20204368656D447261773131313630393133313132440A2031362031382020302020302020302020302020302020302020302020303939392056323030300A20202020312E3738363220202020302E3637343020202020302E303030302043202020302020302020302020302020302020302020302020302020302020302020302020300A20202020312E373836322020202D302E3135313020202020302E303030302043202020302020302020302020302020302020302020302020302020302020302020302020300A20202020312E303731372020202D302E3536333520202020302E303030302043202020302020302020302020302020302020302020302020302020302020302020302020300A20202020302E333537322020202D302E3135313020202020302E303030302043202020302020302020302020302020302020302020302020302020302020302020302020300A2020202D302E333537322020202D302E3536333520202020302E303030302043202020302020302020302020302020302020302020302020302020302020302020302020300A2020202D312E303731372020202D302E3135313020202020302E303030302043202020302020302020302020302020302020302020302020302020302020302020302020300A2020202D312E3037313720202020302E3637343020202020302E303030302043202020302020302020302020302020302020302020302020302020302020302020302020300A2020202D302E3335373220202020312E3038363520202020302E303030302043202020302020302020302020302020302020302020302020302020302020302020302020300A20202020302E3335373220202020302E3637343020202020302E303030302043202020302020302020302020302020302020302020302020302020302020302020302020300A20202020312E3037313720202020312E3038363520202020302E30303030204F202020302020302020302020302020302020302020302020302020302020302020302020300A20202020322E3530303620202020302E3236313520202020302E303030302043202020302020302020302020302020302020302020302020302020302020302020302020300A20202020312E303731372020202D312E3338383520202020302E30303030204F202020302020302020302020302020302020302020302020302020302020302020302020300A2020202D312E3738363220202020312E3038363520202020302E30303030204F202020302020302020302020302020302020302020302020302020302020302020302020300A2020202D322E3530303620202020302E3637343020202020302E303030302043202020302020302020302020302020302020302020302020302020302020302020302020300A20202020322E313938372020202D302E3836353520202020302E303030302043202020302020302020302020302020302020302020302020302020302020302020302020300A20202020322E3139383720202020312E3338383520202020302E303030302043202020302020302020302020302020302020302020302020302020302020302020302020300A2020312020322020312020302020202020200A2020322020332020312020302020202020200A2020332020342020312020302020202020200A2020342020352020312020302020202020200A2020352020362020322020302020202020200A2020362020372020312020302020202020200A2020372020382020322020302020202020200A2020382020392020312020302020202020200A2020342020392020322020302020202020200A2020392031302020312020302020202020200A2020312031302020312020302020202020200A2020312031312020312020302020202020200A2020322031312020312020302020202020200A2020332031322020322020302020202020200A2031332031342020312020302020202020200A2020372031332020312020302020202020200A2020322031352020312020302020202020200A2020312031362020312020302020202020200A4D2020454E44
Contributor: MASS SPECTROSCOPY SOC. OF JAPAN (MSSJ)
InstType: EI
InstName: HITACHI RMS-4
IoniMethod: _ENERGY 70 eV
IonPolarity: pos
Date: 2010-10-09 19:48:36+02:00
Num Peaks: 115
38 110 39 550 40 120 41 7 42 70 43 690 50 180 51 4 52 160 53 320 
54 70 55 2 56 60 57 170 61 60 62 2 63 870 64 180 65 180 66 1 
67 130 69 180 71 90 72 1 73 70 74 150 75 320 76 1 77 260 78 140 
79 220 80 1 81 80 82 50 83 70 85 1 87 50 89 120 90 80 91 3 
92 110 93 60 94 110 95 2 97 60 98 70 99 70 101 1 102 70 103 110 
104 60 105 1 106 530 107 180 108 130 110 2 111 70 112 70 115 230 116 1 
117 110 118 70 119 80 121 1 122 90 124 160 126 90 127 1 128 80 131 90 
132 110 133 1 134 470 135 120 137 130 138 2 139 60 140 60 144 60 145 2 
146 90 147 100 148 80 149 1 150 50 151 790 152 80 155 1 159 100 160 80 
161 260 163 1 164 50 165 210 167 80 168 2 170 60 173 70 174 50 175 7 
176 250 177 100 178 570 179 2 181 60 188 90 189 220 190 1 193 50 203 390 
204 160 217 1 218 999 219 160 220 10 
