Name: MassBank: JP002488
MW: 278
Formula: C17H30OSi
Synonym: MassBank: JP002488
Synonym: 4-ISOPROPYL-6-TRIMETHYLSILYLMETHYL-3,4,4A,5,8,8A-HEXAHYDRO-1(2H)-NAPHTHALENONE
Structure: 342D49534F50524F50594C2D362D5452494D455448594C53494C594C4D455448594C2D332C342C34412C352C382C38412D48455841485944524F2D31283248292D4E4150485448414C454E4F4E452E6D6F6C0A20204368656D447261773034323031303131303832440A2031392032302020302020302020302020302020302020302020302020303939392056323030300A2020202D312E373836322020202D312E3033313320202020302E303030302043202020302020302020302020302020302020302020302020302020302020302020302020300A2020202D322E353030362020202D302E3631383820202020302E303030302043202020302020302020302020302020302020302020302020302020302020302020302020300A2020202D322E3530303620202020302E3230363220202020302E303030302043202020302020302020302020302020302020302020302020302020302020302020302020300A2020202D312E3738363220202020302E3631383720202020302E303030302043202020302020302020302020302020302020302020302020302020302020302020302020300A2020202D312E3037313720202020302E3230363220202020302E303030302043202020302020302020302020302020302020302020302020302020302020302020302020300A2020202D302E3335373220202020302E3631383720202020302E303030302043202020302020302020302020302020302020302020302020302020302020302020302020300A20202020302E3335373220202020302E3230363220202020302E303030302043202020302020302020302020302020302020302020302020302020302020302020302020300A20202020302E333537322020202D302E3631383820202020302E303030302043202020302020302020302020302020302020302020302020302020302020302020302020300A2020202D302E333537322020202D312E3033313320202020302E303030302043202020302020302020302020302020302020302020302020302020302020302020302020300A2020202D312E303731372020202D302E3631383820202020302E303030302043202020302020302020302020302020302020302020302020302020302020302020302020300A2020202D312E373836322020202D312E3835363320202020302E30303030204F202020302020302020302020302020302020302020302020302020302020302020302020300A20202020312E3037313720202020302E3631383720202020302E303030302043202020302020302020302020302020302020302020302020302020302020302020302020300A20202020312E3738363220202020302E3230363320202020302E303030302053692020302020302020302020302020302020302020302020302020302020302020302020300A20202020322E3139383720202020302E3932303720202020302E303030302043202020302020302020302020302020302020302020302020302020302020302020302020300A20202020322E353030362020202D302E3230363220202020302E303030302043202020302020302020302020302020302020302020302020302020302020302020302020300A20202020312E333733372020202D302E3530383220202020302E303030302043202020302020302020302020302020302020302020302020302020302020302020302020300A2020202D312E3738363220202020312E3434333720202020302E303030302043202020302020302020302020302020302020302020302020302020302020302020302020300A2020202D322E3530303620202020312E3835363320202020302E303030302043202020302020302020302020302020302020302020302020302020302020302020302020300A2020202D312E3037313720202020312E3835363220202020302E303030302043202020302020302020302020302020302020302020302020302020302020302020302020300A2020312020322020312020302020202020200A2020322020332020312020302020202020200A2020332020342020312020302020202020200A2020342020352020312020302020202020200A2020352020362020312020302020202020200A2020362020372020312020302020202020200A2020372020382020322020302020202020200A2020382020392020312020302020202020200A2020392031302020312020302020202020200A2020312031302020312020302020202020200A2020352031302020312020302020202020200A2020312031312020322020302020202020200A2031332031342020312020312020202020200A2031332031352020312020302020202020200A2031332031362020312020312020202020200A2031322031332020312020302020202020200A2020372031322020312020302020202020200A2031372031382020312020302020202020200A2031372031392020312020302020202020200A2020342031372020312020302020202020200A4D2020454E44
Contributor: MASS SPECTROSCOPY SOC. OF JAPAN (MSSJ)
InstType: EI
InstName: JEOL JMS-D-3000
IoniMethod: _ENERGY 70 eV
IonPolarity: pos
Date: 2010-10-09 19:48:36+02:00
Num Peaks: 48
42 128 43 84 45 121 55 100 59 94 67 51 69 147 73 999 74 94 75 277 
77 73 79 85 80 33 81 61 83 89 91 139 92 49 93 65 95 40 104 180 
105 98 106 63 107 34 115 35 117 97 118 82 119 59 121 71 129 51 131 75 
132 36 139 69 143 42 145 236 146 37 155 79 159 70 160 49 163 33 188 129 
189 36 191 36 193 34 206 57 211 277 212 55 278 132 279 32 
