Name: 2-DIMETHYLAMINO-5-NITROPYRIMIDINE
MW: 168
Formula: C6H8N4O2
Synonym: MassBank: JP002048
Synonym: 2-DIMETHYLAMINO-5-NITROPYRIMIDINE
Structure: 322D44494D455448594C414D494E4F2D352D4E4954524F505952494D4944494E452E6D6F6C0A20204368656D447261773031303331303132313632440A2031322031322020302020302020302020302020302020302020302020303939392056323030300A2020202D302E3832353020202020302E3030303020202020302E303030302043202020302020302020302020302020302020302020302020302020302020302020302020300A2020202D302E3431323520202020302E3731343520202020302E30303030204E202020302020302020302020302020302020302020302020302020302020302020302020300A20202020302E3431323520202020302E3731343520202020302E303030302043202020302020302020302020302020302020302020302020302020302020302020302020300A20202020302E383235302020202D302E3030303020202020302E303030302043202020302020302020302020302020302020302020302020302020302020302020302020300A20202020302E343132352020202D302E3731343520202020302E303030302043202020302020302020302020302020302020302020302020302020302020302020302020300A2020202D302E343132352020202D302E3731343520202020302E30303030204E202020302020302020302020302020302020302020302020302020302020302020302020300A20202020312E363530302020202D302E3030303020202020302E30303030204E202020302020332020302020302020302020302020302020302020302020302020302020300A20202020322E303632352020202D302E3731343520202020302E30303030204F202020302020302020302020302020302020302020302020302020302020302020302020300A20202020322E3036323520202020302E3731343520202020302E30303030204F202020302020352020302020302020302020302020302020302020302020302020302020300A2020202D312E3635303020202020302E3030303020202020302E30303030204E202020302020302020302020302020302020302020302020302020302020302020302020300A2020202D322E303632352020202D302E3731343520202020302E303030302043202020302020302020302020302020302020302020302020302020302020302020302020300A2020202D322E3036323520202020302E3731343520202020302E303030302043202020302020302020302020302020302020302020302020302020302020302020302020300A2020312020322020312020302020202020200A2020322020332020322020302020202020200A2020332020342020312020302020202020200A2020342020352020322020302020202020200A2020352020362020312020302020202020200A2020312020362020322020302020202020200A2020372020382020322020302020202020200A2020372020392020312020302020202020200A2020342020372020312020302020202020200A2031302031312020312020302020202020200A2031302031322020312020302020202020200A2020312031302020312020302020202020200A4D202043484720203220202037202020312020203920202D310A4D2020454E44
Contributor: SASAKI S, TOYOHASHI UNIV. OF TECH.
InstType: EI
InstName: MS-902
IoniMethod: _ENERGY 70 eV
IonPolarity: pos
Date: 2010-10-09 19:48:36+02:00
Num Peaks: 43
38 11 39 15 40 43 41 5 42 303 43 248 44 650 45 2 50 24 52 90 
53 83 54 3 55 43 68 20 69 135 70 100 71 2 72 39 77 18 79 240 
80 16 81 29 93 85 94 25 95 10 106 12 107 450 108 40 109 2 110 13 
121 288 122 55 123 1 125 43 135 43 139 550 140 4 152 13 153 371 154 25 
167 15 168 999 169 95 
