Name: 1-ACETYL-3-(4-NITROPHENYL)-4-(2-PYRIDYL)-2-PYRAZOLINE
MW: 310
Formula: C16H14N4O3
Synonym: MassBank: JP005048
Synonym: 1-ACETYL-3-(4-NITROPHENYL)-4-(2-PYRIDYL)-2-PYRAZOLINE
Structure: 312D41434554594C2D332D28342D4E4954524F5048454E594C292D342D28322D5059524944594C292D322D505952415A4F4C494E452E6D6F6C0A20204368656D447261773131313730393231303432440A2032332032352020302020302020302020302020302020302020302020303939392056323030300A2020202D312E303634322020202D312E3738303520202020302E30303030204E202020302020302020302020302020302020302020302020302020302020302020302020300A2020202D312E333139312020202D302E3939353820202020302E30303030204E202020302020302020302020302020302020302020302020302020302020302020302020300A2020202D302E363531372020202D302E3531303920202020302E303030302043202020302020302020302020302020302020302020302020302020302020302020302020300A20202020302E303135372020202D302E3939353820202020302E303030302043202020302020302020302020302020302020302020302020302020302020302020302020300A2020202D302E323339322020202D312E3738303520202020302E303030302043202020302020302020302020302020302020302020302020302020302020302020302020300A20202020302E383030342020202D302E3734303920202020302E303030302043202020302020302020302020302020302020302020302020302020302020302020302020300A20202020312E343133352020202D312E3239323920202020302E303030302043202020302020302020302020302020302020302020302020302020302020302020302020300A20202020322E313938312020202D312E3033383020202020302E303030302043202020302020302020302020302020302020302020302020302020302020302020302020300A20202020322E333639362020202D302E3233313020202020302E303030302043202020302020302020302020302020302020302020302020302020302020302020302020300A20202020312E3735363520202020302E3332313020202020302E303030302043202020302020302020302020302020302020302020302020302020302020302020302020300A20202020302E3937313920202020302E3036363120202020302E30303030204E202020302020302020302020302020302020302020302020302020302020302020302020300A2020202D302E3635313720202020302E3331343120202020302E303030302043202020302020302020302020302020302020302020302020302020302020302020302020300A2020202D312E3336363220202020302E3732363620202020302E303030302043202020302020302020302020302020302020302020302020302020302020302020302020300A2020202D312E3336363220202020312E3535313620202020302E303030302043202020302020302020302020302020302020302020302020302020302020302020302020300A2020202D302E3635313720202020312E3936343120202020302E303030302043202020302020302020302020302020302020302020302020302020302020302020302020300A20202020302E3036323820202020312E3535313620202020302E303030302043202020302020302020302020302020302020302020302020302020302020302020302020300A20202020302E3036323820202020302E3732363620202020302E303030302043202020302020302020302020302020302020302020302020302020302020302020302020300A2020202D302E3635313720202020322E3738393120202020302E30303030204E202020302020332020302020302020302020302020302020302020302020302020302020300A20202020302E3036323820202020332E3230313620202020302E30303030204F202020302020302020302020302020302020302020302020302020302020302020302020300A2020202D312E3336363220202020332E3230313620202020302E30303030204F202020302020352020302020302020302020302020302020302020302020302020302020300A2020202D312E353439312020202D322E3434373920202020302E303030302043202020302020302020302020302020302020302020302020302020302020302020302020300A2020202D312E323133362020202D332E3230313620202020302E30303030204F202020302020302020302020302020302020302020302020302020302020302020302020300A2020202D322E333639362020202D322E3336313720202020302E303030302043202020302020302020302020302020302020302020302020302020302020302020302020300A2020312020322020312020302020202020200A2020322020332020322020302020202020200A2020332020342020312020302020202020200A2020342020352020312020302020202020200A2020312020352020312020302020202020200A2020362020372020312020302020202020200A2020372020382020322020302020202020200A2020382020392020312020302020202020200A2020392031302020322020302020202020200A2031302031312020312020302020202020200A2020362031312020322020302020202020200A2020342020362020312020302020202020200A2031322031332020312020302020202020200A2031332031342020322020302020202020200A2031342031352020312020302020202020200A2031352031362020322020302020202020200A2031362031372020312020302020202020200A2031322031372020322020302020202020200A2031382031392020322020302020202020200A2031382032302020312020302020202020200A2031352031382020312020302020202020200A2020332031322020312020302020202020200A2032312032322020322020302020202020200A2032312032332020312020302020202020200A2020312032312020312020302020202020200A4D202043484720203220203138202020312020323020202D310A4D2020454E44
Contributor: SASAKI S, TOYOHASHI UNIV. OF TECH.
InstType: EI
InstName: MX-1303
IoniMethod: _ENERGY 50 eV
IonPolarity: pos
Date: 2010-10-09 19:48:36+02:00
Num Peaks: 10
78 113 79 999 92 20 119 8 144 22 190 130 191 35 232 4 267 24 310 69 
