Name: 1-METHYL-1-(2-PROPYNYL)HYDRAZINE
MW: 84
Formula: C4H8N2
Synonym: MassBank: JP000393
Synonym: 1-METHYL-1-(2-PROPYNYL)HYDRAZINE
Structure: 310A31360A312D4D455448594C2D312D28322D50524F50594E594C2948594452415A494E452E6D6F6C0A20204368656D447261773131313930393136313832440A2020362020352020302020302020302020302020302020302020302020303939392056323030300A2020202D302E373134352020202D302E3230363220202020302E30303030204E202020302020302020302020302020302020302020302020302020302020302020302020300A2020202D312E343238392020202D302E3631383820202020302E30303030204E202020302020302020302020302020302020302020302020302020302020302020302020300A20202020302E303030302020202D302E3631383820202020302E303030302043202020302020302020302020302020302020302020302020302020302020302020302020300A20202020302E373134352020202D302E3230363220202020302E303030302043202020302020302020302020302020302020302020302020302020302020302020302020300A20202020312E3432383920202020302E3230363220202020302E303030302043202020302020302020302020302020302020302020302020302020302020302020302020300A2020202D302E3731343520202020302E3631383820202020302E303030302043202020302020302020302020302020302020302020302020302020302020302020302020300A2020312020322020312020302020202020200A2020332020342020312020302020202020200A2020342020352020332020302020202020200A2020312020332020312020302020202020200A2020312020362020312020302020202020200A4D2020454E44
Contributor: SASAKI S, TOYOHASHI UNIV. OF TECH.
InstType: EI
InstName: SHIMADZU LKB-2091
IoniMethod: _ENERGY 70 eV
IonPolarity: pos
Date: 2010-10-09 19:48:36+02:00
Num Peaks: 31
26 15 27 40 28 154 29 7 30 35 31 9 37 39 38 7 39 227 40 35 
41 50 42 10 43 118 44 67 45 999 46 3 51 9 52 18 53 13 54 4 
55 25 56 15 57 5 59 1 66 37 67 10 68 9 69 0 83 65 84 345 
85 31 
