Name: ETHYL 2-ETHOXYCARBONYL-3-METHYL-4-PHENYLPENTANOATE
MW: 292
Formula: C17H24O4
Synonym: MassBank: JP004896
Synonym: ETHYL 2-ETHOXYCARBONYL-3-METHYL-4-PHENYLPENTANOATE
Structure: 455448594C20322D4554484F5859434152424F4E594C2D332D4D455448594C2D342D5048454E594C50454E54414E4F4154452E6D6F6C0A20204368656D447261773038313131303138303532440A2032312032312020302020302020302020302020302020302020302020303939392056323030300A20202020302E3335373220202020302E3431323520202020302E303030302043202020302020302020302020302020302020302020302020302020302020302020302020300A20202020302E333537322020202D302E3431323520202020302E303030302043202020302020302020302020302020302020302020302020302020302020302020302020300A2020202D302E333537322020202D302E3832353020202020302E303030302043202020302020302020302020302020302020302020302020302020302020302020302020300A2020202D312E303731372020202D302E3431323520202020302E303030302043202020302020302020302020302020302020302020302020302020302020302020302020300A2020202D312E3037313720202020302E3431323520202020302E303030302043202020302020302020302020302020302020302020302020302020302020302020302020300A20202020312E3037313720202020302E3832353020202020302E30303030204F202020302020302020302020302020302020302020302020302020302020302020302020300A2020202D302E3335373220202020302E3832353020202020302E30303030204F202020302020302020302020302020302020302020302020302020302020302020302020300A2020202D312E373836322020202D302E3832353020202020302E303030302043202020302020302020302020302020302020302020302020302020302020302020302020300A2020202D322E353030362020202D302E3431323520202020302E303030302043202020302020302020302020302020302020302020302020302020302020302020302020300A2020202D332E323135312020202D302E3832353020202020302E303030302043202020302020302020302020302020302020302020302020302020302020302020302020300A2020202D332E323135312020202D312E3635303020202020302E303030302043202020302020302020302020302020302020302020302020302020302020302020302020300A2020202D322E353030362020202D322E3036323520202020302E303030302043202020302020302020302020302020302020302020302020302020302020302020302020300A2020202D312E373836322020202D312E3635303020202020302E303030302043202020302020302020302020302020302020302020302020302020302020302020302020300A2020202D302E333537322020202D312E3635303020202020302E303030302043202020302020302020302020302020302020302020302020302020302020302020302020300A20202020312E303731372020202D302E3832353020202020302E303030302043202020302020302020302020302020302020302020302020302020302020302020302020300A20202020312E303731372020202D312E3635303020202020302E30303030204F202020302020302020302020302020302020302020302020302020302020302020302020300A20202020312E373836322020202D302E3431323520202020302E30303030204F202020302020302020302020302020302020302020302020302020302020302020302020300A20202020322E353030362020202D302E3832353020202020302E303030302043202020302020302020302020302020302020302020302020302020302020302020302020300A20202020332E323135312020202D302E3431323520202020302E303030302043202020302020302020302020302020302020302020302020302020302020302020302020300A2020202D302E3335373220202020312E3635303020202020302E303030302043202020302020302020302020302020302020302020302020302020302020302020302020300A2020202D312E3037313720202020322E3036323520202020302E303030302043202020302020302020302020302020302020302020302020302020302020302020302020300A2020312020322020312020302020202020200A2020322020332020312020302020202020200A2020332020342020312020302020202020200A2020342020352020312020302020202020200A2020312020362020322020302020202020200A2020312020372020312020302020202020200A2020382020392020312020302020202020200A2020392031302020322020302020202020200A2031302031312020312020302020202020200A2031312031322020322020302020202020200A2031322031332020312020302020202020200A2020382031332020322020302020202020200A2020342020382020312020302020202020200A2020332031342020312020302020202020200A2031352031362020322020302020202020200A2031382031392020312020302020202020200A2031372031382020312020302020202020200A2031352031372020312020302020202020200A2020322031352020312020302020202020200A2032302032312020312020302020202020200A2020372032302020312020302020202020200A4D2020454E44
Contributor: KATO T, DEPT. OF CHEM., FAC. OF SCI., TOHOKU UNIV.
InstType: EI
InstName: Unknown
IoniMethod: _ENERGY 14 eV
IonPolarity: pos
Date: 2010-10-09 19:48:36+02:00
Num Peaks: 27
79 42 87 30 88 29 91 6 103 21 104 39 105 648 106 9 113 10 114 12 
115 47 117 14 129 31 131 23 132 999 133 18 141 34 142 12 145 29 160 18 
161 167 173 41 184 11 201 11 202 11 247 39 292 2 
