Name: MassBank: JP004627
MW: 174
Formula: C12H14O
Synonym: MassBank: JP004627
Synonym: 4-ISOPROPENYLBICYCLO(3.2.2)NONA-3,6-DIEN-2-ONE
Structure: 342D49534F50524F50454E594C42494359434C4F28332E322E32294E4F4E412D332C362D4449454E2D322D4F4E452E6D6F6C0A20204368656D447261773034323031303131303532440A2031332031342020302020302020302020302020302020302020302020303939392056323030300A2020202D312E353535382020202D302E3134313020202020302E303030302043202020302020302020302020302020302020302020302020302020302020302020302020300A2020202D312E3039313720202020302E3636323820202020302E303030302043202020302020302020302020302020302020302020302020302020302020302020302020300A2020202D302E3135353220202020302E3636323820202020302E303030302043202020302020302020302020302020302020302020302020302020302020302020302020300A20202020302E333133342020202D302E3134393020202020302E303030302043202020302020302020302020302020302020302020302020302020302020302020302020300A2020202D302E313530342020202D302E3935323520202020302E303030302043202020302020302020302020302020302020302020302020302020302020302020302020300A2020202D302E313530342020202D302E3133363120202020302E303030302043202020302020302020302020302020302020302020302020302020302020302020302020300A2020202D302E3835333520202020302E3236393820202020302E303030302043202020302020302020302020302020302020302020302020302020302020302020302020300A2020202D312E353535382020202D302E3936313120202020302E303030302043202020302020302020302020302020302020302020302020302020302020302020302020300A2020202D302E383437362020202D312E3337303020202020302E303030302043202020302020302020302020302020302020302020302020302020302020302020302020300A2020202D312E3530303020202020312E3337303020202020302E30303030204F202020302020302020302020302020302020302020302020302020302020302020302020300A20202020312E313338372020202D302E3134393020202020302E303030302043202020302020302020302020302020302020302020302020302020302020302020302020300A20202020312E3535353820202020302E3537333320202020302E303030302043202020302020302020302020302020302020302020302020302020302020302020302020300A20202020312E353436372020202D302E3835353720202020302E303030302043202020302020302020302020302020302020302020302020302020302020302020302020300A2020312020322020312020302020202020200A2020322020332020312020302020202020200A2020332020342020322020302020202020200A2020342020352020312020302020202020200A2020352020362020312020302020202020200A2020362020372020322020302020202020200A2020382020392020312020302020202020200A2020312020372020312020302020202020200A2020312020382020312020302020202020200A2020352020392020312020302020202020200A2020322031302020322020302020202020200A2031312031322020322020302020202020200A2031312031332020312020302020202020200A2020342031312020312020302020202020200A4D2020454E44
Contributor: KATO T, DEPT. OF CHEM., FAC. OF SCI., TOHOKU UNIV.
InstType: EI
InstName: HITACHI M-52
IoniMethod: _ENERGY 14 eV
IonPolarity: pos
Date: 2010-10-09 19:48:36+02:00
Num Peaks: 30
70 21 78 27 80 16 81 1 87 35 92 97 96 18 105 9 108 90 118 246 
119 83 120 6 129 39 130 458 131 106 132 5 133 269 134 62 141 67 145 44 
146 101 148 60 156 74 157 3 159 88 160 27 161 19 173 19 174 999 175 69 
