Name: 5-METHOXYINDOLE-3-ACETIC ACID METHYL ESTER
MW: 219
Formula: C12H13NO3
Synonym: MassBank: JP005251
Synonym: 5-METHOXYINDOLE-3-ACETIC ACID METHYL ESTER
Structure: 352D4D4554484F5859494E444F4C452D332D4143455449432041434944204D455448594C2045535445522E6D6F6C0A20204368656D447261773034323331303036353032440A2031362031372020302020302020302020302020302020302020302020303939392056323030300A20202020302E303331392020202D312E3337383320202020302E30303030204E202020302020302020302020302020302020302020302020302020302020302020302020300A2020202D302E373231382020202D312E3034323720202020302E303030302043202020302020302020302020302020302020302020302020302020302020302020302020300A2020202D302E363335362020202D302E3232323220202020302E303030302043202020302020302020302020302020302020302020302020302020302020302020302020300A20202020302E313731342020202D302E3035303720202020302E303030302043202020302020302020302020302020302020302020302020302020302020302020302020300A20202020302E3538333920202020302E3636333820202020302E303030302043202020302020302020302020302020302020302020302020302020302020302020302020300A20202020312E3430383920202020302E3636333820202020302E303030302043202020302020302020302020302020302020302020302020302020302020302020302020300A20202020312E383231342020202D302E3035303720202020302E303030302043202020302020302020302020302020302020302020302020302020302020302020302020300A20202020312E343038392020202D302E3736353220202020302E303030302043202020302020302020302020302020302020302020302020302020302020302020302020300A20202020302E353833392020202D302E3736353220202020302E303030302043202020302020302020302020302020302020302020302020302020302020302020302020300A2020202D322E3033333320202020302E3037343920202020302E303030302043202020302020302020302020302020302020302020302020302020302020302020302020300A2020202D312E3234383720202020302E3332393820202020302E303030302043202020302020302020302020302020302020302020302020302020302020302020302020300A2020202D322E3634363420202020302E3632363920202020302E30303030204F202020302020302020302020302020302020302020302020302020302020302020302020300A2020202D322E323436382020202D302E3732323020202020302E30303030204F202020302020302020302020302020302020302020302020302020302020302020302020300A20202020312E3832313420202020312E3337383320202020302E30303030204F202020302020302020302020302020302020302020302020302020302020302020302020300A20202020322E3634363420202020312E3337383320202020302E303030302043202020302020302020302020302020302020302020302020302020302020302020302020300A2020202D312E363633352020202D312E3330353420202020302E303030302043202020302020302020302020302020302020302020302020302020302020302020302020300A2020312020322020312020302020202020200A2020322020332020322020302020202020200A2020332020342020312020302020202020200A2020342020352020312020302020202020200A2020352020362020322020302020202020200A2020362020372020312020302020202020200A2020372020382020322020302020202020200A2020382020392020312020302020202020200A2020312020392020312020302020202020200A2020342020392020322020302020202020200A2031302031312020312020302020202020200A2031302031322020322020302020202020200A2031302031332020312020302020202020200A2020332031312020312020302020202020200A2031342031352020312020302020202020200A2020362031342020312020302020202020200A2031332031362020312020302020202020200A4D2020454E44
Contributor: MASS SPECTROSCOPY SOC. OF JAPAN (MSSJ)
InstType: EI
InstName: HITACHI M-80
IoniMethod: _ENERGY 20 eV
IonPolarity: pos
Date: 2010-10-09 19:48:36+02:00
Num Peaks: 25
39 46 44 25 51 46 59 3 62 33 63 75 80 37 89 9 90 66 91 25 
116 50 117 15 118 29 130 25 144 37 145 18 147 46 159 41 160 999 161 15 
175 33 177 29 204 8 219 43 220 62 
