Name: 4-ETHOXYCARBONYL-1-METHYL-4-PHENYL-HEXAHYDRO-1H-AZEPINE
MW: 261
Formula: C16H23NO2
Synonym: MassBank: JP003867
Synonym: 4-ETHOXYCARBONYL-1-METHYL-4-PHENYL-HEXAHYDRO-1H-AZEPINE
Synonym: ZACTANE
Structure: 342D4554484F5859434152424F4E594C2D312D4D455448594C2D342D5048454E594C2D48455841485944524F2D31482D415A4550494E452E6D6F6C0A20204368656D447261773033323531303231343632440A2031392032302020302020302020302020302020302020302020302020303939392056323030300A20202020312E3831333420202020312E3032333420202020302E30303030204E202020302020302020302020302020302020302020302020302020302020302020302020300A20202020312E3430303920202020302E3330393020202020302E303030302043202020302020302020302020302020302020302020302020302020302020302020302020300A20202020302E3538353220202020302E3138363020202020302E303030302043202020302020302020302020302020302020302020302020302020302020302020302020300A2020202D302E3031393620202020302E3734373120202020302E303030302043202020302020302020302020302020302020302020302020302020302020302020302020300A20202020302E3034323020202020312E3536393820202020302E303030302043202020302020302020302020302020302020302020302020302020302020302020302020300A20202020302E3732333720202020322E3033343620202020302E303030302043202020302020302020302020302020302020302020302020302020302020302020302020300A20202020312E3531323020202020312E3739313420202020302E303030302043202020302020302020302020302020302020302020302020302020302020302020302020300A2020202D312E3032393520202020312E3036373020202020302E303030302043202020302020302020302020302020302020302020302020302020302020302020302020300A2020202D312E3634393220202020302E3530323120202020302E303030302043202020302020302020302020302020302020302020302020302020302020302020302020300A2020202D322E3432323620202020302E3734393020202020302E303030302043202020302020302020302020302020302020302020302020302020302020302020302020300A2020202D322E3633363120202020312E3534353920202020302E303030302043202020302020302020302020302020302020302020302020302020302020302020302020300A2020202D322E3031363420202020322E3131303720202020302E303030302043202020302020302020302020302020302020302020302020302020302020302020302020300A2020202D312E3234333020202020312E3836333920202020302E303030302043202020302020302020302020302020302020302020302020302020302020302020302020300A20202020322E3633363120202020302E3936313820202020302E303030302043202020302020302020302020302020302020302020302020302020302020302020302020300A2020202D302E3433323120202020302E3033323720202020302E303030302043202020302020302020302020302020302020302020302020302020302020302020302020300A2020202D312E3235373120202020302E3033323720202020302E30303030204F202020302020302020302020302020302020302020302020302020302020302020302020300A2020202D302E303139362020202D302E3638313820202020302E30303030204F202020302020302020302020302020302020302020302020302020302020302020302020300A2020202D302E343332312020202D312E3339363320202020302E303030302043202020302020302020302020302020302020302020302020302020302020302020302020300A2020202D302E303139362020202D322E3131303720202020302E303030302043202020302020302020302020302020302020302020302020302020302020302020302020300A2020312020322020312020302020202020200A2020322020332020312020302020202020200A2020332020342020312020302020202020200A2020342020352020312020302020202020200A2020352020362020312020302020202020200A2020362020372020312020302020202020200A2020312020372020312020302020202020200A2020382020392020312020302020202020200A2020392031302020322020302020202020200A2031302031312020312020302020202020200A2031312031322020322020302020202020200A2031322031332020312020302020202020200A2020382031332020322020302020202020200A2020342020382020312020302020202020200A2020312031342020312020302020202020200A2031352031362020322020302020202020200A2031382031392020312020302020202020200A2031372031382020312020302020202020200A2031352031372020312020302020202020200A2020342031352020312020302020202020200A4D2020454E44
Contributor: SASAKI S, TOYOHASHI UNIV. OF TECH.
InstType: EI
InstName: Unknown
IoniMethod: _ENERGY 70 eV
IonPolarity: pos
Date: 2010-10-09 19:48:36+02:00
Num Peaks: 113
48 9 49 9 50 109 51 21 52 179 53 99 54 79 55 22 56 229 57 709 
58 319 59 6 61 39 62 29 63 64 64 5 65 59 66 39 67 99 68 8 
69 129 70 259 71 209 72 37 73 59 74 34 75 39 76 11 77 379 78 609 
79 424 80 12 81 79 82 99 83 119 84 15 85 79 86 19 87 9 90 3 
91 179 92 59 93 69 94 14 95 74 96 59 97 49 98 8 99 59 100 9 
101 9 102 4 103 59 104 79 105 369 106 23 107 999 108 569 109 79 110 14 
111 29 118 39 119 249 120 5 121 49 122 39 123 19 124 1 148 9 149 789 
150 79 151 2 152 9 183 59 184 29 185 10 186 79 187 19 188 149 189 3 
190 29 191 19 192 24 193 7 194 159 195 184 196 229 197 4 198 39 199 59 
200 29 208 2 209 29 210 139 211 29 212 3 213 19 219 119 220 39 221 1 
222 19 223 89 224 9 245 1 246 49 247 19 248 9 259 2 260 49 261 159 
262 39 263 1 264 4 
