Name: BETA-IONONE
MW: 192
Formula: C13H20O
Synonym: MassBank: JP002590
Synonym: BETA-IONONE
Synonym: 4-(2,6,6-TRIMETHYL-1-CYCLOHEXEN-1-YL)-3-BUTEN-2-ONE
Structure: 424554412D494F4E4F4E452E6D6F6C0A20204368656D447261773130313831303136343232440A2031342031342020302020302020302020302020302020302020302020303939392056323030300A20202020322E303632352020202D302E3034393020202020302E30303030204F202020302020302020302020302020302020302020302020302020302020302020302020300A20202020312E363530302020202D302E3736333520202020302E303030302043202020302020302020302020302020302020302020302020302020302020302020302020300A20202020322E303632352020202D312E3437373920202020302E303030302043202020302020302020302020302020302020302020302020302020302020302020302020300A20202020302E383235302020202D302E3736333520202020302E303030302043202020302020302020302020302020302020302020302020302020302020302020302020300A20202020302E343132352020202D302E3034393020202020302E303030302043202020302020302020302020302020302020302020302020302020302020302020302020300A2020202D302E343132352020202D302E3034393020202020302E303030302043202020302020302020302020302020302020302020302020302020302020302020302020300A2020202D302E383235302020202D302E3736333520202020302E303030302043202020302020302020302020302020302020302020302020302020302020302020302020300A2020202D302E343132352020202D312E3437373920202020302E303030302043202020302020302020302020302020302020302020302020302020302020302020302020300A2020202D312E363530302020202D302E3736333520202020302E303030302043202020302020302020302020302020302020302020302020302020302020302020302020300A2020202D322E303632352020202D302E3034393020202020302E303030302043202020302020302020302020302020302020302020302020302020302020302020302020300A2020202D312E3635303020202020302E3636353520202020302E303030302043202020302020302020302020302020302020302020302020302020302020302020302020300A2020202D302E3832353020202020302E3636353520202020302E303030302043202020302020302020302020302020302020302020302020302020302020302020302020300A2020202D302E3936383320202020312E3437373920202020302E303030302043202020302020302020302020302020302020302020302020302020302020302020302020300A2020202D302E3034393820202020302E3934373620202020302E303030302043202020302020302020302020302020302020302020302020302020302020302020302020300A2020312020322020322020302020202020200A2020322020332020312020302020202020200A2020322020342020312020302020202020200A2020342020352020322020302020202020200A2020352020362020312020302020202020200A2020362020372020322020302020202020200A2020372020382020312020302020202020200A2020372020392020312020302020202020200A2020392031302020312020302020202020200A2031302031312020312020302020202020200A2031312031322020312020302020202020200A2020362031322020312020302020202020200A2031322031332020312020302020202020200A2031322031342020312020302020202020200A4D2020454E44
Contributor: YAMAMOTO M, DEP. CHEMISTRY, FAC. SCIENCE, NARA WOMEN'S UNIV.
InstType: EI
InstName: HITACHI RMU-6M
IoniMethod: _ENERGY 70 eV
IonPolarity: pos
Date: 2010-10-09 19:48:36+02:00
Num Peaks: 65
15 26 27 70 28 92 29 53 39 102 40 17 41 186 42 10 43 629 44 16 
51 37 52 18 53 67 55 74 63 18 64 12 65 50 66 14 67 39 69 52 
71 28 77 92 78 26 79 83 80 14 81 52 91 117 92 23 93 107 94 19 
95 70 96 16 97 14 103 16 105 68 106 15 107 74 108 17 109 61 110 21 
115 19 116 11 117 24 119 58 120 11 121 73 122 71 123 51 131 22 133 76 
134 17 135 130 136 52 147 13 149 83 150 14 159 46 161 12 162 21 163 15 
177 999 178 143 179 14 192 129 193 22 
