Name: ROTIORIN
MW: 380
Formula: C23H24O5
Synonym: MassBank: JP003239
Synonym: ROTIORIN
Structure: 303630335F524F54494F52494E2E6D6F6C0A20204368656D447261773038323031303036343132440A2032392033312020302020302020302020302020302020302020302020303939392056323030300A20202020302E3033343220202020302E3230363220202020302E303030302043202020302020302020302020302020302020302020302020302020302020302020302020300A20202020302E303334322020202D302E3631383820202020302E30303030204F202020302020302020302020302020302020302020302020302020302020302020302020300A20202020302E373438372020202D312E3033313320202020302E303030302043202020302020302020302020302020302020302020302020302020302020302020302020300A20202020312E343633322020202D302E3631383820202020302E303030302043202020302020302020302020302020302020302020302020302020302020302020302020300A20202020312E3436333220202020302E3230363220202020302E303030302043202020302020302020302020302020302020302020302020302020302020302020302020300A20202020302E3734383720202020302E3631383720202020302E303030302043202020302020302020302020302020302020302020302020302020302020302020302020300A20202020322E313737362020202D312E3033313320202020302E303030302043202020302020302020302020302020302020302020302020302020302020302020302020300A20202020322E383932312020202D302E3631383820202020302E303030302043202020302020302020302020302020302020302020302020302020302020302020302020300A20202020322E3839323120202020302E3230363220202020302E303030302043202020302020302020302020302020302020302020302020302020302020302020302020300A20202020322E3137373620202020302E3631383720202020302E303030302043202020302020302020302020302020302020302020302020302020302020302020302020300A20202020332E3630363620202020302E3631383720202020302E303030302043202020302020302020302020302020302020302020302020302020302020302020302020300A20202020342E3332313020202020302E3230363220202020302E303030302043202020302020302020302020302020302020302020302020302020302020302020302020300A20202020342E333231312020202D302E3631383820202020302E30303030204F202020302020302020302020302020302020302020302020302020302020302020302020300A20202020352E3033363520202020302E3631373420202020302E30303030204F202020302020302020302020302020302020302020302020302020302020302020302020300A20202020322E3839323120202020312E3835363220202020302E30303030204F202020302020302020302020302020302020302020302020302020302020302020302020300A20202020332E3630363620202020312E3434333720202020302E303030302043202020302020302020302020302020302020302020302020302020302020302020302020300A20202020342E3332313020202020312E3835363320202020302E303030302043202020302020302020302020302020302020302020302020302020302020302020302020300A20202020322E313737362020202D312E3835363320202020302E30303030204F202020302020302020302020302020302020302020302020302020302020302020302020300A20202020332E313035362020202D312E3431353620202020302E303030302043202020302020302020302020302020302020302020302020302020302020302020302020300A2020202D302E3739303820202020302E3230363220202020302E303030302043202020302020302020302020302020302020302020302020302020302020302020302020300A2020202D312E333734322020202D302E3337373120202020302E303030302043202020302020302020302020302020302020302020302020302020302020302020302020300A2020202D322E313939322020202D302E3337373120202020302E303030302043202020302020302020302020302020302020302020302020302020302020302020302020300A2020202D322E373832352020202D302E3936303520202020302E303030302043202020302020302020302020302020302020302020302020302020302020302020302020300A2020202D332E363037352020202D302E3936303520202020302E303030302043202020302020302020302020302020302020302020302020302020302020302020302020300A2020202D332E383231302020202D302E3136333620202020302E303030302048202020302020302020302020302020302020302020302020302020302020302020302020300A2020202D342E333232302020202D312E3337333020202020302E303030302043202020302020302020302020302020302020302020302020302020302020302020302020300A2020202D332E313935302020202D312E3637343920202020302E303030302043202020302020302020302020302020302020302020302020302020302020302020302020300A2020202D352E303336352020202D302E3936303520202020302E303030302043202020302020302020302020302020302020302020302020302020302020302020302020300A2020202D322E3139393220202020302E3434373920202020302E303030302043202020302020302020302020302020302020302020302020302020302020302020302020300A2020312020322020312020302020202020200A2020322020332020312020302020202020200A2020332020342020322020302020202020200A2020342020352020312020302020202020200A2020352020362020312020302020202020200A2020362020312020322020302020202020200A2020342020372020312020302020202020200A2020372020382020312020302020202020200A2020382020392020312020302020202020200A2020392031302020312020302020202020200A2031302020352020322020302020202020200A2020392031312020312020302020202020200A2031312031322020312020302020202020200A2031322031332020312020302020202020200A2020382031332020312020302020202020200A2031322031342020322020302020202020200A2031312031362020312020302020202020200A2031352031362020322020302020202020200A2031362031372020312020302020202020200A2020372031382020322020302020202020200A2020382031392020312020312020202020200A2020312032302020312020302020202020200A2032302032312020322020302020202020200A2032312032322020312020302020202020200A2032322032332020322020302020202020200A2032332032342020312020302020202020200A2032342032352020312020312020202020200A2032342032362020312020302020202020200A2032342032372020312020312020202020200A2032362032382020312020302020202020200A2032322032392020312020302020202020200A4D2020454E44
Contributor: MASS SPECTROSCOPY SOC. OF JAPAN (MSSJ)
InstType: EI
InstName: HITACHI RMU-7
IoniMethod: _ENERGY 70 eV
IonPolarity: pos
Date: 2010-10-09 19:48:36+02:00
Num Peaks: 12
381 270 380 999 339 200 338 920 337 710 309 70 297 100 295 110 282 200 281 130 
165 120 152 80 
