Name: 5-CYCLOHEXADECENONE
MW: 236
Formula: C16H28O
Synonym: MassBank: JP008623
Synonym: 5-CYCLOHEXADECENONE
Structure: 352D4359434C4F48455841444543454E4F4E452E6D6F6C0A20204368656D447261773034323331303035303532440A2031372031372020302020302020302020302020302020302020302020303939392056323030300A2020202D302E3731343520202020302E3031303320202020302E303030302043202020302020302020302020302020302020302020302020302020302020302020302020300A2020202D302E373134352020202D302E3831343720202020302E303030302043202020302020302020302020302020302020302020302020302020302020302020302020300A20202020302E303030302020202D312E3232373220202020302E303030302043202020302020302020302020302020302020302020302020302020302020302020302020300A20202020302E373134352020202D302E3831343720202020302E303030302043202020302020302020302020302020302020302020302020302020302020302020302020300A20202020302E3731343520202020302E3031303320202020302E303030302043202020302020302020302020302020302020302020302020302020302020302020302020300A20202020302E3030303020202020302E3432323820202020302E303030302043202020302020302020302020302020302020302020302020302020302020302020302020300A2020202D312E3335393520202020302E3532343720202020302E303030302043202020302020302020302020302020302020302020302020302020302020302020302020300A2020202D322E3136333820202020302E3334313120202020302E303030302043202020302020302020302020302020302020302020302020302020302020302020302020300A2020202D322E353231382020202D302E3430323220202020302E303030302043202020302020302020302020302020302020302020302020302020302020302020302020300A2020202D322E313633382020202D312E3134353520202020302E303030302043202020302020302020302020302020302020302020302020302020302020302020302020300A2020202D312E333539352020202D312E3332393020202020302E303030302043202020302020302020302020302020302020302020302020302020302020302020302020300A20202020312E333539352020202D312E3332393020202020302E303030302043202020302020302020302020302020302020302020302020302020302020302020302020300A20202020322E313633382020202D312E3134353520202020302E303030302043202020302020302020302020302020302020302020302020302020302020302020302020300A20202020322E353231382020202D302E3430323220202020302E303030302043202020302020302020302020302020302020302020302020302020302020302020302020300A20202020322E3136333820202020302E3334313120202020302E303030302043202020302020302020302020302020302020302020302020302020302020302020302020300A20202020312E3335393520202020302E3532343720202020302E303030302043202020302020302020302020302020302020302020302020302020302020302020302020300A2020202D312E3137353920202020312E3332393020202020302E30303030204F202020302020302020302020302020302020302020302020302020302020302020302020300A2020322020332020312020302020202020200A2020332020342020312020302020202020200A2020352020362020312020302020202020200A2020362020312020312020302020202020200A2020312020372020312020302020202020200A2020372020382020312020302020202020200A2020382020392020312020302020202020200A2020392031302020312020302020202020200A2031302031312020312020302020202020200A2031312020322020312020302020202020200A2020342031322020312020302020202020200A2031322031332020312020302020202020200A2031332031342020312020302020202020200A2031342031352020312020302020202020200A2031352031362020322020302020202020200A2031362020352020312020302020202020200A2020372031372020322020302020202020200A4D2020454E44
Contributor: SODA AROMATIC CO., LTD.
InstType: EI
InstName: HITACHI M-80B
IoniMethod: _ENERGY 70 eV
IonPolarity: pos
Date: 2010-10-09 19:48:36+02:00
Num Peaks: 90
15 11 27 171 29 249 31 11 39 220 41 999 42 162 43 352 51 19 52 18 
53 162 54 383 55 803 56 91 57 78 58 151 59 38 65 45 66 48 67 587 
68 443 69 233 70 72 71 262 72 22 77 47 78 24 79 166 80 172 81 452 
82 312 83 180 84 204 85 51 91 41 92 26 93 95 94 123 95 318 96 179 
97 226 98 142 99 28 105 21 106 14 107 65 108 88 109 132 110 86 111 106 
112 45 113 14 119 24 120 17 121 79 122 70 123 84 124 55 125 53 126 19 
133 28 134 20 135 69 136 42 137 53 138 25 139 26 140 14 147 26 148 15 
149 35 150 19 151 31 152 28 153 13 154 15 161 21 163 14 164 12 165 30 
175 19 176 12 178 24 179 17 189 14 193 24 194 11 207 22 236 306 237 50 
