Name: MassBank: JP000507
MW: 130
Formula: C7H18N2
Synonym: MassBank: JP000507
Synonym: 1,1-DIMETHYL-2-PENTYLHYDRAZINE
Structure: 310A32320A312C312D44494D455448594C2D322D50454E54594C48594452415A494E452E6D6F6C0A20204368656D447261773130323330393130333732440A2020392020382020302020302020302020302020302020302020302020303939392056323030300A2020202D312E3434333820202020302E3030303020202020302E30303030204E202020302020302020302020302020302020302020302020302020302020302020302020300A2020202D312E3033313220202020302E3731343520202020302E30303030204E202020302020302020302020302020302020302020302020302020302020302020302020300A2020202D302E3230363320202020302E3731343520202020302E303030302043202020302020302020302020302020302020302020302020302020302020302020302020300A20202020302E323036332020202D302E3030303020202020302E303030302043202020302020302020302020302020302020302020302020302020302020302020302020300A20202020312E303331322020202D302E3030303020202020302E303030302043202020302020302020302020302020302020302020302020302020302020302020302020300A20202020312E343433382020202D302E3731343520202020302E303030302043202020302020302020302020302020302020302020302020302020302020302020302020300A20202020322E323638382020202D302E3731343520202020302E303030302043202020302020302020302020302020302020302020302020302020302020302020302020300A2020202D312E303331322020202D302E3731343520202020302E303030302043202020302020302020302020302020302020302020302020302020302020302020302020300A2020202D322E3236383820202020302E3030303020202020302E303030302043202020302020302020302020302020302020302020302020302020302020302020302020300A2020312020322020312020302020202020200A2020332020342020312020302020202020200A2020342020352020312020302020202020200A2020352020362020312020302020202020200A2020362020372020312020302020202020200A2020322020332020312020302020202020200A2020312020382020312020302020202020200A2020312020392020312020302020202020200A4D2020454E44
Contributor: SASAKI S, TOYOHASHI UNIV. OF TECH.
InstType: EI
InstName: SHIMADZU LKB-2091
IoniMethod: _ENERGY 70 eV
IonPolarity: pos
Date: 2010-10-09 19:48:36+02:00
Num Peaks: 32
27 37 28 34 29 41 30 8 31 52 32 20 39 17 40 0 41 71 42 75 
43 90 44 9 45 76 46 44 55 8 56 1 57 16 58 10 59 999 60 5 
69 5 70 5 71 14 72 1 73 387 74 18 84 5 86 1 115 22 129 5 
130 293 131 35 
