Name: MassBank: JP003840
MW: 217
Formula: C13H15NO2
Synonym: MassBank: JP003840
Synonym: 3-ETHYL-3-PHENYL-2,6-PIPERIDINEDIONE
Synonym: GLUTETHIMIDE
Structure: 332D455448594C2D332D5048454E594C2D322C362D50495045524944494E4544494F4E452E6D6F6C0A20204368656D447261773032323231303137353232440A2031362031372020302020302020302020302020302020302020302020303939392056323030300A20202020312E3537353920202020302E3030303020202020302E30303030204E202020302020302020302020302020302020302020302020302020302020302020302020300A20202020302E3836313520202020302E3431323520202020302E303030302043202020302020302020302020302020302020302020302020302020302020302020302020300A20202020302E3134373020202020302E3030303020202020302E303030302043202020302020302020302020302020302020302020302020302020302020302020302020300A20202020302E313437302020202D302E3832353020202020302E303030302043202020302020302020302020302020302020302020302020302020302020302020302020300A20202020302E383631352020202D312E3233373520202020302E303030302043202020302020302020302020302020302020302020302020302020302020302020302020300A20202020312E353735392020202D302E3832353020202020302E303030302043202020302020302020302020302020302020302020302020302020302020302020302020300A20202020302E3836313520202020312E3233373520202020302E30303030204F202020302020302020302020302020302020302020302020302020302020302020302020300A20202020322E323930342020202D312E3233373520202020302E30303030204F202020302020302020302020302020302020302020302020302020302020302020302020300A2020202D302E363635352020202D302E3134333320202020302E303030302043202020302020302020302020302020302020302020302020302020302020302020302020300A2020202D312E3139353820202020302E3438383720202020302E303030302043202020302020302020302020302020302020302020302020302020302020302020302020300A2020202D322E3030383220202020302E3334353520202020302E303030302043202020302020302020302020302020302020302020302020302020302020302020302020300A2020202D322E323930342020202D302E3432393820202020302E303030302043202020302020302020302020302020302020302020302020302020302020302020302020300A2020202D312E373630312020202D312E3036313820202020302E303030302043202020302020302020302020302020302020302020302020302020302020302020302020300A2020202D302E393437362020202D302E3931383520202020302E303030302043202020302020302020302020302020302020302020302020302020302020302020302020300A2020202D302E3133353220202020302E3737353220202020302E303030302043202020302020302020302020302020302020302020302020302020302020302020302020300A2020202D302E3934373620202020302E3931383520202020302E303030302043202020302020302020302020302020302020302020302020302020302020302020302020300A2020312020322020312020302020202020200A2020322020332020312020302020202020200A2020332020342020312020302020202020200A2020342020352020312020302020202020200A2020352020362020312020302020202020200A2020312020362020312020302020202020200A2020322020372020322020302020202020200A2020362020382020322020302020202020200A2020392031302020312020302020202020200A2031302031312020322020302020202020200A2031312031322020312020302020202020200A2031322031332020322020302020202020200A2031332031342020312020302020202020200A2020392031342020322020302020202020200A2020332020392020312020302020202020200A2031352031362020312020302020202020200A2020332031352020312020302020202020200A4D2020454E44
Contributor: SASAKI S, TOYOHASHI UNIV. OF TECH.
InstType: EI
InstName: Unknown
IoniMethod: _ENERGY 70 eV
IonPolarity: pos
Date: 2010-10-09 19:48:36+02:00
Num Peaks: 96
38 24 39 281 40 36 41 13 42 79 43 24 44 64 45 1 50 84 51 258 
52 74 53 8 54 74 55 89 56 19 57 2 58 29 59 51 62 40 63 14 
64 49 65 149 66 24 67 3 68 14 69 14 70 24 71 1 72 9 73 14 
74 34 75 5 76 60 77 304 78 151 79 4 80 14 82 44 86 11 87 3 
88 19 89 139 90 37 91 48 92 49 101 19 102 99 103 27 104 97 105 69 
106 19 112 1 113 19 114 27 115 514 116 17 117 999 118 149 119 24 120 1 
126 12 127 37 128 80 129 10 130 59 131 119 132 555 133 7 134 9 140 9 
141 14 142 1 143 19 144 29 145 44 146 7 147 39 148 9 157 49 158 1 
159 29 160 449 161 109 162 2 172 29 173 11 174 24 175 1 188 39 189 890 
190 119 191 2 202 44 203 9 217 92 218 19 
