Name: ISOPROPYLISOBUTYLHYDRAZONE ISOBUTYRALDEHYDE
MW: 184
Formula: C11H24N2
Synonym: MassBank: JP000842
Synonym: ISOPROPYLISOBUTYLHYDRAZONE ISOBUTYRALDEHYDE
Synonym: ISOBUTYRALDEHYDE ISOBUTYLISOPROPYLHYDRAZONE
Structure: 303137345F49534F50524F50594C49534F425554594C48594452415A4F4E452049534F4255545952414C4445485944452E6D6F6C0A20204368656D447261773039303331303138333432440A2031332031322020302020302020302020302020302020302020302020303939392056323030300A20202020312E3432393020202020302E3832353020202020302E303030302043202020302020302020302020302020302020302020302020302020302020302020302020300A20202020302E3731343520202020302E3431323520202020302E303030302043202020302020302020302020302020302020302020302020302020302020302020302020300A20202020322E3134333520202020302E3431323520202020302E303030302043202020302020302020302020302020302020302020302020302020302020302020302020300A2020202D302E3030303020202020302E3832353020202020302E30303030204E202020302020302020302020302020302020302020302020302020302020302020302020300A2020202D302E3731343420202020302E3431323520202020302E30303030204E202020302020302020302020302020302020302020302020302020302020302020302020300A2020202D312E3432393020202020302E3832353020202020302E303030302043202020302020302020302020302020302020302020302020302020302020302020302020300A2020202D322E3134333520202020302E3431323520202020302E303030302043202020302020302020302020302020302020302020302020302020302020302020302020300A2020202D322E313433352020202D302E3431323620202020302E303030302043202020302020302020302020302020302020302020302020302020302020302020302020300A2020202D322E3835373920202020302E3832353020202020302E303030302043202020302020302020302020302020302020302020302020302020302020302020302020300A2020202D302E373134342020202D302E3431323620202020302E303030302043202020302020302020302020302020302020302020302020302020302020302020302020300A2020202D302E303030302020202D302E3832353120202020302E303030302043202020302020302020302020302020302020302020302020302020302020302020302020300A2020202D312E343239302020202D302E3832353120202020302E303030302043202020302020302020302020302020302020302020302020302020302020302020302020300A20202020322E3835373920202020302E3832353120202020302E303030302043202020302020302020302020302020302020302020302020302020302020302020302020300A2020312020322020312020302020202020200A2020312020332020312020302020202020200A2020342020352020312020302020202020200A2020362020372020312020302020202020200A2020372020382020312020302020202020200A2020372020392020312020302020202020200A2020352020362020312020302020202020200A2031302031312020312020302020202020200A2031302031322020312020302020202020200A2020352031302020312020302020202020200A2020322020342020322020302020202020200A2020332031332020312020302020202020200A4D2020454E44
Contributor: SASAKI S, TOYOHASHI UNIV. OF TECH.
InstType: EI
InstName: SHIMADZU LKB-2091
IoniMethod: _ENERGY 70 eV
IonPolarity: pos
Date: 2010-10-09 19:48:36+02:00
Num Peaks: 40
28 54 29 94 30 152 31 0 39 42 41 174 42 53 43 23 44 49 53 6 
54 9 55 5 56 75 57 82 58 38 68 1 69 12 70 130 71 17 82 1 
83 9 84 6 85 6 98 1 99 706 100 53 111 3 112 0 113 78 114 8 
125 8 127 1 141 999 142 79 143 5 169 11 170 12 183 6 184 185 185 33 
