Name: 2-(2-OXOPROPYL)CYCLODODECANONE
MW: 238
Formula: C15H26O2
Synonym: MassBank: JP002284
Synonym: 2-(2-OXOPROPYL)CYCLODODECANONE
Structure: 322D28322D4F584F50524F50594C294359434C4F444F444543414E4F4E452E6D6F6C0A20204368656D447261773132323130393134303532440A2031372031372020302020302020302020302020302020302020302020303939392056323030300A2020202D312E333533312020202D302E3533333320202020302E303030302043202020302020302020302020302020302020302020302020302020302020302020302020300A2020202D312E333533312020202D312E3335383320202020302E303030302043202020302020302020302020302020302020302020302020302020302020302020302020300A2020202D302E363338362020202D312E3737303820202020302E303030302043202020302020302020302020302020302020302020302020302020302020302020302020300A20202020302E303735382020202D312E3335383320202020302E303030302043202020302020302020302020302020302020302020302020302020302020302020302020300A20202020302E303735382020202D302E3533333320202020302E303030302043202020302020302020302020302020302020302020302020302020302020302020302020300A2020202D302E363338362020202D302E3132303820202020302E303030302043202020302020302020302020302020302020302020302020302020302020302020302020300A20202020302E363539322020202D312E3934313720202020302E303030302043202020302020302020302020302020302020302020302020302020302020302020302020300A20202020312E343834322020202D312E3934313720202020302E303030302043202020302020302020302020302020302020302020302020302020302020302020302020300A20202020322E303637362020202D312E3335383320202020302E303030302043202020302020302020302020302020302020302020302020302020302020302020302020300A20202020322E303637362020202D302E3533333320202020302E303030302043202020302020302020302020302020302020302020302020302020302020302020302020300A20202020312E3438343220202020302E3035303020202020302E303030302043202020302020302020302020302020302020302020302020302020302020302020302020300A20202020302E3635393220202020302E3035303020202020302E303030302043202020302020302020302020302020302020302020302020302020302020302020302020300A20202020302E3037353820202020302E3239313720202020302E30303030204F202020302020302020302020302020302020302020302020302020302020302020302020300A2020202D302E3633383620202020302E3730343220202020302E303030302043202020302020302020302020302020302020302020302020302020302020302020302020300A2020202D312E3335333120202020312E3131363720202020302E303030302043202020302020302020302020302020302020302020302020302020302020302020302020300A2020202D312E3335333120202020312E3934313720202020302E303030302043202020302020302020302020302020302020302020302020302020302020302020302020300A2020202D322E3036373620202020302E3730343220202020302E30303030204F202020302020302020302020302020302020302020302020302020302020302020302020300A2020312020322020312020302020202020200A2020322020332020312020302020202020200A2020332020342020312020302020202020200A2020352020362020312020302020202020200A2020362020312020312020302020202020200A2020342020372020312020302020202020200A2020372020382020312020302020202020200A2020382020392020312020302020202020200A2020392031302020312020302020202020200A2031302031312020312020302020202020200A2031312031322020312020302020202020200A2031322020352020312020302020202020200A2020352031332020322020302020202020200A2020362031342020312020302020202020200A2031342031352020312020302020202020200A2031352031362020312020302020202020200A2031352031372020322020302020202020200A4D2020454E44
Contributor: MASS SPECTROSCOPY SOC. OF JAPAN (MSSJ)
InstType: EI
InstName: JEOL JMS-D-3000
IoniMethod: _ENERGY 70 eV
IonPolarity: pos
Date: 2010-10-09 19:48:36+02:00
Num Peaks: 22
42 298 43 999 55 394 67 157 69 223 71 241 81 223 82 169 83 155 95 248 
96 308 97 174 98 336 108 134 109 299 111 142 114 324 121 176 181 144 195 374 
220 287 238 363 
