Name: FENCHYL ALCOHOL (2-D1)
MW: 154
Formula: C10H18O
Synonym: MassBank: JP007592
Synonym: FENCHYL ALCOHOL (2-D1)
Synonym: 1,3,3-TRIMETHYLBICYCLO(2.2.1)HEPTAN-2-OL (2-D1)
Structure: 46454E4348594C20414C434F484F4C2028322D4431292E6D6F6C0A20204368656D447261773131313130393137313632440A2031322031332020302020302020302020302020302020302020302020303939392056323030300A2020202D302E373639372020202D302E3431323520202020302E303030302043202020302020302020302020302020302020302020302020302020302020302020302020300A2020202D302E373639372020202D312E3233373520202020302E303030302043202020302020302020302020302020302020302020302020302020302020302020302020300A2020202D302E303535332020202D312E3635303020202020302E303030302043202020302020302020302020302020302020302020302020302020302020302020302020300A20202020302E363539322020202D312E3233373520202020302E303030302043202020302020302020302020302020302020302020302020302020302020302020302020300A20202020302E363539322020202D302E3431323520202020302E303030302043202020302020302020302020302020302020302020302020302020302020302020302020300A2020202D302E3035353320202020302E3030303020202020302E303030302043202020302020302020302020302020302020302020302020302020302020302020302020300A20202020302E303237322020202D302E3632363020202020302E303030302043202020302020302020302020302020302020302020302020302020302020302020302020300A2020202D302E3035353320202020302E3832353020202020302E30303030204F202020302020302020302020302020302020302020302020302020302020302020302020300A2020202D302E3035353320202020312E3635303020202020302E303030302048202020312020302020302020302020302020302020302020302020302020302020302020300A2020202D312E3438343220202020302E3030303020202020302E303030302043202020302020302020302020302020302020302020302020302020302020302020302020300A20202020312E343834322020202D302E3431323520202020302E303030302043202020302020302020302020302020302020302020302020302020302020302020302020300A20202020302E3837323720202020302E3338343420202020302E303030302043202020302020302020302020302020302020302020302020302020302020302020302020300A2020312020322020312020302020202020200A2020322020332020312020302020202020200A2020332020342020312020302020202020200A2020342020352020312020302020202020200A2020352020362020312020302020202020200A2020362020312020312020302020202020200A2020312020372020312020302020202020200A2020372020342020312020302020202020200A2020362020382020312020302020202020200A2020382020392020312020302020202020200A2020312031302020312020302020202020200A2020352031312020312020312020202020200A2020352031322020312020362020202020200A4D202049534F20203120202039202020320A4D2020454E44
Contributor: TAKEUCHI T, DEP. CHEMISTRY, FAC. SCIENCE, NARA WOMEN'S UNIV.
InstType: EI
InstName: HITACHI RMU-6M
IoniMethod: _ENERGY 15 eV
IonPolarity: pos
Date: 2010-10-09 19:48:36+02:00
Num Peaks: 42
43 58 55 20 56 15 57 11 58 11 59 10 67 28 69 72 70 20 71 18 
72 135 73 147 74 21 80 999 81 840 82 188 83 98 84 149 85 68 86 23 
93 47 94 101 95 39 96 41 97 32 98 25 99 25 100 13 107 84 108 25 
109 19 110 17 111 21 112 136 113 19 122 87 123 62 124 10 125 27 137 62 
140 45 155 62 
