Name: MassBank: JP002360
MW: 174
Formula: C8H22Si2
Synonym: MassBank: JP002360
Synonym: 1,2-BIS(TRIMETHYLSILYL)ETHANE
Structure: 312C322D424953285452494D455448594C53494C594C29455448414E452E6D6F6C0A20204368656D447261773131303330393232323332440A2031302020392020302020302020302020302020302020302020302020303939392056323030300A20202020302E333537322020202D302E3230363320202020302E303030302043202020302020302020302020302020302020302020302020302020302020302020302020300A2020202D302E3335373220202020302E3230363320202020302E303030302043202020302020302020302020302020302020302020302020302020302020302020302020300A2020202D312E303731372020202D302E3230363320202020302E303030302053692020302020302020302020302020302020302020302020302020302020302020302020300A2020202D312E3438343220202020302E3530383220202020302E303030302043202020302020302020302020302020302020302020302020302020302020302020302020300A2020202D302E363539322020202D302E3932303720202020302E303030302043202020302020302020302020302020302020302020302020302020302020302020302020300A2020202D312E373836322020202D302E3631383820202020302E303030302043202020302020302020302020302020302020302020302020302020302020302020302020300A20202020312E3037313720202020302E3230363320202020302E303030302053692020302020302020302020302020302020302020302020302020302020302020302020300A20202020302E3635393220202020302E3932303720202020302E303030302043202020302020302020302020302020302020302020302020302020302020302020302020300A20202020312E3738363220202020302E3631383820202020302E303030302043202020302020302020302020302020302020302020302020302020302020302020302020300A20202020312E343834322020202D302E3530383220202020302E303030302043202020302020302020302020302020302020302020302020302020302020302020302020300A2020312020322020312020302020202020200A2020332020342020312020312020202020200A2020332020352020312020312020202020200A2020332020362020312020302020202020200A2020322020332020312020302020202020200A2020372020382020312020312020202020200A2020372020392020312020302020202020200A2020372031302020312020312020202020200A2020312020372020312020302020202020200A4D2020454E44
Contributor: MASS SPECTROSCOPY SOC. OF JAPAN (MSSJ)
InstType: EI
InstName: JEOL JMS-D-3000
IoniMethod: _ENERGY 70 eV
IonPolarity: pos
Date: 2010-10-09 19:48:36+02:00
Num Peaks: 21
43 28 44 19 45 98 58 80 59 63 72 18 73 999 74 94 75 34 85 146 
86 243 87 32 99 26 131 76 132 14 157 35 159 121 160 24 172 17 174 77 
175 16 
