Name: MassBank: JP000721
MW: 388
Formula: C21H24O7
Synonym: MassBank: JP000721
Synonym: 4-ACETHOXY-3,3',4',7-TETRAMETHOXYFLAVAN
Synonym: 3,7-DIMETHOXY-2-(3,4-DIMETHOXYPHENYL)CHROMAN-4-YL ACETATE
Structure: 342D41434554484F58592D332C33272C34272C372D54455452414D4554484F5859464C4156414E2E6D6F6C0A20204368656D447261773032323231303033333732440A2032382033302020302020302020302020302020302020302020302020303939392056323030300A2020202D322E343735302020202D312E3432383920202020302E303030302043202020302020302020302020302020302020302020302020302020302020302020302020300A2020202D322E383837352020202D302E3731343520202020302E303030302043202020302020302020302020302020302020302020302020302020302020302020302020300A2020202D322E383837352020202D322E3134333420202020302E30303030204F202020302020302020302020302020302020302020302020302020302020302020302020300A2020202D312E363530302020202D312E3432383920202020302E30303030204F202020302020302020302020302020302020302020302020302020302020302020302020300A20202020302E3030303020202020302E3030303020202020302E303030302043202020302020302020302020302020302020302020302020302020302020302020302020300A2020202D302E343132352020202D302E3731343520202020302E303030302043202020302020302020302020302020302020302020302020302020302020302020302020300A2020202D312E323337352020202D302E3731343520202020302E303030302043202020302020302020302020302020302020302020302020302020302020302020302020300A2020202D312E3635303020202020302E3030303020202020302E303030302043202020302020302020302020302020302020302020302020302020302020302020302020300A2020202D322E3437353020202020302E3030303020202020302E303030302043202020302020302020302020302020302020302020302020302020302020302020302020300A2020202D322E3838373520202020302E3731343520202020302E303030302043202020302020302020302020302020302020302020302020302020302020302020302020300A2020202D322E3437353020202020312E3432383920202020302E303030302043202020302020302020302020302020302020302020302020302020302020302020302020300A2020202D312E3635303020202020312E3432383920202020302E303030302043202020302020302020302020302020302020302020302020302020302020302020302020300A2020202D312E3233373520202020302E3731343520202020302E303030302043202020302020302020302020302020302020302020302020302020302020302020302020300A2020202D302E3431323520202020302E3731343520202020302E30303030204F202020302020302020302020302020302020302020302020302020302020302020302020300A20202020302E3832353020202020302E3030303020202020302E303030302043202020302020302020302020302020302020302020302020302020302020302020302020300A20202020312E3233373520202020302E3731343520202020302E303030302043202020302020302020302020302020302020302020302020302020302020302020302020300A20202020322E3036323520202020302E3731343520202020302E303030302043202020302020302020302020302020302020302020302020302020302020302020302020300A20202020322E3437353020202020302E3030303020202020302E303030302043202020302020302020302020302020302020302020302020302020302020302020302020300A20202020322E303632352020202D302E3731343520202020302E303030302043202020302020302020302020302020302020302020302020302020302020302020302020300A20202020312E323337352020202D302E3731343520202020302E303030302043202020302020302020302020302020302020302020302020302020302020302020302020300A20202020332E3330303020202020302E3030303020202020302E30303030204F202020302020302020302020302020302020302020302020302020302020302020302020300A20202020332E373132352020202D302E3731343520202020302E303030302043202020302020302020302020302020302020302020302020302020302020302020302020300A20202020322E3437353020202020312E3432383920202020302E30303030204F202020302020302020302020302020302020302020302020302020302020302020302020300A20202020332E3330303020202020312E3432383920202020302E303030302043202020302020302020302020302020302020302020302020302020302020302020302020300A2020202D322E3838373520202020322E3134333420202020302E30303030204F202020302020302020302020302020302020302020302020302020302020302020302020300A2020202D332E3731323520202020322E3134333420202020302E303030302043202020302020302020302020302020302020302020302020302020302020302020302020300A20202020302E303030302020202D312E3432383920202020302E30303030204F202020302020302020302020302020302020302020302020302020302020302020302020300A2020202D302E343132352020202D322E3134333420202020302E303030302043202020302020302020302020302020302020302020302020302020302020302020302020300A2020312020322020312020302020202020200A2020312020332020322020302020202020200A2020312020342020312020302020202020200A2020352020362020312020302020202020200A2020362020372020312020302020202020200A2020372020382020312020302020202020200A2020382020392020312020302020202020200A2020392031302020322020302020202020200A2031302031312020312020302020202020200A2031312031322020322020302020202020200A2031322031332020312020302020202020200A2020382031332020322020302020202020200A2031332031342020312020302020202020200A2020352031342020312020302020202020200A2031352031362020312020302020202020200A2031362031372020322020302020202020200A2031372031382020312020302020202020200A2031382031392020322020302020202020200A2031392032302020312020302020202020200A2031352032302020322020302020202020200A2032312032322020312020302020202020200A2031382032312020312020302020202020200A2032332032342020312020302020202020200A2031372032332020312020302020202020200A2020352031352020312020302020202020200A2032352032362020312020302020202020200A2031312032352020312020302020202020200A2032372032382020312020302020202020200A2020362032372020312020302020202020200A2020342020372020312020302020202020200A4D2020454E44
Contributor: TAKATORI M, DEPT. OF CHEMISTRY, FAC. OF EDUC., FUKUSHIMA UNIV.
InstType: EI
InstName: JEOL JMS-06-H
IoniMethod: _ENERGY 75 eV
IonPolarity: pos
Date: 2010-10-09 19:48:36+02:00
Num Peaks: 63
32 23 39 20 41 14 43 23 45 47 51 27 53 10 63 2 64 10 65 38 
69 27 76 1 77 57 78 25 79 25 89 2 90 13 91 63 92 19 93 1 
95 17 105 28 106 20 107 3 108 22 118 13 119 27 120 1 121 34 133 31 
135 24 136 2 137 20 139 10 148 34 149 4 151 221 152 63 153 11 163 4 
164 12 165 29 167 43 178 1 179 260 180 61 181 49 191 4 194 999 195 162 
196 20 209 1 257 21 284 10 285 31 286 1 297 353 298 71 299 11 313 2 
328 44 388 68 389 12 
