Name: N-ETHYL-O-TOLUENESULFONAMIDE
MW: 199
Formula: C9H13NO2S
Synonym: MassBank: JP003294
Synonym: N-ETHYL-O-TOLUENESULFONAMIDE
Structure: 4E2D455448594C2D4F2D544F4C55454E4553554C464F4E414D4944452E6D6F6C0A20204368656D447261773038313231303032303332440A2031332031332020302020302020302020302020302020302020302020303939392056323030300A20202020302E3731343520202020302E3030303020202020302E303030302043202020302020302020302020302020302020302020302020302020302020302020302020300A20202020312E3432383920202020302E3431323520202020302E303030302043202020302020302020302020302020302020302020302020302020302020302020302020300A20202020322E313433342020202D302E3832353020202020302E303030302043202020302020302020302020302020302020302020302020302020302020302020302020300A20202020302E373134352020202D302E3832353020202020302E303030302043202020302020302020302020302020302020302020302020302020302020302020302020300A20202020322E3134333420202020302E3030303020202020302E303030302043202020302020302020302020302020302020302020302020302020302020302020302020300A20202020312E343238392020202D312E3233373520202020302E303030302043202020302020302020302020302020302020302020302020302020302020302020302020300A20202020312E3432383920202020312E3233373520202020302E303030302043202020302020302020302020302020302020302020302020302020302020302020302020300A2020202D302E3030303020202020302E3431323520202020302E303030302053202020302020302020302020302020302020302020302020302020302020302020302020300A20202020302E3431323520202020312E3132373020202020302E30303030204F202020302020302020302020302020302020302020302020302020302020302020302020300A2020202D302E343132352020202D302E3330323020202020302E30303030204F202020302020302020302020302020302020302020302020302020302020302020302020300A2020202D302E3731343520202020302E3832353020202020302E30303030204E202020302020302020302020302020302020302020302020302020302020302020302020300A2020202D312E3432383920202020302E3431323520202020302E303030302043202020302020302020302020302020302020302020302020302020302020302020302020300A2020202D322E3134333420202020302E3832353020202020302E303030302043202020302020302020302020302020302020302020302020302020302020302020302020300A2020312020322020312020302020202020200A2020312020342020322020302020202020200A2020322020352020322020302020202020200A2020332020352020312020302020202020200A2020332020362020322020302020202020200A2020342020362020312020302020202020200A2020322020372020312020302020202020200A2020382020392020322020302020202020200A2020382031302020322020302020202020200A2020382031312020312020302020202020200A2020312020382020312020302020202020200A2031322031332020312020302020202020200A2031312031322020312020302020202020200A4D2020454E44
Contributor: KOGA M, UNIV. OF OCCUPATIONAL AND ENVIRONMENTAL HEALTH
InstType: EI
InstName: JEOL JMS-01-SG-2
IoniMethod: _ENERGY 75 eV
IonPolarity: pos
Date: 2010-10-09 19:48:36+02:00
Num Peaks: 40
44 488 45 16 50 33 51 67 52 22 53 17 57 19 61 30 62 114 63 37 
65 547 66 30 77 68 78 27 79 21 89 120 90 227 91 999 92 168 106 68 
107 57 108 35 109 16 111 15 120 74 134 23 137 49 139 80 154 17 155 878 
156 68 157 40 171 60 180 17 184 413 185 47 186 17 199 404 200 87 201 27 
