Name: ETHYL N-(PARA-CHLOROPHENYL)CARBAMATE
MW: 199
Formula: C9H10ClNO2
Synonym: MassBank: JP004147
Synonym: ETHYL N-(PARA-CHLOROPHENYL)CARBAMATE
Structure: 455448594C204E2D28504152412D43484C4F524F5048454E594C2943415242414D4154452E6D6F6C0A20204368656D447261773038313131303138333232440A2031332031332020302020302020302020302020302020302020302020303939392056323030300A2020202D302E373134352020202D302E3431323520202020302E303030302043202020302020302020302020302020302020302020302020302020302020302020302020300A20202020302E303030302020202D302E3832353020202020302E30303030204E202020302020302020302020302020302020302020302020302020302020302020302020300A2020202D302E3731343520202020302E3431323520202020302E30303030204F202020302020302020302020302020302020302020302020302020302020302020302020300A2020202D312E343238392020202D302E3832353020202020302E30303030204F202020302020302020302020302020302020302020302020302020302020302020302020300A20202020302E373134352020202D302E3431323520202020302E303030302043202020302020302020302020302020302020302020302020302020302020302020302020300A20202020302E3731343520202020302E3431323520202020302E303030302043202020302020302020302020302020302020302020302020302020302020302020302020300A20202020312E3432383920202020302E3832353020202020302E303030302043202020302020302020302020302020302020302020302020302020302020302020302020300A20202020322E3134333420202020302E3431323520202020302E303030302043202020302020302020302020302020302020302020302020302020302020302020302020300A20202020322E313433342020202D302E3431323520202020302E303030302043202020302020302020302020302020302020302020302020302020302020302020302020300A20202020312E343238392020202D302E3832353020202020302E303030302043202020302020302020302020302020302020302020302020302020302020302020302020300A20202020322E3835373920202020302E3832353020202020302E3030303020436C2020302020302020302020302020302020302020302020302020302020302020302020300A2020202D322E313433342020202D302E3431323520202020302E303030302043202020302020302020302020302020302020302020302020302020302020302020302020300A2020202D322E383537392020202D302E3832353020202020302E303030302043202020302020302020302020302020302020302020302020302020302020302020302020300A2020312020322020312020302020202020200A2020312020332020322020302020202020200A2020312020342020312020302020202020200A2020352020362020312020302020202020200A2020362020372020322020302020202020200A2020372020382020312020302020202020200A2020382020392020322020302020202020200A2020392031302020312020302020202020200A2020352031302020322020302020202020200A2020382031312020312020302020202020200A2020322020352020312020302020202020200A2031322031332020312020302020202020200A2020342031322020312020302020202020200A4D2020454E44
Contributor: MASS SPECTROSCOPY SOC. OF JAPAN (MSSJ)
InstType: EI
InstName: HITACHI RMU-6E
IoniMethod: _ENERGY 70 eV
IonPolarity: pos
Date: 2010-10-09 19:48:36+02:00
Num Peaks: 134
25 3 26 36 27 262 28 6 29 852 30 30 31 29 35 0 36 7 37 27 
38 54 39 8 40 16 41 20 42 11 43 2 44 16 45 64 46 6 47 1 
48 2 49 15 50 48 51 3 52 30 53 6 54 4 55 0 56 1 57 1 
60 3 61 2 62 54 63 200 64 90 65 11 66 15 67 5 71 1 72 1 
73 102 74 28 75 88 76 2 77 34 78 12 79 7 80 0 81 3 84 4 
85 8 86 1 87 6 88 12 89 23 90 11 91 96 92 82 93 25 94 0 
95 2 96 1 97 5 98 2 99 250 100 80 101 84 102 3 103 4 104 18 
105 17 106 1 107 3 108 3 109 1 110 0 111 48 112 13 113 27 114 1 
115 4 116 3 117 2 118 1 119 10 120 22 121 3 122 0 123 1 124 5 
125 90 126 25 127 999 128 144 129 320 130 3 131 1 135 1 136 4 137 1 
138 7 139 6 140 566 141 5 142 184 143 17 144 1 152 0 153 110 154 76 
155 42 156 3 157 3 164 4 165 1 166 0 170 10 171 72 172 20 173 2 
174 5 179 3 180 1 181 0 182 4 183 1 184 3 198 0 199 666 200 128 
201 228 202 4 203 4 204 1 
