Name: META-PHENYLENEDIAMINE
MW: 108
Formula: C6H8N2
Synonym: MassBank: JP001298
Synonym: META-PHENYLENEDIAMINE
Synonym: META-DIAMINOBENZENE
Structure: 310A32310A4D4554412D5048454E594C454E454449414D494E452E6D6F6C0A20204368656D447261773038313131303232353032440A2020382020382020302020302020302020302020302020302020302020303939392056323030300A20202020302E373134352020202D302E3431323520202020302E303030302043202020302020302020302020302020302020302020302020302020302020302020302020300A2020202D302E303030302020202D302E3832353020202020302E303030302043202020302020302020302020302020302020302020302020302020302020302020302020300A2020202D302E373134352020202D302E3431323520202020302E303030302043202020302020302020302020302020302020302020302020302020302020302020302020300A2020202D302E3731343520202020302E3431323520202020302E303030302043202020302020302020302020302020302020302020302020302020302020302020302020300A20202020302E3030303020202020302E3832353020202020302E303030302043202020302020302020302020302020302020302020302020302020302020302020302020300A20202020302E3731343520202020302E3431323520202020302E303030302043202020302020302020302020302020302020302020302020302020302020302020302020300A20202020312E343238392020202D302E3832353020202020302E30303030204E202020302020302020302020302020302020302020302020302020302020302020302020300A2020202D312E343238392020202D302E3832353020202020302E30303030204E202020302020302020302020302020302020302020302020302020302020302020302020300A2020312020322020312020302020202020200A2020322020332020322020302020202020200A2020332020342020312020302020202020200A2020342020352020322020302020202020200A2020352020362020312020302020202020200A2020312020362020322020302020202020200A2020312020372020312020302020202020200A2020332020382020312020302020202020200A4D2020454E44
Contributor: TAJIMA S, GUNMA COLLEGE OF TECHNOLOGY
InstType: EI
InstName: HITACHI RMU-7M
IoniMethod: _ENERGY 70 eV
IonPolarity: pos
Date: 2010-10-09 19:48:36+02:00
Num Peaks: 37
26 14 27 71 28 187 29 16 30 18 37 18 38 41 39 90 40 38 41 79 
42 37 43 18 44 23 50 25 51 48 52 91 53 158 54 113 55 15 62 17 
63 48 64 59 65 53 66 30 67 39 68 14 78 25 79 23 80 675 81 436 
82 33 90 16 91 70 92 12 107 140 108 999 109 73 
