Name: EMYLCAMATE
MW: 145
Formula: C7H15NO2
Synonym: MassBank: JP003868
Synonym: EMYLCAMATE
Synonym: 1-ETHYL-1-METHYLPROPYL CARBAMATE
Structure: 454D594C43414D4154452E6D6F6C0A20204368656D447261773131313830393033343132440A2031302020392020302020302020302020302020302020302020302020303939392056323030300A2020202D302E383235302020202D302E3631383720202020302E303030302043202020302020302020302020302020302020302020302020302020302020302020302020300A2020202D302E343132352020202D312E3333333220202020302E30303030204E202020302020302020302020302020302020302020302020302020302020302020302020300A2020202D312E363530302020202D302E3631383720202020302E30303030204F202020302020302020302020302020302020302020302020302020302020302020302020300A2020202D302E3431323520202020302E3039353720202020302E30303030204F202020302020302020302020302020302020302020302020302020302020302020302020300A20202020302E3431323520202020302E3039353720202020302E303030302043202020302020302020302020302020302020302020302020302020302020302020302020300A20202020302E3431323520202020302E3932303720202020302E303030302043202020302020302020302020302020302020302020302020302020302020302020302020300A2020202D302E3330323020202020312E3333333220202020302E303030302043202020302020302020302020302020302020302020302020302020302020302020302020300A20202020302E343132352020202D302E3732393320202020302E303030302043202020302020302020302020302020302020302020302020302020302020302020302020300A20202020312E3233373520202020302E3039353720202020302E303030302043202020302020302020302020302020302020302020302020302020302020302020302020300A20202020312E363530302020202D302E3631383820202020302E303030302043202020302020302020302020302020302020302020302020302020302020302020302020300A2020312020322020312020302020202020200A2020312020332020322020302020202020200A2020312020342020312020302020202020200A2020352020362020312020302020202020200A2020362020372020312020302020202020200A2020352020382020312020302020202020200A2020392031302020312020302020202020200A2020352020392020312020302020202020200A2020342020352020312020302020202020200A4D2020454E44
Contributor: SASAKI S, TOYOHASHI UNIV. OF TECH.
InstType: EI
InstName: Unknown
IoniMethod: _ENERGY 70 eV
IonPolarity: pos
Date: 2010-10-09 19:48:36+02:00
Num Peaks: 75
26 19 27 144 28 154 29 16 30 9 31 44 32 16 38 1 39 81 40 21 
41 281 42 6 43 504 44 239 45 109 46 1 50 9 51 13 52 8 53 4 
54 19 55 359 56 109 57 10 58 16 59 21 60 9 62 4 63 1 65 7 
66 2 67 3 68 9 69 294 70 45 71 4 72 19 73 999 74 59 75 1 
76 1 77 9 78 5 79 1 80 9 81 11 82 10 83 0 84 379 85 209 
86 19 87 10 88 14 90 9 91 1 95 0 97 9 98 9 99 6 100 0 
101 1 103 1 104 5 105 2 106 2 111 4 112 4 113 0 115 1 116 39 
117 9 118 1 119 9 120 9 130 23 
