Name: MassBank: JP009428
MW: 174
Formula: C11H10O2
Synonym: MassBank: JP009428
Synonym: 6-METHYL-3,4-BENZO-2-OXABICYCLO(4.1.0)HEPT-3-EN-5-ONE(7,7-D2)
Synonym: 9,9-DIDEUTERO-3-METHYLHOMOCHROMONE
Structure: 362D4D455448594C2D332C342D42454E5A4F2D322D4F584142494359434C4F28342E312E3029484550542D332D454E2D352D4F4E4528372C372D4432292E6D6F6C0A20204368656D447261773035313731303139323032440A2031352031372020302020302020302020302020302020302020302020303939392056323030300A2020202D322E3134333420202020302E3832353020202020302E303030302043202020302020302020302020302020302020302020302020302020302020302020302020300A2020202D322E3134333420202020302E3030303020202020302E303030302043202020302020302020302020302020302020302020302020302020302020302020302020300A2020202D312E343238392020202D302E3431323520202020302E303030302043202020302020302020302020302020302020302020302020302020302020302020302020300A2020202D302E3731343520202020302E3030303020202020302E303030302043202020302020302020302020302020302020302020302020302020302020302020302020300A2020202D302E3731343520202020302E3832353020202020302E303030302043202020302020302020302020302020302020302020302020302020302020302020302020300A2020202D312E3432383920202020312E3233373520202020302E303030302043202020302020302020302020302020302020302020302020302020302020302020302020300A20202020302E303030302020202D302E3431323520202020302E303030302043202020302020302020302020302020302020302020302020302020302020302020302020300A20202020302E3731343520202020302E3030303020202020302E303030302043202020302020302020302020302020302020302020302020302020302020302020302020300A20202020302E3731343520202020302E3832353020202020302E303030302043202020302020302020302020302020302020302020302020302020302020302020302020300A20202020302E3030303020202020312E3233373520202020302E30303030204F202020302020302020302020302020302020302020302020302020302020302020302020300A20202020312E3432383920202020302E3431323520202020302E303030302043202020302020302020302020302020302020302020302020302020302020302020302020300A20202020312E313237302020202D302E3731343520202020302E303030302043202020302020302020302020302020302020302020302020302020302020302020302020300A20202020302E303030302020202D312E3233373520202020302E30303030204F202020302020302020302020302020302020302020302020302020302020302020302020300A20202020322E3031323320202020302E3939353920202020302E303030302043202020302020302020302020302020302020302020302020302020302020302020302020300A20202020322E3134333420202020302E3030303020202020302E303030302043202020302020302020302020302020302020302020302020302020302020302020302020300A2020312020322020322020302020202020200A2020322020332020312020302020202020200A2020332020342020322020302020202020200A2020342020352020312020302020202020200A2020352020362020322020302020202020200A2020362020312020312020302020202020200A2020342020372020312020302020202020200A2020372020382020312020302020202020200A2020382020392020312020302020202020200A2020392031302020312020302020202020200A2031302020352020312020302020202020200A2020382031312020312020302020202020200A2031312020392020312020302020202020200A2020382031322020312020302020202020200A2020372031332020322020302020202020200A2031312031342020312020312020202020200A2031312031352020312020362020202020200A4D2020454E44
Contributor: EGUCHI S, FAC. OF SCIENCE, HIROSHIMA UNIV.
InstType: EI
InstName: HITACHI RMU-7L
IoniMethod: _ENERGY 70 eV
IonPolarity: pos
Date: 2010-10-09 19:48:36+02:00
Num Peaks: 75
50 175 51 160 52 70 53 65 54 70 55 20 56 15 57 10 61 20 62 30 
63 160 64 150 65 99 66 30 67 10 68 10 69 10 70 25 71 60 72 10 
73 25 74 100 75 70 76 530 77 175 78 120 79 45 89 15 90 20 91 45 
92 210 93 85 94 79 95 35 96 10 102 20 103 60 104 405 105 180 106 80 
107 19 108 10 115 15 116 60 117 80 118 59 119 100 120 105 121 195 122 60 
123 20 128 20 129 19 130 25 131 180 132 220 133 500 134 615 135 225 136 20 
145 60 146 190 147 305 148 85 149 15 158 10 159 40 160 50 161 99 162 15 
174 90 175 590 176 999 177 200 178 19 
