Name: ORTHO-TOLUNITRILE
MW: 117
Formula: C8H7N
Synonym: MassBank: JP001649
Synonym: ORTHO-TOLUNITRILE
Synonym: 1-METHYL-2-CYANOBENZENE
Structure: 310A32330A4F5254484F2D544F4C554E495452494C452E6D6F6C0A20204368656D447261773131313930393136323832440A2020392020392020302020302020302020302020302020302020302020303939392056323030300A2020202D302E303030302020202D302E3335373220202020302E303030302043202020302020302020302020302020302020302020302020302020302020302020302020300A20202020302E3431323520202020302E3335373220202020302E303030302043202020302020302020302020302020302020302020302020302020302020302020302020300A20202020312E363530302020202D302E3335373220202020302E303030302043202020302020302020302020302020302020302020302020302020302020302020302020300A20202020302E343132352020202D312E3037313720202020302E303030302043202020302020302020302020302020302020302020302020302020302020302020302020300A20202020312E3233373520202020302E3335373220202020302E303030302043202020302020302020302020302020302020302020302020302020302020302020302020300A20202020312E323337352020202D312E3037313720202020302E303030302043202020302020302020302020302020302020302020302020302020302020302020302020300A2020202D302E3030303020202020312E3037313720202020302E303030302043202020302020302020302020302020302020302020302020302020302020302020302020300A2020202D302E383235302020202D302E3335373220202020302E303030302043202020302020302020302020302020302020302020302020302020302020302020302020300A2020202D312E363530302020202D302E3335373220202020302E30303030204E202020302020302020302020302020302020302020302020302020302020302020302020300A2020312020322020312020302020202020200A2020312020342020322020302020202020200A2020322020352020322020302020202020200A2020332020352020312020302020202020200A2020332020362020322020302020202020200A2020342020362020312020302020202020200A2020322020372020312020302020202020200A2020312020382020312020302020202020200A2020382020392020332020302020202020200A4D2020454E44
Contributor: TAJIMA S, GUNMA COLLEGE OF TECHNOLOGY
InstType: EI
InstName: HITACHI RMU-7M
IoniMethod: _ENERGY 70 eV
IonPolarity: pos
Date: 2010-10-09 19:48:36+02:00
Num Peaks: 24
27 23 37 22 38 31 39 94 50 45 51 51 52 16 58.5 21 61 21 62 40 
63 100 64 46 65 21 75 24 76 20 88 25 89 255 90 480 91 52 114 11 
115 14 116 544 117 999 118 85 
