Name: CORTICOSTERONE
MW: 346
Formula: C21H30O4
Synonym: MassBank: JP009695
Synonym: CORTICOSTERONE
Synonym: 11BETA,21-DIHYDROXYPREGN-4-ENE-3,20-DIONE
Structure: 434F525449434F535445524F4E452E6D6F6C0A20204368656D447261773132313030393139303632440A2033312033342020302020302020302020302020302020302020302020303939392056323030300A2020202D322E333532322020202D312E3232343020202020302E303030302043202020302020302020302020302020302020302020302020302020302020302020302020300A2020202D332E303636372020202D312E3633363520202020302E30303030204F202020302020302020302020302020302020302020302020302020302020302020302020300A2020202D322E333532322020202D302E3339393020202020302E303030302043202020302020302020302020302020302020302020302020302020302020302020302020300A2020202D312E3633373720202020302E3031333520202020302E303030302043202020302020302020302020302020302020302020302020302020302020302020302020300A2020202D312E363337372020202D312E3633363520202020302E303030302043202020302020302020302020302020302020302020302020302020302020302020302020300A2020202D302E393233332020202D312E3232343020202020302E303030302043202020302020302020302020302020302020302020302020302020302020302020302020300A2020202D302E323038382020202D312E3633363520202020302E303030302043202020302020302020302020302020302020302020302020302020302020302020302020300A20202020302E353035372020202D312E3232343020202020302E303030302043202020302020302020302020302020302020302020302020302020302020302020302020300A20202020302E353035372020202D302E3339393020202020302E303030302043202020302020302020302020302020302020302020302020302020302020302020302020300A20202020312E3232303120202020302E3031333520202020302E303030302043202020302020302020302020302020302020302020302020302020302020302020302020300A20202020322E303034382020202D302E3234313420202020302E303030302043202020302020302020302020302020302020302020302020302020302020302020302020300A20202020322E3438393720202020302E3432363020202020302E303030302043202020302020302020302020302020302020302020302020302020302020302020302020300A20202020322E3030343820202020312E3039333520202020302E303030302043202020302020302020302020302020302020302020302020302020302020302020302020300A20202020322E3235393720202020312E3837383120202020302E303030302043202020302020302020302020302020302020302020302020302020302020302020302020300A20202020332E3036363720202020322E3034393620202020302E30303030204F202020302020302020302020302020302020302020302020302020302020302020302020300A20202020312E3637363320202020322E3436313520202020302E303030302043202020302020302020302020302020302020302020302020302020302020302020302020300A20202020302E3837393520202020322E3234373920202020302E30303030204F202020302020302020302020302020302020302020302020302020302020302020302020300A20202020312E3232303120202020302E3833383520202020302E303030302043202020302020302020302020302020302020302020302020302020302020302020302020300A20202020312E3232303120202020312E3636333520202020302E303030302043202020302020302020302020302020302020302020302020302020302020302020302020300A20202020302E3530353720202020312E3235313020202020302E303030302043202020302020302020302020302020302020302020302020302020302020302020302020300A2020202D302E3230383820202020302E3833383520202020302E303030302043202020302020302020302020302020302020302020302020302020302020302020302020300A2020202D302E3932333320202020312E3235313020202020302E30303030204F202020302020302020302020302020302020302020302020302020302020302020302020300A2020202D302E3230383820202020302E3031333520202020302E303030302043202020302020302020302020302020302020302020302020302020302020302020302020300A2020202D302E393233332020202D302E3339393020202020302E303030302043202020302020302020302020302020302020302020302020302020302020302020302020300A2020202D302E3932333320202020302E3432363020202020302E303030302043202020302020302020302020302020302020302020302020302020302020302020302020300A2020202D302E323038382020202D302E3831313520202020302E303030302048202020302020302020302020302020302020302020302020302020302020302020302020300A20202020302E3530353720202020302E3432363020202020302E303030302048202020302020302020302020302020302020302020302020302020302020302020302020300A20202020312E323230312020202D302E3831313520202020302E303030302048202020302020302020302020302020302020302020302020302020302020302020302020300A20202020322E3831393620202020312E3232323520202020302E303030302048202020302020302020302020302020302020302020302020302020302020302020302020300A2020202D302E3432323320202020312E3633353420202020302E303030302048202020302020302020302020302020302020302020302020302020302020302020302020300A2020202D312E363337372020202D322E3436313520202020302E303030302048202020302020302020302020302020302020302020302020302020302020302020302020300A2020312020322020322020302020202020200A2020312020332020312020302020202020200A2020332020342020312020302020202020200A2020312020352020312020302020202020200A2020352020362020322020302020202020200A2020362020372020312020302020202020200A2020372020382020312020302020202020200A2020382020392020312020302020202020200A2020392031302020312020302020202020200A2031302031312020312020302020202020200A2031312031322020312020302020202020200A2031322031332020312020302020202020200A2031332031342020312020312020202020200A2031342031352020322020302020202020200A2031342031362020312020302020202020200A2031362031372020312020302020202020200A2031332031382020312020302020202020200A2031302031382020312020302020202020200A2031382031392020312020312020202020200A2031382032302020312020302020202020200A2032302032312020312020302020202020200A2032312032322020312020312020202020200A2032312032332020312020302020202020200A2020392032332020312020302020202020200A2032332032342020312020302020202020200A2020342032342020312020302020202020200A2020362032342020312020302020202020200A2032342032352020312020312020202020200A2032332032362020312020362020202020200A2020392032372020312020312020202020200A2031302032382020312020362020202020200A2031332032392020312020362020202020200A2032312033302020312020362020202020200A2020352033312020312020302020202020200A4D2020454E44
Contributor: HASHIMOTO K, KYOTO COLLEGE OF PHARMACY
InstType: EI
InstName: HITACHI M-80
IoniMethod: _ENERGY 20 eV
IonPolarity: pos
Date: 2010-10-09 19:48:36+02:00
Num Peaks: 81
43 11 55 18 69 15 81 34 83 11 93 30 95 40 97 26 105 26 107 47 
109 38 111 14 119 31 120 12 121 61 122 21 123 48 124 51 125 16 131 46 
134 13 135 44 136 14 137 30 143 18 145 142 146 25 147 77 148 16 149 33 
155 10 157 19 159 45 160 11 161 107 162 21 163 55 169 11 171 23 173 54 
174 14 175 63 176 12 185 19 187 23 189 20 195 12 199 23 201 20 209 14 
211 24 213 42 214 11 215 11 225 17 227 172 228 38 229 14 241 24 242 14 
243 18 251 69 252 17 255 14 260 24 269 711 270 155 271 26 279 10 287 29 
288 13 297 29 298 12 299 12 313 18 315 999 316 226 317 45 328 81 329 22 
346 17 
