Name: 3(S)-CITRONELAL
MW: 154
Formula: C10H18O
Synonym: MassBank: JP006348
Synonym: 3(S)-CITRONELAL
Structure: 332853292D434954524F4E454C414C2E6D6F6C0A20204368656D447261773032323131303137343232440A2031322031312020302020302020302020302020302020302020302020303939392056323030300A2020202D302E323036322020202D302E3635393220202020302E303030302043202020302020302020302020302020302020302020302020302020302020302020302020300A20202020302E363138382020202D302E3635393220202020302E303030302043202020302020302020302020302020302020302020302020302020302020302020302020300A20202020312E343433382020202D302E3635393220202020302E303030302043202020302020302020302020302020302020302020302020302020302020302020302020300A20202020312E3835363320202020302E3035353320202020302E303030302043202020302020302020302020302020302020302020302020302020302020302020302020300A20202020322E3638313220202020302E3035353320202020302E30303030204F202020302020302020302020302020302020302020302020302020302020302020302020300A2020202D302E3631383820202020302E3035353320202020302E303030302043202020302020302020302020302020302020302020302020302020302020302020302020300A2020202D312E3434333820202020302E3035353320202020302E303030302043202020302020302020302020302020302020302020302020302020302020302020302020300A2020202D312E3835363320202020302E3736393720202020302E303030302043202020302020302020302020302020302020302020302020302020302020302020302020300A2020202D312E3434333820202020312E3438343220202020302E303030302043202020302020302020302020302020302020302020302020302020302020302020302020300A2020202D322E3638313220202020302E3736393720202020302E303030302043202020302020302020302020302020302020302020302020302020302020302020302020300A20202020302E3631383820202020302E3136353820202020302E303030302043202020302020302020302020302020302020302020302020302020302020302020302020300A20202020302E363138382020202D312E3438343220202020302E303030302048202020302020302020302020302020302020302020302020302020302020302020302020300A2020312020322020312020302020202020200A2020322020332020312020302020202020200A2020332020342020312020302020202020200A2020342020352020322020302020202020200A2020312020362020312020302020202020200A2020362020372020312020302020202020200A2020372020382020322020302020202020200A2020382020392020312020302020202020200A2020382031302020312020302020202020200A2020322031312020312020312020202020200A2020322031322020312020312020202020200A4D2020454E44
Contributor: HISAHIRO HAGIWARA, CHEMICAL RESEARCH INSTITUTE OF NON-AQUEOUSSOLUTIONS TOHOKU UNIV.
InstType: EI
InstName: JEOL JMS-DX-300
IoniMethod: _ENERGY 70 eV
IonPolarity: pos
Date: 2010-10-09 19:48:36+02:00
Num Peaks: 48
39 204 41 999 42 98 43 196 44 16 51 24 52 12 53 112 54 34 55 444 
56 284 57 98 59 22 65 22 66 11 67 194 68 108 69 849 70 136 71 119 
72 33 77 22 79 40 80 21 81 116 82 56 83 123 84 150 85 35 91 16 
93 68 94 20 95 388 96 56 97 84 98 81 107 20 109 124 110 151 111 165 
112 77 121 167 122 18 123 26 136 72 139 54 154 100 155 10 
