Name: MassBank: JP003698
MW: 349
Formula: C7F14
Synonym: MassBank: JP003698
Synonym: PERFLUORO-1,1-DIMETHYLCYCLOPENTANE
Structure: 504552464C554F524F2D312C312D44494D455448594C4359434C4F50454E54414E452E6D6F6C0A20204368656D447261773038313231303035303732440A2032312032312020302020302020302020302020302020302020302020303939392056323030300A2020202D302E313536372020202D302E3037373920202020302E303030302043202020302020302020302020302020302020302020302020302020302020302020302020300A20202020302E313738392020202D302E3833313620202020302E303030302043202020302020302020302020302020302020302020302020302020302020302020302020300A2020202D302E343334322020202D312E3338333620202020302E303030302043202020302020302020302020302020302020302020302020302020302020302020302020300A2020202D312E313438372020202D302E3937313120202020302E303030302043202020302020302020302020302020302020302020302020302020302020302020302020300A2020202D302E393737322020202D302E3136343220202020302E303030302043202020302020302020302020302020302020302020302020302020302020302020302020300A2020202D302E3331373620202020312E3232393820202020302E303030302043202020302020302020302020302020302020302020302020302020302020302020302020300A20202020312E3132393520202020302E3231393020202020302E303030302043202020302020302020302020302020302020302020302020302020302020302020302020300A20202020302E383933332020202D302E3431393120202020302E303030302046202020302020302020302020302020302020302020302020302020302020302020302020300A20202020302E363633382020202D312E3439393020202020302E303030302046202020302020302020302020302020302020302020302020302020302020302020302020300A20202020302E313738392020202D312E3933353720202020302E303030302046202020302020302020302020302020302020302020302020302020302020302020302020300A2020202D302E393139322020202D322E3035313120202020302E303030302046202020302020302020302020302020302020302020302020302020302020302020302020300A2020202D312E343834332020202D312E3732343820202020302E303030302046202020302020302020302020302020302020302020302020302020302020302020302020300A2020202D312E393333332020202D302E3731363220202020302E303030302046202020302020302020302020302020302020302020302020302020302020302020302020300A2020202D312E373937372020202D302E3037373920202020302E303030302046202020302020302020302020302020302020302020302020302020302020302020302020300A2020202D302E3937373220202020302E3636303820202020302E303030302046202020302020302020302020302020302020302020302020302020302020302020302020300A20202020302E3530353720202020312E3238353020202020302E303030302046202020302020302020302020302020302020302020302020302020302020302020302020300A2020202D302E3431383120202020322E3035313120202020302E303030302046202020302020302020302020302020302020302020302020302020302020302020302020300A2020202D312E3134323620202020312E3232393820202020302E303030302046202020302020302020302020302020302020302020302020302020302020302020302020300A20202020312E343037312020202D302E3535373920202020302E303030302046202020302020302020302020302020302020302020302020302020302020302020302020300A20202020312E3933333320202020302E3430343620202020302E303030302046202020302020302020302020302020302020302020302020302020302020302020302020300A20202020302E3839373520202020312E3031303720202020302E303030302046202020302020302020302020302020302020302020302020302020302020302020302020300A2020312020322020312020302020202020200A2020322020332020312020302020202020200A2020332020342020312020302020202020200A2020342020352020312020302020202020200A2020312020352020312020302020202020200A2020312020362020312020302020202020200A2020312020372020312020302020202020200A2020322020382020312020302020202020200A2020322020392020312020302020202020200A2020332031302020312020302020202020200A2020332031312020312020302020202020200A2020342031322020312020302020202020200A2020342031332020312020302020202020200A2020352031342020312020302020202020200A2020352031352020312020302020202020200A2020362031362020312020302020202020200A2020362031372020312020302020202020200A2020362031382020312020302020202020200A2020372031392020312020302020202020200A2020372032302020312020302020202020200A2020372032312020312020302020202020200A4D2020454E44
Contributor: SASAKI S, TOYOHASHI UNIV. OF TECH.
InstType: EI
InstName: Unknown
IoniMethod: EI
IonPolarity: pos
Date: 2010-10-09 19:48:36+02:00
Num Peaks: 34
12 1 19 1 31 101 43 0 50 18 55 5 62 3 69 999 74 12 79 1 
81 7 86 0 93 69 98 1 100 152 105 0 112 15 117 3 119 36 124 0 
131 160 143 15 150 88 155 0 162 8 174 1 181 97 193 1 212 6 231 12 
243 17 262 0 281 2 331 2 
