Name: FILIFOLIDE A
MW: 166
Formula: C10H14O2
Synonym: MassBank: JP006309
Synonym: FILIFOLIDE A
Structure: 313130395F46494C49464F4C49444520412E6D6F6C0A20204368656D447261773039303731303130343532440A2031342031352020302020302020302020302020302020302020302020303939392056323030300A2020202D302E3934343520202020302E3536383520202020302E303030302043202020302020302020302020302020302020302020302020302020302020302020302020300A2020202D302E393434352020202D302E3235363520202020302E303030302043202020302020302020302020302020302020302020302020302020302020302020302020300A2020202D302E323939352020202D302E3737303920202020302E303030302043202020302020302020302020302020302020302020302020302020302020302020302020300A20202020302E353034382020202D302E3538373320202020302E303030302043202020302020302020302020302020302020302020302020302020302020302020302020300A20202020302E3836323820202020302E3135363020202020302E303030302043202020302020302020302020302020302020302020302020302020302020302020302020300A20202020302E3530343820202020302E3839393320202020302E303030302043202020302020302020302020302020302020302020302020302020302020302020302020300A2020202D302E3239393520202020312E3038323920202020302E30303030204F202020302020302020302020302020302020302020302020302020302020302020302020300A2020202D312E3638373820202020302E3932363520202020302E30303030204F202020302020302020302020302020302020302020302020302020302020302020302020300A20202020312E3638373820202020302E3135363020202020302E303030302043202020302020302020302020302020302020302020302020302020302020302020302020300A2020202D302E3137373420202020302E3034373120202020302E303030302043202020302020302020302020302020302020302020302020302020302020302020302020300A2020202D312E303238392020202D312E3135363320202020302E303030302043202020302020302020302020302020302020302020302020302020302020302020302020300A2020202D302E303132352020202D312E3534343320202020302E303030302043202020302020302020302020302020302020302020302020302020302020302020302020300A2020202D312E363837382020202D302E3631343420202020302E303030302048202020302020302020302020302020302020302020302020302020302020302020302020300A20202020312E3031393220202020312E3534343320202020302E303030302048202020302020302020302020302020302020302020302020302020302020302020302020300A2020312020322020312020302020202020200A2020322020332020312020302020202020200A2020332020342020312020302020202020200A2020342020352020322020302020202020200A2020352020362020312020302020202020200A2020362020372020312020302020202020200A2020372020312020312020302020202020200A2020312020382020322020302020202020200A2020352020392020312020302020202020200A2020322031302020312020312020202020200A2020362031302020312020312020202020200A2020332031312020312020312020202020200A2020332031322020312020362020202020200A2020322031332020312020362020202020200A2020362031342020312020362020202020200A4D2020454E44
Contributor: EGUCHI S, FAC. OF SCIENCE, HIROSHIMA UNIV.
InstType: EI
InstName: HITACHI RMS-4
IoniMethod: _ENERGY 70 eV
IonPolarity: pos
Date: 2010-10-09 19:48:36+02:00
Num Peaks: 48
40 52 41 331 42 47 43 7 44 10 45 15 50 50 51 10 52 43 53 112 
54 23 55 9 62 13 63 38 64 12 65 11 66 27 67 77 68 13 69 4 
70 27 77 122 78 47 79 2 80 27 81 28 82 18 83 2 91 405 92 65 
93 47 94 2 95 35 96 12 98 32 105 15 106 27 107 999 108 112 109 2 
111 20 121 28 122 200 123 5 138 10 151 12 166 52 167 18 
