Name: MassBank: JP001492
MW: 120
Formula: C8H8O
Synonym: MassBank: JP001492
Synonym: (2,2,2,-2H3)ACETOPHENONE
Structure: 28322C322C322C2D32483329414345544F5048454E4F4E452E6D6F6C0A20204368656D447261773130313930393137313632440A2031322031322020302020302020302020302020302020302020302020303939392056323030300A2020202D302E3536333520202020302E3335373220202020302E303030302043202020302020302020302020302020302020302020302020302020302020302020302020300A2020202D312E3338383520202020302E3335373220202020302E303030302043202020302020302020302020302020302020302020302020302020302020302020302020300A2020202D312E383031302020202D302E3335373220202020302E303030302043202020302020302020302020302020302020302020302020302020302020302020302020300A2020202D312E333838352020202D312E3037313720202020302E303030302043202020302020302020302020302020302020302020302020302020302020302020302020300A2020202D302E353633352020202D312E3037313720202020302E303030302043202020302020302020302020302020302020302020302020302020302020302020302020300A2020202D302E313531302020202D302E3335373220202020302E303030302043202020302020302020302020302020302020302020302020302020302020302020302020300A20202020302E363734302020202D302E3335373220202020302E303030302043202020302020302020302020302020302020302020302020302020302020302020302020300A20202020312E303836352020202D312E3037313720202020302E30303030204F202020302020302020302020302020302020302020302020302020302020302020302020300A20202020312E3038363520202020302E3335373220202020302E303030302043202020302020302020302020302020302020302020302020302020302020302020302020300A20202020302E3337323020202020302E3736393720202020302E303030302048202020312020302020302020302020302020302020302020302020302020302020302020300A20202020312E3439393020202020312E3037313720202020302E303030302048202020312020302020302020302020302020302020302020302020302020302020302020300A20202020312E383031302020202D302E3035353320202020302E303030302048202020312020302020302020302020302020302020302020302020302020302020302020300A2020312020322020322020302020202020200A2020322020332020312020302020202020200A2020332020342020322020302020202020200A2020342020352020312020302020202020200A2020352020362020322020302020202020200A2020362020312020312020302020202020200A2020362020372020312020302020202020200A2020372020382020322020302020202020200A2020372020392020312020302020202020200A2020392031302020312020302020202020200A2020392031312020312020302020202020200A2020392031322020312020302020202020200A4D202049534F2020332020313020202032202031312020203220203132202020320A4D2020454E44
Contributor: YAMAMOTO M, DEP. CHEMISTRY, FAC. SCIENCE, NARA WOMEN'S UNIV.
InstType: EI
InstName: HITACHI RMU-6M
IoniMethod: _ENERGY 70 eV
IonPolarity: pos
Date: 2010-10-09 19:48:36+02:00
Num Peaks: 26
18 46 27 24 28 24 37 12 38 22 385 12 39 27 40 13 46 180 50 111 
51 267 52 32 525 14 53 13 63 11 74 38 75 26 76 30 77 809 78 65 
79 26 105 999 106 81 122 14 123 455 124 44 
