Name: 2-PENTYLCYCLOPENTANONE
MW: 154
Formula: C10H18O
Synonym: MassBank: JP006957
Synonym: 2-PENTYLCYCLOPENTANONE
Structure: 322D50454E54594C4359434C4F50454E54414E4F4E452E6D6F6C0A20204368656D447261773032323131303133353032440A2031312031312020302020302020302020302020302020302020302020303939392056323030300A2020202D312E3537383020202020302E3230393420202020302E303030302043202020302020302020302020302020302020302020302020302020302020302020302020300A2020202D302E3735373520202020302E3239353620202020302E303030302043202020302020302020302020302020302020302020302020302020302020302020302020300A2020202D302E343231392020202D302E3435383120202020302E303030302043202020302020302020302020302020302020302020302020302020302020302020302020300A2020202D312E303335302020202D312E3031303120202020302E303030302043202020302020302020302020302020302020302020302020302020302020302020302020300A2020202D312E373439352020202D302E3539373620202020302E303030302043202020302020302020302020302020302020302020302020302020302020302020302020300A2020202D302E3334353020202020312E3031303120202020302E303030302043202020302020302020302020302020302020302020302020302020302020302020302020300A20202020302E3438303020202020312E3031303120202020302E303030302043202020302020302020302020302020302020302020302020302020302020302020302020300A20202020302E3839323520202020302E3239353620202020302E303030302043202020302020302020302020302020302020302020302020302020302020302020302020300A20202020312E3731373520202020302E3239353620202020302E303030302043202020302020302020302020302020302020302020302020302020302020302020302020300A20202020322E313330302020202D302E3431383920202020302E303030302043202020302020302020302020302020302020302020302020302020302020302020302020300A2020202D322E3133303020202020302E3832323520202020302E30303030204F202020302020302020302020302020302020302020302020302020302020302020302020300A2020312020322020312020302020202020200A2020322020332020312020302020202020200A2020332020342020312020302020202020200A2020342020352020312020302020202020200A2020312020352020312020302020202020200A2020362020372020312020302020202020200A2020372020382020312020302020202020200A2020382020392020312020302020202020200A2020392031302020312020302020202020200A2020322020362020312020302020202020200A2020312031312020322020302020202020200A4D2020454E44
Contributor: TAJIMA S, GUNMA COLLEGE OF TECHNOLOGY
InstType: EI
InstName: HITACHI M-80B
IoniMethod: _ENERGY 70 eV
IonPolarity: pos
Date: 2010-10-09 19:48:36+02:00
Num Peaks: 29
26 11 27 167 28 18 29 171 39 151 40 13 41 351 42 78 43 70 53 36 
54 46 55 229 56 116 57 29 67 29 68 16 69 63 70 37 79 12 81 14 
82 11 83 164 84 999 85 47 97 142 98 15 111 10 112 11 154 40 
