Name: MassBank: JP004606
MW: 468
Formula: C30H44O4
Synonym: MassBank: JP004606
Synonym: (2E,6E,10E)-1-(2-OXA-3-OXO-4,7,7-TRIMETHYL-BICYCLO(2,2,1)HEPTANECARBONYLOXY)-14-ISOPROPENYL-3,7,11-TRIMETHYLCYCLOTETRADECATRIENE
Synonym: TRANS-2-CANPHANYLOXY-NEOCEMBRENE
Structure: 2832452C36452C313045292D312D28322D4F58412D332D4F584F2D342C372C372D5452494D455448594C2D42494359434C4F28322C322C312948455054414E45434152424F4E594C4F5859292D31342D49534F50524F50454E594C2D332C372C31312D5452494D455448594C4359434C4F544554524144454341545249454E452E6D6F6C0A20204368656D447261773130323030393039323832440A2033372033392020302020302020302020302020302020302020302020303939392056323030300A2020202D332E393637372020202D302E3732303020202020302E303030302043202020302020302020302020302020302020302020302020302020302020302020302020300A2020202D332E393637372020202D312E3534353020202020302E303030302043202020302020302020302020302020302020302020302020302020302020302020302020300A2020202D332E333834342020202D322E3132383320202020302E303030302043202020302020302020302020302020302020302020302020302020302020302020302020300A2020202D322E353539342020202D322E3132383320202020302E303030302043202020302020302020302020302020302020302020302020302020302020302020302020300A2020202D312E393736302020202D312E3534353020202020302E303030302043202020302020302020302020302020302020302020302020302020302020302020302020300A2020202D312E393736302020202D302E3732303020202020302E303030302043202020302020302020302020302020302020302020302020302020302020302020302020300A2020202D322E353539342020202D302E3133363620202020302E303030302043202020302020302020302020302020302020302020302020302020302020302020302020300A2020202D332E333834342020202D302E3133363620202020302E303030302043202020302020302020302020302020302020302020302020302020302020302020302020300A2020202D312E333932372020202D322E3132383320202020302E303030302043202020302020302020302020302020302020302020302020302020302020302020302020300A2020202D302E353637372020202D322E3132383320202020302E303030302043202020302020302020302020302020302020302020302020302020302020302020302020300A20202020302E303135372020202D312E3534353020202020302E303030302043202020302020302020302020302020302020302020302020302020302020302020302020300A20202020302E303135372020202D302E3732303020202020302E303030302043202020302020302020302020302020302020302020302020302020302020302020302020300A2020202D302E353637372020202D302E3133363620202020302E303030302043202020302020302020302020302020302020302020302020302020302020302020302020300A2020202D312E333932372020202D302E3133363620202020302E303030302043202020302020302020302020302020302020302020302020302020302020302020302020300A2020202D302E3235313420202020302E3632333920202020302E303030302048202020302020302020302020302020302020302020302020302020302020302020302020300A2020202D332E3639383520202020302E3632333920202020302E303030302048202020302020302020302020302020302020302020302020302020302020302020302020300A2020202D322E393731392020202D312E3431363620202020302E303030302048202020302020302020302020302020302020302020302020302020302020302020302020300A20202020302E373737392020202D312E3836303720202020302E303030302043202020302020302020302020302020302020302020302020302020302020302020302020300A20202020302E373738342020202D302E3430353920202020302E30303030204F202020302020302020302020302020302020302020302020302020302020302020302020300A20202020312E343332342020202D312E3335383520202020302E303030302043202020302020302020302020302020302020302020302020302020302020302020302020300A20202020302E383835362020202D322E3637383620202020302E303030302043202020302020302020302020302020302020302020302020302020302020302020302020300A20202020302E3838353620202020302E3431333720202020302E303030302043202020302020302020302020302020302020302020302020302020302020302020302020300A20202020302E3233323820202020302E3931343820202020302E30303030204F202020302020302020302020302020302020302020302020302020302020302020302020300A20202020312E3634373820202020302E3732393420202020302E303030302043202020302020302020302020302020302020302020302020302020302020302020302020300A20202020322E3330323320202020302E3232373220202020302E303030302043202020302020302020302020302020302020302020302020302020302020302020302020300A20202020332E3036343520202020302E3534323920202020302E303030302043202020302020302020302020302020302020302020302020302020302020302020302020300A20202020332E3137323220202020312E3336303820202020302E303030302043202020302020302020302020302020302020302020302020302020302020302020302020300A20202020322E3531373720202020312E3836333020202020302E303030302043202020302020302020302020302020302020302020302020302020302020302020302020300A20202020312E3735353820202020312E3534373120202020302E30303030204F202020302020302020302020302020302020302020302020302020302020302020302020300A20202020322E3336323320202020312E3134313920202020302E303030302043202020302020302020302020302020302020302020302020302020302020302020302020300A20202020322E3632383320202020322E3637383620202020302E30303030204F202020302020302020302020302020302020302020302020302020302020302020302020300A2020202D312E393736342020202D322E3337303020202020302E303030302043202020302020302020302020302020302020302020302020302020302020302020302020300A20202020332E3936373720202020312E3537343920202020302E303030302043202020302020302020302020302020302020302020302020302020302020302020302020300A20202020322E3034353520202020312E3930343920202020302E303030302043202020302020302020302020302020302020302020302020302020302020302020302020300A2020202D332E313433382020202D302E3732303020202020302E303030302043202020302020302020302020302020302020302020302020302020302020302020302020300A2020202D312E313830332020202D302E3933333120202020302E303030302043202020302020302020302020302020302020302020302020302020302020302020302020300A20202020322E3637383020202020302E3338313420202020302E303030302043202020302020302020302020302020302020302020302020302020302020302020302020300A2020312020322020312020302020202020200A2020322020332020312020302020202020200A2020332020342020312020302020202020200A2020342020352020322020302020202020200A2020362020372020312020302020202020200A2020372020382020312020302020202020200A2020382020312020322020302020202020200A2020352020392020312020302020202020200A2020392031302020312020302020202020200A2031302031312020312020302020202020200A2031312031322020312020302020202020200A2031322031332020312020302020202020200A2031332031342020322020302020202020200A2031342020362020312020302020202020200A2031332031352020312020302020202020200A2020382031362020312020302020202020200A2020342031372020312020302020202020200A2031312031382020312020302020202020200A2031322031392020312020302020202020200A2031382032302020322020302020202020200A2031382032312020312020302020202020200A2031392032322020312020302020202020200A2032322032332020322020302020202020200A2032322032342020312020302020202020200A2032342032352020312020302020202020200A2032352032362020312020302020202020200A2032362032372020312020302020202020200A2032372032382020312020302020202020200A2032382032392020312020302020202020200A2032392032342020312020302020202020200A2032342033302020312020302020202020200A2033302032372020312020302020202020200A2032382033312020322020302020202020200A2020352033322020312020302020202020200A2032372033332020312020302020202020200A2033302033342020312020312020202020200A2020312033352020312020302020202020200A2031342033362020312020302020202020200A2033302033372020312020312020202020200A4D202053545920203120202031205355500A4D2020534C4220203120202031202020310A4D202053414C20202031202031202033320A4D202053424C20202031202031202033340A4D2020534D5420202031204D650A4D2020534256202020312033342020202D372E3537313620202020362E383238380A4D202053545920203120202032205355500A4D2020534C4220203120202032202020320A4D202053414C20202032202031202033330A4D202053424C20202032202031202033350A4D2020534D5420202032204D650A4D2020534256202020322033352020202D362E3737353720202020372E383637380A4D202053545920203120202033205355500A4D2020534C4220203120202033202020330A4D202053414C20202033202031202033340A4D202053424C20202033202031202033360A4D2020534D5420202033204D650A4D2020534256202020332033362020202D372E3838383020202020382E343136380A4D202053545920203120202034205355500A4D2020534C4220203120202034202020340A4D202053414C20202034202031202033350A4D202053424C20202034202031202033370A4D2020534D5420202034204D650A4D2020534256202020342033372020202D362E3734373320202020372E363533380A4D202053545920203120202035205355500A4D2020534C4220203120202035202020350A4D202053414C20202035202031202033360A4D202053424C20202035202031202033380A4D2020534D5420202035204D650A4D2020534256202020352033382020202D372E3335383920202020362E383537330A4D202053545920203120202036205355500A4D2020534C4220203120202036202020360A4D202053414C20202036202031202033370A4D202053424C20202036202031202033390A4D2020534D5420202036204D650A4D2020534256202020362033392020202D372E3235353520202020362E383933330A4D2020454E44
Contributor: KATO T, DEPT. OF CHEM., FAC. OF SCI., TOHOKU UNIV.
InstType: EI
InstName: Unknown
IoniMethod: _ENERGY 25 eV
IonPolarity: pos
Date: 2010-10-09 19:48:36+02:00
Num Peaks: 117
17 16 18 280 28 428 29 2 32 114 41 60 43 93 44 4 55 273 56 20 
57 30 60 2 67 186 68 78 69 176 70 5 73 19 78 20 79 121 80 6 
81 401 82 104 83 346 84 5 85 18 91 143 92 87 93 60 94 142 95 248 
96 46 97 10 105 392 106 179 107 383 108 20 109 710 110 53 111 97 112 3 
117 62 118 58 119 773 120 33 121 360 122 124 123 83 124 7 125 222 126 31 
127 83 129 3 130 17 131 187 132 161 133 66 134 452 135 180 136 85 137 11 
139 199 140 16 143 38 144 4 145 332 146 170 147 225 148 16 149 106 150 18 
151 17 152 16 153 38 154 27 155 19 157 12 158 67 159 999 160 278 161 20 
162 58 163 53 164 30 170 19 171 85 172 49 173 172 174 6 175 100 176 64 
177 30 181 3 185 182 186 73 187 210 188 7 189 99 190 28 199 148 200 5 
201 94 202 99 203 20 213 5 214 44 215 75 216 17 227 10 228 40 229 18 
241 41 242 4 255 248 256 59 270 522 271 14 469 16 
