Name: MassBank: JP004903
MW: 138
Formula: C9H14O
Synonym: MassBank: JP004903
Synonym: 2,2-DIMETHYL-3-VINYLCYCLOPENTANONE
Structure: 322C322D44494D455448594C2D332D56494E594C4359434C4F50454E54414E4F4E452E6D6F6C0A20204368656D447261773132323030393036343232440A2031302031302020302020302020302020302020302020302020302020303939392056323030300A2020202D302E393537312020202D302E3330363520202020302E303030302043202020302020302020302020302020302020302020302020302020302020302020302020300A2020202D302E3430353120202020302E3330363520202020302E303030302043202020302020302020302020302020302020302020302020302020302020302020302020300A20202020302E333438362020202D302E3032393020202020302E303030302043202020302020302020302020302020302020302020302020302020302020302020302020300A20202020302E323632342020202D302E3834393520202020302E303030302043202020302020302020302020302020302020302020302020302020302020302020302020300A2020202D302E353434362020202D312E3032313020202020302E303030302043202020302020302020302020302020302020302020302020302020302020302020302020300A20202020312E3036333120202020302E3338333520202020302E303030302043202020302020302020302020302020302020302020302020302020302020302020302020300A20202020312E373737362020202D302E3032393020202020302E303030302043202020302020302020302020302020302020302020302020302020302020302020302020300A2020202D312E3037323520202020302E3739313520202020302E303030302043202020302020302020302020302020302020302020302020302020302020302020302020300A20202020302E3030373420202020312E3032313020202020302E303030302043202020302020302020302020302020302020302020302020302020302020302020302020300A2020202D312E373737362020202D302E3232303320202020302E30303030204F202020302020302020302020302020302020302020302020302020302020302020302020300A2020312020322020312020302020202020200A2020322020332020312020302020202020200A2020332020342020312020302020202020200A2020342020352020312020302020202020200A2020312020352020312020302020202020200A2020362020372020322020302020202020200A2020332020362020312020302020202020200A2020322020382020312020362020202020200A2020322020392020312020312020202020200A2020312031302020322020302020202020200A4D2020454E44
Contributor: MASS SPECTROSCOPY SOC. OF JAPAN (MSSJ)
InstType: EI
InstName: JEOL JMS-D-3000
IoniMethod: _ENERGY 70 eV
IonPolarity: pos
Date: 2010-10-09 19:48:36+02:00
Num Peaks: 27
42 467 43 144 53 139 54 170 55 318 56 102 59 54 67 757 68 160 69 176 
70 379 77 67 79 186 81 733 82 549 83 211 84 51 95 451 96 688 97 98 
105 77 109 82 110 75 120 53 123 248 138 999 139 102 
