Name: 3-FORMYL INDOLE
MW: 145
Formula: C9H7NO
Synonym: MassBank: JP002872
Synonym: 3-FORMYL INDOLE
Structure: 332D464F524D594C20494E444F4C452E6D6F6C0A20204368656D447261773032323231303138303132440A2031312031322020302020302020302020302020302020302020302020303939392056323030300A2020202D312E303231302020202D302E3133373820202020302E30303030204E202020302020302020302020302020302020302020302020302020302020302020302020300A2020202D302E3638353520202020302E3631353920202020302E303030302043202020302020302020302020302020302020302020302020302020302020302020302020300A20202020302E3133353020202020302E3532393620202020302E303030302043202020302020302020302020302020302020302020302020302020302020302020302020300A20202020302E333036352020202D302E3237373320202020302E303030302043202020302020302020302020302020302020302020302020302020302020302020302020300A20202020312E303231302020202D302E3638393820202020302E303030302043202020302020302020302020302020302020302020302020302020302020302020302020300A20202020312E303231302020202D312E3531343820202020302E303030302043202020302020302020302020302020302020302020302020302020302020302020302020300A20202020302E333036352020202D312E3932373320202020302E303030302043202020302020302020302020302020302020302020302020302020302020302020302020300A2020202D302E343037392020202D312E3531343820202020302E303030302043202020302020302020302020302020302020302020302020302020302020302020302020300A2020202D302E343037392020202D302E3638393820202020302E303030302043202020302020302020302020302020302020302020302020302020302020302020302020300A20202020302E3638373120202020312E3134323720202020302E303030302043202020302020302020302020302020302020302020302020302020302020302020302020300A20202020302E3433323120202020312E3932373320202020302E30303030204F202020302020302020302020302020302020302020302020302020302020302020302020300A2020312020322020312020302020202020200A2020322020332020322020302020202020200A2020332020342020312020302020202020200A2020342020352020312020302020202020200A2020352020362020322020302020202020200A2020362020372020312020302020202020200A2020372020382020322020302020202020200A2020382020392020312020302020202020200A2020312020392020312020302020202020200A2020342020392020322020302020202020200A2031302031312020322020302020202020200A2020332031302020312020302020202020200A4D2020454E44
Contributor: MASS SPECTROSCOPY SOC. OF JAPAN (MSSJ)
InstType: EI
InstName: Unknown
IoniMethod: EI
IonPolarity: pos
Date: 2010-10-09 19:48:36+02:00
Num Peaks: 14
39 52 58 32 59 87 62 43 63 106 72 39 89 250 90 47 115 23 116 291 
117 34 144 999 145 839 146 81 
