Name: 5-METHYL-2-PROPIONYLFURAN
MW: 138
Formula: C8H10O2
Synonym: MassBank: JP007738
Synonym: 5-METHYL-2-PROPIONYLFURAN
Structure: 352D4D455448594C2D322D50524F50494F4E594C465552414E2E6D6F6C0A20204368656D447261773034323331303037313632440A2031302031302020302020302020302020302020302020302020302020303939392056323030300A2020202D302E3133353220202020302E3331303220202020302E30303030204F202020302020302020302020302020302020302020302020302020302020302020302020300A20202020302E333439372020202D302E3335373220202020302E303030302043202020302020302020302020302020302020302020302020302020302020302020302020300A2020202D302E313335322020202D312E3032343720202020302E303030302043202020302020302020302020302020302020302020302020302020302020302020302020300A2020202D302E393139382020202D302E3736393720202020302E303030302043202020302020302020302020302020302020302020302020302020302020302020302020300A2020202D302E3931393820202020302E3035353320202020302E303030302043202020302020302020302020302020302020302020302020302020302020302020302020300A20202020312E313734372020202D302E3335373220202020302E303030302043202020302020302020302020302020302020302020302020302020302020302020302020300A20202020312E353837322020202D312E3037313720202020302E30303030204F202020302020302020302020302020302020302020302020302020302020302020302020300A20202020312E3538373220202020302E3335373220202020302E303030302043202020302020302020302020302020302020302020302020302020302020302020302020300A20202020312E3137343720202020312E3037313720202020302E303030302043202020302020302020302020302020302020302020302020302020302020302020302020300A2020202D312E3538373220202020302E3534303220202020302E303030302043202020302020302020302020302020302020302020302020302020302020302020302020300A2020312020322020312020302020202020200A2020322020332020322020302020202020200A2020332020342020312020302020202020200A2020342020352020322020302020202020200A2020312020352020312020302020202020200A2020362020372020322020302020202020200A2020362020382020312020302020202020200A2020382020392020312020302020202020200A2020322020362020312020302020202020200A2020352031302020312020302020202020200A4D2020454E44
Contributor: HASHIMOTO K, KYOTO COLLEGE OF PHARMACY
InstType: EI
InstName: HITACHI M-80
IoniMethod: _ENERGY 20 eV
IonPolarity: pos
Date: 2010-10-09 19:48:36+02:00
Num Peaks: 18
27 25 29 63 39 10 41 10 43 56 53 275 54 20 57 21 72 17 81 23 
95 13 108 11 109 999 110 108 111 11 137 10 138 343 139 28 
