Name: 2-HEPTYLCYCLOPENTANONE
MW: 182
Formula: C12H22O
Synonym: MassBank: JP006598
Synonym: 2-HEPTYLCYCLOPENTANONE
Structure: 322D48455054594C4359434C4F50454E54414E4F4E452E6D6F6C0A20204368656D447261773031303331303134303732440A2031332031332020302020302020302020302020302020302020302020303939392056323030300A20202020322E3139363720202020302E3237313020202020302E303030302043202020302020302020302020302020302020302020302020302020302020302020302020300A20202020312E3337363220202020302E3335373220202020302E303030302043202020302020302020302020302020302020302020302020302020302020302020302020300A20202020312E303430372020202D302E3339363420202020302E303030302043202020302020302020302020302020302020302020302020302020302020302020302020300A20202020312E363533382020202D302E3934383520202020302E303030302043202020302020302020302020302020302020302020302020302020302020302020302020300A20202020322E333638332020202D302E3533363020202020302E303030302043202020302020302020302020302020302020302020302020302020302020302020302020300A20202020302E3936333720202020312E3037313720202020302E303030302043202020302020302020302020302020302020302020302020302020302020302020302020300A20202020302E3133383720202020312E3037313720202020302E303030302043202020302020302020302020302020302020302020302020302020302020302020302020300A2020202D302E3237333820202020302E3335373220202020302E303030302043202020302020302020302020302020302020302020302020302020302020302020302020300A2020202D312E3039383820202020302E3335373220202020302E303030302043202020302020302020302020302020302020302020302020302020302020302020302020300A2020202D312E353131332020202D302E3335373220202020302E303030302043202020302020302020302020302020302020302020302020302020302020302020302020300A2020202D322E333336332020202D302E3335373220202020302E303030302043202020302020302020302020302020302020302020302020302020302020302020302020300A2020202D322E373438382020202D312E3037313720202020302E303030302043202020302020302020302020302020302020302020302020302020302020302020302020300A20202020322E3734383820202020302E3838343120202020302E30303030204F202020302020302020302020302020302020302020302020302020302020302020302020300A2020312020322020312020302020202020200A2020322020332020312020302020202020200A2020332020342020312020302020202020200A2020342020352020312020302020202020200A2020312020352020312020302020202020200A2020362020372020312020302020202020200A2020372020382020312020302020202020200A2020382020392020312020302020202020200A2020392031302020312020302020202020200A2031302031312020312020302020202020200A2031312031322020312020302020202020200A2020322020362020312020302020202020200A2020312031332020322020302020202020200A4D2020454E44
Contributor: HISAHIRO HAGIWARA, CHEMICAL RESEARCH INSTITUTE OF NON-AQUEOUSSOLUTIONS TOHOKU UNIV.
InstType: EI
InstName: HITACHI M-80B
IoniMethod: _ENERGY 70 eV
IonPolarity: pos
Date: 2010-10-09 19:48:36+02:00
Num Peaks: 25
27 112 28 22 29 138 39 88 41 281 42 47 43 120 53 27 54 36 55 180 
56 58 57 24 67 34 68 14 69 47 70 22 79 11 81 10 82 10 83 124 
84 999 85 44 97 148 98 17 182 32 
