Name: MassBank: JP002858
MW: 204
Formula: C15H24
Synonym: MassBank: JP002858
Synonym: TRANS-4,11,11-TRIMETHYL-8-METHYLENE-BICYCLO(7.2.0)UNDECA-4-ENE
Structure: 303330325F5452414E532D342C31312C31312D5452494D455448594C2D382D4D455448594C454E452D42494359434C4F28372E322E3029554E444543412D342D454E452E6D6F6C0A20204368656D447261773038323031303031343732440A2031362031372020302020302020302020302020302020302020302020303939392056323030300A2020202D302E343334372020202D302E3635363620202020302E303030302043202020302020302020302020302020302020302020302020302020302020302020302020300A2020202D302E3731363920202020302E3131383620202020302E303030302043202020302020302020302020302020302020302020302020302020302020302020302020300A2020202D302E3433343720202020302E3839333920202020302E303030302043202020302020302020302020302020302020302020302020302020302020302020302020300A20202020302E3237393720202020312E3330363420202020302E303030302043202020302020302020302020302020302020302020302020302020302020302020302020300A20202020312E3039323220202020312E3136333120202020302E303030302043202020302020302020302020302020302020302020302020302020302020302020302020300A20202020312E3632323520202020302E3533313120202020302E303030302043202020302020302020302020302020302020302020302020302020302020302020302020300A20202020312E363232352020202D302E3239333920202020302E303030302043202020302020302020302020302020302020302020302020302020302020302020302020300A20202020312E303932322020202D302E3932353920202020302E303030302043202020302020302020302020302020302020302020302020302020302020302020302020300A20202020302E323739372020202D312E3036393120202020302E303030302043202020302020302020302020302020302020302020302020302020302020302020302020300A2020202D302E313332382020202D312E3738333620202020302E303030302043202020302020302020302020302020302020302020302020302020302020302020302020300A2020202D302E383437322020202D312E3337313120202020302E303030302043202020302020302020302020302020302020302020302020302020302020302020302020300A20202020312E353034372020202D312E3634303420202020302E303030302043202020302020302020302020302020302020302020302020302020302020302020302020300A2020202D312E313935392020202D322E3131383820202020302E303030302043202020302020302020302020302020302020302020302020302020302020302020302020300A2020202D312E363232352020202D312E3038383920202020302E303030302043202020302020302020302020302020302020302020302020302020302020302020302020300A20202020302E3133363520202020322E3131383820202020302E303030302043202020302020302020302020302020302020302020302020302020302020302020302020300A20202020312E3530343720202020312E3837373520202020302E303030302048202020302020302020302020302020302020302020302020302020302020302020302020300A2020312020322020312020302020202020200A2020322020332020312020302020202020200A2020332020342020312020302020202020200A2020342020352020322020302020202020200A2020352020362020312020302020202020200A2020362020372020312020302020202020200A2020372020382020312020302020202020200A2020382020392020312020302020202020200A2020392031302020312020302020202020200A2031302031312020312020302020202020200A2020312031312020312020302020202020200A2020312020392020312020302020202020200A2020382031322020322020302020202020200A2031312031332020312020312020202020200A2031312031342020312020362020202020200A2020342031352020312020302020202020200A2020352031362020312020302020202020200A4D2020454E44
Contributor: SASAKI S, TOYOHASHI UNIV. OF TECH.
InstType: EI
InstName: Unknown
IoniMethod: EI
IonPolarity: pos
Date: 2010-10-09 19:48:36+02:00
Num Peaks: 93
26 5 27 10 29 130 30 1 37 6 38 5 39 17 40 5 41 271 42 37 
43 130 44 2 50 8 53 200 54 26 55 40 56 35 57 65 58 10 59 1 
63 13 64 8 65 112 66 4 67 340 68 71 69 999 70 1 71 43 77 271 
78 73 79 6 80 180 81 418 82 130 83 1 84 8 85 5 89 6 91 61 
92 220 93 980 94 203 95 2 96 35 97 15 103 22 104 1 105 446 106 260 
107 401 108 10 109 186 110 31 111 32 112 1 115 20 116 8 117 35 118 1 
119 316 120 340 121 260 122 8 123 61 124 10 128 10 129 1 131 26 132 8 
133 701 134 20 135 138 136 62 137 21 138 1 145 10 146 8 147 231 148 21 
149 62 150 10 159 5 160 1 161 260 162 62 175 73 176 4 177 6 189 135 
190 20 204 1 205 11 
