Name: ETHYL SEC-BUTYL ETHER
MW: 102
Formula: C6H14O
Synonym: MassBank: JP003910
Synonym: ETHYL SEC-BUTYL ETHER
Structure: 310A31380A455448594C205345432D425554594C2045544845522E6D6F6C0A20204368656D447261773038313131303139303132440A2020372020362020302020302020302020302020302020302020302020303939392056323030300A20202020302E323036332020202D302E3731343520202020302E30303030204F202020302020302020302020302020302020302020302020302020302020302020302020300A2020202D302E323036332020202D302E3030303020202020302E303030302043202020302020302020302020302020302020302020302020302020302020302020302020300A2020202D312E303331332020202D302E3030303020202020302E303030302043202020302020302020302020302020302020302020302020302020302020302020302020300A2020202D312E343433382020202D302E3731343520202020302E303030302043202020302020302020302020302020302020302020302020302020302020302020302020300A20202020302E3230363320202020302E3731343520202020302E303030302043202020302020302020302020302020302020302020302020302020302020302020302020300A20202020312E303331322020202D302E3731343520202020302E303030302043202020302020302020302020302020302020302020302020302020302020302020302020300A20202020312E3434333820202020302E3030303020202020302E303030302043202020302020302020302020302020302020302020302020302020302020302020302020300A2020322020332020312020302020202020200A2020332020342020312020302020202020200A2020322020352020312020302020202020200A2020312020322020312020302020202020200A2020362020372020312020302020202020200A2020312020362020312020302020202020200A4D2020454E44
Contributor: MASS SPECTROSCOPY SOC. OF JAPAN (MSSJ)
InstType: EI
InstName: Unknown
IoniMethod: EI
IonPolarity: pos
Date: 2010-10-09 19:48:36+02:00
Num Peaks: 27
14 30 15 95 19 15 26 4 27 260 28 65 29 323 30 2 31 94 39 57 
41 124 42 3 43 100 44 30 45 999 46 3 55 32 56 34 57 110 58 2 
59 190 72 25 73 501 74 2 87 35 88 22 102 38 
