Name: AZULENE
CAS: 275-51-4
MW: 128
Formula: C10H8
Synonym: MassBank: JP001584
Synonym: AZULENE
Structure: 415A554C454E452E6D6F6C0A20204368656D447261773038313331303133303732440A2031302031312020302020302020302020302020302020302020302020303939392056323030300A20202020312E3035333520202020302E3636373420202020302E303030302043202020302020302020302020302020302020302020302020302020302020302020302020300A20202020312E3533383420202020302E3030303020202020302E303030302043202020302020302020302020302020302020302020302020302020302020302020302020300A20202020312E303533352020202D302E3636373420202020302E303030302043202020302020302020302020302020302020302020302020302020302020302020302020300A20202020302E323638392020202D302E3431323520202020302E303030302043202020302020302020302020302020302020302020302020302020302020302020302020300A2020202D302E333736312020202D302E3932363920202020302E303030302043202020302020302020302020302020302020302020302020302020302020302020302020300A2020202D312E313830352020202D302E3734333320202020302E303030302043202020302020302020302020302020302020302020302020302020302020302020302020300A2020202D312E353338342020202D302E3030303020202020302E303030302043202020302020302020302020302020302020302020302020302020302020302020302020300A2020202D312E3138303520202020302E3734333320202020302E303030302043202020302020302020302020302020302020302020302020302020302020302020302020300A2020202D302E3337363120202020302E3932363920202020302E303030302043202020302020302020302020302020302020302020302020302020302020302020302020300A20202020302E3236383920202020302E3431323520202020302E303030302043202020302020302020302020302020302020302020302020302020302020302020302020300A2020312020322020312020302020202020200A2020322020332020322020302020202020200A2020332020342020312020302020202020200A2020342020352020322020302020202020200A2020352020362020312020302020202020200A2020362020372020322020302020202020200A2020372020382020312020302020202020200A2020382020392020322020302020202020200A2020392031302020312020302020202020200A2020312031302020322020302020202020200A2020342031302020312020302020202020200A4D2020454E44
Contributor: KOGA M, UNIV. OF OCCUPATIONAL AND ENVIRONMENTAL HEALTH
InstType: EI
InstName: VARIAN MAT-44
IoniMethod: _ENERGY 70 eV
IonPolarity: pos
Date: 2010-10-09 19:48:36+02:00
Num Peaks: 28
43 24 49 30 50 129 51 189 52 28 61 26 62 70 63 137 64 93 73 23 
74 75 75 80 76 86 77 80 78 54 86 17 87 18 98 17 99 11 100 17 
101 85 102 128 103 13 125 26 126 136 127 416 128 999 129 121 
