Name: 2-METHYL-5-(1-OCTYNYL)PYRIDINE
MW: 201
Formula: C14H19N
Synonym: MassBank: JP005019
Synonym: 2-METHYL-5-(1-OCTYNYL)PYRIDINE
Structure: 322D4D455448594C2D352D28312D4F4354594E594C295059524944494E452E6D6F6C0A20204368656D447261773031323231303037303632440A2031352031352020302020302020302020302020302020302020302020303939392056323030300A20202020332E3231353120202020302E3832353020202020302E303030302043202020302020302020302020302020302020302020302020302020302020302020302020300A20202020332E3231353120202020302E3030303020202020302E303030302043202020302020302020302020302020302020302020302020302020302020302020302020300A20202020322E353030362020202D302E3431323520202020302E303030302043202020302020302020302020302020302020302020302020302020302020302020302020300A20202020312E373836322020202D302E3030303020202020302E303030302043202020302020302020302020302020302020302020302020302020302020302020302020300A20202020312E3738363220202020302E3832353020202020302E303030302043202020302020302020302020302020302020302020302020302020302020302020302020300A20202020322E3530303620202020312E3233373520202020302E30303030204E202020302020302020302020302020302020302020302020302020302020302020302020300A20202020312E303731372020202D302E3431323520202020302E303030302043202020302020302020302020302020302020302020302020302020302020302020302020300A20202020302E333537322020202D302E3832353020202020302E303030302043202020302020302020302020302020302020302020302020302020302020302020302020300A2020202D302E333537322020202D312E3233373520202020302E303030302043202020302020302020302020302020302020302020302020302020302020302020302020300A2020202D312E303731372020202D302E3832353020202020302E303030302043202020302020302020302020302020302020302020302020302020302020302020302020300A2020202D312E373836322020202D312E3233373520202020302E303030302043202020302020302020302020302020302020302020302020302020302020302020302020300A2020202D322E353030362020202D302E3832353020202020302E303030302043202020302020302020302020302020302020302020302020302020302020302020302020300A2020202D332E323135312020202D312E3233373520202020302E303030302043202020302020302020302020302020302020302020302020302020302020302020302020300A2020202D332E393239362020202D302E3832353020202020302E303030302043202020302020302020302020302020302020302020302020302020302020302020302020300A20202020332E3932393620202020312E3233373520202020302E303030302043202020302020302020302020302020302020302020302020302020302020302020302020300A2020312020322020312020302020202020200A2020322020332020322020302020202020200A2020332020342020312020302020202020200A2020342020352020322020302020202020200A2020352020362020312020302020202020200A2020312020362020322020302020202020200A2020372020382020332020302020202020200A2020382020392020312020302020202020200A2020392031302020312020302020202020200A2031302031312020312020302020202020200A2031312031322020312020302020202020200A2031322031332020312020302020202020200A2031332031342020312020302020202020200A2020342020372020312020302020202020200A2020312031352020312020302020202020200A4D2020454E44
Contributor: SASAKI S, TOYOHASHI UNIV. OF TECH.
InstType: EI
InstName: MX-1303
IoniMethod: _ENERGY 50 eV
IonPolarity: pos
Date: 2010-10-09 19:48:36+02:00
Num Peaks: 79
38 17 39 173 40 29 41 27 42 52 43 219 50 58 51 15 52 52 53 23 
55 75 57 1 62 41 63 212 64 46 65 9 66 24 67 69 68 14 74 3 
75 53 76 87 77 424 78 9 79 52 80 21 81 14 87 2 88 23 89 110 
90 75 91 11 92 39 93 46 94 27 95 6 101 39 102 115 103 148 104 9 
105 37 106 303 107 98 114 4 115 144 116 87 117 443 118 9 119 115 120 110 
121 33 127 3 128 87 129 69 130 693 131 33 132 846 133 127 134 19 141 3 
142 57 143 173 144 520 145 23 146 73 156 58 157 154 158 999 159 308 160 63 
170 40 171 4 172 385 173 81 187 84 198 6 200 16 201 314 202 52 
