Name: MassBank: JP005835
MW: 127
Formula: C3H6Cl2O
Synonym: MassBank: JP005835
Synonym: 1,3-DICHLORO-2-PROPANOL
Synonym: GLYCEROL ALPHA,ALPHA'-DICHLOROHYDRIN
Structure: 310A31360A312C332D444943484C4F524F2D322D50524F50414E4F4C2E6D6F6C0A20204368656D447261773131313130393231333332440A2020362020352020302020302020302020302020302020302020302020303939392056323030300A20202020302E343132352020202D302E3731343520202020302E303030302043202020302020302020302020302020302020302020302020302020302020302020302020300A20202020302E3030303020202020302E3030303020202020302E303030302043202020302020302020302020302020302020302020302020302020302020302020302020300A2020202D302E3832353020202020302E3030303020202020302E303030302043202020302020302020302020302020302020302020302020302020302020302020302020300A20202020302E3431323520202020302E3731343520202020302E30303030204F202020302020302020302020302020302020302020302020302020302020302020302020300A2020202D312E323337352020202D302E3731343520202020302E3030303020436C2020302020302020302020302020302020302020302020302020302020302020302020300A20202020312E323337352020202D302E3731343520202020302E3030303020436C2020302020302020302020302020302020302020302020302020302020302020302020300A2020312020322020312020302020202020200A2020322020332020312020302020202020200A2020322020342020312020302020202020200A2020332020352020312020302020202020200A2020312020362020312020302020202020200A4D2020454E44
Contributor: HASHIMOTO K, KYOTO COLLEGE OF PHARMACY
InstType: EI
InstName: HITACHI M-80
IoniMethod: _ENERGY 20 eV
IonPolarity: pos
Date: 2010-10-09 19:48:36+02:00
Num Peaks: 5
43 125 78 16 79 999 80 28 81 343 
