Name: DIMETHYL PHOSPHITE
MW: 110
Formula: C2H7O3P
Synonym: MassBank: JP008873
Synonym: DIMETHYL PHOSPHITE
Synonym: PHOSPHONIC ACID DIMETHYL ESTER
Structure: 310A31360A50484F5350484F4E494320414349442044494D455448594C2045535445522E6D6F6C0A20204368656D447261773038313231303035333832440A2020362020352020302020302020302020302020302020302020302020303939392056323030300A2020202D302E3030303020202020302E3030303020202020302E303030302050202020302020302020302020302020302020302020302020302020302020302020302020300A20202020302E3431323520202020302E3731343520202020302E30303030204F202020302020302020302020302020302020302020302020302020302020302020302020300A20202020302E343132352020202D302E3731343520202020302E30303030204F202020302020302020302020302020302020302020302020302020302020302020302020300A2020202D302E3832353020202020302E3030303020202020302E30303030204F202020302020302020302020302020302020302020302020302020302020302020302020300A20202020312E323337352020202D302E3731343520202020302E303030302043202020302020302020302020302020302020302020302020302020302020302020302020300A2020202D312E323337352020202D302E3731343520202020302E303030302043202020302020302020302020302020302020302020302020302020302020302020302020300A2020312020322020322020302020202020200A2020312020332020312020302020202020200A2020312020342020312020302020202020200A2020332020352020312020302020202020200A2020342020362020312020302020202020200A4D2020454E44
Contributor: TAJIMA S, GUNMA COLLEGE OF TECHNOLOGY
InstType: EI
InstName: HITACHI RMU-7M
IoniMethod: _ENERGY 70 eV
IonPolarity: pos
Date: 2010-10-09 19:48:36+02:00
Num Peaks: 17
15 145 29 73 31 137 32 11 47 294 48 32 49 71 65 57 77 25 79 948 
80 999 81 25 93 22 95 142 109 73 110 58 111 19 
