Name: EPI-BETA-SANTALENE
MW: 204
Formula: C15H24
Synonym: MassBank: JP002847
Synonym: EPI-BETA-SANTALENE
Structure: 303532315F4550492D424554412D53414E54414C454E452E6D6F6C0A20204368656D447261773039303631303138323332440A2031372031382020302020302020302020302020302020302020302020303939392056323030300A20202020302E3731343520202020302E3832353020202020302E303030302043202020302020302020302020302020302020302020302020302020302020302020302020300A20202020302E3731343520202020302E3030303020202020302E303030302043202020302020302020302020302020302020302020302020302020302020302020302020300A20202020312E343238392020202D302E3431323520202020302E303030302043202020302020302020302020302020302020302020302020302020302020302020302020300A20202020322E3134333420202020302E3030303020202020302E303030302043202020302020302020302020302020302020302020302020302020302020302020302020300A20202020322E3134333420202020302E3832353020202020302E303030302043202020302020302020302020302020302020302020302020302020302020302020302020300A20202020312E3432383920202020312E3233373520202020302E303030302043202020302020302020302020302020302020302020302020302020302020302020302020300A2020202D322E3134333420202020302E3030303020202020302E303030302043202020302020302020302020302020302020302020302020302020302020302020302020300A2020202D312E343238392020202D302E3431323520202020302E303030302043202020302020302020302020302020302020302020302020302020302020302020302020300A2020202D302E3731343520202020302E3030303020202020302E303030302043202020302020302020302020302020302020302020302020302020302020302020302020300A2020202D302E303030302020202D302E3431323520202020302E303030302043202020302020302020302020302020302020302020302020302020302020302020302020300A2020202D302E3030353420202020302E3430333120202020302E303030302043202020302020302020302020302020302020302020302020302020302020302020302020300A2020202D322E383537392020202D302E3431323520202020302E303030302043202020302020302020302020302020302020302020302020302020302020302020302020300A2020202D322E3134333420202020302E3832353020202020302E303030302043202020302020302020302020302020302020302020302020302020302020302020302020300A20202020312E343238392020202D312E3233373520202020302E303030302043202020302020302020302020302020302020302020302020302020302020302020302020300A20202020322E383537392020202D302E3431323520202020302E303030302048202020302020302020302020302020302020302020302020302020302020302020302020300A2020202D302E3030303020202020312E3233373520202020302E303030302048202020302020302020302020302020302020302020302020302020302020302020302020300A20202020312E3532303420202020302E3634383420202020302E303030302043202020302020302020302020302020302020302020302020302020302020302020302020300A2020312020322020312020302020202020200A2020322020332020312020302020202020200A2020332020342020312020302020202020200A2020342020352020312020302020202020200A2020352020362020312020302020202020200A2020362020312020312020302020202020200A2020322031302020312020312020202020200A2020372020382020322020302020202020200A2020382020392020312020302020202020200A2020392031302020312020302020202020200A2020322031312020312020362020202020200A2020372031322020312020302020202020200A2020372031332020312020302020202020200A2020332031342020322020302020202020200A2020342031352020312020312020202020200A2020312031362020312020312020202020200A2020312031372020312020362020202020200A2020342031372020312020362020202020200A4D2020454E44
Contributor: SASAKI S, TOYOHASHI UNIV. OF TECH.
InstType: EI
InstName: Unknown
IoniMethod: EI
IonPolarity: pos
Date: 2010-10-09 19:48:36+02:00
Num Peaks: 61
26 5 27 52 28 25 29 5 39 73 40 10 41 333 42 2 43 42 51 15 
52 10 53 7 54 10 55 135 56 8 57 1 63 6 65 38 66 20 67 15 
68 18 69 168 70 10 75 1 77 100 78 23 79 206 80 2 81 68 82 55 
83 27 91 13 92 35 93 255 94 999 95 12 96 8 103 6 105 58 106 3 
107 75 108 16 109 16 115 1 117 8 119 42 120 20 121 1 122 346 123 40 
133 27 134 2 135 25 136 8 137 6 147 2 148 12 161 60 162 10 189 1 
204 22 
