Name: P-CHLOROANILINE
MW: 127
Formula: C6H6ClN
Synonym: MassBank: JP003509
Synonym: P-CHLOROANILINE
Structure: 310A32310A502D43484C4F524F414E494C494E452E6D6F6C0A20204368656D447261773033323531303131303632440A2020382020382020302020302020302020302020302020302020302020303939392056323030300A2020202D312E3635303020202020302E3030303020202020302E30303030204E202020302020302020302020302020302020302020302020302020302020302020302020300A2020202D302E3832353020202020302E3030303020202020302E303030302043202020302020302020302020302020302020302020302020302020302020302020302020300A2020202D302E3431323520202020302E3731343520202020302E303030302043202020302020302020302020302020302020302020302020302020302020302020302020300A20202020302E3431323520202020302E3731343520202020302E303030302043202020302020302020302020302020302020302020302020302020302020302020302020300A20202020302E383235302020202D302E3030303020202020302E303030302043202020302020302020302020302020302020302020302020302020302020302020302020300A20202020302E343132352020202D302E3731343520202020302E303030302043202020302020302020302020302020302020302020302020302020302020302020302020300A2020202D302E343132352020202D302E3731343520202020302E303030302043202020302020302020302020302020302020302020302020302020302020302020302020300A20202020312E363530302020202D302E3030303020202020302E3030303020436C2020302020302020302020302020302020302020302020302020302020302020302020300A2020312020322020312020302020202020200A2020322020332020312020302020202020200A2020332020342020322020302020202020200A2020342020352020312020302020202020200A2020352020362020322020302020202020200A2020362020372020312020302020202020200A2020322020372020322020302020202020200A2020352020382020312020302020202020200A4D2020454E44
Contributor: YAMAMOTO M, DEP. CHEMISTRY, FAC. SCIENCE, NARA WOMEN'S UNIV.
InstType: EI
InstName: HITACHI M-68
IoniMethod: _ENERGY 70 eV
IonPolarity: pos
Date: 2010-10-09 19:48:36+02:00
Num Peaks: 31
37 25 38 45 39 96 41 56 42 14 45.5 19 50 34 51 3 52 56 61 30 
62 51 63 11 64 65 65 282 66 39 73 5 74 22 75 35 90 27 91 6 
92 183 93 14 99 60 100 8 101 28 102 26 126 19 127 999 128 88 129 272 
130 28 
