Name: 2-METHYLQUINOLINE
CAS: 91-63-4
MW: 143
Formula: C10H9N
Synonym: MassBank: JP001637
Synonym: 2-METHYLQUINOLINE
Synonym: QUINALDINE
Structure: 322D4D455448594C5155494E4F4C494E452E6D6F6C0A20204368656D447261773032323131303036303232440A2031312031322020302020302020302020302020302020302020302020303939392056323030300A20202020302E3335373220202020302E3832353020202020302E30303030204E202020302020302020302020302020302020302020302020302020302020302020302020300A20202020312E3037313720202020302E3431323520202020302E303030302043202020302020302020302020302020302020302020302020302020302020302020302020300A20202020312E303731372020202D302E3431323520202020302E303030302043202020302020302020302020302020302020302020302020302020302020302020302020300A20202020302E333537322020202D302E3832353020202020302E303030302043202020302020302020302020302020302020302020302020302020302020302020302020300A2020202D302E333537322020202D302E3431323520202020302E303030302043202020302020302020302020302020302020302020302020302020302020302020302020300A2020202D312E303731372020202D302E3832353020202020302E303030302043202020302020302020302020302020302020302020302020302020302020302020302020300A2020202D312E373836322020202D302E3431323520202020302E303030302043202020302020302020302020302020302020302020302020302020302020302020302020300A2020202D312E3738363220202020302E3431323520202020302E303030302043202020302020302020302020302020302020302020302020302020302020302020302020300A2020202D312E3037313720202020302E3832353020202020302E303030302043202020302020302020302020302020302020302020302020302020302020302020302020300A2020202D302E3335373220202020302E3431323520202020302E303030302043202020302020302020302020302020302020302020302020302020302020302020302020300A20202020312E3738363220202020302E3832353020202020302E303030302043202020302020302020302020302020302020302020302020302020302020302020302020300A2020312020322020312020302020202020200A2020322020332020322020302020202020200A2020332020342020312020302020202020200A2020342020352020322020302020202020200A2020352020362020312020302020202020200A2020362020372020322020302020202020200A2020372020382020312020302020202020200A2020382020392020322020302020202020200A2020392031302020312020302020202020200A2020312031302020322020302020202020200A2020352031302020312020302020202020200A2020322031312020312020302020202020200A4D2020454E44
Contributor: KOGA M, UNIV. OF OCCUPATIONAL AND ENVIRONMENTAL HEALTH
InstType: EI
InstName: VARIAN MAT-44
IoniMethod: _ENERGY 70 eV
IonPolarity: pos
Date: 2010-10-09 19:48:36+02:00
Num Peaks: 61
37 108 38 221 39 471 40 84 41 62 42 109 43 13 44 11 45 25 49 57 
50 389 51 406 52 150 53 29 57 47 58 116 59 13 60 11 61 77 62 173 
63 168 64 75 65 52 66 11 70 27 71 66 72 35 73 26 74 160 75 259 
76 195 77 150 78 30 85 12 86 29 87 50 88 42 89 127 90 61 91 21 
98 15 99 13 100 19 101 127 102 81 103 24 104 11 113 24 114 37 115 275 
116 128 117 71 127 21 128 205 129 62 135 33 140 29 141 26 142 195 143 999 
144 122 
