Name: MassBank: JP007998
MW: 332
Formula: C21H32O3
Synonym: MassBank: JP007998
Synonym: (4AS,5S,8AS)-(-)-5BETA,8ABETA-DIMETHYL-2-ETHYLENEDIOXYMETHYL-5ALPHA-(4-METHYL-3-PENTENYL)-4A,5,6,7,8,8AALPHA-HEXAHYDRONAPHTHALEN-1(4H)-ONE
Structure: 283441532C35532C384153292D282D292D35424554412C3841424554412D44494D455448594C2D322D455448594C454E4544494F58594D455448594C2D35414C5048412D28342D4D455448594C2D332D50454E54454E594C292D34412C352C362C372C382C3841414C5048412D48455841485944524F4E4150485448414C454E2D31283448292D4F4E452E6D6F6C0A20204368656D447261773130323130393135313032440A2032362032382020302020302020302020302020302020302020302020303939392056323030300A2020202D302E343734312020202D302E3837373720202020302E303030302043202020302020302020302020302020302020302020302020302020302020302020302020300A2020202D302E343734312020202D312E3730323620202020302E303030302043202020302020302020302020302020302020302020302020302020302020302020302020300A20202020302E323430332020202D322E3131353120202020302E303030302043202020302020302020302020302020302020302020302020302020302020302020302020300A20202020302E393534382020202D312E3730323620202020302E303030302043202020302020302020302020302020302020302020302020302020302020302020302020300A20202020302E393534382020202D302E3837373720202020302E303030302043202020302020302020302020302020302020302020302020302020302020302020302020300A20202020302E323430332020202D302E3436353220202020302E303030302043202020302020302020302020302020302020302020302020302020302020302020302020300A20202020312E363639332020202D322E3131353120202020302E303030302043202020302020302020302020302020302020302020302020302020302020302020302020300A20202020322E333833372020202D312E3730323620202020302E303030302043202020302020302020302020302020302020302020302020302020302020302020302020300A20202020322E333833372020202D302E3837373720202020302E303030302043202020302020302020302020302020302020302020302020302020302020302020302020300A20202020312E363639332020202D302E3436353220202020302E303030302043202020302020302020302020302020302020302020302020302020302020302020302020300A20202020302E323430332020202D322E3934303120202020302E30303030204F202020302020302020302020302020302020302020302020302020302020302020302020300A2020202D312E313838352020202D322E3131353120202020302E303030302043202020302020302020302020302020302020302020302020302020302020302020302020300A20202020302E393534382020202D302E3035323720202020302E303030302048202020302020302020302020302020302020302020302020302020302020302020302020300A20202020312E3235363820202020302E3234393320202020302E303030302043202020302020302020302020302020302020302020302020302020302020302020302020300A2020202D312E313838352020202D302E3436353220202020302E303030302048202020302020302020302020302020302020302020302020302020302020302020302020300A20202020312E3636393320202020302E3936333820202020302E303030302043202020302020302020302020302020302020302020302020302020302020302020302020300A20202020312E3235363820202020312E3637383220202020302E303030302043202020302020302020302020302020302020302020302020302020302020302020302020300A20202020312E3636393320202020322E3339323620202020302E303030302043202020302020302020302020302020302020302020302020302020302020302020302020300A20202020312E3235363820202020332E3130373120202020302E303030302043202020302020302020302020302020302020302020302020302020302020302020302020300A20202020322E3439343320202020322E3339323620202020302E303030302043202020302020302020302020302020302020302020302020302020302020302020302020300A2020202D312E393432322020202D312E3737393620202020302E30303030204F202020302020302020302020302020302020302020302020302020302020302020302020300A2020202D322E343934332020202D322E3339323620202020302E303030302043202020302020302020302020302020302020302020302020302020302020302020302020300A2020202D322E303831382020202D332E3130373120202020302E303030302043202020302020302020302020302020302020302020302020302020302020302020302020300A2020202D312E323734382020202D322E3933353620202020302E30303030204F202020302020302020302020302020302020302020302020302020302020302020302020300A20202020322E3038313520202020302E3234393820202020302E303030302043202020302020302020302020302020302020302020302020302020302020302020302020300A20202020302E393534302020202D322E3532373620202020302E303030302043202020302020302020302020302020302020302020302020302020302020302020302020300A2020312020322020322020302020202020200A2020322020332020312020302020202020200A2020332020342020312020302020202020200A2020342020352020312020302020202020200A2020352020362020312020302020202020200A2020362020312020312020302020202020200A2020342020372020312020302020202020200A2020372020382020312020302020202020200A2020382020392020312020302020202020200A2020392031302020312020302020202020200A2031302020352020312020302020202020200A2020332031312020322020302020202020200A2020322031322020312020302020202020200A2020352031332020312020362020202020200A2031302031342020312020362020202020200A2020312031352020312020302020202020200A2031342031362020312020302020202020200A2031362031372020312020302020202020200A2031372031382020322020302020202020200A2031382031392020312020302020202020200A2031382032302020312020302020202020200A2031322032312020312020302020202020200A2032312032322020312020302020202020200A2032322032332020312020302020202020200A2032332032342020312020302020202020200A2032342031322020312020302020202020200A2031302032352020312020302020202020200A2020342032362020312020302020202020200A4D202053545920203120202031205355500A4D2020534C4220203120202031202020310A4D202053414C20202031202031202032350A4D202053424C20202031202031202032370A4D2020534D5420202031204D650A4D2020534256202020312032372020202D362E3537393620202020382E373533350A4D202053545920203120202032205355500A4D2020534C4220203120202032202020320A4D202053414C20202032202031202032360A4D202053424C20202032202031202032380A4D2020534D5420202032204D650A4D2020534256202020322032382020202D362E3939323620202020372E323133350A4D2020454E44
Contributor: HISAHIRO HAGIWARA, CHEMICAL RESEARCH INSTITUTE OF NON-AQUEOUSSOLUTIONS TOHOKU UNIV.
InstType: EI
InstName: JEOL JMS-DX-300
IoniMethod: _ENERGY 70 eV
IonPolarity: pos
Date: 2010-10-09 19:48:36+02:00
Num Peaks: 99
41 657 45 449 53 102 55 339 57 72 67 84 69 701 70 50 73 999 74 68 
77 101 79 16 81 296 82 166 83 261 91 161 93 177 95 197 96 65 97 136 
99 53 105 124 107 187 108 80 109 681 110 137 112 106 119 73 121 140 122 83 
123 182 127 108 131 57 133 127 134 111 135 269 136 124 137 155 141 184 145 6 
147 144 148 254 149 205 150 60 151 71 152 90 153 94 154 366 155 60 159 124 
160 207 161 188 162 131 163 99 165 73 166 177 167 96 173 68 175 131 176 69 
177 181 178 116 179 177 180 371 181 152 182 55 184 76 187 162 188 59 189 77 
191 73 192 83 193 78 194 90 201 101 202 161 203 303 204 98 205 186 206 73 
207 113 215 53 217 59 219 96 231 54 233 69 243 329 244 68 247 59 249 90 
261 105 271 108 286 153 287 90 289 109 317 555 318 123 332 635 333 166 
