Name: MassBank: JP002683
MW: 370
Formula: C21H38O5
Synonym: MassBank: JP002683
Synonym: 1-O-1'-TETRADECENYL-2,3-DI-O-ACETYL GLYCEROL
Structure: 312D4F2D31272D5445545241444543454E594C2D322C332D44492D4F2D41434554594C20474C594345524F4C2E6D6F6C0A20204368656D447261773131323230393231313532440A2032362032352020302020302020302020302020302020302020302020303939392056323030300A20202020312E3835363220202020332E3537323220202020302E30303030204F202020302020302020302020302020302020302020302020302020302020302020302020300A20202020312E3434333720202020342E3238363720202020302E303030302043202020302020302020302020302020302020302020302020302020302020302020302020300A20202020302E3631383720202020342E3238363720202020302E303030302043202020302020302020302020302020302020302020302020302020302020302020302020300A20202020302E3230363320202020332E3537323220202020302E30303030204F202020302020302020302020302020302020302020302020302020302020302020302020300A20202020302E3230363320202020352E3030313120202020302E303030302043202020302020302020302020302020302020302020302020302020302020302020302020300A2020202D302E3631383720202020352E3030313120202020302E30303030204F202020302020302020302020302020302020302020302020302020302020302020302020300A20202020312E3434333720202020322E3835373820202020302E303030302043202020302020302020302020302020302020302020302020302020302020302020302020300A20202020312E3835363220202020322E3134333420202020302E303030302043202020302020302020302020302020302020302020302020302020302020302020302020300A20202020312E3434333720202020312E3432383920202020302E303030302043202020302020302020302020302020302020302020302020302020302020302020302020300A20202020312E3835363220202020302E3731343420202020302E303030302043202020302020302020302020302020302020302020302020302020302020302020302020300A20202020312E343433372020202D302E3030303020202020302E303030302043202020302020302020302020302020302020302020302020302020302020302020302020300A20202020312E383536322020202D302E3731343420202020302E303030302043202020302020302020302020302020302020302020302020302020302020302020302020300A20202020312E343433372020202D312E3432383920202020302E303030302043202020302020302020302020302020302020302020302020302020302020302020302020300A20202020312E383536322020202D322E3134333420202020302E303030302043202020302020302020302020302020302020302020302020302020302020302020302020300A20202020312E343433372020202D322E3835373820202020302E303030302043202020302020302020302020302020302020302020302020302020302020302020302020300A20202020312E383536322020202D332E3537323220202020302E303030302043202020302020302020302020302020302020302020302020302020302020302020302020300A20202020312E343433372020202D342E3238363720202020302E303030302043202020302020302020302020302020302020302020302020302020302020302020302020300A20202020312E383536322020202D352E3030313220202020302E303030302043202020302020302020302020302020302020302020302020302020302020302020302020300A20202020312E343433372020202D352E3731353620202020302E303030302043202020302020302020302020302020302020302020302020302020302020302020302020300A20202020312E383536322020202D362E3433303020202020302E303030302043202020302020302020302020302020302020302020302020302020302020302020302020300A2020202D302E3631383720202020332E3537323220202020302E303030302043202020302020302020302020302020302020302020302020302020302020302020302020300A2020202D312E3033313320202020342E3238363720202020302E30303030204F202020302020302020302020302020302020302020302020302020302020302020302020300A2020202D312E3033313220202020322E3835373820202020302E303030302043202020302020302020302020302020302020302020302020302020302020302020302020300A2020202D312E3033313220202020352E3731353620202020302E303030302043202020302020302020302020302020302020302020302020302020302020302020302020300A2020202D312E3835363220202020352E3731353620202020302E303030302043202020302020302020302020302020302020302020302020302020302020302020302020300A2020202D302E3631383720202020362E3433303020202020302E30303030204F202020302020302020302020302020302020302020302020302020302020302020302020300A2020312020322020312020302020202020200A2020322020332020312020302020202020200A2020332020342020312020302020202020200A2020332020352020312020302020202020200A2020352020362020312020302020202020200A2020372020382020322020302020202020200A2020382020392020312020302020202020200A2020392031302020312020302020202020200A2031302031312020312020302020202020200A2031312031322020312020302020202020200A2031322031332020312020302020202020200A2031332031342020312020302020202020200A2031342031352020312020302020202020200A2031352031362020312020302020202020200A2031362031372020312020302020202020200A2031372031382020312020302020202020200A2031382031392020312020302020202020200A2031392032302020312020302020202020200A2020312020372020312020302020202020200A2020342032312020312020302020202020200A2032312032322020322020302020202020200A2032312032332020312020302020202020200A2020362032342020312020302020202020200A2032342032352020312020302020202020200A2032342032362020322020302020202020200A4D2020454E44
Contributor: HAYASHI A, DEPT. OF CHEMISTRY, FAC. OF SCI. AND TECHNOLOGY, KINKI UNIV.
InstType: EI
InstName: SHIMADZU LKB-9000B
IoniMethod: _ENERGY 40 eV
IonPolarity: pos
Date: 2010-10-09 19:48:36+02:00
Num Peaks: 125
43 71 54 73 55 143 56 91 57 512 58 57 60 59 61 6 67 69 68 110 
69 336 70 17 71 842 72 51 73 325 74 6 79 46 80 35 81 149 82 29 
83 804 84 147 85 841 86 24 87 128 91 11 93 16 94 3 95 297 96 332 
97 723 98 25 99 544 100 784 101 295 102 5 103 516 104 71 105 27 106 5 
107 33 109 153 110 231 111 50 112 296 113 352 114 59 115 14 116 415 117 999 
118 111 119 3 121 59 122 61 123 173 124 16 125 327 126 52 127 323 135 8 
136 24 137 122 138 161 139 17 140 85 141 202 144 10 145 24 146 12 147 30 
149 128 151 8 152 49 153 56 155 187 159 88 160 95 161 46 163 30 165 6 
166 101 167 63 168 64 169 11 177 32 178 44 179 52 180 5 181 31 182 16 
183 105 185 2 189 65 192 51 193 40 194 6 195 76 196 66 197 44 209 4 
210 55 213 46 221 55 222 9 223 104 224 51 225 242 226 5 237 54 251 109 
252 48 253 22 254 49 255 497 256 111 269 5 280 118 281 38 283 201 284 4 
285 86 297 783 298 174 325 209 326 49 
