Name: OXEPAN-2-ONE
MW: 114
Formula: C6H10O2
Synonym: MassBank: JP003980
Synonym: OXEPAN-2-ONE
Structure: 310A32310A4F584550414E2D322D4F4E452E6D6F6C0A20204368656D447261773038313231303033353432440A2020382020382020302020302020302020302020302020302020302020303939392056323030300A2020202D302E313333322020202D302E3734333320202020302E30303030204F202020302020302020302020302020302020302020302020302020302020302020302020300A2020202D302E343931312020202D302E3030303020202020302E303030302043202020302020302020302020302020302020302020302020302020302020302020302020300A2020202D302E3133333220202020302E3734333320202020302E303030302043202020302020302020302020302020302020302020302020302020302020302020302020300A20202020302E3637313120202020302E3932363920202020302E303030302043202020302020302020302020302020302020302020302020302020302020302020302020300A20202020312E3331363120202020302E3431323520202020302E303030302043202020302020302020302020302020302020302020302020302020302020302020302020300A20202020312E333136312020202D302E3431323520202020302E303030302043202020302020302020302020302020302020302020302020302020302020302020302020300A20202020302E363731312020202D302E3932363920202020302E303030302043202020302020302020302020302020302020302020302020302020302020302020302020300A2020202D312E333136312020202D302E3030303020202020302E30303030204F202020302020302020302020302020302020302020302020302020302020302020302020300A2020312020322020312020302020202020200A2020322020332020312020302020202020200A2020332020342020312020302020202020200A2020342020352020312020302020202020200A2020352020362020312020302020202020200A2020362020372020312020302020202020200A2020312020372020312020302020202020200A2020322020382020322020302020202020200A4D2020454E44
Contributor: MASS SPECTROSCOPY SOC. OF JAPAN (MSSJ)
InstType: EI
InstName: HITACHI RMU-6L
IoniMethod: _ENERGY 70 eV
IonPolarity: pos
Date: 2010-10-09 19:48:36+02:00
Num Peaks: 14
27 240 28 232 29 184 39 25 40 82 41 581 42 999 43 9 55 951 56 437 
57 62 70 19 84 279 114 180 
