Name: MassBank: JP007339
MW: 121
Formula: C8H11N
Synonym: MassBank: JP007339
Synonym: 2,4-DIMETHYLBENZENAMINE
Synonym: 2,4-XYLIDINE
Structure: 310A32330A322C342D44494D455448594C42454E5A454E414D494E452E6D6F6C0A20204368656D447261773132323030393139323232440A2020392020392020302020302020302020302020302020302020302020303939392056323030300A20202020302E373134352020202D302E3431323520202020302E303030302043202020302020302020302020302020302020302020302020302020302020302020302020300A20202020302E3731343520202020302E3431323520202020302E303030302043202020302020302020302020302020302020302020302020302020302020302020302020300A2020202D302E3030303020202020302E3832353020202020302E303030302043202020302020302020302020302020302020302020302020302020302020302020302020300A2020202D302E3731343520202020302E3431323520202020302E303030302043202020302020302020302020302020302020302020302020302020302020302020302020300A2020202D302E373134352020202D302E3431323520202020302E303030302043202020302020302020302020302020302020302020302020302020302020302020302020300A20202020302E303030302020202D302E3832353020202020302E303030302043202020302020302020302020302020302020302020302020302020302020302020302020300A20202020312E343238392020202D302E3832353020202020302E30303030204E202020302020302020302020302020302020302020302020302020302020302020302020300A2020202D312E3432383920202020302E3832353020202020302E303030302043202020302020302020302020302020302020302020302020302020302020302020302020300A20202020312E3432383920202020302E3832353020202020302E303030302043202020302020302020302020302020302020302020302020302020302020302020302020300A2020312020322020312020302020202020200A2020322020332020322020302020202020200A2020332020342020312020302020202020200A2020342020352020322020302020202020200A2020352020362020312020302020202020200A2020312020362020322020302020202020200A2020312020372020312020302020202020200A2020342020382020312020302020202020200A2020322020392020312020302020202020200A4D2020454E44
Contributor: YAMAMOTO M, DEP. CHEMISTRY, FAC. SCIENCE, NARA WOMEN'S UNIV.
InstType: EI
InstName: HITACHI RMU-6M
IoniMethod: _ENERGY 70 eV
IonPolarity: pos
Date: 2010-10-09 19:48:36+02:00
Num Peaks: 45
27 40 28 43 30 18 38 16 39 81 40 12 41 34 42 31 46.5 18 50 25 
51 60 52 50 53 61 54 26 58.5 37 59.5 33 60 11 60.5 38 62 13 63 31 
64 52 65 21 66 11 76 10 77 147 78 51 79 40 80 27 89 12 91 94 
92 24 93 45 94 17 102 10 103 38 104 35 105 21 106 552 107 45 117 13 
118 46 119 43 120 784 121 999 122 90 
