Name: METHYL CYANIDE
CAS: 75-05-8
MW: 41
Formula: C2H3N
Synonym: MassBank: JP004294
Synonym: METHYL CYANIDE
Synonym: ACETONITRILE
Structure: 310A31300A4D455448594C204359414E4944452E6D6F6C0A20204368656D447261773036323431303138313632440A2020332020322020302020302020302020302020302020302020302020303939392056323030300A20202020302E3832353020202020302E3030303020202020302E303030302043202020302020302020302020302020302020302020302020302020302020302020302020300A20202020302E3030303020202020302E3030303020202020302E303030302043202020302020302020302020302020302020302020302020302020302020302020302020300A2020202D302E3832353020202020302E3030303020202020302E30303030204E202020302020302020302020302020302020302020302020302020302020302020302020300A2020322020332020332020302020202020200A2020312020322020312020302020202020200A4D2020454E44
Contributor: TAJIMA S, GUNMA COLLEGE OF TECHNOLOGY
InstType: EI
InstName: HITACHI RMU-7M
IoniMethod: _ENERGY 70 eV
IonPolarity: pos
Date: 2010-10-09 19:48:36+02:00
Num Peaks: 9
14 43 26 14 27 10 28 10 38 85 39 164 40 504 41 999 42 42 
