Name: MassBank: JP009569
MW: 184
Formula: C6H4N2O5
Synonym: MassBank: JP009569
Synonym: 2,4-DINITROPHENOL
Structure: 322C342D44494E4954524F5048454E4F4C2E6D6F6C0A20204368656D447261773132323030393139333332440A2031332031332020302020302020302020302020302020302020302020303939392056323030300A20202020302E373134352020202D302E3832353020202020302E303030302043202020302020302020302020302020302020302020302020302020302020302020302020300A20202020302E3731343520202020302E3030303020202020302E303030302043202020302020302020302020302020302020302020302020302020302020302020302020300A2020202D302E3030303020202020302E3431323520202020302E303030302043202020302020302020302020302020302020302020302020302020302020302020302020300A2020202D302E3731343520202020302E3030303020202020302E303030302043202020302020302020302020302020302020302020302020302020302020302020302020300A2020202D302E373134352020202D302E3832353020202020302E303030302043202020302020302020302020302020302020302020302020302020302020302020302020300A20202020302E303030302020202D312E3233373520202020302E303030302043202020302020302020302020302020302020302020302020302020302020302020302020300A2020202D312E3432383920202020302E3431323520202020302E30303030204E202020302020332020302020302020302020302020302020302020302020302020302020300A2020202D312E3432383920202020312E3233373520202020302E30303030204F202020302020302020302020302020302020302020302020302020302020302020302020300A2020202D322E3134333420202020302E3030303020202020302E30303030204F202020302020352020302020302020302020302020302020302020302020302020302020300A20202020312E3432383920202020302E3431323520202020302E30303030204E202020302020332020302020302020302020302020302020302020302020302020302020300A20202020312E3432383920202020312E3233373520202020302E30303030204F202020302020302020302020302020302020302020302020302020302020302020302020300A20202020322E3134333420202020302E3030303020202020302E30303030204F202020302020352020302020302020302020302020302020302020302020302020302020300A20202020312E343238392020202D312E3233373520202020302E30303030204F202020302020302020302020302020302020302020302020302020302020302020302020300A2020312020322020312020302020202020200A2020322020332020322020302020202020200A2020332020342020312020302020202020200A2020342020352020322020302020202020200A2020352020362020312020302020202020200A2020312020362020322020302020202020200A2020372020382020322020302020202020200A2020372020392020312020302020202020200A2020342020372020312020302020202020200A2031302031312020322020302020202020200A2031302031322020312020302020202020200A2020322031302020312020302020202020200A2020312031332020312020302020202020200A4D202043484720203420202037202020312020203920202D3120203130202020312020313220202D310A4D2020454E44
Contributor: HAMAMATSU UNIV. SCHOOL OF MEDICINE
InstType: EI
InstName: JEOL JMS-AX-505-H
IoniMethod: _ENERGY 70 eV
IonPolarity: pos
Date: 2010-10-09 19:48:36+02:00
Num Peaks: 70
25 12 26 71 27 39 28 930 29 72 30 618 31 30 32 270 37 125 38 275 
39 187 40 21 41 11 42 35 43 11 44 34 45 23 46 35 49 32 50 166 
51 349 52 243 53 718 54 67 55 47 60 12 61 140 62 427 63 853 64 330 
65 75 66 59 67 29 68 57 69 52 70 15 73 14 74 46 75 39 76 46 
77 54 78 14 79 414 80 93 81 11 82 10 90 24 91 591 92 340 93 210 
94 17 96 21 104 13 105 11 107 469 108 82 109 12 119 10 120 18 121 17 
126 21 138 37 151 15 154 409 155 31 167 10 168 44 184 999 185 90 186 17 
