Name: MassBank: JP008798
MW: 267
Formula: C11H10F5NO
Synonym: MassBank: JP008798
Synonym: BUTYRALDEHYDE O-2,3,4,5,6-PENTAFLUOROBENZYLOXIME
Structure: 4255545952414C444548594445204F2D322C332C342C352C362D50454E5441464C554F524F42454E5A594C4F58494D452E6D6F6C0A20204368656D447261773039303631303035303232440A2031382031382020302020302020302020302020302020302020302020303939392056323030300A2020202D312E303731372020202D312E3434333820202020302E303030302043202020302020302020302020302020302020302020302020302020302020302020302020300A2020202D312E303731372020202D322E3236383720202020302E303030302043202020302020302020302020302020302020302020302020302020302020302020302020300A2020202D302E333537322020202D322E3638313220202020302E303030302043202020302020302020302020302020302020302020302020302020302020302020302020300A20202020302E333537322020202D322E3236383720202020302E303030302043202020302020302020302020302020302020302020302020302020302020302020302020300A20202020302E333537322020202D312E3434333820202020302E303030302043202020302020302020302020302020302020302020302020302020302020302020302020300A2020202D302E333537322020202D312E3033313320202020302E303030302043202020302020302020302020302020302020302020302020302020302020302020302020300A2020202D312E373836322020202D312E3033313320202020302E303030302046202020302020302020302020302020302020302020302020302020302020302020302020300A2020202D312E373836322020202D322E3638313220202020302E303030302046202020302020302020302020302020302020302020302020302020302020302020302020300A2020202D302E333537322020202D332E3530363320202020302E303030302046202020302020302020302020302020302020302020302020302020302020302020302020300A20202020312E303731372020202D322E3638313220202020302E303030302046202020302020302020302020302020302020302020302020302020302020302020302020300A20202020312E303731372020202D312E3033313320202020302E303030302046202020302020302020302020302020302020302020302020302020302020302020302020300A2020202D302E333537322020202D302E3230363220202020302E303030302043202020302020302020302020302020302020302020302020302020302020302020302020300A20202020302E3335373220202020302E3230363220202020302E30303030204F202020302020302020302020302020302020302020302020302020302020302020302020300A20202020302E3335373220202020312E3033313320202020302E30303030204E202020302020302020302020302020302020302020302020302020302020302020302020300A20202020312E3037313720202020312E3434333820202020302E303030302043202020302020302020302020302020302020302020302020302020302020302020302020300A20202020312E3037313720202020322E3236383720202020302E303030302043202020302020302020302020302020302020302020302020302020302020302020302020300A20202020312E3738363220202020322E3638313220202020302E303030302043202020302020302020302020302020302020302020302020302020302020302020302020300A20202020312E3738363220202020332E3530363320202020302E303030302043202020302020302020302020302020302020302020302020302020302020302020302020300A2020312020322020322020302020202020200A2020322020332020312020302020202020200A2020332020342020322020302020202020200A2020342020352020312020302020202020200A2020352020362020322020302020202020200A2020362020312020312020302020202020200A2020312020372020312020302020202020200A2020322020382020312020302020202020200A2020332020392020312020302020202020200A2020342031302020312020302020202020200A2020352031312020312020302020202020200A2020362031322020312020302020202020200A2031322031332020312020302020202020200A2031332031342020312020302020202020200A2031342031352020322020302020202020200A2031352031362020312020302020202020200A2031362031372020312020302020202020200A2031372031382020312020302020202020200A4D2020454E44
Contributor: UOEH
InstType: EI
InstName: HP 5970
IoniMethod: _ENERGY 70 eV
IonPolarity: pos
Date: 2010-10-09 19:48:36+02:00
Num Peaks: 63
41 121 42 25 43 73 44 15 45 7 51 7 53 2 54 3 55 12 56 7 
57 5 58 4 62 2 68 5 69 22 70 3 74 1 75 9 79 4 80 4 
81 10 86 23 93 14 98 5 99 21 111 2 112 6 117 24 118 2 119 13 
130 2 131 12 137 4 143 6 148 4 149 5 150 9 151 2 155 9 161 34 
162 7 163 2 167 19 168 10 169 4 176 3 177 10 178 5 179 5 181 999 
182 76 183 1 195 53 196 10 197 5 198 8 207 5 222 6 239 165 240 15 
250 14 252 3 267 6 
