Name: BUTYLALDEHYDE
MW: 72
Formula: C4H8O
Synonym: MassBank: JP009320
Synonym: BUTYLALDEHYDE
Synonym: BUTANAL
Structure: 310A31340A425554594C414C4445485944452E6D6F6C0A20204368656D447261773039303631303031333632440A2020352020342020302020302020302020302020302020302020302020303939392056323030300A2020202D302E3731343520202020302E3230363320202020302E303030302043202020302020302020302020302020302020302020302020302020302020302020302020300A20202020302E303030302020202D302E3230363320202020302E303030302043202020302020302020302020302020302020302020302020302020302020302020302020300A20202020302E3731343520202020302E3230363320202020302E303030302043202020302020302020302020302020302020302020302020302020302020302020302020300A20202020312E343238392020202D302E3230363220202020302E303030302043202020302020302020302020302020302020302020302020302020302020302020302020300A2020202D312E343238392020202D302E3230363220202020302E30303030204F202020302020302020302020302020302020302020302020302020302020302020302020300A2020312020322020312020302020202020200A2020322020332020312020302020202020200A2020332020342020312020302020202020200A2020312020352020322020302020202020200A4D2020454E44
Contributor: YAMAMOTO M, DEP. CHEMISTRY, FAC. SCIENCE, NARA WOMEN'S UNIV.
InstType: EI
InstName: HITACHI RMU-6M
IoniMethod: _ENERGY 20 eV
IonPolarity: pos
Date: 2010-10-09 19:48:36+02:00
Num Peaks: 18
27 300 28 133 29 421 30 1 31 17 39 33 41 405 42 6 43 671 44 999 
45 29 54 2 57 224 58 10 60 17 71 6 72 686 73 33 
