Name: MassBank: JP009688
MW: 232
Formula: C12H9ClN2O
Synonym: MassBank: JP009688
Synonym: TRANS-(4'-CHLORO-N,N,O)-AZOXYBENZENE
Structure: 303338325F5452414E532D2834272D43484C4F524F2D4E2C4E2C4F292D415A4F585942454E5A454E452E6D6F6C0A20204368656D447261773038323031303032323532440A2031362031372020302020302020302020302020302020302020302020303939392056323030300A2020202D332E303933382020202D302E3335373320202020302E303030302043202020302020302020302020302020302020302020302020302020302020302020302020300A2020202D322E3638313320202020302E3335373220202020302E303030302043202020302020302020302020302020302020302020302020302020302020302020302020300A2020202D312E3835363320202020302E3335373220202020302E303030302043202020302020302020302020302020302020302020302020302020302020302020302020300A2020202D312E343433372020202D302E3335373320202020302E303030302043202020302020302020302020302020302020302020302020302020302020302020302020300A2020202D312E383536332020202D312E3037313720202020302E303030302043202020302020302020302020302020302020302020302020302020302020302020302020300A2020202D322E363831332020202D312E3037313720202020302E303030302043202020302020302020302020302020302020302020302020302020302020302020302020300A2020202D302E363138372020202D302E3335373320202020302E30303030204E202020302020332020302020302020302020302020302020302020302020302020302020300A2020202D302E323036322020202D312E3037313720202020302E30303030204F202020302020352020302020302020302020302020302020302020302020302020302020300A2020202D302E3230363220202020302E3335373220202020302E30303030204E202020302020352020302020302020302020302020302020302020302020302020302020300A20202020302E3631383820202020302E3335373220202020302E303030302043202020302020302020302020302020302020302020302020302020302020302020302020300A20202020312E303331322020202D302E3335373220202020302E303030302043202020302020302020302020302020302020302020302020302020302020302020302020300A20202020312E383536332020202D302E3335373220202020302E303030302043202020302020302020302020302020302020302020302020302020302020302020302020300A20202020322E3236383820202020302E3335373220202020302E303030302043202020302020302020302020302020302020302020302020302020302020302020302020300A20202020312E3835363320202020312E3037313720202020302E303030302043202020302020302020302020302020302020302020302020302020302020302020302020300A20202020312E3033313220202020312E3037313720202020302E303030302043202020302020302020302020302020302020302020302020302020302020302020302020300A20202020332E3039333820202020302E3335373220202020302E3030303020436C2020302020302020302020302020302020302020302020302020302020302020302020300A2020312020322020312020302020202020200A2020322020332020322020302020202020200A2020332020342020312020302020202020200A2020342020352020322020302020202020200A2020352020362020312020302020202020200A2020312020362020322020302020202020200A2020372020382020342020302020202020200A2020372020392020342020302020202020200A2020342020372020312020302020202020200A2020392031302020312020302020202020200A2031302031312020322020302020202020200A2031312031322020312020302020202020200A2031322031332020322020302020202020200A2031332031342020312020302020202020200A2031342031352020322020302020202020200A2031352031302020312020302020202020200A2031332031362020312020302020202020200A4D202043484720203320202037202020312020203820202D312020203920202D310A4D2020454E44
Contributor: THE INSTITUTE OF SCIENTIFIC AND INDUSTRIALRESEARCH
InstType: EI
InstName: JEOL JMS-DX-300
IoniMethod: _ENERGY 70 eV
IonPolarity: pos
Date: 2010-10-09 19:48:36+02:00
Num Peaks: 55
27 17 36 16 38 20 39 5 50 70 51 240 52 20 62 3 63 97 64 62 
65 26 73 2 74 24 75 93 76 37 77 999 78 86 89 34 90 139 91 15 
92 20 98 18 99 115 100 2 101 38 104 14 105 145 106 1 107 50 111 93 
112 10 113 3 115 21 125 148 126 18 127 8 128 12 129 11 139 29 140 1 
141 61 152 14 155 16 167 1 168 45 169 61 203 49 205 2 216 46 218 15 
231 43 232 65 233 107 234 219 235 30 
