Name: MassBank: JP007527
MW: 271
Formula: C8H4Cl4O2
Synonym: MassBank: JP007527
Synonym: 2,3,4,5-TETRACHLOROPHENYL ACETATE
Structure: 322C332C342C352D544554524143484C4F524F5048454E594C20414345544154452E6D6F6C0A20204368656D447261773132323030393037353032440A2031342031342020302020302020302020302020302020302020302020303939392056323030300A20202020312E343238392020202D302E3832353020202020302E303030302043202020302020302020302020302020302020302020302020302020302020302020302020300A20202020322E313433342020202D312E3233373520202020302E303030302043202020302020302020302020302020302020302020302020302020302020302020302020300A20202020312E343238392020202D302E3030303020202020302E30303030204F202020302020302020302020302020302020302020302020302020302020302020302020300A20202020302E373134352020202D312E3233373520202020302E30303030204F202020302020302020302020302020302020302020302020302020302020302020302020300A2020202D302E303030302020202D302E3832353020202020302E303030302043202020302020302020302020302020302020302020302020302020302020302020302020300A2020202D302E303030302020202D302E3030303020202020302E303030302043202020302020302020302020302020302020302020302020302020302020302020302020300A2020202D302E3731343520202020302E3431323520202020302E303030302043202020302020302020302020302020302020302020302020302020302020302020302020300A2020202D312E343238392020202D302E3030303020202020302E303030302043202020302020302020302020302020302020302020302020302020302020302020302020300A2020202D312E343238392020202D302E3832353020202020302E303030302043202020302020302020302020302020302020302020302020302020302020302020302020300A2020202D302E373134352020202D312E3233373520202020302E303030302043202020302020302020302020302020302020302020302020302020302020302020302020300A2020202D322E313433342020202D312E3233373520202020302E3030303020436C2020302020302020302020302020302020302020302020302020302020302020302020300A2020202D322E3134333420202020302E3431323520202020302E3030303020436C2020302020302020302020302020302020302020302020302020302020302020302020300A2020202D302E3731343520202020312E3233373520202020302E3030303020436C2020302020302020302020302020302020302020302020302020302020302020302020300A20202020302E3731343520202020302E3431323520202020302E3030303020436C2020302020302020302020302020302020302020302020302020302020302020302020300A2020312020322020312020302020202020200A2020312020332020322020302020202020200A2020312020342020312020302020202020200A2020352020362020312020302020202020200A2020362020372020322020302020202020200A2020372020382020312020302020202020200A2020382020392020322020302020202020200A2020392031302020312020302020202020200A2020352031302020322020302020202020200A2020392031312020312020302020202020200A2020382031322020312020302020202020200A2020372031332020312020302020202020200A2020362031342020312020302020202020200A2020342020352020312020302020202020200A4D2020454E44
Contributor: KOGA M, UNIV. OF OCCUPATIONAL AND ENVIRONMENTAL HEALTH
InstType: EI
InstName: JEOL JMS-01-SG
IoniMethod: _ENERGY 70 eV
IonPolarity: pos
Date: 2010-10-09 19:48:36+02:00
Num Peaks: 59
35 15 37 18 41 14 42 5 43 999 44 35 47 20 49 2 60 50 61 107 
62 15 71 3 72 21 73 20 83 26 84 2 85 15 87 14 95 34 96 12 
97 31 98 43 106 18 107 5 108 37 109 28 117 15 119 1 130 20 131 181 
132 18 133 10 135 18 141 29 143 39 145 2 166 25 167 29 168 29 169 2 
194 34 196 21 198 28 201 6 203 98 205 42 230 496 231 4 232 688 233 32 
234 237 235 1 236 73 266 15 268 12 272 8 274 65 275 18 276 65 
