Name: 2-METHOXYETHANOL
MW: 76
Formula: C3H8O2
Synonym: MassBank: JP006154
Synonym: 2-METHOXYETHANOL
Structure: 310A31340A322D4D4554484F5859455448414E4F4C2E6D6F6C0A20204368656D447261773031323231303032323132440A2020352020342020302020302020302020302020302020302020302020303939392056323030300A20202020302E3731343520202020302E3230363320202020302E303030302043202020302020302020302020302020302020302020302020302020302020302020302020300A2020202D302E303030302020202D302E3230363320202020302E303030302043202020302020302020302020302020302020302020302020302020302020302020302020300A2020202D302E3731343520202020302E3230363320202020302E30303030204F202020302020302020302020302020302020302020302020302020302020302020302020300A2020202D312E343238392020202D302E3230363220202020302E303030302043202020302020302020302020302020302020302020302020302020302020302020302020300A20202020312E343238392020202D302E3230363320202020302E30303030204F202020302020302020302020302020302020302020302020302020302020302020302020300A2020312020322020312020302020202020200A2020332020342020312020302020202020200A2020322020332020312020302020202020200A2020312020352020312020302020202020200A4D2020454E44
Contributor: HASHIMOTO K, KYOTO COLLEGE OF PHARMACY
InstType: EI
InstName: HITACHI M-80
IoniMethod: _ENERGY 20 eV
IonPolarity: pos
Date: 2010-10-09 19:48:36+02:00
Num Peaks: 17
15 291 18 33 27 76 28 28 29 330 30 11 31 397 33 23 43 131 44 24 
45 999 46 86 47 164 58 57 59 47 76 67 77 11 
