Name: MassBank: JP004118
MW: 149
Formula: C9H11NO
Synonym: MassBank: JP004118
Synonym: N,N-DIMETHYLBENZAMIDE
Structure: 4E2C4E2D44494D455448594C42454E5A414D4944452E6D6F6C0A20204368656D447261773038313231303032333932440A2031312031312020302020302020302020302020302020302020302020303939392056323030300A20202020302E363138382020202D302E3335373220202020302E303030302043202020302020302020302020302020302020302020302020302020302020302020302020300A2020202D302E323036322020202D302E3335373220202020302E303030302043202020302020302020302020302020302020302020302020302020302020302020302020300A2020202D302E363138382020202D312E3037313720202020302E303030302043202020302020302020302020302020302020302020302020302020302020302020302020300A2020202D312E343433372020202D312E3037313720202020302E303030302043202020302020302020302020302020302020302020302020302020302020302020302020300A2020202D312E383536332020202D302E3335373220202020302E303030302043202020302020302020302020302020302020302020302020302020302020302020302020300A2020202D312E3434333820202020302E3335373220202020302E303030302043202020302020302020302020302020302020302020302020302020302020302020302020300A2020202D302E3631383720202020302E3335373220202020302E303030302043202020302020302020302020302020302020302020302020302020302020302020302020300A20202020312E303331332020202D312E3037313720202020302E30303030204F202020302020302020302020302020302020302020302020302020302020302020302020300A20202020312E3033313320202020302E3335373220202020302E30303030204E202020302020302020302020302020302020302020302020302020302020302020302020300A20202020302E3631383820202020312E3037313720202020302E303030302043202020302020302020302020302020302020302020302020302020302020302020302020300A20202020312E3835363320202020302E3335373220202020302E303030302043202020302020302020302020302020302020302020302020302020302020302020302020300A2020312020322020312020302020202020200A2020322020332020312020302020202020200A2020332020342020322020302020202020200A2020342020352020312020302020202020200A2020352020362020322020302020202020200A2020362020372020312020302020202020200A2020322020372020322020302020202020200A2020312020382020322020302020202020200A2020312020392020312020302020202020200A2020392031302020312020302020202020200A2020392031312020312020302020202020200A4D2020454E44
Contributor: YAMAMOTO M, DEP. CHEMISTRY, FAC. SCIENCE, NARA WOMEN'S UNIV.
InstType: EI
InstName: HITACHI M-68
IoniMethod: _ENERGY 70 eV
IonPolarity: pos
Date: 2010-10-09 19:48:36+02:00
Num Peaks: 30
14 31 15 46 18 186 28 404 29 17 36 18 38 15 39 2 40 11 41 16 
42 106 44 6 50 88 51 223 52 20 69 8 72 33 74 29 75 24 76 4 
77 672 78 51 91 15 105 999 106 92 119 22 131 31 148 43 149 270 150 28 
