Name: MassBank: JP004426
MW: 288
Formula: C15H16N2O4
Synonym: MassBank: JP004426
Synonym: ETHYL 2-METHYL-6-NITRO-1,7-TRIMETHYLENEINDOLE-3-CARBOXYLATE
Structure: 455448594C20322D4D455448594C2D362D4E4954524F2D312C372D5452494D455448594C454E45494E444F4C452D332D434152424F58594C4154452E6D6F6C0A20204368656D447261773038313131303138303832440A2032312032332020302020302020302020302020302020302020302020303939392056323030300A2020202D302E3231353320202020302E3834343820202020302E30303030204E202020302020302020302020302020302020302020302020302020302020302020302020300A20202020302E3533383420202020302E3530393220202020302E303030302043202020302020302020302020302020302020302020302020302020302020302020302020300A20202020302E343532312020202D302E3331313320202020302E303030302043202020302020302020302020302020302020302020302020302020302020302020302020300A2020202D302E333534392020202D302E3438323820202020302E303030302043202020302020302020302020302020302020302020302020302020302020302020302020300A2020202D302E373637342020202D312E3139373320202020302E303030302043202020302020302020302020302020302020302020302020302020302020302020302020300A2020202D312E353932342020202D312E3139373320202020302E303030302043202020302020302020302020302020302020302020302020302020302020302020302020300A2020202D322E303034392020202D302E3438323820202020302E303030302043202020302020302020302020302020302020302020302020302020302020302020302020300A2020202D312E3539323420202020302E3233313720202020302E303030302043202020302020302020302020302020302020302020302020302020302020302020302020300A2020202D302E3736373420202020302E3233313720202020302E303030302043202020302020302020302020302020302020302020302020302020302020302020302020300A20202020312E303635322020202D302E3836333320202020302E303030302043202020302020302020302020302020302020302020302020302020302020302020302020300A20202020302E383531372020202D312E3636303220202020302E30303030204F202020302020302020302020302020302020302020302020302020302020302020302020300A20202020312E383632312020202D302E3634393820202020302E30303030204F202020302020302020302020302020302020302020302020302020302020302020302020300A2020202D302E3538303220202020312E3538343720202020302E303030302043202020302020302020302020302020302020302020302020302020302020302020302020300A2020202D312E3430313720202020312E3636303220202020302E303030302043202020302020302020302020302020302020302020302020302020302020302020302020300A2020202D312E3839353420202020302E3939393120202020302E303030302043202020302020302020302020302020302020302020302020302020302020302020302020300A2020202D322E383239392020202D302E3438323820202020302E30303030204E202020302020332020302020302020302020302020302020302020302020302020302020300A2020202D332E3234323420202020302E3233313720202020302E30303030204F202020302020302020302020302020302020302020302020302020302020302020302020300A2020202D332E323432342020202D312E3139373320202020302E30303030204F202020302020352020302020302020302020302020302020302020302020302020302020300A20202020312E3235323820202020302E3932313720202020302E303030302043202020302020302020302020302020302020302020302020302020302020302020302020300A20202020322E343435352020202D312E3233333120202020302E303030302043202020302020302020302020302020302020302020302020302020302020302020302020300A20202020332E323432342020202D312E3031393620202020302E303030302043202020302020302020302020302020302020302020302020302020302020302020302020300A2020312020322020312020302020202020200A2020322020332020322020302020202020200A2020332020342020312020302020202020200A2020342020352020312020302020202020200A2020352020362020322020302020202020200A2020362020372020312020302020202020200A2020372020382020322020302020202020200A2020382020392020312020302020202020200A2020312020392020312020302020202020200A2020342020392020322020302020202020200A2031302031312020322020302020202020200A2031302031322020312020302020202020200A2020332031302020312020302020202020200A2031332031342020312020302020202020200A2031342031352020312020302020202020200A2020312031332020312020302020202020200A2020382031352020312020302020202020200A2031362031372020322020302020202020200A2031362031382020312020302020202020200A2020372031362020312020302020202020200A2020322031392020312020302020202020200A2032302032312020312020302020202020200A2031322032302020312020302020202020200A4D202043484720203220203136202020312020313820202D310A4D2020454E44
Contributor: SASAKI S, TOYOHASHI UNIV. OF TECH.
InstType: EI
InstName: MX-1303
IoniMethod: _ENERGY 50 eV
IonPolarity: pos
Date: 2010-10-09 19:48:36+02:00
Num Peaks: 100
41 138 42 27 43 262 44 6 45 30 54 18 55 207 56 4 57 241 63 14 
67 48 68 3 69 169 70 33 71 110 73 4 77 25 81 61 82 36 83 11 
84 52 65 52 87 11 89 1 91 14 93 11 95 45 96 3 97 80 98 57 
99 18 101 1 109 20 110 14 111 30 112 1 114 22 115 63 116 18 117 1 
123 15 125 13 127 37 128 3 129 31 130 14 139 25 140 5 141 50 143 17 
152 11 153 2 154 45 155 20 156 25 157 4 158 14 167 128 168 207 169 8 
170 60 171 29 182 11 183 2 184 80 185 45 186 32 187 3 196 134 197 107 
198 67 199 4 201 23 211 17 212 53 213 20 214 90 215 17 216 67 217 2 
225 32 226 18 227 23 228 1 229 44 230 21 231 11 239 1 241 276 242 190 
243 259 244 7 257 17 258 63 259 262 260 4 271 386 272 54 288 999 289 193 
