Name: MassBank: JP002677
MW: 389
Formula: C20H47NO2Si2
Synonym: MassBank: JP002677
Synonym: 1,3-DI-O-TRIMETHYLSILYL TETRADECASPHINGANINE
Structure: 312C332D44492D4F2D5452494D455448594C53494C594C20544554524144454341535048494E47414E494E452E6D6F6C0A20204368656D447261773131313130393231303532440A2032372032362020302020302020302020302020302020302020302020303939392056323030300A2020202D332E3234343720202020302E3438323520202020302E303030302053692020302020302020302020302020302020302020302020302020302020302020302020300A2020202D332E323434372020202D302E3334323420202020302E30303030204F202020302020302020302020302020302020302020302020302020302020302020302020300A2020202D332E3234343720202020312E3330373520202020302E303030302043202020302020302020302020302020302020302020302020302020302020302020302020300A2020202D322E3431393720202020302E3438323520202020302E303030302043202020302020302020302020302020302020302020302020302020302020302020302020300A2020202D342E3036393620202020302E3438323520202020302E303030302043202020302020302020302020302020302020302020302020302020302020302020302020300A2020202D322E353330322020202D302E3735343920202020302E303030302043202020302020302020302020302020302020302020302020302020302020302020302020300A2020202D312E383135372020202D312E3136373420202020302E303030302043202020302020302020302020302020302020302020302020302020302020302020302020300A2020202D322E313137372020202D302E3034303520202020302E303030302043202020302020302020302020302020302020302020302020302020302020302020302020300A2020202D322E393432372020202D312E3436393420202020302E303030302048202020302020302020302020302020302020302020302020302020302020302020302020300A2020202D312E313031332020202D312E3537393920202020302E303030302043202020302020302020302020302020302020302020302020302020302020302020302020300A2020202D312E343033322020202D302E3435323920202020302E303030302048202020302020302020302020302020302020302020302020302020302020302020302020300A2020202D322E323238322020202D312E3838313920202020302E30303030204E202020302020302020302020302020302020302020302020302020302020302020302020300A2020202D312E323932372020202D302E3034303520202020302E303030302043202020302020302020302020302020302020302020302020302020302020302020302020300A2020202D302E3838303220202020302E3637343020202020302E303030302043202020302020302020302020302020302020302020302020302020302020302020302020300A2020202D302E3035353320202020302E3637343020202020302E303030302043202020302020302020302020302020302020302020302020302020302020302020302020300A20202020302E3335373220202020312E3338383420202020302E303030302043202020302020302020302020302020302020302020302020302020302020302020302020300A20202020312E3138323220202020312E3338383420202020302E303030302043202020302020302020302020302020302020302020302020302020302020302020302020300A20202020312E3539343720202020322E3130323920202020302E303030302043202020302020302020302020302020302020302020302020302020302020302020302020300A20202020322E3431393720202020322E3130323920202020302E303030302043202020302020302020302020302020302020302020302020302020302020302020302020300A20202020322E3833323220202020322E3831373420202020302E303030302043202020302020302020302020302020302020302020302020302020302020302020302020300A2020202D312E313031332020202D322E3430343920202020302E30303030204F202020302020302020302020302020302020302020302020302020302020302020302020300A2020202D302E333836392020202D322E3831373420202020302E303030302053692020302020302020302020302020302020302020302020302020302020302020302020300A20202020302E333237362020202D332E3232393920202020302E303030302043202020302020302020302020302020302020302020302020302020302020302020302020300A20202020302E303235362020202D322E3130323920202020302E303030302043202020302020302020302020302020302020302020302020302020302020302020302020300A2020202D302E373939332020202D332E3533313820202020302E303030302043202020302020302020302020302020302020302020302020302020302020302020302020300A20202020332E3635373220202020322E3831373420202020302E303030302043202020302020302020302020302020302020302020302020302020302020302020302020300A20202020342E3036393620202020332E3533313820202020302E303030302043202020302020302020302020302020302020302020302020302020302020302020302020300A2020312020322020312020302020202020200A2020312020332020312020302020202020200A2020312020342020312020302020202020200A2020312020352020312020302020202020200A2020322020362020312020302020202020200A2020362020372020312020302020202020200A2020362020382020312020312020202020200A2020362020392020312020312020202020200A2020372031302020312020302020202020200A2020372031312020312020312020202020200A2020372031322020312020312020202020200A2020382031332020312020302020202020200A2031332031342020312020302020202020200A2031342031352020312020302020202020200A2031352031362020312020302020202020200A2031362031372020312020302020202020200A2031372031382020312020302020202020200A2031382031392020312020302020202020200A2031392032302020312020302020202020200A2031302032312020312020302020202020200A2032312032322020312020302020202020200A2032322032332020312020302020202020200A2032322032342020312020312020202020200A2032322032352020312020312020202020200A2032302032362020312020302020202020200A2032362032372020312020302020202020200A4D2020454E44
Contributor: HAYASHI A, DEPT. OF CHEMISTRY, FAC. OF SCI. AND TECHNOLOGY, KINKI UNIV.
InstType: EI
InstName: SHIMADZU LKB-9000B
IoniMethod: _ENERGY 23 eV
IonPolarity: pos
Date: 2010-10-09 19:48:36+02:00
Num Peaks: 57
43 5 55 5 56 5 57 7 67 3 68 5 69 12 70 1 71 4 73 23 
74 3 75 5 76 4 81 4 82 8 83 0 84 3 85 1 87 3 91 0 
93 3 95 4 96 4 97 1 102 4 103 14 108 3 111 1 116 59 117 5 
129 15 130 0 131 73 132 999 133 110 134 4 135 3 147 9 184 3 196 1 
210 5 217 6 219 3 234 1 256 3 257 36 258 9 269 0 270 7 284 13 
285 8 286 24 287 55 288 15 345 7 374 1 375 3 
