Name: MassBank: JP004864
MW: 220
Formula: C15H24O
Synonym: MassBank: JP004864
Synonym: 1-ISOBUTYL-4,9-DIMETHYLBICYCLO(3.2.2)NON-6-EN-2-ONE
Structure: 312D49534F425554594C2D342C392D44494D455448594C42494359434C4F28332E322E32294E4F4E2D362D454E2D322D4F4E452E6D6F6C0A20204368656D447261773131313930393135343632440A2031382031392020302020302020302020302020302020302020302020303939392056323030300A20202020302E3038333020202020302E3234383420202020302E303030302043202020302020302020302020302020302020302020302020302020302020302020302020300A20202020312E3031303820202020302E3234383420202020302E303030302043202020302020302020302020302020302020302020302020302020302020302020302020300A20202020312E343830352020202D302E3536353220202020302E303030302043202020302020302020302020302020302020302020302020302020302020302020302020300A20202020312E303038342020202D312E3338333020202020302E303030302043202020302020302020302020302020302020302020302020302020302020302020302020300A20202020302E303731352020202D312E3338333020202020302E303030302043202020302020302020302020302020302020302020302020302020302020302020302020300A20202020302E373833352020202D302E3937313920202020302E303030302043202020302020302020302020302020302020302020302020302020302020302020302020300A20202020302E373833352020202D302E3135363220202020302E303030302043202020302020302020302020302020302020302020302020302020302020302020302020300A2020202D302E363236302020202D302E3136303920202020302E303030302043202020302020302020302020302020302020302020302020302020302020302020302020300A2020202D302E363236302020202D302E3937313120202020302E303030302043202020302020302020302020302020302020302020302020302020302020302020302020300A20202020312E3431373820202020302E3935333320202020302E30303030204F202020302020302020302020302020302020302020302020302020302020302020302020300A2020202D312E333531312020202D312E3338393820202020302E303030302043202020302020302020302020302020302020302020302020302020302020302020302020300A20202020312E343136342020202D322E3038393720202020302E303030302043202020302020302020302020302020302020302020302020302020302020302020302020300A2020202D302E3131363620202020312E3036313820202020302E303030302043202020302020302020302020302020302020302020302020302020302020302020302020300A2020202D302E3931343720202020312E3239343420202020302E303030302043202020302020302020302020302020302020302020302020302020302020302020302020300A2020202D312E3439383020202020302E3731313020202020302E303030302043202020302020302020302020302020302020302020302020302020302020302020302020300A2020202D312E3130393220202020322E3038393720202020302E303030302043202020302020302020302020302020302020302020302020302020302020302020302020300A20202020312E3439383020202020302E3235363320202020302E303030302048202020302020302020302020302020302020302020302020302020302020302020302020300A20202020312E343938302020202D312E3338343420202020302E303030302048202020302020302020302020302020302020302020302020302020302020302020302020300A2020312020322020312020302020202020200A2020322020332020312020302020202020200A2020332020342020312020302020202020200A2020342020352020312020302020202020200A2020352020362020312020302020202020200A2020362020372020322020302020202020200A2020382020392020312020302020202020200A2020312020372020312020302020202020200A2020312020382020312020302020202020200A2020352020392020312020302020202020200A2020322031302020322020302020202020200A2020392031312020312020302020202020200A2020342031322020312020302020202020200A2031332031342020312020302020202020200A2031342031352020312020302020202020200A2031342031362020312020302020202020200A2020312031332020312020302020202020200A2020372031372020312020302020202020200A2020362031382020312020302020202020200A4D2020454E44
Contributor: KATO T, DEPT. OF CHEM., FAC. OF SCI., TOHOKU UNIV.
InstType: EI
InstName: Unknown
IoniMethod: _ENERGY 14 eV
IonPolarity: pos
Date: 2010-10-09 19:48:36+02:00
Num Peaks: 33
57 293 72 197 92 64 93 15 94 80 106 53 107 122 119 17 120 82 131 64 
133 77 134 6 135 90 145 149 146 82 148 28 149 984 150 362 151 61 159 10 
160 51 161 162 162 64 163 14 175 431 176 202 177 427 178 11 187 136 202 102 
205 65 220 999 221 187 
