Name: 3-METHYL-1-PHENYLPYRAZOLE
MW: 158
Formula: C10H10N2
Synonym: MassBank: JP002024
Synonym: 3-METHYL-1-PHENYLPYRAZOLE
Structure: 332D4D455448594C2D312D5048454E594C505952415A4F4C452E6D6F6C0A20204368656D447261773033313931303232333332440A2031322031332020302020302020302020302020302020302020302020303939392056323030300A2020202D302E3236393020202020302E3039313520202020302E30303030204E202020302020302020302020302020302020302020302020302020302020302020302020300A2020202D302E373533392020202D302E3537363020202020302E30303030204E202020302020302020302020302020302020302020302020302020302020302020302020300A2020202D312E353338362020202D302E3332313020202020302E303030302043202020302020302020302020302020302020302020302020302020302020302020302020300A2020202D312E3533383620202020302E3530343020202020302E303030302043202020302020302020302020302020302020302020302020302020302020302020302020300A2020202D302E3735333920202020302E3735383920202020302E303030302043202020302020302020302020302020302020302020302020302020302020302020302020300A20202020302E3535363020202020302E3039313520202020302E303030302043202020302020302020302020302020302020302020302020302020302020302020302020300A20202020302E3936383520202020302E3830353920202020302E303030302043202020302020302020302020302020302020302020302020302020302020302020302020300A20202020312E3739333520202020302E3830353920202020302E303030302043202020302020302020302020302020302020302020302020302020302020302020302020300A20202020322E3230363020202020302E3039313520202020302E303030302043202020302020302020302020302020302020302020302020302020302020302020302020300A20202020312E373933352020202D302E3632333020202020302E303030302043202020302020302020302020302020302020302020302020302020302020302020302020300A20202020302E393638352020202D302E3632333020202020302E303030302043202020302020302020302020302020302020302020302020302020302020302020302020300A2020202D322E323036302020202D302E3830353920202020302E303030302043202020302020302020302020302020302020302020302020302020302020302020302020300A2020312020322020312020302020202020200A2020322020332020322020302020202020200A2020332020342020312020302020202020200A2020342020352020322020302020202020200A2020312020352020312020302020202020200A2020362020372020312020302020202020200A2020372020382020322020302020202020200A2020382020392020312020302020202020200A2020392031302020322020302020202020200A2031302031312020312020302020202020200A2020362031312020322020302020202020200A2020312020362020312020302020202020200A2020332031322020312020302020202020200A4D2020454E44
Contributor: SASAKI S, TOYOHASHI UNIV. OF TECH.
InstType: EI
InstName: MX-1303
IoniMethod: _ENERGY 50 eV
IonPolarity: pos
Date: 2010-10-09 19:48:36+02:00
Num Peaks: 54
26 41 27 133 28 70 37 1 38 53 39 170 40 42 41 5 42 72 50 108 
51 483 52 10 53 44 54 53 55 66 62 2 63 98 64 92 65 76 66 4 
67 13 74 21 75 27 76 4 77 653 78 94 79 41 81 6 88 12 89 125 
90 204 91 7 92 11 93 13 102 15 103 4 104 76 105 15 115 36 116 9 
117 104 118 40 128 21 129 4 130 300 131 55 132 32 142 4 143 46 155 18 
156 49 157 55 158 999 159 120 
