Name: PENTAKIS(TRIMETHYLSILYL)-METHYL-6-PHOSPHOMANNOSIDE
MW: 634
Formula: C22H55O9PSi5
Synonym: MassBank: JP000978
Synonym: PENTAKIS(TRIMETHYLSILYL)-METHYL-6-PHOSPHOMANNOSIDE
Structure: 303934355F50454E54414B4953285452494D455448594C53494C594C292D4D455448594C2D362D50484F5350484F4D414E4E4F534944452E6D6F6C0A20204368656D447261773038323031303131353532440A2033382033382020302020302020302020302020302020302020302020303939392056323030300A20202020302E333832372020202D302E3337323920202020302E303030302043202020302020302020302020302020302020302020302020302020302020302020302020300A2020202D302E3034383020202020302E3235353220202020302E303030302043202020302020302020302020302020302020302020302020302020302020302020302020300A2020202D302E343630352020202D302E3435393320202020302E303030302043202020302020302020302020302020302020302020302020302020302020302020302020300A2020202D302E3337303320202020302E3234333920202020302E30303030204F202020302020302020302020302020302020302020302020302020302020302020302020300A2020202D312E323835352020202D302E3435393320202020302E303030302043202020302020302020302020302020302020302020302020302020302020302020302020300A2020202D312E363938302020202D312E3137333820202020302E30303030204F202020302020302020302020302020302020302020302020302020302020302020302020300A2020202D312E3639383020202020302E3235353120202020302E303030302043202020302020302020302020302020302020302020302020302020302020302020302020300A2020202D322E333039302020202D302E3535353020202020302E30303030204F202020302020302020302020302020302020302020302020302020302020302020302020300A2020202D312E3238353520202020302E3936393620202020302E303030302043202020302020302020302020302020302020302020302020302020302020302020302020300A2020202D302E3436303520202020302E3936393620202020302E30303030204F202020302020302020302020302020302020302020302020302020302020302020302020300A2020202D312E3639383020202020312E3638343120202020302E30303030204F202020302020302020302020302020302020302020302020302020302020302020302020300A20202020302E3238393720202020312E3031323520202020302E303030302053692020302020302020302020302020302020302020302020302020302020302020302020300A2020202D302E3130333220202020312E3733323420202020302E303030302043202020302020302020302020302020302020302020302020302020302020302020302020300A20202020302E3934323620202020302E3530383120202020302E303030302043202020302020302020302020302020302020302020302020302020302020302020302020300A20202020302E3933353820202020312E3532353520202020302E303030302043202020302020302020302020302020302020302020302020302020302020302020302020300A2020202D332E313133342020202D302E3631363920202020302E303030302053692020302020302020302020302020302020302020302020302020302020302020302020300A2020202D332E393139322020202D302E3739333820202020302E303030302043202020302020302020302020302020302020302020302020302020302020302020302020300A2020202D332E323836322020202D312E3432333620202020302E303030302043202020302020302020302020302020302020302020302020302020302020302020302020300A2020202D332E3435373820202020302E3133323820202020302E303030302043202020302020302020302020302020302020302020302020302020302020302020302020300A2020202D312E393337382020202D312E3837353020202020302E303030302053692020302020302020302020302020302020302020302020302020302020302020302020300A2020202D322E343837322020202D322E3439303420202020302E303030302043202020302020302020302020302020302020302020302020302020302020302020302020300A2020202D312E343039362020202D322E3530383820202020302E303030302043202020302020302020302020302020302020302020302020302020302020302020302020300A2020202D322E373230342020202D312E3631343120202020302E303030302043202020302020302020302020302020302020302020302020302020302020302020302020300A20202020312E3134323320202020302E3031393020202020302E30303030204F202020302020302020302020302020302020302020302020302020302020302020302020300A20202020312E3936373220202020302E3031383920202020302E303030302050202020302020302020302020302020302020302020302020302020302020302020302020300A20202020312E393637322020202D302E3830363120202020302E30303030204F202020302020302020302020302020302020302020302020302020302020302020302020300A20202020322E3739323220202020302E3031383920202020302E30303030204F202020302020302020302020302020302020302020302020302020302020302020302020300A20202020312E3936373220202020302E3834343020202020302E30303030204F202020302020302020302020302020302020302020302020302020302020302020302020300A20202020332E323034372020202D302E3639353520202020302E303030302053692020302020302020302020302020302020302020302020302020302020302020302020300A20202020332E393139322020202D302E3238333020202020302E303030302043202020302020302020302020302020302020302020302020302020302020302020302020300A20202020322E343930332020202D312E3130383020202020302E303030302043202020302020302020302020302020302020302020302020302020302020302020302020300A20202020332E363137322020202D312E3431303020202020302E303030302043202020302020302020302020302020302020302020302020302020302020302020302020300A20202020322E3638313720202020312E3235363520202020302E303030302053692020302020302020302020302020302020302020302020302020302020302020302020300A20202020322E3236393220202020312E3937303920202020302E303030302043202020302020302020302020302020302020302020302020302020302020302020302020300A20202020332E3339363120202020312E3636393020202020302E303030302043202020302020302020302020302020302020302020302020302020302020302020302020300A20202020332E3039343220202020302E3534323020202020302E303030302043202020302020302020302020302020302020302020302020302020302020302020302020300A2020202D312E3637353520202020322E3530383820202020302E303030302043202020302020302020302020302020302020302020302020302020302020302020302020300A2020202D322E3338353820202020302E3731303620202020302E303030302048202020302020302020302020302020302020302020302020302020302020302020302020300A2020312020322020312020302020202020200A2020322020332020312020302020202020200A2020332020342020312020302020202020200A2020332020352020312020302020202020200A2020352020362020312020302020202020200A2020352020372020312020302020202020200A2020372020382020312020302020202020200A2020372020392020312020302020202020200A2020392031302020312020302020202020200A2020392031312020312020302020202020200A2020322031302020312020302020202020200A2031322031332020312020302020202020200A2031322031342020312020302020202020200A2031322031352020312020302020202020200A2020342031322020312020302020202020200A2020382031362020312020302020202020200A2031362031372020312020302020202020200A2031362031382020312020302020202020200A2031362031392020312020302020202020200A2020362032302020312020302020202020200A2032302032312020312020302020202020200A2032302032322020312020302020202020200A2032302032332020312020302020202020200A2032352032362020322020302020202020200A2032352032372020312020302020202020200A2032352032382020312020302020202020200A2032342032352020312020302020202020200A2032392033302020312020302020202020200A2032392033312020312020302020202020200A2032392033322020312020302020202020200A2032372032392020312020302020202020200A2033332033342020312020302020202020200A2033332033352020312020302020202020200A2033332033362020312020302020202020200A2032382033332020312020302020202020200A2020312032342020312020302020202020200A2031312033372020312020302020202020200A2020372033382020312020302020202020200A4D2020454E44
Contributor: HORI T, DEPT. OF CHEMISTRY, FAC. OF LIBERAL ARTS AND EDUCATION, SHIGA UNIV.
InstType: EI
InstName: SHIMADZU LKB-9000
IoniMethod: _ENERGY 70 eV
IonPolarity: pos
Date: 2010-10-09 19:48:36+02:00
Num Peaks: 13
73 999 129 300 147 200 204 500 217 150 287 50 299 250 315 150 357 50 370 150 
387 250 529 10 619 30 
