Name: MassBank: JP004763
MW: 196
Formula: C11H16O3
Synonym: MassBank: JP004763
Synonym: 3,5,5-TRIMETHYL-2-METHOXYCARBONYL-2-CYCLOHEXENONE
Structure: 332C352C352D5452494D455448594C2D322D4D4554484F5859434152424F4E594C2D322D4359434C4F484558454E4F4E452E6D6F6C0A20204368656D447261773032323231303030323532440A2031342031342020302020302020302020302020302020302020302020303939392056323030300A20202020302E3130393720202020302E3731343520202020302E303030302043202020302020302020302020302020302020302020302020302020302020302020302020300A20202020302E353232322020202D302E3030303020202020302E303030302043202020302020302020302020302020302020302020302020302020302020302020302020300A20202020302E313039372020202D302E3731343520202020302E303030302043202020302020302020302020302020302020302020302020302020302020302020302020300A2020202D302E373135332020202D302E3731343520202020302E303030302043202020302020302020302020302020302020302020302020302020302020302020302020300A2020202D312E3132373820202020302E3030303020202020302E303030302043202020302020302020302020302020302020302020302020302020302020302020302020300A2020202D302E3731353320202020302E3731343520202020302E303030302043202020302020302020302020302020302020302020302020302020302020302020302020300A20202020312E333437322020202D302E3030303020202020302E303030302043202020302020302020302020302020302020302020302020302020302020302020302020300A20202020312E373539372020202D302E3731343520202020302E30303030204F202020302020302020302020302020302020302020302020302020302020302020302020300A20202020312E3735393720202020302E3731343520202020302E30303030204F202020302020302020302020302020302020302020302020302020302020302020302020300A20202020312E3334373220202020312E3432383920202020302E303030302043202020302020302020302020302020302020302020302020302020302020302020302020300A2020202D312E373539372020202D302E3533303320202020302E303030302043202020302020302020302020302020302020302020302020302020302020302020302020300A2020202D312E3735393720202020302E3533303320202020302E303030302043202020302020302020302020302020302020302020302020302020302020302020302020300A20202020302E353232322020202D312E3432383920202020302E303030302043202020302020302020302020302020302020302020302020302020302020302020302020300A20202020302E3532323220202020312E3432383920202020302E30303030204F202020302020302020302020302020302020302020302020302020302020302020302020300A2020312020322020312020302020202020200A2020322020332020322020302020202020200A2020332020342020312020302020202020200A2020342020352020312020302020202020200A2020352020362020312020302020202020200A2020312020362020312020302020202020200A2020372020382020322020302020202020200A2020392031302020312020302020202020200A2020372020392020312020302020202020200A2020322020372020312020302020202020200A2020352031312020312020362020202020200A2020352031322020312020312020202020200A2020332031332020312020302020202020200A2020312031342020322020302020202020200A4D2020454E44
Contributor: MASS SPECTROSCOPY SOC. OF JAPAN (MSSJ)
InstType: EI
InstName: JEOL JMS-D-3000
IoniMethod: _ENERGY 70 eV
IonPolarity: pos
Date: 2010-10-09 19:48:36+02:00
Num Peaks: 32
41 263 43 48 51 62 53 203 54 132 55 152 59 86 65 47 66 55 67 250 
77 112 79 88 81 84 82 931 83 261 91 68 93 101 95 77 96 55 108 73 
109 181 112 999 113 75 121 74 123 51 138 59 140 437 149 196 164 686 165 331 
196 323 197 42 
