Name: 2-METHYL-3-(4-T-BUTYLPHENYL)PROPIONALDEHYDE
MW: 204
Formula: C14H20O
Synonym: MassBank: JP008717
Synonym: 2-METHYL-3-(4-T-BUTYLPHENYL)PROPIONALDEHYDE
Synonym: LILY ALDEHYDE
Structure: 322D4D455448594C2D332D28342D542D425554594C5048454E594C2950524F50494F4E414C4445485944452E6D6F6C0A20204368656D447261773031323231303033333432440A2031352031352020302020302020302020302020302020302020302020303939392056323030300A20202020312E3434333720202020312E3132373020202020302E303030302043202020302020302020302020302020302020302020302020302020302020302020302020300A20202020312E3835363320202020302E3431323520202020302E303030302043202020302020302020302020302020302020302020302020302020302020302020302020300A20202020312E343433372020202D302E3330323020202020302E303030302043202020302020302020302020302020302020302020302020302020302020302020302020300A20202020302E3631383720202020312E3132373020202020302E30303030204F202020302020302020302020302020302020302020302020302020302020302020302020300A20202020302E363138382020202D302E3330323020202020302E303030302043202020302020302020302020302020302020302020302020302020302020302020302020300A20202020302E323036332020202D312E3031363420202020302E303030302043202020302020302020302020302020302020302020302020302020302020302020302020300A2020202D302E363138372020202D312E3031363420202020302E303030302043202020302020302020302020302020302020302020302020302020302020302020302020300A2020202D312E303331332020202D302E3330323020202020302E303030302043202020302020302020302020302020302020302020302020302020302020302020302020300A2020202D302E3631383820202020302E3431323520202020302E303030302043202020302020302020302020302020302020302020302020302020302020302020302020300A20202020302E3230363320202020302E3431323520202020302E303030302043202020302020302020302020302020302020302020302020302020302020302020302020300A2020202D312E383536322020202D302E3330323020202020302E303030302043202020302020302020302020302020302020302020302020302020302020302020302020300A2020202D312E383536322020202D312E3132373020202020302E303030302043202020302020302020302020302020302020302020302020302020302020302020302020300A2020202D322E363831322020202D302E3330323020202020302E303030302043202020302020302020302020302020302020302020302020302020302020302020302020300A2020202D312E3835363220202020302E3532333020202020302E303030302043202020302020302020302020302020302020302020302020302020302020302020302020300A20202020322E3638313220202020302E3431323520202020302E303030302043202020302020302020302020302020302020302020302020302020302020302020302020300A2020312020322020312020302020202020200A2020322020332020312020302020202020200A2020312020342020322020302020202020200A2020352020362020312020302020202020200A2020362020372020322020302020202020200A2020372020382020312020302020202020200A2020382020392020322020302020202020200A2020392031302020312020302020202020200A2020352031302020322020302020202020200A2031312031322020312020302020202020200A2031312031342020312020302020202020200A2031312031332020312020302020202020200A2020382031312020312020302020202020200A2020332020352020312020302020202020200A2020322031352020312020302020202020200A4D2020454E44
Contributor: SODA AROMATIC CO., LTD.
InstType: EI
InstName: HITACHI M-80B
IoniMethod: _ENERGY 70 eV
IonPolarity: pos
Date: 2010-10-09 19:48:36+02:00
Num Peaks: 52
27 42 29 90 39 55 41 168 43 28 51 29 52 10 53 23 55 25 57 142 
63 22 64 19 65 50 66 10 77 50 78 26 79 24 89 23 90 11 91 257 
92 37 102 13 103 30 104 32 105 90 107 10 115 129 116 45 117 248 118 28 
119 162 120 18 127 19 128 46 129 40 130 51 131 300 132 178 133 31 134 11 
143 10 145 87 146 19 147 412 148 79 159 13 161 22 187 16 189 999 190 143 
204 232 205 31 
