Name: TRIFLUOROACETIC ACID
MW: 113
Formula: C2HF3O2
Synonym: MassBank: JP009401
Synonym: TRIFLUOROACETIC ACID
Structure: 310A31380A545249464C554F524F41434554494320414349442E6D6F6C0A20204368656D447261773038313231303038333632440A2020372020362020302020302020302020302020302020302020302020303939392056323030300A20202020302E3030303020202020302E3631383720202020302E303030302043202020302020302020302020302020302020302020302020302020302020302020302020300A20202020302E303030302020202D302E3230363320202020302E303030302043202020302020302020302020302020302020302020302020302020302020302020302020300A20202020302E3731343520202020312E3033313320202020302E30303030204F202020302020302020302020302020302020302020302020302020302020302020302020300A2020202D302E3731343520202020312E3033313320202020302E30303030204F202020302020302020302020302020302020302020302020302020302020302020302020300A20202020302E383235302020202D302E3230363320202020302E303030302046202020302020302020302020302020302020302020302020302020302020302020302020300A20202020302E303030302020202D312E3033313320202020302E303030302046202020302020302020302020302020302020302020302020302020302020302020302020300A2020202D302E383235302020202D302E3230363320202020302E303030302046202020302020302020302020302020302020302020302020302020302020302020302020300A2020312020322020312020302020202020200A2020312020332020322020302020202020200A2020312020342020312020302020202020200A2020322020352020312020302020202020200A2020322020362020312020302020202020200A2020322020372020312020302020202020200A4D2020454E44
Contributor: GUNMA COLLEGE OF TECHNOLOGY
InstType: EI
InstName: HITACHI M-80A
IoniMethod: _ENERGY 70 eV
IonPolarity: pos
Date: 2010-10-09 19:48:36+02:00
Num Peaks: 18
17 30 18 34 29 69 31 132 44 51 45 999 46 12 47 24 50 218 51 433 
67 11 69 739 70 26 78 22 86 17 95 64 97 40 114 11 
