Name: 3-METHYLPYRIDINE
MW: 93
Formula: C6H7N
Synonym: MassBank: JP003928
Synonym: 3-METHYLPYRIDINE
Structure: 310A31390A332D4D455448594C5059524944494E452E6D6F6C0A20204368656D447261773033323031303137323832440A2020372020372020302020302020302020302020302020302020302020303939392056323030300A2020202D302E3030303020202020302E3731343520202020302E303030302043202020302020302020302020302020302020302020302020302020302020302020302020300A2020202D302E343132352020202D302E3030303020202020302E303030302043202020302020302020302020302020302020302020302020302020302020302020302020300A2020202D302E303030302020202D302E3731343520202020302E303030302043202020302020302020302020302020302020302020302020302020302020302020302020300A20202020302E383235302020202D302E3731343520202020302E303030302043202020302020302020302020302020302020302020302020302020302020302020302020300A20202020312E3233373520202020302E3030303020202020302E303030302043202020302020302020302020302020302020302020302020302020302020302020302020300A20202020302E3832353020202020302E3731343520202020302E30303030204E202020302020302020302020302020302020302020302020302020302020302020302020300A2020202D312E323337352020202D302E3030303020202020302E303030302043202020302020302020302020302020302020302020302020302020302020302020302020300A2020312020322020312020302020202020200A2020322020332020322020302020202020200A2020332020342020312020302020202020200A2020342020352020322020302020202020200A2020352020362020312020302020202020200A2020312020362020322020302020202020200A2020322020372020312020302020202020200A4D2020454E44
Contributor: MASS SPECTROSCOPY SOC. OF JAPAN (MSSJ)
InstType: EI
InstName: Unknown
IoniMethod: EI
IonPolarity: pos
Date: 2010-10-09 19:48:36+02:00
Num Peaks: 29
25 21 26 81 27 87 28 8 31 17 36 28 37 90 38 17 39 513 40 189 
41 31 49 3 50 71 51 89 52 41 53 3 54 43 61 37 62 60 63 12 
64 60 65 285 66 429 78 4 91 29 92 323 93 999 94 8 107 20 
