Name: DIETHYLENE GLYCOL DIPELARGONATE
MW: 386
Formula: C22H42O5
Synonym: MassBank: JP003349
Synonym: DIETHYLENE GLYCOL DIPELARGONATE
Structure: 4449455448594C454E4520474C59434F4C20444950454C4152474F4E4154452E6D6F6C0A20204368656D447261773039323131303230313732440A2032372032362020302020302020302020302020302020302020302020303939392056323030300A2020202D312E3635303020202020322E3134333420202020302E303030302043202020302020302020302020302020302020302020302020302020302020302020302020300A2020202D322E3036323520202020312E3432383920202020302E303030302043202020302020302020302020302020302020302020302020302020302020302020302020300A2020202D312E3635303020202020302E3731343520202020302E30303030204F202020302020302020302020302020302020302020302020302020302020302020302020300A2020202D322E303632352020202D302E3030303020202020302E303030302043202020302020302020302020302020302020302020302020302020302020302020302020300A2020202D312E363530302020202D302E3731343520202020302E303030302043202020302020302020302020302020302020302020302020302020302020302020302020300A2020202D312E3635303020202020332E3537323420202020302E303030302043202020302020302020302020302020302020302020302020302020302020302020302020300A2020202D322E3036323520202020342E3238363820202020302E303030302043202020302020302020302020302020302020302020302020302020302020302020302020300A2020202D312E3635303020202020352E3030313320202020302E303030302043202020302020302020302020302020302020302020302020302020302020302020302020300A2020202D302E3832353020202020352E3030313320202020302E303030302043202020302020302020302020302020302020302020302020302020302020302020302020300A2020202D302E3431323520202020352E3731353820202020302E303030302043202020302020302020302020302020302020302020302020302020302020302020302020300A20202020302E3431323520202020352E3731353820202020302E303030302043202020302020302020302020302020302020302020302020302020302020302020302020300A20202020302E3832353020202020362E3433303220202020302E303030302043202020302020302020302020302020302020302020302020302020302020302020302020300A20202020312E3635303020202020362E3433303220202020302E303030302043202020302020302020302020302020302020302020302020302020302020302020302020300A20202020322E3036323520202020372E3134343720202020302E303030302043202020302020302020302020302020302020302020302020302020302020302020302020300A2020202D302E3832353020202020332E3537323420202020302E30303030204F202020302020302020302020302020302020302020302020302020302020302020302020300A2020202D322E3036323520202020322E3835373920202020302E30303030204F202020302020302020302020302020302020302020302020302020302020302020302020300A2020202D312E363530302020202D322E3134333420202020302E303030302043202020302020302020302020302020302020302020302020302020302020302020302020300A2020202D302E383235302020202D322E3134333420202020302E303030302043202020302020302020302020302020302020302020302020302020302020302020302020300A2020202D302E343132352020202D322E3835373920202020302E303030302043202020302020302020302020302020302020302020302020302020302020302020302020300A2020202D302E383235302020202D332E3537323420202020302E303030302043202020302020302020302020302020302020302020302020302020302020302020302020300A2020202D302E343132352020202D342E3238363820202020302E303030302043202020302020302020302020302020302020302020302020302020302020302020302020300A2020202D302E383235302020202D352E3030313320202020302E303030302043202020302020302020302020302020302020302020302020302020302020302020302020300A2020202D302E343132352020202D352E3731353820202020302E303030302043202020302020302020302020302020302020302020302020302020302020302020302020300A2020202D302E383235302020202D362E3433303220202020302E303030302043202020302020302020302020302020302020302020302020302020302020302020302020300A2020202D302E343132352020202D372E3134343720202020302E303030302043202020302020302020302020302020302020302020302020302020302020302020302020300A2020202D322E303632352020202D322E3835373920202020302E30303030204F202020302020302020302020302020302020302020302020302020302020302020302020300A2020202D322E303632352020202D312E3432383920202020302E30303030204F202020302020302020302020302020302020302020302020302020302020302020302020300A2020312020322020312020302020202020200A2020322020332020312020302020202020200A2020342020352020312020302020202020200A2020332020342020312020302020202020200A2020362020372020312020302020202020200A2020372020382020312020302020202020200A2020382020392020312020302020202020200A2020392031302020312020302020202020200A2031302031312020312020302020202020200A2031312031322020312020302020202020200A2031322031332020312020302020202020200A2031332031342020312020302020202020200A2020362031352020322020302020202020200A2020362031362020312020302020202020200A2020312031362020312020302020202020200A2031372031382020312020302020202020200A2031382031392020312020302020202020200A2031392032302020312020302020202020200A2032302032312020312020302020202020200A2032312032322020312020302020202020200A2032322032332020312020302020202020200A2032332032342020312020302020202020200A2032342032352020312020302020202020200A2031372032362020322020302020202020200A2031372032372020312020302020202020200A2020352032372020312020302020202020200A4D2020454E44
Contributor: KOGA M, UNIV. OF OCCUPATIONAL AND ENVIRONMENTAL HEALTH
InstType: EI
InstName: JEOL JMS-01-SG-2
IoniMethod: _ENERGY 75 eV
IonPolarity: pos
Date: 2010-10-09 19:48:36+02:00
Num Peaks: 78
45 327 53 32 54 367 55 149 56 812 57 65 58 32 59 21 60 51 67 74 
68 59 69 16 70 139 71 350 72 22 73 18 74 34 75 24 79 24 81 8 
82 22 83 78 84 201 85 9 86 352 87 220 88 120 89 3 95 28 96 28 
97 59 98 23 99 375 100 53 101 30 103 2 111 22 112 76 113 224 114 2 
115 45 123 22 127 72 130 3 138 67 139 22 140 65 141 46 142 90 143 314 
144 28 148 2 149 55 155 101 156 132 157 34 158 63 159 28 170 45 171 11 
172 24 183 24 184 421 185 999 186 139 187 21 190 45 198 2 199 22 215 24 
216 21 219 2 228 22 247 57 288 51 289 1 326 13 387 15 
