Name: DICHLOROMETHANE
MW: 83
Formula: CH2Cl2
Synonym: MassBank: JP002342
Synonym: DICHLOROMETHANE
Structure: 310A31300A444943484C4F524F4D455448414E452E6D6F6C0A20204368656D447261773039323131303138313832440A2020332020322020302020302020302020302020302020302020302020303939392056323030300A2020202D302E3030303020202020302E3230363320202020302E303030302043202020302020302020302020302020302020302020302020302020302020302020302020300A20202020302E373134352020202D302E3230363320202020302E3030303020436C2020302020302020302020302020302020302020302020302020302020302020302020300A2020202D302E373134352020202D302E3230363320202020302E3030303020436C2020302020302020302020302020302020302020302020302020302020302020302020300A2020312020322020312020302020202020200A2020312020332020312020302020202020200A4D2020454E44
Contributor: MASS SPECTROSCOPY SOC. OF JAPAN (MSSJ)
InstType: EI
InstName: JEOL JMS-D-3000
IoniMethod: _ENERGY 70 eV
IonPolarity: pos
Date: 2010-10-09 19:48:36+02:00
Num Peaks: 11
42 30 47 133 48 74 49 999 50 34 51 309 83 18 84 579 85 19 86 366 
88 59 
