Name: MassBank: JP005460
MW: 288
Formula: C14H28O4Si
Synonym: MassBank: JP005460
Synonym: ETHYL (4R*,5R*)-(E)-4-HYDROXY-5-(TERT-BUTYLDIMETHYLSILYL)OXY-2-HEXENOATE
Structure: 303234385F455448594C202834525F2C35525F292D2845292D342D485944524F58592D352D28544552542D425554594C44494D455448594C53494C594C294F58592D322D484558454E4F4154452E6D6F6C0A20204368656D447261773130313931303138313832440A2031392031382020302020302020302020302020302020302020302020303939392056323030300A20202020312E3835363320202020302E3335373220202020302E303030302043202020302020302020302020302020302020302020302020302020302020302020302020300A20202020312E343433372020202D302E3335373220202020302E303030302043202020302020302020302020302020302020302020302020302020302020302020302020300A20202020302E363138382020202D302E3335373220202020302E303030302043202020302020302020302020302020302020302020302020302020302020302020302020300A20202020302E323036322020202D312E3037313720202020302E303030302043202020302020302020302020302020302020302020302020302020302020302020302020300A2020202D302E363138372020202D312E3037313720202020302E303030302043202020302020302020302020302020302020302020302020302020302020302020302020300A2020202D312E303331322020202D312E3738363220202020302E303030302043202020302020302020302020302020302020302020302020302020302020302020302020300A20202020322E3638313220202020302E3335373220202020302E30303030204F202020302020302020302020302020302020302020302020302020302020302020302020300A20202020312E3434333720202020312E3037313720202020302E30303030204F202020302020302020302020302020302020302020302020302020302020302020302020300A2020202D312E303331332020202D302E3335373220202020302E30303030204F202020302020302020302020302020302020302020302020302020302020302020302020300A2020202D312E383536322020202D302E3335373220202020302E303030302053692020302020302020302020302020302020302020302020302020302020302020302020300A2020202D322E363831322020202D302E3335373220202020302E303030302043202020302020302020302020302020302020302020302020302020302020302020302020300A2020202D312E383536322020202D312E3138323220202020302E303030302043202020302020302020302020302020302020302020302020302020302020302020302020300A2020202D312E3835363220202020302E3436373820202020302E303030302043202020302020302020302020302020302020302020302020302020302020302020302020300A2020202D322E3638313220202020302E3436373820202020302E303030302043202020302020302020302020302020302020302020302020302020302020302020302020300A2020202D312E3835363220202020312E3239323820202020302E303030302043202020302020302020302020302020302020302020302020302020302020302020302020300A2020202D312E3033313220202020302E3436373820202020302E303030302043202020302020302020302020302020302020302020302020302020302020302020302020300A20202020302E363138382020202D312E3738363220202020302E30303030204F202020302020302020302020302020302020302020302020302020302020302020302020300A20202020312E3835363220202020312E3738363220202020302E303030302043202020302020302020302020302020302020302020302020302020302020302020302020300A20202020322E3638313220202020312E3738363220202020302E303030302043202020302020302020302020302020302020302020302020302020302020302020302020300A2020312020322020312020302020202020200A2020322020332020322020302020202020200A2020332020342020312020302020202020200A2020342020352020312020302020202020200A2020352020362020312020312020202020200A2020312020372020322020302020202020200A2020312020382020312020302020202020200A2031302031312020312020302020202020200A2031302031322020312020302020202020200A2031332031342020312020302020202020200A2031332031362020312020302020202020200A2031332031352020312020302020202020200A2031302031332020312020302020202020200A2020392031302020312020302020202020200A2020352020392020312020302020202020200A2020342031372020312020312020202020200A2031382031392020312020302020202020200A2020382031382020312020302020202020200A4D2020454E44
Contributor: HIRAMA M, TOHOKU UNIV. FACULTY OF SCIENCE DEPT. OF CHEMISTRY YUKIBUNSEKI
InstType: EI
InstName: HITACHI M-52
IoniMethod: _ENERGY 25 eV
IonPolarity: pos
Date: 2010-10-09 19:48:36+02:00
Num Peaks: 68
18 224 28 128 43 173 55 2 73 295 74 28 75 438 76 2 77 19 81 10 
82 20 83 3 84 17 85 4 95 37 97 2 99 22 101 41 102 14 103 16 
104 34 105 21 110 7 111 999 112 85 113 28 114 7 115 27 116 13 117 10 
119 17 125 5 127 10 129 15 130 9 131 1 132 19 140 24 141 112 142 1 
143 63 144 12 145 13 147 1 149 13 155 25 156 14 157 9 158 12 159 648 
160 101 169 2 171 10 183 17 185 256 186 3 187 27 199 8 213 18 215 2 
229 30 230 7 231 142 232 2 233 8 243 12 244 37 245 6 
