Name: MassBank: JP006326
MW: 218
Formula: C10H18O5
Synonym: MassBank: JP006326
Synonym: METHYL 2,3-O-ISOPROPYLIDENE-ALPHA-L-RHAMNOPYRANOSIDE (2,2,2,3,3,3-D6)
Synonym: METHYL 2,3-O-HEXADEUTEROISOPROPYLIDENE-ALPHA-L-RHAMNOPYRANOSIDE
Structure: 313132315F4D455448594C20322C332D4F2D49534F50524F50594C4944454E452D414C5048412D4C2D5248414D4E4F505952414E4F534944452028322C322C322C332C332C332D4436292E6D6F6C0A20204368656D447261773039303731303131303832440A2032332032342020302020302020302020302020302020302020302020303939392056323030300A2020202D312E3130343620202020312E3434333720202020302E30303030204F202020302020302020302020302020302020302020302020302020302020302020302020300A2020202D312E3130363720202020302E3631383720202020302E303030302043202020302020302020302020302020302020302020302020302020302020302020302020300A2020202D302E3339323220202020302E3230363220202020302E303030302043202020302020302020302020302020302020302020302020302020302020302020302020300A20202020302E3339343820202020302E3435393320202020302E30303030204F202020302020302020302020302020302020302020302020302020302020302020302020300A2020202D302E333932322020202D302E3631383720202020302E303030302043202020302020302020302020302020302020302020302020302020302020302020302020300A20202020302E333933322020202D302E3837343220202020302E30303030204F202020302020302020302020302020302020302020302020302020302020302020302020300A2020202D312E313036372020202D312E3033313220202020302E303030302043202020302020302020302020302020302020302020302020302020302020302020302020300A2020202D312E313036372020202D312E3835363220202020302E30303030204F202020302020302020302020302020302020302020302020302020302020302020302020300A2020202D312E383231312020202D302E3631383720202020302E303030302043202020302020302020302020302020302020302020302020302020302020302020302020300A2020202D312E3832303020202020302E3230363320202020302E30303030204F202020302020302020302020302020302020302020302020302020302020302020302020300A2020202D322E353335362020202D312E3033313220202020302E303030302043202020302020302020302020302020302020302020302020302020302020302020302020300A20202020302E383634302020202D302E3139333320202020302E303030302043202020302020302020302020302020302020302020302020302020302020302020302020300A2020202D312E3832313120202020312E3835363220202020302E303030302043202020302020302020302020302020302020302020302020302020302020302020302020300A2020202D302E3330353820202020312E3032353720202020302E303030302048202020302020302020302020302020302020302020302020302020302020302020302020300A2020202D302E333035372020202D312E3434313220202020302E303030302048202020302020302020302020302020302020302020302020302020302020302020302020300A20202020312E343430312020202D302E3830393420202020302E303030302043202020302020302020302020302020302020302020302020302020302020302020302020300A20202020322E303732312020202D302E3237393120202020302E303030302048202020312020302020302020302020302020302020302020302020302020302020302020300A20202020312E393730342020202D312E3434313420202020302E303030302048202020312020302020302020302020302020302020302020302020302020302020302020300A20202020302E383038312020202D312E3333393720202020302E303030302048202020312020302020302020302020302020302020302020302020302020302020302020300A20202020312E3632323320202020302E3536353020202020302E303030302043202020302020302020302020302020302020302020302020302020302020302020302020300A20202020302E3934373320202020312E3037303620202020302E303030302048202020312020302020302020302020302020302020302020302020302020302020302020300A20202020322E3033363620202020312E3238323720202020302E303030302048202020312020302020302020302020302020302020302020302020302020302020302020300A20202020322E3533353620202020302E3033373820202020302E303030302048202020312020302020302020302020302020302020302020302020302020302020302020300A2020322020312020312020312020202020200A2020322020332020312020302020202020200A2020332020342020312020302020202020200A2020332020352020312020302020202020200A2020352020362020312020302020202020200A2020352020372020312020302020202020200A2020372020382020312020312020202020200A2020372020392020312020302020202020200A2020392031302020312020302020202020200A2020392031312020312020362020202020200A2020322031302020312020302020202020200A2031322032302020312020302020202020200A2031322031362020312020302020202020200A2020342031322020312020302020202020200A2020362031322020312020302020202020200A2020312031332020312020302020202020200A2020332031342020312020312020202020200A2020352031352020312020312020202020200A2031362031372020312020302020202020200A2031362031382020312020302020202020200A2031362031392020312020302020202020200A2032302032312020312020302020202020200A2032302032322020312020302020202020200A2032302032332020312020302020202020200A4D202049534F2020362020313720202032202031382020203220203139202020322020323120202032202032322020203220203233202020320A4D2020454E44
Contributor: EGUCHI S, FAC. OF SCIENCE, HIROSHIMA UNIV.
InstType: EI
InstName: HITACHI RMU-7L
IoniMethod: _ENERGY 70 eV
IonPolarity: pos
Date: 2010-10-09 19:48:36+02:00
Num Peaks: 94
40 43 41 96 42 78 43 26 44 61 45 252 46 470 47 4 48 43 49 52 
53 52 54 5 55 109 56 78 57 200 58 16 59 74 60 83 61 204 62 7 
63 48 64 165 65 513 66 4 67 30 68 35 69 70 70 3 71 678 72 74 
73 61 74 6 75 61 76 30 77 39 78 6 79 96 80 18 81 26 82 7 
83 113 84 39 85 148 86 6 87 165 88 522 89 52 90 3 98 35 99 30 
100 91 101 5 102 35 103 39 104 61 105 29 106 999 107 165 108 26 111 5 
112 87 113 35 114 18 115 4 116 43 117 35 118 52 119 5 120 52 121 61 
122 63 125 4 128 35 129 61 130 26 131 3 132 18 133 18 134 26 135 7 
136 18 143 52 144 56 145 2 146 18 174 43 192 43 193 10 194 18 205 26 
206 113 207 2 224 35 225 9 
