Name: 1-ETHYL-2-METHYLPYRROLIDINE
MW: 113
Formula: C7H15N
Synonym: MassBank: JP002007
Synonym: 1-ETHYL-2-METHYLPYRROLIDINE
Structure: 310A32310A312D455448594C2D322D4D455448594C505952524F4C4944494E452E6D6F6C0A20204368656D447261773131313830393033343532440A2020382020382020302020302020302020302020302020302020302020303939392056323030300A2020202D302E303136302020202D302E3336383820202020302E30303030204E202020302020302020302020302020302020302020302020302020302020302020302020300A20202020302E3436383920202020302E3239383620202020302E303030302043202020302020302020302020302020302020302020302020302020302020302020302020300A20202020312E3235333520202020302E3034333720202020302E303030302043202020302020302020302020302020302020302020302020302020302020302020302020300A20202020312E323533352020202D302E3738313320202020302E303030302043202020302020302020302020302020302020302020302020302020302020302020302020300A20202020302E343638392020202D312E3033363220202020302E303030302043202020302020302020302020302020302020302020302020302020302020302020302020300A20202020302E3231343020202020312E3038333320202020302E303030302043202020302020302020302020302020302020302020302020302020302020302020302020300A2020202D302E383431302020202D302E3336383820202020302E303030302043202020302020302020302020302020302020302020302020302020302020302020302020300A2020202D312E323533352020202D312E3038333320202020302E303030302043202020302020302020302020302020302020302020302020302020302020302020302020300A2020312020322020312020302020202020200A2020322020332020312020302020202020200A2020332020342020312020302020202020200A2020342020352020312020302020202020200A2020312020352020312020302020202020200A2020322020362020312020302020202020200A2020372020382020312020302020202020200A2020312020372020312020302020202020200A4D2020454E44
Contributor: SASAKI S, TOYOHASHI UNIV. OF TECH.
InstType: EI
InstName: MX-1303
IoniMethod: _ENERGY 50 eV
IonPolarity: pos
Date: 2010-10-09 19:48:36+02:00
Num Peaks: 63
26 107 27 102 29 228 30 15 31 76 37 38 38 48 39 30 40 104 41 79 
42 593 43 50 45 104 50 38 51 45 52 5 53 66 54 104 55 207 56 30 
57 242 58 183 59 142 65 4 66 31 67 83 68 145 69 36 70 267 71 114 
72 66 73 6 77 45 78 35 79 48 80 5 81 52 82 55 83 62 84 24 
85 169 86 68 87 48 91 7 92 28 93 31 94 35 95 6 96 38 97 35 
98 999 99 10 995 65 100 93 100.5 55 101 2 102 38 110 31 111 38 112 36 
113 825 114 69 115 28 
