Name: 3-METHOXYCARBONYLMETHYL-5-FLUOROURACIL
MW: 202
Formula: C7H7FN2O4
Synonym: MassBank: JP005592
Synonym: 3-METHOXYCARBONYLMETHYL-5-FLUOROURACIL
Structure: 332D4D4554484F5859434152424F4E594C4D455448594C2D352D464C554F524F55524143494C2E6D6F6C0A20204368656D447261773032323231303233313232440A2031342031342020302020302020302020302020302020302020302020303939392056323030300A2020202D302E3731343520202020312E3233373520202020302E30303030204E202020302020302020302020302020302020302020302020302020302020302020302020300A20202020302E3030303020202020302E3832353020202020302E303030302043202020302020302020302020302020302020302020302020302020302020302020302020300A20202020302E3731343520202020312E3233373520202020302E30303030204F202020302020302020302020302020302020302020302020302020302020302020302020300A20202020302E3030303020202020302E3030303020202020302E30303030204E202020302020302020302020302020302020302020302020302020302020302020302020300A2020202D302E373134352020202D302E3431323520202020302E303030302043202020302020302020302020302020302020302020302020302020302020302020302020300A2020202D302E373134352020202D312E3233373520202020302E30303030204F202020302020302020302020302020302020302020302020302020302020302020302020300A2020202D312E343238392020202D302E3030303020202020302E303030302043202020302020302020302020302020302020302020302020302020302020302020302020300A2020202D312E3432383920202020302E3832353020202020302E303030302043202020302020302020302020302020302020302020302020302020302020302020302020300A2020202D322E313433342020202D302E3431323520202020302E303030302046202020302020302020302020302020302020302020302020302020302020302020302020300A20202020302E373134352020202D302E3431323520202020302E303030302043202020302020302020302020302020302020302020302020302020302020302020302020300A20202020312E3432383920202020302E3030303020202020302E303030302043202020302020302020302020302020302020302020302020302020302020302020302020300A20202020312E3432383920202020302E3832353020202020302E30303030204F202020302020302020302020302020302020302020302020302020302020302020302020300A20202020322E313433342020202D302E3431323520202020302E30303030204F202020302020302020302020302020302020302020302020302020302020302020302020300A20202020322E313433342020202D312E3233373520202020302E303030302043202020302020302020302020302020302020302020302020302020302020302020302020300A2020312020322020312020302020202020200A2020322020332020322020302020202020200A2020322020342020312020302020202020200A2020342020352020312020302020202020200A2020352020362020322020302020202020200A2020352020372020312020302020202020200A2020372020382020322020302020202020200A2020312020382020312020302020202020200A2020372020392020312020302020202020200A2031312031322020322020302020202020200A2031332031342020312020302020202020200A2031312031332020312020302020202020200A2031302031312020312020302020202020200A2020342031302020312020302020202020200A4D2020454E44
Contributor: MASS SPECTROSCOPY SOC. OF JAPAN (MSSJ)
InstType: EI
InstName: JEOL JMS-01-SG-2
IoniMethod: _ENERGY 75 eV
IonPolarity: pos
Date: 2010-10-09 19:48:36+02:00
Num Peaks: 29
15 80 31 70 33 40 56 2 58 140 59 170 60 140 86 1 87 250 88 70 
100 230 114 999 115 130 116 30 128 290 129 1 130 60 131 20 142 50 143 9 
144 120 157 20 158 70 170 4 171 320 172 20 202 930 203 2 204 40 
