Name: BETA-IONONE
MW: 192
Formula: C13H20O
Synonym: MassBank: JP007135
Synonym: BETA-IONONE
Synonym: 4-(2,6,6-TRIMETHYL-1-CYCLOHEXEN-1-YL)-3-BUTEN-2-ONE
Structure: 424554412D494F4E4F4E452E6D6F6C0A20204368656D447261773130313831303136343232440A2031342031342020302020302020302020302020302020302020302020303939392056323030300A20202020322E303632352020202D302E3034393020202020302E30303030204F202020302020302020302020302020302020302020302020302020302020302020302020300A20202020312E363530302020202D302E3736333520202020302E303030302043202020302020302020302020302020302020302020302020302020302020302020302020300A20202020322E303632352020202D312E3437373920202020302E303030302043202020302020302020302020302020302020302020302020302020302020302020302020300A20202020302E383235302020202D302E3736333520202020302E303030302043202020302020302020302020302020302020302020302020302020302020302020302020300A20202020302E343132352020202D302E3034393020202020302E303030302043202020302020302020302020302020302020302020302020302020302020302020302020300A2020202D302E343132352020202D302E3034393020202020302E303030302043202020302020302020302020302020302020302020302020302020302020302020302020300A2020202D302E383235302020202D302E3736333520202020302E303030302043202020302020302020302020302020302020302020302020302020302020302020302020300A2020202D302E343132352020202D312E3437373920202020302E303030302043202020302020302020302020302020302020302020302020302020302020302020302020300A2020202D312E363530302020202D302E3736333520202020302E303030302043202020302020302020302020302020302020302020302020302020302020302020302020300A2020202D322E303632352020202D302E3034393020202020302E303030302043202020302020302020302020302020302020302020302020302020302020302020302020300A2020202D312E3635303020202020302E3636353520202020302E303030302043202020302020302020302020302020302020302020302020302020302020302020302020300A2020202D302E3832353020202020302E3636353520202020302E303030302043202020302020302020302020302020302020302020302020302020302020302020302020300A2020202D302E3936383320202020312E3437373920202020302E303030302043202020302020302020302020302020302020302020302020302020302020302020302020300A2020202D302E3034393820202020302E3934373620202020302E303030302043202020302020302020302020302020302020302020302020302020302020302020302020300A2020312020322020322020302020202020200A2020322020332020312020302020202020200A2020322020342020312020302020202020200A2020342020352020322020302020202020200A2020352020362020312020302020202020200A2020362020372020322020302020202020200A2020372020382020312020302020202020200A2020372020392020312020302020202020200A2020392031302020312020302020202020200A2031302031312020312020302020202020200A2031312031322020312020302020202020200A2020362031322020312020302020202020200A2031322031332020312020302020202020200A2031322031342020312020302020202020200A4D2020454E44
Contributor: SODA AROMATIC CO., LTD.
InstType: EI
InstName: HITACHI M-80B
IoniMethod: _ENERGY 70 eV
IonPolarity: pos
Date: 2010-10-09 19:48:36+02:00
Num Peaks: 57
15 30 27 69 29 63 39 112 41 206 42 17 43 734 44 18 51 39 52 20 
53 70 55 72 63 18 64 10 65 55 66 16 67 37 69 46 71 22 77 110 
78 29 79 83 80 16 81 44 91 160 92 25 93 110 94 15 95 72 96 13 
103 18 105 72 106 15 107 68 108 17 109 49 110 16 115 23 117 22 119 58 
121 72 122 58 123 31 131 18 133 66 134 14 135 145 136 38 147 11 149 64 
159 41 161 10 162 16 177 999 178 118 179 10 192 55 
