Name: MassBank: JP004523
MW: 163
Formula: C9H9NS
Synonym: MassBank: JP004523
Synonym: 1-ISOTHIOCYANATO-2-PHENYLETHANE (1,1,2,2-D4)
Structure: 312D49534F5448494F4359414E41544F2D322D5048454E594C455448414E452028312C312C322C322D4434292E6D6F6C0A20204368656D447261773131313930393136303232440A2031352031352020302020302020302020302020302020302020302020303939392056323030300A20202020302E3030303020202020302E3634363820202020302E303030302043202020302020302020302020302020302020302020302020302020302020302020302020300A2020202D302E3832353020202020302E3634363820202020302E303030302043202020302020302020302020302020302020302020302020302020302020302020302020300A2020202D312E3635303020202020302E3634363820202020302E303030302048202020312020302020302020302020302020302020302020302020302020302020302020300A2020202D302E3832353020202020312E3437313820202020302E303030302048202020312020302020302020302020302020302020302020302020302020302020302020300A20202020302E303030302020202D302E3137383220202020302E303030302048202020312020302020302020302020302020302020302020302020302020302020302020300A20202020302E3030303020202020312E3437313820202020302E303030302048202020312020302020302020302020302020302020302020302020302020302020302020300A2020202D302E383235302020202D302E3432353720202020302E303030302043202020302020302020302020302020302020302020302020302020302020302020302020300A2020202D312E353339352020202D302E3833383220202020302E303030302043202020302020302020302020302020302020302020302020302020302020302020302020300A2020202D312E353339352020202D312E3636333220202020302E303030302043202020302020302020302020302020302020302020302020302020302020302020302020300A2020202D302E383235302020202D322E3037353720202020302E303030302043202020302020302020302020302020302020302020302020302020302020302020302020300A2020202D302E313130352020202D312E3636333220202020302E303030302043202020302020302020302020302020302020302020302020302020302020302020302020300A2020202D302E313130352020202D302E3833383220202020302E303030302043202020302020302020302020302020302020302020302020302020302020302020302020300A20202020302E3832353020202020302E3634363820202020302E30303030204E202020302020302020302020302020302020302020302020302020302020302020302020300A20202020312E3233373520202020312E3336313320202020302E303030302043202020302020302020302020302020302020302020302020302020302020302020302020300A20202020312E3635303020202020322E3037353720202020302E303030302053202020302020302020302020302020302020302020302020302020302020302020302020300A2020312020322020312020302020202020200A2020322020332020312020302020202020200A2020322020342020312020302020202020200A2020312020352020312020302020202020200A2020312020362020312020302020202020200A2020372020382020312020302020202020200A2020382020392020322020302020202020200A2020392031302020312020302020202020200A2031302031312020322020302020202020200A2031312031322020312020302020202020200A2020372031322020322020302020202020200A2020322020372020312020302020202020200A2031332031342020322020302020202020200A2031342031352020322020302020202020200A2020312031332020312020302020202020200A4D202049534F20203420202033202020322020203420202032202020352020203220202036202020320A4D2020454E44
Contributor: SEYAMA Y, DEPT. OF PHYSIOL. CHEMISTRY AND NUTRITION, FAC. OF MEDICINE, UNIV. OF TOKYO
InstType: EI
InstName: SHIMADZU QP-1000
IoniMethod: _ENERGY 70 eV
IonPolarity: pos
Date: 2010-10-09 19:48:36+02:00
Num Peaks: 45
39 56 40 71 41 55 42 9 43 26 44 7 46 17 50 25 51 67 52 37 
53 28 54 12 58 7 63 16 64 30 65 28 66 82 67 76 68 11 74 55 
76 9 77 19 78 23 79 47 80 46 81 25 82 40 83 25 90 10 91 17 
92 22 93 999 94 79 105 11 106 20 107 21 108 10 109 135 110 14 137 13 
151 9 166 20 167 481 168 55 169 29 
