Name: (4-PHENYL-2-BUTENYL)TRIMETHYLSILANE
MW: 204
Formula: C13H20Si
Synonym: MassBank: JP004983
Synonym: (4-PHENYL-2-BUTENYL)TRIMETHYLSILANE
Synonym: 1-PHENYL-4-TRIMETHYLSILYL-2-BUTENE
Structure: 28342D5048454E594C2D322D425554454E594C295452494D455448594C53494C414E452E6D6F6C0A20204368656D447261773130323130393132323532440A2031342031342020302020302020302020302020302020302020302020303939392056323030300A2020202D312E3432383920202020302E3039363520202020302E303030302043202020302020302020302020302020302020302020302020302020302020302020302020300A2020202D302E3731343420202020302E3530393020202020302E303030302043202020302020302020302020302020302020302020302020302020302020302020302020300A20202020302E3030303120202020302E3039363520202020302E303030302043202020302020302020302020302020302020302020302020302020302020302020302020300A20202020302E3731343520202020302E3530393020202020302E303030302043202020302020302020302020302020302020302020302020302020302020302020302020300A20202020312E3432393020202020302E3039363520202020302E303030302043202020302020302020302020302020302020302020302020302020302020302020302020300A20202020322E3134333520202020302E3530393020202020302E303030302053692020302020302020302020302020302020302020302020302020302020302020302020300A2020202D322E3134333420202020302E3530393020202020302E303030302043202020302020302020302020302020302020302020302020302020302020302020302020300A2020202D322E3835373820202020302E3039363520202020302E303030302043202020302020302020302020302020302020302020302020302020302020302020302020300A2020202D322E383537382020202D302E3732383520202020302E303030302043202020302020302020302020302020302020302020302020302020302020302020302020300A2020202D322E313433342020202D312E3134313020202020302E303030302043202020302020302020302020302020302020302020302020302020302020302020302020300A2020202D312E343238392020202D302E3732383520202020302E303030302043202020302020302020302020302020302020302020302020302020302020302020302020300A20202020322E3637323820202020312E3134313020202020302E303030302043202020302020302020302020302020302020302020302020302020302020302020302020300A20202020322E3835373820202020302E3039363520202020302E303030302043202020302020302020302020302020302020302020302020302020302020302020302020300A20202020312E3631333120202020312E3134313020202020302E303030302043202020302020302020302020302020302020302020302020302020302020302020302020300A2020312020322020312020302020202020200A2020322020332020312020302020202020200A2020332020342020322020302020202020200A2020342020352020312020302020202020200A2020352020362020312020302020202020200A2020312020372020322020302020202020200A2020372020382020312020302020202020200A2020382020392020322020302020202020200A2020392031302020312020302020202020200A2031302031312020322020302020202020200A2031312020312020312020302020202020200A2020362031322020312020302020202020200A2020362031332020312020312020202020200A2020362031342020312020312020202020200A4D202053545920203120202031205355500A4D2020534C4220203120202031202020310A4D202053414C20202031202031202031320A4D202053424C20202031202031202031320A4D2020534D5420202031204D650A4D2020534256202020312031322020202D352E3832383920202020382E303731300A4D202053545920203120202032205355500A4D2020534C4220203120202032202020320A4D202053414C20202032202031202031330A4D202053424C20202032202031202031330A4D2020534D5420202032204D650A4D2020534256202020322031332020202D352E3634333920202020372E303236350A4D202053545920203120202033205355500A4D2020534C4220203120202033202020330A4D202053414C20202033202031202031340A4D202053424C20202033202031202031340A4D2020534D5420202033204D650A4D2020534256202020332031342020202D362E3838383720202020382E303731300A4D2020454E44
Contributor: MASS SPECTROSCOPY SOC. OF JAPAN (MSSJ)
InstType: EI
InstName: JEOL JMS-D-3000
IoniMethod: _ENERGY 70 eV
IonPolarity: pos
Date: 2010-10-09 19:48:36+02:00
Num Peaks: 19
43 23 45 63 59 71 65 12 73 999 74 85 75 43 77 12 91 32 115 18 
128 17 129 27 130 127 131 16 135 38 161 22 189 11 204 94 205 19 
