Name: MassBank: JP000361
MW: 154
Formula: C10H18O
Synonym: MassBank: JP000361
Synonym: 1,2-EPOXY MENTHANE
Structure: 312C322D45504F5859204D454E5448414E452E6D6F6C0A20204368656D447261773131303530393133343932440A2031312031322020302020302020302020302020302020302020302020303939392056323030300A2020202D302E313531302020202D302E3731343520202020302E303030302043202020302020302020302020302020302020302020302020302020302020302020302020300A2020202D302E3536333520202020302E3030303020202020302E303030302043202020302020302020302020302020302020302020302020302020302020302020302020300A2020202D302E3135313020202020302E3731343520202020302E303030302043202020302020302020302020302020302020302020302020302020302020302020302020300A20202020302E3637343020202020302E3731343520202020302E303030302043202020302020302020302020302020302020302020302020302020302020302020302020300A20202020312E303836352020202D302E3030303020202020302E303030302043202020302020302020302020302020302020302020302020302020302020302020302020300A20202020302E363734302020202D302E3731343520202020302E303030302043202020302020302020302020302020302020302020302020302020302020302020302020300A20202020312E3830313020202020302E3431323520202020302E303030302043202020302020302020302020302020302020302020302020302020302020302020302020300A2020202D312E3338383520202020302E3030303020202020302E303030302043202020302020302020302020302020302020302020302020302020302020302020302020300A2020202D312E3830313020202020302E3731343520202020302E303030302043202020302020302020302020302020302020302020302020302020302020302020302020300A2020202D312E383031302020202D302E3731343520202020302E303030302043202020302020302020302020302020302020302020302020302020302020302020302020300A20202020312E343939302020202D302E3731343520202020302E30303030204F202020302020302020302020302020302020302020302020302020302020302020302020300A2020312020322020312020302020202020200A2020322020332020312020302020202020200A2020332020342020312020302020202020200A2020342020352020312020302020202020200A2020352020362020312020302020202020200A2020312020362020312020302020202020200A2020352020372020312020302020202020200A2020382020392020312020302020202020200A2020382031302020312020302020202020200A2020322020382020312020302020202020200A2020352031312020312020302020202020200A2020362031312020312020302020202020200A4D2020454E44
Contributor: SASAKI S, TOYOHASHI UNIV. OF TECH.
InstType: EI
InstName: HITACHI RMU-6D
IoniMethod: _ENERGY 70 eV
IonPolarity: pos
Date: 2010-10-09 19:48:36+02:00
Num Peaks: 90
15 120 18 20 25 20 26 44 27 100 28 360 29 5 30 4 31 5 37 5 
38 20 39 50 40 105 41 650 42 200 43 86 44 310 45 100 50 60 51 17 
52 35 53 250 54 135 55 79 56 640 57 220 58 180 59 13 62 5 63 17 
64 5 65 7 66 30 67 460 68 290 69 86 70 220 71 770 72 90 73 13 
74 20 75 13 76 15 77 36 78 35 79 110 80 40 81 44 82 215 83 590 
84 545 85 29 86 50 87 5 91 100 92 3 93 320 94 80 95 515 96 16 
97 210 98 140 99 30 105 41 106 30 107 60 108 180 109 13 110 160 111 999 
112 140 113 4 119 15 121 90 122 10 123 6 124 5 125 170 126 110 127 1 
129 10 135 10 136 140 137 2 138 50 139 370 140 35 141 1 154 50 155 5 
