Name: 3-METHYL-N-OCTYL-2-PYRROLIDONE
MW: 211
Formula: C13H25NO
Synonym: MassBank: JP004163
Synonym: 3-METHYL-N-OCTYL-2-PYRROLIDONE
Structure: 332D4D455448594C2D4E2D4F4354594C2D322D505952524F4C49444F4E452E6D6F6C0A20204368656D447261773033323031303031353832440A2031352031352020302020302020302020302020302020302020302020303939392056323030300A20202020302E303634302020202D312E3639343620202020302E30303030204E202020302020302020302020302020302020302020302020302020302020302020302020300A20202020302E353438392020202D322E3336323120202020302E303030302043202020302020302020302020302020302020302020302020302020302020302020302020300A20202020302E303634302020202D332E3032393520202020302E303030302043202020302020302020302020302020302020302020302020302020302020302020302020300A2020202D302E373230362020202D322E3737343620202020302E303030302043202020302020302020302020302020302020302020302020302020302020302020302020300A2020202D302E373230362020202D312E3934393620202020302E303030302043202020302020302020302020302020302020302020302020302020302020302020302020300A20202020312E333733392020202D322E3336323120202020302E30303030204F202020302020302020302020302020302020302020302020302020302020302020302020300A20202020302E333138392020202D302E3931303020202020302E303030302043202020302020302020302020302020302020302020302020302020302020302020302020300A2020202D302E323634342020202D302E3332363620202020302E303030302043202020302020302020302020302020302020302020302020302020302020302020302020300A2020202D302E3035303920202020302E3437303320202020302E303030302043202020302020302020302020302020302020302020302020302020302020302020302020300A2020202D302E3633343320202020312E3035333620202020302E303030302043202020302020302020302020302020302020302020302020302020302020302020302020300A2020202D302E3432303720202020312E3835303520202020302E303030302043202020302020302020302020302020302020302020302020302020302020302020302020300A2020202D312E3030343120202020322E3433333920202020302E303030302043202020302020302020302020302020302020302020302020302020302020302020302020300A2020202D302E3739303620202020332E3233303820202020302E303030302043202020302020302020302020302020302020302020302020302020302020302020302020300A2020202D312E3337333920202020332E3831343120202020302E303030302043202020302020302020302020302020302020302020302020302020302020302020302020300A20202020302E333138392020202D332E3831343120202020302E303030302043202020302020302020302020302020302020302020302020302020302020302020302020300A2020312020322020312020302020202020200A2020322020332020312020302020202020200A2020332020342020312020302020202020200A2020342020352020312020302020202020200A2020312020352020312020302020202020200A2020322020362020322020302020202020200A2020372020382020312020302020202020200A2020382020392020312020302020202020200A2020392031302020312020302020202020200A2031302031312020312020302020202020200A2031312031322020312020302020202020200A2031322031332020312020302020202020200A2031332031342020312020302020202020200A2020312020372020312020302020202020200A2020332031352020312020302020202020200A4D2020454E44
Contributor: MASS SPECTROSCOPY SOC. OF JAPAN (MSSJ)
InstType: EI
InstName: HITACHI RMU-6E
IoniMethod: _ENERGY 70 eV
IonPolarity: pos
Date: 2010-10-09 19:48:36+02:00
Num Peaks: 91
38 2 39 68 40 13 41 28 42 250 43 112 44 35 45 0 50 1 51 3 
52 3 53 2 54 24 55 228 56 132 57 5 58 8 66 3 67 2 68 2 
69 20 70 44 71 36 72 1 73 5 74 2 80 3 81 0 82 7 83 25 
84 23 85 67 86 54 87 3 88 1 89 0 94 3 95 3 96 8 97 0 
98 70 99 17 100 90 101 1 108 1 109 4 110 10 111 1 112 999 113 822 
114 56 115 0 123 1 124 3 125 3 126 21 127 82 128 6 129 1 138 1 
139 3 140 240 141 74 142 1 143 1 152 2 153 1 154 9 155 34 156 6 
157 1 166 0 167 1 168 66 169 42 170 0 171 2 172 1 182 58 183 1 
194 3 195 1 196 20 197 1 198 1 209 1 210 15 211 33 212 72 213 7 
214 1 
