Name: FURFURYL ALCOHOL
MW: 98
Formula: C5H6O2
Synonym: MassBank: JP006568
Synonym: FURFURYL ALCOHOL
Structure: 310A31390A465552465552594C20414C434F484F4C2E6D6F6C0A20204368656D447261773031303331303133353632440A2020372020372020302020302020302020302020302020302020302020303939392056323030300A20202020302E3635323920202020302E3730323320202020302E303030302043202020302020302020302020302020302020302020302020302020302020302020302020300A2020202D302E3036313620202020302E3238393820202020302E303030302043202020302020302020302020302020302020302020302020302020302020302020302020300A2020202D302E313437392020202D302E3533303720202020302E303030302043202020302020302020302020302020302020302020302020302020302020302020302020300A2020202D302E393534382020202D302E3730323320202020302E303030302043202020302020302020302020302020302020302020302020302020302020302020302020300A2020202D312E3336373320202020302E3031323220202020302E303030302043202020302020302020302020302020302020302020302020302020302020302020302020300A2020202D302E3831353320202020302E3632353320202020302E30303030204F202020302020302020302020302020302020302020302020302020302020302020302020300A20202020312E3336373320202020302E3238393820202020302E30303030204F202020302020302020302020302020302020302020302020302020302020302020302020300A2020312020322020312020302020202020200A2020322020332020322020302020202020200A2020332020342020312020302020202020200A2020342020352020322020302020202020200A2020352020362020312020302020202020200A2020322020362020312020302020202020200A2020312020372020312020302020202020200A4D2020454E44
Contributor: HISAHIRO HAGIWARA, CHEMICAL RESEARCH INSTITUTE OF NON-AQUEOUSSOLUTIONS TOHOKU UNIV.
InstType: EI
InstName: HITACHI M-80B
IoniMethod: _ENERGY 70 eV
IonPolarity: pos
Date: 2010-10-09 19:48:36+02:00
Num Peaks: 40
14 21 15 31 25 14 26 92 27 265 29 362 30 26 31 182 36 14 37 129 
38 230 39 704 40 84 41 762 42 567 43 117 44 93 49 36 50 153 51 205 
52 152 53 497 54 31 55 138 56 12 66 15 67 16 68 36 69 336 70 351 
71 23 79 13 80 10 81 588 82 26 95 58 96 11 97 503 98 999 99 54 
