Name: MassBank: JP002151
MW: 230
Formula: C5H3F5N4O
Synonym: MassBank: JP002151
Synonym: 4-(N-PENTAFLUOROPROPIONYL)AMINO1,2,4-TRIAZOLE
Structure: 342D284E2D50454E5441464C554F524F50524F50494F4E594C29414D494E4F312C322C342D545249415A4F4C452E6D6F6C0A20204368656D447261773033323531303033353032440A2031352031352020302020302020302020302020302020302020302020303939392056323030300A20202020312E3737393820202020302E3837373520202020302E30303030204E202020302020302020302020302020302020302020302020302020302020302020302020300A20202020312E3336373320202020302E3136333020202020302E30303030204E202020302020302020302020302020302020302020302020302020302020302020302020300A20202020302E3536303420202020302E3333343520202020302E303030302043202020302020302020302020302020302020302020302020302020302020302020302020300A20202020302E3437343120202020312E3135353020202020302E30303030204E202020302020302020302020302020302020302020302020302020302020302020302020300A20202020312E3232373820202020312E3439303620202020302E303030302043202020302020302020302020302020302020302020302020302020302020302020302020300A2020202D302E3234303420202020312E3536373520202020302E30303030204E202020302020302020302020302020302020302020302020302020302020302020302020300A2020202D302E3935343820202020312E3135353020202020302E303030302043202020302020302020302020302020302020302020302020302020302020302020302020300A2020202D312E3636393320202020312E3536373520202020302E30303030204F202020302020302020302020302020302020302020302020302020302020302020302020300A2020202D302E3935343820202020302E3333303020202020302E303030302043202020302020302020302020302020302020302020302020302020302020302020302020300A2020202D302E393534382020202D302E3734323520202020302E303030302043202020302020302020302020302020302020302020302020302020302020302020302020300A2020202D312E3737393820202020302E3333303020202020302E303030302046202020302020302020302020302020302020302020302020302020302020302020302020300A2020202D302E3132393820202020302E3333303020202020302E303030302046202020302020302020302020302020302020302020302020302020302020302020302020300A2020202D302E313239382020202D302E3734323520202020302E303030302046202020302020302020302020302020302020302020302020302020302020302020302020300A2020202D302E393534382020202D312E3536373520202020302E303030302046202020302020302020302020302020302020302020302020302020302020302020302020300A2020202D312E373739382020202D302E3734323520202020302E303030302046202020302020302020302020302020302020302020302020302020302020302020302020300A2020312020322020312020302020202020200A2020322020332020322020302020202020200A2020332020342020312020302020202020200A2020342020352020312020302020202020200A2020312020352020322020302020202020200A2020372020382020322020302020202020200A2020372020392020312020302020202020200A2020392031302020312020302020202020200A2020392031312020312020312020202020200A2020392031322020312020312020202020200A2031302031332020312020312020202020200A2031302031342020312020302020202020200A2031302031352020312020312020202020200A2020362020372020312020302020202020200A2020342020362020312020302020202020200A4D2020454E44
Contributor: KOGA M, UNIV. OF OCCUPATIONAL AND ENVIRONMENTAL HEALTH
InstType: EI
InstName: JEOL JMS-01-SG
IoniMethod: _ENERGY 70 eV
IonPolarity: pos
Date: 2010-10-09 19:48:36+02:00
Num Peaks: 14
43 105 44 46 50 180 55 26 56 100 57 82 69 716 83 7 84 58 100 429 
111 294 119 999 230 333 231 84 
