Name: MENAQUINONE-9
MW: 784
Formula: C56H80O2
Synonym: MassBank: JP008162
Synonym: MENAQUINONE-9
Structure: 303438325F4D454E415155494E4F4E452D392E6D6F6C0A20204368656D447261773130313931303231333832440A2035382035392020302020302020302020302020302020302020302020303939392056323030300A2020202D352E3538313420202020312E3736333420202020302E303030302043202020302020302020302020302020302020302020302020302020302020302020302020300A2020202D352E3538313420202020302E3933383420202020302E303030302043202020302020302020302020302020302020302020302020302020302020302020302020300A2020202D342E3836373020202020302E3532353920202020302E303030302043202020302020302020302020302020302020302020302020302020302020302020302020300A2020202D342E3135323520202020302E3933383420202020302E303030302043202020302020302020302020302020302020302020302020302020302020302020302020300A2020202D342E3135323520202020312E3736333420202020302E303030302043202020302020302020302020302020302020302020302020302020302020302020302020300A2020202D342E3836373020202020322E3137353920202020302E303030302043202020302020302020302020302020302020302020302020302020302020302020302020300A2020202D332E3433383020202020302E3532353920202020302E303030302043202020302020302020302020302020302020302020302020302020302020302020302020300A2020202D322E3732333620202020302E3933383420202020302E303030302043202020302020302020302020302020302020302020302020302020302020302020302020300A2020202D322E3732333620202020312E3736333420202020302E303030302043202020302020302020302020302020302020302020302020302020302020302020302020300A2020202D332E3433383020202020322E3137353920202020302E303030302043202020302020302020302020302020302020302020302020302020302020302020302020300A2020202D332E3433383020202020332E3030303920202020302E30303030204F202020302020302020302020302020302020302020302020302020302020302020302020300A2020202D332E343338302020202D302E3239393120202020302E30303030204F202020302020302020302020302020302020302020302020302020302020302020302020300A2020202D322E3030393120202020322E3137353920202020302E303030302043202020302020302020302020302020302020302020302020302020302020302020302020300A2020202D322E3030393120202020302E3532353920202020302E303030302043202020302020302020302020302020302020302020302020302020302020302020302020300A2020202D312E3239343620202020302E3933383420202020302E303030302043202020302020302020302020302020302020302020302020302020302020302020302020300A2020202D302E3538303120202020302E3532353920202020302E303030302043202020302020302020302020302020302020302020302020302020302020302020302020300A20202020302E3133343320202020302E3933383420202020302E303030302043202020302020302020302020302020302020302020302020302020302020302020302020300A2020202D302E353830312020202D302E3239393120202020302E303030302043202020302020302020302020302020302020302020302020302020302020302020302020300A20202020302E3639323820202020302E3438343720202020302E303030302043202020302020302020302020302020302020302020302020302020302020302020302020300A20202020312E3430373320202020302E3839373220202020302E303030302043202020302020302020302020302020302020302020302020302020302020302020302020300A20202020322E3132313720202020302E3438343720202020302E303030302043202020302020302020302020302020302020302020302020302020302020302020302020300A20202020322E3833363220202020302E3839373220202020302E303030302043202020302020302020302020302020302020302020302020302020302020302020302020300A20202020322E313231372020202D302E3334303320202020302E303030302043202020302020302020302020302020302020302020302020302020302020302020302020300A20202020332E3437373220202020302E3434333420202020302E303030302043202020302020302020302020302020302020302020302020302020302020302020302020300A20202020342E3139313620202020302E3835353920202020302E303030302043202020302020302020302020302020302020302020302020302020302020302020302020300A20202020342E3930363120202020302E3434333420202020302E303030302043202020302020302020302020302020302020302020302020302020302020302020302020300A20202020352E3632303620202020302E3835353920202020302E303030302043202020302020302020302020302020302020302020302020302020302020302020302020300A20202020342E393036312020202D302E3338313620202020302E303030302043202020302020302020302020302020302020302020302020302020302020302020302020300A20202020362E3137393020202020302E3430323220202020302E303030302043202020302020302020302020302020302020302020302020302020302020302020302020300A20202020362E353931352020202D302E3331323320202020302E303030302043202020302020302020302020302020302020302020302020302020302020302020302020300A20202020362E313739302020202D312E3032363820202020302E303030302043202020302020302020302020302020302020302020302020302020302020302020302020300A20202020362E353931352020202D312E3734313220202020302E303030302043202020302020302020302020302020302020302020302020302020302020302020302020300A20202020352E333534302020202D312E3032363820202020302E303030302043202020302020302020302020302020302020302020302020302020302020302020302020300A20202020362E363330312020202D322E3538383420202020302E303030302043202020302020302020302020302020302020302020302020302020302020302020302020300A20202020352E393135372020202D332E3030303920202020302E303030302043202020302020302020302020302020302020302020302020302020302020302020302020300A20202020352E323031322020202D322E3538383420202020302E303030302043202020302020302020302020302020302020302020302020302020302020302020302020300A20202020342E343836372020202D332E3030303920202020302E303030302043202020302020302020302020302020302020302020302020302020302020302020302020300A20202020352E323031322020202D312E3736333420202020302E303030302043202020302020302020302020302020302020302020302020302020302020302020302020300A20202020332E393238332020202D322E3534373220202020302E303030302043202020302020302020302020302020302020302020302020302020302020302020302020300A20202020332E323133382020202D322E3935393720202020302E303030302043202020302020302020302020302020302020302020302020302020302020302020302020300A20202020322E343939332020202D322E3534373220202020302E303030302043202020302020302020302020302020302020302020302020302020302020302020302020300A20202020312E373834392020202D322E3935393720202020302E303030302043202020302020302020302020302020302020302020302020302020302020302020302020300A20202020322E343939332020202D312E3732323220202020302E303030302043202020302020302020302020302020302020302020302020302020302020302020302020300A20202020312E313433392020202D322E3530353920202020302E303030302043202020302020302020302020302020302020302020302020302020302020302020302020300A20202020302E343239342020202D322E3931383420202020302E303030302043202020302020302020302020302020302020302020302020302020302020302020302020300A2020202D302E323835302020202D322E3530353920202020302E303030302043202020302020302020302020302020302020302020302020302020302020302020302020300A2020202D302E393939352020202D322E3931383420202020302E303030302043202020302020302020302020302020302020302020302020302020302020302020302020300A2020202D302E323835302020202D312E3638303920202020302E303030302043202020302020302020302020302020302020302020302020302020302020302020302020300A2020202D312E353538302020202D322E3436343720202020302E303030302043202020302020302020302020302020302020302020302020302020302020302020302020300A2020202D322E323732352020202D322E3837373220202020302E303030302043202020302020302020302020302020302020302020302020302020302020302020302020300A2020202D322E393836392020202D322E3436343720202020302E303030302043202020302020302020302020302020302020302020302020302020302020302020302020300A2020202D332E373031342020202D322E3837373220202020302E303030302043202020302020302020302020302020302020302020302020302020302020302020302020300A2020202D322E393836392020202D312E3633393720202020302E303030302043202020302020302020302020302020302020302020302020302020302020302020302020300A2020202D342E343836372020202D322E3530353920202020302E303030302043202020302020302020302020302020302020302020302020302020302020302020302020300A2020202D352E323031322020202D322E3931383420202020302E303030302043202020302020302020302020302020302020302020302020302020302020302020302020300A2020202D352E393135372020202D322E3530353920202020302E303030302043202020302020302020302020302020302020302020302020302020302020302020302020300A2020202D362E363330312020202D322E3931383420202020302E303030302043202020302020302020302020302020302020302020302020302020302020302020302020300A2020202D352E393135372020202D312E3638303920202020302E303030302043202020302020302020302020302020302020302020302020302020302020302020302020300A2020312020322020322020302020202020200A2020322020332020312020302020202020200A2020332020342020322020302020202020200A2020342020352020312020302020202020200A2020352020362020322020302020202020200A2020362020312020312020302020202020200A2020342020372020312020302020202020200A2020372020382020312020302020202020200A2020382020392020322020302020202020200A2020392031302020312020302020202020200A2031302020352020312020302020202020200A2031302031312020322020302020202020200A2020372031322020322020302020202020200A2020392031332020312020302020202020200A2020382031342020312020302020202020200A2031342031352020312020302020202020200A2031352031362020322020302020202020200A2031362031372020312020302020202020200A2031362031382020312020302020202020200A2031392032302020312020302020202020200A2032302032312020322020302020202020200A2032312032322020312020302020202020200A2032312032332020312020302020202020200A2031372031392020312020302020202020200A2032342032352020312020302020202020200A2032352032362020322020302020202020200A2032362032372020312020302020202020200A2032362032382020312020302020202020200A2032392033302020312020302020202020200A2033302033312020322020302020202020200A2033312033322020312020302020202020200A2033312033332020312020302020202020200A2032372032392020312020302020202020200A2032322032342020312020302020202020200A2033342033352020312020302020202020200A2033352033362020322020302020202020200A2033362033372020312020302020202020200A2033362033382020312020302020202020200A2033392034302020312020302020202020200A2034302034312020322020302020202020200A2034312034322020312020302020202020200A2034312034332020312020302020202020200A2033372033392020312020302020202020200A2034342034352020312020302020202020200A2034352034362020322020302020202020200A2034362034372020312020302020202020200A2034362034382020312020302020202020200A2034392035302020312020302020202020200A2035302035312020322020302020202020200A2035312035322020312020302020202020200A2035312035332020312020302020202020200A2034372034392020312020302020202020200A2034322034342020312020302020202020200A2033322033342020312020302020202020200A2035342035352020312020302020202020200A2035352035362020322020302020202020200A2035362035372020312020302020202020200A2035362035382020312020302020202020200A2035342035322020312020302020202020200A4D2020454E44
Contributor: NARA WOMEN'S UNIVERSITY
InstType: EI
InstName: HITACHI M-80
IoniMethod: _ENERGY 70 eV
IonPolarity: pos
Date: 2010-10-09 19:48:36+02:00
Num Peaks: 149
39 43 41 159 42 16 43 69 53 56 55 127 57 29 65 13 67 121 68 194 
69 999 70 60 71 10 76 11 77 37 79 81 80 32 81 633 82 55 83 41 
91 55 92 21 93 223 94 54 95 236 96 23 97 22 104 12 105 84 106 20 
107 176 108 45 109 160 110 14 111 21 115 19 119 74 120 23 121 198 122 58 
123 123 124 15 128 13 129 13 131 16 133 78 134 45 135 265 136 76 137 134 
138 16 141 13 145 29 146 12 147 93 148 40 149 88 150 15 152 10 157 19 
159 37 160 12 161 85 162 22 163 47 165 24 166 10 171 15 173 31 174 12 
175 42 176 13 177 28 178 17 181 23 185 10 186 62 187 179 188 32 189 76 
190 23 191 28 193 15 194 10 195 25 196 25 197 57 198 30 199 25 200 11 
201 35 202 16 203 52 204 40 205 20 209 21 210 16 211 26 213 15 215 18 
217 17 221 22 222 22 223 25 224 89 225 853 226 161 227 91 228 18 229 14 
237 12 238 19 239 108 240 85 241 27 242 15 243 12 251 20 252 20 253 22 
257 18 259 10 265 43 266 16 267 12 271 20 272 16 291 12 293 11 305 11 
307 43 308 47 309 13 310 12 339 10 340 13 375 20 376 20 409 11 443 16 
444 16 511 14 513 12 769 11 782 17 784 338 785 150 786 58 787 30 
