Name: EXO-NORBORNEOL
MW: 112
Formula: C7H12O
Synonym: MassBank: JP007647
Synonym: EXO-NORBORNEOL
Synonym: EXO-BICYCLO(2.2.1)HEPTAN-2-OL
Structure: 310A32320A303134375F45584F2D4E4F52424F524E454F4C2E6D6F6C0A20204368656D447261773039303331303138313932440A2020382020392020302020302020302020302020302020302020302020303939392056323030300A20202020302E3431323520202020302E3030303020202020302E303030302043202020302020302020302020302020302020302020302020302020302020302020302020300A20202020312E3233373520202020302E3030303020202020302E30303030204F202020302020302020302020302020302020302020302020302020302020302020302020300A2020202D302E3030303020202020302E3731343520202020302E303030302043202020302020302020302020302020302020302020302020302020302020302020302020300A2020202D302E3832353020202020302E3731343520202020302E303030302043202020302020302020302020302020302020302020302020302020302020302020302020300A2020202D312E3233373520202020302E3030303020202020302E303030302043202020302020302020302020302020302020302020302020302020302020302020302020300A2020202D302E383235302020202D302E3731343520202020302E303030302043202020302020302020302020302020302020302020302020302020302020302020302020300A2020202D302E303030302020202D302E3731343520202020302E303030302043202020302020302020302020302020302020302020302020302020302020302020302020300A2020202D302E323537312020202D302E3036393420202020302E303030302043202020302020302020302020302020302020302020302020302020302020302020302020300A2020312020322020312020312020202020200A2020312020332020312020302020202020200A2020332020342020312020302020202020200A2020342020352020312020302020202020200A2020352020362020312020302020202020200A2020362020372020312020302020202020200A2020372020312020312020302020202020200A2020332020382020312020312020202020200A2020362020382020312020312020202020200A4D2020454E44
Contributor: YAMAMOTO M, DEP. CHEMISTRY, FAC. SCIENCE, NARA WOMEN'S UNIV.
InstType: EI
InstName: HITACHI RMU-6M
IoniMethod: _ENERGY 15 eV
IonPolarity: pos
Date: 2010-10-09 19:48:36+02:00
Num Peaks: 29
42 12 43 20 44 16 45 36 54 13 55 37 56 53 57 86 58 34 66 431 
67 201 68 371 69 31 70 74 71 43 78 12 79 443 80 41 81 65 82 16 
83 78 84 47 93 26 94 999 95 86 96 11 97 53 111 14 112 31 
