Name: 2-HYDROXY-4-N-OCTYLOXY-BENZOPHENONE
MW: 326
Formula: C21H26O3
Synonym: MassBank: JP003568
Synonym: 2-HYDROXY-4-N-OCTYLOXY-BENZOPHENONE
Structure: 322D485944524F58592D342D4E2D4F4354594C4F58592D42454E5A4F5048454E4F4E452E6D6F6C0A20204368656D447261773031323131303231323632440A2032342032352020302020302020302020302020302020302020302020303939392056323030300A20202020302E333537322020202D322E3838373520202020302E303030302043202020302020302020302020302020302020302020302020302020302020302020302020300A2020202D302E333537322020202D322E3437353020202020302E303030302043202020302020302020302020302020302020302020302020302020302020302020302020300A2020202D312E303731372020202D322E3838373520202020302E303030302043202020302020302020302020302020302020302020302020302020302020302020302020300A2020202D312E373836322020202D322E3437353020202020302E303030302043202020302020302020302020302020302020302020302020302020302020302020302020300A2020202D312E373836322020202D312E3635303020202020302E303030302043202020302020302020302020302020302020302020302020302020302020302020302020300A2020202D312E303731372020202D312E3233373520202020302E303030302043202020302020302020302020302020302020302020302020302020302020302020302020300A2020202D302E333537322020202D312E3635303020202020302E303030302043202020302020302020302020302020302020302020302020302020302020302020302020300A20202020302E333537322020202D332E3731323520202020302E30303030204F202020302020302020302020302020302020302020302020302020302020302020302020300A20202020312E303731372020202D322E3437353020202020302E303030302043202020302020302020302020302020302020302020302020302020302020302020302020300A20202020312E303731372020202D312E3635303020202020302E303030302043202020302020302020302020302020302020302020302020302020302020302020302020300A20202020312E373836322020202D312E3233373520202020302E303030302043202020302020302020302020302020302020302020302020302020302020302020302020300A20202020322E353030362020202D312E3635303020202020302E303030302043202020302020302020302020302020302020302020302020302020302020302020302020300A20202020322E353030362020202D322E3437353020202020302E303030302043202020302020302020302020302020302020302020302020302020302020302020302020300A20202020312E373836322020202D322E3838373520202020302E303030302043202020302020302020302020302020302020302020302020302020302020302020302020300A2020202D322E353030362020202D312E3233373520202020302E30303030204F202020302020302020302020302020302020302020302020302020302020302020302020300A2020202D322E353030362020202D302E3431323520202020302E303030302043202020302020302020302020302020302020302020302020302020302020302020302020300A2020202D312E3738363220202020302E3030303020202020302E303030302043202020302020302020302020302020302020302020302020302020302020302020302020300A2020202D312E3738363220202020302E3832353020202020302E303030302043202020302020302020302020302020302020302020302020302020302020302020302020300A2020202D312E3037313720202020312E3233373520202020302E303030302043202020302020302020302020302020302020302020302020302020302020302020302020300A2020202D312E3037313720202020322E3036323520202020302E303030302043202020302020302020302020302020302020302020302020302020302020302020302020300A2020202D302E3335373220202020322E3437353020202020302E303030302043202020302020302020302020302020302020302020302020302020302020302020302020300A2020202D302E3335373220202020332E3330303020202020302E303030302043202020302020302020302020302020302020302020302020302020302020302020302020300A20202020302E3335373220202020332E3731323520202020302E303030302043202020302020302020302020302020302020302020302020302020302020302020302020300A2020202D312E303731372020202D332E3731323520202020302E30303030204F202020302020302020302020302020302020302020302020302020302020302020302020300A2020312020322020312020302020202020200A2020322020332020312020302020202020200A2020332020342020322020302020202020200A2020342020352020312020302020202020200A2020352020362020322020302020202020200A2020362020372020312020302020202020200A2020322020372020322020302020202020200A2020392031302020312020302020202020200A2031302031312020322020302020202020200A2031312031322020312020302020202020200A2031322031332020322020302020202020200A2031332031342020312020302020202020200A2020392031342020322020302020202020200A2020312020382020322020302020202020200A2020312020392020312020302020202020200A2031362031372020312020302020202020200A2031372031382020312020302020202020200A2031382031392020312020302020202020200A2031392032302020312020302020202020200A2032302032312020312020302020202020200A2032312032322020312020302020202020200A2032322032332020312020302020202020200A2031352031362020312020302020202020200A2020352031352020312020302020202020200A2020332032342020312020302020202020200A4D2020454E44
Contributor: MASS SPECTROSCOPY SOC. OF JAPAN (MSSJ)
InstType: EI
InstName: Unknown
IoniMethod: EI
IonPolarity: pos
Date: 2010-10-09 19:48:36+02:00
Num Peaks: 35
27 64 29 221 39 37 41 314 42 30 43 336 51 30 53 34 55 142 57 161 
69 83 71 58 77 181 81 35 105 397 106 28 107 29 108 30 128 25 136 49 
137 396 138 33 141 25 145 43 185 23 186 38 197 45 212 99 213 999 214 609 
215 106 324 37 325 182 326 521 327 114 
