Name: (PENTAFLUOROPHENYL)DIFLUOROPHOSPHINE
MW: 235
Formula: C6F7P
Synonym: MassBank: JP003808
Synonym: (PENTAFLUOROPHENYL)DIFLUOROPHOSPHINE
Structure: 2850454E5441464C554F524F5048454E594C294449464C554F524F50484F535048494E452E6D6F6C0A20204368656D447261773130323230393137323132440A2031342031342020302020302020302020302020302020302020302020303939392056323030300A2020202D302E3731343520202020302E3631383720202020302E303030302043202020302020302020302020302020302020302020302020302020302020302020302020300A2020202D302E373134352020202D302E3230363320202020302E303030302043202020302020302020302020302020302020302020302020302020302020302020302020300A2020202D302E303030302020202D302E3631383820202020302E303030302043202020302020302020302020302020302020302020302020302020302020302020302020300A20202020302E373134352020202D302E3230363320202020302E303030302043202020302020302020302020302020302020302020302020302020302020302020302020300A20202020302E3731343520202020302E3631383720202020302E303030302043202020302020302020302020302020302020302020302020302020302020302020302020300A2020202D302E3030303020202020312E3033313220202020302E303030302043202020302020302020302020302020302020302020302020302020302020302020302020300A20202020312E3432383920202020312E3033313220202020302E303030302046202020302020302020302020302020302020302020302020302020302020302020302020300A20202020312E343238392020202D302E3631383820202020302E303030302046202020302020302020302020302020302020302020302020302020302020302020302020300A2020202D302E303030302020202D312E3434333820202020302E303030302046202020302020302020302020302020302020302020302020302020302020302020302020300A2020202D312E343238392020202D302E3631383820202020302E303030302046202020302020302020302020302020302020302020302020302020302020302020302020300A2020202D312E3432383920202020312E3033313220202020302E303030302046202020302020302020302020302020302020302020302020302020302020302020302020300A2020202D302E3030313420202020312E3434333820202020302E303030302050202020302020302020302020302020302020302020302020302020302020302020302020300A20202020302E3731333120202020312E3033313320202020302E303030302046202020302020302020302020302020302020302020302020302020302020302020302020300A2020202D302E3731353820202020312E3033313220202020302E303030302046202020302020302020302020302020302020302020302020302020302020302020302020300A2020312020322020322020302020202020200A2020322020332020312020302020202020200A2020332020342020322020302020202020200A2020342020352020312020302020202020200A2020352020362020322020302020202020200A2020362020312020312020302020202020200A2020352020372020312020302020202020200A2020342020382020312020302020202020200A2020332020392020312020302020202020200A2020322031302020312020302020202020200A2020312031312020312020302020202020200A2020362031322020312020302020202020200A2031322031332020312020302020202020200A2031322031342020312020302020202020200A4D202053545920203120202031205355500A4D2020534C4220203120202031202020310A4D202053414C202020312020332020313220203133202031340A4D202053424C20202031202031202031320A4D2020534D5420202031205046320A4D2020534256202020312031322020202D382E3030333920202020362E363631390A4D2020454E44
Contributor: SASAKI S, TOYOHASHI UNIV. OF TECH.
InstType: EI
InstName: Unknown
IoniMethod: _ENERGY 70 eV
IonPolarity: pos
Date: 2010-10-09 19:48:36+02:00
Num Peaks: 20
31 45 50 17 69 999 79 10 81 30 88 14 93 62 98 17 99 24 110 25 
117 172 129 14 148 470 149 33 167 20 168 3 198 2 217 104 236 910 237 63 
