Name: IODO METHANE
MW: 141
Formula: CH3I
Synonym: MassBank: JP001013
Synonym: IODO METHANE
Synonym: METHYL IODIDE
Structure: 310A380A4D455448594C20494F444944452E6D6F6C0A20204368656D447261773038313231303030323332440A2020322020312020302020302020302020302020302020302020302020303939392056323030300A2020202D302E3431323520202020302E3030303020202020302E303030302043202020302020302020302020302020302020302020302020302020302020302020302020300A20202020302E3431323520202020302E3030303020202020302E303030302049202020302020302020302020302020302020302020302020302020302020302020302020300A2020312020322020312020302020202020200A4D2020454E44
Contributor: TAJIMA S, GUNMA COLLEGE OF TECHNOLOGY
InstType: EI
InstName: HITACHI RMU-7M
IoniMethod: _ENERGY 70 eV
IonPolarity: pos
Date: 2010-10-09 19:48:36+02:00
Num Peaks: 8
15 228 127 184 128 25 139 34 140 33 141 139 1420 999 143 12 
