Name: 2-TERT-BUTYLCYCLOHEXANONE
MW: 154
Formula: C10H18O
Synonym: MassBank: JP008619
Synonym: 2-TERT-BUTYLCYCLOHEXANONE
Synonym: 2-(1,1-DIMETHYLETHYL)CYCLOHEXANONE
Structure: 322D544552542D425554594C4359434C4F484558414E4F4E452E6D6F6C0A20204368656D447261773132323130393035323032440A2031312031312020302020302020302020302020302020302020302020303939392056323030300A2020202D302E343132352020202D302E3431323520202020302E303030302043202020302020302020302020302020302020302020302020302020302020302020302020300A20202020302E3030303020202020302E3330323020202020302E303030302043202020302020302020302020302020302020302020302020302020302020302020302020300A2020202D302E3431323520202020312E3031363420202020302E303030302043202020302020302020302020302020302020302020302020302020302020302020302020300A2020202D312E3233373520202020312E3031363420202020302E303030302043202020302020302020302020302020302020302020302020302020302020302020302020300A2020202D312E3635303020202020302E3330323020202020302E303030302043202020302020302020302020302020302020302020302020302020302020302020302020300A2020202D312E323337352020202D302E3431323520202020302E303030302043202020302020302020302020302020302020302020302020302020302020302020302020300A20202020302E3832353020202020302E3330323020202020302E303030302043202020302020302020302020302020302020302020302020302020302020302020302020300A20202020302E3832353020202020312E3132373020202020302E303030302043202020302020302020302020302020302020302020302020302020302020302020302020300A20202020302E383235302020202D302E3532333020202020302E303030302043202020302020302020302020302020302020302020302020302020302020302020302020300A20202020312E3635303020202020302E3330323020202020302E303030302043202020302020302020302020302020302020302020302020302020302020302020302020300A20202020302E303030302020202D312E3132373020202020302E30303030204F202020302020302020302020302020302020302020302020302020302020302020302020300A2020312020322020312020302020202020200A2020322020332020312020302020202020200A2020332020342020312020302020202020200A2020342020352020312020302020202020200A2020352020362020312020302020202020200A2020312020362020312020302020202020200A2020372020382020312020302020202020200A2020372031302020312020302020202020200A2020372020392020312020302020202020200A2020322020372020312020302020202020200A2020312031312020322020302020202020200A4D2020454E44
Contributor: SODA AROMATIC CO., LTD.
InstType: EI
InstName: HITACHI M-80B
IoniMethod: _ENERGY 70 eV
IonPolarity: pos
Date: 2010-10-09 19:48:36+02:00
Num Peaks: 37
15 10 27 117 29 125 39 147 40 10 41 397 42 70 43 82 51 14 53 55 
54 14 55 262 56 52 57 310 58 12 65 11 67 67 68 14 69 230 70 205 
71 20 77 13 79 18 81 21 83 206 84 16 93 12 95 93 96 13 97 96 
98 999 99 71 110 18 111 16 121 11 139 111 154 22 
