Name: METHYL OCTYL SULFIDE
MW: 160
Formula: C9H20S
Synonym: MassBank: JP009130
Synonym: METHYL OCTYL SULFIDE
Structure: 4D455448594C204F4354594C2053554C464944452E6D6F6C0A20204368656D447261773038313231303030333032440A2031302020392020302020302020302020302020302020302020302020303939392056323030300A2020202D322E3530303620202020302E3230363220202020302E303030302053202020302020302020302020302020302020302020302020302020302020302020302020300A2020202D312E373836322020202D302E3230363220202020302E303030302043202020302020302020302020302020302020302020302020302020302020302020302020300A2020202D312E3037313720202020302E3230363220202020302E303030302043202020302020302020302020302020302020302020302020302020302020302020302020300A2020202D302E333537322020202D302E3230363220202020302E303030302043202020302020302020302020302020302020302020302020302020302020302020302020300A20202020302E3335373220202020302E3230363220202020302E303030302043202020302020302020302020302020302020302020302020302020302020302020302020300A20202020312E303731372020202D302E3230363220202020302E303030302043202020302020302020302020302020302020302020302020302020302020302020302020300A20202020312E3738363220202020302E3230363220202020302E303030302043202020302020302020302020302020302020302020302020302020302020302020302020300A20202020322E353030362020202D302E3230363220202020302E303030302043202020302020302020302020302020302020302020302020302020302020302020302020300A20202020332E3231353120202020302E3230363220202020302E303030302043202020302020302020302020302020302020302020302020302020302020302020302020300A2020202D332E323135312020202D302E3230363220202020302E303030302043202020302020302020302020302020302020302020302020302020302020302020302020300A2020322020332020312020302020202020200A2020332020342020312020302020202020200A2020342020352020312020302020202020200A2020352020362020312020302020202020200A2020362020372020312020302020202020200A2020372020382020312020302020202020200A2020382020392020312020302020202020200A2020312020322020312020302020202020200A2020312031302020312020302020202020200A4D2020454E44
Contributor: SODA AROMATIC CO., LTD.
InstType: EI
InstName: HITACHI M-80B
IoniMethod: _ENERGY 70 eV
IonPolarity: pos
Date: 2010-10-09 19:48:36+02:00
Num Peaks: 61
15 25 26 21 27 432 28 56 29 453 30 11 35 76 39 239 40 41 41 868 
42 315 43 515 44 19 45 123 46 78 47 185 48 386 49 178 50 23 51 18 
53 65 54 51 55 581 56 578 57 218 58 21 59 48 60 26 61 999 62 123 
63 49 65 15 67 52 68 99 69 452 70 466 71 87 73 17 74 17 75 125 
76 38 77 13 81 12 82 52 83 284 84 264 85 23 87 13 89 32 97 29 
103 112 112 73 117 20 131 20 145 446 146 40 147 19 159 41 160 478 161 47 
162 23 
