Name: 4-METHYLPHENYLAMINO-2(5H)-FURANONE
MW: 189
Formula: C11H11NO2
Synonym: MassBank: JP005115
Synonym: 4-METHYLPHENYLAMINO-2(5H)-FURANONE
Structure: 342D4D455448594C5048454E594C414D494E4F2D32283548292D465552414E4F4E452E6D6F6C0A20204368656D447261773034323231303136323032440A2031342031352020302020302020302020302020302020302020302020303939392056323030300A20202020322E3038313820202020302E3032333420202020302E30303030204F202020302020302020302020302020302020302020302020302020302020302020302020300A20202020312E353239382020202D302E3538393620202020302E303030302043202020302020302020302020302020302020302020302020302020302020302020302020300A20202020302E373736312020202D302E3235343120202020302E303030302043202020302020302020302020302020302020302020302020302020302020302020302020300A20202020302E3836323320202020302E3536363420202020302E303030302043202020302020302020302020302020302020302020302020302020302020302020302020300A20202020312E3636393320202020302E3733373920202020302E303030302043202020302020302020302020302020302020302020302020302020302020302020302020300A20202020302E303631362020202D302E3636363620202020302E30303030204E202020302020302020302020302020302020302020302020302020302020302020302020300A2020202D302E363532392020202D302E3235343120202020302E303030302043202020302020302020302020302020302020302020302020302020302020302020302020300A2020202D312E333637332020202D302E3636363620202020302E303030302043202020302020302020302020302020302020302020302020302020302020302020302020300A2020202D322E303831382020202D302E3235343120202020302E303030302043202020302020302020302020302020302020302020302020302020302020302020302020300A2020202D322E3038313820202020302E3537303920202020302E303030302043202020302020302020302020302020302020302020302020302020302020302020302020300A2020202D312E3336373320202020302E3938333420202020302E303030302043202020302020302020302020302020302020302020302020302020302020302020302020300A2020202D302E3635323920202020302E3537303920202020302E303030302043202020302020302020302020302020302020302020302020302020302020302020302020300A20202020302E303631362020202D312E3439313620202020302E303030302043202020302020302020302020302020302020302020302020302020302020302020302020300A20202020322E3030343920202020312E3439313620202020302E30303030204F202020302020302020302020302020302020302020302020302020302020302020302020300A2020312020322020312020302020202020200A2020322020332020312020302020202020200A2020332020342020322020302020202020200A2020342020352020312020302020202020200A2020312020352020312020302020202020200A2020372020382020312020302020202020200A2020382020392020322020302020202020200A2020392031302020312020302020202020200A2031302031312020322020302020202020200A2031312031322020312020302020202020200A2020372031322020322020302020202020200A2020362020372020312020302020202020200A2020332020362020312020302020202020200A2020362031332020312020302020202020200A2020352031342020322020302020202020200A4D2020454E44
Contributor: HAYASHI A, FAC. OF SCIENCE AND TECHNOLOGY, KINKI UNIV.
InstType: EI
InstName: JEOL JMS-HX-100
IoniMethod: _ENERGY 23 eV
IonPolarity: pos
Date: 2010-10-09 19:48:36+02:00
Num Peaks: 75
43 4 44 3 55 7 56 3 57 9 60 5 61 4 69 8 70 5 71 8 
73 5 77 4 81 6 82 184 83 14 84 7 85 6 90 4 91 30 92 4 
94 4 95 6 96 8 97 9 98 6 99 5 104 7 105 16 106 9 107 9 
108 4 109 4 110 6 111 7 112 5 113 5 116 24 117 15 118 20 119 4 
121 3 123 5 124 4 125 4 127 9 129 8 130 28 131 57 132 165 133 20 
136 4 137 5 138 4 139 4 142 4 143 8 144 155 145 33 146 9 149 8 
151 4 158 8 159 7 160 31 161 14 165 4 167 4 174 6 175 9 185 4 
188 28 189 999 190 137 191 15 192 4 
