Name: FURFURAL
CAS: 98-01-1
MW: 96
Formula: C5H4O2
Synonym: MassBank: JP007324
Synonym: FURFURAL
Synonym: 2-FURANCARBOXALDEHYDE
Structure: 310A31390A465552465552414C2E6D6F6C0A20204368656D447261773031303331303133353332440A2020372020372020302020302020302020302020302020302020302020303939392056323030300A20202020302E3635323920202020302E3730323320202020302E303030302043202020302020302020302020302020302020302020302020302020302020302020302020300A2020202D302E3036313620202020302E3238393820202020302E303030302043202020302020302020302020302020302020302020302020302020302020302020302020300A2020202D302E313437392020202D302E3533303720202020302E303030302043202020302020302020302020302020302020302020302020302020302020302020302020300A2020202D302E393534382020202D302E3730323320202020302E303030302043202020302020302020302020302020302020302020302020302020302020302020302020300A2020202D312E3336373320202020302E3031323220202020302E303030302043202020302020302020302020302020302020302020302020302020302020302020302020300A2020202D302E3831353320202020302E3632353320202020302E30303030204F202020302020302020302020302020302020302020302020302020302020302020302020300A20202020312E3336373320202020302E3238393820202020302E30303030204F202020302020302020302020302020302020302020302020302020302020302020302020300A2020312020322020312020302020202020200A2020322020332020322020302020202020200A2020332020342020312020302020202020200A2020342020352020322020302020202020200A2020352020362020312020302020202020200A2020322020362020312020302020202020200A2020312020372020322020302020202020200A4D2020454E44
Contributor: YAMAMOTO M, DEP. CHEMISTRY, FAC. SCIENCE, NARA WOMEN'S UNIV.
InstType: EI
InstName: HITACHI RMU-6M
IoniMethod: _ENERGY 70 eV
IonPolarity: pos
Date: 2010-10-09 19:48:36+02:00
Num Peaks: 22
14 14 25 12 26 22 28 58 29 172 36 16 37 110 38 180 39 645 40 65 
41 17 42 53 49 17 50 26 51 27 53 17 66 13 67 56 68 14 95 904 
96 999 97 62 
