Name: 3-CARBOMETHOXYPROPIONYL CHLORIDE
MW: 150
Formula: C5H7ClO3
Synonym: MassBank: JP005397
Synonym: 3-CARBOMETHOXYPROPIONYL CHLORIDE
Structure: 310A32320A332D434152424F4D4554484F585950524F50494F4E594C2043484C4F524944452E6D6F6C0A20204368656D447261773032323231303134343632440A2020392020382020302020302020302020302020302020302020302020303939392056323030300A2020202D312E3037313720202020302E3230363220202020302E303030302043202020302020302020302020302020302020302020302020302020302020302020302020300A2020202D312E3037313720202020312E3033313220202020302E30303030204F202020302020302020302020302020302020302020302020302020302020302020302020300A2020202D302E333537322020202D302E3230363320202020302E303030302043202020302020302020302020302020302020302020302020302020302020302020302020300A20202020302E3335373220202020302E3230363220202020302E303030302043202020302020302020302020302020302020302020302020302020302020302020302020300A20202020312E303731372020202D302E3230363220202020302E303030302043202020302020302020302020302020302020302020302020302020302020302020302020300A20202020312E303731372020202D312E3033313320202020302E30303030204F202020302020302020302020302020302020302020302020302020302020302020302020300A20202020312E3738363220202020302E3230363220202020302E30303030204F202020302020302020302020302020302020302020302020302020302020302020302020300A20202020312E3738363220202020312E3033313320202020302E303030302043202020302020302020302020302020302020302020302020302020302020302020302020300A2020202D312E373836322020202D302E3230363320202020302E3030303020436C2020302020302020302020302020302020302020302020302020302020302020302020300A2020312020322020322020302020202020200A2020312020332020312020302020202020200A2020332020342020312020302020202020200A2020352020362020322020302020202020200A2020372020382020312020302020202020200A2020352020372020312020302020202020200A2020342020352020312020302020202020200A2020312020392020312020302020202020200A4D2020454E44
Contributor: TAJIMA S, GUNMA COLLEGE OF TECHNOLOGY
InstType: EI
InstName: HITACHI RMU-7M
IoniMethod: _ENERGY 70 eV
IonPolarity: pos
Date: 2010-10-09 19:48:36+02:00
Num Peaks: 30
14 66 15 256 25 31 26 207 27 387 28 412 29 263 30 43 31 76 35 49 
36 52 37 29 38 25 41 38 42 111 43 40 45 64 50 33 55 690 56 182 
59 311 63 85 65 32 87 113 101 43 114 161 115 999 116 57 119 138 121 42 
