Name: 3-FORMYL-2-METHYLINDOLE
MW: 159
Formula: C10H9NO
Synonym: MassBank: JP000433
Synonym: 3-FORMYL-2-METHYLINDOLE
Structure: 332D464F524D594C2D322D4D455448594C494E444F4C452E6D6F6C0A20204368656D447261773032323231303138303332440A2031322031332020302020302020302020302020302020302020302020303939392056323030300A2020202D302E3133373820202020302E3938323520202020302E30303030204E202020302020302020302020302020302020302020302020302020302020302020302020300A20202020302E3631353920202020302E3634373020202020302E303030302043202020302020302020302020302020302020302020302020302020302020302020302020300A20202020302E353239362020202D302E3137333520202020302E303030302043202020302020302020302020302020302020302020302020302020302020302020302020300A2020202D302E323737332020202D302E3334353020202020302E303030302043202020302020302020302020302020302020302020302020302020302020302020302020300A2020202D302E363839382020202D312E3035393520202020302E303030302043202020302020302020302020302020302020302020302020302020302020302020302020300A2020202D312E353134382020202D312E3035393520202020302E303030302043202020302020302020302020302020302020302020302020302020302020302020302020300A2020202D312E393237332020202D302E3334353020202020302E303030302043202020302020302020302020302020302020302020302020302020302020302020302020300A2020202D312E3531343820202020302E3336393520202020302E303030302043202020302020302020302020302020302020302020302020302020302020302020302020300A2020202D302E3638393820202020302E3336393520202020302E303030302043202020302020302020302020302020302020302020302020302020302020302020302020300A20202020312E3333303320202020312E3035393520202020302E303030302043202020302020302020302020302020302020302020302020302020302020302020302020300A20202020312E313432372020202D302E3732353520202020302E303030302043202020302020302020302020302020302020302020302020302020302020302020302020300A20202020312E393237332020202D302E3437303620202020302E30303030204F202020302020302020302020302020302020302020302020302020302020302020302020300A2020312020322020312020302020202020200A2020322020332020322020302020202020200A2020332020342020312020302020202020200A2020342020352020312020302020202020200A2020352020362020322020302020202020200A2020362020372020312020302020202020200A2020372020382020322020302020202020200A2020382020392020312020302020202020200A2020312020392020312020302020202020200A2020342020392020322020302020202020200A2020322031302020312020302020202020200A2031312031322020322020302020202020200A2020332031312020312020302020202020200A4D2020454E44
Contributor: SASAKI S, TOYOHASHI UNIV. OF TECH.
InstType: EI
InstName: MX-1303
IoniMethod: _ENERGY 50 eV
IonPolarity: pos
Date: 2010-10-09 19:48:36+02:00
Num Peaks: 58
39 47 41 113 42 19 43 16 44 11 45 38 50 19 51 8 52 19 53 10 
54 11 55 10 56 28 57 129 60 48 61 1 62 14 63 40 64 11 65 4 
67 22 68 22 69 242 70 3 71 66 73 66 74 14 75 2 76 22 77 210 
78 13 79 2 81 72 82 19 83 53 84 2 85 31 87 13 89 22 95 2 
96 15 97 38 98 16 101 2 102 50 103 155 104 16 109 1 111 16 128 22 
129 43 130 14 131 22 137 11 154 17 158 999 159 806 160 72 
