Name: 4-METHYLPYRIDINE
MW: 93
Formula: C6H7N
Synonym: MassBank: JP003929
Synonym: 4-METHYLPYRIDINE
Structure: 310A31390A342D4D455448594C5059524944494E452E6D6F6C0A20204368656D447261773034323231303136323232440A2020372020372020302020302020302020302020302020302020302020303939392056323030300A20202020302E383235302020202D302E3731343520202020302E303030302043202020302020302020302020302020302020302020302020302020302020302020302020300A2020202D302E303030302020202D302E3731343520202020302E303030302043202020302020302020302020302020302020302020302020302020302020302020302020300A2020202D302E3431323520202020302E3030303020202020302E303030302043202020302020302020302020302020302020302020302020302020302020302020302020300A2020202D302E3030303020202020302E3731343520202020302E303030302043202020302020302020302020302020302020302020302020302020302020302020302020300A20202020302E3832353020202020302E3731343520202020302E303030302043202020302020302020302020302020302020302020302020302020302020302020302020300A20202020312E323337352020202D302E3030303020202020302E30303030204E202020302020302020302020302020302020302020302020302020302020302020302020300A2020202D312E3233373520202020302E3030303020202020302E303030302043202020302020302020302020302020302020302020302020302020302020302020302020300A2020312020322020322020302020202020200A2020322020332020312020302020202020200A2020332020342020322020302020202020200A2020342020352020312020302020202020200A2020352020362020322020302020202020200A2020312020362020312020302020202020200A2020332020372020312020302020202020200A4D2020454E44
Contributor: MASS SPECTROSCOPY SOC. OF JAPAN (MSSJ)
InstType: EI
InstName: Unknown
IoniMethod: EI
IonPolarity: pos
Date: 2010-10-09 19:48:36+02:00
Num Peaks: 29
25 21 26 107 27 100 28 8 31 30 37 73 38 160 39 41 40 164 41 62 
42 20 49 3 50 107 51 159 52 80 53 7 54 78 61 33 62 57 63 9 
64 55 65 242 66 430 78 9 91 35 92 241 93 999 94 9 107 32 
