Name: TRIMESIC ACID TRIMETHYL ESTER
CAS: 2672-58-4
MW: 252
Formula: C12H12O6
Synonym: MassBank: JP008262
Synonym: TRIMESIC ACID TRIMETHYL ESTER
Synonym: 1,3,5-BENZENETRICARBOXYLIC ACID TRIMETHYLESTER
Structure: 5452494D455349432041434944205452494D455448594C2045535445522E6D6F6C0A20204368656D447261773131313130393137353732440A2031382031382020302020302020302020302020302020302020302020303939392056323030300A2020202D312E343238392020202D302E3832353020202020302E303030302043202020302020302020302020302020302020302020302020302020302020302020302020300A2020202D302E373134352020202D302E3431323520202020302E303030302043202020302020302020302020302020302020302020302020302020302020302020302020300A2020202D302E3731343520202020302E3431323520202020302E303030302043202020302020302020302020302020302020302020302020302020302020302020302020300A2020202D302E3030303020202020302E3832353020202020302E303030302043202020302020302020302020302020302020302020302020302020302020302020302020300A2020202D302E3030303020202020312E3635303020202020302E303030302043202020302020302020302020302020302020302020302020302020302020302020302020300A20202020302E3731343520202020302E3431323520202020302E303030302043202020302020302020302020302020302020302020302020302020302020302020302020300A20202020302E373134352020202D302E3431323520202020302E303030302043202020302020302020302020302020302020302020302020302020302020302020302020300A20202020312E343238392020202D302E3832353020202020302E303030302043202020302020302020302020302020302020302020302020302020302020302020302020300A20202020302E303030302020202D302E3832353020202020302E303030302043202020302020302020302020302020302020302020302020302020302020302020302020300A2020202D322E313433342020202D302E3431323520202020302E30303030204F202020302020302020302020302020302020302020302020302020302020302020302020300A2020202D312E343238392020202D312E3635303020202020302E30303030204F202020302020302020302020302020302020302020302020302020302020302020302020300A20202020302E3731343520202020322E3036323520202020302E30303030204F202020302020302020302020302020302020302020302020302020302020302020302020300A2020202D302E3731343520202020322E3036323520202020302E30303030204F202020302020302020302020302020302020302020302020302020302020302020302020300A20202020312E343238392020202D312E3635303020202020302E30303030204F202020302020302020302020302020302020302020302020302020302020302020302020300A20202020322E313433342020202D302E3431323520202020302E30303030204F202020302020302020302020302020302020302020302020302020302020302020302020300A2020202D302E373134352020202D322E3036323520202020302E303030302043202020302020302020302020302020302020302020302020302020302020302020302020300A2020202D312E3432383920202020312E3635303020202020302E303030302043202020302020302020302020302020302020302020302020302020302020302020302020300A20202020322E3134333420202020302E3431323520202020302E303030302043202020302020302020302020302020302020302020302020302020302020302020302020300A2020312020322020312020302020202020200A2020322020332020312020302020202020200A2020332020342020322020302020202020200A2020342020352020312020302020202020200A2020342020362020312020302020202020200A2020362020372020322020302020202020200A2020372020382020312020302020202020200A2020372020392020312020302020202020200A2020322020392020322020302020202020200A2020312031302020322020302020202020200A2020312031312020312020302020202020200A2020352031322020322020302020202020200A2020352031332020312020302020202020200A2020382031342020322020302020202020200A2020382031352020312020302020202020200A2031312031362020312020302020202020200A2031332031372020312020302020202020200A2031352031382020312020302020202020200A4D2020454E44
Contributor: UBE SCIENTIFIC ANALYSIS LABORATORY
InstType: EI
InstName: HITACHI M-60
IoniMethod: _ENERGY 70 eV
IonPolarity: pos
Date: 2010-10-09 19:48:36+02:00
Num Peaks: 35
15 136 29 12 51 11 59 51 63 27 74 90 75 196 76 28 77 21 91 11 
95 17 102 68 103 33 119 35 120 10 133 75 134 93 135 19 147 119 148 12 
161 90 162 49 163 20 165 16 177 11 178 31 193 211 194 30 207 44 221 999 
222 133 223 17 251 23 252 248 253 36 
