Name: CROTONIC ACID ETHYL ESTER
CAS: 10544-63-5
MW: 114
Formula: C6H10O2
Synonym: MassBank: JP007336
Synonym: CROTONIC ACID ETHYL ESTER
Synonym: 2-BUTENOIC ACID ETHYL ESTER
Structure: 310A32300A43524F544F4E4943204143494420455448594C2045535445522E6D6F6C0A20204368656D447261773132323130393233323032440A2020382020372020302020302020302020302020302020302020302020303939392056323030300A20202020302E3030303020202020302E3230363220202020302E303030302043202020302020302020302020302020302020302020302020302020302020302020302020300A2020202D302E3731343520202020302E3631383820202020302E303030302043202020302020302020302020302020302020302020302020302020302020302020302020300A2020202D312E3432383920202020302E3230363220202020302E303030302043202020302020302020302020302020302020302020302020302020302020302020302020300A2020202D322E3134333420202020302E3631383720202020302E303030302043202020302020302020302020302020302020302020302020302020302020302020302020300A20202020302E303030302020202D302E3631383820202020302E30303030204F202020302020302020302020302020302020302020302020302020302020302020302020300A20202020302E3731343520202020302E3631383820202020302E30303030204F202020302020302020302020302020302020302020302020302020302020302020302020300A20202020312E3432383920202020302E3230363220202020302E303030302043202020302020302020302020302020302020302020302020302020302020302020302020300A20202020322E3134333420202020302E3631383820202020302E303030302043202020302020302020302020302020302020302020302020302020302020302020302020300A2020312020322020312020302020202020200A2020322020332020322020302020202020200A2020332020342020312020302020202020200A2020312020352020322020302020202020200A2020312020362020312020302020202020200A2020372020382020312020302020202020200A2020362020372020312020302020202020200A4D2020454E44
Contributor: YAMAMOTO M, DEP. CHEMISTRY, FAC. SCIENCE, NARA WOMEN'S UNIV.
InstType: EI
InstName: HITACHI RMU-6M
IoniMethod: _ENERGY 70 eV
IonPolarity: pos
Date: 2010-10-09 19:48:36+02:00
Num Peaks: 21
15 24 26 16 27 70 28 21 29 119 38 21 39 182 40 35 41 306 42 28 
43 16 45 40 68 45 69 999 70 53 71 13 86 59 87 19 99 263 100 14 
114 31 
