Name: MassBank: JP009750
MW: 164
Formula: C11H16O
Synonym: MassBank: JP009750
Synonym: 4,4A,5,6,7,8-HEXAHYDRO-4A-METHYL-2(3H)-NAPHTHALENONE
Structure: 342C34412C352C362C372C382D48455841485944524F2D34412D4D455448594C2D32283348292D4E4150485448414C454E4F4E452E6D6F6C0A20204368656D447261773130313831303137303832440A2031322031332020302020302020302020302020302020302020302020303939392056323030300A2020202D302E333537322020202D312E3033313220202020302E303030302043202020302020302020302020302020302020302020302020302020302020302020302020300A2020202D312E303731372020202D302E3631383720202020302E303030302043202020302020302020302020302020302020302020302020302020302020302020302020300A2020202D312E3037313720202020302E3230363320202020302E303030302043202020302020302020302020302020302020302020302020302020302020302020302020300A2020202D302E3335373220202020302E3631383820202020302E303030302043202020302020302020302020302020302020302020302020302020302020302020302020300A20202020302E3335373220202020302E3230363320202020302E303030302043202020302020302020302020302020302020302020302020302020302020302020302020300A20202020312E3037313720202020302E3631383820202020302E303030302043202020302020302020302020302020302020302020302020302020302020302020302020300A20202020312E3738363220202020302E3230363320202020302E303030302043202020302020302020302020302020302020302020302020302020302020302020302020300A20202020312E373836322020202D302E3631383720202020302E303030302043202020302020302020302020302020302020302020302020302020302020302020302020300A20202020312E303731372020202D312E3033313320202020302E303030302043202020302020302020302020302020302020302020302020302020302020302020302020300A20202020302E333537322020202D302E3631383720202020302E303030302043202020302020302020302020302020302020302020302020302020302020302020302020300A2020202D312E373836322020202D312E3033313220202020302E30303030204F202020302020302020302020302020302020302020302020302020302020302020302020300A20202020302E3335373220202020312E3033313320202020302E303030302043202020302020302020302020302020302020302020302020302020302020302020302020300A2020312020322020312020302020202020200A2020322020332020312020302020202020200A2020332020342020312020302020202020200A2020342020352020312020302020202020200A2020352020362020312020302020202020200A2020362020372020312020302020202020200A2020372020382020312020302020202020200A2020382020392020312020302020202020200A2020392031302020312020302020202020200A2020312031302020322020302020202020200A2020352031302020312020302020202020200A2020322031312020322020302020202020200A2020352031322020312020302020202020200A4D2020454E44
Contributor: YAMAMOTO M, DEP. CHEMISTRY, FAC. SCIENCE, NARA WOMEN'S UNIV.
InstType: EI
InstName: HITACHI RMU-6M
IoniMethod: _ENERGY 20 eV
IonPolarity: pos
Date: 2010-10-09 19:48:36+02:00
Num Peaks: 54
28 84 29 15 41 32 43 2 45 13 53 23 54 11 55 5 65 12 66 17 
67 86 68 3 69 16 77 21 79 275 81 14 82 60 83 35 91 88 92 3 
93 275 94 162 95 60 96 2 97 15 105 45 106 20 107 49 108 239 109 48 
110 19 117 2 118 21 119 13 120 19 121 46 122 999 123 116 124 12 128 1 
131 32 133 13 134 13 135 11 136 859 137 99 138 16 145 1 146 25 149 135 
150 15 163 1 164 887 165 116 
