Name: MassBank: JP004827
CAS: 25811-68-1
MW: 396
Formula: C18H40N2Si4
Synonym: MassBank: JP004827
Synonym: N,N,N',N'-TETRAKIS(TRIMETHYLSILYL)-',4-PHENYLENEDIAMINE
Structure: 303931355F4E2C4E2C4E272C4E272D54455452414B4953285452494D455448594C53494C594C292D272C342D5048454E594C454E454449414D494E452E6D6F6C0A20204368656D447261773039303631303230343532440A2032342032342020302020302020302020302020302020302020302020303939392056323030300A2020202D302E3731343520202020302E3431323520202020302E303030302043202020302020302020302020302020302020302020302020302020302020302020302020300A2020202D302E373134352020202D302E3431323520202020302E303030302043202020302020302020302020302020302020302020302020302020302020302020302020300A20202020302E303030302020202D302E3832353020202020302E303030302043202020302020302020302020302020302020302020302020302020302020302020302020300A20202020302E373134352020202D302E3431323520202020302E303030302043202020302020302020302020302020302020302020302020302020302020302020302020300A20202020302E3731343520202020302E3431323520202020302E303030302043202020302020302020302020302020302020302020302020302020302020302020302020300A20202020302E3030303020202020302E3832353020202020302E303030302043202020302020302020302020302020302020302020302020302020302020302020302020300A20202020302E3030303020202020312E3635303020202020302E30303030204E202020302020302020302020302020302020302020302020302020302020302020302020300A2020202D302E3731343520202020322E3036323520202020302E303030302053692020302020302020302020302020302020302020302020302020302020302020302020300A2020202D312E3132373020202020312E3334383020202020302E303030302043202020302020302020302020302020302020302020302020302020302020302020302020300A2020202D312E3432383920202020322E3437353020202020302E303030302043202020302020302020302020302020302020302020302020302020302020302020302020300A2020202D302E3330323020202020322E3737373020202020302E303030302043202020302020302020302020302020302020302020302020302020302020302020302020300A20202020302E3731353120202020322E3036323520202020302E303030302053692020302020302020302020302020302020302020302020302020302020302020302020300A20202020302E3330323020202020322E3737373020202020302E303030302043202020302020302020302020302020302020302020302020302020302020302020302020300A20202020312E3432383920202020322E3437353020202020302E303030302043202020302020302020302020302020302020302020302020302020302020302020302020300A20202020312E3132373020202020312E3334383020202020302E303030302043202020302020302020302020302020302020302020302020302020302020302020302020300A20202020302E303030302020202D312E3635303020202020302E30303030204E202020302020302020302020302020302020302020302020302020302020302020302020300A2020202D302E373134352020202D322E3036323520202020302E303030302053692020302020302020302020302020302020302020302020302020302020302020302020300A2020202D302E333032302020202D322E3737373020202020302E303030302043202020302020302020302020302020302020302020302020302020302020302020302020300A2020202D312E343238392020202D322E3437353020202020302E303030302043202020302020302020302020302020302020302020302020302020302020302020302020300A2020202D312E313237302020202D312E3334383020202020302E303030302043202020302020302020302020302020302020302020302020302020302020302020302020300A20202020302E373134352020202D322E3036323520202020302E303030302053692020302020302020302020302020302020302020302020302020302020302020302020300A20202020312E313237302020202D312E3334383020202020302E303030302043202020302020302020302020302020302020302020302020302020302020302020302020300A20202020312E343238392020202D322E3437353020202020302E303030302043202020302020302020302020302020302020302020302020302020302020302020302020300A20202020302E333032302020202D322E3737373020202020302E303030302043202020302020302020302020302020302020302020302020302020302020302020302020300A2020312020322020322020302020202020200A2020322020332020312020302020202020200A2020332020342020322020302020202020200A2020342020352020312020302020202020200A2020352020362020322020302020202020200A2020362020312020312020302020202020200A2020362020372020312020302020202020200A2020372020382020312020302020202020200A2020372031322020312020302020202020200A2020382020392020312020302020202020200A2020382031302020312020302020202020200A2020382031312020312020302020202020200A2031322031332020312020302020202020200A2031322031342020312020302020202020200A2031322031352020312020302020202020200A2020332031362020312020302020202020200A2031362032312020312020302020202020200A2031362031372020312020302020202020200A2031372031382020312020302020202020200A2031372031392020312020302020202020200A2031372032302020312020302020202020200A2032312032322020312020302020202020200A2032312032332020312020302020202020200A2032312032342020312020302020202020200A4D2020454E44
Contributor: MASS SPECTROSCOPY SOC. OF JAPAN (MSSJ)
InstType: EI
InstName: JEOL JMS-D-3000
IoniMethod: _ENERGY 70 eV
IonPolarity: pos
Date: 2010-10-09 19:48:36+02:00
Num Peaks: 41
45 25 59 18 73 268 74 27 75 24 100 11 130 54 131 10 183 151 184 32 
194 18 206 13 208 10 220 11 234 13 235 18 266 15 277 16 291 12 292 13 
293 37 294 14 309 18 324 11 335 12 349 11 365 124 366 53 367 31 368 11 
379 42 381 999 382 396 383 210 384 58 385 16 396 662 397 274 398 140 399 38 
400 12 
