Name: (16R)-ENT-18-HYDOXYKAURAN-15-ONE
MW: 304
Formula: C20H32O2
Synonym: MassBank: JP006331
Synonym: (16R)-ENT-18-HYDOXYKAURAN-15-ONE
Structure: 28313652292D454E542D31382D4859444F58594B415552414E2D31352D4F4E452E6D6F6C0A20204368656D447261773130303630393135353732440A2032362032392020302020302020302020302020302020302020302020303939392056323030300A2020202D312E393636332020202D302E3230343920202020302E303030302043202020302020302020302020302020302020302020302020302020302020302020302020300A2020202D312E393636332020202D312E3032393920202020302E303030302043202020302020302020302020302020302020302020302020302020302020302020302020300A2020202D312E323531392020202D312E3434323420202020302E303030302043202020302020302020302020302020302020302020302020302020302020302020302020300A2020202D302E353337342020202D312E3032393920202020302E303030302043202020302020302020302020302020302020302020302020302020302020302020302020300A2020202D302E353337342020202D302E3230343920202020302E303030302043202020302020302020302020302020302020302020302020302020302020302020302020300A2020202D312E3235313920202020302E3230373520202020302E303030302043202020302020302020302020302020302020302020302020302020302020302020302020300A20202020302E313737302020202D312E3434323420202020302E303030302043202020302020302020302020302020302020302020302020302020302020302020302020300A20202020302E383931352020202D312E3032393920202020302E303030302043202020302020302020302020302020302020302020302020302020302020302020302020300A20202020302E383931352020202D302E3230343920202020302E303030302043202020302020302020302020302020302020302020302020302020302020302020302020300A20202020302E3137373020202020302E3230373520202020302E303030302043202020302020302020302020302020302020302020302020302020302020302020302020300A20202020312E3630353920202020302E3230373520202020302E303030302043202020302020302020302020302020302020302020302020302020302020302020302020300A20202020312E3630353920202020312E3033323620202020302E303030302043202020302020302020302020302020302020302020302020302020302020302020302020300A20202020302E3839313520202020312E3434353120202020302E303030302043202020302020302020302020302020302020302020302020302020302020302020302020300A20202020302E3137373020202020312E3033323620202020302E303030302043202020302020302020302020302020302020302020302020302020302020302020302020300A2020202D302E3533343020202020302E3631393920202020302E303030302048202020302020302020302020302020302020302020302020302020302020302020302020300A2020202D322E363736382020202D312E3434353120202020302E303030302048202020302020302020302020302020302020302020302020302020302020302020302020300A2020202D302E393439392020202D302E3331353520202020302E303030302043202020302020302020302020302020302020302020302020302020302020302020302020300A2020202D312E353533392020202D302E3331353520202020302E303030302043202020302020302020302020302020302020302020302020302020302020302020302020300A2020202D312E3936333420202020302E3339343620202020302E303030302048202020302020302020302020302020302020302020302020302020302020302020302020300A2020202D302E3934353820202020302E3530363720202020302E30303030204F202020302020302020302020302020302020302020302020302020302020302020302020300A20202020312E343736352020202D302E3739303220202020302E303030302048202020302020302020302020302020302020302020302020302020302020302020302020300A2020202D302E3233363720202020302E3932323820202020302E303030302043202020302020302020302020302020302020302020302020302020302020302020302020300A20202020302E3839313220202020302E3632313220202020302E303030302043202020302020302020302020302020302020302020302020302020302020302020302020300A2020202D312E333431382020202D312E3131313320202020302E303030302043202020302020302020302020302020302020302020302020302020302020302020302020300A20202020312E3936323420202020302E3030323520202020302E303030302043202020302020302020302020302020302020302020302020302020302020302020302020300A20202020322E363736382020202D302E3431303020202020302E30303030204F202020302020302020302020302020302020302020302020302020302020302020302020300A2020312020322020312020302020202020200A2020322020332020312020302020202020200A2020332020342020312020302020202020200A2020342020352020312020302020202020200A2020352020362020312020302020202020200A2020362020312020312020302020202020200A2020342020372020312020302020202020200A2020372020382020312020302020202020200A2020382020392020312020302020202020200A2020392031302020312020302020202020200A2031302020352020312020302020202020200A2020392031312020312020302020202020200A2031312031322020312020302020202020200A2031322031332020312020302020202020200A2031332031342020312020302020202020200A2031342031302020312020302020202020200A2020322031362020312020362020202020200A2020342031372020312020312020202020200A2020322031382020312020312020202020200A2031382031372020312020302020202020200A2031382031392020312020312020202020200A2031372032302020322020302020202020200A2020352031352020312020312020202020200A2020392032312020312020312020202020200A2031302032322020312020302020202020200A2031312032332020312020312020202020200A2031382032342020312020312020202020200A2031312032352020312020362020202020200A2032352032362020312020302020202020200A4D202053545920203120202031205355500A4D2020534C4220203120202031202020310A4D202053414C20202031202031202032320A4D202053424C20202031202031202032350A4D2020534D5420202031204D650A4D2020534256202020312032352020202D382E3335353520202020382E353135330A4D202053545920203120202032205355500A4D2020534C4220203120202032202020320A4D202053414C20202032202031202032330A4D202053424C20202032202031202032360A4D2020534D5420202032204D650A4D2020534256202020322032362020202D382E3635363420202020382E323133370A4D202053545920203120202033205355500A4D2020534C4220203120202033202020330A4D202053414C20202033202031202032340A4D202053424C20202033202031202032370A4D2020534D5420202033204D650A4D2020534256202020332032372020202D372E3732393620202020372E303034320A4D202053545920203120202034205355500A4D2020534C4220203120202034202020340A4D202053414C2020203420203220203235202032360A4D202053424C20202034202031202032380A4D2020534D5420202034204348324F480A4D2020534256202020342032382020202D372E3538353320202020372E353935310A4D2020454E44
Contributor: EGUCHI S, FAC. OF SCIENCE, HIROSHIMA UNIV.
InstType: EI
InstName: HITACHI RMU-7L
IoniMethod: _ENERGY 70 eV
IonPolarity: pos
Date: 2010-10-09 19:48:36+02:00
Num Peaks: 113
40 40 41 999 42 40 43 41 45 115 51 400 52 170 53 14 54 45 55 770 
56 142 57 23 65 140 67 284 68 80 69 27 70 91 71 135 74 122 77 21 
78 25 79 635 80 90 81 50 82 115 83 365 84 150 85 29 91 582 92 165 
93 285 94 16 95 305 96 92 97 135 105 25 106 145 107 280 108 115 109 27 
110 80 111 105 112 20 115 7 119 195 120 115 121 195 122 11 123 330 124 105 
125 95 131 10 133 145 134 90 135 205 141 8 145 197 146 30 147 165 148 3 
149 140 150 15 151 85 159 7 160 20 161 82 162 18 163 14 164 20 165 30 
171 21 172 2 173 60 174 20 175 38 176 1 177 20 187 30 189 20 191 4 
199 15 201 24 202 10 203 2 213 25 214 10 215 100 228 1 229 18 231 25 
241 15 242 1 243 25 244 15 245 24 246 22 253 15 254 10 255 80 256 2 
257 20 259 39 261 65 273 3 274 305 275 75 286 35 287 1 288 20 289 65 
304 225 305 5 306 10 
