Name: CYCLOPENTYLACETIC ACID TRIMETHYLSILYL ESTER
MW: 200
Formula: C10H20O2Si
Synonym: MassBank: JP001892
Synonym: CYCLOPENTYLACETIC ACID TRIMETHYLSILYL ESTER
Structure: 4359434C4F50454E54594C4143455449432041434944205452494D455448594C53494C594C2045535445522E6D6F6C0A20204368656D447261773038313131303137323632440A2031332031332020302020302020302020302020302020302020302020303939392056323030300A2020202D302E323935362020202D302E3133383820202020302E303030302043202020302020302020302020302020302020302020302020302020302020302020302020300A20202020302E343138392020202D302E3535313320202020302E303030302043202020302020302020302020302020302020302020302020302020302020302020302020300A2020202D302E3239353620202020302E3638363220202020302E30303030204F202020302020302020302020302020302020302020302020302020302020302020302020300A2020202D312E303130312020202D302E3535313320202020302E30303030204F202020302020302020302020302020302020302020302020302020302020302020302020300A20202020312E313333332020202D302E3133383820202020302E303030302043202020302020302020302020302020302020302020302020302020302020302020302020300A20202020312E3231393620202020302E3638313720202020302E303030302043202020302020302020302020302020302020302020302020302020302020302020302020300A20202020322E3032363520202020302E3835333220202020302E303030302043202020302020302020302020302020302020302020302020302020302020302020302020300A20202020322E3433393020202020302E3133383820202020302E303030302043202020302020302020302020302020302020302020302020302020302020302020302020300A20202020312E383837302020202D302E3437343320202020302E303030302043202020302020302020302020302020302020302020302020302020302020302020302020300A2020202D312E373234362020202D302E3133383820202020302E303030302053692020302020302020302020302020302020302020302020302020302020302020302020300A2020202D322E313337312020202D302E3835333220202020302E303030302043202020302020302020302020302020302020302020302020302020302020302020302020300A2020202D322E3433393020202020302E3237333720202020302E303030302043202020302020302020302020302020302020302020302020302020302020302020302020300A2020202D312E3331323120202020302E3537353720202020302E303030302043202020302020302020302020302020302020302020302020302020302020302020302020300A2020312020322020312020302020202020200A2020312020332020322020302020202020200A2020312020342020312020302020202020200A2020352020362020312020302020202020200A2020362020372020312020302020202020200A2020372020382020312020302020202020200A2020382020392020312020302020202020200A2020352020392020312020302020202020200A2020322020352020312020302020202020200A2031302031312020312020302020202020200A2031302031322020312020302020202020200A2031302031332020312020302020202020200A2020342031302020312020302020202020200A4D2020454E44
Contributor: KOGA M, UNIV. OF OCCUPATIONAL AND ENVIRONMENTAL HEALTH
InstType: EI
InstName: JEOL JMS-01-SG
IoniMethod: _ENERGY 70 eV
IonPolarity: pos
Date: 2010-10-09 19:48:36+02:00
Num Peaks: 16
43 111 44 41 45 201 58 10 73 983 74 102 75 999 76 9 77 168 93 98 
117 724 118 9 132 168 167 102 185 921 186 160 
