Name: 2-ETHYLTETRAHYDROFURAN
MW: 100
Formula: C6H12O
Synonym: MassBank: JP008951
Synonym: 2-ETHYLTETRAHYDROFURAN
Structure: 310A31390A322D455448594C5445545241485944524F465552414E2E6D6F6C0A20204368656D447261773031303331303133303832440A2020372020372020302020302020302020302020302020302020302020303939392056323030300A20202020302E3831353320202020302E3632353320202020302E30303030204F202020302020302020302020302020302020302020302020302020302020302020302020300A20202020302E3036313620202020302E3238393820202020302E303030302043202020302020302020302020302020302020302020302020302020302020302020302020300A20202020302E313437392020202D302E3533303720202020302E303030302043202020302020302020302020302020302020302020302020302020302020302020302020300A20202020302E393534382020202D302E3730323320202020302E303030302043202020302020302020302020302020302020302020302020302020302020302020302020300A20202020312E3336373320202020302E3031323220202020302E303030302043202020302020302020302020302020302020302020302020302020302020302020302020300A2020202D302E3635323920202020302E3730323320202020302E303030302043202020302020302020302020302020302020302020302020302020302020302020302020300A2020202D312E3336373320202020302E3238393820202020302E303030302043202020302020302020302020302020302020302020302020302020302020302020302020300A2020312020322020312020302020202020200A2020322020332020312020302020202020200A2020332020342020312020302020202020200A2020342020352020312020302020202020200A2020312020352020312020302020202020200A2020362020372020312020302020202020200A2020322020362020312020302020202020200A4D2020454E44
Contributor: YAMAMOTO M, DEP. CHEMISTRY, FAC. SCIENCE, NARA WOMEN'S UNIV.
InstType: EI
InstName: HITACHI RMU-6M
IoniMethod: _ENERGY 70 eV
IonPolarity: pos
Date: 2010-10-09 19:48:36+02:00
Num Peaks: 23
15 25 26 23 27 222 28 4 29 170 31 46 38 18 39 16 40 33 41 313 
42 229 43 59 44 23 53 20 55 80 57 8 58 16 59 37 70 73 71 999 
73 45 99 12 100 48 
