Name: P-CHLOROACETOPHENONE
MW: 154
Formula: C8H7ClO
Synonym: MassBank: JP006754
Synonym: P-CHLOROACETOPHENONE
Structure: 502D43484C4F524F414345544F5048454E4F4E452E6D6F6C0A20204368656D447261773038313231303033353832440A2031302031302020302020302020302020302020302020302020302020303939392056323030300A2020202D312E343433372020202D302E3030303020202020302E303030302043202020302020302020302020302020302020302020302020302020302020302020302020300A2020202D312E3835363320202020302E3731343520202020302E303030302043202020302020302020302020302020302020302020302020302020302020302020302020300A2020202D312E383536332020202D302E3731343520202020302E30303030204F202020302020302020302020302020302020302020302020302020302020302020302020300A2020202D302E363138382020202D302E3030303020202020302E303030302043202020302020302020302020302020302020302020302020302020302020302020302020300A2020202D302E3230363220202020302E3731343520202020302E303030302043202020302020302020302020302020302020302020302020302020302020302020302020300A20202020302E3631383820202020302E3731343520202020302E303030302043202020302020302020302020302020302020302020302020302020302020302020302020300A20202020312E303331332020202D302E3030303020202020302E303030302043202020302020302020302020302020302020302020302020302020302020302020302020300A20202020302E363138382020202D302E3731343520202020302E303030302043202020302020302020302020302020302020302020302020302020302020302020302020300A2020202D302E323036322020202D302E3731343520202020302E303030302043202020302020302020302020302020302020302020302020302020302020302020302020300A20202020312E383536332020202D302E3030303020202020302E3030303020436C2020302020302020302020302020302020302020302020302020302020302020302020300A2020312020322020312020302020202020200A2020342020352020312020302020202020200A2020352020362020322020302020202020200A2020362020372020312020302020202020200A2020372020382020322020302020202020200A2020382020392020312020302020202020200A2020342020392020322020302020202020200A2020312020332020322020302020202020200A2020312020342020312020302020202020200A2020372031302020312020302020202020200A4D2020454E44
Contributor: MASS SPECTROSCOPY SOC. OF JAPAN (MSSJ)
InstType: EI
InstName: HITACHI RMS-4
IoniMethod: _ENERGY 70 eV
IonPolarity: pos
Date: 2010-10-09 19:48:36+02:00
Num Peaks: 56
40 30 41 30 42 80 43 89 44 30 47 30 48 30 49 8 50 999 51 270 
52 40 53 3 60 30 61 90 62 100 63 13 64 30 65 40 72 30 73 10 
74 270 75 850 76 170 77 7 78 20 84 50 85 90 86 4 87 50 88 30 
89 70 90 3 91 40 97 30 98 30 99 4 100 20 101 30 102 20 103 2 
104 80 110 30 111 370 112 6 113 130 114 30 125 30 127 3 139 750 140 50 
141 160 142 3 154 130 155 40 156 60 157 20 
