Name: TESTOSTERONE METHOXYMETHYL ETHER
MW: 332
Formula: C21H32O3
Synonym: MassBank: JP008165
Synonym: TESTOSTERONE METHOXYMETHYL ETHER
Structure: 544553544F535445524F4E45204D4554484F58594D455448594C2045544845522E6D6F6C0A20204368656D447261773038313231303037313132440A2032372033302020302020302020302020302020302020302020302020303939392056323030300A2020202D322E343739372020202D322E3131343520202020302E303030302043202020302020302020302020302020302020302020302020302020302020302020302020300A2020202D322E343739372020202D312E3238393520202020302E303030302043202020302020302020302020302020302020302020302020302020302020302020302020300A2020202D312E373635322020202D302E3837373020202020302E303030302043202020302020302020302020302020302020302020302020302020302020302020302020300A2020202D332E313934312020202D322E3532373020202020302E30303030204F202020302020302020302020302020302020302020302020302020302020302020302020300A2020202D312E373635322020202D322E3532373020202020302E303030302043202020302020302020302020302020302020302020302020302020302020302020302020300A2020202D312E303530372020202D322E3131343520202020302E303030302043202020302020302020302020302020302020302020302020302020302020302020302020300A2020202D302E333336332020202D322E3532373020202020302E303030302043202020302020302020302020302020302020302020302020302020302020302020302020300A20202020302E333738322020202D322E3131343520202020302E303030302043202020302020302020302020302020302020302020302020302020302020302020302020300A20202020302E333738322020202D312E3238393520202020302E303030302043202020302020302020302020302020302020302020302020302020302020302020302020300A20202020312E303932372020202D302E3837373020202020302E303030302043202020302020302020302020302020302020302020302020302020302020302020302020300A20202020312E383737332020202D312E3133323020202020302E303030302043202020302020302020302020302020302020302020302020302020302020302020302020300A20202020322E333632322020202D302E3436343520202020302E303030302043202020302020302020302020302020302020302020302020302020302020302020302020300A20202020312E3837373320202020302E3230323920202020302E303030302043202020302020302020302020302020302020302020302020302020302020302020302020300A20202020322E3133323220202020302E3938373520202020302E30303030204F202020302020302020302020302020302020302020302020302020302020302020302020300A20202020312E303932372020202D302E3035323020202020302E303030302043202020302020302020302020302020302020302020302020302020302020302020302020300A20202020312E3039323720202020302E3737333020202020302E303030302043202020302020302020302020302020302020302020302020302020302020302020302020300A20202020302E3337383220202020302E3336303520202020302E303030302043202020302020302020302020302020302020302020302020302020302020302020302020300A2020202D302E333336332020202D302E3035323020202020302E303030302043202020302020302020302020302020302020302020302020302020302020302020302020300A2020202D302E333336332020202D302E3837373020202020302E303030302043202020302020302020302020302020302020302020302020302020302020302020302020300A2020202D312E303530372020202D312E3238393520202020302E303030302043202020302020302020302020302020302020302020302020302020302020302020302020300A2020202D312E303530372020202D302E3436343520202020302E303030302043202020302020302020302020302020302020302020302020302020302020302020302020300A20202020322E3933393220202020312E3135393120202020302E303030302043202020302020302020302020302020302020302020302020302020302020302020302020300A20202020332E3139343120202020312E3934333720202020302E30303030204F202020302020302020302020302020302020302020302020302020302020302020302020300A20202020322E3631303820202020322E3532373020202020302E303030302043202020302020302020302020302020302020302020302020302020302020302020302020300A2020202D302E333336332020202D312E3730323020202020302E303030302048202020302020302020302020302020302020302020302020302020302020302020302020300A20202020302E333738322020202D302E3436343520202020302E303030302048202020302020302020302020302020302020302020302020302020302020302020302020300A20202020312E303932372020202D312E3730323020202020302E303030302048202020302020302020302020302020302020302020302020302020302020302020302020300A2020312020322020312020302020202020200A2020322020332020312020302020202020200A2020312020342020322020302020202020200A2020312020352020312020302020202020200A2020352020362020322020302020202020200A2020362020372020312020302020202020200A2020372020382020312020302020202020200A2020382020392020312020302020202020200A2020392031302020312020302020202020200A2031302031312020312020302020202020200A2031312031322020312020302020202020200A2031322031332020312020302020202020200A2031332031342020312020312020202020200A2031332031352020312020302020202020200A2031302031352020312020302020202020200A2031352031362020312020312020202020200A2031352031372020312020302020202020200A2031372031382020312020302020202020200A2031382031392020312020302020202020200A2020392031392020312020302020202020200A2031392032302020312020302020202020200A2020332032302020312020302020202020200A2020362032302020312020302020202020200A2032302032312020312020312020202020200A2032332032342020312020302020202020200A2032322032332020312020302020202020200A2031342032322020312020302020202020200A2031392032352020312020362020202020200A2020392032362020312020312020202020200A2031302032372020312020362020202020200A4D2020454E44
Contributor: NARA WOMEN'S UNIVERSITY
InstType: EI
InstName: HITACHI M-80
IoniMethod: _ENERGY 70 eV
IonPolarity: pos
Date: 2010-10-09 19:48:36+02:00
Num Peaks: 84
15 19 27 20 29 31 39 32 41 105 43 17 45 999 46 21 53 42 55 91 
57 11 65 23 66 11 67 60 77 66 78 18 79 94 80 14 81 54 91 99 
92 17 93 69 94 16 95 52 97 17 105 64 106 15 107 56 108 14 109 22 
111 14 115 13 117 23 119 47 120 13 121 40 122 22 123 56 124 49 129 11 
131 25 133 43 134 20 135 25 136 13 137 17 138 17 143 12 145 42 146 19 
147 62 148 24 149 34 157 12 159 21 161 21 163 16 168 17 171 10 173 17 
174 10 175 13 177 11 185 12 187 12 189 13 213 11 227 26 228 14 229 11 
243 21 245 12 258 18 259 10 269 24 270 29 271 18 287 87 288 19 300 123 
301 28 304 19 332 81 333 22 
