Name: MassBank: JP003040
MW: 359
Formula: C27H21N
Synonym: MassBank: JP003040
Synonym: 1-METHYLAMINO-9,10-DIPHENYL-ANTHRACENE
Structure: 312D4D455448594C414D494E4F2D392C31302D44495048454E594C2D414E5448524143454E452E6D6F6C0A20204368656D447261773131323030393135353232440A2032382033322020302020302020302020302020302020302020302020303939392056323030300A2020202D312E343238392020202D302E3832353020202020302E303030302043202020302020302020302020302020302020302020302020302020302020302020302020300A2020202D322E313433342020202D302E3431323520202020302E303030302043202020302020302020302020302020302020302020302020302020302020302020302020300A2020202D322E3134333420202020302E3431323520202020302E303030302043202020302020302020302020302020302020302020302020302020302020302020302020300A2020202D312E3432383920202020302E3832353020202020302E303030302043202020302020302020302020302020302020302020302020302020302020302020302020300A2020202D302E3731343520202020302E3431323520202020302E303030302043202020302020302020302020302020302020302020302020302020302020302020302020300A20202020302E3030303020202020302E3832353020202020302E303030302043202020302020302020302020302020302020302020302020302020302020302020302020300A20202020302E3731343520202020302E3431323520202020302E303030302043202020302020302020302020302020302020302020302020302020302020302020302020300A20202020312E3432383920202020302E3832353020202020302E303030302043202020302020302020302020302020302020302020302020302020302020302020302020300A20202020322E3134333420202020302E3431323520202020302E303030302043202020302020302020302020302020302020302020302020302020302020302020302020300A20202020322E313433342020202D302E3431323520202020302E303030302043202020302020302020302020302020302020302020302020302020302020302020302020300A20202020312E343238392020202D302E3832353020202020302E303030302043202020302020302020302020302020302020302020302020302020302020302020302020300A20202020302E373134352020202D302E3431323520202020302E303030302043202020302020302020302020302020302020302020302020302020302020302020302020300A2020202D302E303030302020202D302E3832353020202020302E303030302043202020302020302020302020302020302020302020302020302020302020302020302020300A2020202D302E373134352020202D302E3431323520202020302E303030302043202020302020302020302020302020302020302020302020302020302020302020302020300A20202020302E3030303020202020312E3635303020202020302E303030302043202020302020302020302020302020302020302020302020302020302020302020302020300A2020202D302E3731343520202020322E3036323520202020302E303030302043202020302020302020302020302020302020302020302020302020302020302020302020300A2020202D302E3731343520202020322E3838373520202020302E303030302043202020302020302020302020302020302020302020302020302020302020302020302020300A20202020302E3030303020202020332E3330303020202020302E303030302043202020302020302020302020302020302020302020302020302020302020302020302020300A20202020302E3731343520202020322E3838373520202020302E303030302043202020302020302020302020302020302020302020302020302020302020302020302020300A20202020302E3731343520202020322E3036323520202020302E303030302043202020302020302020302020302020302020302020302020302020302020302020302020300A2020202D302E303030302020202D312E3635303020202020302E303030302043202020302020302020302020302020302020302020302020302020302020302020302020300A20202020302E373134352020202D322E3036323520202020302E303030302043202020302020302020302020302020302020302020302020302020302020302020302020300A20202020302E373134352020202D322E3838373520202020302E303030302043202020302020302020302020302020302020302020302020302020302020302020302020300A2020202D302E303030302020202D332E3330303020202020302E303030302043202020302020302020302020302020302020302020302020302020302020302020302020300A2020202D302E373134352020202D322E3838373520202020302E303030302043202020302020302020302020302020302020302020302020302020302020302020302020300A2020202D302E373134352020202D322E3036323520202020302E303030302043202020302020302020302020302020302020302020302020302020302020302020302020300A2020202D312E343238392020202D312E3635303020202020302E30303030204E202020302020302020302020302020302020302020302020302020302020302020302020300A2020202D322E313433342020202D322E3036323520202020302E303030302043202020302020302020302020302020302020302020302020302020302020302020302020300A2020312020322020312020302020202020200A2020322020332020322020302020202020200A2020332020342020312020302020202020200A2020342020352020322020302020202020200A2020352020362020312020302020202020200A2020362020372020322020302020202020200A2020372020382020312020302020202020200A2020382020392020322020302020202020200A2020392031302020312020302020202020200A2031302031312020322020302020202020200A2031312031322020312020302020202020200A2020372031322020312020302020202020200A2031322031332020322020302020202020200A2031332031342020312020302020202020200A2020352031342020312020302020202020200A2020312031342020322020302020202020200A2031352031362020312020302020202020200A2031362031372020322020302020202020200A2031372031382020312020302020202020200A2031382031392020322020302020202020200A2031392032302020312020302020202020200A2031352032302020322020302020202020200A2020362031352020312020302020202020200A2032312032322020312020302020202020200A2032322032332020322020302020202020200A2032332032342020312020302020202020200A2032342032352020322020302020202020200A2032352032362020312020302020202020200A2032312032362020322020302020202020200A2031332032312020312020302020202020200A2032372032382020312020302020202020200A2020312032372020312020302020202020200A4D2020454E44
Contributor: SASAKI S, TOYOHASHI UNIV. OF TECH.
InstType: EI
InstName: Unknown
IoniMethod: EI
IonPolarity: pos
Date: 2010-10-09 19:48:36+02:00
Num Peaks: 193
50 10 51 18 52 5 53 0 54 1 63 12 64 2 65 0 67 2 68 2 
69 12 70 0 71 2 73 3 74 8 75 1 76 5 77 19 78 12 83 0 
84 2 85 2 86 3 87 0 88 2 89 2 91 9 95 0 96 2 97 1 
98 1 99 0 100 15 101 5 102 5 111 0 112 1 113 9 114 6 115 0 
118 2 119 2 120 2 124 0 125 12 126 13 127 7 128 0 130 2 131 3 
132 2 133 0 134 2 137 9 138 9 139 2 140 13 141 9 142 2 143 1 
144 5 145 2 149 13 150 2 151 19 152 5 153 3 154 1 155 4 156 6 
157 14 158 1 159 2 161 2 162 15 163 4 164 34 165 14 166 20 167 5 
168 6 169 5 170 14 171 2 172 20 173 2 174 4 175 1 176 5 177 6 
178 7 179 1 180 12 196 2 197 3 198 2 199 119 200 25 201 15 202 1 
203 2 204 37 205 7 224 0 225 2 226 12 227 5 228 7 229 13 237 5 
238 3 239 2 240 10 241 16 242 2 248 0 249 2 250 21 251 12 252 5 
253 32 254 13 255 5 261 0 262 2 263 5 264 10 265 1 266 25 267 44 
268 28 269 1 274 5 275 3 276 6 277 1 278 9 279 5 280 27 281 2 
282 22 283 3 285 2 286 0 287 6 288 5 289 10 290 1 291 6 292 5 
293 3 294 0 298 5 299 2 300 9 301 1 302 13 303 5 304 5 311 0 
312 3 313 19 314 8 315 2 316 12 317 12 318 19 319 0 324 12 325 7 
326 32 327 3 328 25 329 21 330 19 331 1 332 12 333 2 338 9 339 1 
340 29 341 59 342 42 343 6 344 29 345 5 356 5 357 3 358 65 359 999 
360 285 361 4 362 3 
