Name: 4-CHLOROBUTYROPHENONE
MW: 182
Formula: C10H11ClO
Synonym: MassBank: JP003746
Synonym: 4-CHLOROBUTYROPHENONE
Structure: 342D43484C4F524F42555459524F5048454E4F4E452E6D6F6C0A20204368656D447261773033323531303131333532440A2031322031322020302020302020302020302020302020302020302020303939392056323030300A20202020302E303030302020202D302E3335373220202020302E303030302043202020302020302020302020302020302020302020302020302020302020302020302020300A20202020302E3431323520202020302E3335373220202020302E303030302043202020302020302020302020302020302020302020302020302020302020302020302020300A20202020312E3233373520202020302E3335373220202020302E303030302043202020302020302020302020302020302020302020302020302020302020302020302020300A20202020312E3635303020202020312E3037313720202020302E303030302043202020302020302020302020302020302020302020302020302020302020302020302020300A20202020302E343132352020202D312E3037313720202020302E30303030204F202020302020302020302020302020302020302020302020302020302020302020302020300A2020202D302E383235302020202D302E3335373220202020302E303030302043202020302020302020302020302020302020302020302020302020302020302020302020300A2020202D312E323337352020202D312E3037313720202020302E303030302043202020302020302020302020302020302020302020302020302020302020302020302020300A2020202D322E303632352020202D312E3037313720202020302E303030302043202020302020302020302020302020302020302020302020302020302020302020302020300A2020202D322E343735302020202D302E3335373220202020302E303030302043202020302020302020302020302020302020302020302020302020302020302020302020300A2020202D322E3036323520202020302E3335373220202020302E303030302043202020302020302020302020302020302020302020302020302020302020302020302020300A2020202D312E3233373520202020302E3335373220202020302E303030302043202020302020302020302020302020302020302020302020302020302020302020302020300A20202020322E3437353020202020312E3037313720202020302E3030303020436C2020302020302020302020302020302020302020302020302020302020302020302020300A2020312020322020312020302020202020200A2020322020332020312020302020202020200A2020332020342020312020302020202020200A2020362020372020312020302020202020200A2020372020382020322020302020202020200A2020382020392020312020302020202020200A2020392031302020322020302020202020200A2031302031312020312020302020202020200A2020362031312020322020302020202020200A2020312020352020322020302020202020200A2020312020362020312020302020202020200A2020342031322020312020302020202020200A4D2020454E44
Contributor: SASAKI S, TOYOHASHI UNIV. OF TECH.
InstType: EI
InstName: Unknown
IoniMethod: EI
IonPolarity: pos
Date: 2010-10-09 19:48:36+02:00
Num Peaks: 121
12 2 13 1 14 6 15 2 16 1 17 2 18 40 25 0 26 13 27 86 
28 19 29 0 31 1 32 3 35 2 36 0 37 6 38 13 39 38 40 6 
41 37 42 7 43 54 44 0 45 1 47 2 48 1 49 1 50 127 51 63 
52 3 53 0 54 1 55 21 56 1 57 0 58 1 59 1 60 3 61 1 
62 11 63 20 64 5 65 1 66 6 69 4 70 1 71 1 72 4 73 18 
74 59 75 21 76 48 77 24 78 1 79 0 83 1 84 8 85 27 86 1 
87 11 88 2 89 14 90 0 91 8 93 1 97 1 98 0 99 5 101 6 
102 3 103 0 104 15 105 5 108 1 109 0 110 9 111 322 112 13 113 10 
114 4 115 4 116 1 117 0 118 2 119 3 120 1 123 0 125 12 126 1 
127 5 128 0 129 2 131 2 132 2 136 0 137 2 138 4 139 999 140 1 
141 318 145 1 146 3 147 13 148 26 151 1 152 1 153 0 154 92 155 1 
156 30 164 0 165 1 166 1 167 13 168 0 169 4 181 1 182 10 183 0 
184 3 
