Name: 9-(PENTAMETHYLDISILANYL)ANTHRACENE
MW: 308
Formula: C19H24Si2
Synonym: MassBank: JP004721
Synonym: 9-(PENTAMETHYLDISILANYL)ANTHRACENE
Synonym: 9-ANTHRYLPENTAMETHYLDISILANE
Structure: 392D2850454E54414D455448594C444953494C414E594C29414E5448524143454E452E6D6F6C0A20204368656D447261773036323131303230343232440A2032312032332020302020302020302020302020302020302020302020303939392056323030300A20202020302E3132333720202020312E3432383920202020302E303030302043202020302020302020302020302020302020302020302020302020302020302020302020300A20202020302E3533363220202020322E3134333420202020302E303030302043202020302020302020302020302020302020302020302020302020302020302020302020300A20202020312E3336313220202020322E3134333420202020302E303030302043202020302020302020302020302020302020302020302020302020302020302020302020300A20202020312E3737333720202020312E3432383920202020302E303030302043202020302020302020302020302020302020302020302020302020302020302020302020300A20202020312E3336313220202020302E3731343520202020302E303030302043202020302020302020302020302020302020302020302020302020302020302020302020300A20202020312E373733372020202D302E3030303020202020302E303030302043202020302020302020302020302020302020302020302020302020302020302020302020300A20202020312E333631322020202D302E3731343520202020302E303030302043202020302020302020302020302020302020302020302020302020302020302020302020300A20202020312E373733372020202D312E3432383920202020302E303030302043202020302020302020302020302020302020302020302020302020302020302020302020300A20202020312E333631322020202D322E3134333420202020302E303030302043202020302020302020302020302020302020302020302020302020302020302020302020300A20202020302E353336322020202D322E3134333420202020302E303030302043202020302020302020302020302020302020302020302020302020302020302020302020300A20202020302E313233372020202D312E3432383920202020302E303030302043202020302020302020302020302020302020302020302020302020302020302020302020300A20202020302E353336322020202D302E3731343520202020302E303030302043202020302020302020302020302020302020302020302020302020302020302020302020300A20202020302E3132333720202020302E3030303020202020302E303030302043202020302020302020302020302020302020302020302020302020302020302020302020300A20202020302E3533363220202020302E3731343520202020302E303030302043202020302020302020302020302020302020302020302020302020302020302020302020300A2020202D302E3934383720202020302E3030303020202020302E303030302053692020302020302020302020302020302020302020302020302020302020302020302020300A2020202D302E393438372020202D302E3832353020202020302E303030302053692020302020302020302020302020302020302020302020302020302020302020302020300A2020202D312E3737333720202020302E3030303020202020302E303030302043202020302020302020302020302020302020302020302020302020302020302020302020300A2020202D302E3934383720202020302E3832353020202020302E303030302043202020302020302020302020302020302020302020302020302020302020302020302020300A2020202D302E313233372020202D302E3832353020202020302E303030302043202020302020302020302020302020302020302020302020302020302020302020302020300A2020202D302E393438372020202D312E3635303020202020302E303030302043202020302020302020302020302020302020302020302020302020302020302020302020300A2020202D312E373733372020202D302E3832353020202020302E303030302043202020302020302020302020302020302020302020302020302020302020302020302020300A2020312020322020322020302020202020200A2020322020332020312020302020202020200A2020332020342020322020302020202020200A2020342020352020312020302020202020200A2020352020362020322020302020202020200A2020362020372020312020302020202020200A2020372020382020312020302020202020200A2020382020392020322020302020202020200A2020392031302020312020302020202020200A2031302031312020322020302020202020200A2031312031322020312020302020202020200A2020372031322020322020302020202020200A2031322031332020312020302020202020200A2031332031342020322020302020202020200A2020352031342020312020302020202020200A2020312031342020312020302020202020200A2031352031362020312020302020202020200A2031352031372020312020302020202020200A2031352031382020312020302020202020200A2031362031392020312020302020202020200A2031362032302020312020302020202020200A2031362032312020312020302020202020200A2031332031352020312020302020202020200A4D2020454E44
Contributor: MASS SPECTROSCOPY SOC. OF JAPAN (MSSJ)
InstType: EI
InstName: JEOL JMS-D-3000
IoniMethod: _ENERGY 70 eV
IonPolarity: pos
Date: 2010-10-09 19:48:36+02:00
Num Peaks: 58
43 43 45 70 47 17 53 18 59 28 63 12 73 196 74 21 75 143 76 49 
77 21 88 21 89 37 117 10 150 13 151 21 152 28 165 26 176 34 177 22 
178 180 179 47 180 33 181 13 189 18 191 34 192 16 193 14 195 11 202 18 
203 20 204 24 205 60 206 16 207 25 208 38 209 12 217 71 218 31 219 101 
220 71 221 19 231 20 232 16 233 78 234 44 235 999 236 241 237 71 249 21 
250 39 251 13 277 16 293 40 294 13 308 216 309 70 310 26 
