Name: EPOXYVULGARONE A
MW: 234
Formula: C15H22O2
Synonym: MassBank: JP006305
Synonym: EPOXYVULGARONE A
Structure: 313130365F45504F585956554C4741524F4E4520412E6D6F6C0A20204368656D447261773039303731303130343132440A2031372032302020302020302020302020302020302020302020302020303939392056323030300A2020202D302E383239372020202D302E3035393320202020302E303030302043202020302020302020302020302020302020302020302020302020302020302020302020300A2020202D302E383239372020202D302E3838343320202020302E303030302043202020302020302020302020302020302020302020302020302020302020302020302020300A2020202D302E313135322020202D312E3239363820202020302E303030302043202020302020302020302020302020302020302020302020302020302020302020302020300A20202020302E353939332020202D302E3838343320202020302E303030302043202020302020302020302020302020302020302020302020302020302020302020302020300A20202020302E353939332020202D302E3035393320202020302E303030302043202020302020302020302020302020302020302020302020302020302020302020302020300A2020202D302E3131353220202020302E3335333220202020302E303030302043202020302020302020302020302020302020302020302020302020302020302020302020300A2020202D312E353434322020202D302E3437313820202020302E30303030204F202020302020302020302020302020302020302020302020302020302020302020302020300A2020202D312E323432322020202D312E3539383720202020302E303030302043202020302020302020302020302020302020302020302020302020302020302020302020300A2020202D302E313135322020202D302E3531333020202020302E303030302043202020302020302020302020302020302020302020302020302020302020302020302020300A2020202D302E3531353920202020302E3230383220202020302E30303030204F202020302020302020302020302020302020302020302020302020302020302020302020300A20202020302E3530303520202020302E3930323420202020302E303030302043202020302020302020302020302020302020302020302020302020302020302020302020300A20202020312E3239373720202020302E3639303120202020302E303030302043202020302020302020302020302020302020302020302020302020302020302020302020300A20202020312E353434322020202D302E3039373220202020302E303030302043202020302020302020302020302020302020302020302020302020302020302020302020300A20202020312E343233362020202D302E3931333420202020302E303030302043202020302020302020302020302020302020302020302020302020302020302020302020300A20202020302E373938372020202D312E3638343820202020302E303030302043202020302020302020302020302020302020302020302020302020302020302020302020300A20202020302E3736323020202020312E3638343820202020302E303030302043202020302020302020302020302020302020302020302020302020302020302020302020300A2020202D302E3138383520202020312E3335363220202020302E303030302043202020302020302020302020302020302020302020302020302020302020302020302020300A2020312020322020312020302020202020200A2020322020332020312020302020202020200A2020332020342020312020302020202020200A2020342020352020312020302020202020200A2020352020362020312020302020202020200A2020362020312020312020302020202020200A2020312020372020312020302020202020200A2020372020322020312020302020202020200A2020322020382020312020302020202020200A2020392020332020312020302020202020200A2020392020352020312020302020202020200A2020392031302020322020302020202020200A2020362031312020312020302020202020200A2031312031322020312020302020202020200A2031322031332020312020302020202020200A2031332031342020312020302020202020200A2020342031342020312020302020202020200A2020342031352020312020302020202020200A2031312031362020312020302020202020200A2031312031372020312020302020202020200A4D2020454E44
Contributor: EGUCHI S, FAC. OF SCIENCE, HIROSHIMA UNIV.
InstType: EI
InstName: HITACHI RMS-4
IoniMethod: _ENERGY 70 eV
IonPolarity: pos
Date: 2010-10-09 19:48:36+02:00
Num Peaks: 90
40 175 41 810 42 145 43 37 50 35 51 110 52 80 53 30 54 90 55 440 
56 480 57 8 63 60 64 50 65 230 66 10 67 330 68 110 69 310 70 5 
71 40 77 450 78 145 79 49 80 125 81 520 82 140 83 10 84 55 85 90 
89 40 91 70 92 140 93 380 94 140 95 52 96 130 97 60 98 90 103 10 
104 60 105 590 106 999 107 79 108 320 109 290 110 70 111 6 115 90 116 45 
117 70 118 6 119 910 120 350 121 390 122 17 123 90 124 60 128 60 129 5 
130 40 131 70 132 45 133 18 134 110 135 220 136 70 137 43 138 70 145 115 
146 30 147 25 148 80 149 95 150 40 151 8 161 50 162 30 163 65 173 5 
175 145 176 50 190 260 191 10 206 65 207 15 219 65 220 3 234 65 235 25 
