Name: CYCLOPROPYL METHYL KETONE
CAS: 765-43-5
MW: 84
Formula: C5H8O
Synonym: MassBank: JP006374
Synonym: CYCLOPROPYL METHYL KETONE
Structure: 310A31370A4359434C4F50524F50594C204D455448594C204B45544F4E452E6D6F6C0A20204368656D447261773039323031303039313632440A2020362020362020302020302020302020302020302020302020302020303939392056323030300A20202020302E3536333520202020302E3030303020202020302E303030302043202020302020302020302020302020302020302020302020302020302020302020302020300A20202020302E393736302020202D302E3731343520202020302E30303030204F202020302020302020302020302020302020302020302020302020302020302020302020300A20202020302E3937363020202020302E3731343520202020302E303030302043202020302020302020302020302020302020302020302020302020302020302020302020300A2020202D302E3236313520202020302E3030303020202020302E303030302043202020302020302020302020302020302020302020302020302020302020302020302020300A2020202D302E393736302020202D302E3431323520202020302E303030302043202020302020302020302020302020302020302020302020302020302020302020302020300A2020202D302E3937363020202020302E3431323520202020302E303030302043202020302020302020302020302020302020302020302020302020302020302020302020300A2020312020322020322020302020202020200A2020312020332020312020302020202020200A2020342020352020312020302020202020200A2020352020362020312020302020202020200A2020342020362020312020302020202020200A2020312020342020312020302020202020200A4D2020454E44
Contributor: HISAHIRO HAGIWARA, CHEMICAL RESEARCH INSTITUTE OF NON-AQUEOUSSOLUTIONS TOHOKU UNIV.
InstType: EI
InstName: JEOL JMS-DX-300
IoniMethod: _ENERGY 70 eV
IonPolarity: pos
Date: 2010-10-09 19:48:36+02:00
Num Peaks: 16
37 16 38 37 39 258 40 11 41 552 42 78 43 999 44 17 51 11 53 16 
55 24 69 778 70 39 83 38 84 273 85 17 
