Name: BETA-PICOLINE
MW: 93
Formula: C6H7N
Synonym: MassBank: JP005291
Synonym: BETA-PICOLINE
Synonym: 3-METHYLPYRIDINE
Structure: 310A31390A424554412D5049434F4C494E452E6D6F6C0A20204368656D447261773039303531303137353632440A2020372020372020302020302020302020302020302020302020302020303939392056323030300A2020202D302E303030302020202D302E3731343520202020302E303030302043202020302020302020302020302020302020302020302020302020302020302020302020300A2020202D302E3431323520202020302E3030303020202020302E303030302043202020302020302020302020302020302020302020302020302020302020302020302020300A2020202D302E3030303020202020302E3731343520202020302E303030302043202020302020302020302020302020302020302020302020302020302020302020302020300A20202020302E3832353020202020302E3731343520202020302E303030302043202020302020302020302020302020302020302020302020302020302020302020302020300A20202020312E3233373520202020302E3030303020202020302E303030302043202020302020302020302020302020302020302020302020302020302020302020302020300A20202020302E383235302020202D302E3731343520202020302E30303030204E202020302020302020302020302020302020302020302020302020302020302020302020300A2020202D312E3233373520202020302E3030303020202020302E303030302043202020302020302020302020302020302020302020302020302020302020302020302020300A2020312020322020312020302020202020200A2020322020332020322020302020202020200A2020332020342020312020302020202020200A2020342020352020322020302020202020200A2020352020362020312020302020202020200A2020312020362020322020302020202020200A2020322020372020312020302020202020200A4D2020454E44
Contributor: YAMAMOTO M, DEP. CHEMISTRY, FAC. SCIENCE, NARA WOMEN'S UNIV.
InstType: EI
InstName: HITACHI RMU-6M
IoniMethod: _ENERGY 70 eV
IonPolarity: pos
Date: 2010-10-09 19:48:36+02:00
Num Peaks: 27
26 20 27 30 28 35 31 10 37 36 38 82 39 283 40 124 41 28 45.5 11 
50 33 51 54 52 27 53 23 54 25 61 23 62 35 63 74 64 35 65 235 
66 393 67 98 78 35 91 18 92 300 93 999 94 71 
