Name: 4-(3-(4-HYDROXYPHENOXY)PROPYL)MORPHOLINE
MW: 237
Formula: C13H19NO3
Synonym: MassBank: JP003460
Synonym: 4-(3-(4-HYDROXYPHENOXY)PROPYL)MORPHOLINE
Structure: 342D28332D28342D485944524F58595048454E4F58592950524F50594C294D4F5250484F4C494E452E6D6F6C0A20204368656D447261773033323331303233323832440A2031372031382020302020302020302020302020302020302020302020303939392056323030300A20202020332E333030302020202D312E3432383920202020302E303030302043202020302020302020302020302020302020302020302020302020302020302020302020300A20202020322E343735302020202D312E3432383920202020302E303030302043202020302020302020302020302020302020302020302020302020302020302020302020300A20202020322E303632352020202D302E3731343520202020302E30303030204E202020302020302020302020302020302020302020302020302020302020302020302020300A20202020322E3437353020202020302E3030303020202020302E303030302043202020302020302020302020302020302020302020302020302020302020302020302020300A20202020332E3330303020202020302E3030303020202020302E303030302043202020302020302020302020302020302020302020302020302020302020302020302020300A20202020332E373132352020202D302E3731343520202020302E30303030204F202020302020302020302020302020302020302020302020302020302020302020302020300A20202020312E323337352020202D302E3731343520202020302E303030302043202020302020302020302020302020302020302020302020302020302020302020302020300A20202020302E3832353020202020302E3030303020202020302E303030302043202020302020302020302020302020302020302020302020302020302020302020302020300A2020202D302E3030303020202020302E3030303020202020302E303030302043202020302020302020302020302020302020302020302020302020302020302020302020300A2020202D302E3431323520202020302E3731343520202020302E30303030204F202020302020302020302020302020302020302020302020302020302020302020302020300A2020202D312E3233373520202020302E3731343520202020302E303030302043202020302020302020302020302020302020302020302020302020302020302020302020300A2020202D312E363530302020202D302E3030303020202020302E303030302043202020302020302020302020302020302020302020302020302020302020302020302020300A2020202D322E343735302020202D302E3030303020202020302E303030302043202020302020302020302020302020302020302020302020302020302020302020302020300A2020202D322E3838373520202020302E3731343520202020302E303030302043202020302020302020302020302020302020302020302020302020302020302020302020300A2020202D322E3437353020202020312E3432383920202020302E303030302043202020302020302020302020302020302020302020302020302020302020302020302020300A2020202D312E3635303020202020312E3432383920202020302E303030302043202020302020302020302020302020302020302020302020302020302020302020302020300A2020202D332E3731323520202020302E3731343520202020302E30303030204F202020302020302020302020302020302020302020302020302020302020302020302020300A2020312020322020312020302020202020200A2020322020332020312020302020202020200A2020332020342020312020302020202020200A2020342020352020312020302020202020200A2020352020362020312020302020202020200A2020312020362020312020302020202020200A2020372020382020312020302020202020200A2020382020392020312020302020202020200A2031312031322020312020302020202020200A2031322031332020322020302020202020200A2031332031342020312020302020202020200A2031342031352020322020302020202020200A2031352031362020312020302020202020200A2031312031362020322020302020202020200A2031302031312020312020302020202020200A2031342031372020312020302020202020200A2020392031302020312020302020202020200A2020332020372020312020302020202020200A4D2020454E44
Contributor: MASS SPECTROSCOPY SOC. OF JAPAN (MSSJ)
InstType: EI
InstName: HITACHI M-60
IoniMethod: _ENERGY 20 eV
IonPolarity: pos
Date: 2010-10-09 19:48:36+02:00
Num Peaks: 89
41 2 43 4 44 78 55 7 56 75 57 30 59 12 67 16 68 33 69 12 
70 149 71 27 79 12 81 53 82 12 83 14 84 33 85 22 87 110 91 33 
93 13 94 10 95 25 96 24 97 44 98 46 99 218 100 999 101 93 105 15 
107 9 110 26 111 22 112 19 113 12 114 8 117 10 119 7 121 29 122 12 
123 23 124 9 125 6 126 28 127 24 128 209 129 26 131 9 133 16 134 2 
135 29 136 23 137 9 138 2 139 4 145 7 146 24 147 21 148 25 150 13 
151 24 152 13 159 2 160 67 161 7 162 24 164 5 165 7 173 20 175 11 
177 3 180 5 183 28 189 19 190 5 192 2 194 2 195 16 204 8 206 15 
208 12 209 13 219 4 221 7 222 17 223 3 235 9 237 85 239 47 
