Name: MassBank: JP001982
MW: 173
Formula: C11H11NO
Synonym: MassBank: JP001982
Synonym: 6-FORMYL-2,3-DIMETHYLINDOLE
Structure: 362D464F524D594C2D322C332D44494D455448594C494E444F4C452E6D6F6C0A20204368656D447261773035313731303133323432440A2031332031342020302020302020302020302020302020302020302020303939392056323030300A2020202D312E313636332020202D302E3938313020202020302E30303030204E202020302020302020302020302020302020302020302020302020302020302020302020300A2020202D312E363531322020202D302E3331333520202020302E303030302043202020302020302020302020302020302020302020302020302020302020302020302020300A2020202D312E3136363320202020302E3335333920202020302E303030302043202020302020302020302020302020302020302020302020302020302020302020302020300A2020202D302E3338313720202020302E3039393020202020302E303030302043202020302020302020302020302020302020302020302020302020302020302020302020300A20202020302E3333323820202020302E3531313520202020302E303030302043202020302020302020302020302020302020302020302020302020302020302020302020300A20202020312E3034373320202020302E3039393020202020302E303030302043202020302020302020302020302020302020302020302020302020302020302020302020300A20202020312E303437332020202D302E3732363020202020302E303030302043202020302020302020302020302020302020302020302020302020302020302020302020300A20202020302E333332382020202D312E3133383520202020302E303030302043202020302020302020302020302020302020302020302020302020302020302020302020300A2020202D302E333831372020202D302E3732363020202020302E303030302043202020302020302020302020302020302020302020302020302020302020302020302020300A2020202D312E3432313220202020312E3133383520202020302E303030302043202020302020302020302020302020302020302020302020302020302020302020302020300A2020202D322E343736322020202D302E3331333520202020302E303030302043202020302020302020302020302020302020302020302020302020302020302020302020300A20202020312E373631372020202D312E3133383520202020302E303030302043202020302020302020302020302020302020302020302020302020302020302020302020300A20202020322E343736322020202D302E3732363020202020302E30303030204F202020302020302020302020302020302020302020302020302020302020302020302020300A2020312020322020312020302020202020200A2020322020332020322020302020202020200A2020332020342020312020302020202020200A2020342020352020312020302020202020200A2020352020362020322020302020202020200A2020362020372020312020302020202020200A2020372020382020322020302020202020200A2020382020392020312020302020202020200A2020312020392020312020302020202020200A2020342020392020322020302020202020200A2020332031302020312020302020202020200A2020322031312020312020302020202020200A2031322031332020322020302020202020200A2020372031322020312020302020202020200A4D2020454E44
Contributor: SASAKI S, TOYOHASHI UNIV. OF TECH.
InstType: EI
InstName: Unknown
IoniMethod: _ENERGY 50 eV
IonPolarity: pos
Date: 2010-10-09 19:48:36+02:00
Num Peaks: 28
45 524 51 150 55 117 63 6 70 106 80 184 91 39 92 3 97 30 104 13 
107 20 108 4 109 50 121 111 122 24 123 2 133 33 134 39 135 18 147 5 
148 150 149 250 150 20 153 1 161 250 162 14 173 999 174 116 
