Name: (Z)-3-DODECEN-1-OL
MW: 184
Formula: C12H24O
Synonym: MassBank: JP005381
Synonym: (Z)-3-DODECEN-1-OL
Structure: 285A292D332D444F444543454E2D312D4F4C2E6D6F6C0A20204368656D447261773130323230393231313532440A2031352031342020302020302020302020302020302020302020302020303939392056323030300A2020202D322E3036323520202020312E3037313720202020302E303030302043202020302020302020302020302020302020302020302020302020302020302020302020300A2020202D312E3233373520202020312E3037313720202020302E303030302043202020302020302020302020302020302020302020302020302020302020302020302020300A2020202D322E3437353020202020302E3335373220202020302E303030302043202020302020302020302020302020302020302020302020302020302020302020302020300A2020202D302E3832353020202020312E3738363220202020302E303030302048202020302020302020302020302020302020302020302020302020302020302020302020300A2020202D322E3437353020202020312E3738363220202020302E303030302048202020302020302020302020302020302020302020302020302020302020302020302020300A2020202D302E3832353020202020302E3335373220202020302E303030302043202020302020302020302020302020302020302020302020302020302020302020302020300A2020202D332E3330303020202020302E3335373220202020302E303030302043202020302020302020302020302020302020302020302020302020302020302020302020300A2020202D332E373132352020202D302E3335373220202020302E30303030204F202020302020302020302020302020302020302020302020302020302020302020302020300A20202020302E3030303020202020302E3335373220202020302E303030302043202020302020302020302020302020302020302020302020302020302020302020302020300A20202020302E343132352020202D302E3335373220202020302E303030302043202020302020302020302020302020302020302020302020302020302020302020302020300A20202020312E323337352020202D302E3335373220202020302E303030302043202020302020302020302020302020302020302020302020302020302020302020302020300A20202020312E363530302020202D312E3037313720202020302E303030302043202020302020302020302020302020302020302020302020302020302020302020302020300A20202020322E343735302020202D312E3037313720202020302E303030302043202020302020302020302020302020302020302020302020302020302020302020302020300A20202020322E383837352020202D312E3738363220202020302E303030302043202020302020302020302020302020302020302020302020302020302020302020302020300A20202020332E373132352020202D312E3738363220202020302E303030302043202020302020302020302020302020302020302020302020302020302020302020302020300A2020312020322020322020302020202020200A2020312020332020312020302020202020200A2020322020342020312020302020202020200A2020312020352020312020302020202020200A2020322020362020312020302020202020200A2020332020372020312020302020202020200A2020372020382020312020302020202020200A2020362020392020312020302020202020200A2020392031302020312020302020202020200A2031302031312020312020302020202020200A2031312031322020312020302020202020200A2031322031332020312020302020202020200A2031332031342020312020302020202020200A2031342031352020312020302020202020200A4D2020454E44
Contributor: YAMAOKA R, KYOTO INSTITUTE OF TECHNOLOGY
InstType: EI
InstName: SHIMADZU QP-1000
IoniMethod: _ENERGY 20 eV
IonPolarity: pos
Date: 2010-10-09 19:48:36+02:00
Num Peaks: 46
43 65 44 227 45 71 46 4 54 221 55 350 56 203 57 32 58 27 66 69 
67 494 68 999 69 366 70 176 71 147 72 2 79 22 80 21 81 498 82 66 
83 255 84 81 85 57 86 1 89 11 95 301 96 368 97 15 98 49 99 19 
109 186 110 21 111 61 112 25 122 17 123 11 124 110 125 18 137 56 138 12 
139 14 140 17 165 13 166 10 167 14 184 4 
