Name: 4-TERPINYL ACETATE
MW: 196
Formula: C12H20O2
Synonym: MassBank: JP006481
Synonym: 4-TERPINYL ACETATE
Structure: 342D54455250494E594C20414345544154452E6D6F6C0A20204368656D447261773034323231303231313532440A2031342031342020302020302020302020302020302020302020302020303939392056323030300A2020202D302E3335313420202020302E3131303520202020302E303030302043202020302020302020302020302020302020302020302020302020302020302020302020300A2020202D302E333531342020202D302E3731343520202020302E303030302043202020302020302020302020302020302020302020302020302020302020302020302020300A20202020302E333633312020202D312E3132373020202020302E303030302043202020302020302020302020302020302020302020302020302020302020302020302020300A20202020312E303737352020202D302E3731343520202020302E303030302043202020302020302020302020302020302020302020302020302020302020302020302020300A20202020312E3037373520202020302E3131303520202020302E303030302043202020302020302020302020302020302020302020302020302020302020302020302020300A20202020302E3336333120202020302E3532333020202020302E303030302043202020302020302020302020302020302020302020302020302020302020302020302020300A20202020302E3737353620202020312E3233373520202020302E303030302043202020302020302020302020302020302020302020302020302020302020302020302020300A2020202D302E3232303320202020312E3130363420202020302E30303030204F202020302020302020302020302020302020302020302020302020302020302020302020300A2020202D312E3031373220202020302E3839323920202020302E303030302043202020302020302020302020302020302020302020302020302020302020302020302020300A20202020302E3336333120202020312E3935323020202020302E303030302043202020302020302020302020302020302020302020302020302020302020302020302020300A20202020312E3630303620202020312E3233373520202020302E303030302043202020302020302020302020302020302020302020302020302020302020302020302020300A2020202D312E3630303620202020312E3437363220202020302E30303030204F202020302020302020302020302020302020302020302020302020302020302020302020300A2020202D312E3233303720202020302E3039363020202020302E303030302043202020302020302020302020302020302020302020302020302020302020302020302020300A20202020302E333633312020202D312E3935323020202020302E303030302043202020302020302020302020302020302020302020302020302020302020302020302020300A2020312020322020312020302020202020200A2020322020332020312020302020202020200A2020332020342020322020302020202020200A2020342020352020312020302020202020200A2020352020362020312020302020202020200A2020362020312020312020302020202020200A2020362020372020312020302020202020200A2020362020382020312020302020202020200A2020382020392020312020302020202020200A2020372031302020312020302020202020200A2020372031312020312020302020202020200A2020392031322020322020302020202020200A2020392031332020312020302020202020200A2020332031342020312020302020202020200A4D2020454E44
Contributor: HISAHIRO HAGIWARA, CHEMICAL RESEARCH INSTITUTE OF NON-AQUEOUSSOLUTIONS TOHOKU UNIV.
InstType: EI
InstName: HITACHI M-80B
IoniMethod: _ENERGY 70 eV
IonPolarity: pos
Date: 2010-10-09 19:48:36+02:00
Num Peaks: 43
15 16 27 62 29 30 39 58 40 12 41 179 42 19 43 525 51 18 53 75 
55 52 61 19 65 26 67 75 68 47 69 43 71 64 77 128 78 21 79 98 
80 38 81 111 82 12 86 21 91 126 92 244 93 999 94 99 95 39 105 41 
106 11 107 64 108 34 110 28 111 279 112 19 119 14 121 631 122 55 136 643 
137 79 153 19 154 10 
