Name: O-ISOBUTYLHYDROXYLAMINE
MW: 89
Formula: C4H11NO
Synonym: MassBank: JP003733
Synonym: O-ISOBUTYLHYDROXYLAMINE
Structure: 310A31360A4F2D49534F425554594C485944524F58594C414D494E452E6D6F6C0A20204368656D447261773038313231303033303832440A2020362020352020302020302020302020302020302020302020302020303939392056323030300A2020202D312E3037313720202020302E3631383820202020302E30303030204E202020302020302020302020302020302020302020302020302020302020302020302020300A2020202D312E303731372020202D302E3230363220202020302E30303030204F202020302020302020302020302020302020302020302020302020302020302020302020300A2020202D302E333537322020202D302E3631383820202020302E303030302043202020302020302020302020302020302020302020302020302020302020302020302020300A20202020302E333537322020202D302E3230363220202020302E303030302043202020302020302020302020302020302020302020302020302020302020302020302020300A20202020302E3335373220202020302E3631383820202020302E303030302043202020302020302020302020302020302020302020302020302020302020302020302020300A20202020312E303731372020202D302E3631383720202020302E303030302043202020302020302020302020302020302020302020302020302020302020302020302020300A2020312020322020312020302020202020200A2020332020342020312020302020202020200A2020342020352020312020302020202020200A2020342020362020312020302020202020200A2020322020332020312020302020202020200A4D2020454E44
Contributor: SASAKI S, TOYOHASHI UNIV. OF TECH.
InstType: EI
InstName: Unknown
IoniMethod: EI
IonPolarity: pos
Date: 2010-10-09 19:48:36+02:00
Num Peaks: 27
39 273 40 40 41 787 42 27 43 999 44 93 45 33 46 1 47 10 50 7 
51 10 53 3 54 7 55 240 56 200 57 5 58 67 59 14 60 10 69 1 
70 87 71 240 72 33 73 0 74 20 75 7 89 7 
