Name: 7-METHOXYISOFLOVENE
MW: 238
Formula: C16H14O2
Synonym: MassBank: JP001264
Synonym: 7-METHOXYISOFLOVENE
Synonym: 7-METHOXY-3-PHENYL-2H-CHROMENE
Structure: 372D4D4554484F585949534F464C4F56454E452E6D6F6C0A20204368656D447261773035323131303036313132440A2031382032302020302020302020302020302020302020302020302020303939392056323030300A20202020302E3431323520202020312E3037313720202020302E303030302043202020302020302020302020302020302020302020302020302020302020302020302020300A20202020302E3832353020202020302E3335373220202020302E303030302043202020302020302020302020302020302020302020302020302020302020302020302020300A20202020302E343132352020202D302E3335373220202020302E303030302043202020302020302020302020302020302020302020302020302020302020302020302020300A2020202D302E343132352020202D302E3335373220202020302E303030302043202020302020302020302020302020302020302020302020302020302020302020302020300A2020202D302E383235302020202D312E3037313720202020302E303030302043202020302020302020302020302020302020302020302020302020302020302020302020300A2020202D312E363530302020202D312E3037313720202020302E303030302043202020302020302020302020302020302020302020302020302020302020302020302020300A2020202D322E303632352020202D302E3335373220202020302E303030302043202020302020302020302020302020302020302020302020302020302020302020302020300A2020202D312E3635303020202020302E3335373220202020302E303030302043202020302020302020302020302020302020302020302020302020302020302020302020300A2020202D302E3832353020202020302E3335373220202020302E303030302043202020302020302020302020302020302020302020302020302020302020302020302020300A2020202D302E3431323520202020312E3037313720202020302E30303030204F202020302020302020302020302020302020302020302020302020302020302020302020300A20202020312E3635303020202020302E3335373220202020302E303030302043202020302020302020302020302020302020302020302020302020302020302020302020300A20202020322E3036323520202020312E3037313720202020302E303030302043202020302020302020302020302020302020302020302020302020302020302020302020300A20202020322E3838373520202020312E3037313720202020302E303030302043202020302020302020302020302020302020302020302020302020302020302020302020300A20202020332E3330303020202020302E3335373220202020302E303030302043202020302020302020302020302020302020302020302020302020302020302020302020300A20202020322E383837352020202D302E3335373220202020302E303030302043202020302020302020302020302020302020302020302020302020302020302020302020300A20202020322E303632352020202D302E3335373220202020302E303030302043202020302020302020302020302020302020302020302020302020302020302020302020300A2020202D322E383837352020202D302E3335373220202020302E30303030204F202020302020302020302020302020302020302020302020302020302020302020302020300A2020202D332E333030302020202D312E3037313720202020302E303030302043202020302020302020302020302020302020302020302020302020302020302020302020300A2020312020322020312020302020202020200A2020322020332020322020302020202020200A2020332020342020312020302020202020200A2020342020352020312020302020202020200A2020352020362020322020302020202020200A2020362020372020312020302020202020200A2020372020382020322020302020202020200A2020382020392020312020302020202020200A2020342020392020322020302020202020200A2020392031302020312020302020202020200A2020312031302020312020302020202020200A2031312031322020312020302020202020200A2031322031332020322020302020202020200A2031332031342020312020302020202020200A2031342031352020322020302020202020200A2031352031362020312020302020202020200A2031312031362020322020302020202020200A2020322031312020312020302020202020200A2031372031382020312020302020202020200A2020372031372020312020302020202020200A4D2020454E44
Contributor: SASAKI S, TOYOHASHI UNIV. OF TECH.
InstType: EI
InstName: HITACHI RMU-6D
IoniMethod: _ENERGY 70 eV
IonPolarity: pos
Date: 2010-10-09 19:48:36+02:00
Num Peaks: 97
15 17 18 20 27 10 28 2 39 30 41 13 42 3 43 3 44 3 45 10 
50 20 51 6 52 13 53 10 55 10 57 1 59 7 61 10 63 50 64 1 
65 27 69 50 73 3 74 1 75 23 76 50 77 93 81 0 82 23 89 50 
90 10 91 3 92 10 101 3 102 27 103 1 105 70 113 10 114 8 115 6 
116 7 117 10 118 30 119 9 126 17 127 18 128 20 129 1 137 3 138 3 
139 47 140 1 141 10 145 3 146 20 149 1 150 10 151 30 152 90 153 2 
154 3 155 3 160 17 161 47 162 50 163 27 164 20 165 20 166 50 167 30 
168 10 176 2 177 33 178 53 179 20 180 0 181 3 193 7 194 140 195 5 
196 7 205 7 206 7 207 5 208 13 209 13 210 20 211 1 221 10 222 40 
223 107 224 2 236 23 237 940 238 999 239 16 240 20 
