Name: MassBank: JP003673
MW: 146
Formula: C8H18O2
Synonym: MassBank: JP003673
Synonym: 1,6-DIMETHOXYHEXANE
Structure: 312C362D44494D4554484F5859484558414E452E6D6F6C0A20204368656D447261773131313630393133303932440A2031302020392020302020302020302020302020302020302020302020303939392056323030300A2020202D312E373836322020202D302E3230363320202020302E303030302043202020302020302020302020302020302020302020302020302020302020302020302020300A2020202D312E3037313720202020302E3230363320202020302E303030302043202020302020302020302020302020302020302020302020302020302020302020302020300A2020202D302E333537322020202D302E3230363320202020302E303030302043202020302020302020302020302020302020302020302020302020302020302020302020300A20202020302E3335373220202020302E3230363320202020302E303030302043202020302020302020302020302020302020302020302020302020302020302020302020300A20202020312E303731372020202D302E3230363220202020302E303030302043202020302020302020302020302020302020302020302020302020302020302020302020300A20202020312E3738363220202020302E3230363320202020302E303030302043202020302020302020302020302020302020302020302020302020302020302020302020300A20202020322E353030362020202D302E3230363220202020302E30303030204F202020302020302020302020302020302020302020302020302020302020302020302020300A20202020332E3231353120202020302E3230363320202020302E303030302043202020302020302020302020302020302020302020302020302020302020302020302020300A2020202D322E3530303620202020302E3230363320202020302E30303030204F202020302020302020302020302020302020302020302020302020302020302020302020300A2020202D332E323135312020202D302E3230363320202020302E303030302043202020302020302020302020302020302020302020302020302020302020302020302020300A2020312020322020312020302020202020200A2020322020332020312020302020202020200A2020332020342020312020302020202020200A2020342020352020312020302020202020200A2020352020362020312020302020202020200A2020372020382020312020302020202020200A2020362020372020312020302020202020200A2020392031302020312020302020202020200A2020312020392020312020302020202020200A4D2020454E44
Contributor: SASAKI S, TOYOHASHI UNIV. OF TECH.
InstType: EI
InstName: Unknown
IoniMethod: EI
IonPolarity: pos
Date: 2010-10-09 19:48:36+02:00
Num Peaks: 57
39 25 40 18 41 121 42 5 43 36 44 29 45 999 46 2 47 10 48 4 
49 3 50 0 51 2 53 12 54 146 55 9 56 53 57 22 58 120 59 2 
60 3 61 3 63 2 65 0 66 3 67 161 68 32 69 4 70 8 71 377 
72 3 73 0 74 4 75 4 77 6 78 0 79 3 80 1 81 32 82 29 
83 51 84 13 85 62 86 1 87 6 96 1 97 1 98 0 99 3 113 3 
114 90 115 1 116 1 117 1 131 7 132 0 146 2 
