Name: PENTAFLUOROBENZYL ALCOHOL
MW: 198
Formula: C7H3F5O
Synonym: MassBank: JP008821
Synonym: PENTAFLUOROBENZYL ALCOHOL
Structure: 303934395F50454E5441464C554F524F42454E5A594C20414C434F484F4C2E6D6F6C0A20204368656D447261773038323031303131353632440A2031332031332020302020302020302020302020302020302020302020303939392056323030300A2020202D312E333237362020202D302E3030303120202020302E303030302043202020302020302020302020302020302020302020302020302020302020302020302020300A2020202D302E353032362020202D302E3030303120202020302E303030302043202020302020302020302020302020302020302020302020302020302020302020302020300A2020202D302E3039303120202020302E3731343420202020302E303030302043202020302020302020302020302020302020302020302020302020302020302020302020300A20202020302E3733343920202020302E3731343420202020302E303030302043202020302020302020302020302020302020302020302020302020302020302020302020300A20202020312E313437342020202D302E3030303120202020302E303030302043202020302020302020302020302020302020302020302020302020302020302020302020300A20202020302E373334392020202D302E3731343520202020302E303030302043202020302020302020302020302020302020302020302020302020302020302020302020300A2020202D302E303930312020202D302E3731343520202020302E303030302043202020302020302020302020302020302020302020302020302020302020302020302020300A2020202D302E3530323620202020312E3432383920202020302E303030302046202020302020302020302020302020302020302020302020302020302020302020302020300A20202020312E3134373420202020312E3432383920202020302E303030302046202020302020302020302020302020302020302020302020302020302020302020302020300A20202020312E393732342020202D302E3030303120202020302E303030302046202020302020302020302020302020302020302020302020302020302020302020302020300A2020202D312E3937323420202020302E3531343720202020302E30303030204F202020302020302020302020302020302020302020302020302020302020302020302020300A20202020312E313437332020202D312E3432383920202020302E303030302046202020302020302020302020302020302020302020302020302020302020302020302020300A2020202D302E353032362020202D312E3432383920202020302E303030302046202020302020302020302020302020302020302020302020302020302020302020302020300A2020312020322020312020302020202020200A2020322020332020312020302020202020200A2020332020342020322020302020202020200A2020342020352020312020302020202020200A2020352020362020322020302020202020200A2020362020372020312020302020202020200A2020322020372020322020302020202020200A2020332020382020312020302020202020200A2020342020392020312020302020202020200A2020352031302020312020302020202020200A2020312031312020312020302020202020200A2020362031322020312020302020202020200A2020372031332020312020302020202020200A4D2020454E44
Contributor: UOEH
InstType: EI
InstName: HP 5970
IoniMethod: _ENERGY 70 eV
IonPolarity: pos
Date: 2010-10-09 19:48:36+02:00
Num Peaks: 30
49 154 51 20 69 148 74 73 75 187 79 96 80 74 81 227 93 209 98 140 
99 550 101 52 117 335 119 320 131 91 149 236 150 476 151 194 161 281 167 65 
168 95 169 158 177 802 178 439 179 22 181 674 195 138 197 445 198 999 199 19 
