Name: TRANS-3-HEXENOIC ACID
MW: 114
Formula: C6H10O2
Synonym: MassBank: JP009184
Synonym: TRANS-3-HEXENOIC ACID
Structure: 310A32300A5452414E532D332D484558454E4F494320414349442E6D6F6C0A20204368656D447261773038313231303037353932440A2020382020372020302020302020302020302020302020302020302020303939392056323030300A20202020312E3033313320202020302E3030303020202020302E303030302043202020302020302020302020302020302020302020302020302020302020302020302020300A20202020302E363138382020202D302E3731343520202020302E303030302043202020302020302020302020302020302020302020302020302020302020302020302020300A2020202D302E323036322020202D302E3731343520202020302E303030302043202020302020302020302020302020302020302020302020302020302020302020302020300A2020202D302E3631383820202020302E3030303020202020302E303030302043202020302020302020302020302020302020302020302020302020302020302020302020300A2020202D312E3434333820202020302E3030303020202020302E303030302043202020302020302020302020302020302020302020302020302020302020302020302020300A2020202D312E3835363320202020302E3731343520202020302E303030302043202020302020302020302020302020302020302020302020302020302020302020302020300A20202020302E3631383820202020302E3731343520202020302E30303030204F202020302020302020302020302020302020302020302020302020302020302020302020300A20202020312E3835363320202020302E3030303020202020302E30303030204F202020302020302020302020302020302020302020302020302020302020302020302020300A2020312020322020312020302020202020200A2020322020332020312020302020202020200A2020332020342020322020302020202020200A2020342020352020312020302020202020200A2020352020362020312020302020202020200A2020312020372020322020302020202020200A2020312020382020312020302020202020200A4D2020454E44
Contributor: SODA AROMATIC CO., LTD.
InstType: EI
InstName: HITACHI M-80B
IoniMethod: _ENERGY 70 eV
IonPolarity: pos
Date: 2010-10-09 19:48:36+02:00
Num Peaks: 49
15 28 18 11 26 43 27 359 28 40 29 220 31 22 37 18 38 45 39 485 
40 64 41 999 42 194 43 149 44 18 45 241 50 37 51 50 52 28 53 175 
54 85 55 778 56 38 57 183 58 24 59 17 60 437 61 18 62 12 63 14 
65 23 66 12 67 96 68 448 69 363 70 27 71 51 72 23 73 160 74 10 
81 36 85 11 86 12 95 10 96 48 97 17 99 68 114 366 115 23 
