Name: L-TRANS-CARVEOL
MW: 152
Formula: C10H16O
Synonym: MassBank: JP007032
Synonym: L-TRANS-CARVEOL
Synonym: L-TRANS-2-METHYL-5-(1-METHYLETHENYL)-2-CYCLOHEXEN-1-OL
Structure: 303335305F4C2D5452414E532D322D4D455448594C2D352D28312D4D455448594C455448454E594C292D322D4359434C4F484558454E2D312D4F4C2E6D6F6C0A20204368656D447261773130313931303230303932440A2031312031312020302020302020302020302020302020302020302020303939392056323030300A20202020302E3631383820202020302E3335373220202020302E303030302043202020302020302020302020302020302020302020302020302020302020302020302020300A20202020312E303331332020202D302E3335373220202020302E303030302043202020302020302020302020302020302020302020302020302020302020302020302020300A20202020302E363138382020202D312E3037313720202020302E303030302043202020302020302020302020302020302020302020302020302020302020302020302020300A2020202D302E323036322020202D312E3037313720202020302E303030302043202020302020302020302020302020302020302020302020302020302020302020302020300A2020202D302E363138382020202D302E3335373220202020302E303030302043202020302020302020302020302020302020302020302020302020302020302020302020300A2020202D302E3230363320202020302E3335373220202020302E303030302043202020302020302020302020302020302020302020302020302020302020302020302020300A20202020312E3033313320202020312E3037313720202020302E30303030204F202020302020302020302020302020302020302020302020302020302020302020302020300A2020202D312E343433372020202D302E3335373220202020302E303030302043202020302020302020302020302020302020302020302020302020302020302020302020300A2020202D312E3835363220202020302E3335373220202020302E303030302043202020302020302020302020302020302020302020302020302020302020302020302020300A2020202D312E383536332020202D312E3037313720202020302E303030302043202020302020302020302020302020302020302020302020302020302020302020302020300A20202020312E383536332020202D302E3335373220202020302E303030302043202020302020302020302020302020302020302020302020302020302020302020302020300A2020312020322020312020302020202020200A2020322020332020322020302020202020200A2020332020342020312020302020202020200A2020342020352020312020302020202020200A2020352020362020312020302020202020200A2020312020362020312020302020202020200A2020312020372020312020362020202020200A2020382020392020322020302020202020200A2020382031302020312020302020202020200A2020352020382020312020312020202020200A2020322031312020312020302020202020200A4D2020454E44
Contributor: SODA AROMATIC CO., LTD.
InstType: EI
InstName: HITACHI M-80B
IoniMethod: _ENERGY 70 eV
IonPolarity: pos
Date: 2010-10-09 19:48:36+02:00
Num Peaks: 66
15 14 26 10 27 207 28 26 29 123 31 22 38 15 39 341 40 73 41 433 
42 34 43 239 44 32 45 21 50 23 51 84 52 35 53 199 54 57 55 348 
56 178 57 29 63 25 65 85 66 37 67 184 68 68 69 249 70 13 71 23 
72 12 77 162 78 37 79 139 80 113 81 150 82 122 83 339 84 756 85 39 
91 217 92 64 93 171 94 55 95 178 96 84 97 56 103 13 105 66 106 20 
107 51 108 123 109 999 110 107 111 18 115 12 117 14 119 140 120 14 121 13 
123 85 124 29 134 31 137 124 152 192 153 20 
