Name: MassBank: JP004400
MW: 246
Formula: C13H14N2O3
Synonym: MassBank: JP004400
Synonym: 7-METHOXY-2,3-DIMETHYL-6-(2-NITROVINYL)INDOLE
Structure: 372D4D4554484F58592D322C332D44494D455448594C2D362D28322D4E4954524F56494E594C29494E444F4C452E6D6F6C0A20204368656D447261773035323131303036303032440A2031382031392020302020302020302020302020302020302020302020303939392056323030300A2020202D312E3339383220202020312E3332373620202020302E30303030204E202020302020302020302020302020302020302020302020302020302020302020302020300A2020202D322E3135313920202020302E3939323020202020302E303030302043202020302020302020302020302020302020302020302020302020302020302020302020300A2020202D322E3036353620202020302E3137313520202020302E303030302043202020302020302020302020302020302020302020302020302020302020302020302020300A2020202D312E3235383720202020302E3030303020202020302E303030302043202020302020302020302020302020302020302020302020302020302020302020302020300A2020202D302E383436322020202D302E3731343520202020302E303030302043202020302020302020302020302020302020302020302020302020302020302020302020300A2020202D302E303231322020202D302E3731343520202020302E303030302043202020302020302020302020302020302020302020302020302020302020302020302020300A20202020302E3339313320202020302E3030303020202020302E303030302043202020302020302020302020302020302020302020302020302020302020302020302020300A2020202D302E3032313220202020302E3731343520202020302E303030302043202020302020302020302020302020302020302020302020302020302020302020302020300A2020202D302E3834363220202020302E3731343520202020302E303030302043202020302020302020302020302020302020302020302020302020302020302020302020300A20202020312E3231363320202020302E3030303020202020302E303030302043202020302020302020302020302020302020302020302020302020302020302020302020300A20202020312E363238382020202D302E3731343520202020302E303030302043202020302020302020302020302020302020302020302020302020302020302020302020300A20202020322E343533382020202D302E3731343520202020302E30303030204E202020302020332020302020302020302020302020302020302020302020302020302020300A20202020322E383636332020202D312E3432383920202020302E30303030204F202020302020302020302020302020302020302020302020302020302020302020302020300A20202020322E3836363320202020302E3030303020202020302E30303030204F202020302020352020302020302020302020302020302020302020302020302020302020300A2020202D322E363738372020202D302E3338303520202020302E303030302043202020302020302020302020302020302020302020302020302020302020302020302020300A2020202D322E3836363320202020312E3430343520202020302E303030302043202020302020302020302020302020302020302020302020302020302020302020302020300A20202020302E3339313320202020312E3432383920202020302E30303030204F202020302020302020302020302020302020302020302020302020302020302020302020300A20202020312E3231363320202020312E3432383920202020302E303030302043202020302020302020302020302020302020302020302020302020302020302020302020300A2020312020322020312020302020202020200A2020322020332020322020302020202020200A2020332020342020312020302020202020200A2020342020352020312020302020202020200A2020352020362020322020302020202020200A2020362020372020312020302020202020200A2020372020382020322020302020202020200A2020382020392020312020302020202020200A2020312020392020312020302020202020200A2020342020392020322020302020202020200A2031302031312020322020302020202020200A2031322031332020322020302020202020200A2031322031342020312020302020202020200A2031312031322020312020302020202020200A2020372031302020312020302020202020200A2020332031352020312020302020202020200A2020322031362020312020302020202020200A2031372031382020312020302020202020200A2020382031372020312020302020202020200A4D202043484720203220203132202020312020313420202D310A4D2020454E44
Contributor: SASAKI S, TOYOHASHI UNIV. OF TECH.
InstType: EI
InstName: Unknown
IoniMethod: _ENERGY 50 eV
IonPolarity: pos
Date: 2010-10-09 19:48:36+02:00
Num Peaks: 28
44 999 45 480 55 80 56 4 57 75 60 51 69 47 85 1 91 16 97 11 
98 14 103 1 104 12 115 14 145 27 149 1 156 14 160 33 170 12 183 1 
184 38 185 12 196 26 197 7 198 17 213 10 246 146 247 18 
