Name: 3-(2-AMINOETHYL)-1-BENZYL-2-METHYLINDOLE
MW: 264
Formula: C18H20N2
Synonym: MassBank: JP007876
Synonym: 3-(2-AMINOETHYL)-1-BENZYL-2-METHYLINDOLE
Structure: 332D28322D414D494E4F455448594C292D312D42454E5A594C2D322D4D455448594C494E444F4C452E6D6F6C0A20204368656D447261773032323231303039333732440A2032302032322020302020302020302020302020302020302020302020303939392056323030300A20202020302E3233313120202020302E3538313720202020302E30303030204E202020302020302020302020302020302020302020302020302020302020302020302020300A2020202D302E323533382020202D302E3038353820202020302E303030302043202020302020302020302020302020302020302020302020302020302020302020302020300A20202020302E323331312020202D302E3735333220202020302E303030302043202020302020302020302020302020302020302020302020302020302020302020302020300A20202020312E303135382020202D302E3439383320202020302E303030302043202020302020302020302020302020302020302020302020302020302020302020302020300A20202020312E373330322020202D302E3931303820202020302E303030302043202020302020302020302020302020302020302020302020302020302020302020302020300A20202020322E343434372020202D302E3439383320202020302E303030302043202020302020302020302020302020302020302020302020302020302020302020302020300A20202020322E3434343720202020302E3332363720202020302E303030302043202020302020302020302020302020302020302020302020302020302020302020302020300A20202020312E3733303220202020302E3733393220202020302E303030302043202020302020302020302020302020302020302020302020302020302020302020302020300A20202020312E3031353820202020302E3332363720202020302E303030302043202020302020302020302020302020302020302020302020302020302020302020302020300A2020202D312E303738382020202D302E3038353820202020302E303030302043202020302020302020302020302020302020302020302020302020302020302020302020300A2020202D302E3032333820202020312E3336363320202020302E303030302043202020302020302020302020302020302020302020302020302020302020302020302020300A2020202D302E3833303820202020312E3533373820202020302E303030302043202020302020302020302020302020302020302020302020302020302020302020302020300A2020202D312E3038353720202020322E3332323420202020302E303030302043202020302020302020302020302020302020302020302020302020302020302020302020300A2020202D312E3839323720202020322E3439343020202020302E303030302043202020302020302020302020302020302020302020302020302020302020302020302020300A2020202D322E3434343720202020312E3838303920202020302E303030302043202020302020302020302020302020302020302020302020302020302020302020302020300A2020202D322E3138393820202020312E3039363320202020302E303030302043202020302020302020302020302020302020302020302020302020302020302020302020300A2020202D312E3338323820202020302E3932343720202020302E303030302043202020302020302020302020302020302020302020302020302020302020302020302020300A2020202D302E303233382020202D312E3533373820202020302E303030302043202020302020302020302020302020302020302020302020302020302020302020302020300A2020202D302E383330382020202D312E3730393420202020302E303030302043202020302020302020302020302020302020302020302020302020302020302020302020300A2020202D312E303835372020202D322E3439343020202020302E30303030204E202020302020302020302020302020302020302020302020302020302020302020302020300A2020312020322020312020302020202020200A2020322020332020322020302020202020200A2020332020342020312020302020202020200A2020342020352020312020302020202020200A2020352020362020322020302020202020200A2020362020372020312020302020202020200A2020372020382020322020302020202020200A2020382020392020312020302020202020200A2020312020392020312020302020202020200A2020342020392020322020302020202020200A2020322031302020312020302020202020200A2031312031322020312020302020202020200A2031322031332020312020302020202020200A2031332031342020322020302020202020200A2031342031352020312020302020202020200A2031352031362020322020302020202020200A2031362031372020312020302020202020200A2031322031372020322020302020202020200A2020312031312020312020302020202020200A2031382031392020312020302020202020200A2031392032302020312020302020202020200A2020332031382020312020302020202020200A4D2020454E44
Contributor: SASAKI S, TOYOHASHI UNIV. OF TECH.
InstType: EI
InstName: MX-1303
IoniMethod: _ENERGY 50 eV
IonPolarity: pos
Date: 2010-10-09 19:48:36+02:00
Num Peaks: 39
27 27 29 12 30 45 39 2 41 19 43 15 51 12 63 1 65 84 76 13 
77 24 89 2 90 11 91 999 92 89 102 3 103 13 115 33 116 16 117 1 
128 19 130 15 142 19 143 7 144 43 145 11 156 19 171 3 217 13 218 15 
230 10 232 2 233 16 234 722 235 244 236 3 262 21 264 155 265 35 
