Name: HALFORDIN (14-CD3)
MW: 276
Formula: C14H12O6
Synonym: MassBank: JP003117
Synonym: HALFORDIN (14-CD3)
Structure: 303537335F48414C464F5244494E202831342D434433292E6D6F6C0A20204368656D447261773039303631303138353032440A2032332032352020302020302020302020302020302020302020302020303939392056323030300A2020202D332E3133353920202020302E3631393320202020302E303030302043202020302020302020302020302020302020302020302020302020302020302020302020300A2020202D322E363530392020202D302E3034383120202020302E303030302043202020302020302020302020302020302020302020302020302020302020302020302020300A2020202D312E3836363320202020302E3230363820202020302E303030302043202020302020302020302020302020302020302020302020302020302020302020302020300A2020202D312E3836363320202020312E3033313820202020302E303030302043202020302020302020302020302020302020302020302020302020302020302020302020300A2020202D322E3634393720202020312E3238353820202020302E30303030204F202020302020302020302020302020302020302020302020302020302020302020302020300A2020202D312E313531382020202D302E3230353720202020302E303030302043202020302020302020302020302020302020302020302020302020302020302020302020300A2020202D302E3433373420202020302E3230363820202020302E303030302043202020302020302020302020302020302020302020302020302020302020302020302020300A2020202D302E3433373420202020312E3033313820202020302E303030302043202020302020302020302020302020302020302020302020302020302020302020302020300A2020202D312E3135313820202020312E3434343320202020302E303030302043202020302020302020302020302020302020302020302020302020302020302020302020300A20202020302E323737312020202D302E3230353720202020302E303030302043202020302020302020302020302020302020302020302020302020302020302020302020300A20202020302E3939313620202020302E3230363820202020302E303030302043202020302020302020302020302020302020302020302020302020302020302020302020300A20202020302E3939313620202020312E3033313820202020302E303030302043202020302020302020302020302020302020302020302020302020302020302020302020300A20202020302E3237373720202020312E3434343220202020302E30303030204F202020302020302020302020302020302020302020302020302020302020302020302020300A2020202D312E313531362020202D312E3033303820202020302E30303030204F202020302020302020302020302020302020302020302020302020302020302020302020300A2020202D302E343337342020202D312E3434333220202020302E303030302043202020302020302020302020302020302020302020302020302020302020302020302020300A20202020312E3730363920202020312E3434343220202020302E30303030204F202020302020302020302020302020302020302020302020302020302020302020302020300A20202020312E373036392020202D302E3230353820202020302E30303030204F202020302020302020302020302020302020302020302020302020302020302020302020300A20202020302E323737372020202D312E3033303820202020302E30303030204F202020302020302020302020302020302020302020302020302020302020302020302020300A20202020302E393930392020202D312E3434343320202020302E303030302043202020302020302020302020302020302020302020302020302020302020302020302020300A20202020322E3432313420202020302E3230363720202020302E303030302043202020302020302020302020302020302020302020302020302020302020302020302020300A20202020322E3030383920202020302E3932313120202020302E303030302048202020312020302020302020302020302020302020302020302020302020302020302020300A20202020332E3133353920202020302E3631393220202020302E303030302048202020312020302020302020302020302020302020302020302020302020302020302020300A20202020322E383333392020202D302E3530373820202020302E303030302048202020312020302020302020302020302020302020302020302020302020302020302020300A2020312020322020322020302020202020200A2020322020332020312020302020202020200A2020332020342020322020302020202020200A2020342020352020312020302020202020200A2020352020312020312020302020202020200A2020332020362020312020302020202020200A2020362020372020322020302020202020200A2020372020382020312020302020202020200A2020382020392020322020302020202020200A2020392020342020312020302020202020200A2020372031302020312020302020202020200A2031302031312020322020302020202020200A2031312031322020312020302020202020200A2031322031332020312020302020202020200A2031332020382020312020302020202020200A2020362031342020312020302020202020200A2031342031352020312020302020202020200A2031322031362020322020302020202020200A2031312031372020312020302020202020200A2031372032302020312020302020202020200A2031302031382020312020302020202020200A2031382031392020312020302020202020200A2032302032312020312020302020202020200A2032302032322020312020302020202020200A2032302032332020312020302020202020200A4D202049534F2020332020323120202032202032322020203220203233202020320A4D2020454E44
Contributor: NAKAYAMA M, MASS SPECTROSCOPY SOC. OF JAPAN (MSSJ)
InstType: EI
InstName: AEI-GEC MS-902
IoniMethod: _ENERGY 70 eV
IonPolarity: pos
Date: 2010-10-09 19:48:36+02:00
Num Peaks: 10
119 30 147 90 175 70 190 180 193 40 221 60 236 510 261 30 264 200 279 999 
