Name: MassBank: JP000784
MW: 110
Formula: C8H14
Synonym: MassBank: JP000784
Synonym: (2',2',2'-2H(3))ETHYLIDENECYCLOHEXANE
Structure: 2832272C32272C32272D324828332929455448594C4944454E454359434C4F484558414E452E6D6F6C0A20204368656D447261773130313930393137313332440A2031312031312020302020302020302020302020302020302020302020303939392056323030300A2020202D312E303633322020202D302E3537303620202020302E303030302043202020302020302020302020302020302020302020302020302020302020302020302020300A2020202D312E303536342020202D312E3339353620202020302E303030302043202020302020302020302020302020302020302020302020302020302020302020302020300A2020202D302E333338362020202D312E3830323220202020302E303030302043202020302020302020302020302020302020302020302020302020302020302020302020300A20202020302E333732352020202D312E3338333820202020302E303030302043202020302020302020302020302020302020302020302020302020302020302020302020300A20202020302E333635372020202D302E3535383820202020302E303030302043202020302020302020302020302020302020302020302020302020302020302020302020300A2020202D302E333532312020202D302E3135323220202020302E303030302043202020302020302020302020302020302020302020302020302020302020302020302020300A2020202D302E3335383920202020302E3637323820202020302E303030302043202020302020302020302020302020302020302020302020302020302020302020302020300A20202020302E3335323120202020312E3039313120202020302E303030302043202020302020302020302020302020302020302020302020302020302020302020302020300A2020202D302E3036363220202020312E3830323220202020302E303030302048202020312020302020302020302020302020302020302020302020302020302020302020300A20202020312E3036333220202020312E3530393520202020302E303030302048202020312020302020302020302020302020302020302020302020302020302020302020300A20202020302E3737303520202020302E3338303120202020302E303030302048202020312020302020302020302020302020302020302020302020302020302020302020300A2020312020322020312020302020202020200A2020322020332020312020302020202020200A2020332020342020312020302020202020200A2020342020352020312020302020202020200A2020352020362020312020302020202020200A2020362020312020312020302020202020200A2020362020372020322020302020202020200A2020372020382020312020302020202020200A2020382020392020312020302020202020200A2020382031302020312020302020202020200A2020382031312020312020302020202020200A4D202049534F2020332020203920202032202031302020203220203131202020320A4D2020454E44
Contributor: ITO S, DEPT. OF CHEM., TOHOKU UNIV.
InstType: EI
InstName: Unknown
IoniMethod: EI
IonPolarity: pos
Date: 2010-10-09 19:48:36+02:00
Num Peaks: 29
52 37 53 31 54 80 55 13 56 105 57 51 58 38 59 5 66 25 67 265 
68 148 69 11 70 118 71 114 72 94 77 3 78 25 79 88 80 70 81 999 
82 107 83 58 84 72 85 9 95 94 97 74 112 18 113 31 114 29 
