Name: MassBank: JP009937
MW: 278
Formula: C17H26O3
Synonym: MassBank: JP009937
Synonym: 2-(2-ETHOXYETHYL)-3,4-DIHYDRO-6-HYDROXY-2,5,7,8-TETRAMETHYL-2H-1-BENZOPYRAN
Structure: 322D28322D4554484F5859455448594C292D332C342D4449485944524F2D362D485944524F58592D322C352C372C382D54455452414D455448594C2D32482D312D42454E5A4F505952414E2E6D6F6C0A20204368656D447261773132323130393133343132440A2032302032312020302020302020302020302020302020302020302020303939392056323030300A20202020302E363231382020202D302E3234323220202020302E303030302043202020302020302020302020302020302020302020302020302020302020302020302020300A20202020302E323039332020202D302E3935363720202020302E303030302043202020302020302020302020302020302020302020302020302020302020302020302020300A2020202D302E363135372020202D302E3935363720202020302E303030302043202020302020302020302020302020302020302020302020302020302020302020302020300A2020202D312E303238322020202D302E3234323220202020302E303030302043202020302020302020302020302020302020302020302020302020302020302020302020300A2020202D302E3631353720202020302E3437323220202020302E303030302043202020302020302020302020302020302020302020302020302020302020302020302020300A20202020302E3230393320202020302E3437323220202020302E30303030204F202020302020302020302020302020302020302020302020302020302020302020302020300A2020202D312E3032383220202020312E3138363720202020302E303030302043202020302020302020302020302020302020302020302020302020302020302020302020300A2020202D312E3835333220202020312E3138363720202020302E303030302043202020302020302020302020302020302020302020302020302020302020302020302020300A2020202D322E3236353720202020302E3437323220202020302E303030302043202020302020302020302020302020302020302020302020302020302020302020302020300A2020202D312E383533322020202D302E3234323220202020302E303030302043202020302020302020302020302020302020302020302020302020302020302020302020300A2020202D302E3631353720202020312E3930313220202020302E303030302043202020302020302020302020302020302020302020302020302020302020302020302020300A2020202D322E3236353720202020312E3930313220202020302E303030302043202020302020302020302020302020302020302020302020302020302020302020302020300A2020202D322E323635372020202D302E3935363720202020302E303030302043202020302020302020302020302020302020302020302020302020302020302020302020300A20202020312E323533372020202D302E3737323520202020302E303030302043202020302020302020302020302020302020302020302020302020302020302020302020300A2020202D332E3039303720202020302E3437323220202020302E30303030204F202020302020302020302020302020302020302020302020302020302020302020302020300A20202020312E3235333720202020302E3238383120202020302E303030302043202020302020302020302020302020302020302020302020302020302020302020302020300A20202020322E3032393020202020302E3030353920202020302E303030302043202020302020302020302020302020302020302020302020302020302020302020302020300A20202020322E313732322020202D302E3830363620202020302E30303030204F202020302020302020302020302020302020302020302020302020302020302020302020300A20202020322E393437352020202D312E3038383720202020302E303030302043202020302020302020302020302020302020302020302020302020302020302020302020300A20202020332E303930372020202D312E3930313220202020302E303030302043202020302020302020302020302020302020302020302020302020302020302020302020300A2020312020322020312020302020202020200A2020322020332020312020302020202020200A2020332020342020312020302020202020200A2020342020352020312020302020202020200A2020352020362020312020302020202020200A2020312020362020312020302020202020200A2020372020382020312020302020202020200A2020382020392020322020302020202020200A2020392031302020312020302020202020200A2020342031302020322020302020202020200A2020352020372020322020302020202020200A2020372031312020312020302020202020200A2020382031322020312020302020202020200A2031302031332020312020302020202020200A2020312031342020312020302020202020200A2020392031352020312020302020202020200A2031362031372020312020302020202020200A2031392032302020312020302020202020200A2031382031392020312020302020202020200A2031372031382020312020302020202020200A2020312031362020312020302020202020200A4D2020454E44
Contributor: KURARAY CO., LTD.
InstType: EI
InstName: JEOL JMS-D-300
IoniMethod: _ENERGY 70 eV
IonPolarity: pos
Date: 2010-10-09 19:48:36+02:00
Num Peaks: 25
43 47 53 28 55 28 77 5 91 47 105 58 121 77 122 5 135 31 136 86 
137 25 164 999 165 713 166 73 175 28 177 8 189 55 190 19 203 119 204 3 
205 47 217 47 232 102 278 55 279 102 
