Name: PROPARGYL CHLORIDE
MW: 73
Formula: C3H3Cl
Synonym: MassBank: JP005880
Synonym: PROPARGYL CHLORIDE
Synonym: 3-CHLORO-1-PROPYNE
Structure: 310A31320A50524F50415247594C2043484C4F524944452E6D6F6C0A20204368656D447261773032323231303134353032440A2020342020332020302020302020302020302020302020302020302020303939392056323030300A2020202D302E3631383720202020302E3335373220202020302E303030302043202020302020302020302020302020302020302020302020302020302020302020302020300A20202020302E3230363320202020302E3335373220202020302E303030302043202020302020302020302020302020302020302020302020302020302020302020302020300A20202020312E3033313320202020302E3335373220202020302E303030302043202020302020302020302020302020302020302020302020302020302020302020302020300A2020202D312E303331332020202D302E3335373220202020302E3030303020436C2020302020302020302020302020302020302020302020302020302020302020302020300A2020312020322020312020302020202020200A2020322020332020332020302020202020200A2020312020342020312020302020202020200A4D2020454E44
Contributor: YAMAMOTO M, DEP. CHEMISTRY, FAC. SCIENCE, NARA WOMEN'S UNIV.
InstType: EI
InstName: HITACHI RMU-6M
IoniMethod: _ENERGY 70 eV
IonPolarity: pos
Date: 2010-10-09 19:48:36+02:00
Num Peaks: 16
24 11 25 24 26 15 35 30 36 75 37 216 38 251 39 999 40 34 47 34 
49 13 72 15 73 49 74 433 75 32 76 144 
