Name: 3-BUTENYL ISOTHIOCYANATE
MW: 113
Formula: C5H7NS
Synonym: MassBank: JP000919
Synonym: 3-BUTENYL ISOTHIOCYANATE
Structure: 310A31380A332D425554454E594C2049534F5448494F4359414E4154452E6D6F6C0A20204368656D447261773032323231303134343232440A2020372020362020302020302020302020302020302020302020302020303939392056323030300A20202020302E3030303020202020302E3030303020202020302E303030302043202020302020302020302020302020302020302020302020302020302020302020302020300A20202020302E373134352020202D302E3431323520202020302E303030302043202020302020302020302020302020302020302020302020302020302020302020302020300A20202020312E3432383920202020302E3030303020202020302E303030302043202020302020302020302020302020302020302020302020302020302020302020302020300A20202020322E313433342020202D302E3431323520202020302E303030302043202020302020302020302020302020302020302020302020302020302020302020302020300A2020202D302E373134352020202D302E3431323520202020302E30303030204E202020302020302020302020302020302020302020302020302020302020302020302020300A2020202D312E3432383920202020302E3030303020202020302E303030302043202020302020302020302020302020302020302020302020302020302020302020302020300A2020202D322E3134333420202020302E3431323520202020302E303030302053202020302020302020302020302020302020302020302020302020302020302020302020300A2020312020322020312020302020202020200A2020322020332020312020302020202020200A2020332020342020322020302020202020200A2020352020362020322020302020202020200A2020362020372020322020302020202020200A2020312020352020312020302020202020200A4D2020454E44
Contributor: KAMEOKA H, DEPT. OF APPLIED CHEMISTRY, FAC. OF SCI. AND ENGINEERING, KINKI UNIV.
InstType: EI
InstName: SHIMADZU LKB-9000B
IoniMethod: _ENERGY 70 eV
IonPolarity: pos
Date: 2010-10-09 19:48:36+02:00
Num Peaks: 15
39 491 41 283 51 132 53 19 55 491 58 76 59 113 60 9 72 999 73 94 
74 170 85 15 113 509 114 94 115 77 
