Name: MassBank: JP002777
MW: 261
Formula: C16H23NO2
Synonym: MassBank: JP002777
Synonym: 1,3-DIMETHYL-4-PHENYL-4-PIPERIDINOL PROPANOATE
Structure: 312C332D44494D455448594C2D342D5048454E594C2D342D50495045524944494E4F4C2050524F50414E4F4154452E6D6F6C0A20204368656D447261773131313230393131353032440A2031392032302020302020302020302020302020302020302020302020303939392056323030300A20202020312E373430312020202D312E3037343820202020302E30303030204E202020302020302020302020302020302020302020302020302020302020302020302020300A20202020312E303235372020202D312E3438373320202020302E303030302043202020302020302020302020302020302020302020302020302020302020302020302020300A20202020302E333131322020202D312E3037343820202020302E303030302043202020302020302020302020302020302020302020302020302020302020302020302020300A20202020302E333131322020202D302E3234393820202020302E303030302043202020302020302020302020302020302020302020302020302020302020302020302020300A20202020312E3032353720202020302E3136323720202020302E303030302043202020302020302020302020302020302020302020302020302020302020302020302020300A20202020312E373430312020202D302E3234393820202020302E303030302043202020302020302020302020302020302020302020302020302020302020302020302020300A20202020302E3032393020202020302E3532353420202020302E303030302043202020302020302020302020302020302020302020302020302020302020302020302020300A2020202D302E3738333420202020302E3636383720202020302E303030302043202020302020302020302020302020302020302020302020302020302020302020302020300A2020202D312E3036353620202020312E3434333920202020302E303030302043202020302020302020302020302020302020302020302020302020302020302020302020300A2020202D302E3533353320202020322E3037353920202020302E303030302043202020302020302020302020302020302020302020302020302020302020302020302020300A20202020302E3237373220202020312E3933323620202020302E303030302043202020302020302020302020302020302020302020302020302020302020302020302020300A20202020302E3535393320202020312E3135373420202020302E303030302043202020302020302020302020302020302020302020302020302020302020302020302020300A2020202D302E343033332020202D312E3438373320202020302E303030302043202020302020302020302020302020302020302020302020302020302020302020302020300A20202020322E343534362020202D312E3438373320202020302E303030302043202020302020302020302020302020302020302020302020302020302020302020302020300A2020202D312E313131382020202D312E3434333920202020302E303030302043202020302020302020302020302020302020302020302020302020302020302020302020300A2020202D312E393234332020202D312E3538373220202020302E303030302043202020302020302020302020302020302020302020302020302020302020302020302020300A2020202D322E343534362020202D302E3935353220202020302E303030302043202020302020302020302020302020302020302020302020302020302020302020302020300A2020202D302E353831352020202D322E3037353920202020302E30303030204F202020302020302020302020302020302020302020302020302020302020302020302020300A2020202D302E373435302020202D302E3433363120202020302E30303030204F202020302020302020302020302020302020302020302020302020302020302020302020300A2020312020322020312020302020202020200A2020322020332020312020302020202020200A2020332020342020312020302020202020200A2020342020352020312020302020202020200A2020352020362020312020302020202020200A2020312020362020312020302020202020200A2020372020382020312020302020202020200A2020382020392020322020302020202020200A2020392031302020312020302020202020200A2031302031312020322020302020202020200A2031312031322020312020302020202020200A2020372031322020322020302020202020200A2020342020372020312020302020202020200A2020332031332020312020302020202020200A2020312031342020312020302020202020200A2031352031362020312020302020202020200A2031362031372020312020302020202020200A2031352031382020322020302020202020200A2031352031392020312020302020202020200A2020342031392020312020302020202020200A4D2020454E44
Contributor: SASAKI S, TOYOHASHI UNIV. OF TECH.
InstType: EI
InstName: Unknown
IoniMethod: EI
IonPolarity: pos
Date: 2010-10-09 19:48:36+02:00
Num Peaks: 149
35 3 36 23 37 16 38 2 39 100 40 25 41 161 42 65 43 279 44 340 
45 93 46 1 49 1 50 40 51 109 52 4 53 33 54 28 55 80 56 2 
57 281 58 180 59 16 62 2 63 41 64 20 65 88 66 2 67 41 68 49 
69 35 70 14 71 49 72 21 73 91 74 14 75 40 76 39 77 198 78 7 
79 49 80 19 81 22 82 7 83 35 84 544 85 41 86 3 87 12 88 11 
89 49 90 1 91 328 92 49 93 11 94 2 95 111 96 22 97 65 98 1 
99 8 100 11 101 17 102 7 103 70 104 38 105 137 106 2 107 2 108 40 
109 17 110 11 111 23 113 11 114 12 115 24 116 60 117 99 118 23 119 0 
120 1 126 17 127 60 128 18 129 484 130 89 131 52 132 2 133 15 134 8 
138 2 139 3 140 21 141 60 142 28 143 9 144 399 145 122 146 22 147 1 
150 1 151 2 152 9 153 2 154 31 155 28 156 21 157 4 158 71 159 19 
160 11 165 1 166 17 167 49 168 69 169 8 170 81 171 37 172 999 173 12 
174 27 175 11 176 3 182 1 183 17 184 31 185 16 186 1 187 663 188 191 
189 44 190 1 191 8 200 1 201 8 202 1 203 11 204 17 205 11 206 1 
249 1 250 7 252 7 259 0 260 21 261 64 262 17 263 0 125 1 
