Name: MassBank: JP008146
MW: 348
Formula: C25H48
Synonym: MassBank: JP008146
Synonym: (6Z,9Z)-6,9-PENTACOSADIENE
Structure: 28365A2C395A292D362C392D50454E5441434F53414449454E452E6D6F6C0A20204368656D447261773130323230393034353032440A2032392032382020302020302020302020302020302020302020302020303939392056323030300A2020202D332E3231353120202020342E3132353020202020302E303030302043202020302020302020302020302020302020302020302020302020302020302020302020300A2020202D322E3530303720202020342E3533373420202020302E303030302043202020302020302020302020302020302020302020302020302020302020302020302020300A2020202D312E3738363220202020342E3132353020202020302E303030302043202020302020302020302020302020302020302020302020302020302020302020302020300A2020202D332E3932393620202020342E3533373420202020302E303030302048202020302020302020302020302020302020302020302020302020302020302020302020300A2020202D332E3231353120202020332E3330303020202020302E303030302043202020302020302020302020302020302020302020302020302020302020302020302020300A2020202D322E3530303720202020352E3336323520202020302E303030302048202020302020302020302020302020302020302020302020302020302020302020302020300A2020202D332E3932393620202020322E3838373520202020302E303030302043202020302020302020302020302020302020302020302020302020302020302020302020300A2020202D332E3932393620202020322E3036323520202020302E303030302043202020302020302020302020302020302020302020302020302020302020302020302020300A2020202D342E3634343120202020312E3635303020202020302E303030302043202020302020302020302020302020302020302020302020302020302020302020302020300A2020202D342E3634343120202020302E3832343920202020302E303030302043202020302020302020302020302020302020302020302020302020302020302020302020300A2020202D312E3037313720202020342E3533373420202020302E303030302043202020302020302020302020302020302020302020302020302020302020302020302020300A2020202D302E3335373220202020342E3132353020202020302E303030302043202020302020302020302020302020302020302020302020302020302020302020302020300A2020202D312E3037313720202020352E3336323520202020302E303030302048202020302020302020302020302020302020302020302020302020302020302020302020300A20202020302E3335373220202020342E3533373420202020302E303030302048202020302020302020302020302020302020302020302020302020302020302020302020300A2020202D302E3335373220202020332E3330303020202020302E303030302043202020302020302020302020302020302020302020302020302020302020302020302020300A20202020302E3335373220202020322E3838373520202020302E303030302043202020302020302020302020302020302020302020302020302020302020302020302020300A20202020302E3335373220202020322E3036323520202020302E303030302043202020302020302020302020302020302020302020302020302020302020302020302020300A20202020312E3037313720202020312E3635303020202020302E303030302043202020302020302020302020302020302020302020302020302020302020302020302020300A20202020312E3037313720202020302E3832343920202020302E303030302043202020302020302020302020302020302020302020302020302020302020302020302020300A20202020312E3738363220202020302E3431323520202020302E303030302043202020302020302020302020302020302020302020302020302020302020302020302020300A20202020312E373836322020202D302E3431323420202020302E303030302043202020302020302020302020302020302020302020302020302020302020302020302020300A20202020322E353030362020202D302E3832343920202020302E303030302043202020302020302020302020302020302020302020302020302020302020302020302020300A20202020322E353030362020202D312E3635303020202020302E303030302043202020302020302020302020302020302020302020302020302020302020302020302020300A20202020332E323135312020202D322E3036323420202020302E303030302043202020302020302020302020302020302020302020302020302020302020302020302020300A20202020332E323135312020202D322E3838373520202020302E303030302043202020302020302020302020302020302020302020302020302020302020302020302020300A20202020332E393239362020202D332E3330303020202020302E303030302043202020302020302020302020302020302020302020302020302020302020302020302020300A20202020332E393239362020202D342E3132343920202020302E303030302043202020302020302020302020302020302020302020302020302020302020302020302020300A20202020342E363434312020202D342E3533373420202020302E303030302043202020302020302020302020302020302020302020302020302020302020302020302020300A20202020342E363434312020202D352E3336323520202020302E303030302043202020302020302020302020302020302020302020302020302020302020302020302020300A2020312020322020322020302020202020200A2020322020332020312020302020202020200A2020312020342020312020302020202020200A2020312020352020312020302020202020200A2020322020362020312020302020202020200A2020352020372020312020302020202020200A2020372020382020312020302020202020200A2020382020392020312020302020202020200A2020392031302020312020302020202020200A2020332031312020312020302020202020200A2031312031322020322020302020202020200A2031312031332020312020302020202020200A2031322031342020312020302020202020200A2031322031352020312020302020202020200A2031352031362020312020302020202020200A2031362031372020312020302020202020200A2031372031382020312020302020202020200A2031382031392020312020302020202020200A2031392032302020312020302020202020200A2032302032312020312020302020202020200A2032312032322020312020302020202020200A2032322032332020312020302020202020200A2032332032342020312020302020202020200A2032342032352020312020302020202020200A2032352032362020312020302020202020200A2032362032372020312020302020202020200A2032372032382020312020302020202020200A2032382032392020312020302020202020200A4D2020454E44
Contributor: YAMAOKA R, KYOTO INSTITUTE OF TECHNOLOGY
InstType: EI
InstName: HITACHI M-80B
IoniMethod: _ENERGY 70 eV
IonPolarity: pos
Date: 2010-10-09 19:48:36+02:00
Num Peaks: 67
41 894 42 31 43 949 44 61 53 23 54 577 55 999 56 167 57 542 58 38 
60 16 65 34 66 81 67 923 68 552 69 636 70 93 71 241 72 29 75 20 
77 55 78 36 79 322 80 90 81 641 82 840 83 617 84 101 85 96 91 60 
92 22 93 115 95 572 96 850 97 456 98 104 99 29 107 17 108 60 109 263 
110 623 111 185 113 14 121 22 123 164 124 247 125 166 126 25 131 26 137 66 
138 135 151 20 153 46 166 29 181 29 193 20 207 31 208 17 236 36 250 34 
281 77 283 15 290 17 346 19 348 217 349 54 350 47 
