Name: DIBUTYL 1-(N-TRIFLUOROACETYLAMINO)BUTYLPHOSPHONATE
MW: 361
Formula: C14H27F3NO4P
Synonym: MassBank: JP004545
Synonym: DIBUTYL 1-(N-TRIFLUOROACETYLAMINO)BUTYLPHOSPHONATE
Structure: 4449425554594C20312D284E2D545249464C554F524F41434554594C414D494E4F29425554594C50484F5350484F4E4154452E6D6F6C0A20204368656D447261773039323131303137313432440A2032332032322020302020302020302020302020302020302020302020303939392056323030300A20202020302E303730312020202D302E3731343520202020302E303030302043202020302020302020302020302020302020302020302020302020302020302020302020300A20202020302E383935312020202D302E3731343520202020302E303030302043202020302020302020302020302020302020302020302020302020302020302020302020300A20202020312E3330373620202020302E3030303020202020302E303030302043202020302020302020302020302020302020302020302020302020302020302020302020300A20202020322E3133323620202020302E3030303020202020302E303030302043202020302020302020302020302020302020302020302020302020302020302020302020300A2020202D302E333432342020202D312E3432383920202020302E303030302050202020302020302020302020302020302020302020302020302020302020302020302020300A2020202D312E303536392020202D312E3031363420202020302E30303030204F202020302020302020302020302020302020302020302020302020302020302020302020300A2020202D302E373534392020202D322E3134333420202020302E30303030204F202020302020302020302020302020302020302020302020302020302020302020302020300A20202020302E333732302020202D312E3834313420202020302E30303030204F202020302020302020302020302020302020302020302020302020302020302020302020300A2020202D302E3334323420202020302E3030303020202020302E30303030204E202020302020302020302020302020302020302020302020302020302020302020302020300A20202020302E3037303120202020302E3731343520202020302E303030302043202020302020302020302020302020302020302020302020302020302020302020302020300A20202020302E3839353120202020302E3731343520202020302E30303030204F202020302020302020302020302020302020302020302020302020302020302020302020300A2020202D302E3334323420202020312E3432383920202020302E303030302043202020302020302020302020302020302020302020302020302020302020302020302020300A20202020302E3337323020202020312E3834313420202020302E303030302046202020302020302020302020302020302020302020302020302020302020302020302020300A2020202D312E3035363920202020312E3031363420202020302E303030302046202020302020302020302020302020302020302020302020302020302020302020302020300A2020202D302E3735343920202020322E3134333420202020302E303030302046202020302020302020302020302020302020302020302020302020302020302020302020300A2020202D312E353739392020202D322E3134333420202020302E303030302043202020302020302020302020302020302020302020302020302020302020302020302020300A2020202D312E393932342020202D312E3432383920202020302E303030302043202020302020302020302020302020302020302020302020302020302020302020302020300A2020202D322E383137342020202D312E3432383920202020302E303030302043202020302020302020302020302020302020302020302020302020302020302020302020300A2020202D332E323239392020202D302E3731343520202020302E303030302043202020302020302020302020302020302020302020302020302020302020302020302020300A20202020312E303836352020202D312E3432383920202020302E303030302043202020302020302020302020302020302020302020302020302020302020302020302020300A20202020312E383031302020202D312E3834313420202020302E303030302043202020302020302020302020302020302020302020302020302020302020302020302020300A20202020322E353135352020202D312E3432383920202020302E303030302043202020302020302020302020302020302020302020302020302020302020302020302020300A20202020332E323239392020202D312E3834313420202020302E303030302043202020302020302020302020302020302020302020302020302020302020302020302020300A2020312020322020312020302020202020200A2020322020332020312020302020202020200A2020332020342020312020302020202020200A2020352020362020322020302020202020200A2020352020372020312020302020202020200A2020352020382020312020302020202020200A2020312020352020312020302020202020200A2031302031312020322020302020202020200A2031302031322020312020302020202020200A2020392031302020312020302020202020200A2031322031332020312020302020202020200A2031322031342020312020302020202020200A2031322031352020312020302020202020200A2020312020392020312020302020202020200A2031362031372020312020302020202020200A2031372031382020312020302020202020200A2031382031392020312020302020202020200A2020372031362020312020302020202020200A2032302032312020312020302020202020200A2032312032322020312020302020202020200A2032322032332020312020302020202020200A2020382032302020312020302020202020200A4D2020454E44
Contributor: HAYASHI A, DEPT. OF CHEMISTRY, FAC. OF SCI. AND TECHNOLOGY, KINKI UNIV.
InstType: EI
InstName: SHIMADZU LKB-9000B
IoniMethod: _ENERGY 70 eV
IonPolarity: pos
Date: 2010-10-09 19:48:36+02:00
Num Peaks: 58
55 16 57 11 69 11 82 4 83 565 84 34 86 22 96 1 97 14 98 13 
99 59 106 1 109 37 110 43 111 15 114 5 122 14 123 178 124 12 126 18 
136 22 137 55 138 447 139 999 140 78 141 10 149 23 150 2 151 18 152 35 
155 44 164 2 165 11 166 34 167 12 168 23 169 33 179 29 180 28 189 1 
194 106 195 21 206 35 207 9 208 77 211 32 220 34 232 9 249 13 250 122 
263 11 264 4 288 17 306 33 319 17 332 1 361 6 362 8 
