Name: 1-MONOOLEIN
MW: 356
Formula: C21H40O4
Synonym: MassBank: JP005844
Synonym: 1-MONOOLEIN
Synonym: GLYCERYL-1-OLEATE
Structure: 312D4D4F4E4F4F4C45494E2E6D6F6C0A20204368656D447261773131323130393138343432440A2032352032342020302020302020302020302020302020302020302020303939392056323030300A20202020332E393239362020202D312E3033313220202020302E30303030204F202020302020302020302020302020302020302020302020302020302020302020302020300A20202020332E393239362020202D302E3230363220202020302E303030302043202020302020302020302020302020302020302020302020302020302020302020302020300A20202020342E3634343120202020302E3230363320202020302E303030302043202020302020302020302020302020302020302020302020302020302020302020302020300A20202020352E333538352020202D302E3230363220202020302E30303030204F202020302020302020302020302020302020302020302020302020302020302020302020300A20202020342E3634343120202020312E3033313320202020302E303030302043202020302020302020302020302020302020302020302020302020302020302020302020300A20202020332E3932393620202020312E3434333820202020302E30303030204F202020302020302020302020302020302020302020302020302020302020302020302020300A20202020332E323135312020202D312E3434333720202020302E303030302043202020302020302020302020302020302020302020302020302020302020302020302020300A20202020332E323135312020202D322E3236383720202020302E303030302043202020302020302020302020302020302020302020302020302020302020302020302020300A20202020322E353030362020202D322E3638313220202020302E303030302043202020302020302020302020302020302020302020302020302020302020302020302020300A20202020312E373836322020202D322E3236383720202020302E303030302043202020302020302020302020302020302020302020302020302020302020302020302020300A20202020312E303731372020202D322E3638313220202020302E303030302043202020302020302020302020302020302020302020302020302020302020302020302020300A20202020302E333537322020202D322E3236383720202020302E303030302043202020302020302020302020302020302020302020302020302020302020302020302020300A2020202D302E333537322020202D322E3638313220202020302E303030302043202020302020302020302020302020302020302020302020302020302020302020302020300A2020202D312E303731372020202D322E3236383720202020302E303030302043202020302020302020302020302020302020302020302020302020302020302020302020300A2020202D312E373836322020202D322E3638313220202020302E303030302043202020302020302020302020302020302020302020302020302020302020302020302020300A2020202D322E353030362020202D322E3236383720202020302E303030302043202020302020302020302020302020302020302020302020302020302020302020302020300A2020202D322E353030362020202D312E3434333720202020302E303030302043202020302020302020302020302020302020302020302020302020302020302020302020300A2020202D332E323135312020202D312E3033313220202020302E303030302043202020302020302020302020302020302020302020302020302020302020302020302020300A2020202D332E323135312020202D302E3230363320202020302E303030302043202020302020302020302020302020302020302020302020302020302020302020302020300A2020202D332E3932393620202020302E3230363220202020302E303030302043202020302020302020302020302020302020302020302020302020302020302020302020300A2020202D332E3932393620202020312E3033313220202020302E303030302043202020302020302020302020302020302020302020302020302020302020302020302020300A2020202D342E3634343120202020312E3434333720202020302E303030302043202020302020302020302020302020302020302020302020302020302020302020302020300A2020202D342E3634343120202020322E3236383720202020302E303030302043202020302020302020302020302020302020302020302020302020302020302020302020300A2020202D352E3335383520202020322E3638313220202020302E303030302043202020302020302020302020302020302020302020302020302020302020302020302020300A20202020322E353030362020202D312E3033313220202020302E30303030204F202020302020302020302020302020302020302020302020302020302020302020302020300A2020312020322020312020302020202020200A2020322020332020312020302020202020200A2020332020342020312020302020202020200A2020332020352020312020302020202020200A2020352020362020312020302020202020200A2020372020382020312020302020202020200A2020382020392020312020302020202020200A2020392031302020312020302020202020200A2031302031312020312020302020202020200A2031312031322020312020302020202020200A2031322031332020312020302020202020200A2031332031342020312020302020202020200A2031342031352020312020302020202020200A2031352031362020322020302020202020200A2031362031372020312020302020202020200A2031372031382020312020302020202020200A2031382031392020312020302020202020200A2031392032302020312020302020202020200A2032302032312020312020302020202020200A2032312032322020312020302020202020200A2032322032332020312020302020202020200A2032332032342020312020302020202020200A2020372032352020322020302020202020200A2020312020372020312020302020202020200A4D2020454E44
Contributor: HASHIMOTO K, KYOTO COLLEGE OF PHARMACY
InstType: EI
InstName: HITACHI M-80
IoniMethod: _ENERGY 20 eV
IonPolarity: pos
Date: 2010-10-09 19:48:36+02:00
Num Peaks: 178
29 31 31 20 41 28 43 68 44 24 45 39 54 28 55 136 56 54 57 142 
58 12 59 16 61 31 67 152 68 104 69 186 70 81 71 55 73 34 74 144 
75 101 79 35 80 55 81 284 82 249 83 237 84 278 85 54 87 36 91 32 
93 64 94 73 95 296 96 316 97 287 98 824 99 81 100 17 101 29 103 14 
105 16 107 47 108 86 109 210 110 244 111 183 112 319 113 46 114 22 115 11 
116 66 117 27 118 17 119 41 120 22 121 83 122 55 123 174 124 136 125 106 
126 76 127 35 128 13 129 128 130 16 131 15 133 66 134 170 135 82 136 39 
137 243 138 129 139 73 140 30 141 23 143 31 147 66 148 45 149 49 150 42 
151 193 152 168 153 51 154 32 155 28 157 13 161 25 162 22 163 25 164 23 
165 123 166 115 167 32 168 22 169 34 171 21 172 15 175 15 176 18 177 16 
178 14 179 61 180 90 181 29 182 23 183 34 185 43 186 12 191 14 192 16 
193 47 194 42 195 19 196 18 197 11 199 18 206 12 207 64 208 52 209 36 
210 17 211 44 213 11 220 37 221 101 222 58 223 19 224 10 225 12 227 12 
228 11 229 19 235 52 236 143 237 56 238 29 239 54 240 11 241 15 242 15 
245 11 246 31 247 37 248 11 249 19 250 27 251 12 253 12 256 14 257 24 
262 48 263 36 264 999 265 454 266 76 267 29 270 18 271 15 282 15 283 15 
285 19 292 16 297 15 299 22 307 14 310 14 311 22 313 24 325 75 326 21 
327 11 337 11 338 87 339 131 340 32 341 14 356 42 357 9 
