Name: DIMETHYLHYDRAZONE METHYLISOPROPENYLKETONE
MW: 126
Formula: C7H14N2
Synonym: MassBank: JP000873
Synonym: DIMETHYLHYDRAZONE METHYLISOPROPENYLKETONE
Synonym: 3-METHYL-3-BUTEN-2-ONE DIMETHYLHYDRAZONE
Structure: 310A32320A44494D455448594C48594452415A4F4E45204D455448594C49534F50524F50454E594C4B45544F4E452E6D6F6C0A20204368656D447261773033323031303030333532440A2020392020382020302020302020302020302020302020302020302020303939392056323030300A20202020312E3432383920202020302E3832353020202020302E303030302043202020302020302020302020302020302020302020302020302020302020302020302020300A20202020302E3731343520202020302E3431323520202020302E303030302043202020302020302020302020302020302020302020302020302020302020302020302020300A20202020302E373134352020202D302E3431323520202020302E303030302043202020302020302020302020302020302020302020302020302020302020302020302020300A2020202D302E3030303020202020302E3832353020202020302E303030302043202020302020302020302020302020302020302020302020302020302020302020302020300A2020202D302E303030302020202D302E3832353020202020302E30303030204E202020302020302020302020302020302020302020302020302020302020302020302020300A2020202D302E373134352020202D302E3431323520202020302E30303030204E202020302020302020302020302020302020302020302020302020302020302020302020300A2020202D312E343238392020202D302E3832353020202020302E303030302043202020302020302020302020302020302020302020302020302020302020302020302020300A2020202D302E3731343520202020302E3431323520202020302E303030302043202020302020302020302020302020302020302020302020302020302020302020302020300A20202020312E343238392020202D302E3832353020202020302E303030302043202020302020302020302020302020302020302020302020302020302020302020302020300A2020322020332020312020302020202020200A2020322020342020312020302020202020200A2020312020322020322020302020202020200A2020352020362020312020302020202020200A2020362020372020312020302020202020200A2020362020382020312020302020202020200A2020332020352020322020302020202020200A2020332020392020312020302020202020200A4D2020454E44
Contributor: SASAKI S, TOYOHASHI UNIV. OF TECH.
InstType: EI
InstName: SHIMADZU LKB-2091
IoniMethod: _ENERGY 70 eV
IonPolarity: pos
Date: 2010-10-09 19:48:36+02:00
Num Peaks: 46
28 131 29 25 30 180 38 2 39 147 40 49 41 213 42 66 43 213 44 361 
45 107 50 1 51 15 52 11 53 59 54 2 55 34 56 56 57 15 58 13 
59 21 65 10 66 8 67 5 68 41 69 16 70 180 71 2 72 15 80 4 
81 9 82 3 83 13 84 23 85 8 94 1 95 41 96 44 97 7 109 2 
110 10 111 999 112 89 125 3 126 426 127 54 
