Name: N-ACETYL-L-ACOSAMINE
MW: 189
Formula: C8H15NO4
Synonym: MassBank: JP005475
Synonym: N-ACETYL-L-ACOSAMINE
Structure: 313031305F4E2D41434554594C2D4C2D41434F53414D494E452E6D6F6C0A20204368656D447261773039303631303231353632440A2031362031352020302020302020302020302020302020302020302020303939392056323030300A2020202D322E3134333420202020302E3235323520202020302E303030302043202020302020302020302020302020302020302020302020302020302020302020302020300A2020202D312E3432383920202020302E3636353020202020302E303030302043202020302020302020302020302020302020302020302020302020302020302020302020300A2020202D302E3731343520202020302E3235323520202020302E303030302043202020302020302020302020302020302020302020302020302020302020302020302020300A2020202D302E3030303020202020302E3636353020202020302E303030302043202020302020302020302020302020302020302020302020302020302020302020302020300A20202020302E3731343520202020302E3235323520202020302E303030302043202020302020302020302020302020302020302020302020302020302020302020302020300A20202020312E3432383920202020302E3636353020202020302E303030302043202020302020302020302020302020302020302020302020302020302020302020302020300A20202020322E3134333420202020302E3235323520202020302E30303030204F202020302020302020302020302020302020302020302020302020302020302020302020300A2020202D312E3432383920202020312E3439303020202020302E30303030204F202020302020302020302020302020302020302020302020302020302020302020302020300A2020202D302E373134352020202D302E3537323520202020302E303030302048202020302020302020302020302020302020302020302020302020302020302020302020300A2020202D302E3731343520202020312E3037373520202020302E30303030204F202020302020302020302020302020302020302020302020302020302020302020302020300A2020202D302E3030303020202020312E3439303020202020302E303030302048202020302020302020302020302020302020302020302020302020302020302020302020300A2020202D302E303030302020202D302E3136303020202020302E30303030204E202020302020302020302020302020302020302020302020302020302020302020302020300A20202020302E363435322020202D302E3637343220202020302E303030302043202020302020302020302020302020302020302020302020302020302020302020302020300A20202020312E343133312020202D302E3337323520202020302E303030302043202020302020302020302020302020302020302020302020302020302020302020302020300A20202020302E353232352020202D312E3439303020202020302E30303030204F202020302020302020302020302020302020302020302020302020302020302020302020300A2020202D312E343238392020202D302E3136303020202020302E303030302048202020302020302020302020302020302020302020302020302020302020302020302020300A2020312020322020312020302020202020200A2020322020332020312020302020202020200A2020332020342020312020302020202020200A2020342020352020312020302020202020200A2020352020362020312020302020202020200A2020362020372020322020302020202020200A2020322020382020312020312020202020200A2020332020392020312020312020202020200A2020332031302020312020312020202020200A2020342031312020312020312020202020200A2020342031322020312020312020202020200A2031322031332020312020302020202020200A2031332031342020312020302020202020200A2031332031352020322020302020202020200A2020322031362020312020312020202020200A4D2020454E44
Contributor: HIRAMA M, TOHOKU UNIV. FACULTY OF SCIENCE DEPT. OF CHEMISTRY YUKIBUNSEKI
InstType: EI
InstName: HITACHI M-52
IoniMethod: _ENERGY 14 eV
IonPolarity: pos
Date: 2010-10-09 19:48:36+02:00
Num Peaks: 68
41 4 42 17 43 10 44 30 46 16 55 11 56 12 57 8 58 26 59 298 
60 673 61 3 67 11 68 93 69 41 71 1 72 573 73 19 74 44 82 1 
83 25 84 61 85 70 86 37 87 26 88 32 96 10 97 2 98 45 99 223 
100 59 101 54 102 76 103 27 104 11 105 0 110 45 111 13 112 75 113 26 
114 370 115 999 116 124 125 2 126 109 127 366 128 107 129 21 130 27 132 24 
138 44 139 1 142 16 143 24 144 299 145 15 146 22 153 83 154 18 155 1 
170 7 171 213 172 230 173 2 189 7 190 170 191 11 192 6 
