Name: MassBank: JP006651
MW: 422
Formula: C22H22N4O5
Synonym: MassBank: JP006651
Synonym: 3,5-DINITRO-N-(3-(1,2,3,4-TETRAHYDRO-9-CARBAZOLYL)PROPYL)BENZAMIDE
Synonym: 9-(3-(3,5-DINITROBENZAMIDO)PROPYL)-1,2,3,4-TETRAHYDROCARBAZOLE
Structure: 332C352D44494E4954524F2D4E2D28332D28312C322C332C342D5445545241485944524F2D392D43415242415A4F4C594C2950524F50594C2942454E5A414D4944452E6D6F6C0A20204368656D447261773032323231303031343532440A2033312033342020302020302020302020302020302020302020302020303939392056323030300A20202020312E343831342020202D312E3034373120202020302E303030302043202020302020302020302020302020302020302020302020302020302020302020302020300A20202020312E363934392020202D302E3235303220202020302E303030302043202020302020302020302020302020302020302020302020302020302020302020302020300A20202020312E3131313620202020302E3333333120202020302E303030302043202020302020302020302020302020302020302020302020302020302020302020302020300A20202020312E3332353120202020312E3133303020202020302E303030302043202020302020302020302020302020302020302020302020302020302020302020302020300A20202020322E3132323020202020312E3334333620202020302E303030302043202020302020302020302020302020302020302020302020302020302020302020302020300A20202020322E3730353420202020302E3736303220202020302E303030302043202020302020302020302020302020302020302020302020302020302020302020302020300A20202020322E343931382020202D302E3033363720202020302E303030302043202020302020302020302020302020302020302020302020302020302020302020302020300A20202020322E303333342020202D312E3636303220202020302E30303030204F202020302020302020302020302020302020302020302020302020302020302020302020300A20202020302E363734342020202D312E3231383620202020302E30303030204E202020302020302020302020302020302020302020302020302020302020302020302020300A20202020302E313232342020202D302E3630353520202020302E303030302043202020302020302020302020302020302020302020302020302020302020302020302020300A2020202D302E363834362020202D302E3737373120202020302E303030302043202020302020302020302020302020302020302020302020302020302020302020302020300A2020202D312E323336362020202D302E3136343020202020302E303030302043202020302020302020302020302020302020302020302020302020302020302020302020300A2020202D322E303433362020202D302E3333353520202020302E30303030204E202020302020302020302020302020302020302020302020302020302020302020302020300A2020202D322E333739312020202D312E3038393220202020302E303030302043202020302020302020302020302020302020302020302020302020302020302020302020300A2020202D322E303433362020202D312E3834323820202020302E303030302043202020302020302020302020302020302020302020302020302020302020302020302020300A2020202D322E353238352020202D322E3531303320202020302E303030302043202020302020302020302020302020302020302020302020302020302020302020302020300A2020202D332E333439302020202D322E3432343120202020302E303030302043202020302020302020302020302020302020302020302020302020302020302020302020300A2020202D332E363834352020202D312E3637303420202020302E303030302043202020302020302020302020302020302020302020302020302020302020302020302020300A2020202D332E313939362020202D312E3030323920202020302E303030302043202020302020302020302020302020302020302020302020302020302020302020302020300A2020202D332E333731312020202D302E3139363020202020302E303030302043202020302020302020302020302020302020302020302020302020302020302020302020300A2020202D342E3038353620202020302E3231363520202020302E303030302043202020302020302020302020302020302020302020302020302020302020302020302020300A2020202D342E3038353620202020312E3034313520202020302E303030302043202020302020302020302020302020302020302020302020302020302020302020302020300A2020202D332E3337313120202020312E3435343020202020302E303030302043202020302020302020302020302020302020302020302020302020302020302020302020300A2020202D322E3635363720202020312E3034313520202020302E303030302043202020302020302020302020302020302020302020302020302020302020302020302020300A2020202D322E3635363720202020302E3231363520202020302E303030302043202020302020302020302020302020302020302020302020302020302020302020302020300A20202020332E3530323220202020302E3937333720202020302E30303030204E202020302020332020302020302020302020302020302020302020302020302020302020300A20202020342E3038353620202020302E3339303420202020302E30303030204F202020302020302020302020302020302020302020302020302020302020302020302020300A20202020332E3731353820202020312E3737303620202020302E30303030204F202020302020352020302020302020302020302020302020302020302020302020302020300A20202020302E3734313720202020312E3731333420202020302E30303030204E202020302020332020302020302020302020302020302020302020302020302020302020300A2020202D302E3035353220202020312E3439393920202020302E30303030204F202020302020302020302020302020302020302020302020302020302020302020302020300A20202020302E3935353320202020322E3531303320202020302E30303030204F202020302020352020302020302020302020302020302020302020302020302020302020300A2020312020322020312020302020202020200A2020322020332020312020302020202020200A2020332020342020322020302020202020200A2020342020352020312020302020202020200A2020352020362020322020302020202020200A2020362020372020312020302020202020200A2020322020372020322020302020202020200A2020312020382020322020302020202020200A2020312020392020312020302020202020200A2031302031312020312020302020202020200A2031312031322020312020302020202020200A2031332031342020312020302020202020200A2031342031352020312020302020202020200A2031352031362020312020302020202020200A2031362031372020312020302020202020200A2031372031382020312020302020202020200A2031382031392020312020302020202020200A2031342031392020322020302020202020200A2031392032302020312020302020202020200A2032302032312020312020302020202020200A2032312032322020322020302020202020200A2032322032332020312020302020202020200A2032332032342020322020302020202020200A2032342032352020312020302020202020200A2032302032352020322020302020202020200A2031332032352020312020302020202020200A2031322031332020312020302020202020200A2020392031302020312020302020202020200A2032362032372020322020302020202020200A2032362032382020312020302020202020200A2020362032362020312020302020202020200A2032392033302020322020302020202020200A2032392033312020312020302020202020200A2020342032392020312020302020202020200A4D202043484720203420203236202020312020323820202D3120203239202020312020333120202D310A4D2020454E44
Contributor: SASAKI S, TOYOHASHI UNIV. OF TECH.
InstType: EI
InstName: JEOL JMS-01-SG-2
IoniMethod: _ENERGY 75 eV
IonPolarity: pos
Date: 2010-10-09 19:48:36+02:00
Num Peaks: 18
75 51 143 94 156 90 157 11 167 59 168 89 169 40 170 19 171 59 182 48 
183 54 184 30 185 98 211 54 252 17 394 3 405 52 422 999 
