Name: MassBank: JP002491
MW: 276
Formula: C18H32Si
Synonym: MassBank: JP002491
Synonym: 2-TRIMETHYLSILYLMETHYL-5-METHYLENE-8-ISOPROPYL-1,4,4A,5,6,7,8,8A-OCTAHYDRONAPHTHALENE
Structure: 322D5452494D455448594C53494C594C4D455448594C2D352D4D455448594C454E452D382D49534F50524F50594C2D312C342C34412C352C362C372C382C38412D4F435441485944524F4E4150485448414C454E452E6D6F6C0A20204368656D447261773032323131303136343732440A2031392032302020302020302020302020302020302020302020302020303939392056323030300A2020202D302E3030303020202020302E3035353320202020302E303030302043202020302020302020302020302020302020302020302020302020302020302020302020300A20202020302E3731343520202020302E3436373820202020302E303030302043202020302020302020302020302020302020302020302020302020302020302020302020300A20202020312E3432383920202020302E3035353320202020302E303030302043202020302020302020302020302020302020302020302020302020302020302020302020300A20202020312E343238392020202D302E3736393720202020302E303030302043202020302020302020302020302020302020302020302020302020302020302020302020300A20202020302E373134352020202D312E3138323220202020302E303030302043202020302020302020302020302020302020302020302020302020302020302020302020300A20202020302E373134352020202D322E3030373220202020302E303030302043202020302020302020302020302020302020302020302020302020302020302020302020300A2020202D302E303030302020202D322E3431393720202020302E303030302043202020302020302020302020302020302020302020302020302020302020302020302020300A2020202D302E373134352020202D322E3030373220202020302E303030302043202020302020302020302020302020302020302020302020302020302020302020302020300A2020202D302E373134352020202D312E3138323220202020302E303030302043202020302020302020302020302020302020302020302020302020302020302020302020300A20202020302E303030302020202D302E3736393720202020302E303030302043202020302020302020302020302020302020302020302020302020302020302020302020300A2020202D312E343238392020202D302E3736393720202020302E303030302043202020302020302020302020302020302020302020302020302020302020302020302020300A2020202D312E3432383920202020302E3035353320202020302E303030302043202020302020302020302020302020302020302020302020302020302020302020302020300A2020202D322E313433342020202D312E3138323220202020302E303030302043202020302020302020302020302020302020302020302020302020302020302020302020300A20202020312E343238392020202D322E3431393720202020302E303030302043202020302020302020302020302020302020302020302020302020302020302020302020300A20202020302E3731343520202020312E3239323820202020302E303030302043202020302020302020302020302020302020302020302020302020302020302020302020300A20202020312E3432383920202020312E3730353320202020302E303030302053692020302020302020302020302020302020302020302020302020302020302020302020300A20202020312E3031363420202020322E3431393720202020302E303030302043202020302020302020302020302020302020302020302020302020302020302020302020300A20202020322E3134333420202020322E3131373820202020302E303030302043202020302020302020302020302020302020302020302020302020302020302020302020300A20202020312E3834313420202020302E3939303820202020302E303030302043202020302020302020302020302020302020302020302020302020302020302020302020300A2020312020322020312020302020202020200A2020322020332020322020302020202020200A2020332020342020312020302020202020200A2020342020352020312020302020202020200A2020352020362020312020302020202020200A2020362020372020312020302020202020200A2020372020382020312020302020202020200A2020382020392020312020302020202020200A2020392031302020312020302020202020200A2020312031302020312020302020202020200A2020352031302020312020302020202020200A2031312031322020312020302020202020200A2031312031332020312020302020202020200A2020392031312020312020302020202020200A2020362031342020322020302020202020200A2031362031372020312020312020202020200A2031362031382020312020302020202020200A2031362031392020312020312020202020200A2031352031362020312020302020202020200A2020322031352020312020302020202020200A4D2020454E44
Contributor: MASS SPECTROSCOPY SOC. OF JAPAN (MSSJ)
InstType: EI
InstName: JEOL JMS-D-3000
IoniMethod: _ENERGY 70 eV
IonPolarity: pos
Date: 2010-10-09 19:48:36+02:00
Num Peaks: 29
42 30 45 39 59 49 69 20 73 999 74 88 75 46 77 17 79 23 91 40 
92 34 93 56 105 28 117 20 119 30 133 18 135 38 136 51 140 20 149 23 
159 83 161 22 162 24 202 45 209 77 233 68 261 41 276 264 277 68 
