Name: SANGGENON-C
MW: 708
Formula: C40H36O12
Synonym: MassBank: JP000156
Synonym: SANGGENON-C
Structure: 303538325F53414E4747454E4F4E2D432E6D6F6C0A20204368656D447261773038323031303035353932440A2035322035382020302020302020302020302020302020302020302020303939392056323030300A2020202D352E323737362020202D302E3230363220202020302E303030302043202020302020302020302020302020302020302020302020302020302020302020302020300A2020202D352E323737362020202D312E3033313320202020302E303030302043202020302020302020302020302020302020302020302020302020302020302020302020300A2020202D342E353633312020202D312E3434333820202020302E303030302043202020302020302020302020302020302020302020302020302020302020302020302020300A2020202D332E383438372020202D312E3033313320202020302E303030302043202020302020302020302020302020302020302020302020302020302020302020302020300A2020202D332E383438372020202D302E3230363220202020302E303030302043202020302020302020302020302020302020302020302020302020302020302020302020300A2020202D342E3536333120202020302E3230363220202020302E303030302043202020302020302020302020302020302020302020302020302020302020302020302020300A2020202D352E393932312020202D312E3434333820202020302E30303030204F202020302020302020302020302020302020302020302020302020302020302020302020300A2020202D332E313334322020202D312E3434333820202020302E30303030204F202020302020302020302020302020302020302020302020302020302020302020302020300A2020202D322E343139372020202D312E3033313320202020302E303030302043202020302020302020302020302020302020302020302020302020302020302020302020300A2020202D312E373035332020202D312E3434333820202020302E303030302043202020302020302020302020302020302020302020302020302020302020302020302020300A2020202D302E393930382020202D312E3033313320202020302E303030302043202020302020302020302020302020302020302020302020302020302020302020302020300A2020202D302E393930382020202D302E3230363220202020302E303030302043202020302020302020302020302020302020302020302020302020302020302020302020300A2020202D312E3730353320202020302E3230363220202020302E30303030204F202020302020302020302020302020302020302020302020302020302020302020302020300A2020202D322E343139372020202D302E3230363220202020302E303030302043202020302020302020302020302020302020302020302020302020302020302020302020300A2020202D312E373035332020202D322E3236383720202020302E30303030204F202020302020302020302020302020302020302020302020302020302020302020302020300A2020202D322E3633333320202020302E3539303620202020302E30303030204F202020302020302020302020302020302020302020302020302020302020302020302020300A2020202D302E323736332020202D312E3434333820202020302E303030302043202020302020302020302020302020302020302020302020302020302020302020302020300A20202020302E343338312020202D312E3033313320202020302E303030302043202020302020302020302020302020302020302020302020302020302020302020302020300A20202020302E343338312020202D302E3230363220202020302E303030302043202020302020302020302020302020302020302020302020302020302020302020302020300A2020202D302E3237363320202020302E3230363220202020302E303030302043202020302020302020302020302020302020302020302020302020302020302020302020300A2020202D302E323736332020202D322E3236383720202020302E30303030204F202020302020302020302020302020302020302020302020302020302020302020302020300A20202020312E3135323620202020302E3230363220202020302E30303030204F202020302020302020302020302020302020302020302020302020302020302020302020300A20202020312E323633312020202D312E3033313320202020302E303030302043202020302020302020302020302020302020302020302020302020302020302020302020300A20202020312E323633312020202D312E3835363320202020302E303030302043202020302020302020302020302020302020302020302020302020302020302020302020300A20202020312E393737362020202D322E3236383720202020302E303030302043202020302020302020302020302020302020302020302020302020302020302020302020300A20202020322E363932312020202D312E3835363320202020302E303030302043202020302020302020302020302020302020302020302020302020302020302020302020300A20202020322E363932312020202D312E3033313320202020302E303030302043202020302020302020302020302020302020302020302020302020302020302020302020300A20202020312E393737362020202D302E3631383820202020302E303030302043202020302020302020302020302020302020302020302020302020302020302020302020300A20202020312E393737362020202D332E3039333820202020302E303030302043202020302020302020302020302020302020302020302020302020302020302020302020300A20202020332E353137312020202D312E3033313320202020302E303030302043202020302020302020302020302020302020302020302020302020302020302020302020300A20202020312E3937373620202020302E3230363220202020302E303030302043202020302020302020302020302020302020302020302020302020302020302020302020300A20202020322E3830323620202020302E3230363220202020302E30303030204F202020302020302020302020302020302020302020302020302020302020302020302020300A20202020312E3937373620202020312E3033313320202020302E303030302043202020302020302020302020302020302020302020302020302020302020302020302020300A20202020322E3639323120202020312E3434333820202020302E303030302043202020302020302020302020302020302020302020302020302020302020302020302020300A20202020322E3639323120202020322E3236383720202020302E303030302043202020302020302020302020302020302020302020302020302020302020302020302020300A20202020312E3937373620202020322E3638313220202020302E303030302043202020302020302020302020302020302020302020302020302020302020302020302020300A20202020312E3236333120202020322E3236383720202020302E303030302043202020302020302020302020302020302020302020302020302020302020302020302020300A20202020312E3236333120202020312E3434333820202020302E303030302043202020302020302020302020302020302020302020302020302020302020302020302020300A20202020302E3534383720202020312E3033313320202020302E30303030204F202020302020302020302020302020302020302020302020302020302020302020302020300A20202020312E3937373620202020332E3530363320202020302E30303030204F202020302020302020302020302020302020302020302020302020302020302020302020300A20202020332E393239362020202D312E3734353720202020302E303030302043202020302020302020302020302020302020302020302020302020302020302020302020300A20202020342E373534362020202D312E3734353720202020302E303030302043202020302020302020302020302020302020302020302020302020302020302020302020300A20202020352E313637312020202D312E3033313320202020302E303030302043202020302020302020302020302020302020302020302020302020302020302020302020300A20202020342E373534362020202D302E3331363820202020302E303030302043202020302020302020302020302020302020302020302020302020302020302020302020300A20202020332E393239362020202D302E3331363820202020302E303030302043202020302020302020302020302020302020302020302020302020302020302020302020300A20202020332E3531373120202020302E3339373720202020302E30303030204F202020302020302020302020302020302020302020302020302020302020302020302020300A20202020352E393932312020202D312E3033313320202020302E30303030204F202020302020302020302020302020302020302020302020302020302020302020302020300A2020202D322E343139372020202D312E3835363320202020302E303030302043202020302020302020302020302020302020302020302020302020302020302020302020300A2020202D332E313334322020202D322E3236383720202020302E303030302043202020302020302020302020302020302020302020302020302020302020302020302020300A2020202D332E313334322020202D332E3039333820202020302E303030302043202020302020302020302020302020302020302020302020302020302020302020302020300A2020202D332E383438372020202D332E3530363320202020302E303030302043202020302020302020302020302020302020302020302020302020302020302020302020300A2020202D322E343139372020202D332E3530363320202020302E303030302043202020302020302020302020302020302020302020302020302020302020302020302020300A2020312020322020322020302020202020200A2020322020332020312020302020202020200A2020332020342020322020302020202020200A2020342020352020312020302020202020200A2020352020362020322020302020202020200A2020362020312020312020302020202020200A2020322020372020312020302020202020200A2020342020382020312020302020202020200A2020382020392020312020302020202020200A2020392031302020312020302020202020200A2031302031312020312020302020202020200A2031312031322020322020302020202020200A2031322031332020312020302020202020200A2031332031342020312020302020202020200A2031342020392020312020302020202020200A2020352031342020312020302020202020200A2031302031352020322020302020202020200A2031342031362020312020302020202020200A2031312031372020312020302020202020200A2031372031382020322020302020202020200A2031382031392020312020302020202020200A2031392032302020322020302020202020200A2032302031322020312020302020202020200A2031372032312020312020302020202020200A2031392032322020312020302020202020200A2031382032332020312020302020202020200A2032332032342020312020302020202020200A2032342032352020322020302020202020200A2032352032362020312020302020202020200A2032362032372020312020302020202020200A2032372032382020312020302020202020200A2032382032332020312020302020202020200A2032352032392020312020302020202020200A2032372033302020312020302020202020200A2032382033312020312020302020202020200A2033312033322020322020302020202020200A2033312033332020312020302020202020200A2033332033342020322020302020202020200A2033342033352020312020302020202020200A2033352033362020322020302020202020200A2033362033372020312020302020202020200A2033372033382020322020302020202020200A2033382033332020312020302020202020200A2033382033392020312020302020202020200A2033362034302020312020302020202020200A2033302034312020322020302020202020200A2034312034322020312020302020202020200A2034322034332020322020302020202020200A2034332034342020312020302020202020200A2034342034352020322020302020202020200A2034352033302020312020302020202020200A2034352034362020312020302020202020200A2034332034372020312020302020202020200A2020392034382020312020302020202020200A2034382034392020312020302020202020200A2034392035302020322020302020202020200A2035302035312020312020302020202020200A2035302035322020312020302020202020200A4D2020454E44
Contributor: FUKUSHIMA K, INST. FOR CHEMOBIODYNAMICS, CHIBA UNIV.
InstType: EI
InstName: JEOL JMS-01-SG-2
IoniMethod: _ENERGY 70 eV
IonPolarity: pos
Date: 2010-10-09 19:48:36+02:00
Num Peaks: 154
65 239 66 189 75 70 77 82 79 14 80 51 81 654 82 952 89 71 90 15 
92 65 94 111 101 21 103 40 105 16 106 15 107 37 110 999 111 104 115 108 
117 28 122 109 123 717 124 17 126 167 127 23 128 54 129 27 134 129 135 103 
136 36 137 140 141 17 143 33 144 20 146 17 147 233 148 39 150 301 151 35 
152 48 153 72 155 21 156 14 160 46 161 430 162 141 163 274 164 55 173 26 
174 19 175 79 176 132 177 115 178 175 179 10 184 24 187 14 190 22 191 25 
194 23 197 107 198 15 199 14 200 15 201 37 203 188 204 18 210 25 211 497 
212 376 213 157 214 20 217 48 218 106 219 16 225 34 226 15 227 33 229 64 
230 16 237 29 239 50 241 30 244 18 245 50 251 13 253 19 255 387 256 308 
257 41 258 27 265 11 269 28 274 10 279 11 280 32 285 98 286 18 287 15 
302 66 303 35 305 124 306 19 311 10 314 29 315 84 317 33 319 83 320 88 
321 23 322 13 323 24 324 26 325 14 326 22 327 85 329 13 333 32 335 19 
338 11 339 30 353 526 354 112 355 37 365 47 366 14 368 193 369 47 370 92 
371 13 381 16 383 19 388 16 389 11 395 11 401 15 404 19 405 21 419 18 
421 255 422 80 423 23 436 115 437 33 438 26 439 11 464 18 516 9 578 6 
579 5 580 10 581 10 691 3 
