Name: 10-UNDECENAL
MW: 168
Formula: C11H20O
Synonym: MassBank: JP008688
Synonym: 10-UNDECENAL
Structure: 31302D554E444543454E414C2E6D6F6C0A20204368656D447261773132313030393136343932440A2031322031312020302020302020302020302020302020302020302020303939392056323030300A2020202D332E3231353120202020302E3230363320202020302E303030302043202020302020302020302020302020302020302020302020302020302020302020302020300A2020202D322E353030362020202D302E3230363320202020302E303030302043202020302020302020302020302020302020302020302020302020302020302020302020300A2020202D312E3738363220202020302E3230363320202020302E303030302043202020302020302020302020302020302020302020302020302020302020302020302020300A2020202D312E303731372020202D302E3230363220202020302E303030302043202020302020302020302020302020302020302020302020302020302020302020302020300A2020202D302E3335373220202020302E3230363320202020302E303030302043202020302020302020302020302020302020302020302020302020302020302020302020300A20202020302E333537322020202D302E3230363220202020302E303030302043202020302020302020302020302020302020302020302020302020302020302020302020300A20202020312E3037313720202020302E3230363320202020302E303030302043202020302020302020302020302020302020302020302020302020302020302020302020300A20202020312E373836322020202D302E3230363220202020302E303030302043202020302020302020302020302020302020302020302020302020302020302020302020300A20202020322E3530303620202020302E3230363320202020302E303030302043202020302020302020302020302020302020302020302020302020302020302020302020300A20202020332E323135312020202D302E3230363220202020302E303030302043202020302020302020302020302020302020302020302020302020302020302020302020300A20202020332E3932393620202020302E3230363320202020302E303030302043202020302020302020302020302020302020302020302020302020302020302020302020300A2020202D332E393239362020202D302E3230363320202020302E30303030204F202020302020302020302020302020302020302020302020302020302020302020302020300A2020312020322020312020302020202020200A2020322020332020312020302020202020200A2020332020342020312020302020202020200A2020342020352020312020302020202020200A2020352020362020312020302020202020200A2020362020372020312020302020202020200A2020372020382020312020302020202020200A2020382020392020312020302020202020200A2020392031302020312020302020202020200A2031302031312020322020302020202020200A2020312031322020322020302020202020200A4D2020454E44
Contributor: SODA AROMATIC CO., LTD.
InstType: EI
InstName: HITACHI M-80B
IoniMethod: _ENERGY 70 eV
IonPolarity: pos
Date: 2010-10-09 19:48:36+02:00
Num Peaks: 56
15 14 26 13 27 308 29 378 31 17 39 362 40 53 41 999 42 166 43 269 
44 109 45 26 51 16 52 10 53 119 54 309 55 852 56 145 57 243 58 27 
59 12 65 14 66 22 67 410 68 289 69 252 70 159 71 70 72 15 77 12 
79 125 80 116 81 231 82 253 83 197 84 118 85 23 86 22 93 103 94 71 
95 122 96 77 97 111 98 169 99 11 107 49 108 37 109 53 111 68 112 41 
121 86 122 18 124 47 125 19 135 11 150 14 
