Name: 2-(2-OXOPROPYL)CYCLOHEPTANONE
MW: 168
Formula: C10H16O2
Synonym: MassBank: JP004755
Synonym: 2-(2-OXOPROPYL)CYCLOHEPTANONE
Structure: 322D28322D4F584F50524F50594C294359434C4F48455054414E4F4E452E6D6F6C0A20204368656D447261773132323130393134313132440A2031322031322020302020302020302020302020302020302020302020303939392056323030300A20202020302E373633362020202D302E3438353620202020302E303030302043202020302020302020302020302020302020302020302020302020302020302020302020300A20202020302E303230332020202D302E3132373620202020302E303030302043202020302020302020302020302020302020302020302020302020302020302020302020300A2020202D302E373233302020202D302E3438353620202020302E303030302043202020302020302020302020302020302020302020302020302020302020302020302020300A2020202D302E393036362020202D312E3238393920202020302E303030302043202020302020302020302020302020302020302020302020302020302020302020302020300A2020202D302E333932322020202D312E3933343920202020302E303030302043202020302020302020302020302020302020302020302020302020302020302020302020300A20202020302E343332382020202D312E3933343920202020302E303030302043202020302020302020302020302020302020302020302020302020302020302020302020300A20202020302E393437322020202D312E3238393920202020302E303030302043202020302020302020302020302020302020302020302020302020302020302020302020300A20202020302E3032303320202020302E3639373420202020302E303030302043202020302020302020302020302020302020302020302020302020302020302020302020300A2020202D302E3639343220202020312E3130393920202020302E303030302043202020302020302020302020302020302020302020302020302020302020302020302020300A2020202D312E3430383620202020302E3639373420202020302E303030302043202020302020302020302020302020302020302020302020302020302020302020302020300A2020202D302E3639343220202020312E3933343920202020302E30303030204F202020302020302020302020302020302020302020302020302020302020302020302020300A20202020312E3430383620202020302E3032383820202020302E30303030204F202020302020302020302020302020302020302020302020302020302020302020302020300A2020312020322020312020302020202020200A2020322020332020312020302020202020200A2020332020342020312020302020202020200A2020342020352020312020302020202020200A2020352020362020312020302020202020200A2020362020372020312020302020202020200A2020312020372020312020302020202020200A2020382020392020312020302020202020200A2020392031302020312020302020202020200A2020392031312020322020302020202020200A2020322020382020312020302020202020200A2020312031322020322020302020202020200A4D2020454E44
Contributor: MASS SPECTROSCOPY SOC. OF JAPAN (MSSJ)
InstType: EI
InstName: JEOL JMS-D-3000
IoniMethod: _ENERGY 70 eV
IonPolarity: pos
Date: 2010-10-09 19:48:36+02:00
Num Peaks: 29
40 73 41 203 43 999 55 410 58 118 67 103 69 105 71 95 79 145 81 84 
82 78 83 112 84 72 93 77 95 75 96 140 97 156 98 353 107 99 108 113 
110 96 111 402 121 158 122 93 125 208 135 117 149 103 150 265 168 210 
