Name: MassBank: JP003050
MW: 189
Formula: C4H2Cl4
Synonym: MassBank: JP003050
Synonym: 1,2,4,4-TETRACHLOROBUTADIENE
Structure: 310A32300A312C322C342C342D544554524143484C4F524F425554414449454E452E6D6F6C0A20204368656D447261773130323330393133333032440A2020382020372020302020302020302020302020302020302020302020303939392056323030300A20202020312E303731372020202D302E3631383820202020302E303030302043202020302020302020302020302020302020302020302020302020302020302020302020300A20202020302E333537322020202D302E3230363220202020302E303030302043202020302020302020302020302020302020302020302020302020302020302020302020300A2020202D302E333537322020202D302E3631383820202020302E303030302043202020302020302020302020302020302020302020302020302020302020302020302020300A2020202D312E303731372020202D302E3230363220202020302E303030302043202020302020302020302020302020302020302020302020302020302020302020302020300A2020202D312E373836322020202D302E3631383820202020302E3030303020436C2020302020302020302020302020302020302020302020302020302020302020302020300A2020202D312E3037313720202020302E3631383820202020302E3030303020436C2020302020302020302020302020302020302020302020302020302020302020302020300A20202020302E3335373220202020302E3631383820202020302E3030303020436C2020302020302020302020302020302020302020302020302020302020302020302020300A20202020312E373836322020202D302E3230363220202020302E3030303020436C2020302020302020302020302020302020302020302020302020302020302020302020300A2020312020322020322020302020202020200A2020322020332020312020302020202020200A2020332020342020322020302020202020200A2020342020352020312020302020202020200A2020342020362020312020302020202020200A2020322020372020312020302020202020200A2020312020382020312020302020202020200A4D2020454E44
Contributor: SASAKI S, TOYOHASHI UNIV. OF TECH.
InstType: EI
InstName: Unknown
IoniMethod: EI
IonPolarity: pos
Date: 2010-10-09 19:48:36+02:00
Num Peaks: 60
24 7 25 25 26 29 27 2 35 56 36 154 37 96 38 8 39 19 47 71 
48 38 49 17 50 231 59 11 60 135 61 7 62 48 63 40 77 82 78 7 
79 29 84 212 85 193 86 7 87 58 95 58 96 58 97 4 98 19 107 79 
109 71 111 2 117 27 118 11 119 462 120 14 121 308 122 77 123 61 130 3 
132 31 134 11 143 44 145 0 147 13 155 999 156 55 157 96 158 48 159 308 
160 15 161 3 189 13 190 387 191 34 192 5 193 29 194 241 195 13 196 50 
