Name: MassBank: JP000440
MW: 190
Formula: C10H10N2O2
Synonym: MassBank: JP000440
Synonym: 2,3-DIMETHYL-7-NITROINDOLE
Structure: 322C332D44494D455448594C2D372D4E4954524F494E444F4C452E6D6F6C0A20204368656D447261773132323030393131353032440A2031342031352020302020302020302020302020302020302020302020303939392056323030300A2020202D302E3435313820202020302E3336323220202020302E30303030204E202020302020302020302020302020302020302020302020302020302020302020302020300A2020202D302E393336372020202D302E3330353220202020302E303030302043202020302020302020302020302020302020302020302020302020302020302020302020300A2020202D302E343531382020202D302E3937323720202020302E303030302043202020302020302020302020302020302020302020302020302020302020302020302020300A20202020302E333332382020202D302E3731373720202020302E303030302043202020302020302020302020302020302020302020302020302020302020302020302020300A20202020312E303437332020202D312E3133303220202020302E303030302043202020302020302020302020302020302020302020302020302020302020302020302020300A20202020312E373631372020202D302E3731373720202020302E303030302043202020302020302020302020302020302020302020302020302020302020302020302020300A20202020312E3736313720202020302E3130373320202020302E303030302043202020302020302020302020302020302020302020302020302020302020302020302020300A20202020312E3034373320202020302E3531393820202020302E303030302043202020302020302020302020302020302020302020302020302020302020302020302020300A20202020302E3333323820202020302E3130373320202020302E303030302043202020302020302020302020302020302020302020302020302020302020302020302020300A20202020312E3034373320202020312E3334343820202020302E30303030204E202020302020332020302020302020302020302020302020302020302020302020302020300A20202020312E3736313720202020312E3735373320202020302E30303030204F202020302020302020302020302020302020302020302020302020302020302020302020300A20202020302E3333323820202020312E3735373320202020302E30303030204F202020302020352020302020302020302020302020302020302020302020302020302020300A2020202D302E373036382020202D312E3735373320202020302E303030302043202020302020302020302020302020302020302020302020302020302020302020302020300A2020202D312E373631372020202D302E3330353220202020302E303030302043202020302020302020302020302020302020302020302020302020302020302020302020300A2020312020322020312020302020202020200A2020322020332020322020302020202020200A2020332020342020312020302020202020200A2020342020352020312020302020202020200A2020352020362020322020302020202020200A2020362020372020312020302020202020200A2020372020382020322020302020202020200A2020382020392020312020302020202020200A2020312020392020312020302020202020200A2020342020392020322020302020202020200A2031302031312020322020302020202020200A2031302031322020312020302020202020200A2020382031302020312020302020202020200A2020332031332020312020302020202020200A2020322031342020312020302020202020200A4D202043484720203220203130202020312020313220202D310A4D2020454E44
Contributor: SASAKI S, TOYOHASHI UNIV. OF TECH.
InstType: EI
InstName: MX-1303
IoniMethod: _ENERGY 50 eV
IonPolarity: pos
Date: 2010-10-09 19:48:36+02:00
Num Peaks: 52
45 268 50 30 51 63 52 4 53 52 54 31 55 184 56 9 57 366 60 167 
63 44 65 5 67 75 68 60 69 411 70 7 71 140 73 164 74 34 75 3 
77 113 79 45 81 134 82 4 83 113 84 38 85 63 89 4 91 101 93 30 
95 63 97 7 98 30 101 35 102 50 103 4 115 211 116 77 117 74 128 7 
129 140 132 39 142 63 143 42 144 625 145 60 149 47 160 3 175 158 189 321 
190 999 191 123 
