Name: 2-BROMOLYSERGIC ACID DIETHYLAMIDE
MW: 401
Formula: C20H24BrN3O
Synonym: MassBank: JP003738
Synonym: 2-BROMOLYSERGIC ACID DIETHYLAMIDE
Structure: 322D42524F4D4F4C595345524749432041434944204449455448594C414D4944452E6D6F6C0A20204368656D447261773132323130393232353832440A2032382033312020302020302020302020302020302020302020302020303939392056323030300A2020202D312E3237303420202020312E3030353020202020302E303030302043202020302020302020302020302020302020302020302020302020302020302020302020300A20202020312E393132362020202D322E3231333720202020302E30303030204E202020302020302020302020302020302020302020302020302020302020302020302020300A20202020322E333233392020202D312E3439383420202020302E303030302043202020302020302020302020302020302020302020302020302020302020302020302020300A20202020312E373535302020202D302E3839313520202020302E303030302043202020302020302020302020302020302020302020302020302020302020302020302020300A20202020312E363939322020202D302E3037383820202020302E303030302043202020302020302020302020302020302020302020302020302020302020302020302020300A20202020302E3938343820202020302E3333333420202020302E303030302043202020302020302020302020302020302020302020302020302020302020302020302020300A20202020312E3639393320202020302E3734353920202020302E303030302048202020302020302020302020302020302020302020302020302020302020302020302020300A20202020302E3938363020202020312E3134363620202020302E30303030204E202020302020302020302020302020302020302020302020302020302020302020302020300A20202020312E3730303520202020312E3535393120202020302E303030302043202020302020302020302020302020302020302020302020302020302020302020302020300A20202020302E3236323920202020312E3536343420202020302E303030302043202020302020302020302020302020302020302020302020302020302020302020302020300A2020202D302E3435373920202020312E3134383220202020302E303030302043202020302020302020302020302020302020302020302020302020302020302020302020300A2020202D302E3435373920202020302E3331363420202020302E303030302043202020302020302020302020302020302020302020302020302020302020302020302020300A20202020302E323632322020202D302E3039393420202020302E303030302043202020302020302020302020302020302020302020302020302020302020302020302020300A20202020302E323632322020202D302E3931373920202020302E303030302043202020302020302020302020302020302020302020302020302020302020302020302020300A2020202D302E343131302020202D312E3431343320202020302E303030302043202020302020302020302020302020302020302020302020302020302020302020302020300A2020202D302E333130342020202D322E3233333120202020302E303030302043202020302020302020302020302020302020302020302020302020302020302020302020300A20202020302E343439302020202D322E3535353520202020302E303030302043202020302020302020302020302020302020302020302020302020302020302020302020300A20202020312E313037392020202D322E3035393020202020302E303030302043202020302020302020302020302020302020302020302020302020302020302020302020300A20202020312E303037332020202D312E3234303120202020302E303030302043202020302020302020302020302020302020302020302020302020302020302020302020300A2020202D312E3535323520202020302E3232393720202020302E30303030204F202020302020302020302020302020302020302020302020302020302020302020302020300A2020202D312E3830303720202020312E3633373020202020302E30303030204E202020302020302020302020302020302020302020302020302020302020302020302020300A2020202D322E3631333120202020312E3439333720202020302E303030302043202020302020302020302020302020302020302020302020302020302020302020302020300A2020202D332E3134333420202020322E3132353720202020302E303030302043202020302020302020302020302020302020302020302020302020302020302020302020300A2020202D312E3531383520202020322E3431323220202020302E303030302043202020302020302020302020302020302020302020302020302020302020302020302020300A2020202D302E3730363020202020322E3535353520202020302E303030302043202020302020302020302020302020302020302020302020302020302020302020302020300A20202020332E313433342020202D312E3430333220202020302E303030302042722020302020302020302020302020302020302020302020302020302020302020302020300A2020202D302E3734303120202020312E3932333520202020302E303030302048202020302020302020302020302020302020302020302020302020302020302020302020300A2020202D312E313732342020202D302E3039363120202020302E303030302048202020302020302020302020302020302020302020302020302020302020302020302020300A2020322020332020312020302020202020200A2020332020342020322020302020202020200A2020342020352020312020302020202020200A2020352020362020312020302020202020200A2020362020372020312020312020202020200A2020362020382020312020302020202020200A2020382020392020312020302020202020200A2020382031302020312020302020202020200A2031302031312020312020302020202020200A2031312020312020312020312020202020200A2031312031322020312020302020202020200A2031322031332020322020302020202020200A2020362031332020312020302020202020200A2031332031342020312020302020202020200A2031342031352020312020302020202020200A2031352031362020322020302020202020200A2031362031372020312020302020202020200A2031372031382020322020302020202020200A2020322031382020312020302020202020200A2031382031392020312020302020202020200A2020342031392020312020302020202020200A2031342031392020322020302020202020200A2020312032302020322020302020202020200A2032322032332020312020302020202020200A2032312032322020312020302020202020200A2032342032352020312020302020202020200A2032312032342020312020302020202020200A2020312032312020312020302020202020200A2020332032362020312020302020202020200A2031312032372020312020362020202020200A2031322032382020312020302020202020200A4D2020454E44
Contributor: SASAKI S, TOYOHASHI UNIV. OF TECH.
InstType: EI
InstName: Unknown
IoniMethod: EI
IonPolarity: pos
Date: 2010-10-09 19:48:36+02:00
Num Peaks: 46
72 530 100 210 110 70 128 28 140 30 151 140 166 60 178 2 179 100 180 130 
191 100 192 1 193 60 205 210 206 150 207 1 219 150 220 130 221 230 222 1 
232 80 234 80 245 70 247 1 259 320 260 140 261 310 274 2 275 50 276 170 
285 250 286 1 287 220 288 70 299 530 300 4 301 740 302 380 303 220 358 1 
359 20 360 60 401 999 402 2 403 990 404 200 
