Name: MassBank: JP005134
CAS: 89-84-9
MW: 152
Formula: C8H8O3
Synonym: MassBank: JP005134
Synonym: 1-ACETYL-2,4-DIHYDROXYBENZENE
Structure: 312D41434554594C2D322C342D4449485944524F585942454E5A454E452E6D6F6C0A20204368656D447261773131313730393230353932440A2031312031312020302020302020302020302020302020302020302020303939392056323030300A2020202D302E363138382020202D302E3335373220202020302E303030302043202020302020302020302020302020302020302020302020302020302020302020302020300A2020202D302E3230363220202020302E3335373220202020302E303030302043202020302020302020302020302020302020302020302020302020302020302020302020300A20202020302E3631383720202020302E3335373220202020302E303030302043202020302020302020302020302020302020302020302020302020302020302020302020300A20202020312E303331332020202D302E3335373220202020302E303030302043202020302020302020302020302020302020302020302020302020302020302020302020300A20202020302E363138382020202D312E3037313720202020302E303030302043202020302020302020302020302020302020302020302020302020302020302020302020300A2020202D302E323036322020202D312E3037313720202020302E303030302043202020302020302020302020302020302020302020302020302020302020302020302020300A20202020312E383536332020202D302E3335373220202020302E30303030204F202020302020302020302020302020302020302020302020302020302020302020302020300A2020202D302E3631383820202020312E3037313720202020302E30303030204F202020302020302020302020302020302020302020302020302020302020302020302020300A2020202D312E343433372020202D302E3335373220202020302E303030302043202020302020302020302020302020302020302020302020302020302020302020302020300A2020202D312E383536332020202D312E3037313720202020302E30303030204F202020302020302020302020302020302020302020302020302020302020302020302020300A2020202D312E3835363320202020302E3335373220202020302E303030302043202020302020302020302020302020302020302020302020302020302020302020302020300A2020312020322020312020302020202020200A2020322020332020322020302020202020200A2020332020342020312020302020202020200A2020342020352020322020302020202020200A2020352020362020312020302020202020200A2020312020362020322020302020202020200A2020342020372020312020302020202020200A2020322020382020312020302020202020200A2020392031302020322020302020202020200A2020392031312020312020302020202020200A2020312020392020312020302020202020200A4D2020454E44
Contributor: HAYASHI A, FAC. OF SCIENCE AND TECHNOLOGY, KINKI UNIV.
InstType: EI
InstName: JEOL JMS-HX-100
IoniMethod: _ENERGY 70 eV
IonPolarity: pos
Date: 2010-10-09 19:48:36+02:00
Num Peaks: 74
37 6 38 12 39 31 41 12 42 10 43 70 45 2 46 1 47 2 49 4 
50 19 51 29 52 21 53 38 54 7 55 15 56 2 57 7 58 1 60 2 
61 6 62 22 63 23 64 5 65 8 66 7 67 5 68 10 70 3 71 5 
72 1 73 2 74 3 75 2 76 4 77 15 78 6 79 10 80 10 81 86 
82 6 83 2 85 4 87 2 89 1 90 1 91 3 92 3 94 2 95 6 
97 2 104 2 105 9 106 3 107 1 108 18 109 21 110 6 111 2 121 2 
123 17 125 2 126 2 129 1 134 3 136 3 137 999 138 95 139 12 140 1 
149 14 152 511 153 54 154 6 
