Name: ETHYL(TRIMETHYLSILYL)KETENE
MW: 142
Formula: C7H14OSi
Synonym: MassBank: JP002392
Synonym: ETHYL(TRIMETHYLSILYL)KETENE
Structure: 310A32320A455448594C285452494D455448594C53494C594C294B4554454E452E6D6F6C0A20204368656D447261773038313131303139303432440A2020392020382020302020302020302020302020302020302020302020303939392056323030300A2020202D302E333032302020202D302E3230363220202020302E303030302043202020302020302020302020302020302020302020302020302020302020302020302020300A20202020302E343132352020202D302E3631383820202020302E303030302043202020302020302020302020302020302020302020302020302020302020302020302020300A20202020312E313237302020202D312E3033313320202020302E30303030204F202020302020302020302020302020302020302020302020302020302020302020302020300A2020202D302E3330323020202020302E3631383820202020302E303030302053692020302020302020302020302020302020302020302020302020302020302020302020300A20202020302E3532333020202020302E3631383820202020302E303030302043202020302020302020302020302020302020302020302020302020302020302020302020300A2020202D312E3132373020202020302E3631383820202020302E303030302043202020302020302020302020302020302020302020302020302020302020302020302020300A2020202D302E3330323020202020312E3434333820202020302E303030302043202020302020302020302020302020302020302020302020302020302020302020302020300A2020202D312E303136342020202D302E3631383820202020302E303030302043202020302020302020302020302020302020302020302020302020302020302020302020300A2020202D312E303136342020202D312E3434333820202020302E303030302043202020302020302020302020302020302020302020302020302020302020302020302020300A2020312020322020322020302020202020200A2020322020332020322020302020202020200A2020342020352020312020302020202020200A2020342020362020312020302020202020200A2020342020372020312020302020202020200A2020312020342020312020302020202020200A2020382020392020312020302020202020200A2020312020382020312020302020202020200A4D2020454E44
Contributor: MASS SPECTROSCOPY SOC. OF JAPAN (MSSJ)
InstType: EI
InstName: JEOL JMS-D-3000
IoniMethod: _ENERGY 70 eV
IonPolarity: pos
Date: 2010-10-09 19:48:36+02:00
Num Peaks: 21
32 115 43 27 55 102 56 19 57 41 58 22 69 41 70 28 71 31 72 69 
82 61 83 46 84 25 93 24 97 131 98 35 111 317 112 23 126 999 127 115 
142 37 
