Name: 2-IODO-1-PHENOXY-3-TRIMETHYLSILOXYPROPANE
MW: 350
Formula: C12H19IO2Si
Synonym: MassBank: JP002404
Synonym: 2-IODO-1-PHENOXY-3-TRIMETHYLSILOXYPROPANE
Structure: 322D494F444F2D312D5048454E4F58592D332D5452494D455448594C53494C4F585950524F50414E452E6D6F6C0A20204368656D447261773031323231303030303332440A2031362031362020302020302020302020302020302020302020302020303939392056323030300A20202020302E373134352020202D302E3135313020202020302E303030302043202020302020302020302020302020302020302020302020302020302020302020302020300A20202020302E3731343520202020302E3637343020202020302E303030302043202020302020302020302020302020302020302020302020302020302020302020302020300A2020202D302E3030303020202020312E3038363520202020302E303030302043202020302020302020302020302020302020302020302020302020302020302020302020300A2020202D302E3030303020202020312E3931313520202020302E30303030204F202020302020302020302020302020302020302020302020302020302020302020302020300A2020202D302E3731343520202020322E3332343020202020302E303030302053692020302020302020302020302020302020302020302020302020302020302020302020300A2020202D302E3330323020202020332E3033383520202020302E303030302043202020302020302020302020302020302020302020302020302020302020302020302020300A2020202D312E3132373020202020312E3630393520202020302E303030302043202020302020302020302020302020302020302020302020302020302020302020302020300A2020202D312E3432383920202020322E3733363520202020302E303030302043202020302020302020302020302020302020302020302020302020302020302020302020300A2020202D302E303030302020202D302E3536333520202020302E30303030204F202020302020302020302020302020302020302020302020302020302020302020302020300A2020202D302E303030302020202D312E3338383520202020302E303030302043202020302020302020302020302020302020302020302020302020302020302020302020300A20202020302E373134352020202D312E3830313020202020302E303030302043202020302020302020302020302020302020302020302020302020302020302020302020300A20202020302E373134352020202D322E3632363020202020302E303030302043202020302020302020302020302020302020302020302020302020302020302020302020300A2020202D302E303030302020202D332E3033383520202020302E303030302043202020302020302020302020302020302020302020302020302020302020302020302020300A2020202D302E373134352020202D322E3632363020202020302E303030302043202020302020302020302020302020302020302020302020302020302020302020302020300A2020202D302E373134352020202D312E3830313020202020302E303030302043202020302020302020302020302020302020302020302020302020302020302020302020300A20202020312E3432383920202020312E3038363520202020302E303030302049202020302020302020302020302020302020302020302020302020302020302020302020300A2020312020322020312020302020202020200A2020322020332020312020302020202020200A2020342020352020312020302020202020200A2020352020362020312020302020202020200A2020352020372020312020302020202020200A2020352020382020312020302020202020200A2020332020342020312020302020202020200A2031302031312020312020302020202020200A2031312031322020322020302020202020200A2031322031332020312020302020202020200A2031332031342020322020302020202020200A2031342031352020312020302020202020200A2031302031352020322020302020202020200A2020392031302020312020302020202020200A2020312020392020312020302020202020200A2020322031362020312020302020202020200A4D2020454E44
Contributor: MASS SPECTROSCOPY SOC. OF JAPAN (MSSJ)
InstType: EI
InstName: JEOL JMS-D-3000
IoniMethod: _ENERGY 70 eV
IonPolarity: pos
Date: 2010-10-09 19:48:36+02:00
Num Peaks: 29
40 151 43 34 45 87 47 37 51 66 59 94 65 39 73 999 74 93 75 207 
77 203 79 50 91 36 94 42 101 76 107 283 108 27 116 234 117 25 127 60 
129 28 133 103 151 177 152 23 189 47 207 30 234 27 243 201 350 39 
