Name: DIHYDROCARVEOL(TRANS-AXIAL)
MW: 154
Formula: C10H18O
Synonym: MassBank: JP007393
Synonym: DIHYDROCARVEOL(TRANS-AXIAL)
Synonym: 2-METHYL-5-ISOPROPENYLCYCLOHEXANOL(TRANS-AXIAL)
Structure: 4449485944524F43415256454F4C285452414E532D415849414C292E6D6F6C0A20204368656D447261773031323231303037313932440A2031342031342020302020302020302020302020302020302020302020303939392056323030300A2020202D302E3436363920202020302E3431323520202020302E303030302043202020302020302020302020302020302020302020302020302020302020302020302020300A2020202D302E343636392020202D302E3431323520202020302E303030302043202020302020302020302020302020302020302020302020302020302020302020302020300A20202020302E323437362020202D302E3832353020202020302E303030302043202020302020302020302020302020302020302020302020302020302020302020302020300A20202020302E393632312020202D302E3431323520202020302E303030302043202020302020302020302020302020302020302020302020302020302020302020302020300A20202020302E3936323120202020302E3431323520202020302E303030302043202020302020302020302020302020302020302020302020302020302020302020302020300A20202020302E3234373620202020302E3832353020202020302E303030302043202020302020302020302020302020302020302020302020302020302020302020302020300A20202020312E3738373120202020302E3431323520202020302E303030302048202020302020302020302020302020302020302020302020302020302020302020302020300A20202020312E373837312020202D302E3431323520202020302E303030302043202020302020302020302020302020302020302020302020302020302020302020302020300A2020202D302E3638303420202020312E3230393420202020302E303030302048202020302020302020302020302020302020302020302020302020302020302020302020300A20202020312E3137353620202020312E3230393420202020302E30303030204F202020302020302020302020302020302020302020302020302020302020302020302020300A20202020312E313735362020202D312E3230393420202020302E303030302048202020302020302020302020302020302020302020302020302020302020302020302020300A2020202D312E3238343820202020302E3330343820202020302E303030302043202020302020302020302020302020302020302020302020302020302020302020302020300A2020202D312E3738373120202020302E3935393320202020302E303030302043202020302020302020302020302020302020302020302020302020302020302020302020300A2020202D312E363030352020202D302E3435373420202020302E303030302043202020302020302020302020302020302020302020302020302020302020302020302020300A2020312020322020312020302020202020200A2020322020332020312020302020202020200A2020332020342020312020302020202020200A2020342020352020312020302020202020200A2020352020362020312020302020202020200A2020362020312020312020302020202020200A2020352020372020312020362020202020200A2020342020382020312020312020202020200A2020312020392020312020312020202020200A2020352031302020312020312020202020200A2020342031312020312020362020202020200A2020312031322020312020362020202020200A2031322031332020312020302020202020200A2031322031342020322020302020202020200A4D2020454E44
Contributor: YAMAMOTO M, DEP. CHEMISTRY, FAC. SCIENCE, NARA WOMEN'S UNIV.
InstType: EI
InstName: HITACHI M-80
IoniMethod: _ENERGY 20 eV
IonPolarity: pos
Date: 2010-10-09 19:48:36+02:00
Num Peaks: 50
41 91 42 19 43 235 53 19 54 15 55 205 56 99 57 67 58 114 59 19 
67 180 68 428 69 335 70 227 71 140 72 41 77 12 78 15 79 351 80 193 
81 525 82 132 83 147 84 118 85 32 91 35 92 364 93 999 94 682 95 256 
96 172 97 281 98 59 99 21 105 22 106 16 107 973 108 243 109 31 110 26 
111 80 112 25 121 842 122 88 123 21 135 15 136 628 137 70 139 57 154 28 
