Name: MassBank: JP000380
MW: 88
Formula: C4H12N2
Synonym: MassBank: JP000380
Synonym: 1,1-DIETHYLHYDRAZINE
Structure: 310A31360A312C312D4449455448594C48594452415A494E452E6D6F6C0A20204368656D447261773130323330393130323232440A2020362020352020302020302020302020302020302020302020302020303939392056323030300A2020202D302E3030303020202020302E3030303020202020302E30303030204E202020302020302020302020302020302020302020302020302020302020302020302020300A20202020302E3431323520202020302E3731343520202020302E30303030204E202020302020302020302020302020302020302020302020302020302020302020302020300A20202020302E343132352020202D302E3731343520202020302E303030302043202020302020302020302020302020302020302020302020302020302020302020302020300A20202020312E323337352020202D302E3731343520202020302E303030302043202020302020302020302020302020302020302020302020302020302020302020302020300A2020202D302E3832353020202020302E3030303020202020302E303030302043202020302020302020302020302020302020302020302020302020302020302020302020300A2020202D312E323337352020202D302E3731343520202020302E303030302043202020302020302020302020302020302020302020302020302020302020302020302020300A2020312020322020312020302020202020200A2020332020342020312020302020202020200A2020312020332020312020302020202020200A2020352020362020312020302020202020200A2020312020352020312020302020202020200A4D2020454E44
Contributor: SASAKI S, TOYOHASHI UNIV. OF TECH.
InstType: EI
InstName: SHIMADZU LKB-2091
IoniMethod: _ENERGY 70 eV
IonPolarity: pos
Date: 2010-10-09 19:48:36+02:00
Num Peaks: 27
26 25 27 125 28 175 29 16 30 125 31 81 39 5 40 1 41 34 42 225 
43 91 44 18 45 463 46 10 54 6 55 1 56 100 57 16 58 26 59 8 
70 15 71 7 73 999 74 5 87 49 88 488 89 48 
