Name: MassBank: JP004298
CAS: 111-69-3
MW: 108
Formula: C6H8N2
Synonym: MassBank: JP004298
Synonym: 1,4-BUTANEDICARBONITRILE
Synonym: HEXANEDINITRILE
Structure: 310A32300A312C342D425554414E454449434152424F4E495452494C452E6D6F6C0A20204368656D447261773131313430393232343732440A2020382020372020302020302020302020302020302020302020302020303939392056323030300A2020202D312E3037313720202020302E3230363320202020302E303030302043202020302020302020302020302020302020302020302020302020302020302020302020300A2020202D302E333537322020202D302E3230363320202020302E303030302043202020302020302020302020302020302020302020302020302020302020302020302020300A20202020302E3335373220202020302E3230363320202020302E303030302043202020302020302020302020302020302020302020302020302020302020302020302020300A20202020312E303731372020202D302E3230363220202020302E303030302043202020302020302020302020302020302020302020302020302020302020302020302020300A2020202D312E373836322020202D302E3230363320202020302E303030302043202020302020302020302020302020302020302020302020302020302020302020302020300A2020202D322E353030362020202D302E3631383820202020302E30303030204E202020302020302020302020302020302020302020302020302020302020302020302020300A20202020312E3738363220202020302E3230363320202020302E303030302043202020302020302020302020302020302020302020302020302020302020302020302020300A20202020322E3530303620202020302E3631383820202020302E30303030204E202020302020302020302020302020302020302020302020302020302020302020302020300A2020312020322020312020302020202020200A2020322020332020312020302020202020200A2020332020342020312020302020202020200A2020352020362020332020302020202020200A2020312020352020312020302020202020200A2020372020382020332020302020202020200A2020342020372020312020302020202020200A4D2020454E44
Contributor: TAJIMA S, GUNMA COLLEGE OF TECHNOLOGY
InstType: EI
InstName: HITACHI RMU-7M
IoniMethod: _ENERGY 70 eV
IonPolarity: pos
Date: 2010-10-09 19:48:36+02:00
Num Peaks: 32
15 15 26 29 27 78 28 73 29 10 37 20 38 32 39 169 40 56 41 999 
42 68 43 48 44 28 50 20 51 38 52 67 53 52 54 405 55 187 64 15 
66 35 67 24 68 412 69 29 70 15 77 15 80 24 105 15 106 10 107 21 
108 10 109 29 
