Name: (S)-(-)-METHYL LACTATE
MW: 104
Formula: C4H8O3
Synonym: MassBank: JP005823
Synonym: (S)-(-)-METHYL LACTATE
Structure: 310A32300A2853292D282D292D4D455448594C204C4143544154452E6D6F6C0A20204368656D447261773130323230393138303232440A2020382020372020302020302020302020302020302020302020302020303939392056323030300A2020202D302E3631383820202020302E3030303020202020302E303030302043202020302020302020302020302020302020302020302020302020302020302020302020300A20202020302E3230363220202020302E3030303020202020302E303030302043202020302020302020302020302020302020302020302020302020302020302020302020300A2020202D302E3631383820202020302E3832353020202020302E30303030204F202020302020302020302020302020302020302020302020302020302020302020302020300A2020202D302E363138382020202D302E3832353020202020302E303030302048202020302020302020302020302020302020302020302020302020302020302020302020300A20202020302E3631383720202020302E3731343520202020302E30303030204F202020302020302020302020302020302020302020302020302020302020302020302020300A20202020302E363138382020202D302E3731343520202020302E30303030204F202020302020302020302020302020302020302020302020302020302020302020302020300A20202020312E343433382020202D302E3731343520202020302E303030302043202020302020302020302020302020302020302020302020302020302020302020302020300A2020202D312E3434333820202020302E3030303020202020302E303030302043202020302020302020302020302020302020302020302020302020302020302020302020300A2020312020322020312020302020202020200A2020312020332020312020312020202020200A2020312020342020312020312020202020200A2020322020352020322020302020202020200A2020322020362020312020302020202020200A2020362020372020312020302020202020200A2020312020382020312020302020202020200A4D2020454E44
Contributor: HASHIMOTO K, KYOTO COLLEGE OF PHARMACY
InstType: EI
InstName: HITACHI M-80
IoniMethod: _ENERGY 20 eV
IonPolarity: pos
Date: 2010-10-09 19:48:36+02:00
Num Peaks: 11
29 10 33 66 43 39 44 14 45 999 46 27 59 34 61 89 77 37 89 43 
104 105 
