Name: 2-UNDECYL IMIDAZOLINE
MW: 224
Formula: C14H28N2
Synonym: MassBank: JP003265
Synonym: 2-UNDECYL IMIDAZOLINE
Structure: 322D554E444543594C20494D4944415A4F4C494E452E6D6F6C0A20204368656D447261773032323131303137303232440A2031362031362020302020302020302020302020302020302020302020303939392056323030300A2020202D342E313431302020202D312E3034303020202020302E303030302043202020302020302020302020302020302020302020302020302020302020302020302020300A2020202D342E313431302020202D312E3836353020202020302E303030302043202020302020302020302020302020302020302020302020302020302020302020302020300A2020202D332E333536342020202D322E3131393920202020302E30303030204E202020302020302020302020302020302020302020302020302020302020302020302020300A2020202D322E383731352020202D312E3435323520202020302E303030302043202020302020302020302020302020302020302020302020302020302020302020302020300A2020202D332E333536342020202D302E3738353020202020302E30303030204E202020302020302020302020302020302020302020302020302020302020302020302020300A2020202D322E303436352020202D312E3435323520202020302E303030302043202020302020302020302020302020302020302020302020302020302020302020302020300A2020202D312E363334302020202D302E3733383020202020302E303030302043202020302020302020302020302020302020302020302020302020302020302020302020300A2020202D302E383039302020202D302E3733383020202020302E303030302043202020302020302020302020302020302020302020302020302020302020302020302020300A2020202D302E333936352020202D302E3032333520202020302E303030302043202020302020302020302020302020302020302020302020302020302020302020302020300A20202020302E343238352020202D302E3032333520202020302E303030302043202020302020302020302020302020302020302020302020302020302020302020302020300A20202020302E3834313020202020302E3639313020202020302E303030302043202020302020302020302020302020302020302020302020302020302020302020302020300A20202020312E3636363020202020302E3639313020202020302E303030302043202020302020302020302020302020302020302020302020302020302020302020302020300A20202020322E3037383520202020312E3430353420202020302E303030302043202020302020302020302020302020302020302020302020302020302020302020302020300A20202020322E3930333520202020312E3430353420202020302E303030302043202020302020302020302020302020302020302020302020302020302020302020302020300A20202020332E3331363020202020322E3131393920202020302E303030302043202020302020302020302020302020302020302020302020302020302020302020302020300A20202020342E3134313020202020322E3131393920202020302E303030302043202020302020302020302020302020302020302020302020302020302020302020302020300A2020312020322020312020302020202020200A2020322020332020312020302020202020200A2020332020342020322020302020202020200A2020342020352020312020302020202020200A2020352020312020312020302020202020200A2020342020362020312020302020202020200A2020362020372020312020302020202020200A2020372020382020312020302020202020200A2020382020392020312020302020202020200A2020392031302020312020302020202020200A2031302031312020312020302020202020200A2031312031322020312020302020202020200A2031322031332020312020302020202020200A2031332031342020312020302020202020200A2031342031352020312020302020202020200A2031352031362020312020302020202020200A4D2020454E44
Contributor: MASS SPECTROSCOPY SOC. OF JAPAN (MSSJ)
InstType: EI
InstName: HITACHI RMU-7
IoniMethod: _ENERGY 70 eV
IonPolarity: pos
Date: 2010-10-09 19:48:36+02:00
Num Peaks: 17
224 180 223 170 191 140 181 120 167 140 153 180 139 440 125 170 111 210 98 410 
97 720 85 170 84 999 82 140 55 210 43 130 41 180 
