Name: ALLYL ALCOHOL
MW: 58
Formula: C3H6O
Synonym: MassBank: JP005407
Synonym: ALLYL ALCOHOL
Synonym: 2-PROPEN-1-OL
Structure: 310A31320A414C4C594C20414C434F484F4C2E6D6F6C0A20204368656D447261773032323131303134343532440A2020342020332020302020302020302020302020302020302020302020303939392056323030300A2020202D302E333537322020202D302E3230363220202020302E303030302043202020302020302020302020302020302020302020302020302020302020302020302020300A20202020302E3335373220202020302E3230363220202020302E303030302043202020302020302020302020302020302020302020302020302020302020302020302020300A20202020312E303731372020202D302E3230363220202020302E303030302043202020302020302020302020302020302020302020302020302020302020302020302020300A2020202D312E3037313720202020302E3230363220202020302E30303030204F202020302020302020302020302020302020302020302020302020302020302020302020300A2020312020322020312020302020202020200A2020322020332020322020302020202020200A2020312020342020312020302020202020200A4D2020454E44
Contributor: TAJIMA S, GUNMA COLLEGE OF TECHNOLOGY
InstType: EI
InstName: HITACHI RMU-7M
IoniMethod: _ENERGY 70 eV
IonPolarity: pos
Date: 2010-10-09 19:48:36+02:00
Num Peaks: 19
15 27 18 42 26 99 27 269 28 142 29 477 30 193 31 417 37 31 38 47 
39 266 40 88 41 68 43 44 55 51 56 12 57 999 58 201 59 12 
