Name: BORNYL PENTANOATE
MW: 238
Formula: C15H26O2
Synonym: MassBank: JP006510
Synonym: BORNYL PENTANOATE
Synonym: BORNYL VALERATE
Structure: 424F524E594C2050454E54414E4F4154452E6D6F6C0A20204368656D447261773039303631303031313632440A2031372031382020302020302020302020302020302020302020302020303939392056323030300A2020202D312E373836322020202D302E3631383820202020302E303030302043202020302020302020302020302020302020302020302020302020302020302020302020300A2020202D312E373836322020202D312E3434333820202020302E303030302043202020302020302020302020302020302020302020302020302020302020302020302020300A2020202D312E303731382020202D312E3835363220202020302E303030302043202020302020302020302020302020302020302020302020302020302020302020302020300A2020202D302E333537332020202D312E3434333820202020302E303030302043202020302020302020302020302020302020302020302020302020302020302020302020300A2020202D302E333537332020202D302E3631383820202020302E303030302043202020302020302020302020302020302020302020302020302020302020302020302020300A2020202D312E303731382020202D302E3230363220202020302E303030302043202020302020302020302020302020302020302020302020302020302020302020302020300A2020202D302E393839332020202D302E3833323320202020302E303030302043202020302020302020302020302020302020302020302020302020302020302020302020300A2020202D322E353030362020202D302E3230363220202020302E303030302043202020302020302020302020302020302020302020302020302020302020302020302020300A2020202D312E3037313820202020302E3631383820202020302E30303030204F202020302020302020302020302020302020302020302020302020302020302020302020300A2020202D302E3335373320202020312E3033313320202020302E303030302043202020302020302020302020302020302020302020302020302020302020302020302020300A2020202D302E3335373320202020312E3835363220202020302E30303030204F202020302020302020302020302020302020302020302020302020302020302020302020300A2020202D302E353736382020202D302E3131373820202020302E303030302043202020302020302020302020302020302020302020302020302020302020302020302020300A2020202D312E323032392020202D312E3632393220202020302E303030302043202020302020302020302020302020302020302020302020302020302020302020302020300A20202020302E3335373220202020302E3631383820202020302E303030302043202020302020302020302020302020302020302020302020302020302020302020302020300A20202020312E3037313620202020312E3033313320202020302E303030302043202020302020302020302020302020302020302020302020302020302020302020302020300A20202020312E3738363120202020302E3631383820202020302E303030302043202020302020302020302020302020302020302020302020302020302020302020302020300A20202020322E3530303620202020312E3033313420202020302E303030302043202020302020302020302020302020302020302020302020302020302020302020302020300A2020312020322020312020302020202020200A2020322020332020312020302020202020200A2020332020342020312020302020202020200A2020342020352020312020302020202020200A2020352020362020312020302020202020200A2020362020312020312020302020202020200A2020312020372020312020302020202020200A2020372020342020312020302020202020200A2020312020382020312020302020202020200A2020362020392020312020302020202020200A2020392031302020312020302020202020200A2031302031312020322020302020202020200A2020372031322020312020312020202020200A2020372031332020312020312020202020200A2031302031342020312020302020202020200A2031342031352020312020302020202020200A2031352031362020312020302020202020200A2031362031372020312020302020202020200A4D2020454E44
Contributor: HISAHIRO HAGIWARA, CHEMICAL RESEARCH INSTITUTE OF NON-AQUEOUSSOLUTIONS TOHOKU UNIV.
InstType: EI
InstName: HITACHI M-80B
IoniMethod: _ENERGY 70 eV
IonPolarity: pos
Date: 2010-10-09 19:48:36+02:00
Num Peaks: 72
14 39 15 12 18 32 27 158 28 83 29 159 39 69 41 691 42 91 43 257 
44 23 45 24 50 21 51 40 52 29 53 123 54 33 55 232 56 38 57 999 
58 45 59 15 60 30 63 11 65 59 66 36 67 204 68 104 69 230 70 29 
71 15 72 10 77 125 78 34 79 160 80 171 81 266 82 65 83 95 84 24 
85 887 86 47 87 10 91 126 92 130 93 522 94 116 95 757 96 65 97 31 
105 44 106 12 107 111 108 321 109 324 110 162 111 46 119 23 121 319 122 45 
123 18 125 19 135 40 136 371 137 152 138 22 152 33 153 45 154 73 155 13 
238 82 239 24 
