Name: 1-OCTENE
MW: 112
Formula: C8H16
Synonym: MassBank: JP002114
Synonym: 1-OCTENE
Structure: 310A32300A312D4F4354454E452E6D6F6C0A20204368656D447261773131323230393231333832440A2020382020372020302020302020302020302020302020302020302020303939392056323030300A2020202D322E353030362020202D302E3230363320202020302E303030302043202020302020302020302020302020302020302020302020302020302020302020302020300A2020202D312E3738363220202020302E3230363320202020302E303030302043202020302020302020302020302020302020302020302020302020302020302020302020300A2020202D312E303731372020202D302E3230363320202020302E303030302043202020302020302020302020302020302020302020302020302020302020302020302020300A2020202D302E3335373220202020302E3230363320202020302E303030302043202020302020302020302020302020302020302020302020302020302020302020302020300A20202020302E333537322020202D302E3230363220202020302E303030302043202020302020302020302020302020302020302020302020302020302020302020302020300A20202020312E3037313720202020302E3230363320202020302E303030302043202020302020302020302020302020302020302020302020302020302020302020302020300A20202020312E373836322020202D302E3230363220202020302E303030302043202020302020302020302020302020302020302020302020302020302020302020302020300A20202020322E3530303620202020302E3230363320202020302E303030302043202020302020302020302020302020302020302020302020302020302020302020302020300A2020312020322020322020302020202020200A2020322020332020312020302020202020200A2020332020342020312020302020202020200A2020342020352020312020302020202020200A2020352020362020312020302020202020200A2020362020372020312020302020202020200A2020372020382020312020302020202020200A4D2020454E44
Contributor: TAJIMA S, GUNMA COLLEGE OF TECHNOLOGY
InstType: EI
InstName: HITACHI RMU-7M
IoniMethod: _ENERGY 70 eV
IonPolarity: pos
Date: 2010-10-09 19:48:36+02:00
Num Peaks: 38
15 16 26 15 27 256 28 65 29 413 39 231 40 37 41 762 42 588 43 999 
44 54 45 33 53 60 54 89 55 925 56 687 57 287 58 43 60 68 67 70 
68 75 69 444 70 613 71 140 72 28 73 39 81 37 82 64 83 269 84 159 
85 52 87 16 95 16 97 54 99 36 111 26 112 73 113 23 
