Name: 3-HYDROXYACETOPHENONE
MW: 136
Formula: C8H8O2
Synonym: MassBank: JP009584
Synonym: 3-HYDROXYACETOPHENONE
Structure: 332D485944524F5859414345544F5048454E4F4E452E6D6F6C0A20204368656D447261773032323231303231333532440A2031302031302020302020302020302020302020302020302020302020303939392056323030300A2020202D312E303731372020202D302E3230363220202020302E303030302043202020302020302020302020302020302020302020302020302020302020302020302020300A2020202D312E303731372020202D312E3033313320202020302E303030302043202020302020302020302020302020302020302020302020302020302020302020302020300A2020202D302E333537322020202D312E3434333820202020302E303030302043202020302020302020302020302020302020302020302020302020302020302020302020300A20202020302E333537322020202D312E3033313320202020302E303030302043202020302020302020302020302020302020302020302020302020302020302020302020300A20202020302E333537322020202D302E3230363220202020302E303030302043202020302020302020302020302020302020302020302020302020302020302020302020300A2020202D302E3335373220202020302E3230363220202020302E303030302043202020302020302020302020302020302020302020302020302020302020302020302020300A20202020312E303731372020202D312E3434333820202020302E30303030204F202020302020302020302020302020302020302020302020302020302020302020302020300A2020202D302E3335373220202020312E3033313320202020302E303030302043202020302020302020302020302020302020302020302020302020302020302020302020300A20202020302E3335373220202020312E3434333820202020302E303030302043202020302020302020302020302020302020302020302020302020302020302020302020300A2020202D312E3037313720202020312E3434333820202020302E30303030204F202020302020302020302020302020302020302020302020302020302020302020302020300A2020312020322020322020302020202020200A2020322020332020312020302020202020200A2020332020342020322020302020202020200A2020342020352020312020302020202020200A2020352020362020322020302020202020200A2020362020312020312020302020202020200A2020342020372020312020302020202020200A2020362020382020312020302020202020200A2020382020392020312020302020202020200A2020382031302020322020302020202020200A4D2020454E44
Contributor: HAMAMATSU UNIV. SCHOOL OF MEDICINE
InstType: EI
InstName: JEOL JMS-AX-505-H
IoniMethod: _ENERGY 70 eV
IonPolarity: pos
Date: 2010-10-09 19:48:36+02:00
Num Peaks: 27
27 12 37 11 38 35 39 154 42 10 43 158 50 31 51 33 53 31 60 11 
61 14 62 33 63 85 64 44 65 276 66 26 74 17 75 11 77 31 92 29 
93 501 94 54 107 14 121 999 122 83 136 634 137 62 
