Name: ISOPROPYL ALCOHOL
CAS: 67-63-0
MW: 60
Formula: C3H8O
Synonym: MassBank: JP007108
Synonym: ISOPROPYL ALCOHOL
Synonym: 2-PROPANOL
Structure: 310A31320A49534F50524F50594C20414C434F484F4C2E6D6F6C0A20204368656D447261773032323131303134343332440A2020342020332020302020302020302020302020302020302020302020303939392056323030300A2020202D302E3230363220202020302E3030303020202020302E303030302043202020302020302020302020302020302020302020302020302020302020302020302020300A2020202D302E363138382020202D302E3731343520202020302E303030302043202020302020302020302020302020302020302020302020302020302020302020302020300A2020202D302E3631383820202020302E3731343520202020302E303030302043202020302020302020302020302020302020302020302020302020302020302020302020300A20202020302E3631383820202020302E3030303020202020302E30303030204F202020302020302020302020302020302020302020302020302020302020302020302020300A2020312020322020312020302020202020200A2020312020332020312020302020202020200A2020312020342020312020302020202020200A4D2020454E44
Contributor: SODA AROMATIC CO., LTD.
InstType: EI
InstName: HITACHI M-80B
IoniMethod: _ENERGY 70 eV
IonPolarity: pos
Date: 2010-10-09 19:48:36+02:00
Num Peaks: 16
15 34 19 29 26 14 27 86 29 63 31 35 38 14 39 56 41 72 42 36 
43 158 44 44 45 999 46 26 57 11 59 39 
