Name: 2-ETHYL-4-METHYL-IMIDAZOLINE
MW: 112
Formula: C6H12N2
Synonym: MassBank: JP003268
Synonym: 2-ETHYL-4-METHYL-IMIDAZOLINE
Structure: 310A32310A322D455448594C2D342D4D455448594C2D494D4944415A4F4C494E452E6D6F6C0A20204368656D447261773031303331303132353432440A2020382020382020302020302020302020302020302020302020302020303939392056323030300A20202020302E333336372020202D302E3239373520202020302E303030302043202020302020302020302020302020302020302020302020302020302020302020302020300A2020202D302E343437392020202D302E3535323420202020302E30303030204E202020302020302020302020302020302020302020302020302020302020302020302020300A2020202D302E3933323820202020302E3131353020202020302E303030302043202020302020302020302020302020302020302020302020302020302020302020302020300A2020202D302E3434373920202020302E3738323420202020302E303030302043202020302020302020302020302020302020302020302020302020302020302020302020300A20202020302E3333363720202020302E3532373520202020302E30303030204E202020302020302020302020302020302020302020302020302020302020302020302020300A2020202D312E3735373820202020302E3131353020202020302E303030302043202020302020302020302020302020302020302020302020302020302020302020302020300A20202020312E303034322020202D302E3738323420202020302E303030302043202020302020302020302020302020302020302020302020302020302020302020302020300A20202020312E373537382020202D302E3434363920202020302E303030302043202020302020302020302020302020302020302020302020302020302020302020302020300A2020312020322020322020302020202020200A2020322020332020312020302020202020200A2020332020342020312020302020202020200A2020342020352020312020302020202020200A2020312020352020312020302020202020200A2020332020362020312020302020202020200A2020372020382020312020302020202020200A2020312020372020312020302020202020200A4D2020454E44
Contributor: MASS SPECTROSCOPY SOC. OF JAPAN (MSSJ)
InstType: EI
InstName: HITACHI RMU-7
IoniMethod: _ENERGY 70 eV
IonPolarity: pos
Date: 2010-10-09 19:48:36+02:00
Num Peaks: 24
113 90 112 890 111 320 98 90 97 980 96 70 95 90 84 80 83 780 82 630 
81 50 70 120 69 999 68 460 57 60 56 540 55 140 54 520 44 70 43 70 
42 320 41 380 40 70 39 150 
