Name: 2-METHYL-1-BUTANOL
MW: 88
Formula: C5H12O
Synonym: MassBank: JP000279
Synonym: 2-METHYL-1-BUTANOL
Synonym: ACTIVE AMYL ALCOHOL
Structure: 310A31360A322D4D455448594C2D312D425554414E4F4C2E6D6F6C0A20204368656D447261773031323231303032353532440A2020362020352020302020302020302020302020302020302020302020303939392056323030300A20202020302E343132352020202D302E3731343520202020302E303030302043202020302020302020302020302020302020302020302020302020302020302020302020300A20202020302E3030303020202020302E3030303020202020302E303030302043202020302020302020302020302020302020302020302020302020302020302020302020300A2020202D302E3832353020202020302E3030303020202020302E303030302043202020302020302020302020302020302020302020302020302020302020302020302020300A2020202D312E323337352020202D302E3731343520202020302E303030302043202020302020302020302020302020302020302020302020302020302020302020302020300A20202020312E323337352020202D302E3731343520202020302E30303030204F202020302020302020302020302020302020302020302020302020302020302020302020300A20202020302E3431323520202020302E3731343520202020302E303030302043202020302020302020302020302020302020302020302020302020302020302020302020300A2020312020322020312020302020202020200A2020322020332020312020302020202020200A2020332020342020312020302020202020200A2020312020352020312020302020202020200A2020322020362020312020302020202020200A4D2020454E44
Contributor: YAMAMOTO M, DEP. CHEMISTRY, FAC. SCIENCE, NARA WOMEN'S UNIV.
InstType: EI
InstName: HITACHI RMU-6M
IoniMethod: _ENERGY 70 eV
IonPolarity: pos
Date: 2010-10-09 19:48:36+02:00
Num Peaks: 28
15 28 19 12 26 31 27 28 28 72 29 768 30 22 31 41 33 21 38 18 
39 205 40 3 41 996 42 178 43 137 45 8 50 15 51 20 52 15 53 3 
55 282 56 961 57 999 58 5 59 38 69 13 70 466 71 38 
