Name: DIETHYL ETHER
CAS: 60-29-7
MW: 74
Formula: C4H10O
Synonym: MassBank: JP007656
Synonym: DIETHYL ETHER
Synonym: 1,1'-OXYBISETHANE
Structure: 310A31340A4449455448594C2045544845522E6D6F6C0A20204368656D447261773130323230393232333932440A2020352020342020302020302020302020302020302020302020302020303939392056323030300A20202020302E303030302020202D302E3230363320202020302E30303030204F202020302020302020302020302020302020302020302020302020302020302020302020300A2020202D302E3731343520202020302E3230363320202020302E303030302043202020302020302020302020302020302020302020302020302020302020302020302020300A2020202D312E343238392020202D302E3230363320202020302E303030302043202020302020302020302020302020302020302020302020302020302020302020302020300A20202020302E3731343520202020302E3230363220202020302E303030302043202020302020302020302020302020302020302020302020302020302020302020302020300A20202020312E343238392020202D302E3230363220202020302E303030302043202020302020302020302020302020302020302020302020302020302020302020302020300A2020322020332020312020302020202020200A2020312020322020312020302020202020200A2020342020352020312020302020202020200A2020312020342020312020302020202020200A4D2020454E44
Contributor: TAJIMA S, GUNMA COLLEGE OF TECHNOLOGY
InstType: EI
InstName: HITACHI RMU-7M
IoniMethod: _ENERGY 70 eV
IonPolarity: pos
Date: 2010-10-09 19:48:36+02:00
Num Peaks: 19
15 31 17 12 18 72 19 24 26 23 27 179 28 82 29 482 30 14 31 999 
41 117 43 66 44 38 45 349 59 418 60 10 73 39 74 256 75 13 
