Name: BENZYL ALCOHOL
MW: 108
Formula: C7H8O
Synonym: MassBank: JP001280
Synonym: BENZYL ALCOHOL
Structure: 310A32310A42454E5A594C20414C434F484F4C2E6D6F6C0A20204368656D447261773038313131303136303532440A2020382020382020302020302020302020302020302020302020302020303939392056323030300A2020202D312E303331332020202D302E3030303020202020302E303030302043202020302020302020302020302020302020302020302020302020302020302020302020300A2020202D302E323036322020202D302E3030303020202020302E303030302043202020302020302020302020302020302020302020302020302020302020302020302020300A20202020302E3230363320202020302E3731343520202020302E303030302043202020302020302020302020302020302020302020302020302020302020302020302020300A20202020312E3033313320202020302E3731343520202020302E303030302043202020302020302020302020302020302020302020302020302020302020302020302020300A20202020312E343433382020202D302E3030303020202020302E303030302043202020302020302020302020302020302020302020302020302020302020302020302020300A20202020312E303331332020202D302E3731343520202020302E303030302043202020302020302020302020302020302020302020302020302020302020302020302020300A20202020302E323036322020202D302E3731343520202020302E303030302043202020302020302020302020302020302020302020302020302020302020302020302020300A2020202D312E3434333820202020302E3731343520202020302E30303030204F202020302020302020302020302020302020302020302020302020302020302020302020300A2020312020322020312020302020202020200A2020322020332020312020302020202020200A2020332020342020322020302020202020200A2020342020352020312020302020202020200A2020352020362020322020302020202020200A2020362020372020312020302020202020200A2020322020372020322020302020202020200A2020312020382020312020302020202020200A4D2020454E44
Contributor: TAJIMA S, GUNMA COLLEGE OF TECHNOLOGY
InstType: EI
InstName: HITACHI RMU-7M
IoniMethod: _ENERGY 70 eV
IonPolarity: pos
Date: 2010-10-09 19:48:36+02:00
Num Peaks: 37
26 12 27 61 28 26 29 40 31 33 37 16 38 33 39 125 40 11 41 11 
49 11 50 113 51 247 52 66 53 65 54 12 61 12 62 26 63 56 64 13 
65 73 74 31 75 21 76 16 77 539 78 107 79 999 80 91 89 63 90 76 
91 167 92 21 105 53 106 25 107 624 108 825 109 60 
