Name: AFLATOXIN G2
MW: 330
Formula: C17H14O7
Synonym: MassBank: JP001415
Synonym: AFLATOXIN G2
Synonym: 3,4,7AALPHA,9,10,10AALPHA-HEXAHYDRO-5-METHOXY-1H;12H-FURO(3',2':4,5)FURO(2,3-H)PYRANO(3,4-C)(1)BENZOPYRAN-1,12-DIONE
Structure: 41464C41544F58494E2047322E6D6F6C0A20204368656D447261773032323131303231353932440A2032362033302020302020302020302020302020302020302020302020303939392056323030300A2020202D322E3831333220202020302E3230363220202020302E303030302043202020302020302020302020302020302020302020302020302020302020302020302020300A2020202D322E383133322020202D302E3631383820202020302E30303030204F202020302020302020302020302020302020302020302020302020302020302020302020300A2020202D322E303938382020202D312E3033313320202020302E303030302043202020302020302020302020302020302020302020302020302020302020302020302020300A2020202D312E333834332020202D302E3631383820202020302E303030302043202020302020302020302020302020302020302020302020302020302020302020302020300A2020202D312E3338343320202020302E3230363220202020302E303030302043202020302020302020302020302020302020302020302020302020302020302020302020300A2020202D322E3039383820202020302E3631383820202020302E303030302043202020302020302020302020302020302020302020302020302020302020302020302020300A2020202D302E363639392020202D312E3033313320202020302E303030302043202020302020302020302020302020302020302020302020302020302020302020302020300A20202020302E303434362020202D302E3631383820202020302E30303030204F202020302020302020302020302020302020302020302020302020302020302020302020300A20202020302E3034343620202020302E3230363220202020302E303030302043202020302020302020302020302020302020302020302020302020302020302020302020300A2020202D302E3636393920202020302E3631383820202020302E303030302043202020302020302020302020302020302020302020302020302020302020302020302020300A20202020302E3735393220202020302E3631383820202020302E303030302043202020302020302020302020302020302020302020302020302020302020302020302020300A20202020302E3735393220202020312E3434333820202020302E303030302043202020302020302020302020302020302020302020302020302020302020302020302020300A20202020302E3034343620202020312E3835363320202020302E303030302043202020302020302020302020302020302020302020302020302020302020302020302020300A2020202D302E3636393920202020312E3434333820202020302E303030302043202020302020302020302020302020302020302020302020302020302020302020302020300A20202020312E3534333720202020302E3336333820202020302E303030302043202020302020302020302020302020302020302020302020302020302020302020302020300A20202020322E3032383620202020312E3033313320202020302E303030302043202020302020302020302020302020302020302020302020302020302020302020302020300A20202020312E3534333720202020312E3639383720202020302E30303030204F202020302020302020302020302020302020302020302020302020302020302020302020300A20202020322E303238362020202D302E3330333620202020302E303030302043202020302020302020302020302020302020302020302020302020302020302020302020300A20202020322E383133322020202D302E3034383720202020302E303030302043202020302020302020302020302020302020302020302020302020302020302020302020300A20202020322E3831333220202020302E3737363320202020302E30303030204F202020302020302020302020302020302020302020302020302020302020302020302020300A2020202D312E3338343320202020312E3835363320202020302E30303030204F202020302020302020302020302020302020302020302020302020302020302020302020300A2020202D322E303938382020202D312E3835363320202020302E30303030204F202020302020302020302020302020302020302020302020302020302020302020302020300A2020202D302E363639392020202D312E3835363320202020302E30303030204F202020302020302020302020302020302020302020302020302020302020302020302020300A2020202D322E3039383820202020312E3434333820202020302E303030302043202020302020302020302020302020302020302020302020302020302020302020302020300A20202020322E3434313120202020312E3734353720202020302E303030302048202020302020302020302020302020302020302020302020302020302020302020302020300A20202020312E313331322020202D302E3335303720202020302E303030302048202020302020302020302020302020302020302020302020302020302020302020302020300A2020312020322020312020302020202020200A2020322020332020312020302020202020200A2020332020342020312020302020202020200A2020342020352020322020302020202020200A2020352020362020312020302020202020200A2020362020312020312020302020202020200A2020342020372020312020302020202020200A2020372020382020312020302020202020200A2020382020392020312020302020202020200A2020392031302020322020302020202020200A2031302020352020312020302020202020200A2020392031312020312020302020202020200A2031312031322020322020302020202020200A2031322031332020312020302020202020200A2031332031342020322020302020202020200A2031342031302020312020302020202020200A2031312031352020312020302020202020200A2031352031362020312020302020202020200A2031362031372020312020302020202020200A2031372031322020312020302020202020200A2031352031382020312020302020202020200A2031382031392020312020302020202020200A2031392032302020312020302020202020200A2032302031362020312020302020202020200A2031342032312020312020302020202020200A2020332032322020322020302020202020200A2020372032332020322020302020202020200A2032312032342020312020302020202020200A2031362032352020312020362020202020200A2031352032362020312020362020202020200A4D2020454E44
Contributor: HASHIMOTO K, KYOTO COLLEGE OF PHARMACY
InstType: EI
InstName: HITACHI M-80
IoniMethod: _ENERGY 20 eV
IonPolarity: pos
Date: 2010-10-09 19:48:36+02:00
Num Peaks: 36
187 18 199 11 201 34 213 2 214 11 215 54 216 16 227 2 229 51 230 25 
241 29 243 11 244 24 257 52 258 57 259 2 269 56 271 47 272 83 273 2 
283 16 285 36 286 188 287 20 288 42 299 27 300 21 301 8 302 25 314 25 
315 26 328 3 329 21 330 999 331 190 332 57 
