Name: TRIBROMOMETHANE
CAS: 75-25-2
MW: 249
Formula: CHBr3
Synonym: MassBank: JP000966
Synonym: TRIBROMOMETHANE
Synonym: BROMOFORM
Structure: 42524F4D4F464F524D2E6D6F6C0A20204368656D447261773038313131303136313232440A2031332031312020302020302020302020302020302020302020302020303939392056323030300A2020202D332E3932343020202020342E3539353720202020302E303030302042202020302020302020302020302020302020302020302020302020302020302020302020300A2020202D332E3932343020202020342E3539353720202020302E303030302043202020302020302020302020302020302020302020302020302020302020302020302020300A2020202D332E3932343020202020342E3539353720202020302E30303030204F202020302020302020302020302020302020302020302020302020302020302020302020300A2020202D332E3932343020202020342E3539353720202020302E303030302043202020302020302020302020302020302020302020302020302020302020302020302020300A2020202D332E3932343020202020342E3539353720202020302E30303030204F202020302020302020302020302020302020302020302020302020302020302020302020300A2020202D332E3932343020202020342E3539353720202020302E303030302046202020302020302020302020302020302020302020302020302020302020302020302020300A2020202D332E3932343020202020342E3539353720202020302E30303030204F202020302020302020302020302020302020302020302020302020302020302020302020300A2020202D332E3932343020202020342E3539353720202020302E303030302043202020302020302020302020302020302020302020302020302020302020302020302020300A2020202D332E3932343020202020342E3539353720202020302E303030302043202020302020302020302020302020302020302020302020302020302020302020302020300A20202020332E353131352020202D332E3838313220202020302E303030302043202020302020302020302020302020302020302020302020302020302020302020302020300A20202020332E393234302020202D332E3136363720202020302E303030302042722020302020302020302020302020302020302020302020302020302020302020302020300A20202020332E393234302020202D342E3539353720202020302E303030302042722020302020302020302020302020302020302020302020302020302020302020302020300A20202020322E363836352020202D332E3838313220202020302E303030302042722020302020302020302020302020302020302020302020302020302020302020302020300A2020312020322020312020302020202020200A2020312020332020322020302020202020200A2020322020342020312020302020202020200A2020342020352020312020302020202020200A2020342020372020312020302020202020200A2020352020362020312020302020202020200A2020372020382020312020302020202020200A2020382020392020312020302020202020200A2031302031312020312020302020202020200A2031302031322020312020302020202020200A2031302031332020312020302020202020200A4D202053545920203120202031205355500A4D2020534C4220203120202031202020310A4D202053414C202020312020392020203120202032202020332020203420202035202020362020203720202038202020390A4D2020534D54202020312042524F4D4F464F524D0A4D2020454E44
Contributor: KOGA M, UNIV. OF OCCUPATIONAL AND ENVIRONMENTAL HEALTH
InstType: EI
InstName: JEOL JMS-01-SG
IoniMethod: _ENERGY 70 eV
IonPolarity: pos
Date: 2010-10-09 19:48:36+02:00
Num Peaks: 21
45 90 79 306 80 27 81 29 82 29 89 20 91 297 92 17 93 296 94 169 
109 23 158 2 160 50 162 25 171 519 173 999 175 507 250 33 252 108 254 11 
256 33 
