Name: MassBank: JP004743
MW: 173
Formula: C7H19NSi2
Synonym: MassBank: JP004743
Synonym: 2,2,6,6-TETRAMETHYL-2,6-DISILAPIPERIDINE
Structure: 322C322C362C362D54455452414D455448594C2D322C362D444953494C4150495045524944494E452E6D6F6C0A20204368656D447261773132323030393036323332440A2031302031302020302020302020302020302020302020302020302020303939392056323030300A20202020302E3030303020202020302E3634333620202020302E30303030204E202020302020302020302020302020302020302020302020302020302020302020302020300A2020202D302E3731343520202020302E3233313120202020302E303030302053692020302020302020302020302020302020302020302020302020302020302020302020300A2020202D302E373134352020202D302E3539333920202020302E303030302043202020302020302020302020302020302020302020302020302020302020302020302020300A20202020302E303030302020202D312E3030363420202020302E303030302043202020302020302020302020302020302020302020302020302020302020302020302020300A20202020302E373134352020202D302E3539333920202020302E303030302043202020302020302020302020302020302020302020302020302020302020302020302020300A20202020302E3731343520202020302E3233313120202020302E303030302053692020302020302020302020302020302020302020302020302020302020302020302020300A20202020312E3532363920202020302E3038373920202020302E303030302043202020302020302020302020302020302020302020302020302020302020302020302020300A20202020302E3939363620202020312E3030363420202020302E303030302043202020302020302020302020302020302020302020302020302020302020302020302020300A2020202D302E3939363620202020312E3030363420202020302E303030302043202020302020302020302020302020302020302020302020302020302020302020302020300A2020202D312E3532363920202020302E3038373920202020302E303030302043202020302020302020302020302020302020302020302020302020302020302020302020300A2020312020322020312020302020202020200A2020322020332020312020302020202020200A2020332020342020312020302020202020200A2020342020352020312020302020202020200A2020352020362020312020302020202020200A2020312020362020312020302020202020200A2020362020372020312020312020202020200A2020362020382020312020362020202020200A2020322020392020312020312020202020200A2020322031302020312020362020202020200A4D2020454E44
Contributor: MASS SPECTROSCOPY SOC. OF JAPAN (MSSJ)
InstType: EI
InstName: JEOL JMS-D-3000
IoniMethod: _ENERGY 70 eV
IonPolarity: pos
Date: 2010-10-09 19:48:36+02:00
Num Peaks: 7
57 86 116 81 130 271 158 999 159 183 160 80 173 98 
