Name: ETHANOL
MW: 46
Formula: C2H6O
Synonym: MassBank: JP006778
Synonym: ETHANOL
Structure: 310A31300A455448414E4F4C2E6D6F6C0A20204368656D447261773038313131303137353932440A2020332020322020302020302020302020302020302020302020302020303939392056323030300A20202020302E3030303020202020302E3230363320202020302E303030302043202020302020302020302020302020302020302020302020302020302020302020302020300A20202020302E373134352020202D302E3230363320202020302E303030302043202020302020302020302020302020302020302020302020302020302020302020302020300A2020202D302E373134352020202D302E3230363320202020302E30303030204F202020302020302020302020302020302020302020302020302020302020302020302020300A2020312020322020312020302020202020200A2020312020332020312020302020202020200A4D2020454E44
Contributor: TAJIMA S, GUNMA COLLEGE OF TECHNOLOGY
InstType: EI
InstName: HITACHI RMU-7M
IoniMethod: _ENERGY 70 eV
IonPolarity: pos
Date: 2010-10-09 19:48:36+02:00
Num Peaks: 15
14 26 15 50 19 39 26 49 27 180 28 55 29 119 30 51 31 999 32 10 
42 30 43 85 45 496 46 182 47 14 
