Name: MassBank: JP002038
MW: 140
Formula: C6H8N2O2
Synonym: MassBank: JP002038
Synonym: 2,5-DIMETHOXYPYRIMIDINE
Structure: 322C352D44494D4554484F5859505952494D4944494E452E6D6F6C0A20204368656D447261773132323130393031333032440A2031302031302020302020302020302020302020302020302020302020303939392056323030300A2020202D302E383235302020202D302E3030303020202020302E303030302043202020302020302020302020302020302020302020302020302020302020302020302020300A2020202D302E3431323520202020302E3731343520202020302E30303030204E202020302020302020302020302020302020302020302020302020302020302020302020300A20202020302E3431323520202020302E3731343520202020302E303030302043202020302020302020302020302020302020302020302020302020302020302020302020300A20202020302E383235302020202D302E3030303020202020302E303030302043202020302020302020302020302020302020302020302020302020302020302020302020300A20202020302E343132352020202D302E3731343520202020302E303030302043202020302020302020302020302020302020302020302020302020302020302020302020300A2020202D302E343132352020202D302E3731343520202020302E30303030204E202020302020302020302020302020302020302020302020302020302020302020302020300A20202020312E363530302020202D302E3030303020202020302E30303030204F202020302020302020302020302020302020302020302020302020302020302020302020300A20202020322E303632352020202D302E3731343520202020302E303030302043202020302020302020302020302020302020302020302020302020302020302020302020300A2020202D312E363530302020202D302E3030303020202020302E30303030204F202020302020302020302020302020302020302020302020302020302020302020302020300A2020202D322E3036323520202020302E3731343520202020302E303030302043202020302020302020302020302020302020302020302020302020302020302020302020300A2020312020322020312020302020202020200A2020322020332020322020302020202020200A2020332020342020312020302020202020200A2020342020352020322020302020202020200A2020352020362020312020302020202020200A2020312020362020322020302020202020200A2020372020382020312020302020202020200A2020342020372020312020302020202020200A2020392031302020312020302020202020200A2020312020392020312020302020202020200A4D2020454E44
Contributor: SASAKI S, TOYOHASHI UNIV. OF TECH.
InstType: EI
InstName: MS-902
IoniMethod: _ENERGY 70 eV
IonPolarity: pos
Date: 2010-10-09 19:48:36+02:00
Num Peaks: 39
38 22 39 73 40 33 41 3 42 169 43 31 44 20 51 2 52 34 53 139 
54 72 55 23 56 190 57 21 65 10 67 6 68 39 69 13 70 217 77 1 
79 15 80 21 81 31 82 3 83 181 96 15 97 91 98 5 109 31 110 573 
111 518 112 4 118 10 124 18 125 232 126 2 139 580 140 999 141 79 
