Name: 1-(CHLOROMETHYL)NAPHTHALENE
CAS: 86-52-2
MW: 176
Formula: C11H9Cl
Synonym: MassBank: JP006283
Synonym: 1-(CHLOROMETHYL)NAPHTHALENE
Structure: 312D2843484C4F524F4D455448594C294E4150485448414C454E452E6D6F6C0A20204368656D447261773131313730393139353132440A2031322031332020302020302020302020302020302020302020302020303939392056323030300A2020202D302E363138382020202D302E3335373220202020302E303030302043202020302020302020302020302020302020302020302020302020302020302020302020300A2020202D312E3033313320202020302E3335373220202020302E303030302043202020302020302020302020302020302020302020302020302020302020302020302020300A2020202D302E3631383820202020312E3037313720202020302E303030302043202020302020302020302020302020302020302020302020302020302020302020302020300A20202020302E3230363220202020312E3037313720202020302E303030302043202020302020302020302020302020302020302020302020302020302020302020302020300A20202020302E3631383720202020302E3335373220202020302E303030302043202020302020302020302020302020302020302020302020302020302020302020302020300A20202020312E3434333720202020302E3335373220202020302E303030302043202020302020302020302020302020302020302020302020302020302020302020302020300A20202020312E383536322020202D302E3335373220202020302E303030302043202020302020302020302020302020302020302020302020302020302020302020302020300A20202020312E343433372020202D312E3037313720202020302E303030302043202020302020302020302020302020302020302020302020302020302020302020302020300A20202020302E363138372020202D312E3037313720202020302E303030302043202020302020302020302020302020302020302020302020302020302020302020302020300A20202020302E323036322020202D302E3335373220202020302E303030302043202020302020302020302020302020302020302020302020302020302020302020302020300A2020202D312E303331332020202D312E3037313720202020302E303030302043202020302020302020302020302020302020302020302020302020302020302020302020300A2020202D312E383536322020202D312E3037313720202020302E3030303020436C2020302020302020302020302020302020302020302020302020302020302020302020300A2020312020322020312020302020202020200A2020322020332020322020302020202020200A2020332020342020312020302020202020200A2020342020352020322020302020202020200A2020352020362020312020302020202020200A2020362020372020322020302020202020200A2020372020382020312020302020202020200A2020382020392020322020302020202020200A2020392031302020312020302020202020200A2020312031302020322020302020202020200A2020352031302020312020302020202020200A2031312031322020312020302020202020200A2020312031312020312020302020202020200A4D2020454E44
Contributor: MASS SPECTROSCOPY SOC. OF JAPAN (MSSJ)
InstType: EI
InstName: HITACHI M-80
IoniMethod: _ENERGY 70 eV
IonPolarity: pos
Date: 2010-10-09 19:48:36+02:00
Num Peaks: 53
28 13 29 24 31 32 32 24 35 7 36 4 37 7 38 18 39 45 50 32 
51 34 52 7 57 27 61 10 62 42 63 75 64 9 65 13 69 21 70 30 
74 34 75 25 76 14 77 8 85 7 86 21 87 31 88 22 89 38 91 10 
98 9 99 6 102 11 113 31 114 19 115 255 116 24 126 8 127 5 128 7 
137 6 138 10 139 172 140 44 141 999 142 133 143 8 149 9 175 10 176 240 
177 32 178 77 179 9 
