Name: METHYL BUTYRATE
MW: 102
Formula: C5H10O2
Synonym: MassBank: JP008847
Synonym: METHYL BUTYRATE
Synonym: BUTANOIC ACID METHYL ESTER
Structure: 310A31380A4D455448594C2042555459524154452E6D6F6C0A20204368656D447261773039303631303032303132440A2020372020362020302020302020302020302020302020302020302020303939392056323030300A2020202D302E3230363320202020302E3030303020202020302E303030302043202020302020302020302020302020302020302020302020302020302020302020302020300A20202020302E323036332020202D302E3731343520202020302E303030302043202020302020302020302020302020302020302020302020302020302020302020302020300A20202020312E303331332020202D302E3731343520202020302E303030302043202020302020302020302020302020302020302020302020302020302020302020302020300A20202020312E3434333820202020302E3030303020202020302E303030302043202020302020302020302020302020302020302020302020302020302020302020302020300A20202020302E3230363320202020302E3731343520202020302E30303030204F202020302020302020302020302020302020302020302020302020302020302020302020300A2020202D312E3033313320202020302E3030303020202020302E30303030204F202020302020302020302020302020302020302020302020302020302020302020302020300A2020202D312E343433382020202D302E3731343520202020302E303030302043202020302020302020302020302020302020302020302020302020302020302020302020300A2020312020322020312020302020202020200A2020322020332020312020302020202020200A2020332020342020312020302020202020200A2020312020352020322020302020202020200A2020312020362020312020302020202020200A2020362020372020312020302020202020200A4D2020454E44
Contributor: TAJIMA S, GUNMA COLLEGE OF TECHNOLOGY
InstType: EI
InstName: HITACHI RMU-7M
IoniMethod: _ENERGY 70 eV
IonPolarity: pos
Date: 2010-10-09 19:48:36+02:00
Num Peaks: 29
15 167 26 24 27 226 28 36 29 76 31 35 33 13 38 17 39 118 40 20 
41 291 42 143 43 999 44 50 45 37 55 88 57 11 59 243 69 17 70 11 
71 652 72 30 74 819 75 30 77 10 87 202 88 10 101 10 102 19 
