Name: MassBank: JP005661
MW: 244
Formula: C17H24O
Synonym: MassBank: JP005661
Synonym: 4-ACETYL-6-TERT-BUTYL-1,1-DIMETHYLINDANE
Structure: 342D41434554594C2D362D544552542D425554594C2D312C312D44494D455448594C494E44414E452E6D6F6C0A20204368656D447261773033323531303034313732440A2031382031392020302020302020302020302020302020302020302020303939392056323030300A20202020312E343634302020202D302E3932393020202020302E303030302043202020302020302020302020302020302020302020302020302020302020302020302020300A20202020312E393438392020202D302E3236313520202020302E303030302043202020302020302020302020302020302020302020302020302020302020302020302020300A20202020312E3436343020202020302E3430353920202020302E303030302043202020302020302020302020302020302020302020302020302020302020302020302020300A20202020302E3637393420202020302E3135313020202020302E303030302043202020302020302020302020302020302020302020302020302020302020302020302020300A2020202D302E3033353120202020302E3536333520202020302E303030302043202020302020302020302020302020302020302020302020302020302020302020302020300A2020202D302E3734393520202020302E3135313020202020302E303030302043202020302020302020302020302020302020302020302020302020302020302020302020300A2020202D302E373439352020202D302E3637343020202020302E303030302043202020302020302020302020302020302020302020302020302020302020302020302020300A2020202D302E303335312020202D312E3038363520202020302E303030302043202020302020302020302020302020302020302020302020302020302020302020302020300A20202020302E363739342020202D302E3637343020202020302E303030302043202020302020302020302020302020302020302020302020302020302020302020302020300A20202020312E313238352020202D312E3638323620202020302E303030302043202020302020302020302020302020302020302020302020302020302020302020302020300A20202020322E313738352020202D312E3334313520202020302E303030302043202020302020302020302020302020302020302020302020302020302020302020302020300A2020202D312E343634302020202D312E3038363520202020302E303030302043202020302020302020302020302020302020302020302020302020302020302020302020300A2020202D312E303531352020202D312E3830313020202020302E303030302043202020302020302020302020302020302020302020302020302020302020302020302020300A2020202D312E383736352020202D302E3337323020202020302E303030302043202020302020302020302020302020302020302020302020302020302020302020302020300A2020202D322E313738352020202D312E3439393020202020302E303030302043202020302020302020302020302020302020302020302020302020302020302020302020300A2020202D302E3033353120202020312E3338383520202020302E303030302043202020302020302020302020302020302020302020302020302020302020302020302020300A20202020302E3637393420202020312E3830313020202020302E30303030204F202020302020302020302020302020302020302020302020302020302020302020302020300A2020202D302E3734393520202020312E3830313020202020302E303030302043202020302020302020302020302020302020302020302020302020302020302020302020300A2020312020322020312020302020202020200A2020322020332020312020302020202020200A2020332020342020312020302020202020200A2020342020352020312020302020202020200A2020352020362020322020302020202020200A2020362020372020312020302020202020200A2020372020382020322020302020202020200A2020382020392020312020302020202020200A2020312020392020312020302020202020200A2020342020392020322020302020202020200A2020312031302020312020312020202020200A2020312031312020312020362020202020200A2031322031332020312020302020202020200A2031322031352020312020302020202020200A2031322031342020312020302020202020200A2020372031322020312020302020202020200A2031362031372020322020302020202020200A2031362031382020312020302020202020200A2020352031362020312020302020202020200A4D2020454E44
Contributor: HASHIMOTO K, KYOTO COLLEGE OF PHARMACY
InstType: EI
InstName: HITACHI M-80
IoniMethod: _ENERGY 20 eV
IonPolarity: pos
Date: 2010-10-09 19:48:36+02:00
Num Peaks: 28
29 11 41 22 43 999 44 19 55 10 57 392 58 10 104 23 105 10 117 10 
129 10 131 184 143 10 145 38 171 42 172 11 173 185 174 39 185 10 186 10 
187 51 188 10 201 20 215 127 229 643 230 143 244 378 245 67 
