Name: ISOBUTRIC ACID
MW: 88
Formula: C4H8O2
Synonym: MassBank: JP009178
Synonym: ISOBUTRIC ACID
Structure: 310A31360A303636315F49534F42555452494320414349442E6D6F6C0A20204368656D447261773130313931303232323232440A2020362020352020302020302020302020302020302020302020302020303939392056323030300A20202020302E3230363220202020302E3335373220202020302E303030302043202020302020302020302020302020302020302020302020302020302020302020302020300A2020202D302E323036322020202D302E3335373220202020302E303030302043202020302020302020302020302020302020302020302020302020302020302020302020300A20202020302E323036322020202D312E3037313720202020302E303030302043202020302020302020302020302020302020302020302020302020302020302020302020300A2020202D312E303331332020202D302E3335373220202020302E303030302043202020302020302020302020302020302020302020302020302020302020302020302020300A2020202D302E3230363220202020312E3037313720202020302E30303030204F202020302020302020302020302020302020302020302020302020302020302020302020300A20202020312E3033313320202020302E3335373220202020302E30303030204F202020302020302020302020302020302020302020302020302020302020302020302020300A2020312020322020312020302020202020200A2020322020332020312020302020202020200A2020322020342020312020302020202020200A2020312020352020322020302020202020200A2020312020362020312020302020202020200A4D2020454E44
Contributor: SODA AROMATIC CO., LTD.
InstType: EI
InstName: HITACHI M-80B
IoniMethod: _ENERGY 70 eV
IonPolarity: pos
Date: 2010-10-09 19:48:36+02:00
Num Peaks: 20
15 29 26 34 27 337 28 27 29 48 31 14 37 16 38 28 39 146 40 21 
41 463 42 88 43 999 44 30 45 104 55 41 60 14 71 21 73 231 88 70 
