Name: METHYL 4-METHYL-3-DECENOATE
MW: 198
Formula: C12H22O2
Synonym: MassBank: JP001130
Synonym: METHYL 4-METHYL-3-DECENOATE
Structure: 4D455448594C20342D4D455448594C2D332D444543454E4F4154452E6D6F6C0A20204368656D447261773038313131303233353932440A2031342031332020302020302020302020302020302020302020302020303939392056323030300A20202020322E3638313220202020302E3030303020202020302E303030302043202020302020302020302020302020302020302020302020302020302020302020302020300A20202020312E3835363220202020302E3030303020202020302E303030302043202020302020302020302020302020302020302020302020302020302020302020302020300A20202020312E343433372020202D302E3731343520202020302E303030302043202020302020302020302020302020302020302020302020302020302020302020302020300A20202020302E363138372020202D302E3731343520202020302E303030302043202020302020302020302020302020302020302020302020302020302020302020302020300A20202020302E323036322020202D312E3432383920202020302E303030302043202020302020302020302020302020302020302020302020302020302020302020302020300A2020202D302E363138382020202D312E3432383920202020302E303030302043202020302020302020302020302020302020302020302020302020302020302020302020300A2020202D312E303331332020202D302E3731343520202020302E303030302043202020302020302020302020302020302020302020302020302020302020302020302020300A2020202D312E383536332020202D302E3731343520202020302E303030302043202020302020302020302020302020302020302020302020302020302020302020302020300A2020202D322E3236383820202020302E3030303020202020302E303030302043202020302020302020302020302020302020302020302020302020302020302020302020300A2020202D332E3039333820202020302E3030303020202020302E303030302043202020302020302020302020302020302020302020302020302020302020302020302020300A20202020332E303933382020202D302E3731343520202020302E30303030204F202020302020302020302020302020302020302020302020302020302020302020302020300A20202020332E3039333820202020302E3731343520202020302E30303030204F202020302020302020302020302020302020302020302020302020302020302020302020300A20202020302E3230363220202020302E3030303020202020302E303030302043202020302020302020302020302020302020302020302020302020302020302020302020300A20202020322E3638313220202020312E3432383920202020302E303030302043202020302020302020302020302020302020302020302020302020302020302020302020300A2020312020322020312020302020202020200A2020322020332020312020302020202020200A2020332020342020322020302020202020200A2020342020352020312020302020202020200A2020352020362020312020302020202020200A2020362020372020312020302020202020200A2020372020382020312020302020202020200A2020382020392020312020302020202020200A2020392031302020312020302020202020200A2020312031312020322020302020202020200A2020312031322020312020302020202020200A2020342031332020312020302020202020200A2031322031342020312020302020202020200A4D2020454E44
Contributor: NAKAYAMA M, MASS SPECTROSCOPY SOC. OF JAPAN (MSSJ)
InstType: EI
InstName: HITACHI RMU-6L
IoniMethod: _ENERGY 80 eV
IonPolarity: pos
Date: 2010-10-09 19:48:36+02:00
Num Peaks: 103
26 30 27 50 28 610 29 490 30 20 31 20 32 140 33 10 37 10 38 20 
39 340 40 100 41 920 42 140 43 440 44 20 45 40 50 40 51 70 52 60 
53 280 54 60 55 980 56 90 57 110 58 10 59 290 60 10 61 10 62 10 
63 20 65 60 66 40 67 400 68 730 69 999 70 90 71 50 72 20 73 60 
74 210 75 30 76 10 77 70 78 90 79 90 80 30 81 430 82 140 83 280 
84 30 85 170 86 50 87 80 88 20 89 10 91 20 92 10 93 20 94 10 
95 190 96 380 97 120 98 50 99 120 100 10 101 10 105 10 107 10 108 10 
109 130 110 170 111 60 112 10 113 30 114 20 115 60 116 10 121 10 122 20 
123 30 124 180 125 60 126 10 127 40 128 240 129 40 130 10 133 10 137 20 
138 40 139 70 140 10 141 50 142 20 143 10 148 10 151 10 155 20 166 30 
164 10 198 70 199 20 
