Name: 3-HYDROXYTETRAHYDROFURAN
MW: 88
Formula: C4H8O2
Synonym: MassBank: JP008952
Synonym: 3-HYDROXYTETRAHYDROFURAN
Structure: 310A31370A332D485944524F58595445545241485944524F465552414E2E6D6F6C0A20204368656D447261773032323231303231343132440A2020362020362020302020302020302020302020302020302020302020303939392056323030300A20202020312E303437332020202D302E3431323520202020302E30303030204F202020302020302020302020302020302020302020302020302020302020302020302020300A20202020302E323632372020202D302E3636373420202020302E303030302043202020302020302020302020302020302020302020302020302020302020302020302020300A2020202D302E323232332020202D302E3030303020202020302E303030302043202020302020302020302020302020302020302020302020302020302020302020302020300A20202020302E3236323720202020302E3636373420202020302E303030302043202020302020302020302020302020302020302020302020302020302020302020302020300A20202020312E3034373320202020302E3431323520202020302E303030302043202020302020302020302020302020302020302020302020302020302020302020302020300A2020202D312E303437332020202D302E3030303020202020302E30303030204F202020302020302020302020302020302020302020302020302020302020302020302020300A2020312020322020312020302020202020200A2020322020332020312020302020202020200A2020332020342020312020302020202020200A2020342020352020312020302020202020200A2020312020352020312020302020202020200A2020332020362020312020302020202020200A4D2020454E44
Contributor: YAMAMOTO M, DEP. CHEMISTRY, FAC. SCIENCE, NARA WOMEN'S UNIV.
InstType: EI
InstName: HITACHI RMU-6M
IoniMethod: _ENERGY 70 eV
IonPolarity: pos
Date: 2010-10-09 19:48:36+02:00
Num Peaks: 32
14 29 15 96 26 59 27 20 28 209 29 317 30 216 31 57 32 96 33 15 
37 18 38 3 39 165 40 102 41 155 42 9 43 249 44 163 45 52 55 2 
56 28 57 999 58 761 59 5 60 48 61 10 69 17 70 17 71 19 87 16 
88 145 89 10 
