Name: MassBank: JP005138
MW: 376
Formula: C20H21ClO5
Synonym: MassBank: JP005138
Synonym: 1-ACETOXY-3-(2-CHLORO-3,4-DIMETHOXYPHENYL)-4-PHENYL-2-BUTANONE
Structure: 312D414345544F58592D332D28322D43484C4F524F2D332C342D44494D4554484F58595048454E594C292D342D5048454E594C2D322D425554414E4F4E452E6D6F6C0A20204368656D447261773131313730393230353532440A2032362032372020302020302020302020302020302020302020302020303939392056323030300A20202020312E3635303020202020302E3335373220202020302E303030302043202020302020302020302020302020302020302020302020302020302020302020302020300A20202020302E3832353020202020302E3335373220202020302E303030302043202020302020302020302020302020302020302020302020302020302020302020302020300A20202020302E343132352020202D302E3335373220202020302E303030302043202020302020302020302020302020302020302020302020302020302020302020302020300A20202020302E383235302020202D312E3037313720202020302E303030302043202020302020302020302020302020302020302020302020302020302020302020302020300A20202020302E3431323520202020312E3037313720202020302E30303030204F202020302020302020302020302020302020302020302020302020302020302020302020300A20202020312E363530302020202D312E3037313720202020302E303030302043202020302020302020302020302020302020302020302020302020302020302020302020300A20202020322E303632352020202D312E3738363220202020302E303030302043202020302020302020302020302020302020302020302020302020302020302020302020300A20202020322E383837352020202D312E3738363220202020302E303030302043202020302020302020302020302020302020302020302020302020302020302020302020300A20202020332E333030302020202D312E3037313720202020302E303030302043202020302020302020302020302020302020302020302020302020302020302020302020300A20202020322E383837352020202D302E3335373220202020302E303030302043202020302020302020302020302020302020302020302020302020302020302020302020300A20202020322E303632352020202D302E3335373220202020302E303030302043202020302020302020302020302020302020302020302020302020302020302020302020300A2020202D302E343132352020202D302E3335373220202020302E303030302043202020302020302020302020302020302020302020302020302020302020302020302020300A2020202D302E383235302020202D312E3037313720202020302E303030302043202020302020302020302020302020302020302020302020302020302020302020302020300A2020202D312E363530302020202D312E3037313720202020302E303030302043202020302020302020302020302020302020302020302020302020302020302020302020300A2020202D322E303632352020202D302E3335373220202020302E303030302043202020302020302020302020302020302020302020302020302020302020302020302020300A2020202D312E3635303020202020302E3335373220202020302E303030302043202020302020302020302020302020302020302020302020302020302020302020302020300A2020202D302E3832353020202020302E3335373220202020302E303030302043202020302020302020302020302020302020302020302020302020302020302020302020300A2020202D322E383837352020202D302E3335373220202020302E30303030204F202020302020302020302020302020302020302020302020302020302020302020302020300A2020202D332E3330303020202020302E3335373220202020302E303030302043202020302020302020302020302020302020302020302020302020302020302020302020300A2020202D322E303632352020202D312E3738363220202020302E30303030204F202020302020302020302020302020302020302020302020302020302020302020302020300A2020202D322E383837352020202D312E3738363220202020302E303030302043202020302020302020302020302020302020302020302020302020302020302020302020300A2020202D302E343132352020202D312E3738363220202020302E3030303020436C2020302020302020302020302020302020302020302020302020302020302020302020300A20202020322E3036323520202020312E3037313720202020302E30303030204F202020302020302020302020302020302020302020302020302020302020302020302020300A20202020322E3838373520202020312E3037313720202020302E303030302043202020302020302020302020302020302020302020302020302020302020302020302020300A20202020332E3330303020202020302E3335373220202020302E30303030204F202020302020302020302020302020302020302020302020302020302020302020302020300A20202020332E3330303020202020312E3738363220202020302E303030302043202020302020302020302020302020302020302020302020302020302020302020302020300A2020312020322020312020302020202020200A2020322020332020312020302020202020200A2020332020342020312020302020202020200A2020322020352020322020302020202020200A2020362020372020312020302020202020200A2020372020382020322020302020202020200A2020382020392020312020302020202020200A2020392031302020322020302020202020200A2031302031312020312020302020202020200A2020362031312020322020302020202020200A2020342020362020312020302020202020200A2031322031332020312020302020202020200A2031332031342020322020302020202020200A2031342031352020312020302020202020200A2031352031362020322020302020202020200A2031362031372020312020302020202020200A2031322031372020322020302020202020200A2031382031392020312020302020202020200A2031352031382020312020302020202020200A2032302032312020312020302020202020200A2031342032302020312020302020202020200A2031332032322020312020302020202020200A2020332031322020312020302020202020200A2032342032352020322020302020202020200A2032342032362020312020302020202020200A2032332032342020312020302020202020200A2020312032332020312020302020202020200A4D2020454E44
Contributor: HAYASHI A, FAC. OF SCIENCE AND TECHNOLOGY, KINKI UNIV.
InstType: EI
InstName: JEOL JMS-HX-100
IoniMethod: _ENERGY 70 eV
IonPolarity: pos
Date: 2010-10-09 19:48:36+02:00
Num Peaks: 110
39 26 41 26 42 15 43 999 45 26 50 10 51 32 55 40 57 19 60 12 
63 34 65 61 71 10 73 62 75 21 76 21 77 63 78 15 81 12 89 30 
91 285 92 27 97 12 101 59 102 18 103 63 104 15 105 37 113 12 115 27 
117 29 119 23 125 13 126 12 127 17 128 14 129 20 139 35 141 22 147 11 
149 34 150 10 151 28 152 91 153 71 154 25 155 15 163 13 164 14 165 125 
166 40 167 23 169 16 171 12 176 14 177 24 178 44 179 49 180 18 181 39 
182 22 183 13 185 79 186 10 187 26 191 11 192 24 193 27 194 26 195 22 
196 14 197 43 198 18 199 30 200 13 201 11 207 17 208 45 209 41 210 14 
211 11 212 15 215 50 217 20 224 31 225 74 226 15 227 32 228 18 229 13 
239 49 240 288 241 54 243 12 244 21 250 27 260 31 262 11 274 15 275 869 
276 177 277 311 278 57 285 122 286 18 287 43 376 311 377 72 378 111 379 24 
