Name: N-ACETYL-GLYCYL-GLYCYL-ALANINE METHYL ESTER
MW: 259
Formula: C10H17N3O5
Synonym: MassBank: JP000296
Synonym: N-ACETYL-GLYCYL-GLYCYL-ALANINE METHYL ESTER
Structure: 303132315F4E2D41434554594C2D474C5943594C2D474C5943594C2D414C414E494E45204D455448594C2045535445522E6D6F6C0A20204368656D447261773039303331303137353632440A2031392031382020302020302020302020302020302020302020302020303939392056323030300A2020202D322E383537382020202D302E3030303020202020302E303030302043202020302020302020302020302020302020302020302020302020302020302020302020300A2020202D312E343238392020202D302E3030303020202020302E30303030204E202020302020302020302020302020302020302020302020302020302020302020302020300A2020202D322E313433332020202D302E3431323520202020302E303030302043202020302020302020302020302020302020302020302020302020302020302020302020300A2020202D322E313433332020202D312E3233373520202020302E303030302043202020302020302020302020302020302020302020302020302020302020302020302020300A2020202D322E3835373820202020302E3832353020202020302E30303030204F202020302020302020302020302020302020302020302020302020302020302020302020300A2020202D332E353732332020202D302E3431323520202020302E30303030204F202020302020302020302020302020302020302020302020302020302020302020302020300A2020202D302E373134352020202D302E3431323520202020302E303030302043202020302020302020302020302020302020302020302020302020302020302020302020300A20202020302E373134352020202D302E3431323520202020302E30303030204E202020302020302020302020302020302020302020302020302020302020302020302020300A20202020302E303030302020202D302E3030303020202020302E303030302043202020302020302020302020302020302020302020302020302020302020302020302020300A2020202D302E373134352020202D312E3233373520202020302E30303030204F202020302020302020302020302020302020302020302020302020302020302020302020300A20202020312E343238392020202D302E3030303020202020302E303030302043202020302020302020302020302020302020302020302020302020302020302020302020300A20202020322E3134333320202020312E3233373520202020302E30303030204E202020302020302020302020302020302020302020302020302020302020302020302020300A20202020312E3432383920202020302E3832353020202020302E303030302043202020302020302020302020302020302020302020302020302020302020302020302020300A20202020322E313433332020202D302E3431323520202020302E30303030204F202020302020302020302020302020302020302020302020302020302020302020302020300A20202020322E3835373820202020302E3832353020202020302E303030302043202020302020302020302020302020302020302020302020302020302020302020302020300A20202020322E383537382020202D302E3030303020202020302E30303030204F202020302020302020302020302020302020302020302020302020302020302020302020300A20202020332E3537323320202020312E3233373520202020302E303030302043202020302020302020302020302020302020302020302020302020302020302020302020300A2020202D332E353732332020202D312E3233373520202020302E303030302043202020302020302020302020302020302020302020302020302020302020302020302020300A2020202D322E383537382020202D302E3832353020202020302E303030302048202020302020302020302020302020302020302020302020302020302020302020302020300A2020332020322020312020312020202020200A2020312020332020312020302020202020200A2020332020342020312020302020202020200A2020312020352020322020302020202020200A2020312020362020312020302020202020200A2020382020392020312020302020202020200A2020372020392020312020302020202020200A2020372031302020322020302020202020200A2031322031332020312020302020202020200A2031312031332020312020302020202020200A2031312031342020322020302020202020200A2020382031312020312020302020202020200A2020322020372020312020302020202020200A2031352031362020322020302020202020200A2031352031372020312020302020202020200A2031322031352020312020302020202020200A2020362031382020312020302020202020200A2020332031392020312020312020202020200A4D2020454E44
Contributor: YAMAMOTO M, DEP. CHEMISTRY, FAC. SCIENCE, NARA WOMEN'S UNIV.
InstType: EI
InstName: HITACHI RMU-6M
IoniMethod: _ENERGY 70 eV
IonPolarity: pos
Date: 2010-10-09 19:48:36+02:00
Num Peaks: 53
14 11 15 158 27 30 28 28 29 49 30 999 31 58 32 3 40 10 41 38 
42 98 43 35 44 937 45 73 54 10 55 2 56 68 57 58 58 42 59 6 
60 52 69 12 70 47 71 5 72 299 73 285 74 17 83 1 85 42 86 32 
87 33 88 9 99 46 100 500 101 41 102 5 104 56 113 22 114 18 127 17 
128 21 129 70 130 254 131 2 145 33 155 35 156 10 157 14 158 13 187 56 
200 405 201 4 259 11 
