Name: MassBank: JP004390
MW: 186
Formula: C12H14N2
Synonym: MassBank: JP004390
Synonym: 3-METHYL-1,2,3,4-TETRAHYDRO-GAMMA-CARBOLINE
Structure: 332D4D455448594C2D312C322C332C342D5445545241485944524F2D47414D4D412D434152424F4C494E452E6D6F6C0A20204368656D447261773032323231303233313632440A2031342031362020302020302020302020302020302020302020302020303939392056323030300A2020202D312E3537303020202020302E3037313320202020302E30303030204E202020302020302020302020302020302020302020302020302020302020302020302020300A2020202D312E353730302020202D302E3735333720202020302E303030302043202020302020302020302020302020302020302020302020302020302020302020302020300A2020202D302E383535362020202D312E3136363220202020302E303030302043202020302020302020302020302020302020302020302020302020302020302020302020300A2020202D302E313431312020202D302E3735333720202020302E303030302043202020302020302020302020302020302020302020302020302020302020302020302020300A2020202D302E3134313120202020302E3037313320202020302E303030302043202020302020302020302020302020302020302020302020302020302020302020302020300A2020202D302E3835353620202020302E3438333820202020302E303030302043202020302020302020302020302020302020302020302020302020302020302020302020300A20202020302E363433352020202D312E3030383620202020302E30303030204E202020302020302020302020302020302020302020302020302020302020302020302020300A20202020312E313238352020202D302E3334313220202020302E303030302043202020302020302020302020302020302020302020302020302020302020302020302020300A20202020302E3634333520202020302E3332363320202020302E303030302043202020302020302020302020302020302020302020302020302020302020302020302020300A20202020312E393438392020202D302E3235343920202020302E303030302043202020302020302020302020302020302020302020302020302020302020302020302020300A20202020322E3238343520202020302E3439383720202020302E303030302043202020302020302020302020302020302020302020302020302020302020302020302020300A20202020312E3739393620202020312E3136363220202020302E303030302043202020302020302020302020302020302020302020302020302020302020302020302020300A20202020302E3937393120202020312E3037393920202020302E303030302043202020302020302020302020302020302020302020302020302020302020302020302020300A2020202D322E323834352020202D312E3136363220202020302E303030302043202020302020302020302020302020302020302020302020302020302020302020302020300A2020312020322020312020302020202020200A2020322020332020312020302020202020200A2020332020342020312020302020202020200A2020342020352020322020302020202020200A2020352020362020312020302020202020200A2020362020312020312020302020202020200A2020342020372020312020302020202020200A2020372020382020312020302020202020200A2020382020392020322020302020202020200A2020392020352020312020302020202020200A2020382031302020312020302020202020200A2031302031312020322020302020202020200A2031312031322020312020302020202020200A2031322031332020322020302020202020200A2031332020392020312020302020202020200A2020322031342020312020302020202020200A4D2020454E44
Contributor: SASAKI S, TOYOHASHI UNIV. OF TECH.
InstType: EI
InstName: JEOL JMS-01-SG-2
IoniMethod: _ENERGY 75 eV
IonPolarity: pos
Date: 2010-10-09 19:48:36+02:00
Num Peaks: 25
42 48 44 12 51 12 63 1 77 21 89 12 91 10 92 3 93 60 102 19 
115 53 116 2 117 14 128 20 130 13 140 1 142 40 143 999 144 120 145 1 
168 12 169 21 183 20 185 4 186 267 
