Name: HEPTANAL ETHYLENE GLYCOL ACETAL
MW: 158
Formula: C9H18O2
Synonym: MassBank: JP008671
Synonym: HEPTANAL ETHYLENE GLYCOL ACETAL
Structure: 48455054414E414C20455448594C454E4520474C59434F4C2041434554414C2E6D6F6C0A20204368656D447261773038313131303230303732440A2031312031312020302020302020302020302020302020302020302020303939392056323030300A20202020312E333630322020202D302E3239353620202020302E303030302043202020302020302020302020302020302020302020302020302020302020302020302020300A20202020302E393437372020202D312E3031303120202020302E303030302043202020302020302020302020302020302020302020302020302020302020302020302020300A20202020302E313232372020202D312E3031303120202020302E303030302043202020302020302020302020302020302020302020302020302020302020302020302020300A2020202D302E323839382020202D302E3239353620202020302E303030302043202020302020302020302020302020302020302020302020302020302020302020302020300A2020202D312E313134382020202D302E3239353620202020302E303030302043202020302020302020302020302020302020302020302020302020302020302020302020300A2020202D312E3532373320202020302E3431383920202020302E303030302043202020302020302020302020302020302020302020302020302020302020302020302020300A2020202D322E3335323320202020302E3431383920202020302E303030302043202020302020302020302020302020302020302020302020302020302020302020302020300A20202020312E3032343720202020302E3435383120202020302E30303030204F202020302020302020302020302020302020302020302020302020302020302020302020300A20202020322E313830372020202D302E3230393420202020302E30303030204F202020302020302020302020302020302020302020302020302020302020302020302020300A20202020312E3633373820202020312E3031303120202020302E303030302043202020302020302020302020302020302020302020302020302020302020302020302020300A20202020322E3335323320202020302E3539373620202020302E303030302043202020302020302020302020302020302020302020302020302020302020302020302020300A2020312020322020312020302020202020200A2020322020332020312020302020202020200A2020332020342020312020302020202020200A2020342020352020312020302020202020200A2020352020362020312020302020202020200A2020362020372020312020302020202020200A2031302031312020312020302020202020200A2020382031302020312020302020202020200A2020392031312020312020302020202020200A2020312020382020312020302020202020200A2020312020392020312020302020202020200A4D2020454E44
Contributor: SODA AROMATIC CO., LTD.
InstType: EI
InstName: HITACHI M-80B
IoniMethod: _ENERGY 70 eV
IonPolarity: pos
Date: 2010-10-09 19:48:36+02:00
Num Peaks: 16
15 10 27 74 29 52 31 11 39 41 41 75 42 17 43 47 44 12 45 182 
55 20 57 11 71 12 73 999 74 35 157 12 
