Name: TRIMETHADIONE
MW: 143
Formula: C6H9NO3
Synonym: MassBank: JP007970
Synonym: TRIMETHADIONE
Synonym: 3,5,5-TRIMETHYL-2,4-OXAZOLIDINEDIONE
Structure: 5452494D4554484144494F4E452E6D6F6C0A20204368656D447261773032323231303030323332440A2031302031302020302020302020302020302020302020302020302020303939392056323030300A20202020302E313939352020202D302E3734323820202020302E30303030204F202020302020302020302020302020302020302020302020302020302020302020302020300A20202020302E363132302020202D302E3032383320202020302E303030302043202020302020302020302020302020302020302020302020302020302020302020302020300A20202020302E3036303020202020302E3538343820202020302E30303030204E202020302020302020302020302020302020302020302020302020302020302020302020300A2020202D302E3639333720202020302E3234393220202020302E303030302043202020302020302020302020302020302020302020302020302020302020302020302020300A2020202D302E363037352020202D302E3537313320202020302E303030302043202020302020302020302020302020302020302020302020302020302020302020302020300A20202020312E3433323520202020302E3035373920202020302E30303030204F202020302020302020302020302020302020302020302020302020302020302020302020300A2020202D312E3430383220202020302E3636313720202020302E30303030204F202020302020302020302020302020302020302020302020302020302020302020302020300A2020202D312E343332352020202D302E3537313320202020302E303030302043202020302020302020302020302020302020302020302020302020302020302020302020300A2020202D302E363933372020202D312E3339313720202020302E303030302043202020302020302020302020302020302020302020302020302020302020302020302020300A20202020302E3233313520202020312E3339313720202020302E303030302043202020302020302020302020302020302020302020302020302020302020302020302020300A2020312020322020312020302020202020200A2020322020332020312020302020202020200A2020332020342020312020302020202020200A2020342020352020312020302020202020200A2020312020352020312020302020202020200A2020322020362020322020302020202020200A2020342020372020322020302020202020200A2020352020382020312020362020202020200A2020352020392020312020312020202020200A2020332031302020312020302020202020200A4D2020454E44
Contributor: HAMAMATSU UNIV. SCHOOL OF MEDICINE
InstType: EI
InstName: JEOL JMS-D-300
IoniMethod: _ENERGY 70 eV
IonPolarity: pos
Date: 2010-10-09 19:48:36+02:00
Num Peaks: 13
56 68 57 50 58 898 59 245 69 10 70 62 100 45 115 22 127 13 128 319 
129 19 143 999 144 73 
