Name: 4-CHLORO-6-PHENYLPYRIMIDINE-1-OXIDE
MW: 206
Formula: C10H7ClN2O
Synonym: MassBank: JP004463
Synonym: 4-CHLORO-6-PHENYLPYRIMIDINE-1-OXIDE
Structure: 342D43484C4F524F2D362D5048454E594C505952494D4944494E452D312D4F584944452E6D6F6C0A20204368656D447261773033323531303130353432440A2031342031352020302020302020302020302020302020302020302020303939392056323030300A20202020302E373134352020202D312E3635303020202020302E303030302043202020302020302020302020302020302020302020302020302020302020302020302020300A20202020302E303030302020202D322E3036323520202020302E30303030204E202020302020302020302020302020302020302020302020302020302020302020302020300A2020202D302E373134352020202D312E3635303020202020302E303030302043202020302020302020302020302020302020302020302020302020302020302020302020300A2020202D302E373134352020202D302E3832353020202020302E303030302043202020302020302020302020302020302020302020302020302020302020302020302020300A20202020302E303030302020202D302E3431323520202020302E303030302043202020302020302020302020302020302020302020302020302020302020302020302020300A20202020302E373134352020202D302E3832353020202020302E30303030204E202020302020332020302020302020302020302020302020302020302020302020302020300A20202020312E343238392020202D302E3431323520202020302E30303030204F202020302020352020302020302020302020302020302020302020302020302020302020300A20202020302E3030303020202020302E3431323520202020302E303030302043202020302020302020302020302020302020302020302020302020302020302020302020300A2020202D302E3731343520202020302E3832353020202020302E303030302043202020302020302020302020302020302020302020302020302020302020302020302020300A2020202D302E3731343520202020312E3635303020202020302E303030302043202020302020302020302020302020302020302020302020302020302020302020302020300A20202020302E3030303020202020322E3036323520202020302E303030302043202020302020302020302020302020302020302020302020302020302020302020302020300A20202020302E3731343520202020312E3635303020202020302E303030302043202020302020302020302020302020302020302020302020302020302020302020302020300A20202020302E3731343520202020302E3832353020202020302E303030302043202020302020302020302020302020302020302020302020302020302020302020302020300A2020202D312E343238392020202D322E3036323520202020302E3030303020436C2020302020302020302020302020302020302020302020302020302020302020302020300A2020312020322020312020302020202020200A2020322020332020322020302020202020200A2020332020342020312020302020202020200A2020342020352020322020302020202020200A2020352020362020312020302020202020200A2020312020362020322020302020202020200A2020362020372020312020302020202020200A2020382020392020312020302020202020200A2020392031302020322020302020202020200A2031302031312020312020302020202020200A2031312031322020322020302020202020200A2031322031332020312020302020202020200A2020382031332020322020302020202020200A2020352020382020312020302020202020200A2020332031342020312020302020202020200A4D202043484720203220202036202020312020203720202D310A4D2020454E44
Contributor: SASAKI S, TOYOHASHI UNIV. OF TECH.
InstType: EI
InstName: MS-902
IoniMethod: _ENERGY 70 eV
IonPolarity: pos
Date: 2010-10-09 19:48:36+02:00
Num Peaks: 166
35 12 36 91 37 13 38 3 39 92 40 9 41 15 42 0 43 12 44 21 
45 6 47 3 48 11 49 14 50 261 50.5 1 51 244 51.5 4 52 58 53 1 
55 14 55.5 4 56 15 56.5 4 57 69 57.5 12 58 4 58.5 0 59 3 60 32 
61 28 61.5 0 62 77 63 158 63.5 6 64 5 65 35 66 6 67 8 68 1 
69 26 70 4 70.5 6 71 1 71.5 6 72 4 72.5 5 73 2 74 92 74.5 160 
75 123 76 15 76.5 5 77 471 77.5 7 78 6 79 6 81 11 81.5 10 82 1 
82.5 3 83 150 84 4 85 10 86 32 87 56 88 83 89 14 89.5 3 90 46 
91 24 92 1 93 5 94 4 94.5 6 95 2 95.5 4 96 7 97 16 98 1 
99 38 100 46 101 140 102 11 103 123 104 60 105 377 106 3 107 3 108 2 
109 8 110 1 111 7 112 6 113 131 114 21 115 67 116 246 117 50 118 1 
119 7 120 6 121 23 122 0 123 29 124 22 125 18 126 4 127 92 128 594 
129 76 130 1 131 9 135 3 136 7 137 0 138 7 139 16 140 28 141 3 
142 120 143 115 144 438 145 5 146 4 147 2 148 10 149 16 150 50 151 52 
152 413 153 4 154 132 155 938 156 123 157 1 161 2 162 15 163 30 164 1 
165 46 166 4 167 13 169 3 170 11 171 29 172 7 176 1 177 125 178 260 
179 106 180 9 181 24 189 39 190 719 191 10 192 250 193 28 194 2 204 0 
205 542 206 999 207 290 208 33 209 39 210 3 
