Name: MassBank: JP009532
MW: 96
Formula: C3H4N4
Synonym: MassBank: JP009532
Synonym: 2-AMINO-1,3,5-TRIAZINE
Structure: 310A31390A322D414D494E4F2D312C332C352D545249415A494E452E6D6F6C0A20204368656D447261773132323130393232303632440A2020372020372020302020302020302020302020302020302020302020303939392056323030300A20202020302E303030302020202D302E3731343520202020302E30303030204E202020302020302020302020302020302020302020302020302020302020302020302020300A2020202D302E3431323520202020302E3030303020202020302E303030302043202020302020302020302020302020302020302020302020302020302020302020302020300A20202020302E3030303020202020302E3731343520202020302E30303030204E202020302020302020302020302020302020302020302020302020302020302020302020300A20202020302E3832353020202020302E3731343520202020302E303030302043202020302020302020302020302020302020302020302020302020302020302020302020300A20202020312E323337352020202D302E3030303020202020302E30303030204E202020302020302020302020302020302020302020302020302020302020302020302020300A20202020302E383235302020202D302E3731343520202020302E303030302043202020302020302020302020302020302020302020302020302020302020302020302020300A2020202D312E3233373520202020302E3030303020202020302E30303030204E202020302020302020302020302020302020302020302020302020302020302020302020300A2020312020322020312020302020202020200A2020322020332020322020302020202020200A2020332020342020312020302020202020200A2020342020352020322020302020202020200A2020352020362020312020302020202020200A2020312020362020322020302020202020200A2020322020372020312020302020202020200A4D2020454E44
Contributor: NARA WOMEN'S UNIVERSITY
InstType: EI
InstName: HITACHI M-80
IoniMethod: _ENERGY 70 eV
IonPolarity: pos
Date: 2010-10-09 19:48:36+02:00
Num Peaks: 21
13 15 14 15 16 13 17 12 27 116 28 453 29 13 38 12 39 20 40 18 
41 111 42 601 43 407 53 98 54 79 55 10 67 12 68 91 69 117 96 999 
97 79 
