Name: MassBank: JP006649
MW: 325
Formula: C21H31N3
Synonym: MassBank: JP006649
Synonym: 2-(2-AMINO-2-METHYLPROPYL)-1-METHYL-3-(2,6,6-TRIMETHYL-1,2,3,6-TETRAHYDRO-4-PYRIDYL)INDOLE
Structure: 322D28322D414D494E4F2D322D4D455448594C50524F50594C292D312D4D455448594C2D332D28322C362C362D5452494D455448594C2D312C322C332C362D5445545241485944524F2D342D5059524944594C29494E444F4C452E6D6F6C0A20204368656D447261773132323130393133323332440A2032342032362020302020302020302020302020302020302020302020303939392056323030300A20202020302E3131313720202020312E3637323820202020302E30303030204E202020302020302020302020302020302020302020302020302020302020302020302020300A2020202D302E3337333320202020312E3030353420202020302E303030302043202020302020302020302020302020302020302020302020302020302020302020302020300A20202020302E3131313720202020302E3333383020202020302E303030302043202020302020302020302020302020302020302020302020302020302020302020302020300A20202020302E3839363320202020302E3539323920202020302E303030302043202020302020302020302020302020302020302020302020302020302020302020302020300A20202020312E3631303820202020302E3138303420202020302E303030302043202020302020302020302020302020302020302020302020302020302020302020302020300A20202020322E3332353220202020302E3539323920202020302E303030302043202020302020302020302020302020302020302020302020302020302020302020302020300A20202020322E3332353220202020312E3431373920202020302E303030302043202020302020302020302020302020302020302020302020302020302020302020302020300A20202020312E3631303820202020312E3833303420202020302E303030302043202020302020302020302020302020302020302020302020302020302020302020302020300A20202020302E3839363320202020312E3431373920202020302E303030302043202020302020302020302020302020302020302020302020302020302020302020302020300A20202020302E313533382020202D312E3834343420202020302E303030302043202020302020302020302020302020302020302020302020302020302020302020302020300A20202020302E343038382020202D312E3035393720202020302E303030302043202020302020302020302020302020302020302020302020302020302020302020302020300A2020202D302E313433332020202D302E3434363720202020302E303030302043202020302020302020302020302020302020302020302020302020302020302020302020300A2020202D302E393530322020202D302E3631383220202020302E303030302043202020302020302020302020302020302020302020302020302020302020302020302020300A2020202D312E323132322020202D312E3431353420202020302E303030302043202020302020302020302020302020302020302020302020302020302020302020302020300A2020202D302E363533322020202D322E3031353920202020302E30303030204E202020302020302020302020302020302020302020302020302020302020302020302020300A2020202D312E373133312020202D322E3035323920202020302E303030302043202020302020302020302020302020302020302020302020302020302020302020302020300A2020202D312E393236362020202D312E3030323920202020302E303030302043202020302020302020302020302020302020302020302020302020302020302020302020300A20202020302E373035392020202D322E3435373520202020302E303030302043202020302020302020302020302020302020302020302020302020302020302020302020300A2020202D302E3134333320202020322E3435373520202020302E303030302043202020302020302020302020302020302020302020302020302020302020302020302020300A2020202D312E3139383320202020312E3030353420202020302E303030302043202020302020302020302020302020302020302020302020302020302020302020302020300A2020202D312E3631303820202020312E3731393920202020302E303030302043202020302020302020302020302020302020302020302020302020302020302020302020300A2020202D302E3839363320202020322E3133323420202020302E303030302043202020302020302020302020302020302020302020302020302020302020302020302020300A2020202D322E3332353220202020312E3330373420202020302E303030302043202020302020302020302020302020302020302020302020302020302020302020302020300A2020202D322E3032333320202020322E3433343320202020302E30303030204E202020302020302020302020302020302020302020302020302020302020302020302020300A2020312020322020312020302020202020200A2020322020332020322020302020202020200A2020332020342020312020302020202020200A2020342020352020312020302020202020200A2020352020362020322020302020202020200A2020362020372020312020302020202020200A2020372020382020322020302020202020200A2020382020392020312020302020202020200A2020312020392020312020302020202020200A2020342020392020322020302020202020200A2031302031312020312020302020202020200A2031312031322020312020302020202020200A2031322031332020322020302020202020200A2031332031342020312020302020202020200A2031342031352020312020302020202020200A2031302031352020312020302020202020200A2031342031362020312020362020202020200A2031342031372020312020312020202020200A2031302031382020312020302020202020200A2020332031322020312020302020202020200A2020312031392020312020302020202020200A2032302032312020312020302020202020200A2032312032322020312020302020202020200A2032312032332020312020302020202020200A2032312032342020312020302020202020200A2020322032302020312020302020202020200A4D2020454E44
Contributor: SASAKI S, TOYOHASHI UNIV. OF TECH.
InstType: EI
InstName: JEOL JMS-01-SG-2
IoniMethod: _ENERGY 75 eV
IonPolarity: pos
Date: 2010-10-09 19:48:36+02:00
Num Peaks: 19
58 999 115 11 128 10 130 2 195 78 196 105 210 215 211 36 212 70 225 237 
226 57 237 15 252 31 253 251 254 58 267 7 268 333 269 69 325 43 
