Name: 3-METHYL-2-PENTANONE
MW: 100
Formula: C6H12O
Synonym: MassBank: JP006450
Synonym: 3-METHYL-2-PENTANONE
Structure: 310A31380A332D4D455448594C2D322D50454E54414E4F4E452E6D6F6C0A20204368656D447261773033323031303030313632440A2020372020362020302020302020302020302020302020302020302020303939392056323030300A2020202D302E3335373220202020312E3033313220202020302E303030302043202020302020302020302020302020302020302020302020302020302020302020302020300A2020202D302E3335373220202020302E3230363220202020302E303030302043202020302020302020302020302020302020302020302020302020302020302020302020300A20202020302E333537322020202D302E3230363320202020302E303030302043202020302020302020302020302020302020302020302020302020302020302020302020300A20202020312E3037313720202020302E3230363220202020302E303030302043202020302020302020302020302020302020302020302020302020302020302020302020300A20202020312E3037313720202020312E3033313320202020302E303030302043202020302020302020302020302020302020302020302020302020302020302020302020300A2020202D312E303731372020202D302E3230363320202020302E30303030204F202020302020302020302020302020302020302020302020302020302020302020302020300A20202020302E333537322020202D312E3033313320202020302E303030302043202020302020302020302020302020302020302020302020302020302020302020302020300A2020312020322020312020302020202020200A2020322020332020312020302020202020200A2020332020342020312020302020202020200A2020342020352020312020302020202020200A2020322020362020322020302020202020200A2020332020372020312020302020202020200A4D2020454E44
Contributor: HISAHIRO HAGIWARA, CHEMICAL RESEARCH INSTITUTE OF NON-AQUEOUSSOLUTIONS TOHOKU UNIV.
InstType: EI
InstName: HITACHI M-80B
IoniMethod: _ENERGY 70 eV
IonPolarity: pos
Date: 2010-10-09 19:48:36+02:00
Num Peaks: 22
15 47 26 16 27 118 28 39 29 225 38 10 39 98 41 300 42 36 43 999 
44 19 45 10 51 11 53 12 55 32 56 112 57 338 58 15 71 12 72 241 
85 46 100 83 
