Name: ISOCAUCALOL
MW: 254
Formula: C15H26O3
Synonym: MassBank: JP000327
Synonym: ISOCAUCALOL
Structure: 303133335F49534F43415543414C4F4C2E6D6F6C0A20204368656D447261773039303331303138313032440A2031392032302020302020302020302020302020302020302020302020303939392056323030300A2020202D302E3234343420202020302E3433363520202020302E303030302043202020302020302020302020302020302020302020302020302020302020302020302020300A2020202D302E323434342020202D302E3338383520202020302E303030302043202020302020302020302020302020302020302020302020302020302020302020302020300A20202020302E343030362020202D302E3930323820202020302E303030302043202020302020302020302020302020302020302020302020302020302020302020302020300A20202020312E323034392020202D302E3731393320202020302E303030302043202020302020302020302020302020302020302020302020302020302020302020302020300A20202020312E3536323820202020302E3032343020202020302E303030302043202020302020302020302020302020302020302020302020302020302020302020302020300A20202020312E3230343920202020302E3736373320202020302E303030302043202020302020302020302020302020302020302020302020302020302020302020302020300A20202020302E3430303620202020302E3935303920202020302E303030302043202020302020302020302020302020302020302020302020302020302020302020302020300A2020202D302E3935383920202020302E3834393020202020302E303030302043202020302020302020302020302020302020302020302020302020302020302020302020300A2020202D312E3637333420202020302E3433363520202020302E303030302043202020302020302020302020302020302020302020302020302020302020302020302020300A2020202D312E363733342020202D302E3338383520202020302E303030302043202020302020302020302020302020302020302020302020302020302020302020302020300A2020202D302E393538392020202D302E3830313020202020302E303030302043202020302020302020302020302020302020302020302020302020302020302020302020300A2020202D302E3835393220202020302E3330333420202020302E30303030204F202020302020302020302020302020302020302020302020302020302020302020302020300A2020202D322E3338373820202020302E3834393020202020302E303030302043202020302020302020302020302020302020302020302020302020302020302020302020300A2020202D302E3935383920202020312E3637343020202020302E30303030204F202020302020302020302020302020302020302020302020302020302020302020302020300A20202020312E3731393320202020312E3431323420202020302E303030302043202020302020302020302020302020302020302020302020302020302020302020302020300A20202020322E3338373820202020302E3032343020202020302E303030302048202020302020302020302020302020302020302020302020302020302020302020302020300A20202020312E373139332020202D312E3336343320202020302E30303030204F202020302020302020302020302020302020302020302020302020302020302020302020300A2020202D302E333232372020202D312E3239393620202020302E303030302043202020302020302020302020302020302020302020302020302020302020302020302020300A20202020302E363933362020202D312E3637343020202020302E303030302043202020302020302020302020302020302020302020302020302020302020302020302020300A2020322020332020312020302020202020200A2020332020342020312020302020202020200A2020342020352020312020302020202020200A2020352020362020322020302020202020200A2020362020372020312020302020202020200A2020372020312020312020302020202020200A2020312020382020312020302020202020200A2020382020392020312020302020202020200A2020392031302020312020302020202020200A2031302031312020312020302020202020200A2031312020322020312020302020202020200A2020392031322020312020302020202020200A2031322020322020312020302020202020200A2020392031332020312020302020202020200A2020382031342020312020302020202020200A2020362031352020312020302020202020200A2020352031362020312020302020202020200A2020342031372020312020302020202020200A2020332031382020312020312020202020200A2020332031392020312020362020202020200A4D2020454E44
Contributor: SASAKI S, TOYOHASHI UNIV. OF TECH.
InstType: EI
InstName: HITACHI RMU-6D
IoniMethod: _ENERGY 70 eV
IonPolarity: pos
Date: 2010-10-09 19:48:36+02:00
Num Peaks: 112
41 700 42 140 43 999 44 9 45 55 51 15 52 5 53 0 54 15 55 250 
56 90 57 12 58 20 59 20 60 5 62 0 63 1 65 20 66 10 67 7 
68 30 69 245 70 40 71 2 72 20 73 38 74 10 75 1 77 35 78 10 
79 45 80 3 81 140 82 63 83 170 84 4 85 70 86 20 87 25 88 0 
89 5 91 35 92 10 93 7 94 30 95 80 96 25 97 10 98 45 99 30 
101 85 102 1 105 15 107 60 108 65 109 3 110 180 111 85 112 13 113 2 
115 5 117 8 118 5 119 0 120 8 121 55 122 30 124 2 125 65 126 60 
127 115 128 2 129 8 130 3 131 3 132 1 133 10 134 30 135 25 136 3 
137 20 138 8 139 25 140 1 141 5 142 5 143 5 144 1 145 5 147 13 
148 5 149 2 151 10 152 8 153 20 154 3 155 7 159 5 160 10 161 0 
163 8 164 7 165 23 167 1 171 10 175 10 179 10 191 2 218 15 236 45 
237 10 254 10 
