Name: MassBank: JP004951
CAS: 5263-17-2
MW: 205
Formula: C8H5Cl3
Synonym: MassBank: JP004951
Synonym: 1,1-DICHLORO-2-(P-CHLOROPHENYL)ETHENE
Synonym: 4,BETA,BETA-TRICHLOROSTYRENE
Structure: 312C312D444943484C4F524F2D322D28502D43484C4F524F5048454E594C29455448454E452E6D6F6C0A20204368656D447261773130323330393033353232440A2031312031312020302020302020302020302020302020302020302020303939392056323030300A20202020302E3335373220202020312E3434333720202020302E303030302043202020302020302020302020302020302020302020302020302020302020302020302020300A2020202D302E3335373220202020312E3033313220202020302E303030302043202020302020302020302020302020302020302020302020302020302020302020302020300A2020202D302E3335373220202020302E3230363220202020302E303030302043202020302020302020302020302020302020302020302020302020302020302020302020300A20202020302E333537322020202D302E3230363320202020302E303030302043202020302020302020302020302020302020302020302020302020302020302020302020300A20202020302E333537322020202D312E3033313320202020302E303030302043202020302020302020302020302020302020302020302020302020302020302020302020300A2020202D302E333537322020202D312E3434333820202020302E303030302043202020302020302020302020302020302020302020302020302020302020302020302020300A2020202D312E303731372020202D312E3033313320202020302E303030302043202020302020302020302020302020302020302020302020302020302020302020302020300A2020202D312E303731372020202D302E3230363220202020302E303030302043202020302020302020302020302020302020302020302020302020302020302020302020300A2020202D302E333537322020202D322E3236383820202020302E3030303020436C2020302020302020302020302020302020302020302020302020302020302020302020300A20202020302E3335373220202020322E3236383820202020302E3030303020436C2020302020302020302020302020302020302020302020302020302020302020302020300A20202020312E3037313720202020312E3033313320202020302E3030303020436C2020302020302020302020302020302020302020302020302020302020302020302020300A2020312020322020322020302020202020200A2020332020342020312020302020202020200A2020342020352020322020302020202020200A2020352020362020312020302020202020200A2020362020372020322020302020202020200A2020372020382020312020302020202020200A2020332020382020322020302020202020200A2020362020392020312020302020202020200A2020322020332020312020302020202020200A2020312031302020312020302020202020200A2020312031312020312020302020202020200A4D2020454E44
Contributor: MASS SPECTROSCOPY SOC. OF JAPAN (MSSJ)
InstType: EI
InstName: JEOL JMS-D-3000
IoniMethod: _ENERGY 70 eV
IonPolarity: pos
Date: 2010-10-09 19:48:36+02:00
Num Peaks: 28
50 106 67 77 68 113 74 148 75 83 85 155 86 94 99 75 100 57 101 97 
103 68 104 65 135 112 136 444 137 66 138 138 146 89 148 56 170 73 171 262 
172 90 173 173 206 999 207 67 208 978 209 147 210 325 212 59 
