Name: MassBank: JP007964
MW: 216
Formula: C15H20O
Synonym: MassBank: JP007964
Synonym: 7-TERT-BUTYL-3,3-DIMETHYL-1-INDANONE
Structure: 372D544552542D425554594C2D332C332D44494D455448594C2D312D494E44414E4F4E452E6D6F6C0A20204368656D447261773035323431303137353132440A2031362031372020302020302020302020302020302020302020302020303939392056323030300A20202020302E3830343820202020302E3134303520202020302E303030302043202020302020302020302020302020302020302020302020302020302020302020302020300A20202020312E323839372020202D302E3532363920202020302E303030302043202020302020302020302020302020302020302020302020302020302020302020302020300A20202020302E383034382020202D312E3139343420202020302E303030302043202020302020302020302020302020302020302020302020302020302020302020302020300A20202020302E303230322020202D302E3933393420202020302E303030302043202020302020302020302020302020302020302020302020302020302020302020302020300A2020202D302E363934332020202D312E3335313920202020302E303030302043202020302020302020302020302020302020302020302020302020302020302020302020300A2020202D312E343038382020202D302E3933393420202020302E303030302043202020302020302020302020302020302020302020302020302020302020302020302020300A2020202D312E343038382020202D302E3131343420202020302E303030302043202020302020302020302020302020302020302020302020302020302020302020302020300A2020202D302E3639343320202020302E3239383120202020302E303030302043202020302020302020302020302020302020302020302020302020302020302020302020300A20202020302E303230322020202D302E3131343420202020302E303030302043202020302020302020302020302020302020302020302020302020302020302020302020300A20202020312E3035393720202020302E3932353120202020302E30303030204F202020302020302020302020302020302020302020302020302020302020302020302020300A20202020302E343639332020202D312E3934383120202020302E303030302043202020302020302020302020302020302020302020302020302020302020302020302020300A20202020312E353139332020202D312E3630363920202020302E303030302043202020302020302020302020302020302020302020302020302020302020302020302020300A2020202D302E3639343320202020312E3132333120202020302E303030302043202020302020302020302020302020302020302020302020302020302020302020302020300A2020202D312E3531393320202020312E3132333120202020302E303030302043202020302020302020302020302020302020302020302020302020302020302020302020300A2020202D302E3639343320202020312E3934383120202020302E303030302043202020302020302020302020302020302020302020302020302020302020302020302020300A20202020302E3133303720202020312E3132333120202020302E303030302043202020302020302020302020302020302020302020302020302020302020302020302020300A2020312020322020312020302020202020200A2020322020332020312020302020202020200A2020332020342020312020302020202020200A2020342020352020312020302020202020200A2020352020362020322020302020202020200A2020362020372020312020302020202020200A2020372020382020322020302020202020200A2020382020392020312020302020202020200A2020312020392020312020302020202020200A2020342020392020322020302020202020200A2020312031302020322020302020202020200A2020332031312020312020312020202020200A2020332031322020312020362020202020200A2031332031342020312020302020202020200A2031332031362020312020302020202020200A2031332031352020312020302020202020200A2020382031332020312020302020202020200A4D2020454E44
Contributor: MASS SPECTROSCOPY SOC. OF JAPAN (MSSJ)
InstType: EI
InstName: HITACHI M-80
IoniMethod: _ENERGY 20 eV
IonPolarity: pos
Date: 2010-10-09 19:48:36+02:00
Num Peaks: 30
14 33 15 57 28 187 29 5 39 61 41 95 51 33 57 4 64 29 65 26 
77 32 79 7 91 54 93 27 115 100 117 4 128 65 129 41 143 34 145 3 
158 23 159 64 171 32 173 4 185 30 186 62 201 999 202 16 216 170 217 29 
