Name: MassBank: JP000896
MW: 112
Formula: C6H12N2
Synonym: MassBank: JP000896
Synonym: 3,4,5-TRIMETHYL-2-PYRAZOLINE
Structure: 310A32310A332C342C352D5452494D455448594C2D322D505952415A4F4C494E452E6D6F6C0A20204368656D447261773032323131303231353032440A2020382020382020302020302020302020302020302020302020302020303939392056323030300A20202020302E3431323520202020312E3034373320202020302E30303030204E202020302020302020302020302020302020302020302020302020302020302020302020300A2020202D302E3431323520202020312E3034373320202020302E30303030204E202020302020302020302020302020302020302020302020302020302020302020302020300A2020202D302E3636373420202020302E3236323720202020302E303030302043202020302020302020302020302020302020302020302020302020302020302020302020300A2020202D302E303030302020202D302E3232323320202020302E303030302043202020302020302020302020302020302020302020302020302020302020302020302020300A20202020302E3636373420202020302E3236323720202020302E303030302043202020302020302020302020302020302020302020302020302020302020302020302020300A20202020312E3435323120202020302E3030373720202020302E303030302043202020302020302020302020302020302020302020302020302020302020302020302020300A2020202D302E303030302020202D312E3034373320202020302E303030302043202020302020302020302020302020302020302020302020302020302020302020302020300A2020202D312E3435323120202020302E3030373720202020302E303030302043202020302020302020302020302020302020302020302020302020302020302020302020300A2020312020322020312020302020202020200A2020322020332020322020302020202020200A2020332020342020312020302020202020200A2020342020352020312020302020202020200A2020312020352020312020302020202020200A2020352020362020312020302020202020200A2020342020372020312020302020202020200A2020332020382020312020302020202020200A4D2020454E44
Contributor: SASAKI S, TOYOHASHI UNIV. OF TECH.
InstType: EI
InstName: SHIMADZU LKB-2091
IoniMethod: _ENERGY 70 eV
IonPolarity: pos
Date: 2010-10-09 19:48:36+02:00
Num Peaks: 30
26 24 27 130 28 170 29 8 30 52 39 80 41 125 42 32 43 59 44 31 
53 29 54 4 55 48 56 240 57 21 67 1 68 110 69 170 70 62 81 1 
82 22 83 18 95 19 96 2 97 999 98 56 109 8 111 5 112 300 113 24 
