Name: MassBank: JP004321
MW: 188
Formula: C12H16N2
Synonym: MassBank: JP004321
Synonym: 3-(2-AMINOETHYL)-2,5-DIMETHYLINDOLE
Structure: 332D28322D414D494E4F455448594C292D322C352D44494D455448594C494E444F4C452E6D6F6C0A20204368656D447261773032323231303039333832440A2031342031352020302020302020302020302020302020302020302020303939392056323030300A20202020302E343239372020202D312E3334303320202020302E30303030204E202020302020302020302020302020302020302020302020302020302020302020302020300A2020202D302E333234322020202D312E3030343220202020302E303030302043202020302020302020302020302020302020302020302020302020302020302020302020300A2020202D302E323337392020202D302E3138333820202020302E303030302043202020302020302020302020302020302020302020302020302020302020302020302020300A20202020302E353639302020202D302E3031323320202020302E303030302043202020302020302020302020302020302020302020302020302020302020302020302020300A20202020302E3938313520202020302E3730323220202020302E303030302043202020302020302020302020302020302020302020302020302020302020302020302020300A20202020312E3830363520202020302E3730323220202020302E303030302043202020302020302020302020302020302020302020302020302020302020302020302020300A20202020322E323139302020202D302E3031323320202020302E303030302043202020302020302020302020302020302020302020302020302020302020302020302020300A20202020312E383036352020202D302E3732363720202020302E303030302043202020302020302020302020302020302020302020302020302020302020302020302020300A20202020302E393831352020202D302E3732363720202020302E303030302043202020302020302020302020302020302020302020302020302020302020302020302020300A20202020322E3231393020202020312E3431363720202020302E303030302043202020302020302020302020302020302020302020302020302020302020302020302020300A2020202D312E303338372020202D312E3431363720202020302E303030302043202020302020302020302020302020302020302020302020302020302020302020302020300A2020202D302E3835313020202020302E3336383220202020302E303030302043202020302020302020302020302020302020302020302020302020302020302020302020300A2020202D312E3633353720202020302E3131333320202020302E303030302043202020302020302020302020302020302020302020302020302020302020302020302020300A2020202D322E3231393020202020302E3639363720202020302E30303030204E202020302020302020302020302020302020302020302020302020302020302020302020300A2020312020322020312020302020202020200A2020322020332020322020302020202020200A2020332020342020312020302020202020200A2020342020352020312020302020202020200A2020352020362020322020302020202020200A2020362020372020312020302020202020200A2020372020382020322020302020202020200A2020382020392020312020302020202020200A2020312020392020312020302020202020200A2020342020392020322020302020202020200A2020362031302020312020302020202020200A2020322031312020312020302020202020200A2031322031332020312020302020202020200A2031332031342020312020302020202020200A2020332031322020312020302020202020200A4D2020454E44
Contributor: SASAKI S, TOYOHASHI UNIV. OF TECH.
InstType: EI
InstName: MX-1303
IoniMethod: _ENERGY 50 eV
IonPolarity: pos
Date: 2010-10-09 19:48:36+02:00
Num Peaks: 28
39 16 43 20 51 14 63 1 65 15 77 19 89 15 91 3 115 70 116 24 
117 12 127 1 128 20 129 13 130 17 141 1 142 30 143 86 144 64 145 2 
154 14 156 64 157 82 158 999 159 282 160 28 188 139 189 20 
