Name: MassBank: JP006745
MW: 293
Formula: C19H19NO2
Synonym: MassBank: JP006745
Synonym: N-(3,3-DIPHENYLPROPIONYL)PYRROLIDIN-2-ONE
Structure: 4E2D28332C332D44495048454E594C50524F50494F4E594C29505952524F4C4944494E2D322D4F4E452E6D6F6C0A20204368656D447261773038313231303031313632440A2032322032342020302020302020302020302020302020302020302020303939392056323030300A2020202D302E3731343520202020312E3232313520202020302E30303030204E202020302020302020302020302020302020302020302020302020302020302020302020300A2020202D302E3034373020202020312E3730363420202020302E303030302043202020302020302020302020302020302020302020302020302020302020302020302020300A2020202D302E3330323020202020322E3439313020202020302E303030302043202020302020302020302020302020302020302020302020302020302020302020302020300A2020202D312E3132373020202020322E3439313020202020302E303030302043202020302020302020302020302020302020302020302020302020302020302020302020300A2020202D312E3338313920202020312E3730363420202020302E303030302043202020302020302020302020302020302020302020302020302020302020302020302020300A20202020302E3733373620202020312E3435313520202020302E30303030204F202020302020302020302020302020302020302020302020302020302020302020302020300A2020202D302E3731343520202020302E3339363520202020302E303030302043202020302020302020302020302020302020302020302020302020302020302020302020300A2020202D312E343238392020202D302E3031363020202020302E30303030204F202020302020302020302020302020302020302020302020302020302020302020302020300A20202020302E303030302020202D302E3031363020202020302E303030302043202020302020302020302020302020302020302020302020302020302020302020302020300A20202020302E303030302020202D302E3834313020202020302E303030302043202020302020302020302020302020302020302020302020302020302020302020302020300A20202020302E373134352020202D312E3235333520202020302E303030302043202020302020302020302020302020302020302020302020302020302020302020302020300A20202020312E343238392020202D302E3834313020202020302E303030302043202020302020302020302020302020302020302020302020302020302020302020302020300A20202020322E313433342020202D312E3235333520202020302E303030302043202020302020302020302020302020302020302020302020302020302020302020302020300A20202020322E313433342020202D322E3037383520202020302E303030302043202020302020302020302020302020302020302020302020302020302020302020302020300A20202020312E343238392020202D322E3439313020202020302E303030302043202020302020302020302020302020302020302020302020302020302020302020302020300A20202020302E373134352020202D322E3037383520202020302E303030302043202020302020302020302020302020302020302020302020302020302020302020302020300A2020202D302E373134352020202D312E3235333520202020302E303030302043202020302020302020302020302020302020302020302020302020302020302020302020300A2020202D302E373134352020202D322E3037383520202020302E303030302043202020302020302020302020302020302020302020302020302020302020302020302020300A2020202D312E343238392020202D322E3439313020202020302E303030302043202020302020302020302020302020302020302020302020302020302020302020302020300A2020202D322E313433342020202D322E3037383520202020302E303030302043202020302020302020302020302020302020302020302020302020302020302020302020300A2020202D322E313433342020202D312E3235333520202020302E303030302043202020302020302020302020302020302020302020302020302020302020302020302020300A2020202D312E343238392020202D302E3834313020202020302E303030302043202020302020302020302020302020302020302020302020302020302020302020302020300A2020312020322020312020302020202020200A2020322020332020312020302020202020200A2020332020342020312020302020202020200A2020342020352020312020302020202020200A2020312020352020312020302020202020200A2020322020362020322020302020202020200A2020372020382020322020302020202020200A2020372020392020312020302020202020200A2020392031302020312020302020202020200A2031312031322020312020302020202020200A2031322031332020322020302020202020200A2031332031342020312020302020202020200A2031342031352020322020302020202020200A2031352031362020312020302020202020200A2031312031362020322020302020202020200A2031302031312020312020302020202020200A2031372031382020312020302020202020200A2031382031392020322020302020202020200A2031392032302020312020302020202020200A2032302032312020322020302020202020200A2032312032322020312020302020202020200A2031372032322020322020302020202020200A2031302031372020312020302020202020200A2020312020372020312020302020202020200A4D2020454E44
Contributor: MASS SPECTROSCOPY SOC. OF JAPAN (MSSJ)
InstType: EI
InstName: HITACHI RMU-6G
IoniMethod: _ENERGY 20 eV
IonPolarity: pos
Date: 2010-10-09 19:48:36+02:00
Num Peaks: 40
43 60 56 25 57 20 69 35 70 20 71 18 73 12 78 14 81 18 83 12 
84 28 85 25 86 810 87 45 97 12 98 125 99 20 102 22 103 25 131 40 
149 15 152 50 165 230 166 70 167 400 168 60 178 23 179 180 180 999 181 160 
182 15 207 110 208 770 209 130 210 16 275 110 276 30 293 195 294 45 295 10 
