Name: MassBank: JP002454
MW: 150
Formula: C6H14O4
Synonym: MassBank: JP002454
Synonym: (2S,3S)-1,4-DIMETHOXY-2,3-BUTANEDIOL
Structure: 2832532C3353292D312C342D44494D4554484F58592D322C332D425554414E4544494F4C2E6D6F6C0A20204368656D447261773130323030393135333032440A2031322031312020302020302020302020302020302020302020302020303939392056323030300A20202020302E3335373220202020302E3230363220202020302E303030302043202020302020302020302020302020302020302020302020302020302020302020302020300A2020202D302E333537322020202D302E3230363220202020302E303030302043202020302020302020302020302020302020302020302020302020302020302020302020300A2020202D312E303731372020202D302E3631383820202020302E303030302043202020302020302020302020302020302020302020302020302020302020302020302020300A20202020312E3037313720202020302E3631383820202020302E303030302043202020302020302020302020302020302020302020302020302020302020302020302020300A20202020302E373639372020202D302E3530383220202020302E30303030204F202020302020302020302020302020302020302020302020302020302020302020302020300A2020202D302E3035353320202020302E3932303720202020302E303030302048202020302020302020302020302020302020302020302020302020302020302020302020300A20202020302E303535332020202D302E3932303720202020302E303030302048202020302020302020302020302020302020302020302020302020302020302020302020300A2020202D302E3736393720202020302E3530383220202020302E30303030204F202020302020302020302020302020302020302020302020302020302020302020302020300A2020202D312E373836322020202D302E3230363220202020302E30303030204F202020302020302020302020302020302020302020302020302020302020302020302020300A2020202D312E3738363220202020302E3631383820202020302E303030302043202020302020302020302020302020302020302020302020302020302020302020302020300A20202020312E3738363220202020302E3230363220202020302E30303030204F202020302020302020302020302020302020302020302020302020302020302020302020300A20202020312E373836322020202D302E3631383820202020302E303030302043202020302020302020302020302020302020302020302020302020302020302020302020300A2020312020322020312020302020202020200A2020322020332020312020302020202020200A2020312020342020312020302020202020200A2020312020352020312020312020202020200A2020312020362020312020312020202020200A2020322020372020312020312020202020200A2020322020382020312020312020202020200A2020332020392020312020302020202020200A2020392031302020312020302020202020200A2020342031312020312020302020202020200A2031312031322020312020302020202020200A4D2020454E44
Contributor: ITO S, DEPT. OF CHEM., TOHOKU UNIV.
InstType: EI
InstName: HITACHI M-52
IoniMethod: _ENERGY 13.5 eV
IonPolarity: pos
Date: 2010-10-09 19:48:36+02:00
Num Peaks: 22
44 242 45 101 58 54 59 3 60 94 72 30 73 81 74 16 75 999 76 306 
84 27 86 4 87 742 88 178 89 242 90 4 100 40 105 823 106 54 107 5 
118 134 119 20 
