Name: 4-(TERT-BUTYLMERCAPTO)-METYL-3-PICOLINE
MW: 195
Formula: C11H17NS
Synonym: MassBank: JP003023
Synonym: 4-(TERT-BUTYLMERCAPTO)-METYL-3-PICOLINE
Structure: 342D28544552542D425554594C4D4552434150544F292D4D4554594C2D332D5049434F4C494E452E6D6F6C0A20204368656D447261773033323531303033353932440A2031332031332020302020302020302020302020302020302020302020303939392056323030300A2020202D302E3736393720202020312E3835363320202020302E303030302043202020302020302020302020302020302020302020302020302020302020302020302020300A2020202D302E3736393720202020312E3033313320202020302E303030302043202020302020302020302020302020302020302020302020302020302020302020302020300A2020202D302E3035353320202020302E3631383820202020302E303030302043202020302020302020302020302020302020302020302020302020302020302020302020300A20202020302E3635393220202020312E3033313320202020302E303030302043202020302020302020302020302020302020302020302020302020302020302020302020300A20202020302E3635393220202020312E3835363320202020302E303030302043202020302020302020302020302020302020302020302020302020302020302020302020300A2020202D302E3035353320202020322E3236383720202020302E30303030204E202020302020302020302020302020302020302020302020302020302020302020302020300A2020202D312E3438343220202020302E3631383820202020302E303030302043202020302020302020302020302020302020302020302020302020302020302020302020300A2020202D302E303535332020202D302E3230363220202020302E303030302043202020302020302020302020302020302020302020302020302020302020302020302020300A20202020302E363539322020202D302E3631383820202020302E303030302053202020302020302020302020302020302020302020302020302020302020302020302020300A20202020302E363539322020202D312E3434333820202020302E303030302043202020302020302020302020302020302020302020302020302020302020302020302020300A20202020302E363539322020202D322E3236383720202020302E303030302043202020302020302020302020302020302020302020302020302020302020302020302020300A20202020312E343834322020202D312E3434333820202020302E303030302043202020302020302020302020302020302020302020302020302020302020302020302020300A2020202D302E313635382020202D312E3434333820202020302E303030302043202020302020302020302020302020302020302020302020302020302020302020302020300A2020312020322020322020302020202020200A2020322020332020312020302020202020200A2020332020342020322020302020202020200A2020342020352020312020302020202020200A2020352020362020322020302020202020200A2020362020312020312020302020202020200A2020322020372020312020302020202020200A2020332020382020312020302020202020200A2020382020392020312020302020202020200A2020392031302020312020302020202020200A2031302031312020312020302020202020200A2031302031322020312020302020202020200A2031302031332020312020302020202020200A4D2020454E44
Contributor: SASAKI S, TOYOHASHI UNIV. OF TECH.
InstType: EI
InstName: Unknown
IoniMethod: EI
IonPolarity: pos
Date: 2010-10-09 19:48:36+02:00
Num Peaks: 26
29 180 31 120 39 180 41 26 45 80 51 80 52 50 53 1 57 810 65 80 
77 150 78 1 79 80 93 110 94 50 105 2 106 710 107 90 124 50 138 1 
139 999 140 130 141 50 180 0 195 410 196 54 
