Name: ALPHA-CYCLOPENTYLPHENYLACETIC ACID TRIMETHYLSILYL ESTER
MW: 276
Formula: C16H24O2Si
Synonym: MassBank: JP001101
Synonym: ALPHA-CYCLOPENTYLPHENYLACETIC ACID TRIMETHYLSILYL ESTER
Synonym: TRIMETHYLSILYL ALPHA-CYCLOPENTYL-ALPHA-PHENYLACETATE
Structure: 414C5048412D4359434C4F50454E54594C5048454E594C4143455449432041434944205452494D455448594C53494C594C2045535445522E6D6F6C0A20204368656D447261773038303631303036303932440A2031392032302020302020302020302020302020302020302020302020303939392056323030300A2020202D302E3230363320202020302E3036313620202020302E303030302043202020302020302020302020302020302020302020302020302020302020302020302020300A20202020302E3631383720202020302E3036313620202020302E303030302043202020302020302020302020302020302020302020302020302020302020302020302020300A2020202D302E3631383820202020302E3737363120202020302E30303030204F202020302020302020302020302020302020302020302020302020302020302020302020300A2020202D302E363138382020202D302E3635323920202020302E30303030204F202020302020302020302020302020302020302020302020302020302020302020302020300A20202020312E3033313320202020302E3737363120202020302E303030302043202020302020302020302020302020302020302020302020302020302020302020302020300A20202020302E3639353720202020312E3532393820202020302E303030302043202020302020302020302020302020302020302020302020302020302020302020302020300A20202020312E3330383820202020322E3038313820202020302E303030302043202020302020302020302020302020302020302020302020302020302020302020302020300A20202020322E3032333320202020312E3636393320202020302E303030302043202020302020302020302020302020302020302020302020302020302020302020302020300A20202020312E3835313720202020302E3836323320202020302E303030302043202020302020302020302020302020302020302020302020302020302020302020302020300A20202020312E303331332020202D302E3635323920202020302E303030302043202020302020302020302020302020302020302020302020302020302020302020302020300A20202020312E383536322020202D302E3635323920202020302E303030302043202020302020302020302020302020302020302020302020302020302020302020302020300A20202020322E323638372020202D312E3336373320202020302E303030302043202020302020302020302020302020302020302020302020302020302020302020302020300A20202020312E383536332020202D322E3038313820202020302E303030302043202020302020302020302020302020302020302020302020302020302020302020302020300A20202020312E303331332020202D322E3038313820202020302E303030302043202020302020302020302020302020302020302020302020302020302020302020302020300A20202020302E363138372020202D312E3336373320202020302E303030302043202020302020302020302020302020302020302020302020302020302020302020302020300A2020202D312E343433372020202D302E3635323920202020302E303030302053692020302020302020302020302020302020302020302020302020302020302020302020300A2020202D312E343433372020202D312E3437373920202020302E303030302043202020302020302020302020302020302020302020302020302020302020302020302020300A2020202D322E323638372020202D302E3635323920202020302E303030302043202020302020302020302020302020302020302020302020302020302020302020302020300A2020202D312E3434333720202020302E3137323120202020302E303030302043202020302020302020302020302020302020302020302020302020302020302020302020300A2020312020322020312020302020202020200A2020312020332020322020302020202020200A2020312020342020312020302020202020200A2020352020362020312020302020202020200A2020362020372020312020302020202020200A2020372020382020312020302020202020200A2020382020392020312020302020202020200A2020352020392020312020302020202020200A2020322020352020312020302020202020200A2031302031312020312020302020202020200A2031312031322020322020302020202020200A2031322031332020312020302020202020200A2031332031342020322020302020202020200A2031342031352020312020302020202020200A2031302031352020322020302020202020200A2020322031302020312020302020202020200A2031362031372020312020302020202020200A2031362031382020312020302020202020200A2031362031392020312020302020202020200A2020342031362020312020302020202020200A4D2020454E44
Contributor: KOGA M, UNIV. OF OCCUPATIONAL AND ENVIRONMENTAL HEALTH
InstType: EI
InstName: JEOL JMS-01-SG
IoniMethod: _ENERGY 70 eV
IonPolarity: pos
Date: 2010-10-09 19:48:36+02:00
Num Peaks: 16
45 99 67 65 73 999 74 17 75 227 77 61 91 243 115 6 117 85 118 122 
158 679 159 10 208 122 232 93 261 102 262 23 
