Name: DIPENTL ETHER
MW: 158
Formula: C10H22O
Synonym: MassBank: JP001504
Synonym: DIPENTL ETHER
Structure: 310A350A444950454E544C2045544845522E6D6F6C0A20204368656D447261773130313831303136333732440A2020302020302020302020302020302020302020302020302020302020303939392056323030300A4D2020454E44
Contributor: YAMAMOTO M, DEP. CHEMISTRY, FAC. SCIENCE, NARA WOMEN'S UNIV.
InstType: EI
InstName: HITACHI RMU-6M
IoniMethod: _ENERGY 70 eV
IonPolarity: pos
Date: 2010-10-09 19:48:36+02:00
Num Peaks: 26
27 117 28 34 29 180 31 27 39 63 40 14 41 227 42 204 43 898 44 32 
45 29 53 11 55 130 56 17 57 15 58 13 68 10 69 196 70 494 71 999 
72 56 87 23 89 24 101 75 115 14 158 44 
