Name: LEDANE
MW: 206
Formula: C15H26
Synonym: MassBank: JP005248
Synonym: LEDANE
Synonym: (1ALPHAR-(1AALPHA,4BETA,4ALPHABETA,7ALPHABETA,7BALPHA))-DEHYDRO-1,1,4,7-TETRAMETHYL--1H-CYCLOPROP(E)AZULENE
Structure: 2831414C504841522D283141414C5048412C34424554412C34414C504841424554412C37414C504841424554412C3742414C50484129292D4445485944524F2D312C312C342C372D54455452414D455448594C2D2D31482D4359434C4F50524F50284529415A554C454E452E6D6F6C0A20204368656D447261773130313930393132303332440A2032312032332020302020302020302020302020302020302020302020303939392056323030300A2020202D312E343338372020202D302E3133353120202020302E303030302043202020302020302020302020302020302020302020302020302020302020302020302020300A2020202D312E3433383720202020302E3638393420202020302E303030302043202020302020302020302020302020302020302020302020302020302020302020302020300A2020202D302E3732343920202020312E3130333120202020302E303030302043202020302020302020302020302020302020302020302020302020302020302020302020300A2020202D302E3030393720202020302E3638393420202020302E303030302043202020302020302020302020302020302020302020302020302020302020302020302020300A2020202D302E303039372020202D302E3133353120202020302E303030302043202020302020302020302020302020302020302020302020302020302020302020302020300A20202020302E363334392020202D302E3634393220202020302E303030302043202020302020302020302020302020302020302020302020302020302020302020302020300A20202020312E343338372020202D302E3436353720202020302E303030302043202020302020302020302020302020302020302020302020302020302020302020302020300A20202020312E3739363420202020302E3237373120202020302E303030302043202020302020302020302020302020302020302020302020302020302020302020302020300A20202020312E3433383720202020312E3031393920202020302E303030302043202020302020302020302020302020302020302020302020302020302020302020302020300A20202020302E3633343920202020312E3230333420202020302E303030302043202020302020302020302020302020302020302020302020302020302020302020302020300A20202020302E3738373220202020302E3437353820202020302E303030302048202020302020302020302020302020302020302020302020302020302020302020302020300A2020202D302E323233322020202D302E3933323020202020302E303030302048202020302020302020302020302020302020302020302020302020302020302020302020300A20202020312E323138332020202D312E3233323620202020302E303030302043202020302020302020302020302020302020302020302020302020302020302020302020300A2020202D322E313533322020202D302E3534373620202020302E303030302048202020302020302020302020302020302020302020302020302020302020302020302020300A20202020302E3633343920202020322E3032383420202020302E303030302048202020302020302020302020302020302020302020302020302020302020302020302020300A20202020322E313533322020202D302E3837383220202020302E303030302048202020302020302020302020302020302020302020302020302020302020302020302020300A20202020302E323232342020202D312E3336333720202020302E303030302048202020302020302020302020302020302020302020302020302020302020302020302020300A2020202D312E363532332020202D302E3933313220202020302E303030302043202020302020302020302020302020302020302020302020302020302020302020302020300A20202020312E383030332020202D312E3831353320202020302E303030302043202020302020302020302020302020302020302020302020302020302020302020302020300A20202020302E3035313320202020312E3738373220202020302E303030302043202020302020302020302020302020302020302020302020302020302020302020302020300A20202020312E303034322020202D322E3032383420202020302E303030302043202020302020302020302020302020302020302020302020302020302020302020302020300A2020312020322020312020302020202020200A2020322020332020312020302020202020200A2020332020342020312020302020202020200A2020342020352020312020302020202020200A2020312020352020312020302020202020200A2020352020362020312020302020202020200A2020362020372020312020302020202020200A2020372020382020312020302020202020200A2020382020392020312020302020202020200A2020392031302020312020302020202020200A2031302020342020312020302020202020200A2020342031312020312020312020202020200A2020352031322020312020312020202020200A2020362031332020312020302020202020200A2020372031332020312020302020202020200A2020312031342020312020362020202020200A2031302031352020312020362020202020200A2020372031362020312020362020202020200A2020362031372020312020362020202020200A2020312031382020312020312020202020200A2031332031392020312020362020202020200A2031302032302020312020312020202020200A2031332032312020312020312020202020200A4D202053545920203120202031205355500A4D2020534C4220203120202031202020310A4D202053414C20202031202031202031380A4D202053424C20202031202031202032300A4D2020534D5420202031204D650A4D2020534256202020312032302020202D362E3733333520202020342E363830330A4D202053545920203120202032205355500A4D2020534C4220203120202032202020320A4D202053414C20202032202031202031390A4D202053424C20202032202031202032310A4D2020534D5420202032204D650A4D2020534256202020322032312020202D352E3933373820202020342E383933360A4D202053545920203120202033205355500A4D2020534C4220203120202033202020330A4D202053414C20202033202031202032300A4D202053424C20202033202031202032320A4D2020534D5420202033204D650A4D2020534256202020332032322020202D372E3130333520202020362E303630310A4D202053545920203120202034205355500A4D2020534C4220203120202034202020340A4D202053414C20202034202031202032310A4D202053424C20202034202031202032330A4D2020534D5420202034204D650A4D2020534256202020342032332020202D362E3733333920202020342E363830350A4D2020454E44
Contributor: MASS SPECTROSCOPY SOC. OF JAPAN (MSSJ)
InstType: EI
InstName: HITACHI M-80
IoniMethod: _ENERGY 20 eV
IonPolarity: pos
Date: 2010-10-09 19:48:36+02:00
Num Peaks: 25
27 163 29 272 39 239 41 999 42 30 53 212 55 442 67 45 69 283 79 361 
81 412 93 35 95 316 107 376 109 134 121 21 122 138 135 151 139 61 149 5 
150 43 163 184 164 36 191 2 206 42 
