Name: MassBank: JP009434
MW: 208
Formula: C11H9ClO2
Synonym: MassBank: JP009434
Synonym: 6-METHYL-3,4-(5'-CHLOROBENZO)-2-OXABICYCLO(4.1.0)HEPT-3-EN-5-ONE
Structure: 362D4D455448594C2D332C342D2835272D43484C4F524F42454E5A4F292D322D4F584142494359434C4F28342E312E3029484550542D332D454E2D352D4F4E452E6D6F6C0A20204368656D447261773035313731303139313432440A2031342031362020302020302020302020302020302020302020302020303939392056323030300A2020202D312E3432383920202020302E3832353020202020302E303030302043202020302020302020302020302020302020302020302020302020302020302020302020300A2020202D312E343238392020202D302E3030303020202020302E303030302043202020302020302020302020302020302020302020302020302020302020302020302020300A2020202D302E373134352020202D302E3431323520202020302E303030302043202020302020302020302020302020302020302020302020302020302020302020302020300A2020202D302E303030302020202D302E3030303020202020302E303030302043202020302020302020302020302020302020302020302020302020302020302020302020300A2020202D302E3030303020202020302E3832353020202020302E303030302043202020302020302020302020302020302020302020302020302020302020302020302020300A2020202D302E3731343520202020312E3233373520202020302E303030302043202020302020302020302020302020302020302020302020302020302020302020302020300A20202020302E373134352020202D302E3431323520202020302E303030302043202020302020302020302020302020302020302020302020302020302020302020302020300A20202020312E343238392020202D302E3030303020202020302E303030302043202020302020302020302020302020302020302020302020302020302020302020302020300A20202020312E3432383920202020302E3832353020202020302E303030302043202020302020302020302020302020302020302020302020302020302020302020302020300A20202020302E3731343520202020312E3233373520202020302E30303030204F202020302020302020302020302020302020302020302020302020302020302020302020300A20202020322E3134333320202020302E3431323520202020302E303030302043202020302020302020302020302020302020302020302020302020302020302020302020300A20202020312E383431332020202D302E3731343520202020302E303030302043202020302020302020302020302020302020302020302020302020302020302020302020300A20202020302E373134352020202D312E3233373520202020302E30303030204F202020302020302020302020302020302020302020302020302020302020302020302020300A2020202D322E3134333320202020312E3233373520202020302E3030303020436C2020302020302020302020302020302020302020302020302020302020302020302020300A2020312020322020322020302020202020200A2020322020332020312020302020202020200A2020332020342020322020302020202020200A2020342020352020312020302020202020200A2020352020362020322020302020202020200A2020362020312020312020302020202020200A2020342020372020312020302020202020200A2020372020382020312020302020202020200A2020382020392020312020302020202020200A2020392031302020312020302020202020200A2031302020352020312020302020202020200A2020382031312020312020302020202020200A2031312020392020312020302020202020200A2020382031322020312020302020202020200A2020372031332020322020302020202020200A2020312031342020312020302020202020200A4D2020454E44
Contributor: EGUCHI S, FAC. OF SCIENCE, HIROSHIMA UNIV.
InstType: EI
InstName: HITACHI RMU-7L
IoniMethod: _ENERGY 70 eV
IonPolarity: pos
Date: 2010-10-09 19:48:36+02:00
Num Peaks: 111
50 230 51 210 52 30 53 380 54 40 55 45 56 15 57 10 58 60 59 15 
61 5 62 110 63 540 64 95 65 80 66 30 67 20 68 10 69 110 71 30 
72 35 73 85 74 200 75 490 76 110 77 100 78 15 79 10 84 20 85 40 
86 45 87 45 88 10 89 80 90 10 91 200 92 25 93 10 96 10 97 40 
98 90 99 125 100 40 101 95 102 90 103 20 104 10 105 60 106 10 107 10 
109 20 110 340 111 70 112 140 114 40 115 225 116 50 117 105 118 10 119 20 
124 10 125 20 126 160 127 25 128 70 129 15 130 25 131 15 132 11 134 10 
135 10 136 20 137 40 138 310 139 120 140 105 141 30 143 10 144 50 145 245 
146 30 147 10 149 20 151 10 154 60 155 145 156 45 157 35 158 10 165 450 
166 35 167 165 168 450 169 45 170 125 171 20 172 10 173 50 179 310 180 50 
181 145 182 35 183 20 193 80 194 20 195 30 207 40 208 999 209 125 210 340 
211 30 
