Name: LIMONENE
CAS: 5989-27-5
MW: 136
Formula: C10H16
Synonym: MassBank: JP007559
Synonym: LIMONENE
Synonym: (R)-1-METHYL-4-(1-METHYLETHENYL)CYCLOHEXENE
Structure: 2852292D312D4D455448594C2D342D28312D4D455448594C455448454E594C294359434C4F484558454E452E6D6F6C0A20204368656D447261773130323230393137323432440A2031322031322020302020302020302020302020302020302020302020303939392056323030300A2020202D302E3338313620202020302E3332373120202020302E303030302043202020302020302020302020302020302020302020302020302020302020302020302020300A2020202D302E333831362020202D302E3439373920202020302E303030302043202020302020302020302020302020302020302020302020302020302020302020302020300A20202020302E333332392020202D302E3931303420202020302E303030302043202020302020302020302020302020302020302020302020302020302020302020302020300A20202020312E303437342020202D302E3439373920202020302E303030302043202020302020302020302020302020302020302020302020302020302020302020302020300A20202020312E3034373420202020302E3332373120202020302E303030302043202020302020302020302020302020302020302020302020302020302020302020302020300A20202020302E3333323920202020302E3733393620202020302E303030302043202020302020302020302020302020302020302020302020302020302020302020302020300A20202020312E3736313820202020302E3733393620202020302E303030302048202020302020302020302020302020302020302020302020302020302020302020302020300A2020202D302E3936343920202020302E3931303420202020302E303030302048202020302020302020302020302020302020302020302020302020302020302020302020300A2020202D312E3137383520202020302E3131333520202020302E303030302043202020302020302020302020302020302020302020302020302020302020302020302020300A2020202D312E333932302020202D302E3638333320202020302E303030302043202020302020302020302020302020302020302020302020302020302020302020302020300A2020202D312E3736313820202020302E3639363920202020302E303030302043202020302020302020302020302020302020302020302020302020302020302020302020300A20202020312E373631352020202D302E3931303420202020302E303030302043202020302020302020302020302020302020302020302020302020302020302020302020300A2020312020322020312020302020202020200A2020322020332020312020302020202020200A2020332020342020312020302020202020200A2020342020352020322020302020202020200A2020352020362020312020302020202020200A2020362020312020312020302020202020200A2020352020372020312020302020202020200A2020312020382020312020362020202020200A2020312020392020312020312020202020200A2020392031302020322020302020202020200A2020392031312020312020302020202020200A2020342031322020312020302020202020200A4D202053545920203120202031205355500A4D2020534C4220203120202031202020310A4D202053414C20202031202031202031320A4D202053424C20202031202031202031320A4D2020534D5420202031204D650A4D2020534256202020312031322020202D362E3732383620202020352E343432310A4D2020454E44
Contributor: TAKEUCHI T, DEP. CHEMISTRY, FAC. SCIENCE, NARA WOMEN'S UNIV.
InstType: EI
InstName: HITACHI M-80
IoniMethod: _ENERGY 20 eV
IonPolarity: pos
Date: 2010-10-09 19:48:36+02:00
Num Peaks: 14
28 333 41 29 53 63 67 320 68 999 79 149 80 102 93 531 94 243 107 154 
108 52 121 192 136 144 137 15 
