Name: 3-ETHYL-5-METHYLENE-6-HEPTEN-3-OL
MW: 154
Formula: C10H18O
Synonym: MassBank: JP002402
Synonym: 3-ETHYL-5-METHYLENE-6-HEPTEN-3-OL
Structure: 332D455448594C2D352D4D455448594C454E452D362D48455054454E2D332D4F4C2E6D6F6C0A20204368656D447261773032323231303137353432440A2031312031302020302020302020302020302020302020302020302020303939392056323030300A20202020302E333032302020202D312E3333333220202020302E303030302043202020302020302020302020302020302020302020302020302020302020302020302020300A2020202D302E343132352020202D302E3932303720202020302E303030302043202020302020302020302020302020302020302020302020302020302020302020302020300A2020202D302E343132352020202D302E3039353720202020302E303030302043202020302020302020302020302020302020302020302020302020302020302020302020300A20202020302E343132352020202D302E3039353720202020302E303030302043202020302020302020302020302020302020302020302020302020302020302020302020300A20202020302E3832353020202020302E3631383820202020302E303030302043202020302020302020302020302020302020302020302020302020302020302020302020300A20202020302E3431323520202020312E3333333220202020302E303030302043202020302020302020302020302020302020302020302020302020302020302020302020300A2020202D302E3431323520202020312E3333333220202020302E303030302043202020302020302020302020302020302020302020302020302020302020302020302020300A2020202D302E3431323520202020302E3732393320202020302E30303030204F202020302020302020302020302020302020302020302020302020302020302020302020300A20202020312E3635303020202020302E3631383820202020302E303030302043202020302020302020302020302020302020302020302020302020302020302020302020300A2020202D312E323337352020202D302E3039353720202020302E303030302043202020302020302020302020302020302020302020302020302020302020302020302020300A2020202D312E3635303020202020302E3631383820202020302E303030302043202020302020302020302020302020302020302020302020302020302020302020302020300A2020312020322020312020302020202020200A2020322020332020312020302020202020200A2020332020342020312020302020202020200A2020342020352020312020302020202020200A2020352020362020312020302020202020200A2020362020372020322020302020202020200A2020332020382020312020302020202020200A2020352020392020322020302020202020200A2031302031312020312020302020202020200A2020332031302020312020302020202020200A4D2020454E44
Contributor: MASS SPECTROSCOPY SOC. OF JAPAN (MSSJ)
InstType: EI
InstName: JEOL JMS-D-3000
IoniMethod: _ENERGY 70 eV
IonPolarity: pos
Date: 2010-10-09 19:48:36+02:00
Num Peaks: 27
41 155 42 11 43 81 45 378 51 12 53 38 55 35 57 999 58 45 65 16 
67 56 68 257 69 141 70 11 77 13 79 32 81 12 87 779 88 46 91 21 
93 22 95 13 107 62 121 14 125 103 136 14 154 5 
