Name: 2-METHYL-2-PENTANOL
MW: 102
Formula: C6H14O
Synonym: MassBank: JP006557
Synonym: 2-METHYL-2-PENTANOL
Structure: 310A31380A322D4D455448594C2D322D50454E54414E4F4C2E6D6F6C0A20204368656D447261773031323231303033313032440A2020372020362020302020302020302020302020302020302020302020303939392056323030300A2020202D302E333032302020202D302E3731343520202020302E303030302043202020302020302020302020302020302020302020302020302020302020302020302020300A2020202D302E3731343520202020302E3030303020202020302E303030302043202020302020302020302020302020302020302020302020302020302020302020302020300A20202020302E3030303020202020302E3431323520202020302E303030302043202020302020302020302020302020302020302020302020302020302020302020302020300A20202020302E3731343520202020302E3030303020202020302E303030302043202020302020302020302020302020302020302020302020302020302020302020302020300A20202020312E3432383920202020302E3431323520202020302E303030302043202020302020302020302020302020302020302020302020302020302020302020302020300A2020202D312E343238392020202D302E3431323520202020302E30303030204F202020302020302020302020302020302020302020302020302020302020302020302020300A2020202D312E3132373020202020302E3731343520202020302E303030302043202020302020302020302020302020302020302020302020302020302020302020302020300A2020312020322020312020302020202020200A2020322020332020312020302020202020200A2020332020342020312020302020202020200A2020342020352020312020302020202020200A2020322020362020312020302020202020200A2020322020372020312020302020202020200A4D2020454E44
Contributor: HISAHIRO HAGIWARA, CHEMICAL RESEARCH INSTITUTE OF NON-AQUEOUSSOLUTIONS TOHOKU UNIV.
InstType: EI
InstName: HITACHI M-80B
IoniMethod: _ENERGY 70 eV
IonPolarity: pos
Date: 2010-10-09 19:48:36+02:00
Num Peaks: 20
15 29 27 95 28 13 29 51 31 125 39 75 41 169 42 15 43 189 45 335 
55 15 56 11 57 22 58 32 59 999 60 35 69 74 85 25 87 269 88 12 
