Name: TERT-BUTYLDIMETHYLSILOXYBUTANE
MW: 188
Formula: C10H24OSi
Synonym: MassBank: JP002325
Synonym: TERT-BUTYLDIMETHYLSILOXYBUTANE
Structure: 544552542D425554594C44494D455448594C53494C4F5859425554414E452E6D6F6C0A20204368656D447261773038313231303037303932440A2031322031312020302020302020302020302020302020302020302020303939392056323030300A2020202D302E373239332020202D302E3230363320202020302E303030302043202020302020302020302020302020302020302020302020302020302020302020302020300A2020202D302E3331363820202020302E3530383220202020302E303030302043202020302020302020302020302020302020302020302020302020302020302020302020300A20202020302E3530383220202020302E3530383220202020302E303030302043202020302020302020302020302020302020302020302020302020302020302020302020300A20202020302E393230372020202D302E3230363320202020302E303030302043202020302020302020302020302020302020302020302020302020302020302020302020300A20202020312E373435372020202D302E3230363320202020302E30303030204F202020302020302020302020302020302020302020302020302020302020302020302020300A20202020322E313538322020202D302E3932303720202020302E303030302053692020302020302020302020302020302020302020302020302020302020302020302020300A2020202D312E313431382020202D302E3932303720202020302E303030302043202020302020302020302020302020302020302020302020302020302020302020302020300A2020202D302E303134382020202D302E3631383820202020302E303030302043202020302020302020302020302020302020302020302020302020302020302020302020300A2020202D312E3434333820202020302E3230363220202020302E303030302043202020302020302020302020302020302020302020302020302020302020302020302020300A2020202D312E383536332020202D302E3530383220202020302E303030302043202020302020302020302020302020302020302020302020302020302020302020302020300A2020202D322E3135383220202020302E3631383720202020302E303030302043202020302020302020302020302020302020302020302020302020302020302020302020300A2020202D312E3033313220202020302E3932303720202020302E303030302043202020302020302020302020302020302020302020302020302020302020302020302020300A2020312020322020312020302020202020200A2020322020332020312020302020202020200A2020332020342020312020302020202020200A2020352020362020312020302020202020200A2020342020352020312020302020202020200A2020312020372020312020302020202020200A2020312020382020312020302020202020200A2020392031302020312020302020202020200A2020392031322020312020302020202020200A2020392031312020312020302020202020200A2020312020392020312020302020202020200A4D2020454E44
Contributor: MASS SPECTROSCOPY SOC. OF JAPAN (MSSJ)
InstType: EI
InstName: JEOL JMS-D-3000
IoniMethod: _ENERGY 70 eV
IonPolarity: pos
Date: 2010-10-09 19:48:36+02:00
Num Peaks: 24
42 27 43 14 45 32 47 31 55 13 57 13 58 21 59 53 61 21 73 104 
74 13 75 739 76 58 77 29 87 11 88 11 89 165 90 16 115 19 131 999 
132 123 133 43 173 12 188 8 
