Name: METHYL CYANOFORMATE
CAS: 17640-15-2
MW: 85
Formula: C3H3NO2
Synonym: MassBank: JP008248
Synonym: METHYL CYANOFORMATE
Structure: 310A31360A4D455448594C204359414E4F464F524D4154452E6D6F6C0A20204368656D447261773038313231303030313732440A2020362020352020302020302020302020302020302020302020302020303939392056323030300A20202020302E3230363220202020302E3030303020202020302E303030302043202020302020302020302020302020302020302020302020302020302020302020302020300A20202020302E3631383820202020302E3731343520202020302E30303030204F202020302020302020302020302020302020302020302020302020302020302020302020300A20202020302E363138382020202D302E3731343520202020302E30303030204F202020302020302020302020302020302020302020302020302020302020302020302020300A2020202D302E3631383820202020302E3030303020202020302E303030302043202020302020302020302020302020302020302020302020302020302020302020302020300A2020202D312E3434333820202020302E3030303020202020302E30303030204E202020302020302020302020302020302020302020302020302020302020302020302020300A20202020312E343433382020202D302E3731343520202020302E303030302043202020302020302020302020302020302020302020302020302020302020302020302020300A2020312020322020322020302020202020200A2020312020332020312020302020202020200A2020342020352020332020302020202020200A2020312020342020312020302020202020200A2020332020362020312020302020202020200A4D2020454E44
Contributor: UBE SCIENTIFIC ANALYSIS LABORATORY
InstType: EI
InstName: HITACHI M-60
IoniMethod: _ENERGY 70 eV
IonPolarity: pos
Date: 2010-10-09 19:48:36+02:00
Num Peaks: 22
12 16 13 13 14 61 15 361 26 104 27 70 28 129 29 303 30 51 31 480 
40 18 41 386 42 27 44 54 45 282 54 999 55 114 56 14 57 6 59 209 
84 93 85 5 
