Name: MassBank: JP004747
CAS: 7307-04-2
MW: 142
Formula: C8H14O2
Synonym: MassBank: JP004747
Synonym: 5,5-DIMETHYLHEXAN-2,4-DIONE
Structure: 352C352D44494D455448594C484558414E2D322C342D44494F4E452E6D6F6C0A20204368656D447261773034323331303032323032440A2031302020392020302020302020302020302020302020302020302020303939392056323030300A20202020312E3738363220202020302E3236313520202020302E303030302043202020302020302020302020302020302020302020302020302020302020302020302020300A20202020312E303731372020202D302E3135313020202020302E303030302043202020302020302020302020302020302020302020302020302020302020302020302020300A20202020302E3335373220202020302E3236313520202020302E303030302043202020302020302020302020302020302020302020302020302020302020302020302020300A2020202D302E333537322020202D302E3135313020202020302E303030302043202020302020302020302020302020302020302020302020302020302020302020302020300A2020202D312E3037313720202020302E3236313520202020302E303030302043202020302020302020302020302020302020302020302020302020302020302020302020300A2020202D312E343834322020202D302E3435333020202020302E303030302043202020302020302020302020302020302020302020302020302020302020302020302020300A20202020312E303731372020202D302E3937363020202020302E30303030204F202020302020302020302020302020302020302020302020302020302020302020302020300A2020202D302E333537322020202D302E3937363020202020302E30303030204F202020302020302020302020302020302020302020302020302020302020302020302020300A2020202D312E3738363220202020302E3637343020202020302E303030302043202020302020302020302020302020302020302020302020302020302020302020302020300A2020202D302E3635393220202020302E3937363020202020302E303030302043202020302020302020302020302020302020302020302020302020302020302020302020300A2020312020322020312020302020202020200A2020322020332020312020302020202020200A2020332020342020312020302020202020200A2020342020352020312020302020202020200A2020352020362020312020312020202020200A2020322020372020322020302020202020200A2020342020382020322020302020202020200A2020352020392020312020302020202020200A2020352031302020312020312020202020200A4D2020454E44
Contributor: MASS SPECTROSCOPY SOC. OF JAPAN (MSSJ)
InstType: EI
InstName: JEOL JMS-D-3000
IoniMethod: _ENERGY 70 eV
IonPolarity: pos
Date: 2010-10-09 19:48:36+02:00
Num Peaks: 26
18 74 28 99 29 68 41 177 42 27 43 701 55 41 56 147 57 989 58 203 
59 66 69 73 71 98 83 34 84 301 85 999 86 195 87 53 98 44 99 54 
112 42 113 22 114 131 127 53 142 565 143 53 
