Name: BUTYL ALCOHOL
CAS: 71-36-3
MW: 74
Formula: C4H10O
Synonym: MassBank: JP007109
Synonym: BUTYL ALCOHOL
Synonym: 1-BUTANOL
Structure: 310A31340A425554594C20414C434F484F4C2E6D6F6C0A20204368656D447261773039303631303032343132440A2020352020342020302020302020302020302020302020302020302020303939392056323030300A2020202D302E3731343520202020302E3230363320202020302E303030302043202020302020302020302020302020302020302020302020302020302020302020302020300A20202020302E303030302020202D302E3230363320202020302E303030302043202020302020302020302020302020302020302020302020302020302020302020302020300A20202020302E3731343520202020302E3230363320202020302E303030302043202020302020302020302020302020302020302020302020302020302020302020302020300A20202020312E343238392020202D302E3230363220202020302E303030302043202020302020302020302020302020302020302020302020302020302020302020302020300A2020202D312E343238392020202D302E3230363320202020302E30303030204F202020302020302020302020302020302020302020302020302020302020302020302020300A2020312020322020312020302020202020200A2020322020332020312020302020202020200A2020332020342020312020302020202020200A2020312020352020312020302020202020200A4D2020454E44
Contributor: SODA AROMATIC CO., LTD.
InstType: EI
InstName: HITACHI M-80B
IoniMethod: _ENERGY 70 eV
IonPolarity: pos
Date: 2010-10-09 19:48:36+02:00
Num Peaks: 26
14 12 15 42 19 24 26 55 27 465 28 142 29 266 30 18 31 951 33 79 
37 13 38 27 39 202 40 43 41 736 42 338 43 641 44 37 45 76 50 11 
51 12 53 12 55 155 56 999 57 63 73 14 
