Name: 4-ETHYLPYRIDINE
MW: 107
Formula: C7H9N
Synonym: MassBank: JP003936
Synonym: 4-ETHYLPYRIDINE
Structure: 310A32310A342D455448594C5059524944494E452E6D6F6C0A20204368656D447261773033323531303232303632440A2020382020382020302020302020302020302020302020302020302020303939392056323030300A20202020312E303331332020202D302E3731343520202020302E303030302043202020302020302020302020302020302020302020302020302020302020302020302020300A20202020302E323036322020202D302E3731343520202020302E303030302043202020302020302020302020302020302020302020302020302020302020302020302020300A2020202D302E3230363320202020302E3030303020202020302E303030302043202020302020302020302020302020302020302020302020302020302020302020302020300A20202020302E3230363220202020302E3731343520202020302E303030302043202020302020302020302020302020302020302020302020302020302020302020302020300A20202020312E3033313320202020302E3731343520202020302E303030302043202020302020302020302020302020302020302020302020302020302020302020302020300A20202020312E343433382020202D302E3030303020202020302E30303030204E202020302020302020302020302020302020302020302020302020302020302020302020300A2020202D312E3033313320202020302E3030303020202020302E303030302043202020302020302020302020302020302020302020302020302020302020302020302020300A2020202D312E3434333820202020302E3731343520202020302E303030302043202020302020302020302020302020302020302020302020302020302020302020302020300A2020312020322020322020302020202020200A2020322020332020312020302020202020200A2020332020342020322020302020202020200A2020342020352020312020302020202020200A2020352020362020322020302020202020200A2020312020362020312020302020202020200A2020372020382020312020302020202020200A2020332020372020312020302020202020200A4D2020454E44
Contributor: MASS SPECTROSCOPY SOC. OF JAPAN (MSSJ)
InstType: EI
InstName: Unknown
IoniMethod: EI
IonPolarity: pos
Date: 2010-10-09 19:48:36+02:00
Num Peaks: 35
29 30 32 24 37 41 38 9 39 281 40 38 41 50 49 4 50 163 51 281 
52 155 53 9 54 81 61 28 62 33 63 6 64 39 65 268 66 42 67 4 
74 23 75 10 76 21 77 9 78 89 79 230 80 81 91 3 92 471 93 36 
104 20 105 3 106 840 107 999 108 105 
