Name: TRISTEARIN
MW: 890
Formula: C57H110O6
Synonym: MassBank: JP005845
Synonym: TRISTEARIN
Synonym: GLYCERYL TRISTEALATE
Structure: 5452495354454152494E2E6D6F6C0A20204368656D447261773038313231303039313532440A2036332036322020302020302020302020302020302020302020302020303939392056323030300A20202020302E373134352020202D332E3731323520202020302E30303030204F202020302020302020302020302020302020302020302020302020302020302020302020300A2020202D302E303030302020202D332E3330303020202020302E303030302043202020302020302020302020302020302020302020302020302020302020302020302020300A2020202D302E373134352020202D332E3731323520202020302E303030302043202020302020302020302020302020302020302020302020302020302020302020302020300A2020202D302E373134352020202D342E3533373520202020302E30303030204F202020302020302020302020302020302020302020302020302020302020302020302020300A2020202D312E343238392020202D332E3330303020202020302E303030302043202020302020302020302020302020302020302020302020302020302020302020302020300A2020202D322E313433342020202D332E3731323520202020302E30303030204F202020302020302020302020302020302020302020302020302020302020302020302020300A20202020312E343238392020202D332E3330303020202020302E303030302043202020302020302020302020302020302020302020302020302020302020302020302020300A20202020312E343238392020202D322E3437353020202020302E303030302043202020302020302020302020302020302020302020302020302020302020302020302020300A20202020322E313433342020202D322E3036323520202020302E303030302043202020302020302020302020302020302020302020302020302020302020302020302020300A20202020322E383537392020202D322E3437353020202020302E303030302043202020302020302020302020302020302020302020302020302020302020302020302020300A20202020332E353732342020202D322E3036323520202020302E303030302043202020302020302020302020302020302020302020302020302020302020302020302020300A20202020342E323836382020202D322E3437353020202020302E303030302043202020302020302020302020302020302020302020302020302020302020302020302020300A20202020352E303031332020202D322E3036323520202020302E303030302043202020302020302020302020302020302020302020302020302020302020302020302020300A20202020352E373135382020202D322E3437353020202020302E303030302043202020302020302020302020302020302020302020302020302020302020302020302020300A20202020362E343330322020202D322E3036323520202020302E303030302043202020302020302020302020302020302020302020302020302020302020302020302020300A20202020372E313434372020202D322E3437353020202020302E303030302043202020302020302020302020302020302020302020302020302020302020302020302020300A20202020372E383539322020202D322E3036323520202020302E303030302043202020302020302020302020302020302020302020302020302020302020302020302020300A20202020382E353733372020202D322E3437353020202020302E303030302043202020302020302020302020302020302020302020302020302020302020302020302020300A20202020392E323838312020202D322E3036323520202020302E303030302043202020302020302020302020302020302020302020302020302020302020302020302020300A20202031302E303032362020202D322E3437353020202020302E303030302043202020302020302020302020302020302020302020302020302020302020302020302020300A20202031302E373137312020202D322E3036323520202020302E303030302043202020302020302020302020302020302020302020302020302020302020302020302020300A20202031312E343331352020202D322E3437353020202020302E303030302043202020302020302020302020302020302020302020302020302020302020302020302020300A20202031322E313436302020202D322E3036323520202020302E303030302043202020302020302020302020302020302020302020302020302020302020302020302020300A20202031322E383630352020202D322E3437353020202020302E303030302043202020302020302020302020302020302020302020302020302020302020302020302020300A20202020322E313433342020202D332E3731323520202020302E30303030204F202020302020302020302020302020302020302020302020302020302020302020302020300A2020202D312E343238392020202D342E3935303020202020302E303030302043202020302020302020302020302020302020302020302020302020302020302020302020300A2020202D312E343238392020202D352E3737353020202020302E303030302043202020302020302020302020302020302020302020302020302020302020302020302020300A2020202D322E313433342020202D362E3138373520202020302E303030302043202020302020302020302020302020302020302020302020302020302020302020302020300A2020202D322E383537392020202D352E3737353020202020302E303030302043202020302020302020302020302020302020302020302020302020302020302020302020300A2020202D332E353732342020202D362E3138373520202020302E303030302043202020302020302020302020302020302020302020302020302020302020302020302020300A2020202D342E323836382020202D352E3737353020202020302E303030302043202020302020302020302020302020302020302020302020302020302020302020302020300A2020202D352E303031332020202D362E3138373520202020302E303030302043202020302020302020302020302020302020302020302020302020302020302020302020300A2020202D352E373135382020202D352E3737353020202020302E303030302043202020302020302020302020302020302020302020302020302020302020302020302020300A2020202D362E343330322020202D362E3138373520202020302E303030302043202020302020302020302020302020302020302020302020302020302020302020302020300A2020202D372E313434372020202D352E3737353020202020302E303030302043202020302020302020302020302020302020302020302020302020302020302020302020300A2020202D372E383539322020202D362E3138373520202020302E303030302043202020302020302020302020302020302020302020302020302020302020302020302020300A2020202D382E353733372020202D352E3737353020202020302E303030302043202020302020302020302020302020302020302020302020302020302020302020302020300A2020202D392E323838312020202D362E3138373520202020302E303030302043202020302020302020302020302020302020302020302020302020302020302020302020300A20202D31302E303032362020202D352E3737353020202020302E303030302043202020302020302020302020302020302020302020302020302020302020302020302020300A20202D31302E373137312020202D362E3138373520202020302E303030302043202020302020302020302020302020302020302020302020302020302020302020302020300A20202D31312E343331352020202D352E3737353020202020302E303030302043202020302020302020302020302020302020302020302020302020302020302020302020300A20202D31322E313436302020202D362E3138373520202020302E303030302043202020302020302020302020302020302020302020302020302020302020302020302020300A20202D31322E383630352020202D352E3737353020202020302E303030302043202020302020302020302020302020302020302020302020302020302020302020302020300A2020202D322E313433342020202D342E3533373520202020302E30303030204F202020302020302020302020302020302020302020302020302020302020302020302020300A2020202D322E383537392020202D332E3330303020202020302E303030302043202020302020302020302020302020302020302020302020302020302020302020302020300A2020202D332E353732342020202D332E3731323520202020302E303030302043202020302020302020302020302020302020302020302020302020302020302020302020300A2020202D342E323836382020202D332E3330303020202020302E303030302043202020302020302020302020302020302020302020302020302020302020302020302020300A2020202D342E323836382020202D322E3437353020202020302E303030302043202020302020302020302020302020302020302020302020302020302020302020302020300A2020202D352E303031332020202D322E3036323520202020302E303030302043202020302020302020302020302020302020302020302020302020302020302020302020300A2020202D352E303031332020202D312E3233373520202020302E303030302043202020302020302020302020302020302020302020302020302020302020302020302020300A2020202D352E373135382020202D302E3832353020202020302E303030302043202020302020302020302020302020302020302020302020302020302020302020302020300A2020202D352E3731353820202020302E3030303020202020302E303030302043202020302020302020302020302020302020302020302020302020302020302020302020300A2020202D362E3433303220202020302E3431323520202020302E303030302043202020302020302020302020302020302020302020302020302020302020302020302020300A2020202D362E3433303220202020312E3233373520202020302E303030302043202020302020302020302020302020302020302020302020302020302020302020302020300A2020202D372E3134343720202020312E3635303020202020302E303030302043202020302020302020302020302020302020302020302020302020302020302020302020300A2020202D372E3134343720202020322E3437353020202020302E303030302043202020302020302020302020302020302020302020302020302020302020302020302020300A2020202D372E3835393220202020322E3838373520202020302E303030302043202020302020302020302020302020302020302020302020302020302020302020302020300A2020202D372E3835393220202020332E3731323520202020302E303030302043202020302020302020302020302020302020302020302020302020302020302020302020300A2020202D382E3537333720202020342E3132353020202020302E303030302043202020302020302020302020302020302020302020302020302020302020302020302020300A2020202D382E3537333720202020342E3935303020202020302E303030302043202020302020302020302020302020302020302020302020302020302020302020302020300A2020202D392E3238383120202020352E3336323520202020302E303030302043202020302020302020302020302020302020302020302020302020302020302020302020300A2020202D392E3238383120202020362E3138373520202020302E303030302043202020302020302020302020302020302020302020302020302020302020302020302020300A2020202D322E383537392020202D322E3437353020202020302E30303030204F202020302020302020302020302020302020302020302020302020302020302020302020300A2020312020322020312020302020202020200A2020322020332020312020302020202020200A2020332020342020312020302020202020200A2020332020352020312020302020202020200A2020352020362020312020302020202020200A2020372020382020312020302020202020200A2020382020392020312020302020202020200A2020392031302020312020302020202020200A2031302031312020312020302020202020200A2031312031322020312020302020202020200A2031322031332020312020302020202020200A2031332031342020312020302020202020200A2031342031352020312020302020202020200A2031352031362020312020302020202020200A2031362031372020312020302020202020200A2031372031382020312020302020202020200A2031382031392020312020302020202020200A2031392032302020312020302020202020200A2032302032312020312020302020202020200A2032312032322020312020302020202020200A2032322032332020312020302020202020200A2032332032342020312020302020202020200A2020372032352020322020302020202020200A2020312020372020312020302020202020200A2032362032372020312020302020202020200A2032372032382020312020302020202020200A2032382032392020312020302020202020200A2032392033302020312020302020202020200A2033302033312020312020302020202020200A2033312033322020312020302020202020200A2033322033332020312020302020202020200A2033332033342020312020302020202020200A2033342033352020312020302020202020200A2033352033362020312020302020202020200A2033362033372020312020302020202020200A2033372033382020312020302020202020200A2033382033392020312020302020202020200A2033392034302020312020302020202020200A2034302034312020312020302020202020200A2034312034322020312020302020202020200A2034322034332020312020302020202020200A2032362034342020322020302020202020200A2020342032362020312020302020202020200A2034352034362020312020302020202020200A2034362034372020312020302020202020200A2034372034382020312020302020202020200A2034382034392020312020302020202020200A2034392035302020312020302020202020200A2035302035312020312020302020202020200A2035312035322020312020302020202020200A2035322035332020312020302020202020200A2035332035342020312020302020202020200A2035342035352020312020302020202020200A2035352035362020312020302020202020200A2035362035372020312020302020202020200A2035372035382020312020302020202020200A2035382035392020312020302020202020200A2035392036302020312020302020202020200A2036302036312020312020302020202020200A2036312036322020312020302020202020200A2034352036332020322020302020202020200A2020362034352020312020302020202020200A4D2020454E44
Contributor: HASHIMOTO K, KYOTO COLLEGE OF PHARMACY
InstType: EI
InstName: HITACHI M-80
IoniMethod: _ENERGY 20 eV
IonPolarity: pos
Date: 2010-10-09 19:48:36+02:00
Num Peaks: 137
41 11 83 17 84 60 85 11 95 15 96 15 97 14 98 163 100 12 109 12 
111 32 112 70 113 21 116 47 117 71 126 18 127 11 128 10 129 58 140 23 
141 14 154 40 155 18 158 38 167 11 168 23 169 19 171 37 182 18 183 14 
185 28 186 14 196 19 197 12 210 33 211 16 213 11 222 10 224 17 227 28 
237 10 238 12 239 35 241 26 244 13 255 10 264 38 265 26 266 177 267 836 
268 171 269 28 282 12 283 18 284 27 285 19 295 12 297 25 298 12 308 23 
309 18 311 16 312 13 313 25 322 15 323 11 324 14 325 19 326 12 327 112 
328 26 338 17 339 55 340 157 341 730 342 171 343 27 354 15 355 10 359 89 
360 26 367 21 368 12 369 14 382 276 383 172 384 39 385 10 395 91 396 31 
397 11 400 11 401 11 409 11 437 15 438 11 451 44 452 25 465 13 479 15 
493 15 494 10 507 22 508 12 521 14 522 13 523 11 535 12 536 10 549 13 
563 24 564 15 577 15 578 47 579 64 580 23 593 25 594 25 605 75 606 634 
607 999 608 380 609 93 610 19 625 16 634 15 635 17 636 10 648 20 649 11 
662 10 663 12 666 33 667 15 872 4 890 8 891 6 
