Name: MassBank: JP008173
CAS: 127-19-5
MW: 87
Formula: C4H9NO
Synonym: MassBank: JP008173
Synonym: N,N-DIMETHYLACETAMIDE
Structure: 310A31360A4E2C4E2D44494D455448594C41434554414D4944452E6D6F6C0A20204368656D447261773038313231303032333832440A2020362020352020302020302020302020302020302020302020302020303939392056323030300A20202020302E3230363220202020302E3335373220202020302E303030302043202020302020302020302020302020302020302020302020302020302020302020302020300A20202020312E3033313220202020302E3335373220202020302E303030302043202020302020302020302020302020302020302020302020302020302020302020302020300A2020202D302E3230363320202020312E3037313720202020302E30303030204F202020302020302020302020302020302020302020302020302020302020302020302020300A2020202D302E323036332020202D302E3335373220202020302E30303030204E202020302020302020302020302020302020302020302020302020302020302020302020300A20202020302E323036322020202D312E3037313720202020302E303030302043202020302020302020302020302020302020302020302020302020302020302020302020300A2020202D312E303331322020202D302E3335373220202020302E303030302043202020302020302020302020302020302020302020302020302020302020302020302020300A2020312020322020312020302020202020200A2020312020332020322020302020202020200A2020312020342020312020302020202020200A2020342020352020312020302020202020200A2020342020362020312020302020202020200A4D2020454E44
Contributor: NARA WOMEN'S UNIVERSITY
InstType: EI
InstName: HITACHI M-80
IoniMethod: _ENERGY 70 eV
IonPolarity: pos
Date: 2010-10-09 19:48:36+02:00
Num Peaks: 21
14 10 15 92 18 23 27 9 28 42 29 11 30 95 31 13 40 10 41 18 
42 194 43 397 44 999 45 263 46 9 56 16 58 15 72 218 73 11 87 885 
88 90 
