Name: MassBank: JP008002
MW: 302
Formula: C20H30O2
Synonym: MassBank: JP008002
Synonym: (1S,4AS,5S,8AS)-5BETA,8ABETA-DIMETHYL-1ALPHA,2-DIFORMYL-5AALPHA-(4-METHYL-3-PENTENYL)-1,4,4A,5,6,7,8,8AALPHA)-OCTAHYDRONAPHTHALENE
Synonym: ISOSACCULATAL
Structure: 2831532C3441532C35532C384153292D35424554412C3841424554412D44494D455448594C2D31414C5048412C322D4449464F524D594C2D3541414C5048412D28342D4D455448594C2D332D50454E54454E594C292D312C342C34412C352C362C372C382C3841414C504841292D4F435441485944524F4E4150485448414C454E452E6D6F6C0A20204368656D447261773130313930393136353132440A2032352032362020302020302020302020302020302020302020302020303939392056323030300A2020202D302E373639372020202D302E3635393220202020302E303030302043202020302020302020302020302020302020302020302020302020302020302020302020300A2020202D302E373639372020202D312E3438343220202020302E303030302043202020302020302020302020302020302020302020302020302020302020302020302020300A2020202D302E303535332020202D312E3839363720202020302E303030302043202020302020302020302020302020302020302020302020302020302020302020302020300A20202020302E363539322020202D312E3438343220202020302E303030302043202020302020302020302020302020302020302020302020302020302020302020302020300A20202020302E363539322020202D302E3635393220202020302E303030302043202020302020302020302020302020302020302020302020302020302020302020302020300A2020202D302E303535332020202D302E3234363720202020302E303030302043202020302020302020302020302020302020302020302020302020302020302020302020300A20202020312E333733372020202D312E3839363720202020302E303030302043202020302020302020302020302020302020302020302020302020302020302020302020300A20202020322E303838312020202D312E3438343220202020302E303030302043202020302020302020302020302020302020302020302020302020302020302020302020300A20202020322E303838312020202D302E3635393220202020302E303030302043202020302020302020302020302020302020302020302020302020302020302020302020300A20202020312E333733372020202D302E3234363720202020302E303030302043202020302020302020302020302020302020302020302020302020302020302020302020300A2020202D312E343834322020202D302E3234363720202020302E303030302048202020302020302020302020302020302020302020302020302020302020302020302020300A2020202D312E343834322020202D312E3839363720202020302E303030302043202020302020302020302020302020302020302020302020302020302020302020302020300A2020202D322E313938372020202D312E3438343220202020302E30303030204F202020302020302020302020302020302020302020302020302020302020302020302020300A2020202D302E363338362020202D322E3438303120202020302E303030302048202020302020302020302020302020302020302020302020302020302020302020302020300A20202020302E3936313220202020302E3436373820202020302E303030302043202020302020302020302020302020302020302020302020302020302020302020302020300A20202020302E3531353920202020302E3135333320202020302E303030302048202020302020302020302020302020302020302020302020302020302020302020302020300A20202020302E333537322020202D322E3631313220202020302E303030302043202020302020302020302020302020302020302020302020302020302020302020302020300A2020202D302E303535332020202D332E3332353620202020302E30303030204F202020302020302020302020302020302020302020302020302020302020302020302020300A20202020312E3337333720202020312E3138323220202020302E303030302043202020302020302020302020302020302020302020302020302020302020302020302020300A20202020302E3936313220202020312E3839363720202020302E303030302043202020302020302020302020302020302020302020302020302020302020302020302020300A20202020312E3337333720202020322E3631313220202020302E303030302043202020302020302020302020302020302020302020302020302020302020302020302020300A20202020302E3936313220202020332E3332353620202020302E303030302043202020302020302020302020302020302020302020302020302020302020302020302020300A20202020322E3139383720202020322E3631313220202020302E303030302043202020302020302020302020302020302020302020302020302020302020302020302020300A20202020312E3935363420202020302E3333373720202020302E303030302043202020302020302020302020302020302020302020302020302020302020302020302020300A20202020302E383032312020202D322E3239363720202020302E303030302043202020302020302020302020302020302020302020302020302020302020302020302020300A2020312020322020322020302020202020200A2020322020332020312020302020202020200A2020332020342020312020302020202020200A2020342020352020312020302020202020200A2020352020362020312020302020202020200A2020362020312020312020302020202020200A2020342020372020312020302020202020200A2020372020382020312020302020202020200A2020382020392020312020302020202020200A2020392031302020312020302020202020200A2031302020352020312020302020202020200A2020312031312020312020302020202020200A2020322031322020312020302020202020200A2031322031332020322020302020202020200A2020332031342020312020312020202020200A2031302031352020312020362020202020200A2020352031362020312020362020202020200A2020332031372020312020362020202020200A2031372031382020322020302020202020200A2031352031392020312020302020202020200A2031392032302020312020302020202020200A2032302032312020322020302020202020200A2032312032322020312020302020202020200A2032312032332020312020302020202020200A2031302032342020312020312020202020200A2020342032352020312020312020202020200A4D202053545920203120202031205355500A4D2020534C4220203120202031202020310A4D202053414C20202031202031202032340A4D202053424C20202031202031202032350A4D2020534D5420202031204D650A4D2020534256202020312032352020202D362E3833353720202020372E383834370A4D202053545920203120202032205355500A4D2020534C4220203120202032202020320A4D202053414C20202032202031202032350A4D202053424C20202032202031202032360A4D2020534D5420202032204D650A4D2020534256202020322032362020202D372E3237353420202020362E343837380A4D2020454E44
Contributor: HISAHIRO HAGIWARA, CHEMICAL RESEARCH INSTITUTE OF NON-AQUEOUSSOLUTIONS TOHOKU UNIV.
InstType: EI
InstName: JEOL JMS-DX-300
IoniMethod: _ENERGY 70 eV
IonPolarity: pos
Date: 2010-10-09 19:48:36+02:00
Num Peaks: 80
31 456 32 293 39 95 41 935 42 58 43 535 45 580 53 120 55 513 56 52 
57 124 59 999 65 67 67 224 69 703 70 68 71 73 73 86 74 64 77 153 
79 197 81 253 82 78 83 209 91 339 93 204 95 204 96 53 97 77 105 47 
106 191 108 55 109 211 115 59 117 87 119 169 121 252 122 122 123 109 129 81 
130 56 131 213 133 203 134 121 135 141 137 54 143 89 145 196 147 190 148 68 
149 165 156 87 157 76 158 137 159 242 160 60 161 132 163 89 171 61 173 129 
174 123 175 97 177 63 185 58 187 95 189 144 190 60 191 63 201 379 202 134 
203 107 218 77 219 103 220 88 231 125 259 335 260 78 274 70 289 58 302 175 
