Name: (16R)-ENT-15-OXOKAURAN-18-OIC ACID
MW: 318
Formula: C20H30O3
Synonym: MassBank: JP006332
Synonym: (16R)-ENT-15-OXOKAURAN-18-OIC ACID
Structure: 28313652292D454E542D31352D4F584F4B415552414E2D31382D4F494320414349442E6D6F6C0A20204368656D447261773130303630393135333932440A2032372033302020302020302020302020302020302020302020302020303939392056323030300A2020202D312E373837322020202D302E3230363220202020302E303030302043202020302020302020302020302020302020302020302020302020302020302020302020300A2020202D312E373837322020202D312E3033313320202020302E303030302043202020302020302020302020302020302020302020302020302020302020302020302020300A2020202D312E303732372020202D312E3434333820202020302E303030302043202020302020302020302020302020302020302020302020302020302020302020302020300A2020202D302E333538322020202D312E3033313320202020302E303030302043202020302020302020302020302020302020302020302020302020302020302020302020300A2020202D302E333538322020202D302E3230363220202020302E303030302043202020302020302020302020302020302020302020302020302020302020302020302020300A2020202D312E3037323720202020302E3230363220202020302E303030302043202020302020302020302020302020302020302020302020302020302020302020302020300A20202020302E333536322020202D312E3434333820202020302E303030302043202020302020302020302020302020302020302020302020302020302020302020302020300A20202020312E303730372020202D312E3033313320202020302E303030302043202020302020302020302020302020302020302020302020302020302020302020302020300A20202020312E303730372020202D302E3230363220202020302E303030302043202020302020302020302020302020302020302020302020302020302020302020302020300A20202020302E3335363220202020302E3230363220202020302E303030302043202020302020302020302020302020302020302020302020302020302020302020302020300A20202020312E3738353220202020302E3230363220202020302E303030302043202020302020302020302020302020302020302020302020302020302020302020302020300A20202020312E3738353220202020312E3033313320202020302E303030302043202020302020302020302020302020302020302020302020302020302020302020302020300A20202020312E3037303720202020312E3434333820202020302E303030302043202020302020302020302020302020302020302020302020302020302020302020302020300A20202020302E3335363220202020312E3033313320202020302E303030302043202020302020302020302020302020302020302020302020302020302020302020302020300A2020202D302E3335363520202020302E3631383820202020302E303030302048202020302020302020302020302020302020302020302020302020302020302020302020300A2020202D322E343939352020202D312E3434333820202020302E303030302048202020302020302020302020302020302020302020302020302020302020302020302020300A2020202D302E373730372020202D302E3331363820202020302E303030302043202020302020302020302020302020302020302020302020302020302020302020302020300A2020202D312E333734372020202D302E3331363820202020302E303030302043202020302020302020302020302020302020302020302020302020302020302020302020300A2020202D312E3738363120202020302E3339353620202020302E303030302048202020302020302020302020302020302020302020302020302020302020302020302020300A2020202D302E3736393020202020302E3530373220202020302E30303030204F202020302020302020302020302020302020302020302020302020302020302020302020300A20202020312E363534342020202D302E3739303320202020302E303030302048202020302020302020302020302020302020302020302020302020302020302020302020300A2020202D302E3035363620202020302E3932313320202020302E303030302043202020302020302020302020302020302020302020302020302020302020302020302020300A20202020322E343939352020202D302E3631383720202020302E303030302043202020302020302020302020302020302020302020302020302020302020302020302020300A20202020322E3439393520202020302E3230363320202020302E30303030204F202020302020302020302020302020302020302020302020302020302020302020302020300A20202020312E373835312020202D312E3033313220202020302E30303030204F202020302020302020302020302020302020302020302020302020302020302020302020300A20202020312E3036393520202020302E3631383820202020302E303030302043202020302020302020302020302020302020302020302020302020302020302020302020300A2020202D312E313632312020202D312E3131323420202020302E303030302043202020302020302020302020302020302020302020302020302020302020302020302020300A2020312020322020312020302020202020200A2020322020332020312020302020202020200A2020332020342020312020302020202020200A2020342020352020312020302020202020200A2020352020362020312020302020202020200A2020362020312020312020302020202020200A2020342020372020312020302020202020200A2020372020382020312020302020202020200A2020382020392020312020302020202020200A2020392031302020312020302020202020200A2031302020352020312020302020202020200A2020392031312020312020302020202020200A2031312031322020312020302020202020200A2031322031332020312020302020202020200A2031332031342020312020302020202020200A2031342031302020312020302020202020200A2020322031362020312020362020202020200A2020342031372020312020312020202020200A2020322031382020312020312020202020200A2031382031372020312020302020202020200A2031382031392020312020312020202020200A2031372032302020322020302020202020200A2020352031352020312020312020202020200A2020392032312020312020312020202020200A2031302032322020312020362020202020200A2031312032332020312020362020202020200A2032332032342020322020302020202020200A2032332032352020312020302020202020200A2031312032362020312020312020202020200A2031382032372020312020312020202020200A4D202053545920203120202031205355500A4D2020534C4220203120202031202020310A4D202053414C20202031202031202032320A4D202053424C20202031202031202032350A4D2020534D5420202031204D650A4D2020534256202020312032352020202D372E3131363220202020342E383630360A4D202053545920203120202032205355500A4D2020534C4220203120202032202020320A4D202053414C202020322020332020323320203234202032350A4D202053424C20202032202031202032360A4D2020534D542020203220434F4F480A4D2020534256202020322032362020202D352E3938393020202020332E333230360A4D202053545920203120202033205355500A4D2020534C4220203120202033202020330A4D202053414C20202033202031202032360A4D202053424C20202033202031202032390A4D2020534D5420202033204D650A4D2020534256202020332032392020202D372E3431393020202020342E353538310A4D202053545920203120202034205355500A4D2020534C4220203120202034202020340A4D202053414C20202034202031202032370A4D202053424C20202034202031202033300A4D2020534D5420202034204D650A4D2020534256202020342033302020202D362E3439303720202020332E333530300A4D2020454E44
Contributor: EGUCHI S, FAC. OF SCIENCE, HIROSHIMA UNIV.
InstType: EI
InstName: HITACHI RMU-7L
IoniMethod: _ENERGY 70 eV
IonPolarity: pos
Date: 2010-10-09 19:48:36+02:00
Num Peaks: 104
40 55 41 999 42 105 43 58 44 20 45 100 53 315 54 8 55 865 56 85 
57 180 58 11 59 75 65 155 66 77 67 62 68 125 69 290 70 55 71 11 
77 455 78 105 79 765 80 18 81 690 82 125 83 95 87 11 91 645 92 397 
93 524 94 40 95 396 96 100 97 105 101 9 104 85 105 384 106 293 107 61 
108 166 109 443 110 105 111 8 115 115 117 140 118 68 119 22 120 105 121 532 
122 250 123 37 124 95 129 60 131 157 132 7 133 159 134 88 135 159 136 7 
137 65 139 125 143 70 145 16 147 130 149 114 150 105 151 11 159 105 160 15 
161 95 166 6 167 120 173 125 174 67 175 8 189 62 199 87 200 15 204 8 
205 90 214 60 215 90 229 13 239 112 240 15 241 10 243 10 245 174 246 25 
257 140 258 1 259 20 260 420 261 215 272 18 273 80 274 55 275 115 285 6 
300 5 303 10 318 275 319 65 
