Name: GERANYL BROMIDE
CAS: 6138-90-5
MW: 216
Formula: C10H17Br
Synonym: MassBank: JP009540
Synonym: GERANYL BROMIDE
Synonym: TRANS-1-BROMO-3,7-DIMETHYL-2,6-OCTADIENE
Structure: 5452414E532D312D42524F4D4F2D332C372D44494D455448594C2D322C362D4F4354414449454E452E6D6F6C0A20204368656D447261773038313231303037343332440A2031312031302020302020302020302020302020302020302020302020303939392056323030300A20202020312E363530302020202D302E3731343520202020302E303030302043202020302020302020302020302020302020302020302020302020302020302020302020300A20202020312E3233373520202020302E3030303020202020302E303030302043202020302020302020302020302020302020302020302020302020302020302020302020300A20202020302E3431323520202020302E3030303020202020302E303030302043202020302020302020302020302020302020302020302020302020302020302020302020300A20202020302E3030303020202020302E3731343520202020302E303030302043202020302020302020302020302020302020302020302020302020302020302020302020300A2020202D302E3832353020202020302E3731343520202020302E303030302043202020302020302020302020302020302020302020302020302020302020302020302020300A2020202D312E323337352020202D302E3030303020202020302E303030302043202020302020302020302020302020302020302020302020302020302020302020302020300A2020202D322E303632352020202D302E3030303020202020302E303030302043202020302020302020302020302020302020302020302020302020302020302020302020300A2020202D322E343735302020202D302E3731343520202020302E303030302043202020302020302020302020302020302020302020302020302020302020302020302020300A2020202D322E3437353020202020302E3731343520202020302E303030302043202020302020302020302020302020302020302020302020302020302020302020302020300A2020202D302E303030302020202D302E3731343520202020302E303030302043202020302020302020302020302020302020302020302020302020302020302020302020300A20202020322E343735302020202D302E3731343520202020302E303030302042722020302020302020302020302020302020302020302020302020302020302020302020300A2020312020322020312020302020202020200A2020322020332020322020302020202020200A2020332020342020312020302020202020200A2020342020352020312020302020202020200A2020352020362020312020302020202020200A2020362020372020322020302020202020200A2020372020382020312020302020202020200A2020372020392020312020302020202020200A2020332031302020312020302020202020200A2020312031312020312020302020202020200A4D2020454E44
Contributor: NARA WOMEN'S UNIVERSITY
InstType: EI
InstName: HITACHI M-80
IoniMethod: _ENERGY 70 eV
IonPolarity: pos
Date: 2010-10-09 19:48:36+02:00
Num Peaks: 54
15 14 26 13 27 180 29 100 38 15 39 247 40 66 41 643 42 50 43 64 
50 17 51 52 52 32 53 196 54 29 55 134 56 17 57 30 59 26 63 15 
65 41 66 23 67 226 68 182 69 999 70 58 71 10 77 53 78 14 79 65 
80 20 81 412 82 37 83 18 91 46 92 17 93 80 94 18 95 98 96 19 
105 20 107 17 109 14 110 10 121 31 123 11 135 9 136 40 137 247 138 28 
173 12 175 12 178 9 217 8 
