Name: ORTHO-CHLORO-3-HYDROXYDIAZEPAM
MW: 334
Formula: C16H12Cl2N2O2
Synonym: MassBank: JP004113
Synonym: ORTHO-CHLORO-3-HYDROXYDIAZEPAM
Structure: 303230345F4F5254484F2D43484C4F524F2D332D485944524F58594449415A4550414D2E6D6F6C0A20204368656D447261773130313931303137343232440A2032322032342020302020302020302020302020302020302020302020303939392056323030300A2020202D312E363733392020202D302E3339373420202020302E303030302043202020302020302020302020302020302020302020302020302020302020302020302020300A2020202D312E363733392020202D312E3232323420202020302E303030302043202020302020302020302020302020302020302020302020302020302020302020302020300A2020202D302E393539342020202D312E3633343920202020302E303030302043202020302020302020302020302020302020302020302020302020302020302020302020300A2020202D302E323435302020202D312E3232323420202020302E303030302043202020302020302020302020302020302020302020302020302020302020302020302020300A2020202D302E323435302020202D302E3339373420202020302E303030302043202020302020302020302020302020302020302020302020302020302020302020302020300A2020202D302E3935393420202020302E3031353120202020302E303030302043202020302020302020302020302020302020302020302020302020302020302020302020300A20202020302E343031302020202D312E3733363920202020302E30303030204E202020302020302020302020302020302020302020302020302020302020302020302020300A20202020312E323034342020202D312E3535333120202020302E303030302043202020302020302020302020302020302020302020302020302020302020302020302020300A20202020312E353632332020202D302E3830393920202020302E303030302043202020302020302020302020302020302020302020302020302020302020302020302020300A20202020312E323035332020202D302E3036373120202020302E30303030204E202020302020302020302020302020302020302020302020302020302020302020302020300A20202020302E3430303020202020302E3131373020202020302E303030302043202020302020302020302020302020302020302020302020302020302020302020302020300A20202020312E373139382020202D322E3139393120202020302E30303030204F202020302020302020302020302020302020302020302020302020302020302020302020300A20202020322E333837332020202D302E3831313220202020302E30303030204F202020302020302020302020302020302020302020302020302020302020302020302020300A2020202D322E3338373320202020302E3031353120202020302E3030303020436C2020302020302020302020302020302020302020302020302020302020302020302020300A20202020302E3232373420202020302E3931303220202020302E303030302043202020302020302020302020302020302020302020302020302020302020302020302020300A20202020302E3831303820202020312E3439333620202020302E303030302043202020302020302020302020302020302020302020302020302020302020302020302020300A20202020302E3633383120202020322E3238363820202020302E303030302043202020302020302020302020302020302020302020302020302020302020302020302020300A2020202D302E3136303920202020322E3534313320202020302E303030302043202020302020302020302020302020302020302020302020302020302020302020302020300A2020202D302E3734343320202020312E3935373920202020302E303030302043202020302020302020302020302020302020302020302020302020302020302020302020300A2020202D302E3537313720202020312E3136343720202020302E303030302043202020302020302020302020302020302020302020302020302020302020302020302020300A20202020302E323137392020202D322E3534313320202020302E303030302043202020302020302020302020302020302020302020302020302020302020302020302020300A2020202D312E3138313820202020302E3630393420202020302E3030303020436C2020302020302020302020302020302020302020302020302020302020302020302020300A2020312020322020322020302020202020200A2020322020332020312020302020202020200A2020332020342020322020302020202020200A2020342020352020312020302020202020200A2020352020362020322020302020202020200A2020362020312020312020302020202020200A2020342020372020312020302020202020200A2020372020382020312020302020202020200A2020382020392020312020302020202020200A2020392031302020312020302020202020200A2031302031312020322020302020202020200A2031312020352020312020302020202020200A2020382031322020322020302020202020200A2020392031332020312020302020202020200A2031312031352020312020302020202020200A2020312031342020312020302020202020200A2031352031362020322020302020202020200A2031362031372020312020302020202020200A2031372031382020322020302020202020200A2031382031392020312020302020202020200A2031392032302020322020302020202020200A2031352032302020312020302020202020200A2020372032312020312020302020202020200A2032302032322020312020302020202020200A4D2020454E44
Contributor: YAMAMOTO M, DEP. CHEMISTRY, FAC. SCIENCE, NARA WOMEN'S UNIV.
InstType: EI
InstName: HITACHI M-68
IoniMethod: _ENERGY 70 eV
IonPolarity: pos
Date: 2010-10-09 19:48:36+02:00
Num Peaks: 98
15 17 18 65 39 13 50 15 51 26 63 22 69 18 74 2 75 51 76 27 
77 32 88 2 89 17 99 17 100 14 101 1 102 54 103 20 110 11 111 5 
112 17 113 22 114 15 117 3 117.5 18 121.5 12 124 15 125 2 126 13 127 13 
132 10 135 1 136 12 137 13 138 48 139 4 140 41 141 12 150 27 151 3 
152 33 153 13 154 10 163 2 164 27 165 47 166 16 167 1 176 10 177 48 
178 22 179 1 191 16 192 17 193 18 195 2 199 17 200 10 201 10 214 2 
226 13 227 22 228 30 229 1 235 11 241 10 242 12 243 2 255 45 256 16 
257 15 261 1 262 25 263 13 264 16 269 2 270 10 271 19 273 15 275 1 
277 12 289 54 290 34 291 6 292 23 293 25 299 16 305 999 306 170 307 650 
308 102 309 10 310 18 334 130 335 26 336 8 337 16 338 14 
