Name: MassBank: JP003126
MW: 260
Formula: C14H12O5
Synonym: MassBank: JP003126
Synonym: 4-ETHOXY-3-METHOXYFURO(3',2':6,7)COUMARIN
Structure: 342D4554484F58592D332D4D4554484F58594655524F2833272C3227362C3729434F554D4152494E2E6D6F6C0A20204368656D447261773033323531303231343532440A2031392032312020302020302020302020302020302020302020302020303939392056323030300A20202020302E3633343820202020312E3835363320202020302E30303030204F202020302020302020302020302020302020302020302020302020302020302020302020300A20202020312E3334393220202020312E3434333720202020302E303030302043202020302020302020302020302020302020302020302020302020302020302020302020300A20202020322E3036333720202020312E3835363320202020302E30303030204F202020302020302020302020302020302020302020302020302020302020302020302020300A20202020312E3334393220202020302E3631383820202020302E303030302043202020302020302020302020302020302020302020302020302020302020302020302020300A20202020302E3633343820202020302E3230363220202020302E303030302043202020302020302020302020302020302020302020302020302020302020302020302020300A2020202D302E3037393720202020302E3631383820202020302E303030302043202020302020302020302020302020302020302020302020302020302020302020302020300A2020202D302E3739343220202020302E3230363220202020302E303030302043202020302020302020302020302020302020302020302020302020302020302020302020300A2020202D312E3530383620202020302E3631383720202020302E303030302043202020302020302020302020302020302020302020302020302020302020302020302020300A2020202D312E3530383620202020312E3434333720202020302E303030302043202020302020302020302020302020302020302020302020302020302020302020302020300A2020202D302E3739343220202020312E3835363320202020302E303030302043202020302020302020302020302020302020302020302020302020302020302020302020300A2020202D302E3037393720202020312E3434333720202020302E303030302043202020302020302020302020302020302020302020302020302020302020302020302020300A2020202D322E3239333320202020312E3639383720202020302E30303030204F202020302020302020302020302020302020302020302020302020302020302020302020300A2020202D322E3239333320202020302E3336333820202020302E303030302043202020302020302020302020302020302020302020302020302020302020302020302020300A2020202D322E3737383220202020312E3033313220202020302E303030302043202020302020302020302020302020302020302020302020302020302020302020302020300A20202020322E3036333720202020302E3230363220202020302E30303030204F202020302020302020302020302020302020302020302020302020302020302020302020300A20202020322E3737383220202020302E3631383820202020302E303030302043202020302020302020302020302020302020302020302020302020302020302020302020300A20202020302E363334382020202D302E3631383820202020302E30303030204F202020302020302020302020302020302020302020302020302020302020302020302020300A20202020312E333439322020202D312E3033313320202020302E303030302043202020302020302020302020302020302020302020302020302020302020302020302020300A20202020312E333439322020202D312E3835363320202020302E303030302043202020302020302020302020302020302020302020302020302020302020302020302020300A2020312020322020312020302020202020200A2020322020332020322020302020202020200A2020322020342020312020302020202020200A2020342020352020322020302020202020200A2020352020362020312020302020202020200A2020362020372020312020302020202020200A2020372020382020322020302020202020200A2020382020392020312020302020202020200A2020392031302020322020302020202020200A2031302031312020312020302020202020200A2020312031312020312020302020202020200A2020362031312020322020302020202020200A2031332031342020322020302020202020200A2031322031342020312020302020202020200A2020382031332020312020302020202020200A2020392031322020312020302020202020200A2031352031362020312020302020202020200A2020342031352020312020302020202020200A2031382031392020312020302020202020200A2031372031382020312020302020202020200A2020352031372020312020302020202020200A4D2020454E44
Contributor: NAKAYAMA M, MASS SPECTROSCOPY SOC. OF JAPAN (MSSJ)
InstType: EI
InstName: HITACHI RMU-7L
IoniMethod: _ENERGY 70 eV
IonPolarity: pos
Date: 2010-10-09 19:48:36+02:00
Num Peaks: 21
76 270 77 140 87 50 104 120 105 90 116 110 132 170 133 90 144 70 160 530 
161 480 189 980 190 110 203 190 214 90 217 500 218 70 232 190 245 50 260 999 
261 160 
