Name: ISOPROPYL PROPIONATE
MW: 116
Formula: C6H12O2
Synonym: MassBank: JP006391
Synonym: ISOPROPYL PROPIONATE
Structure: 310A32300A49534F50524F50594C2050524F50494F4E4154452E6D6F6C0A20204368656D447261773038313131303231343832440A2020382020372020302020302020302020302020302020302020302020303939392056323030300A20202020302E3230363320202020302E3731343520202020302E303030302043202020302020302020302020302020302020302020302020302020302020302020302020300A2020202D302E3230363320202020312E3432383920202020302E303030302043202020302020302020302020302020302020302020302020302020302020302020302020300A2020202D312E3033313320202020312E3432383920202020302E303030302043202020302020302020302020302020302020302020302020302020302020302020302020300A20202020312E3033313320202020302E3731343520202020302E30303030204F202020302020302020302020302020302020302020302020302020302020302020302020300A2020202D302E323036332020202D302E3030303020202020302E30303030204F202020302020302020302020302020302020302020302020302020302020302020302020300A20202020302E323036332020202D302E3731343520202020302E303030302043202020302020302020302020302020302020302020302020302020302020302020302020300A20202020312E303331332020202D302E3731343520202020302E303030302043202020302020302020302020302020302020302020302020302020302020302020302020300A2020202D302E323036322020202D312E3432383920202020302E303030302043202020302020302020302020302020302020302020302020302020302020302020302020300A2020312020322020312020302020202020200A2020322020332020312020302020202020200A2020312020342020322020302020202020200A2020312020352020312020302020202020200A2020362020372020312020302020202020200A2020362020382020312020302020202020200A2020352020362020312020302020202020200A4D2020454E44
Contributor: HISAHIRO HAGIWARA, CHEMICAL RESEARCH INSTITUTE OF NON-AQUEOUSSOLUTIONS TOHOKU UNIV.
InstType: EI
InstName: HITACHI M-80B
IoniMethod: _ENERGY 70 eV
IonPolarity: pos
Date: 2010-10-09 19:48:36+02:00
Num Peaks: 20
15 24 26 30 27 195 28 44 29 287 31 14 39 72 41 171 42 66 43 609 
44 24 45 37 55 11 56 11 57 999 58 31 59 100 74 38 75 277 101 98 
