Name: MassBank: JP004322
MW: 188
Formula: C12H16N2
Synonym: MassBank: JP004322
Synonym: 3-(2-AMINOETHYL)-2,7-DIMETHYLINDOLE
Structure: 332D28322D414D494E4F455448594C292D322C372D44494D455448594C494E444F4C452E6D6F6C0A20204368656D447261773032323231303039333832440A2031342031352020302020302020302020302020302020302020302020303939392056323030300A20202020302E343434342020202D302E3937303320202020302E30303030204E202020302020302020302020302020302020302020302020302020302020302020302020300A2020202D302E333039332020202D302E3633343820202020302E303030302043202020302020302020302020302020302020302020302020302020302020302020302020300A2020202D302E3232333120202020302E3138353720202020302E303030302043202020302020302020302020302020302020302020302020302020302020302020302020300A20202020302E3538333920202020302E3335373220202020302E303030302043202020302020302020302020302020302020302020302020302020302020302020302020300A20202020302E3939363420202020312E3037313720202020302E303030302043202020302020302020302020302020302020302020302020302020302020302020302020300A20202020312E3832313420202020312E3037313720202020302E303030302043202020302020302020302020302020302020302020302020302020302020302020302020300A20202020322E3233333920202020302E3335373220202020302E303030302043202020302020302020302020302020302020302020302020302020302020302020302020300A20202020312E383231342020202D302E3335373220202020302E303030302043202020302020302020302020302020302020302020302020302020302020302020302020300A20202020302E393936342020202D302E3335373220202020302E303030302043202020302020302020302020302020302020302020302020302020302020302020302020300A20202020322E323333392020202D312E3037313720202020302E303030302043202020302020302020302020302020302020302020302020302020302020302020302020300A2020202D312E303233382020202D312E3034373320202020302E303030302043202020302020302020302020302020302020302020302020302020302020302020302020300A2020202D302E3833363220202020302E3733373720202020302E303030302043202020302020302020302020302020302020302020302020302020302020302020302020300A2020202D312E3632303820202020302E3438323820202020302E303030302043202020302020302020302020302020302020302020302020302020302020302020302020300A2020202D322E3233333920202020312E3033343820202020302E30303030204E202020302020302020302020302020302020302020302020302020302020302020302020300A2020312020322020312020302020202020200A2020322020332020322020302020202020200A2020332020342020312020302020202020200A2020342020352020312020302020202020200A2020352020362020322020302020202020200A2020362020372020312020302020202020200A2020372020382020322020302020202020200A2020382020392020312020302020202020200A2020312020392020312020302020202020200A2020342020392020322020302020202020200A2020382031302020312020302020202020200A2020322031312020312020302020202020200A2031322031332020312020302020202020200A2031332031342020312020302020202020200A2020332031322020312020302020202020200A4D2020454E44
Contributor: SASAKI S, TOYOHASHI UNIV. OF TECH.
InstType: EI
InstName: MX-1303
IoniMethod: _ENERGY 50 eV
IonPolarity: pos
Date: 2010-10-09 19:48:36+02:00
Num Peaks: 28
39 19 51 15 63 17 65 2 77 20 89 17 91 33 102 1 115 93 116 31 
117 14 127 1 128 23 129 17 130 18 141 1 142 33 143 87 144 87 145 3 
154 12 156 49 157 77 158 999 159 308 160 31 188 136 189 20 
