Name: PROPYLHYDRAZONE ISOBUTYRALDEHYDE
MW: 128
Formula: C7H16N2
Synonym: MassBank: JP000531
Synonym: PROPYLHYDRAZONE ISOBUTYRALDEHYDE
Synonym: ISOBUTYRALDEHYDE PROPYLHYDRAZONE
Structure: 50524F50594C48594452415A4F4E452049534F4255545952414C4445485944452E6D6F6C0A20204368656D447261773038313231303036323132440A2031302020392020302020302020302020302020302020302020302020303939392056323030300A20202020322E3036323520202020302E3335373220202020302E303030302043202020302020302020302020302020302020302020302020302020302020302020302020300A20202020312E363530302020202D302E3335373220202020302E303030302043202020302020302020302020302020302020302020302020302020302020302020302020300A20202020302E383235302020202D302E3335373220202020302E303030302043202020302020302020302020302020302020302020302020302020302020302020302020300A20202020322E303632352020202D312E3037313720202020302E303030302043202020302020302020302020302020302020302020302020302020302020302020302020300A20202020312E3635303020202020312E3037313720202020302E30303030204F202020302020302020302020302020302020302020302020302020302020302020302020300A20202020302E343132352020202D312E3037313720202020302E30303030204E202020302020302020302020302020302020302020302020302020302020302020302020300A2020202D302E343132352020202D312E3037313720202020302E30303030204E202020302020302020302020302020302020302020302020302020302020302020302020300A2020202D302E383235302020202D302E3335373220202020302E303030302043202020302020302020302020302020302020302020302020302020302020302020302020300A2020202D312E363530302020202D302E3335373220202020302E303030302043202020302020302020302020302020302020302020302020302020302020302020302020300A2020202D322E3036323520202020302E3335373220202020302E303030302043202020302020302020302020302020302020302020302020302020302020302020302020300A2020312020322020312020302020202020200A2020322020332020312020302020202020200A2020322020342020312020302020202020200A2020312020352020322020302020202020200A2020362020372020312020302020202020200A2020382020392020312020302020202020200A2020392031302020312020302020202020200A2020372020382020312020302020202020200A2020332020362020322020302020202020200A4D2020454E44
Contributor: SASAKI S, TOYOHASHI UNIV. OF TECH.
InstType: EI
InstName: SHIMADZU LKB-2091
IoniMethod: _ENERGY 70 eV
IonPolarity: pos
Date: 2010-10-09 19:48:36+02:00
Num Peaks: 30
28 270 29 200 30 846 39 15 40 23 41 365 42 139 43 999 44 108 45 18 
54 46 55 5 56 108 57 135 58 169 68 2 69 33 70 73 71 54 72 3 
83 22 84 14 85 162 86 2 97 16 99 106 100 7 113 1 128 385 129 54 
