Name: N-DODECYL-2-PYRROLIDONE
MW: 253
Formula: C16H31NO
Synonym: MassBank: JP004192
Synonym: N-DODECYL-2-PYRROLIDONE
Structure: 4E2D444F444543594C2D322D505952524F4C49444F4E452E6D6F6C0A20204368656D447261773038313231303032303032440A2031382031382020302020302020302020302020302020302020302020303939392056323030300A20202020332E363334302020202D302E3037353320202020302E30303030204E202020302020302020302020302020302020302020302020302020302020302020302020300A20202020342E3338373620202020302E3236303320202020302E303030302043202020302020302020302020302020302020302020302020302020302020302020302020300A20202020342E393339372020202D302E3335323820202020302E303030302043202020302020302020302020302020302020302020302020302020302020302020302020300A20202020342E353237322020202D312E3036373320202020302E303030302043202020302020302020302020302020302020302020302020302020302020302020302020300A20202020332E373230322020202D302E3839353720202020302E303030302043202020302020302020302020302020302020302020302020302020302020302020302020300A20202020342E3535393220202020312E3036373320202020302E30303030204F202020302020302020302020302020302020302020302020302020302020302020302020300A20202020322E3931393520202020302E3333373220202020302E303030302043202020302020302020302020302020302020302020302020302020302020302020302020300A20202020322E323035302020202D302E3037353320202020302E303030302043202020302020302020302020302020302020302020302020302020302020302020302020300A20202020312E3439303620202020302E3333373220202020302E303030302043202020302020302020302020302020302020302020302020302020302020302020302020300A20202020302E373736312020202D302E3037353320202020302E303030302043202020302020302020302020302020302020302020302020302020302020302020302020300A20202020302E3036313620202020302E3333373220202020302E303030302043202020302020302020302020302020302020302020302020302020302020302020302020300A2020202D302E363532392020202D302E3037353320202020302E303030302043202020302020302020302020302020302020302020302020302020302020302020302020300A2020202D312E3336373320202020302E3333373220202020302E303030302043202020302020302020302020302020302020302020302020302020302020302020302020300A2020202D322E303831382020202D302E3037353320202020302E303030302043202020302020302020302020302020302020302020302020302020302020302020302020300A2020202D322E3739363320202020302E3333373220202020302E303030302043202020302020302020302020302020302020302020302020302020302020302020302020300A2020202D332E353130372020202D302E3037353320202020302E303030302043202020302020302020302020302020302020302020302020302020302020302020302020300A2020202D342E3232353220202020302E3333373220202020302E303030302043202020302020302020302020302020302020302020302020302020302020302020302020300A2020202D342E393339372020202D302E3037353320202020302E303030302043202020302020302020302020302020302020302020302020302020302020302020302020300A2020312020322020312020302020202020200A2020322020332020312020302020202020200A2020332020342020312020302020202020200A2020342020352020312020302020202020200A2020312020352020312020302020202020200A2020322020362020322020302020202020200A2020372020382020312020302020202020200A2020382020392020312020302020202020200A2020392031302020312020302020202020200A2031302031312020312020302020202020200A2031312031322020312020302020202020200A2031322031332020312020302020202020200A2031332031342020312020302020202020200A2031342031352020312020302020202020200A2031352031362020312020302020202020200A2031362031372020312020302020202020200A2031372031382020312020302020202020200A2020312020372020312020302020202020200A4D2020454E44
Contributor: MASS SPECTROSCOPY SOC. OF JAPAN (MSSJ)
InstType: EI
InstName: HITACHI RMU-6E
IoniMethod: _ENERGY 70 eV
IonPolarity: pos
Date: 2010-10-09 19:48:36+02:00
Num Peaks: 119
26 2 27 26 28 60 29 6 30 18 31 2 32 3 39 2 40 4 41 194 
42 62 43 14 44 32 45 3 52 1 53 1 54 12 55 84 56 31 57 4 
58 7 59 1 65 2 66 0 67 11 68 24 69 94 70 16 71 22 72 2 
73 1 77 0 78 2 79 2 80 2 81 1 82 5 83 10 84 26 85 1 
86 84 87 4 91 2 92 0 93 2 94 2 95 2 96 1 97 8 98 999 
99 730 100 5 101 4 102 1 105 1 106 0 107 1 108 1 109 2 110 0 
111 2 112 176 113 74 114 1 115 1 116 1 124 9 125 0 126 170 127 58 
128 4 129 0 138 3 139 1 140 80 141 3 142 2 149 7 150 2 151 0 
152 2 153 1 154 46 155 2 156 2 157 1 166 1 167 0 168 46 169 16 
170 2 180 0 181 40 182 14 183 1 184 0 185 1 195 1 196 34 197 1 
198 3 209 1 210 26 211 1 212 2 223 1 224 24 225 1 226 1 236 11 
237 2 238 1 239 2 250 1 251 2 252 1 253 274 254 54 255 4 
