Name: MassBank: JP007536
CAS: 17109-49-8
MW: 310
Formula: C14H15O2PS2
Synonym: MassBank: JP007536
Synonym: O-ETHYL S,S-DIPHENYL PHOSPHORODITHIOATE
Synonym: EDIFENPHOS
Structure: 4F2D455448594C20532C532D44495048454E594C2050484F5350484F524F44495448494F4154452E6D6F6C0A20204368656D447261773038313231303033303732440A2031392032302020302020302020302020302020302020302020302020303939392056323030300A20202020302E363138372020202D312E3038363520202020302E303030302050202020302020302020302020302020302020302020302020302020302020302020302020300A20202020312E303331332020202D312E3830313020202020302E30303030204F202020302020302020302020302020302020302020302020302020302020302020302020300A2020202D302E303935372020202D312E3439393020202020302E30303030204F202020302020302020302020302020302020302020302020302020302020302020302020300A20202020302E323036322020202D302E3337323020202020302E303030302053202020302020302020302020302020302020302020302020302020302020302020302020300A20202020312E333333322020202D302E3637343020202020302E303030302053202020302020302020302020302020302020302020302020302020302020302020302020300A2020202D302E363138382020202D302E3337323020202020302E303030302043202020302020302020302020302020302020302020302020302020302020302020302020300A2020202D312E303331332020202D312E3038363520202020302E303030302043202020302020302020302020302020302020302020302020302020302020302020302020300A2020202D312E383536322020202D312E3038363520202020302E303030302043202020302020302020302020302020302020302020302020302020302020302020302020300A2020202D322E323638382020202D302E3337323020202020302E303030302043202020302020302020302020302020302020302020302020302020302020302020302020300A2020202D312E3835363320202020302E3334323420202020302E303030302043202020302020302020302020302020302020302020302020302020302020302020302020300A2020202D312E3033313320202020302E3334323420202020302E303030302043202020302020302020302020302020302020302020302020302020302020302020302020300A20202020312E3333333220202020302E3135313020202020302E303030302043202020302020302020302020302020302020302020302020302020302020302020302020300A20202020322E3034373720202020302E3536333520202020302E303030302043202020302020302020302020302020302020302020302020302020302020302020302020300A20202020322E3034373720202020312E3338383520202020302E303030302043202020302020302020302020302020302020302020302020302020302020302020302020300A20202020312E3333333220202020312E3830313020202020302E303030302043202020302020302020302020302020302020302020302020302020302020302020302020300A20202020302E3631383720202020312E3338383520202020302E303030302043202020302020302020302020302020302020302020302020302020302020302020302020300A20202020302E3631383720202020302E3536333520202020302E303030302043202020302020302020302020302020302020302020302020302020302020302020302020300A20202020312E383536332020202D312E3830313020202020302E303030302043202020302020302020302020302020302020302020302020302020302020302020302020300A20202020322E323638382020202D312E3038363520202020302E303030302043202020302020302020302020302020302020302020302020302020302020302020302020300A2020312020322020312020302020202020200A2020312020332020322020302020202020200A2020312020342020312020302020202020200A2020312020352020312020302020202020200A2020362020372020312020302020202020200A2020372020382020322020302020202020200A2020382020392020312020302020202020200A2020392031302020322020302020202020200A2031302031312020312020302020202020200A2020362031312020322020302020202020200A2020342020362020312020302020202020200A2031322031332020312020302020202020200A2031332031342020322020302020202020200A2031342031352020312020302020202020200A2031352031362020322020302020202020200A2031362031372020312020302020202020200A2031322031372020322020302020202020200A2020352031322020312020302020202020200A2031382031392020312020302020202020200A2020322031382020312020302020202020200A4D2020454E44
Contributor: KOGA M, UNIV. OF OCCUPATIONAL AND ENVIRONMENTAL HEALTH
InstType: EI
InstName: JEOL JMS-01-SG
IoniMethod: _ENERGY 70 eV
IonPolarity: pos
Date: 2010-10-09 19:48:36+02:00
Num Peaks: 70
45 224 47 123 50 71 51 34 58 46 59 43 62 27 63 7 64 27 65 999 
66 293 67 3 69 364 70 30 71 30 74 4 75 35 76 32 77 320 78 5 
82 104 83 49 84 76 94 5 96 35 97 35 105 27 108 28 109 208 110 890 
111 339 112 6 123 65 125 27 137 32 138 7 139 46 140 30 141 82 153 3 
154 93 155 98 156 30 157 3 169 38 172 43 173 79 174 24 175 169 183 41 
184 104 185 13 186 309 187 52 189 41 201 64 202 175 203 90 207 49 217 5 
218 449 219 76 220 57 265 5 281 30 282 27 310 413 311 34 312 186 313 32 
