Name: PENTACHLOROPHENOL
CAS: 87-86-5
MW: 263
Formula: C6HCl5O
Synonym: MassBank: JP000931
Synonym: PENTACHLOROPHENOL
Structure: 50454E544143484C4F524F5048454E4F4C2E6D6F6C0A20204368656D447261773038313231303034343832440A2031322031322020302020302020302020302020302020302020302020303939392056323030300A2020202D302E383235302020202D302E3030303020202020302E303030302043202020302020302020302020302020302020302020302020302020302020302020302020300A2020202D302E3431323520202020302E3731343520202020302E303030302043202020302020302020302020302020302020302020302020302020302020302020302020300A20202020302E3431323520202020302E3731343520202020302E303030302043202020302020302020302020302020302020302020302020302020302020302020302020300A20202020302E383235302020202D302E3030303020202020302E303030302043202020302020302020302020302020302020302020302020302020302020302020302020300A20202020302E343132352020202D302E3731343520202020302E303030302043202020302020302020302020302020302020302020302020302020302020302020302020300A2020202D302E343132352020202D302E3731343520202020302E303030302043202020302020302020302020302020302020302020302020302020302020302020302020300A2020202D312E363530302020202D302E3030303020202020302E30303030204F202020302020302020302020302020302020302020302020302020302020302020302020300A2020202D302E3832353020202020312E3432383920202020302E3030303020436C2020302020302020302020302020302020302020302020302020302020302020302020300A20202020302E3832353020202020312E3432383920202020302E3030303020436C2020302020302020302020302020302020302020302020302020302020302020302020300A20202020312E363530302020202D302E3030303020202020302E3030303020436C2020302020302020302020302020302020302020302020302020302020302020302020300A20202020302E383235302020202D312E3432383920202020302E3030303020436C2020302020302020302020302020302020302020302020302020302020302020302020300A2020202D302E383235302020202D312E3432383920202020302E3030303020436C2020302020302020302020302020302020302020302020302020302020302020302020300A2020312020322020312020302020202020200A2020322020332020322020302020202020200A2020332020342020312020302020202020200A2020342020352020322020302020202020200A2020352020362020312020302020202020200A2020312020362020322020302020202020200A2020312020372020312020302020202020200A2020322020382020312020302020202020200A2020332020392020312020302020202020200A2020342031302020312020302020202020200A2020352031312020312020302020202020200A2020362031322020312020302020202020200A4D2020454E44
Contributor: KOGA M, UNIV. OF OCCUPATIONAL AND ENVIRONMENTAL HEALTH
InstType: EI
InstName: JEOL JMS-01-SG
IoniMethod: _ENERGY 70 eV
IonPolarity: pos
Date: 2010-10-09 19:48:36+02:00
Num Peaks: 77
45 40 47 92 48 31 49 4 59 22 60 271 61 98 63 3 65 182 66 77 
70 29 71 11 72 52 73 94 81 26 84 6 87 62 89 31 93 41 95 38 
96 109 97 118 98 45 100 13 101 130 102 65 103 39 106 6 107 87 108 43 
109 48 111 4 114 58 115 63 116 22 118 4 119 26 120 33 124 42 130 23 
131 89 132 171 133 123 134 7 135 22 141 49 142 33 143 8 158 26 165 455 
167 387 168 4 169 128 171 22 194 27 196 3 200 168 201 48 202 223 203 8 
204 126 205 37 206 38 228 12 230 168 232 78 234 22 237 4 253 28 264 720 
265 62 266 999 267 92 268 738 269 52 270 26 272 32 
