Name: MassBank: JP008808
MW: 407
Formula: C21H30F5NO
Synonym: MassBank: JP008808
Synonym: TETRADECANAL O-2,3,4,5,6-PENTAFLUOROBENZYLOXIME
Structure: 303435365F5445545241444543414E414C204F2D322C332C342C352C362D50454E5441464C554F524F42454E5A594C4F58494D452E6D6F6C0A20204368656D447261773038323031303033343332440A2032382032382020302020302020302020302020302020302020302020303939392056323030300A2020202D352E3731353820202020302E3230363220202020302E303030302043202020302020302020302020302020302020302020302020302020302020302020302020300A2020202D352E373135382020202D302E3631383820202020302E303030302043202020302020302020302020302020302020302020302020302020302020302020302020300A2020202D352E303031332020202D312E3033313320202020302E303030302043202020302020302020302020302020302020302020302020302020302020302020302020300A2020202D342E323836382020202D302E3631383820202020302E303030302043202020302020302020302020302020302020302020302020302020302020302020302020300A2020202D342E3238363820202020302E3230363220202020302E303030302043202020302020302020302020302020302020302020302020302020302020302020302020300A2020202D352E3030313320202020302E3631383820202020302E303030302043202020302020302020302020302020302020302020302020302020302020302020302020300A2020202D362E3433303220202020302E3631383820202020302E303030302046202020302020302020302020302020302020302020302020302020302020302020302020300A2020202D362E343330322020202D312E3033313320202020302E303030302046202020302020302020302020302020302020302020302020302020302020302020302020300A2020202D352E303031332020202D312E3835363320202020302E303030302046202020302020302020302020302020302020302020302020302020302020302020302020300A2020202D332E353732342020202D312E3033313320202020302E303030302046202020302020302020302020302020302020302020302020302020302020302020302020300A2020202D332E3537323420202020302E3631383820202020302E303030302046202020302020302020302020302020302020302020302020302020302020302020302020300A2020202D352E3030313320202020312E3434333820202020302E303030302043202020302020302020302020302020302020302020302020302020302020302020302020300A2020202D342E3238363820202020312E3835363320202020302E30303030204F202020302020302020302020302020302020302020302020302020302020302020302020300A2020202D332E3537323420202020312E3434333820202020302E30303030204E202020302020302020302020302020302020302020302020302020302020302020302020300A2020202D322E3835373920202020312E3835363320202020302E303030302043202020302020302020302020302020302020302020302020302020302020302020302020300A2020202D322E3134333420202020312E3434333820202020302E303030302043202020302020302020302020302020302020302020302020302020302020302020302020300A2020202D312E3432383920202020312E3835363320202020302E303030302043202020302020302020302020302020302020302020302020302020302020302020302020300A2020202D302E3731343520202020312E3434333820202020302E303030302043202020302020302020302020302020302020302020302020302020302020302020302020300A20202020302E3030303020202020312E3835363320202020302E303030302043202020302020302020302020302020302020302020302020302020302020302020302020300A20202020302E3731343520202020312E3434333820202020302E303030302043202020302020302020302020302020302020302020302020302020302020302020302020300A20202020312E3432383920202020312E3835363320202020302E303030302043202020302020302020302020302020302020302020302020302020302020302020302020300A20202020322E3134333420202020312E3434333820202020302E303030302043202020302020302020302020302020302020302020302020302020302020302020302020300A20202020322E3835373920202020312E3835363320202020302E303030302043202020302020302020302020302020302020302020302020302020302020302020302020300A20202020332E3537323420202020312E3434333820202020302E303030302043202020302020302020302020302020302020302020302020302020302020302020302020300A20202020342E3238363820202020312E3835363320202020302E303030302043202020302020302020302020302020302020302020302020302020302020302020302020300A20202020352E3030313320202020312E3434333820202020302E303030302043202020302020302020302020302020302020302020302020302020302020302020302020300A20202020352E3731353820202020312E3835363320202020302E303030302043202020302020302020302020302020302020302020302020302020302020302020302020300A20202020362E3433303220202020312E3434333820202020302E303030302043202020302020302020302020302020302020302020302020302020302020302020302020300A2020312020322020322020302020202020200A2020322020332020312020302020202020200A2020332020342020322020302020202020200A2020342020352020312020302020202020200A2020352020362020322020302020202020200A2020362020312020312020302020202020200A2020312020372020312020302020202020200A2020322020382020312020302020202020200A2020332020392020312020302020202020200A2020342031302020312020302020202020200A2020352031312020312020302020202020200A2020362031322020312020302020202020200A2031322031332020312020302020202020200A2031332031342020312020302020202020200A2031342031352020322020302020202020200A2031352031362020312020302020202020200A2031372031362020312020302020202020200A2031382031372020312020302020202020200A2031392031382020312020302020202020200A2032302031392020312020302020202020200A2032312032302020312020302020202020200A2032322032312020312020302020202020200A2032332032322020312020302020202020200A2032342032332020312020302020202020200A2032352032342020312020302020202020200A2032362032352020312020302020202020200A2032372032362020312020302020202020200A2032382032372020312020302020202020200A4D2020454E44
Contributor: UOEH
InstType: EI
InstName: HP 5970
IoniMethod: _ENERGY 70 eV
IonPolarity: pos
Date: 2010-10-09 19:48:36+02:00
Num Peaks: 70
41 342 42 72 43 359 44 26 46 15 53 23 54 46 55 206 56 82 57 180 
58 30 67 50 68 28 69 125 70 58 71 63 72 20 79 29 80 13 81 50 
82 61 83 83 84 31 85 28 86 17 93 29 95 34 96 75 97 99 98 46 
99 41 100 18 110 63 111 45 112 16 117 32 119 24 124 40 131 15 138 19 
149 17 150 27 151 13 152 19 161 36 166 18 167 29 168 17 176 15 177 60 
178 25 179 12 181 999 182 71 194 19 195 38 196 20 197 36 198 57 202 21 
207 96 208 25 210 19 219 19 222 65 226 150 227 26 239 616 240 69 252 28 
