Name: MassBank: JP005557
MW: 186
Formula: C13H14O
Synonym: MassBank: JP005557
Synonym: 1,6-DIMETHYL-5-METHYLENE-3,4-BENZO-2-OXABICYCLO(4.1.0)HEPT-3-ENE
Structure: 312C362D44494D455448594C2D352D4D455448594C454E452D332C342D42454E5A4F2D322D4F584142494359434C4F28342E312E3029484550542D332D454E452E6D6F6C0A20204368656D447261773131313730393037323732440A2031342031362020302020302020302020302020302020302020302020303939392056323030300A2020202D312E3738363220202020302E3637343020202020302E303030302043202020302020302020302020302020302020302020302020302020302020302020302020300A2020202D312E373836322020202D302E3135313020202020302E303030302043202020302020302020302020302020302020302020302020302020302020302020302020300A2020202D312E303731372020202D302E3536333520202020302E303030302043202020302020302020302020302020302020302020302020302020302020302020302020300A2020202D302E333537322020202D302E3135313020202020302E303030302043202020302020302020302020302020302020302020302020302020302020302020302020300A2020202D302E3335373220202020302E3637343020202020302E303030302043202020302020302020302020302020302020302020302020302020302020302020302020300A2020202D312E3037313720202020312E3038363520202020302E303030302043202020302020302020302020302020302020302020302020302020302020302020302020300A20202020302E333537322020202D302E3536333520202020302E303030302043202020302020302020302020302020302020302020302020302020302020302020302020300A20202020312E303731372020202D302E3135313020202020302E303030302043202020302020302020302020302020302020302020302020302020302020302020302020300A20202020312E3037313720202020302E3637343020202020302E303030302043202020302020302020302020302020302020302020302020302020302020302020302020300A20202020302E3335373220202020312E3038363520202020302E30303030204F202020302020302020302020302020302020302020302020302020302020302020302020300A20202020302E333537322020202D312E3338383520202020302E303030302043202020302020302020302020302020302020302020302020302020302020302020302020300A20202020312E3738363220202020302E3236313520202020302E303030302043202020302020302020302020302020302020302020302020302020302020302020302020300A20202020312E3438343220202020312E3338383520202020302E303030302043202020302020302020302020302020302020302020302020302020302020302020302020300A20202020312E343834322020202D302E3836353520202020302E303030302043202020302020302020302020302020302020302020302020302020302020302020302020300A2020312020322020322020302020202020200A2020322020332020312020302020202020200A2020332020342020322020302020202020200A2020342020352020312020302020202020200A2020352020362020322020302020202020200A2020362020312020312020302020202020200A2020342020372020312020302020202020200A2020372020382020312020302020202020200A2020382020392020312020302020202020200A2020392031302020312020302020202020200A2031302020352020312020302020202020200A2020372031312020322020302020202020200A2020382031322020312020302020202020200A2031322020392020312020302020202020200A2020392031332020312020302020202020200A2020382031342020312020302020202020200A4D2020454E44
Contributor: MASS SPECTROSCOPY SOC. OF JAPAN (MSSJ)
InstType: EI
InstName: HITACHI RMS-4
IoniMethod: _ENERGY 70 eV
IonPolarity: pos
Date: 2010-10-09 19:48:36+02:00
Num Peaks: 63
39 330 41 140 43 450 50 90 51 240 52 80 53 100 55 70 62 70 63 220 
64 90 65 170 74 70 75 100 76 90 77 270 78 90 79 70 89 130 90 60 
91 250 92 80 101 60 102 100 103 110 105 50 107 120 115 390 116 90 117 60 
118 50 126 40 127 200 128 660 129 180 130 40 131 270 132 80 133 40 139 50 
141 180 142 120 143 330 144 120 145 350 146 350 147 70 152 100 153 110 154 40 
155 40 156 50 157 90 158 100 159 80 169 90 170 60 171 660 172 160 185 240 
186 999 187 160 188 30 
