Name: ALPHA-BUTYLCINNAMALDEHYDE
MW: 188
Formula: C13H16O
Synonym: MassBank: JP008714
Synonym: ALPHA-BUTYLCINNAMALDEHYDE
Structure: 414C5048412D425554594C43494E4E414D414C4445485944452E6D6F6C0A20204368656D447261773038303631303036303132440A2031342031342020302020302020302020302020302020302020302020303939392056323030300A20202020312E3037313720202020302E3832353020202020302E303030302043202020302020302020302020302020302020302020302020302020302020302020302020300A20202020302E3335373220202020302E3431323520202020302E303030302043202020302020302020302020302020302020302020302020302020302020302020302020300A2020202D302E3335373220202020302E3832353020202020302E303030302043202020302020302020302020302020302020302020302020302020302020302020302020300A2020202D312E3037313720202020302E3431323520202020302E303030302043202020302020302020302020302020302020302020302020302020302020302020302020300A2020202D312E303731372020202D302E3431323520202020302E303030302043202020302020302020302020302020302020302020302020302020302020302020302020300A2020202D312E373836322020202D302E3832353020202020302E303030302043202020302020302020302020302020302020302020302020302020302020302020302020300A2020202D322E353030362020202D302E3431323520202020302E303030302043202020302020302020302020302020302020302020302020302020302020302020302020300A2020202D322E3530303620202020302E3431323520202020302E303030302043202020302020302020302020302020302020302020302020302020302020302020302020300A2020202D312E3738363220202020302E3832353020202020302E303030302043202020302020302020302020302020302020302020302020302020302020302020302020300A20202020312E3738363220202020302E3431323520202020302E30303030204F202020302020302020302020302020302020302020302020302020302020302020302020300A20202020302E333537322020202D302E3431323520202020302E303030302043202020302020302020302020302020302020302020302020302020302020302020302020300A20202020312E303731372020202D302E3832353020202020302E303030302043202020302020302020302020302020302020302020302020302020302020302020302020300A20202020312E373836322020202D302E3431323520202020302E303030302043202020302020302020302020302020302020302020302020302020302020302020302020300A20202020322E353030362020202D302E3832353020202020302E303030302043202020302020302020302020302020302020302020302020302020302020302020302020300A2020312020322020312020302020202020200A2020322020332020322020302020202020200A2020332020342020312020302020202020200A2020342020352020312020302020202020200A2020352020362020322020302020202020200A2020362020372020312020302020202020200A2020372020382020322020302020202020200A2020382020392020312020302020202020200A2020342020392020322020302020202020200A2020312031302020322020302020202020200A2031312031322020312020302020202020200A2031322031332020312020302020202020200A2031332031342020312020302020202020200A2020322031312020312020302020202020200A4D2020454E44
Contributor: SODA AROMATIC CO., LTD.
InstType: EI
InstName: HITACHI M-80B
IoniMethod: _ENERGY 70 eV
IonPolarity: pos
Date: 2010-10-09 19:48:36+02:00
Num Peaks: 71
27 198 29 102 39 212 41 158 42 24 43 52 50 49 51 146 52 39 53 60 
54 14 55 56 62 18 63 100 64 23 65 121 66 12 67 44 68 11 69 20 
71 15 74 26 75 40 76 36 77 176 78 135 79 44 81 34 87 14 89 91 
90 11 91 757 92 72 95 47 97 78 101 15 102 75 103 82 104 100 105 55 
110 17 113 15 114 18 115 823 116 304 117 999 118 165 119 24 127 88 128 159 
129 768 130 104 131 366 132 66 133 20 141 134 142 30 143 13 144 27 145 390 
146 81 147 12 155 36 157 53 158 27 159 76 160 28 173 28 187 341 188 579 
189 77 
