Name: TRIDECANETHIOL
MW: 216
Formula: C13H28S
Synonym: MassBank: JP008745
Synonym: TRIDECANETHIOL
Structure: 545249444543414E455448494F4C2E6D6F6C0A20204368656D447261773038313231303038323732440A2031342031332020302020302020302020302020302020302020302020303939392056323030300A2020202D332E3932393620202020302E3230363220202020302E303030302043202020302020302020302020302020302020302020302020302020302020302020302020300A2020202D332E323135312020202D302E3230363320202020302E303030302043202020302020302020302020302020302020302020302020302020302020302020302020300A2020202D322E3530303620202020302E3230363220202020302E303030302043202020302020302020302020302020302020302020302020302020302020302020302020300A2020202D312E373836322020202D302E3230363220202020302E303030302043202020302020302020302020302020302020302020302020302020302020302020302020300A2020202D312E3037313720202020302E3230363220202020302E303030302043202020302020302020302020302020302020302020302020302020302020302020302020300A2020202D302E333537322020202D302E3230363220202020302E303030302043202020302020302020302020302020302020302020302020302020302020302020302020300A20202020302E3335373220202020302E3230363220202020302E303030302043202020302020302020302020302020302020302020302020302020302020302020302020300A20202020312E303731372020202D302E3230363220202020302E303030302043202020302020302020302020302020302020302020302020302020302020302020302020300A20202020312E3738363220202020302E3230363220202020302E303030302043202020302020302020302020302020302020302020302020302020302020302020302020300A20202020322E353030362020202D302E3230363220202020302E303030302043202020302020302020302020302020302020302020302020302020302020302020302020300A20202020332E3231353120202020302E3230363320202020302E303030302043202020302020302020302020302020302020302020302020302020302020302020302020300A20202020332E393239362020202D302E3230363220202020302E303030302043202020302020302020302020302020302020302020302020302020302020302020302020300A20202020342E3634343120202020302E3230363320202020302E303030302043202020302020302020302020302020302020302020302020302020302020302020302020300A2020202D342E363434312020202D302E3230363220202020302E303030302053202020302020302020302020302020302020302020302020302020302020302020302020300A2020312020322020312020302020202020200A2020322020332020312020302020202020200A2020332020342020312020302020202020200A2020342020352020312020302020202020200A2020352020362020312020302020202020200A2020362020372020312020302020202020200A2020372020382020312020302020202020200A2020382020392020312020302020202020200A2020392031302020312020302020202020200A2031302031312020312020302020202020200A2031312031322020312020302020202020200A2031322031332020312020302020202020200A2020312031342020312020302020202020200A4D2020454E44
Contributor: SODA AROMATIC CO., LTD.
InstType: EI
InstName: HITACHI M-80B
IoniMethod: _ENERGY 70 eV
IonPolarity: pos
Date: 2010-10-09 19:48:36+02:00
Num Peaks: 69
27 240 28 41 29 460 30 11 35 24 39 127 40 28 41 978 42 244 43 956 
44 27 45 44 46 20 47 285 48 13 49 11 53 61 54 95 55 999 56 578 
57 634 58 30 59 21 60 38 61 120 62 11 65 10 67 110 68 295 69 747 
70 535 71 237 72 14 73 15 81 38 82 275 83 660 84 325 85 95 87 27 
88 34 89 233 90 13 91 10 95 13 96 103 97 464 98 208 99 26 101 11 
103 20 110 33 111 216 112 107 113 16 124 16 125 87 126 56 139 21 140 28 
153 17 154 71 155 10 182 102 183 20 215 19 216 217 217 32 218 12 
