Name: 2-METHOXYBENZYL ALCOHOL
MW: 138
Formula: C8H10O2
Synonym: MassBank: JP006582
Synonym: 2-METHOXYBENZYL ALCOHOL
Synonym: O-METHOXYBENZYL ALCOHOL
Structure: 322D4D4554484F585942454E5A594C20414C434F484F4C2E6D6F6C0A20204368656D447261773031323231303032313832440A2031302031302020302020302020302020302020302020302020302020303939392056323030300A20202020302E3832353020202020312E3037313720202020302E303030302043202020302020302020302020302020302020302020302020302020302020302020302020300A20202020302E3431323520202020302E3335373220202020302E303030302043202020302020302020302020302020302020302020302020302020302020302020302020300A2020202D302E3431323520202020302E3335373220202020302E303030302043202020302020302020302020302020302020302020302020302020302020302020302020300A2020202D302E383235302020202D302E3335373220202020302E303030302043202020302020302020302020302020302020302020302020302020302020302020302020300A2020202D302E343132352020202D312E3037313720202020302E303030302043202020302020302020302020302020302020302020302020302020302020302020302020300A20202020302E343132352020202D312E3037313720202020302E303030302043202020302020302020302020302020302020302020302020302020302020302020302020300A20202020302E383235302020202D302E3335373220202020302E303030302043202020302020302020302020302020302020302020302020302020302020302020302020300A2020202D302E3832353020202020312E3037313720202020302E30303030204F202020302020302020302020302020302020302020302020302020302020302020302020300A2020202D312E3635303020202020312E3037313720202020302E303030302043202020302020302020302020302020302020302020302020302020302020302020302020300A20202020312E3635303020202020312E3037313720202020302E30303030204F202020302020302020302020302020302020302020302020302020302020302020302020300A2020312020322020312020302020202020200A2020322020332020312020302020202020200A2020332020342020322020302020202020200A2020342020352020312020302020202020200A2020352020362020322020302020202020200A2020362020372020312020302020202020200A2020322020372020322020302020202020200A2020382020392020312020302020202020200A2020332020382020312020302020202020200A2020312031302020312020302020202020200A4D2020454E44
Contributor: HISAHIRO HAGIWARA, CHEMICAL RESEARCH INSTITUTE OF NON-AQUEOUSSOLUTIONS TOHOKU UNIV.
InstType: EI
InstName: HITACHI M-80B
IoniMethod: _ENERGY 70 eV
IonPolarity: pos
Date: 2010-10-09 19:48:36+02:00
Num Peaks: 56
15 72 26 12 27 46 29 79 30 10 31 62 33 14 37 14 38 47 39 226 
40 27 41 76 43 13 50 108 51 265 52 81 53 45 55 37 61 13 62 37 
63 119 64 44 65 187 66 50 67 45 74 30 75 21 76 51 77 623 78 203 
79 195 80 14 89 31 90 28 91 358 92 90 93 32 94 150 95 135 104 20 
105 569 106 204 107 393 108 36 109 353 110 29 119 38 120 44 121 225 122 56 
123 205 124 14 135 20 137 267 138 999 139 83 
