Name: MassBank: JP004332
MW: 200
Formula: C13H16N2
Synonym: MassBank: JP004332
Synonym: 3-(2-AMINOETHYL)-1,7-ETHYLENE-2-METHYLINDOLE
Structure: 332D28322D414D494E4F455448594C292D312C372D455448594C454E452D322D4D455448594C494E444F4C452E6D6F6C0A20204368656D447261773032323231303039333632440A2031352031372020302020302020302020302020302020302020302020303939392056323030300A2020202D302E3637333520202020302E3732353320202020302E30303030204E202020302020302020302020302020302020302020302020302020302020302020302020300A20202020302E3135303520202020302E3531353420202020302E303030302043202020302020302020302020302020302020302020302020302020302020302020302020300A20202020302E313530352020202D302E3331393020202020302E303030302043202020302020302020302020302020302020302020302020302020302020302020302020300A2020202D302E363039302020202D302E3630303820202020302E303030302043202020302020302020302020302020302020302020302020302020302020302020302020300A2020202D312E303234312020202D312E3331393920202020302E303030302043202020302020302020302020302020302020302020302020302020302020302020302020300A2020202D312E383435352020202D312E3331393920202020302E303030302043202020302020302020302020302020302020302020302020302020302020302020302020300A2020202D322E323535322020202D302E3631303320202020302E303030302043202020302020302020302020302020302020302020302020302020302020302020302020300A2020202D312E3834343820202020302E3130303520202020302E303030302043202020302020302020302020302020302020302020302020302020302020302020302020300A2020202D312E3036353120202020302E3034373120202020302E303030302043202020302020302020302020302020302020302020302020302020302020302020302020300A20202020302E3739393420202020312E3032323820202020302E303030302043202020302020302020302020302020302020302020302020302020302020302020302020300A2020202D312E3236383020202020312E3331393920202020302E303030302043202020302020302020302020302020302020302020302020302020302020302020302020300A2020202D312E3939363720202020302E3839393220202020302E303030302043202020302020302020302020302020302020302020302020302020302020302020302020300A20202020302E383239372020202D302E3738393720202020302E303030302043202020302020302020302020302020302020302020302020302020302020302020302020300A20202020312E353731322020202D302E3432383020202020302E303030302043202020302020302020302020302020302020302020302020302020302020302020302020300A20202020322E323535322020202D302E3838393420202020302E30303030204E202020302020302020302020302020302020302020302020302020302020302020302020300A2020312020322020312020302020202020200A2020322020332020322020302020202020200A2020332020342020312020302020202020200A2020342020352020312020302020202020200A2020352020362020322020302020202020200A2020362020372020312020302020202020200A2020372020382020322020302020202020200A2020382020392020312020302020202020200A2020312020392020312020302020202020200A2020342020392020322020302020202020200A2020322031302020312020302020202020200A2031312031322020312020302020202020200A2020312031312020312020302020202020200A2020382031322020312020302020202020200A2031332031342020312020302020202020200A2031342031352020312020302020202020200A2020332031332020312020302020202020200A4D2020454E44
Contributor: SASAKI S, TOYOHASHI UNIV. OF TECH.
InstType: EI
InstName: MX-1303
IoniMethod: _ENERGY 50 eV
IonPolarity: pos
Date: 2010-10-09 19:48:36+02:00
Num Peaks: 111
27 36 30 22 38 21 39 9 40 17 41 44 42 39 43 1 50 33 51 72 
52 36 53 3 54 39 55 80 56 24 57 1 58.5 66 59 13 61 11 62 4 
63 127 64 48 65 69 65.5 1 66 12 67 12 68 14 71.5 1 74 16 75 28 
77 112 77.5 2 78 39 78.5 12 79 18 80 1 81 14 82 25 83.5 21 84.5 2 
85 10 86 10 87 18 88 2 89 230 90 329 91 158 92 2 98 35 99 20 
101 20 102 4 103 57 104 23 105 15 114 2 115 124 116 115 117 976 118 32 
119 140 120 14 126 14 127 6 128 115 129 64 130 242 131 9 132 93 133 13 
139 14 140 2 141 41 142 63 143 133 144 40 145 93 146 28 147 10 152 1 
153 16 154 121 155 68 156 50 157 202 158 614 159 242 160 3 166 13 167 50 
168 93 169 7 170 999 171 171 172 38 173 2 180 18 181 21 182 83 183 7 
184 81 185 112 186 16 193 1 195 50 196 55 197 159 198 28 199 236 200 898 
201 127 
