Name: ORTHO-VANILLIN
MW: 152
Formula: C8H8O3
Synonym: MassBank: JP009420
Synonym: ORTHO-VANILLIN
Synonym: 2-HYDROXY-3-METHOXYBENZALDEHYDE
Structure: 4F5254484F2D56414E494C4C494E2E6D6F6C0A20204368656D447261773031323131303134343732440A2031312031312020302020302020302020302020302020302020302020303939392056323030300A20202020302E3431323520202020312E3432383920202020302E303030302043202020302020302020302020302020302020302020302020302020302020302020302020300A20202020302E3030303020202020302E3731343520202020302E303030302043202020302020302020302020302020302020302020302020302020302020302020302020300A20202020302E343132352020202D302E3030303020202020302E303030302043202020302020302020302020302020302020302020302020302020302020302020302020300A20202020302E303030302020202D302E3731343520202020302E303030302043202020302020302020302020302020302020302020302020302020302020302020302020300A2020202D302E383235302020202D302E3731343520202020302E303030302043202020302020302020302020302020302020302020302020302020302020302020302020300A2020202D312E3233373520202020302E3030303020202020302E303030302043202020302020302020302020302020302020302020302020302020302020302020302020300A2020202D302E3832353020202020302E3731343520202020302E303030302043202020302020302020302020302020302020302020302020302020302020302020302020300A20202020302E3030303020202020322E3134333420202020302E30303030204F202020302020302020302020302020302020302020302020302020302020302020302020300A20202020302E343132352020202D312E3432383920202020302E30303030204F202020302020302020302020302020302020302020302020302020302020302020302020300A20202020302E303030302020202D322E3134333420202020302E303030302043202020302020302020302020302020302020302020302020302020302020302020302020300A20202020312E323337352020202D302E3030303020202020302E30303030204F202020302020302020302020302020302020302020302020302020302020302020302020300A2020312020322020312020302020202020200A2020322020332020312020302020202020200A2020332020342020322020302020202020200A2020342020352020312020302020202020200A2020352020362020322020302020202020200A2020362020372020312020302020202020200A2020322020372020322020302020202020200A2020312020382020322020302020202020200A2020392031302020312020302020202020200A2020342020392020312020302020202020200A2020332031312020312020302020202020200A4D2020454E44
Contributor: GUNMA COLLEGE OF TECHNOLOGY
InstType: EI
InstName: HITACHI M-80A
IoniMethod: _ENERGY 70 eV
IonPolarity: pos
Date: 2010-10-09 19:48:36+02:00
Num Peaks: 66
15 202 26 23 27 56 29 215 30 21 31 17 32 30 37 20 38 43 39 112 
40 12 41 16 49 18 50 111 51 173 52 157 53 192 54 24 55 147 61 32 
62 65 63 158 64 72 65 192 66 66 67 44 69 11 73 11 74 42 75 39 
76 197 77 178 78 131 79 112 80 97 81 499 82 33 85 11 91 26 92 111 
93 128 94 43 95 74 104 42 105 168 106 721 107 126 108 163 109 522 110 48 
115 13 119 16 120 77 121 364 122 221 123 89 124 36 133 29 134 33 135 12 
136 64 137 58 151 197 152 999 153 102 154 13 
