Name: ALLYLHYDRAZONE ACETALDEHYDE
MW: 98
Formula: C5H10N2
Synonym: MassBank: JP000858
Synonym: ALLYLHYDRAZONE ACETALDEHYDE
Synonym: ACETALDEHYDE ALLYLHYDRAZONE
Structure: 310A31380A414C4C594C48594452415A4F4E452041434554414C4445485944452E6D6F6C0A20204368656D447261773036323431303032313432440A2020372020362020302020302020302020302020302020302020302020303939392056323030300A2020202D312E3432383920202020302E3230363320202020302E303030302043202020302020302020302020302020302020302020302020302020302020302020302020300A2020202D322E313433342020202D302E3230363320202020302E303030302043202020302020302020302020302020302020302020302020302020302020302020302020300A2020202D302E373134352020202D302E3230363220202020302E30303030204E202020302020302020302020302020302020302020302020302020302020302020302020300A20202020302E3030303020202020302E3230363320202020302E30303030204E202020302020302020302020302020302020302020302020302020302020302020302020300A20202020302E373134352020202D302E3230363220202020302E303030302043202020302020302020302020302020302020302020302020302020302020302020302020300A20202020312E3432383920202020302E3230363320202020302E303030302043202020302020302020302020302020302020302020302020302020302020302020302020300A20202020322E313433342020202D302E3230363220202020302E303030302043202020302020302020302020302020302020302020302020302020302020302020302020300A2020312020322020312020302020202020200A2020332020342020312020302020202020200A2020352020362020312020302020202020200A2020362020372020322020302020202020200A2020342020352020312020302020202020200A2020312020332020322020302020202020200A4D2020454E44
Contributor: SASAKI S, TOYOHASHI UNIV. OF TECH.
InstType: EI
InstName: SHIMADZU LKB-2091
IoniMethod: _ENERGY 70 eV
IonPolarity: pos
Date: 2010-10-09 19:48:36+02:00
Num Peaks: 31
27 292 28 791 29 263 30 73 31 25 38 33 39 266 40 7 41 459 42 334 
43 79 44 15 52 20 53 17 54 105 55 9 56 375 57 709 58 40 67 1 
68 175 69 999 70 96 71 33 72 15 82 11 83 171 84 1 97 79 98 561 
99 63 
