Name: MassBank: JP007791
MW: 127
Formula: C6H9NS
Synonym: MassBank: JP007791
Synonym: 2,4,5-TRIMETHYLTHIAZOLE
Structure: 310A32310A322C342C352D5452494D455448594C544849415A4F4C452E6D6F6C0A20204368656D447261773132323030393133323732440A2020382020382020302020302020302020302020302020302020302020303939392056323030300A20202020302E3037313120202020302E3636373420202020302E303030302053202020302020302020302020302020302020302020302020302020302020302020302020300A20202020302E3535363020202020302E3030303020202020302E303030302043202020302020302020302020302020302020302020302020302020302020302020302020300A20202020302E303731312020202D302E3636373420202020302E30303030204E202020302020302020302020302020302020302020302020302020302020302020302020300A2020202D302E373133362020202D302E3431323520202020302E303030302043202020302020302020302020302020302020302020302020302020302020302020302020300A2020202D302E3731333620202020302E3431323520202020302E303030302043202020302020302020302020302020302020302020302020302020302020302020302020300A2020202D312E3338313020202020302E3839373420202020302E303030302043202020302020302020302020302020302020302020302020302020302020302020302020300A2020202D312E333831302020202D302E3839373420202020302E303030302043202020302020302020302020302020302020302020302020302020302020302020302020300A20202020312E3338313020202020302E3030303020202020302E303030302043202020302020302020302020302020302020302020302020302020302020302020302020300A2020312020322020312020302020202020200A2020322020332020322020302020202020200A2020332020342020312020302020202020200A2020342020352020322020302020202020200A2020312020352020312020302020202020200A2020352020362020312020302020202020200A2020342020372020312020302020202020200A2020322020382020312020302020202020200A4D2020454E44
Contributor: HASHIMOTO K, KYOTO COLLEGE OF PHARMACY
InstType: EI
InstName: HITACHI M-80
IoniMethod: _ENERGY 20 eV
IonPolarity: pos
Date: 2010-10-09 19:48:36+02:00
Num Peaks: 21
27 20 41 23 53 184 54 10 58 65 59 259 60 20 61 10 71 999 72 99 
73 99 84 10 85 456 86 987 87 143 88 113 112 19 126 74 127 885 128 238 
129 148 
