Name: 1-N-PROPYLCYCLOHEXANE-1-OL
MW: 142
Formula: C9H18O
Synonym: MassBank: JP003614
Synonym: 1-N-PROPYLCYCLOHEXANE-1-OL
Structure: 312D4E2D50524F50594C4359434C4F484558414E452D312D4F4C2E6D6F6C0A20204368656D447261773131323130393138343532440A2031302031302020302020302020302020302020302020302020302020303939392056323030300A2020202D302E333633312020202D302E3233313120202020302E303030302043202020302020302020302020302020302020302020302020302020302020302020302020300A2020202D312E303737362020202D302E3634333620202020302E303030302043202020302020302020302020302020302020302020302020302020302020302020302020300A2020202D312E373932312020202D302E3233313120202020302E303030302043202020302020302020302020302020302020302020302020302020302020302020302020300A2020202D312E3739323120202020302E3539333920202020302E303030302043202020302020302020302020302020302020302020302020302020302020302020302020300A2020202D312E3037373620202020312E3030363420202020302E303030302043202020302020302020302020302020302020302020302020302020302020302020302020300A2020202D302E3336333120202020302E3539333920202020302E303030302043202020302020302020302020302020302020302020302020302020302020302020302020300A2020202D302E303831302020202D312E3030363420202020302E30303030204F202020302020302020302020302020302020302020302020302020302020302020302020300A20202020302E343439332020202D302E3038373920202020302E303030302043202020302020302020302020302020302020302020302020302020302020302020302020300A20202020302E393739362020202D302E3731393920202020302E303030302043202020302020302020302020302020302020302020302020302020302020302020302020300A20202020312E373932312020202D302E3537363620202020302E303030302043202020302020302020302020302020302020302020302020302020302020302020302020300A2020312020322020312020302020202020200A2020322020332020312020302020202020200A2020332020342020312020302020202020200A2020342020352020312020302020202020200A2020352020362020312020302020202020200A2020312020362020312020302020202020200A2020312020372020312020302020202020200A2020382020392020312020302020202020200A2020392031302020312020302020202020200A2020312020382020312020302020202020200A4D2020454E44
Contributor: MASS SPECTROSCOPY SOC. OF JAPAN (MSSJ)
InstType: EI
InstName: Unknown
IoniMethod: EI
IonPolarity: pos
Date: 2010-10-09 19:48:36+02:00
Num Peaks: 8
29 321 39 290 41 581 43 29 55 330 67 365 83 562 109 999 
