Name: MassBank: JP000594
MW: 222
Formula: C12H18O2Si
Synonym: MassBank: JP000594
Synonym: 3,5-DIMETHYLBENZOIC ACID TRIMETHYLSILYL ESTER
Structure: 332C352D44494D455448594C42454E5A4F49432041434944205452494D455448594C53494C594C2045535445522E6D6F6C0A20204368656D447261773032323231303031333832440A2031352031352020302020302020302020302020302020302020302020303939392056323030300A20202020302E323036332020202D302E3035353320202020302E303030302043202020302020302020302020302020302020302020302020302020302020302020302020300A2020202D302E363138372020202D302E3035353320202020302E303030302043202020302020302020302020302020302020302020302020302020302020302020302020300A2020202D312E303331332020202D302E3736393720202020302E303030302043202020302020302020302020302020302020302020302020302020302020302020302020300A2020202D312E383536322020202D302E3736393720202020302E303030302043202020302020302020302020302020302020302020302020302020302020302020302020300A2020202D322E323638382020202D302E3035353320202020302E303030302043202020302020302020302020302020302020302020302020302020302020302020302020300A2020202D312E3835363320202020302E3635393220202020302E303030302043202020302020302020302020302020302020302020302020302020302020302020302020300A2020202D312E3033313220202020302E3635393220202020302E303030302043202020302020302020302020302020302020302020302020302020302020302020302020300A20202020302E363138382020202D302E3736393720202020302E30303030204F202020302020302020302020302020302020302020302020302020302020302020302020300A20202020302E3631383820202020302E3635393220202020302E30303030204F202020302020302020302020302020302020302020302020302020302020302020302020300A2020202D322E3236383720202020312E3337333720202020302E303030302043202020302020302020302020302020302020302020302020302020302020302020302020300A2020202D322E323638372020202D312E3438343220202020302E303030302043202020302020302020302020302020302020302020302020302020302020302020302020300A20202020312E3434333820202020302E3635393220202020302E303030302053692020302020302020302020302020302020302020302020302020302020302020302020300A20202020312E3434333820202020312E3438343220202020302E303030302043202020302020302020302020302020302020302020302020302020302020302020302020300A20202020322E3236383820202020302E3635393220202020302E303030302043202020302020302020302020302020302020302020302020302020302020302020302020300A20202020312E343433382020202D302E3136353820202020302E303030302043202020302020302020302020302020302020302020302020302020302020302020302020300A2020312020322020312020302020202020200A2020322020332020312020302020202020200A2020332020342020322020302020202020200A2020342020352020312020302020202020200A2020352020362020322020302020202020200A2020362020372020312020302020202020200A2020322020372020322020302020202020200A2020312020382020322020302020202020200A2020312020392020312020302020202020200A2020362031302020312020302020202020200A2020342031312020312020302020202020200A2031322031332020312020302020202020200A2031322031342020312020302020202020200A2031322031352020312020302020202020200A2020392031322020312020302020202020200A4D2020454E44
Contributor: KOGA M, UNIV. OF OCCUPATIONAL AND ENVIRONMENTAL HEALTH
InstType: EI
InstName: JEOL JMS-01-SG
IoniMethod: _ENERGY 70 eV
IonPolarity: pos
Date: 2010-10-09 19:48:36+02:00
Num Peaks: 24
44 362 45 313 47 135 58 12 63 113 65 118 73 124 75 12 77 389 78 156 
79 437 81 13 96 194 103 221 104 124 105 61 133 999 134 129 163 962 164 15 
207 751 208 210 209 118 222 118 
