Name: N-DODECYL-5-METHYL-2-PYRROLIDONE
MW: 267
Formula: C17H33NO
Synonym: MassBank: JP004134
Synonym: N-DODECYL-5-METHYL-2-PYRROLIDONE
Structure: 4E2D444F444543594C2D352D4D455448594C2D322D505952524F4C49444F4E452E6D6F6C0A20204368656D447261773038313231303032303132440A2031392031392020302020302020302020302020302020302020302020303939392056323030300A20202020332E323033362020202D302E3031363020202020302E30303030204E202020302020302020302020302020302020302020302020302020302020302020302020300A20202020322E3533363120202020302E3436383920202020302E303030302043202020302020302020302020302020302020302020302020302020302020302020302020300A20202020322E3739313120202020312E3235333520202020302E303030302043202020302020302020302020302020302020302020302020302020302020302020302020300A20202020332E3631363120202020312E3235333520202020302E303030302043202020302020302020302020302020302020302020302020302020302020302020302020300A20202020332E3837313020202020302E3436383920202020302E303030302043202020302020302020302020302020302020302020302020302020302020302020302020300A20202020312E3735313520202020302E3231343020202020302E30303030204F202020302020302020302020302020302020302020302020302020302020302020302020300A20202020342E3635353620202020302E3231343020202020302E303030302043202020302020302020302020302020302020302020302020302020302020302020302020300A20202020332E323033362020202D302E3834313020202020302E303030302043202020302020302020302020302020302020302020302020302020302020302020302020300A20202020322E343839312020202D312E3235333520202020302E303030302043202020302020302020302020302020302020302020302020302020302020302020302020300A20202020312E373734362020202D302E3834313020202020302E303030302043202020302020302020302020302020302020302020302020302020302020302020302020300A20202020312E303630312020202D312E3235333520202020302E303030302043202020302020302020302020302020302020302020302020302020302020302020302020300A20202020302E333435372020202D302E3834313020202020302E303030302043202020302020302020302020302020302020302020302020302020302020302020302020300A2020202D302E333638382020202D312E3235333520202020302E303030302043202020302020302020302020302020302020302020302020302020302020302020302020300A2020202D312E303833332020202D302E3834313020202020302E303030302043202020302020302020302020302020302020302020302020302020302020302020302020300A2020202D312E373937372020202D312E3235333520202020302E303030302043202020302020302020302020302020302020302020302020302020302020302020302020300A2020202D322E353132322020202D302E3834313020202020302E303030302043202020302020302020302020302020302020302020302020302020302020302020302020300A2020202D332E323236372020202D312E3235333520202020302E303030302043202020302020302020302020302020302020302020302020302020302020302020302020300A2020202D332E393431312020202D302E3834313020202020302E303030302043202020302020302020302020302020302020302020302020302020302020302020302020300A2020202D342E363535362020202D312E3235333520202020302E303030302043202020302020302020302020302020302020302020302020302020302020302020302020300A2020312020322020312020302020202020200A2020322020332020312020302020202020200A2020332020342020312020302020202020200A2020342020352020312020302020202020200A2020312020352020312020302020202020200A2020322020362020322020302020202020200A2020352020372020312020302020202020200A2020382020392020312020302020202020200A2020392031302020312020302020202020200A2031302031312020312020302020202020200A2031312031322020312020302020202020200A2031322031332020312020302020202020200A2031332031342020312020302020202020200A2031342031352020312020302020202020200A2031352031362020312020302020202020200A2031362031372020312020302020202020200A2031372031382020312020302020202020200A2031382031392020312020302020202020200A2020312020382020312020302020202020200A4D2020454E44
Contributor: MASS SPECTROSCOPY SOC. OF JAPAN (MSSJ)
InstType: EI
InstName: HITACHI RMU-6E
IoniMethod: _ENERGY 70 eV
IonPolarity: pos
Date: 2010-10-09 19:48:36+02:00
Num Peaks: 97
27 68 28 92 29 160 30 67 31 14 39 52 40 12 41 32 42 78 43 114 
45 50 53 2 54 24 55 304 56 204 57 11 58 14 59 16 67 42 68 2 
69 90 70 56 71 28 72 2 73 8 79 4 80 4 81 1 82 34 83 130 
84 180 85 6 86 46 87 6 94 10 95 0 96 14 97 18 98 160 99 2 
100 104 101 6 110 10 111 2 112 999 113 710 114 62 115 0 124 6 125 4 
126 150 127 8 128 12 137 2 138 12 139 0 140 180 141 52 142 12 152 0 
153 2 154 84 155 24 156 1 166 4 167 3 168 100 169 3 170 4 180 4 
182 60 183 1 184 10 185 16 186 6 196 6 197 12 198 8 199 2 210 5 
211 12 212 8 213 4 224 4 225 12 226 2 238 36 239 1 250 12 251 2 
252 178 253 3 254 2 266 20 267 260 268 6 269 8 
