Name: THIODIGLYCOLIC ACID TRIMETHYLSILYL ESTER
MW: 294
Formula: C10H22O4SSi2
Synonym: MassBank: JP007487
Synonym: THIODIGLYCOLIC ACID TRIMETHYLSILYL ESTER
Structure: 5448494F4449474C59434F4C49432041434944205452494D455448594C53494C594C2045535445522E6D6F6C0A20204368656D447261773038313231303037333432440A2031352031342020302020302020302020302020302020302020302020303939392056323030300A20202020302E3631383820202020302E3030303020202020302E303030302053202020302020302020302020302020302020302020302020302020302020302020302020300A2020202D302E363138382020202D302E3731343520202020302E303030302043202020302020302020302020302020302020302020302020302020302020302020302020300A20202020302E323036322020202D302E3731343520202020302E303030302043202020302020302020302020302020302020302020302020302020302020302020302020300A20202020302E363138382020202D312E3432383920202020302E30303030204F202020302020302020302020302020302020302020302020302020302020302020302020300A2020202D312E303331332020202D312E3432383920202020302E30303030204F202020302020302020302020302020302020302020302020302020302020302020302020300A2020202D312E3033313320202020302E3030303020202020302E30303030204F202020302020302020302020302020302020302020302020302020302020302020302020300A20202020312E3835363320202020302E3731343520202020302E303030302043202020302020302020302020302020302020302020302020302020302020302020302020300A20202020312E3434333820202020302E3030303020202020302E303030302043202020302020302020302020302020302020302020302020302020302020302020302020300A20202020312E383536332020202D302E3731343520202020302E30303030204F202020302020302020302020302020302020302020302020302020302020302020302020300A20202020312E3434333820202020312E3432383920202020302E30303030204F202020302020302020302020302020302020302020302020302020302020302020302020300A20202020322E3638313220202020302E3731343520202020302E30303030204F202020302020302020302020302020302020302020302020302020302020302020302020300A2020202D312E3835363320202020302E3030303020202020302E303030302053692020302020302020302020302020302020302020302020302020302020302020302020300A2020202D312E383536332020202D302E3832353020202020302E303030302043202020302020302020302020302020302020302020302020302020302020302020302020300A2020202D322E3638313220202020302E3030303020202020302E303030302043202020302020302020302020302020302020302020302020302020302020302020302020300A2020202D312E3835363320202020302E3832353020202020302E303030302043202020302020302020302020302020302020302020302020302020302020302020302020300A2020322020332020312020302020202020200A2020332020342020312020302020202020200A2020322020352020322020302020202020200A2020322020362020312020302020202020200A2020312020332020312020302020202020200A2020372020382020312020302020202020200A2020382020392020312020302020202020200A2020372031302020322020302020202020200A2020372031312020312020302020202020200A2020312020382020312020302020202020200A2031322031332020312020302020202020200A2031322031342020312020302020202020200A2031322031352020312020302020202020200A2020362031322020312020302020202020200A4D2020454E44
Contributor: KOGA M, UNIV. OF OCCUPATIONAL AND ENVIRONMENTAL HEALTH
InstType: EI
InstName: JEOL JMS-01-SG
IoniMethod: _ENERGY 70 eV
IonPolarity: pos
Date: 2010-10-09 19:48:36+02:00
Num Peaks: 46
43 133 44 28 45 133 46 1 47 66 58 31 59 31 61 4 72 95 73 999 
74 107 75 32 76 23 77 37 87 98 93 1 101 20 103 28 104 26 105 2 
116 43 117 130 118 11 131 2 132 28 133 46 147 669 148 10 149 115 159 43 
161 20 162 3 176 49 177 57 186 11 189 6 204 663 205 110 206 49 251 5 
279 124 280 20 281 14 294 13 295 20 296 17 
