Name: PENTYL (3S)-3-HYDROXY-5-METHOXYPENTANOATE
MW: 218
Formula: C11H22O4
Synonym: MassBank: JP007267
Synonym: PENTYL (3S)-3-HYDROXY-5-METHOXYPENTANOATE
Structure: 303933305F50454E54594C20283353292D332D485944524F58592D352D4D4554484F585950454E54414E4F4154452E6D6F6C0A20204368656D447261773038323031303131343232440A2031362031352020302020302020302020302020302020302020302020303939392056323030300A20202020302E303030302020202D312E3033313220202020302E303030302043202020302020302020302020302020302020302020302020302020302020302020302020300A20202020302E373134352020202D312E3434333820202020302E303030302043202020302020302020302020302020302020302020302020302020302020302020302020300A20202020312E343238392020202D312E3033313220202020302E303030302043202020302020302020302020302020302020302020302020302020302020302020302020300A20202020312E343238392020202D302E3230363220202020302E303030302043202020302020302020302020302020302020302020302020302020302020302020302020300A20202020322E3134333320202020302E3230363320202020302E303030302043202020302020302020302020302020302020302020302020302020302020302020302020300A20202020302E303030302020202D302E3230363320202020302E30303030204F202020302020302020302020302020302020302020302020302020302020302020302020300A2020202D302E373134352020202D312E3434333820202020302E30303030204F202020302020302020302020302020302020302020302020302020302020302020302020300A20202020322E3134333320202020312E3033313320202020302E30303030204F202020302020302020302020302020302020302020302020302020302020302020302020300A20202020322E3835373820202020312E3434333820202020302E303030302043202020302020302020302020302020302020302020302020302020302020302020302020300A20202020322E313433332020202D312E3434333720202020302E30303030204F202020302020302020302020302020302020302020302020302020302020302020302020300A2020202D312E343238392020202D312E3033313320202020302E303030302043202020302020302020302020302020302020302020302020302020302020302020302020300A2020202D312E343238392020202D302E3230363320202020302E303030302043202020302020302020302020302020302020302020302020302020302020302020302020300A2020202D322E3134333320202020302E3230363220202020302E303030302043202020302020302020302020302020302020302020302020302020302020302020302020300A2020202D322E3134333320202020312E3033313220202020302E303030302043202020302020302020302020302020302020302020302020302020302020302020302020300A2020202D322E3835373820202020312E3434333720202020302E303030302043202020302020302020302020302020302020302020302020302020302020302020302020300A20202020302E373134342020202D302E3631383720202020302E303030302048202020302020302020302020302020302020302020302020302020302020302020302020300A2020312020322020312020302020202020200A2020322020332020312020302020202020200A2020332020342020312020302020202020200A2020342020352020312020302020202020200A2020312020362020322020302020202020200A2020312020372020312020302020202020200A2020382020392020312020302020202020200A2020352020382020312020302020202020200A2020332031302020312020312020202020200A2031312031322020312020302020202020200A2031322031332020312020302020202020200A2031332031342020312020302020202020200A2031342031352020312020302020202020200A2020372031312020312020302020202020200A2020332031362020312020312020202020200A4D2020454E44
Contributor: ITO S, DEPT. OF CHEM., TOHOKU UNIV.
InstType: EI
InstName: HITACHI M-52
IoniMethod: _ENERGY 25 eV
IonPolarity: pos
Date: 2010-10-09 19:48:36+02:00
Num Peaks: 48
39 79 40 24 41 206 42 39 43 725 44 55 45 832 53 2 54 28 55 183 
56 81 57 5 58 87 59 59 60 97 61 5 68 39 69 65 70 313 71 37 
72 51 81 22 82 24 84 35 85 124 86 45 87 153 89 999 90 45 97 229 
98 313 99 16 100 120 101 122 102 36 112 2 113 260 114 36 115 51 116 33 
117 79 129 128 130 89 131 28 132 24 159 130 200 16 219 16 
