Name: 2-METHYLBENZOTHIOPYRAN-4-THIONE
MW: 192
Formula: C10H8S2
Synonym: MassBank: JP005548
Synonym: 2-METHYLBENZOTHIOPYRAN-4-THIONE
Synonym: 2-METHYLTHIOCHROMOTHIONE
Structure: 322D4D455448594C42454E5A4F5448494F505952414E2D342D5448494F4E452E6D6F6C0A20204368656D447261773031323231303037333832440A2031322031332020302020302020302020302020302020302020302020303939392056323030300A20202020302E3030303020202020312E3033313320202020302E303030302043202020302020302020302020302020302020302020302020302020302020302020302020300A20202020302E3731343520202020302E3631383720202020302E303030302043202020302020302020302020302020302020302020302020302020302020302020302020300A20202020302E373134352020202D302E3230363320202020302E303030302043202020302020302020302020302020302020302020302020302020302020302020302020300A2020202D302E303030302020202D302E3631383820202020302E303030302043202020302020302020302020302020302020302020302020302020302020302020302020300A2020202D302E373134352020202D302E3230363320202020302E303030302043202020302020302020302020302020302020302020302020302020302020302020302020300A2020202D302E3731343520202020302E3631383820202020302E303030302053202020302020302020302020302020302020302020302020302020302020302020302020300A20202020302E303030302020202D312E3434333720202020302E303030302043202020302020302020302020302020302020302020302020302020302020302020302020300A2020202D302E373134352020202D312E3835363320202020302E303030302043202020302020302020302020302020302020302020302020302020302020302020302020300A2020202D312E343238392020202D312E3434333720202020302E303030302043202020302020302020302020302020302020302020302020302020302020302020302020300A2020202D312E343238392020202D302E3631383720202020302E303030302043202020302020302020302020302020302020302020302020302020302020302020302020300A20202020312E343238392020202D302E3631383820202020302E303030302053202020302020302020302020302020302020302020302020302020302020302020302020300A20202020302E3030303020202020312E3835363320202020302E303030302043202020302020302020302020302020302020302020302020302020302020302020302020300A2020312020322020322020302020202020200A2020322020332020312020302020202020200A2020332020342020312020302020202020200A2020342020352020312020302020202020200A2020352020362020312020302020202020200A2020312020362020312020302020202020200A2020372020382020312020302020202020200A2020382020392020322020302020202020200A2020392031302020312020302020202020200A2020352031302020322020302020202020200A2020342020372020322020302020202020200A2020332031312020322020302020202020200A2020312031322020312020302020202020200A4D2020454E44
Contributor: MASS SPECTROSCOPY SOC. OF JAPAN (MSSJ)
InstType: EI
InstName: HITACHI RMU-6L
IoniMethod: _ENERGY 70 eV
IonPolarity: pos
Date: 2010-10-09 19:48:36+02:00
Num Peaks: 48
27 53 28 38 29 40 39 157 41 86 43 63 45 106 50 50 51 58 55 73 
57 51 58 38 59 63 61 33 62 65 63 85 69 195 73 35 74 55 75 40 
76 30 77 60 81 37 82 55 83 41 89 47 93 65 108 144 114 35 115 130 
116 32 121 80 128 37 145 32 146 32 147 340 148 141 149 50 152 33 158 45 
159 42 175 97 190 113 191 440 192 999 193 130 194 96 195 15 
