Name: ACROLEIN
CAS: 107-02-8
MW: 56
Formula: C3H4O
Synonym: MassBank: JP000947
Synonym: ACROLEIN
Synonym: 2-PROPENAL
Structure: 310A31320A4143524F4C45494E2E6D6F6C0A20204368656D447261773032323131303134343732440A2020342020332020302020302020302020302020302020302020302020303939392056323030300A2020202D302E333537322020202D302E3230363320202020302E303030302043202020302020302020302020302020302020302020302020302020302020302020302020300A2020202D312E3037313720202020302E3230363320202020302E30303030204F202020302020302020302020302020302020302020302020302020302020302020302020300A20202020302E3335373220202020302E3230363320202020302E303030302043202020302020302020302020302020302020302020302020302020302020302020302020300A20202020312E303731372020202D302E3230363220202020302E303030302043202020302020302020302020302020302020302020302020302020302020302020302020300A2020312020322020322020302020202020200A2020312020332020312020302020202020200A2020332020342020322020302020202020200A4D2020454E44
Contributor: KOGA M, UNIV. OF OCCUPATIONAL AND ENVIRONMENTAL HEALTH
InstType: EI
InstName: JEOL JMS-01-SG
IoniMethod: _ENERGY 70 eV
IonPolarity: pos
Date: 2010-10-09 19:48:36+02:00
Num Peaks: 15
24 21 25 83 26 445 27 66 28 33 29 377 36 40 37 11 38 93 39 71 
52 26 53 9 55 649 56 999 57 53 
