Name: N-DODECYL-N-METHYLPROPIONAMIDE
MW: 255
Formula: C16H33NO
Synonym: MassBank: JP004155
Synonym: N-DODECYL-N-METHYLPROPIONAMIDE
Structure: 4E2D444F444543594C2D4E2D4D455448594C50524F50494F4E414D4944452E6D6F6C0A20204368656D447261773038313231303032303132440A2031382031372020302020302020302020302020302020302020302020303939392056323030300A20202020332E3932393620202020302E3431323520202020302E303030302043202020302020302020302020302020302020302020302020302020302020302020302020300A20202020342E3634343120202020302E3030303020202020302E303030302043202020302020302020302020302020302020302020302020302020302020302020302020300A20202020342E363434312020202D302E3832353020202020302E303030302043202020302020302020302020302020302020302020302020302020302020302020302020300A20202020332E3932393620202020312E3233373520202020302E30303030204F202020302020302020302020302020302020302020302020302020302020302020302020300A20202020332E3231353120202020302E3030303020202020302E30303030204E202020302020302020302020302020302020302020302020302020302020302020302020300A20202020322E3530303620202020302E3431323520202020302E303030302043202020302020302020302020302020302020302020302020302020302020302020302020300A20202020332E323135312020202D302E3832353020202020302E303030302043202020302020302020302020302020302020302020302020302020302020302020302020300A20202020322E353030362020202D312E3233373520202020302E303030302043202020302020302020302020302020302020302020302020302020302020302020302020300A20202020312E373836322020202D302E3832353020202020302E303030302043202020302020302020302020302020302020302020302020302020302020302020302020300A20202020312E303731372020202D312E3233373520202020302E303030302043202020302020302020302020302020302020302020302020302020302020302020302020300A20202020302E333537322020202D302E3832353020202020302E303030302043202020302020302020302020302020302020302020302020302020302020302020302020300A2020202D302E333537322020202D312E3233373520202020302E303030302043202020302020302020302020302020302020302020302020302020302020302020302020300A2020202D312E303731372020202D302E3832353020202020302E303030302043202020302020302020302020302020302020302020302020302020302020302020302020300A2020202D312E373836322020202D312E3233373520202020302E303030302043202020302020302020302020302020302020302020302020302020302020302020302020300A2020202D322E353030362020202D302E3832353020202020302E303030302043202020302020302020302020302020302020302020302020302020302020302020302020300A2020202D332E323135312020202D312E3233373520202020302E303030302043202020302020302020302020302020302020302020302020302020302020302020302020300A2020202D332E393239362020202D302E3832353020202020302E303030302043202020302020302020302020302020302020302020302020302020302020302020302020300A2020202D342E363434312020202D312E3233373520202020302E303030302043202020302020302020302020302020302020302020302020302020302020302020302020300A2020312020322020312020302020202020200A2020322020332020312020302020202020200A2020312020342020322020302020202020200A2020312020352020312020302020202020200A2020352020362020312020302020202020200A2020372020382020312020302020202020200A2020382020392020312020302020202020200A2020392031302020312020302020202020200A2031302031312020312020302020202020200A2031312031322020312020302020202020200A2031322031332020312020302020202020200A2031332031342020312020302020202020200A2031342031352020312020302020202020200A2031352031362020312020302020202020200A2031362031372020312020302020202020200A2031372031382020312020302020202020200A2020352020372020312020302020202020200A4D2020454E44
Contributor: MASS SPECTROSCOPY SOC. OF JAPAN (MSSJ)
InstType: EI
InstName: HITACHI RMU-6E
IoniMethod: _ENERGY 70 eV
IonPolarity: pos
Date: 2010-10-09 19:48:36+02:00
Num Peaks: 97
26 3 27 40 28 24 29 19 30 25 31 2 32 13 39 2 40 5 41 130 
42 70 43 13 44 999 45 44 46 2 51 0 52 1 53 8 54 6 55 8 
56 26 57 196 58 94 59 1 60 1 65 2 66 1 67 1 68 6 69 27 
70 29 71 2 72 13 73 3 74 1 77 0 78 1 79 2 80 1 81 0 
82 2 83 7 84 10 85 1 86 15 87 52 88 56 89 0 95 1 96 1 
97 3 98 1 99 2 100 330 101 224 102 2 103 1 111 1 112 4 113 0 
114 84 115 25 116 2 126 0 127 1 128 62 129 18 130 0 140 2 141 2 
142 33 143 0 154 1 155 1 156 22 157 0 169 1 170 28 171 4 184 2 
185 4 196 1 197 1 198 4 199 8 200 3 212 10 213 0 226 400 227 64 
228 5 240 1 241 1 254 6 255 58 256 1 257 2 
