Name: ETHYL METHYL KETONE
MW: 72
Formula: C4H8O
Synonym: MassBank: JP001803
Synonym: ETHYL METHYL KETONE
Synonym: 2-BUTANONE
Structure: 310A31340A455448594C204D455448594C204B45544F4E452E6D6F6C0A20204368656D447261773132323130393233303332440A2020352020342020302020302020302020302020302020302020302020303939392056323030300A2020202D302E3335373220202020302E3230363220202020302E303030302043202020302020302020302020302020302020302020302020302020302020302020302020300A2020202D302E333537322020202D302E3631383820202020302E30303030204F202020302020302020302020302020302020302020302020302020302020302020302020300A2020202D312E3037313720202020302E3631383820202020302E303030302043202020302020302020302020302020302020302020302020302020302020302020302020300A20202020302E3335373220202020302E3631383820202020302E303030302043202020302020302020302020302020302020302020302020302020302020302020302020300A20202020312E3037313720202020302E3230363220202020302E303030302043202020302020302020302020302020302020302020302020302020302020302020302020300A2020312020322020322020302020202020200A2020312020332020312020302020202020200A2020342020352020312020302020202020200A2020312020342020312020302020202020200A4D2020454E44
Contributor: TAJIMA S, GUNMA COLLEGE OF TECHNOLOGY
InstType: EI
InstName: HITACHI RMU-7M
IoniMethod: _ENERGY 70 eV
IonPolarity: pos
Date: 2010-10-09 19:48:36+02:00
Num Peaks: 15
15 30 18 33 26 11 27 46 28 14 29 143 39 13 41 12 42 33 43 999 
44 26 57 83 71 10 72 280 73 16 
