Name: METHYL (3S)-3-HYDROXY-5-METHYLTHIOPENTANOATE
MW: 178
Formula: C7H14O3S
Synonym: MassBank: JP007289
Synonym: METHYL (3S)-3-HYDROXY-5-METHYLTHIOPENTANOATE
Structure: 303430305F4D455448594C20283353292D332D485944524F58592D352D4D455448594C5448494F50454E54414E4F4154452E6D6F6C0A20204368656D447261773130313931303230323732440A2031312031302020302020302020302020302020302020302020302020303939392056323030300A20202020312E3432383920202020302E3230363320202020302E303030302043202020302020302020302020302020302020302020302020302020302020302020302020300A20202020302E373134352020202D302E3230363220202020302E303030302043202020302020302020302020302020302020302020302020302020302020302020302020300A2020202D302E3030303020202020302E3230363320202020302E303030302043202020302020302020302020302020302020302020302020302020302020302020302020300A2020202D302E373134352020202D302E3230363220202020302E303030302043202020302020302020302020302020302020302020302020302020302020302020302020300A2020202D312E3432383920202020302E3230363320202020302E30303030204F202020302020302020302020302020302020302020302020302020302020302020302020300A20202020322E313433332020202D302E3230363220202020302E303030302053202020302020302020302020302020302020302020302020302020302020302020302020300A2020202D322E313433332020202D302E3230363220202020302E303030302043202020302020302020302020302020302020302020302020302020302020302020302020300A2020202D302E3030303020202020312E3033313220202020302E30303030204F202020302020302020302020302020302020302020302020302020302020302020302020300A20202020322E313433332020202D312E3033313220202020302E303030302043202020302020302020302020302020302020302020302020302020302020302020302020300A2020202D302E303030302020202D302E3631383720202020302E303030302048202020302020302020302020302020302020302020302020302020302020302020302020300A2020202D302E373134352020202D312E3033313220202020302E30303030204F202020302020302020302020302020302020302020302020302020302020302020302020300A2020312020322020312020302020202020200A2020322020332020312020302020202020200A2020332020342020312020302020202020200A2020342020352020312020302020202020200A2020312020362020312020302020202020200A2020352020372020312020302020202020200A2020332020382020312020312020202020200A2020362020392020312020302020202020200A2020332031302020312020312020202020200A2020342031312020322020302020202020200A4D2020454E44
Contributor: ITO S, DEPT. OF CHEM., TOHOKU UNIV.
InstType: EI
InstName: HITACHI M-52
IoniMethod: _ENERGY 25 eV
IonPolarity: pos
Date: 2010-10-09 19:48:36+02:00
Num Peaks: 65
28 459 29 103 31 57 32 14 33 40 35 23 41 122 42 11 43 449 44 65 
45 137 46 2 47 173 48 265 49 38 53 4 54 32 55 34 56 63 57 4 
58 61 59 156 60 27 61 999 62 69 63 44 69 38 70 29 71 378 72 46 
73 25 74 30 75 256 76 112 81 69 82 3 85 214 86 71 87 520 88 5 
89 34 97 25 98 459 99 7 100 347 101 316 102 80 103 21 104 76 105 116 
112 25 113 37 114 50 115 25 117 38 128 9 129 245 130 459 131 50 147 6 
160 214 161 53 178 684 179 4 180 29 
