Name: ISONORBORNEOL
MW: 112
Formula: C7H12O
Synonym: MassBank: JP009722
Synonym: ISONORBORNEOL
Synonym: EXO-BICYCLO(2.2.1)HEPTAN-2-OL
Structure: 310A32320A303436315F49534F4E4F52424F524E454F4C2E6D6F6C0A20204368656D447261773039303631303137333032440A2020382020392020302020302020302020302020302020302020302020303939392056323030300A2020202D302E3430393220202020312E3037313320202020302E303030302043202020302020302020302020302020302020302020302020302020302020302020302020300A2020202D302E3831363420202020302E3335333820202020302E303030302043202020302020302020302020302020302020302020302020302020302020302020302020300A2020202D302E343039322020202D302E3335373620202020302E303030302043202020302020302020302020302020302020302020302020302020302020302020302020300A20202020302E343135382020202D302E3335373620202020302E303030302043202020302020302020302020302020302020302020302020302020302020302020302020300A20202020302E3832333020202020302E3335333820202020302E303030302043202020302020302020302020302020302020302020302020302020302020302020302020300A20202020302E3431353820202020312E3037313320202020302E303030302043202020302020302020302020302020302020302020302020302020302020302020302020300A2020202D302E383233302020202D312E3037313320202020302E30303030204F202020302020302020302020302020302020302020302020302020302020302020302020300A2020202D302E3038353020202020302E3733353520202020302E303030302043202020302020302020302020302020302020302020302020302020302020302020302020300A2020312020322020312020302020202020200A2020322020332020312020302020202020200A2020332020342020312020302020202020200A2020342020352020312020302020202020200A2020352020362020312020302020202020200A2020362020312020312020302020202020200A2020332020372020312020312020202020200A2020322020382020312020302020202020200A2020382020352020312020302020202020200A4D2020454E44
Contributor: HASHIMOTO K, KYOTO COLLEGE OF PHARMACY
InstType: EI
InstName: HITACHI M-80
IoniMethod: _ENERGY 20 eV
IonPolarity: pos
Date: 2010-10-09 19:48:36+02:00
Num Peaks: 38
27 20 29 55 31 13 39 21 40 26 41 139 42 45 43 93 44 41 45 59 
53 71 54 33 55 164 56 99 57 232 58 66 65 20 66 718 67 703 68 641 
69 79 70 142 71 62 77 31 78 15 79 849 80 63 81 128 82 17 83 210 
84 73 91 12 93 61 94 999 95 89 97 70 111 14 112 15 
