Name: N-ACETYL-GLYCYL-ALANYL-GLYCINE METHYL ESTER
MW: 259
Formula: C10H17N3O5
Synonym: MassBank: JP000297
Synonym: N-ACETYL-GLYCYL-ALANYL-GLYCINE METHYL ESTER
Structure: 303132325F4E2D41434554594C2D474C5943594C2D414C414E594C2D474C5943494E45204D455448594C2045535445522E6D6F6C0A20204368656D447261773039303331303137353632440A2031392031382020302020302020302020302020302020302020302020303939392056323030300A20202020332E3231353120202020302E3230363320202020302E303030302043202020302020302020302020302020302020302020302020302020302020302020302020300A20202020312E3738363220202020302E3230363320202020302E30303030204E202020302020302020302020302020302020302020302020302020302020302020302020300A20202020322E353030362020202D302E3230363320202020302E303030302043202020302020302020302020302020302020302020302020302020302020302020302020300A20202020332E3231353120202020312E3033313320202020302E30303030204F202020302020302020302020302020302020302020302020302020302020302020302020300A20202020332E393239362020202D302E3230363220202020302E30303030204F202020302020302020302020302020302020302020302020302020302020302020302020300A20202020312E303731372020202D302E3230363320202020302E303030302043202020302020302020302020302020302020302020302020302020302020302020302020300A2020202D302E333537322020202D302E3230363320202020302E30303030204E202020302020302020302020302020302020302020302020302020302020302020302020300A20202020302E3335373220202020302E3230363220202020302E303030302043202020302020302020302020302020302020302020302020302020302020302020302020300A20202020302E3335373220202020312E3033313220202020302E303030302043202020302020302020302020302020302020302020302020302020302020302020302020300A20202020312E303731372020202D312E3033313320202020302E30303030204F202020302020302020302020302020302020302020302020302020302020302020302020300A2020202D312E3037313720202020302E3230363220202020302E303030302043202020302020302020302020302020302020302020302020302020302020302020302020300A2020202D322E3530303620202020302E3230363220202020302E30303030204E202020302020302020302020302020302020302020302020302020302020302020302020300A2020202D312E373836322020202D302E3230363320202020302E303030302043202020302020302020302020302020302020302020302020302020302020302020302020300A2020202D312E3037313720202020312E3033313220202020302E30303030204F202020302020302020302020302020302020302020302020302020302020302020302020300A2020202D332E323135312020202D302E3230363320202020302E303030302043202020302020302020302020302020302020302020302020302020302020302020302020300A2020202D332E323135312020202D312E3033313320202020302E30303030204F202020302020302020302020302020302020302020302020302020302020302020302020300A2020202D332E3932393620202020302E3230363220202020302E303030302043202020302020302020302020302020302020302020302020302020302020302020302020300A20202020332E393239362020202D312E3033313220202020302E303030302043202020302020302020302020302020302020302020302020302020302020302020302020300A20202020312E3134353420202020302E3434393820202020302E303030302048202020302020302020302020302020302020302020302020302020302020302020302020300A2020322020332020312020302020202020200A2020312020332020312020302020202020200A2020312020342020322020302020202020200A2020312020352020312020302020202020200A2020382020372020312020312020202020200A2020362020382020312020302020202020200A2020382020392020312020302020202020200A2020362031302020322020302020202020200A2031322031332020312020302020202020200A2031312031332020312020302020202020200A2031312031342020322020302020202020200A2020372031312020312020302020202020200A2020322020362020312020302020202020200A2031352031362020322020302020202020200A2031352031372020312020302020202020200A2031322031352020312020302020202020200A2020352031382020312020302020202020200A2020382031392020312020312020202020200A4D2020454E44
Contributor: YAMAMOTO M, DEP. CHEMISTRY, FAC. SCIENCE, NARA WOMEN'S UNIV.
InstType: EI
InstName: HITACHI RMU-6M
IoniMethod: _ENERGY 70 eV
IonPolarity: pos
Date: 2010-10-09 19:48:36+02:00
Num Peaks: 34
15 59 27 16 28 99 29 2 30 362 31 25 41 11 42 4 43 145 44 999 
45 45 55 2 56 48 57 43 58 11 59 1 60 10 70 29 72 137 73 8 
85 33 88 20 89 23 99 3 100 113 101 12 127 45 143 16 144 102 145 19 
155 11 171 5 187 15 259 7 
