Name: 3-METHYL-1-PROPYL-2-PYRAZOLINE
MW: 126
Formula: C7H14N2
Synonym: MassBank: JP000905
Synonym: 3-METHYL-1-PROPYL-2-PYRAZOLINE
Structure: 310A32330A332D4D455448594C2D312D50524F50594C2D322D505952415A4F4C494E452E6D6F6C0A20204368656D447261773033313931303232333432440A2020392020392020302020302020302020302020302020302020302020303939392056323030300A20202020302E323839382020202D302E3030383620202020302E30303030204E202020302020302020302020302020302020302020302020302020302020302020302020300A20202020302E363235332020202D302E3736323320202020302E30303030204E202020302020302020302020302020302020302020302020302020302020302020302020300A20202020302E303132322020202D312E3331343320202020302E303030302043202020302020302020302020302020302020302020302020302020302020302020302020300A2020202D302E373032332020202D302E3930313820202020302E303030302043202020302020302020302020302020302020302020302020302020302020302020302020300A2020202D302E353330372020202D302E3039343820202020302E303030302043202020302020302020302020302020302020302020302020302020302020302020302020300A20202020302E3730323320202020302E3730353920202020302E303030302043202020302020302020302020302020302020302020302020302020302020302020302020300A20202020302E3238393820202020312E3432303320202020302E303030302043202020302020302020302020302020302020302020302020302020302020302020302020300A20202020302E3730323320202020322E3133343820202020302E303030302043202020302020302020302020302020302020302020302020302020302020302020302020300A20202020302E303938352020202D322E3133343820202020302E303030302043202020302020302020302020302020302020302020302020302020302020302020302020300A2020312020322020312020302020202020200A2020322020332020322020302020202020200A2020332020342020312020302020202020200A2020342020352020312020302020202020200A2020312020352020312020302020202020200A2020362020372020312020302020202020200A2020372020382020312020302020202020200A2020312020362020312020302020202020200A2020332020392020312020302020202020200A4D2020454E44
Contributor: SASAKI S, TOYOHASHI UNIV. OF TECH.
InstType: EI
InstName: SHIMADZU LKB-2091
IoniMethod: _ENERGY 70 eV
IonPolarity: pos
Date: 2010-10-09 19:48:36+02:00
Num Peaks: 31
26 13 27 93 28 35 29 4 30 18 39 40 41 88 42 33 43 27 52 5 
53 9 54 3 55 22 56 70 57 7 58 0 68 33 69 200 70 13 81 1 
82 7 83 50 84 9 95 2 96 15 97 999 98 73 124 1 125 13 126 215 
127 18 
