Name: MassBank: JP000476
MW: 124
Formula: C7H12N2
Synonym: MassBank: JP000476
Synonym: 3,4,4,5-TETRAMETHYL-4H-PYRAZOLE
Structure: 310A32330A332C342C342C352D54455452414D455448594C2D34482D505952415A4F4C452E6D6F6C0A20204368656D447261773032323131303231333232440A2020392020392020302020302020302020302020302020302020302020303939392056323030300A20202020302E3437303220202020312E3030323120202020302E30303030204E202020302020302020302020302020302020302020302020302020302020302020302020300A20202020312E3032323220202020302E3338393120202020302E30303030204E202020302020302020302020302020302020302020302020302020302020302020302020300A20202020302E363039372020202D302E3332353420202020302E303030302043202020302020302020302020302020302020302020302020302020302020302020302020300A2020202D302E313937322020202D302E3135333920202020302E303030302043202020302020302020302020302020302020302020302020302020302020302020302020300A2020202D302E3238333520202020302E3636363620202020302E303030302043202020302020302020302020302020302020302020302020302020302020302020302020300A2020202D302E3939373920202020312E3037393120202020302E303030302043202020302020302020302020302020302020302020302020302020302020302020302020300A2020202D302E323833352020202D302E3937343420202020302E303030302043202020302020302020302020302020302020302020302020302020302020302020302020300A2020202D312E303232322020202D302E3135333920202020302E303030302043202020302020302020302020302020302020302020302020302020302020302020302020300A20202020302E393435332020202D312E3037393120202020302E303030302043202020302020302020302020302020302020302020302020302020302020302020302020300A2020312020322020312020302020202020200A2020322020332020322020302020202020200A2020332020342020312020302020202020200A2020342020352020312020302020202020200A2020312020352020322020302020202020200A2020352020362020312020302020202020200A2020342020372020312020362020202020200A2020342020382020312020312020202020200A2020332020392020312020302020202020200A4D2020454E44
Contributor: SASAKI S, TOYOHASHI UNIV. OF TECH.
InstType: EI
InstName: MX-1303
IoniMethod: _ENERGY 50 eV
IonPolarity: pos
Date: 2010-10-09 19:48:36+02:00
Num Peaks: 40
27 17 28 101 29 35 30 2 38 19 39 202 40 89 41 34 42 999 43 56 
50 12 51 3 52 29 53 64 54 35 55 4 56 17 57 15 65 19 66 2 
67 24 68 211 69 26 70 1 77 16 79 35 80 8 81 12 82 330 83 383 
84 25 95 7 96 26 97 7 109 159 110 13 111 13 123 11 124 287 125 25 
