Name: 4-METHYL-2-PHENYLTHIAZOLE
MW: 175
Formula: C10H9NS
Synonym: MassBank: JP002023
Synonym: 4-METHYL-2-PHENYLTHIAZOLE
Structure: 342D4D455448594C2D322D5048454E594C544849415A4F4C452E6D6F6C0A20204368656D447261773034323131303032303032440A2031322031332020302020302020302020302020302020302020302020303939392056323030300A20202020302E303934382020202D312E3134393520202020302E303030302053202020302020302020302020302020302020302020302020302020302020302020302020300A20202020302E303038362020202D302E3332393020202020302E303030302043202020302020302020302020302020302020302020302020302020302020302020302020300A20202020302E3736323320202020302E3030363620202020302E30303030204E202020302020302020302020302020302020302020302020302020302020302020302020300A20202020312E333134332020202D302E3630363520202020302E303030302043202020302020302020302020302020302020302020302020302020302020302020302020300A20202020302E393031382020202D312E3332313020202020302E303030302043202020302020302020302020302020302020302020302020302020302020302020302020300A2020202D302E3730353920202020302E3038333520202020302E303030302043202020302020302020302020302020302020302020302020302020302020302020302020300A2020202D312E343230332020202D302E3332393020202020302E303030302043202020302020302020302020302020302020302020302020302020302020302020302020300A2020202D322E3133343820202020302E3038333520202020302E303030302043202020302020302020302020302020302020302020302020302020302020302020302020300A2020202D322E3133343820202020302E3930383520202020302E303030302043202020302020302020302020302020302020302020302020302020302020302020302020300A2020202D312E3432303320202020312E3332313020202020302E303030302043202020302020302020302020302020302020302020302020302020302020302020302020300A2020202D302E3730353920202020302E3930383520202020302E303030302043202020302020302020302020302020302020302020302020302020302020302020302020300A20202020322E313334382020202D302E3532303320202020302E303030302043202020302020302020302020302020302020302020302020302020302020302020302020300A2020312020322020312020302020202020200A2020322020332020322020302020202020200A2020332020342020312020302020202020200A2020342020352020322020302020202020200A2020312020352020312020302020202020200A2020362020372020312020302020202020200A2020372020382020322020302020202020200A2020382020392020312020302020202020200A2020392031302020322020302020202020200A2031302031312020312020302020202020200A2020362031312020322020302020202020200A2020322020362020312020302020202020200A2020342031322020312020302020202020200A4D2020454E44
Contributor: SASAKI S, TOYOHASHI UNIV. OF TECH.
InstType: EI
InstName: MX-1303
IoniMethod: _ENERGY 50 eV
IonPolarity: pos
Date: 2010-10-09 19:48:36+02:00
Num Peaks: 42
26 11 27 37 29 42 34 1 38 13 39 105 40 95 41 2 42 14 43 68 
45 155 46 2 50 43 51 78 52 18 62 1 63 26 69 38 70 15 71 54 
72 999 73 72 74 61 75 2 76 63 77 116 78 20 87.5 4 88 12 91 11 
99 10 100 2 101 23 102 10 103 58 104 17 105 26 121 18 174 10 175 88 
176 108 177 48 
