Name: MassBank: JP002988
MW: 464
Formula: C34H24O2
Synonym: MassBank: JP002988
Synonym: 3-BENZOYL-2,2,4-TRIPHENYL-2H-1-BENZOPYRAN
Structure: 332D42454E5A4F594C2D322C322C342D5452495048454E594C2D32482D312D42454E5A4F505952414E2E6D6F6C0A20204368656D447261773032323231303134303832440A2033362034312020302020302020302020302020302020302020302020303939392056323030300A2020202D312E3233373520202020302E3834363520202020302E303030302043202020302020302020302020302020302020302020302020302020302020302020302020300A2020202D312E3233373520202020302E3032313520202020302E303030302043202020302020302020302020302020302020302020302020302020302020302020302020300A2020202D302E353233302020202D302E3339313020202020302E303030302043202020302020302020302020302020302020302020302020302020302020302020302020300A20202020302E3139313420202020302E3032313520202020302E303030302043202020302020302020302020302020302020302020302020302020302020302020302020300A20202020302E3139313420202020302E3834363520202020302E303030302043202020302020302020302020302020302020302020302020302020302020302020302020300A2020202D302E3532333020202020312E3235393020202020302E30303030204F202020302020302020302020302020302020302020302020302020302020302020302020300A20202020312E3031363420202020302E3834363520202020302E303030302043202020302020302020302020302020302020302020302020302020302020302020302020300A20202020302E3430353020202020312E3634333420202020302E303030302043202020302020302020302020302020302020302020302020302020302020302020302020300A2020202D302E353233302020202D312E3231363020202020302E303030302043202020302020302020302020302020302020302020302020302020302020302020302020300A20202020312E313230332020202D302E3531343720202020302E303030302043202020302020302020302020302020302020302020302020302020302020302020302020300A20202020312E313230332020202D312E3538373220202020302E303030302043202020302020302020302020302020302020302020302020302020302020302020302020300A20202020312E383334372020202D302E3130323220202020302E30303030204F202020302020302020302020302020302020302020302020302020302020302020302020300A20202020312E3230313920202020312E3835373020202020302E303030302043202020302020302020302020302020302020302020302020302020302020302020302020300A20202020312E3431353420202020322E3635333820202020302E303030302043202020302020302020302020302020302020302020302020302020302020302020302020300A20202020302E3833323020202020332E3233373220202020302E303030302043202020302020302020302020302020302020302020302020302020302020302020302020300A20202020302E3033353120202020332E3032333720202020302E303030302043202020302020302020302020302020302020302020302020302020302020302020302020300A2020202D302E3137383420202020322E3232363820202020302E303030302043202020302020302020302020302020302020302020302020302020302020302020302020300A20202020312E3432383920202020302E3133323120202020302E303030302043202020302020302020302020302020302020302020302020302020302020302020302020300A20202020322E3235333920202020302E3133323120202020302E303030302043202020302020302020302020302020302020302020302020302020302020302020302020300A20202020322E3636363420202020302E3834363520202020302E303030302043202020302020302020302020302020302020302020302020302020302020302020302020300A20202020322E3235333920202020312E3536313020202020302E303030302043202020302020302020302020302020302020302020302020302020302020302020302020300A20202020312E3432383920202020312E3536313020202020302E303030302043202020302020302020302020302020302020302020302020302020302020302020302020300A20202020302E343035382020202D312E3939393720202020302E303030302043202020302020302020302020302020302020302020302020302020302020302020302020300A20202020302E343035382020202D322E3832343720202020302E303030302043202020302020302020302020302020302020302020302020302020302020302020302020300A20202020312E313230332020202D332E3233373220202020302E303030302043202020302020302020302020302020302020302020302020302020302020302020302020300A20202020312E383334372020202D322E3832343720202020302E303030302043202020302020302020302020302020302020302020302020302020302020302020302020300A20202020312E383334372020202D312E3939393720202020302E303030302043202020302020302020302020302020302020302020302020302020302020302020302020300A2020202D312E323337352020202D312E3632383520202020302E303030302043202020302020302020302020302020302020302020302020302020302020302020302020300A2020202D312E323337352020202D322E3435333520202020302E303030302043202020302020302020302020302020302020302020302020302020302020302020302020300A2020202D302E353233302020202D322E3836363020202020302E303030302043202020302020302020302020302020302020302020302020302020302020302020302020300A20202020302E313931342020202D322E3435333520202020302E303030302043202020302020302020302020302020302020302020302020302020302020302020302020300A20202020302E313931342020202D312E3632383520202020302E303030302043202020302020302020302020302020302020302020302020302020302020302020302020300A2020202D312E3935323020202020312E3235393020202020302E303030302043202020302020302020302020302020302020302020302020302020302020302020302020300A2020202D322E3636363420202020302E3834363520202020302E303030302043202020302020302020302020302020302020302020302020302020302020302020302020300A2020202D322E3636363420202020302E3032313520202020302E303030302043202020302020302020302020302020302020302020302020302020302020302020302020300A2020202D312E393532302020202D302E3339313020202020302E303030302043202020302020302020302020302020302020302020302020302020302020302020302020300A2020312020322020322020302020202020200A2020322020332020312020302020202020200A2020332020342020322020302020202020200A2020342020352020312020302020202020200A2020352020362020312020302020202020200A2020362020312020312020302020202020200A2020352020372020312020302020202020200A2020352020382020312020302020202020200A2020332020392020312020302020202020200A2020342031302020312020302020202020200A2031302031312020312020302020202020200A2031302031322020322020302020202020200A2020382031332020322020302020202020200A2031332031342020312020302020202020200A2031342031352020322020302020202020200A2031352031362020312020302020202020200A2031362031372020322020302020202020200A2031372020382020312020302020202020200A2020372031382020322020302020202020200A2031382031392020312020302020202020200A2031392032302020322020302020202020200A2032302032312020312020302020202020200A2032312032322020322020302020202020200A2032322020372020312020302020202020200A2031312032332020322020302020202020200A2032332032342020312020302020202020200A2032342032352020322020302020202020200A2032352032362020312020302020202020200A2032362032372020322020302020202020200A2032372031312020312020302020202020200A2020392032382020322020302020202020200A2032382032392020312020302020202020200A2032392033302020322020302020202020200A2033302033312020312020302020202020200A2033312033322020322020302020202020200A2033322020392020312020302020202020200A2020312033332020312020302020202020200A2033332033342020322020302020202020200A2033342033352020312020302020202020200A2033352033362020322020302020202020200A2033362020322020312020302020202020200A4D2020454E44
Contributor: SASAKI S, TOYOHASHI UNIV. OF TECH.
InstType: EI
InstName: Unknown
IoniMethod: EI
IonPolarity: pos
Date: 2010-10-09 19:48:36+02:00
Num Peaks: 365
12 2 13 2 14 1 15 0 16 1 17 5 18 24 19 0 20 1 24 3 
25 2 26 0 27 25 28 43 29 28 30 0 31 13 32 1 35 8 36 1 
37 3 38 4 39 33 40 1 41 51 42 29 43 74 44 1 45 12 46 4 
47 30 48 1 49 9 50 13 51 49 52 1 53 5 54 3 55 34 56 1 
57 43 58 2 59 1 60 0 61 2 62 4 63 10 64 0 65 11 66 2 
67 3 68 0 69 11 70 25 71 25 72 0 73 2 74 5 75 6 76 0 
77 538 78 56 79 4 81 0 82 5 83 134 84 8 85 8 86 2 87 13 
88 2 89 1 90 3 91 75 92 50 93 0 94 1 95 1 97 2 98 1 
99 1 100 7 101 3 102 0 103 3 104 2 105 662 106 1 107 5 108 1 
109 1 110 0 111 1 112 1 113 4 114 0 115 10 116 2 117 1 118 0 
119 2 120 3 121 1 122 0 123 1 124 1 125 3 126 0 127 8 128 3 
129 13 130 0 131 1 132 1 133 1 134 0 137 2 138 3 139 8 140 0 
141 3 142 1 143 1 144 0 145 1 146 2 149 2 150 1 151 19 152 35 
153 9 154 1 155 2 156 1 157 2 158 0 159 1 161 1 162 3 163 1 
164 8 165 143 166 23 167 0 168 2 169 2 170 2 171 0 172 1 173 1 
174 2 175 0 176 15 177 8 178 10 179 1 180 2 181 44 182 7 183 0 
184 5 185 7 186 1 187 0 188 3 189 9 190 2 191 0 192 2 193 12 
194 3 195 0 196 1 197 2 198 1 199 0 200 6 201 4 202 8 203 0 
204 1 205 14 206 3 207 0 208 1 209 1 210 1 211 0 212 1 213 6 
214 2 215 1 216 2 217 1 218 2 221 0 222 1 223 2 224 5 225 1 
226 19 227 3 228 4 229 0 230 1 231 9 232 7 233 0 234 1 235 1 
236 1 237 1 238 3 239 19 240 5 241 1 242 2 243 1 244 1 248 0 
249 5 250 25 251 14 252 10 253 49 254 13 255 8 256 0 257 2 258 1 
261 3 262 0 263 13 264 5 265 49 266 1 267 5 268 10 269 3 270 0 
271 1 272 1 273 1 274 0 275 2 276 8 277 3 278 0 279 10 280 5 
281 200 282 1 283 27 284 6 285 1 286 0 287 4 288 2 289 11 290 0 
291 2 292 3 293 2 294 0 295 1 296 1 297 3 298 0 299 3 300 8 
301 5 302 0 303 5 304 2 305 4 306 0 307 1 308 2 309 12 310 1 
311 3 312 1 313 20 314 1 315 10 316 6 317 2 318 0 319 1 320 1 
322 1 323 0 324 5 325 3 326 18 327 2 328 9 329 9 330 4 331 1 
332 2 333 1 335 1 337 0 338 2 339 12 340 6 341 1 342 7 343 7 
344 6 345 0 346 1 350 1 351 1 352 0 353 2 354 1 355 28 356 1 
357 12 358 4 359 763 360 67 361 156 362 19 363 2 364 0 365 1 366 1 
367 1 368 0 369 3 370 11 371 9 372 0 373 2 374 1 375 1 376 0 
377 1 384 1 385 3 386 0 387 999 388 306 389 49 390 1 391 1 401 1 
403 1 432 1 433 3 434 1 435 2 436 0 437 1 439 1 447 1 448 0 
463 6 464 135 465 50 466 1 467 2 
