Name: MassBank: JP002438
MW: 220
Formula: C15H24O
Synonym: MassBank: JP002438
Synonym: 2ALPHA,6,6,9-TETRAMETHYL-5ALPHA,8BETA-TRICYCLO(6.3.0.0(1,5))UNDEC-9-EN-2BETA-OL
Structure: 32414C5048412C362C362C392D54455452414D455448594C2D35414C5048412C38424554412D5452494359434C4F28362E332E302E3028312C352929554E4445432D392D454E2D32424554412D4F4C2E6D6F6C0A20204368656D447261773032323131303137323032440A2031382032302020302020302020302020302020302020302020302020303939392056323030300A20202020302E333333372020202D302E3431323520202020302E303030302043202020302020302020302020302020302020302020302020302020302020302020302020300A20202020312E303034372020202D302E3839313220202020302E303030302043202020302020302020302020302020302020302020302020302020302020302020302020300A20202020302E373436322020202D312E3638323020202020302E303030302043202020302020302020302020302020302020302020302020302020302020302020302020300A2020202D302E303738382020202D312E3638323020202020302E303030302043202020302020302020302020302020302020302020302020302020302020302020302020300A2020202D302E333238362020202D302E3930323520202020302E303030302043202020302020302020302020302020302020302020302020302020302020302020302020300A2020202D312E303034372020202D302E3431383820202020302E303030302043202020302020302020302020302020302020302020302020302020302020302020302020300A2020202D302E3734363220202020302E3337323120202020302E303030302043202020302020302020302020302020302020302020302020302020302020302020302020300A20202020302E3037383820202020302E3337323120202020302E303030302043202020302020302020302020302020302020302020302020302020302020302020302020300A20202020302E3734363220202020302E3835373020202020302E303030302043202020302020302020302020302020302020302020302020302020302020302020302020300A20202020312E3431333720202020302E3337323120202020302E303030302043202020302020302020302020302020302020302020302020302020302020302020302020300A20202020312E313538372020202D302E3431323520202020302E303030302043202020302020302020302020302020302020302020302020302020302020302020302020300A20202020312E363930352020202D302E3037353820202020302E30303030204F202020302020302020302020302020302020302020302020302020302020302020302020300A20202020302E3734363220202020312E3638323020202020302E303030302043202020302020302020302020302020302020302020302020302020302020302020302020300A2020202D312E373139322020202D302E3030363320202020302E303030302043202020302020302020302020302020302020302020302020302020302020302020302020300A2020202D312E353331352020202D312E3034343520202020302E303030302043202020302020302020302020302020302020302020302020302020302020302020302020300A20202020312E373139322020202D312E3330333720202020302E303030302043202020302020302020302020302020302020302020302020302020302020302020302020300A2020202D302E393131392020202D312E3438353820202020302E303030302048202020302020302020302020302020302020302020302020302020302020302020302020300A2020202D302E3137363220202020312E3135363720202020302E303030302048202020302020302020302020302020302020302020302020302020302020302020302020300A2020312020322020312020302020202020200A2020322020332020312020302020202020200A2020332020342020312020302020202020200A2020342020352020312020302020202020200A2020352020362020312020302020202020200A2020362020372020312020302020202020200A2020372020382020312020302020202020200A2020382020392020312020302020202020200A2020392031302020322020302020202020200A2031302031312020312020302020202020200A2020312031312020312020302020202020200A2020312020382020312020302020202020200A2020312020352020312020302020202020200A2020322031322020312020312020202020200A2020392031332020312020302020202020200A2020362031342020312020312020202020200A2020362031352020312020362020202020200A2020322031362020312020362020202020200A2020352031372020312020362020202020200A2020382031382020312020362020202020200A4D2020454E44
Contributor: ITO S, DEPT. OF CHEM., TOHOKU UNIV.
InstType: EI
InstName: HITACHI M-52
IoniMethod: _ENERGY 13.5 eV
IonPolarity: pos
Date: 2010-10-09 19:48:36+02:00
Num Peaks: 20
106 29 120 17 131 111 132 3 145 34 146 111 147 54 159 26 160 22 162 59 
173 122 174 33 175 36 187 999 188 142 202 44 203 79 204 15 205 59 220 37 
