Name: CIS-JASMONE
MW: 164
Formula: C11H16O
Synonym: MassBank: JP005999
Synonym: CIS-JASMONE
Synonym: CIS-3-METHYL-2-(2-PENTENYL)-2-CYCLOPENTEN-1-ONE
Structure: 4349532D4A41534D4F4E452E6D6F6C0A20204368656D447261773039303831303134323632440A2031322031322020302020302020302020302020302020302020302020303939392056323030300A20202020302E393539322020202D302E3530353120202020302E303030302043202020302020302020302020302020302020302020302020302020302020302020302020300A20202020312E313330382020202D312E3331323120202020302E303030302043202020302020302020302020302020302020302020302020302020302020302020302020300A20202020302E343136332020202D312E3732343620202020302E303030302043202020302020302020302020302020302020302020302020302020302020302020302020300A2020202D302E313936382020202D312E3137323520202020302E303030302043202020302020302020302020302020302020302020302020302020302020302020302020300A2020202D312E303033382020202D312E3334343120202020302E303030302043202020302020302020302020302020302020302020302020302020302020302020302020300A20202020302E313338372020202D302E3431383920202020302E303030302043202020302020302020302020302020302020302020302020302020302020302020302020300A2020202D302E3237333820202020302E3239353620202020302E303030302043202020302020302020302020302020302020302020302020302020302020302020302020300A2020202D312E3039383820202020302E3239353620202020302E303030302043202020302020302020302020302020302020302020302020302020302020302020302020300A20202020312E3531313320202020302E3130383020202020302E30303030204F202020302020302020302020302020302020302020302020302020302020302020302020300A2020202D312E3531313320202020312E3031303120202020302E303030302043202020302020302020302020302020302020302020302020302020302020302020302020300A2020202D312E3039383820202020312E3732343620202020302E303030302043202020302020302020302020302020302020302020302020302020302020302020302020300A2020202D302E3237333820202020312E3732343620202020302E303030302043202020302020302020302020302020302020302020302020302020302020302020302020300A2020312020322020312020302020202020200A2020322020332020312020302020202020200A2020332020342020312020302020202020200A2020342020352020312020302020202020200A2020342020362020322020302020202020200A2020312020362020312020302020202020200A2020362020372020312020302020202020200A2020372020382020312020302020202020200A2020312020392020322020302020202020200A2020382031302020322020302020202020200A2031302031312020312020302020202020200A2031312031322020312020302020202020200A4D2020454E44
Contributor: YAMAMOTO M, DEP. CHEMISTRY, FAC. SCIENCE, NARA WOMEN'S UNIV.
InstType: EI
InstName: HITACHI RMU-6M
IoniMethod: _ENERGY 70 eV
IonPolarity: pos
Date: 2010-10-09 19:48:36+02:00
Num Peaks: 87
15 11 27 264 28 42 32 9 38 18 39 315 40 6 41 427 42 21 43 9 
50 34 51 117 52 68 53 21 54 32 55 308 56 18 57 1 58 9 62 11 
63 41 64 2 65 134 66 72 67 215 68 4 69 24 74 11 75 9 76 1 
77 253 78 65 79 483 80 9 81 244 82 82 83 12 89 1 91 295 92 47 
93 319 94 8 95 102 96 21 97 12 99 1 102 7 103 24 104 11 105 11 
106 27 107 172 108 51 109 30 110 593 111 53 115 20 116 1 117 30 118 8 
119 29 120 2 121 141 122 419 123 94 124 1 128 6 129 9 130 7 131 15 
132 20 133 24 134 12 135 41 136 88 137 13 145 19 146 1 147 26 148 5 
149 474 150 5 151 7 163 23 164 999 165 13 166 13 
