Name: TRIFLUPROMAZINE
MW: 352
Formula: C18H19F3N2S
Synonym: MassBank: JP003112
Synonym: TRIFLUPROMAZINE
Structure: 303137375F545249464C5550524F4D415A494E452E6D6F6C0A20204368656D447261773038323031303030323432440A2032342032362020302020302020302020302020302020302020302020303939392056323030300A2020202D312E3738353920202020312E3434343420202020302E303030302043202020302020302020302020302020302020302020302020302020302020302020302020300A2020202D312E3738353920202020302E3631393420202020302E303030302043202020302020302020302020302020302020302020302020302020302020302020302020300A2020202D312E3037313820202020302E3230363220202020302E303030302043202020302020302020302020302020302020302020302020302020302020302020302020300A2020202D302E3335363420202020302E3631393420202020302E303030302043202020302020302020302020302020302020302020302020302020302020302020302020300A2020202D302E3335363420202020312E3434343420202020302E303030302043202020302020302020302020302020302020302020302020302020302020302020302020300A2020202D312E3037313820202020312E3835373620202020302E303030302043202020302020302020302020302020302020302020302020302020302020302020302020300A20202020302E3335373720202020302E3230363220202020302E30303030204E202020302020302020302020302020302020302020302020302020302020302020302020300A20202020312E3037343620202020302E3631393420202020302E303030302043202020302020302020302020302020302020302020302020302020302020302020302020300A20202020312E3037343620202020312E3434343420202020302E303030302043202020302020302020302020302020302020302020302020302020302020302020302020300A20202020302E3335373720202020312E3835373620202020302E303030302053202020302020302020302020302020302020302020302020302020302020302020302020300A20202020312E3738383620202020302E3230363220202020302E303030302043202020302020302020302020302020302020302020302020302020302020302020302020300A20202020322E3530343120202020302E3631393420202020302E303030302043202020302020302020302020302020302020302020302020302020302020302020302020300A20202020322E3530343120202020312E3434343420202020302E303030302043202020302020302020302020302020302020302020302020302020302020302020302020300A20202020312E3738383620202020312E3835373620202020302E303030302043202020302020302020302020302020302020302020302020302020302020302020302020300A20202020302E333536392020202D302E3631383820202020302E303030302043202020302020302020302020302020302020302020302020302020302020302020302020300A2020202D322E3530303620202020302E3230373320202020302E303030302043202020302020302020302020302020302020302020302020302020302020302020302020300A2020202D332E3231343820202020302E3632303120202020302E303030302046202020302020302020302020302020302020302020302020302020302020302020302020300A2020202D322E353031302020202D302E3631373720202020302E303030302046202020302020302020302020302020302020302020302020302020302020302020302020300A2020202D322E3530303120202020312E3033323320202020302E303030302046202020302020302020302020302020302020302020302020302020302020302020302020300A20202020312E303731302020202D312E3033323020202020302E303030302043202020302020302020302020302020302020302020302020302020302020302020302020300A20202020312E373835392020202D302E3632303120202020302E303030302043202020302020302020302020302020302020302020302020302020302020302020302020300A20202020322E353030332020202D312E3033323620202020302E30303030204E202020302020302020302020302020302020302020302020302020302020302020302020300A20202020332E323134382020202D302E3632303120202020302E303030302043202020302020302020302020302020302020302020302020302020302020302020302020300A20202020322E353030332020202D312E3835373620202020302E303030302043202020302020302020302020302020302020302020302020302020302020302020302020300A2020312020322020322020302020202020200A2020322020332020312020302020202020200A2020332020342020322020302020202020200A2020342020352020312020302020202020200A2020352020362020322020302020202020200A2020312020362020312020302020202020200A2020342020372020312020302020202020200A2020372020382020312020302020202020200A2020382020392020312020302020202020200A2020392031302020312020302020202020200A2020352031302020312020302020202020200A2020382031312020312020302020202020200A2031312031322020322020302020202020200A2031322031332020312020302020202020200A2031332031342020322020302020202020200A2020392031342020312020302020202020200A2020372031352020312020302020202020200A2020322031362020312020302020202020200A2031362031372020312020302020202020200A2031362031382020312020302020202020200A2031362031392020312020302020202020200A2031352032302020312020302020202020200A2032302032312020312020302020202020200A2032312032322020312020302020202020200A2032322032332020312020302020202020200A2032322032342020312020302020202020200A4D2020454E44
Contributor: SASAKI S, TOYOHASHI UNIV. OF TECH.
InstType: EI
InstName: Unknown
IoniMethod: EI
IonPolarity: pos
Date: 2010-10-09 19:48:36+02:00
Num Peaks: 39
39 79 41 239 42 119 43 23 44 319 55 199 56 79 57 29 58 999 67 69 
69 139 70 9 71 139 72 159 81 69 83 9 84 59 85 149 86 129 95 7 
97 69 111 49 113 29 123 2 125 19 149 19 196 19 197 2 198 9 202 9 
232 9 248 4 266 49 267 29 280 19 306 6 307 29 338 9 352 79 
