Name: MassBank: JP001225
MW: 196
Formula: C12H20O2
Synonym: MassBank: JP001225
Synonym: 3,3-DIMETHYL-8,9-DINORBORNAN-2-YL ACETATE
Synonym: 1,3,3-TRIMETHYLBICYCLO(2.2.1)HEPT-2-YL ACETATE
Structure: 332C332D44494D455448594C2D382C392D44494E4F52424F524E414E2D322D594C20414345544154452E6D6F6C0A20204368656D447261773131313030393135353532440A2031342031352020302020302020302020302020302020302020302020303939392056323030300A2020202D302E373535372020202D302E3631383820202020302E303030302043202020302020302020302020302020302020302020302020302020302020302020302020300A2020202D302E373535372020202D312E3434333820202020302E303030302043202020302020302020302020302020302020302020302020302020302020302020302020300A2020202D302E303431322020202D312E3835363320202020302E303030302043202020302020302020302020302020302020302020302020302020302020302020302020300A20202020302E363733332020202D312E3434333820202020302E303030302043202020302020302020302020302020302020302020302020302020302020302020302020300A20202020302E363733332020202D302E3631383820202020302E303030302043202020302020302020302020302020302020302020302020302020302020302020302020300A2020202D302E303431322020202D302E3230363220202020302E303030302043202020302020302020302020302020302020302020302020302020302020302020302020300A2020202D302E3034313220202020302E3631383820202020302E30303030204F202020302020302020302020302020302020302020302020302020302020302020302020300A2020202D302E3735353720202020312E3033313320202020302E303030302043202020302020302020302020302020302020302020302020302020302020302020302020300A2020202D302E3735353720202020312E3835363320202020302E30303030204F202020302020302020302020302020302020302020302020302020302020302020302020300A2020202D312E3437303220202020302E3631383820202020302E303030302043202020302020302020302020302020302020302020302020302020302020302020302020300A20202020302E303639332020202D302E3631383820202020302E303030302043202020302020302020302020302020302020302020302020302020302020302020302020300A2020202D312E343730322020202D302E3230363220202020302E303030302043202020302020302020302020302020302020302020302020302020302020302020302020300A20202020312E343730322020202D302E3430353220202020302E303030302043202020302020302020302020302020302020302020302020302020302020302020302020300A20202020302E3738303920202020302E3139393220202020302E303030302043202020302020302020302020302020302020302020302020302020302020302020302020300A2020312020322020312020302020202020200A2020322020332020312020302020202020200A2020332020342020312020302020202020200A2020342020352020312020302020202020200A2020352020362020312020302020202020200A2020362020312020312020302020202020200A2020362020372020312020302020202020200A2020372020382020312020302020202020200A2020382020392020322020302020202020200A2020382031302020312020302020202020200A2020312031312020312020302020202020200A2031312020342020312020302020202020200A2020312031322020312020302020202020200A2020352031332020312020312020202020200A2020352031342020312020362020202020200A4D2020454E44
Contributor: SASAKI S, TOYOHASHI UNIV. OF TECH.
InstType: EI
InstName: HITACHI RMU-6D
IoniMethod: _ENERGY 20 eV
IonPolarity: pos
Date: 2010-10-09 19:48:36+02:00
Num Peaks: 42
18 30 27 350 31 110 41 22 42 10 55 15 56 20 59 1 66 10 68 30 
71 20 72 6 79 630 80 999 81 120 82 3 83 40 84 10 85 25 92 7 
93 160 94 45 95 40 96 1 107 120 108 20 109 45 110 1 111 40 115 20 
116 60 121 22 122 15 123 40 134 40 135 52 136 60 138 20 154 30 155 6 
156 10 196 15 
