Name: METHYL ETHYL SULFIDE
MW: 76
Formula: C3H8S
Synonym: MassBank: JP008749
Synonym: METHYL ETHYL SULFIDE
Structure: 310A31320A4D455448594C20455448594C2053554C464944452E6D6F6C0A20204368656D447261773038313231303030323032440A2020342020332020302020302020302020302020302020302020302020303939392056323030300A2020202D302E333537322020202D302E3230363320202020302E303030302053202020302020302020302020302020302020302020302020302020302020302020302020300A20202020302E3335373220202020302E3230363320202020302E303030302043202020302020302020302020302020302020302020302020302020302020302020302020300A20202020312E303731372020202D302E3230363320202020302E303030302043202020302020302020302020302020302020302020302020302020302020302020302020300A2020202D312E3037313720202020302E3230363220202020302E303030302043202020302020302020302020302020302020302020302020302020302020302020302020300A2020322020332020312020302020202020200A2020312020322020312020302020202020200A2020312020342020312020302020202020200A4D2020454E44
Contributor: SODA AROMATIC CO., LTD.
InstType: EI
InstName: HITACHI M-80B
IoniMethod: _ENERGY 70 eV
IonPolarity: pos
Date: 2010-10-09 19:48:36+02:00
Num Peaks: 26
14 12 15 34 26 57 27 346 28 20 29 163 35 165 41 47 44 13 45 305 
46 107 47 385 48 516 49 49 50 19 57 23 58 47 59 54 60 26 61 999 
62 26 63 38 75 31 76 636 77 24 78 23 
