Name: 3-PENTANOL
MW: 88
Formula: C5H12O
Synonym: MassBank: JP005670
Synonym: 3-PENTANOL
Structure: 310A31360A332D50454E54414E4F4C2E6D6F6C0A20204368656D447261773033323331303037303732440A2020362020352020302020302020302020302020302020302020302020303939392056323030300A20202020312E3033313320202020302E3731343520202020302E303030302043202020302020302020302020302020302020302020302020302020302020302020302020300A20202020302E3230363220202020302E3731343520202020302E303030302043202020302020302020302020302020302020302020302020302020302020302020302020300A2020202D302E3230363320202020302E3030303020202020302E303030302043202020302020302020302020302020302020302020302020302020302020302020302020300A20202020302E323036322020202D302E3731343520202020302E303030302043202020302020302020302020302020302020302020302020302020302020302020302020300A20202020312E303331332020202D302E3731343520202020302E303030302043202020302020302020302020302020302020302020302020302020302020302020302020300A2020202D312E3033313320202020302E3030303020202020302E30303030204F202020302020302020302020302020302020302020302020302020302020302020302020300A2020312020322020312020302020202020200A2020322020332020312020302020202020200A2020332020342020312020302020202020200A2020342020352020312020302020202020200A2020332020362020312020302020202020200A4D2020454E44
Contributor: HASHIMOTO K, KYOTO COLLEGE OF PHARMACY
InstType: EI
InstName: HITACHI M-80
IoniMethod: _ENERGY 20 eV
IonPolarity: pos
Date: 2010-10-09 19:48:36+02:00
Num Peaks: 22
27 55 28 27 29 154 30 21 31 963 32 12 39 30 41 489 42 57 43 125 
45 79 55 70 57 142 58 266 59 999 60 110 69 13 70 11 71 249 72 14 
87 22 88 3 
