Name: 2-ACETOXY-3-METHYL-2-CYCLOPENTEN-1-ONE
MW: 154
Formula: C8H10O3
Synonym: MassBank: JP008383
Synonym: 2-ACETOXY-3-METHYL-2-CYCLOPENTEN-1-ONE
Synonym: 2-ACETOXY-3-METHYL-2-CYCLOPENTENONE
Structure: 322D414345544F58592D332D4D455448594C2D322D4359434C4F50454E54454E2D312D4F4E452E6D6F6C0A20204368656D447261773132323130393231343832440A2031312031312020302020302020302020302020302020302020302020303939392056323030300A20202020302E363637342020202D302E3838313420202020302E303030302043202020302020302020302020302020302020302020302020302020302020302020302020300A20202020302E303030302020202D302E3339363520202020302E303030302043202020302020302020302020302020302020302020302020302020302020302020302020300A2020202D302E363637342020202D302E3838313420202020302E303030302043202020302020302020302020302020302020302020302020302020302020302020302020300A2020202D302E343132352020202D312E3636363020202020302E303030302043202020302020302020302020302020302020302020302020302020302020302020302020300A20202020302E343132352020202D312E3636363020202020302E303030302043202020302020302020302020302020302020302020302020302020302020302020302020300A20202020312E343532312020202D302E3632363520202020302E30303030204F202020302020302020302020302020302020302020302020302020302020302020302020300A2020202D312E343532312020202D302E3632363520202020302E303030302043202020302020302020302020302020302020302020302020302020302020302020302020300A20202020302E3030303020202020302E3432383520202020302E30303030204F202020302020302020302020302020302020302020302020302020302020302020302020300A20202020302E3731343520202020302E3834313020202020302E303030302043202020302020302020302020302020302020302020302020302020302020302020302020300A20202020312E3432383920202020302E3432383520202020302E30303030204F202020302020302020302020302020302020302020302020302020302020302020302020300A20202020302E3731343520202020312E3636363020202020302E303030302043202020302020302020302020302020302020302020302020302020302020302020302020300A2020312020322020312020302020202020200A2020322020332020322020302020202020200A2020332020342020312020302020202020200A2020342020352020312020302020202020200A2020312020352020312020302020202020200A2020312020362020322020302020202020200A2020332020372020312020302020202020200A2020392031302020322020302020202020200A2020392031312020312020302020202020200A2020382020392020312020302020202020200A2020322020382020312020302020202020200A4D2020454E44
Contributor: SODA AROMATIC CO., LTD.
InstType: EI
InstName: HITACHI M-80B
IoniMethod: _ENERGY 70 eV
IonPolarity: pos
Date: 2010-10-09 19:48:36+02:00
Num Peaks: 33
14 16 15 100 26 25 27 163 28 41 29 51 38 20 39 154 40 26 41 212 
42 64 43 999 44 26 50 15 51 23 52 18 53 43 54 32 55 111 56 128 
66 22 67 13 69 190 70 34 83 55 84 398 85 19 97 31 111 15 112 414 
113 26 154 119 155 12 
