Name: MassBank: JP003933
MW: 107
Formula: C7H9N
Synonym: MassBank: JP003933
Synonym: 3,4-DIMETHYLPYRIDINE
Structure: 310A32310A332C342D44494D455448594C5059524944494E452E6D6F6C0A20204368656D447261773032323131303232353632440A2020382020382020302020302020302020302020302020302020302020303939392056323030300A20202020302E3030303020202020312E3037313720202020302E303030302043202020302020302020302020302020302020302020302020302020302020302020302020300A20202020302E3431323520202020302E3335373220202020302E303030302043202020302020302020302020302020302020302020302020302020302020302020302020300A20202020302E303030302020202D302E3335373220202020302E303030302043202020302020302020302020302020302020302020302020302020302020302020302020300A2020202D302E383235302020202D302E3335373220202020302E303030302043202020302020302020302020302020302020302020302020302020302020302020302020300A2020202D312E3233373520202020302E3335373220202020302E303030302043202020302020302020302020302020302020302020302020302020302020302020302020300A2020202D302E3832353020202020312E3037313720202020302E30303030204E202020302020302020302020302020302020302020302020302020302020302020302020300A20202020302E343132352020202D312E3037313720202020302E303030302043202020302020302020302020302020302020302020302020302020302020302020302020300A20202020312E3233373520202020302E3335373220202020302E303030302043202020302020302020302020302020302020302020302020302020302020302020302020300A2020312020322020312020302020202020200A2020322020332020322020302020202020200A2020332020342020312020302020202020200A2020342020352020322020302020202020200A2020352020362020312020302020202020200A2020312020362020322020302020202020200A2020332020372020312020302020202020200A2020322020382020312020302020202020200A4D2020454E44
Contributor: MASS SPECTROSCOPY SOC. OF JAPAN (MSSJ)
InstType: EI
InstName: Unknown
IoniMethod: EI
IonPolarity: pos
Date: 2010-10-09 19:48:36+02:00
Num Peaks: 38
26 58 27 188 28 97 29 3 37 40 38 92 39 338 40 6 41 65 42 29 
49 30 50 11 51 179 52 126 53 110 54 5 61 27 62 28 63 70 64 3 
65 115 66 60 67 38 68 2 75 20 77 135 78 70 79 38 80 88 81 21 
91 32 92 23 93 49 104 33 105 61 106 47 107 999 108 70 
