Name: 2-METHYLNAPHTHALENE
CAS: 91-57-6
MW: 142
Formula: C11H10
Synonym: MassBank: JP001586
Synonym: 2-METHYLNAPHTHALENE
Structure: 322D4D455448594C4E4150485448414C454E452E6D6F6C0A20204368656D447261773032313831303134313432440A2031312031322020302020302020302020302020302020302020302020303939392056323030300A2020202D302E333537322020202D302E3832353020202020302E303030302043202020302020302020302020302020302020302020302020302020302020302020302020300A2020202D312E303731372020202D302E3431323520202020302E303030302043202020302020302020302020302020302020302020302020302020302020302020302020300A2020202D312E3037313720202020302E3431323520202020302E303030302043202020302020302020302020302020302020302020302020302020302020302020302020300A2020202D302E3335373220202020302E3832353020202020302E303030302043202020302020302020302020302020302020302020302020302020302020302020302020300A20202020302E3335373220202020302E3431323520202020302E303030302043202020302020302020302020302020302020302020302020302020302020302020302020300A20202020312E3037313720202020302E3832353020202020302E303030302043202020302020302020302020302020302020302020302020302020302020302020302020300A20202020312E3738363220202020302E3431323520202020302E303030302043202020302020302020302020302020302020302020302020302020302020302020302020300A20202020312E373836322020202D302E3431323520202020302E303030302043202020302020302020302020302020302020302020302020302020302020302020302020300A20202020312E303731372020202D302E3832353020202020302E303030302043202020302020302020302020302020302020302020302020302020302020302020302020300A20202020302E333537322020202D302E3431323520202020302E303030302043202020302020302020302020302020302020302020302020302020302020302020302020300A2020202D312E373836322020202D302E3832353020202020302E303030302043202020302020302020302020302020302020302020302020302020302020302020302020300A2020312020322020312020302020202020200A2020322020332020322020302020202020200A2020332020342020312020302020202020200A2020342020352020322020302020202020200A2020352020362020312020302020202020200A2020362020372020322020302020202020200A2020372020382020312020302020202020200A2020382020392020322020302020202020200A2020392031302020312020302020202020200A2020312031302020322020302020202020200A2020352031302020312020302020202020200A2020322031312020312020302020202020200A4D2020454E44
Contributor: KOGA M, UNIV. OF OCCUPATIONAL AND ENVIRONMENTAL HEALTH
InstType: EI
InstName: VARIAN MAT-44
IoniMethod: _ENERGY 70 eV
IonPolarity: pos
Date: 2010-10-09 19:48:36+02:00
Num Peaks: 67
40 83 41 96 42 141 43 551 44 134 45 45 50 42 51 54 52 11 54 16 
55 83 56 54 57 214 58 188 59 38 60 31 61 20 62 40 63 76 64 16 
65 33 67 18 68 25 69 152 70 188 71 194 72 13 73 31 74 31 75 31 
76 27 77 36 81 25 82 16 83 33 84 16 85 22 86 13 87 27 88 22 
89 54 91 36 95 11 96 11 97 29 98 18 99 18 101 16 102 11 105 13 
111 11 113 25 114 42 115 277 116 31 121 20 126 13 127 11 128 16 129 22 
135 13 138 18 139 100 140 109 141 953 142 999 143 118 
