Name: N-METHYL SUCCINIMIDE
MW: 113
Formula: C5H7NO2
Synonym: MassBank: JP002949
Synonym: N-METHYL SUCCINIMIDE
Structure: 310A32310A4E2D4D455448594C2053554343494E494D4944452E6D6F6C0A20204368656D447261773038313231303032313432440A2020382020382020302020302020302020302020302020302020302020303939392056323030300A20202020302E3236323720202020302E3636373420202020302E303030302043202020302020302020302020302020302020302020302020302020302020302020302020300A20202020302E3030373720202020312E3435323120202020302E30303030204F202020302020302020302020302020302020302020302020302020302020302020302020300A20202020312E3034373320202020302E3431323520202020302E303030302043202020302020302020302020302020302020302020302020302020302020302020302020300A20202020312E303437332020202D302E3431323520202020302E303030302043202020302020302020302020302020302020302020302020302020302020302020302020300A20202020302E323632372020202D302E3636373420202020302E303030302043202020302020302020302020302020302020302020302020302020302020302020302020300A20202020302E303037372020202D312E3435323120202020302E30303030204F202020302020302020302020302020302020302020302020302020302020302020302020300A2020202D302E323232332020202D302E3030303020202020302E30303030204E202020302020302020302020302020302020302020302020302020302020302020302020300A2020202D312E303437332020202D302E3030303020202020302E303030302043202020302020302020302020302020302020302020302020302020302020302020302020300A2020312020322020322020302020202020200A2020312020332020312020302020202020200A2020332020342020312020302020202020200A2020342020352020312020302020202020200A2020352020362020322020302020202020200A2020312020372020312020302020202020200A2020352020372020312020302020202020200A2020372020382020312020302020202020200A4D2020454E44
Contributor: MASS SPECTROSCOPY SOC. OF JAPAN (MSSJ)
InstType: EI
InstName: Unknown
IoniMethod: EI
IonPolarity: pos
Date: 2010-10-09 19:48:36+02:00
Num Peaks: 18
14 26 15 62 26 111 27 247 28 999 29 87 30 41 41 22 42 72 43 49 
55 103 56 536 57 97 58 117 84 24 85 25 113 472 114 39 
