Name: TRIETHYL PHOSPHATE
MW: 182
Formula: C6H15O4P
Synonym: MassBank: JP006067
Synonym: TRIETHYL PHOSPHATE
Structure: 545249455448594C2050484F5350484154452E6D6F6C0A20204368656D447261773038313231303038333232440A2031312031302020302020302020302020302020302020302020302020303939392056323030300A20202020302E323436372020202D302E3436373820202020302E303030302050202020302020302020302020302020302020302020302020302020302020302020302020300A2020202D302E3136353820202020302E3234363720202020302E30303030204F202020302020302020302020302020302020302020302020302020302020302020302020300A20202020302E393631322020202D302E3035353320202020302E30303030204F202020302020302020302020302020302020302020302020302020302020302020302020300A20202020302E363539322020202D312E3138323220202020302E30303030204F202020302020302020302020302020302020302020302020302020302020302020302020300A2020202D302E343637382020202D302E3838303320202020302E30303030204F202020302020302020302020302020302020302020302020302020302020302020302020300A20202020302E3936313220202020302E3736393720202020302E303030302043202020302020302020302020302020302020302020302020302020302020302020302020300A20202020302E3234363720202020312E3138323220202020302E303030302043202020302020302020302020302020302020302020302020302020302020302020302020300A20202020312E343834322020202D312E3138323220202020302E303030302043202020302020302020302020302020302020302020302020302020302020302020302020300A20202020312E383936372020202D302E3436373820202020302E303030302043202020302020302020302020302020302020302020302020302020302020302020302020300A2020202D312E313832322020202D302E3436373820202020302E303030302043202020302020302020302020302020302020302020302020302020302020302020302020300A2020202D312E383936372020202D302E3838303320202020302E303030302043202020302020302020302020302020302020302020302020302020302020302020302020300A2020312020322020322020302020202020200A2020312020332020312020302020202020200A2020312020342020312020302020202020200A2020312020352020312020302020202020200A2020362020372020312020302020202020200A2020332020362020312020302020202020200A2020382020392020312020302020202020200A2020342020382020312020302020202020200A2031302031312020312020302020202020200A2020352031302020312020302020202020200A4D2020454E44
Contributor: HASHIMOTO K, KYOTO COLLEGE OF PHARMACY
InstType: EI
InstName: HITACHI M-80
IoniMethod: _ENERGY 20 eV
IonPolarity: pos
Date: 2010-10-09 19:48:36+02:00
Num Peaks: 26
29 10 45 28 81 47 82 156 83 62 91 24 99 540 109 221 110 67 111 104 
125 125 126 48 127 495 128 11 137 93 138 115 139 75 153 37 154 16 155 999 
156 45 157 10 167 34 181 26 182 88 183 10 
