Name: MassBank: JP009786
MW: 170
Formula: C10H18O2
Synonym: MassBank: JP009786
Synonym: 3,7-DIMETHYL-1,2-EPOXY-3-HYDROXY-6-OCTENE
Synonym: 1,2-EPOXY-3,7-DIMETHYL-6-OCTEN-3-OL
Structure: 332C372D44494D455448594C2D312C322D45504F58592D332D485944524F58592D362D4F4354454E452E6D6F6C0A20204368656D447261773131313030393135343132440A2031322031322020302020302020302020302020302020302020302020303939392056323030300A20202020312E343238392020202D302E3932303720202020302E303030302043202020302020302020302020302020302020302020302020302020302020302020302020300A20202020312E303136342020202D302E3230363220202020302E303030302043202020302020302020302020302020302020302020302020302020302020302020302020300A20202020302E333032302020202D302E3631383820202020302E303030302043202020302020302020302020302020302020302020302020302020302020302020302020300A2020202D302E343132352020202D302E3230363320202020302E303030302043202020302020302020302020302020302020302020302020302020302020302020302020300A2020202D312E313237302020202D302E3631383820202020302E303030302043202020302020302020302020302020302020302020302020302020302020302020302020300A2020202D312E383431342020202D302E3230363320202020302E303030302043202020302020302020302020302020302020302020302020302020302020302020302020300A2020202D322E353535392020202D302E3631383820202020302E303030302043202020302020302020302020302020302020302020302020302020302020302020302020300A20202020302E3630333920202020302E3530383220202020302E30303030204F202020302020302020302020302020302020302020302020302020302020302020302020300A2020202D312E3834313420202020302E3631383720202020302E303030302043202020302020302020302020302020302020302020302020302020302020302020302020300A20202020312E3733303920202020302E3230363320202020302E303030302043202020302020302020302020302020302020302020302020302020302020302020302020300A20202020322E3535353920202020302E3230363320202020302E303030302043202020302020302020302020302020302020302020302020302020302020302020302020300A20202020322E3134333420202020302E3932303720202020302E30303030204F202020302020302020302020302020302020302020302020302020302020302020302020300A2020312020322020312020302020202020200A2020322020332020312020302020202020200A2020332020342020312020302020202020200A2020342020352020312020302020202020200A2020352020362020322020302020202020200A2020362020372020312020302020202020200A2020322020382020312020302020202020200A2020362020392020312020302020202020200A2020322031302020312020302020202020200A2031302031312020312020302020202020200A2031312031322020312020302020202020200A2031322031302020312020302020202020200A4D2020454E44
Contributor: KURARAY CO., LTD.
InstType: EI
InstName: JEOL JMS-D-300
IoniMethod: _ENERGY 70 eV
IonPolarity: pos
Date: 2010-10-09 19:48:36+02:00
Num Peaks: 53
27 77 29 69 31 47 39 10 40 27 41 588 42 53 43 999 44 18 51 21 
53 82 54 4 55 325 56 122 57 37 58 2 59 34 65 21 66 15 67 54 
68 731 69 946 70 163 71 20 77 21 79 50 80 23 81 10 82 667 83 439 
84 72 85 21 87 148 88 71 91 42 92 1 93 60 94 27 95 96 96 5 
97 27 105 35 107 66 108 2 109 561 110 70 111 69 119 3 121 32 127 69 
137 20 152 9 153 16 
