Name: CEDRANE
MW: 206
Formula: C15H26
Synonym: MassBank: JP005247
Synonym: CEDRANE
Synonym: (3R-(3ALPHA,3ALPHABETA,6ALPHA,7BETA,8AALPHA))-OCTAHYDRO-3,6,8,8-TETRAMETHYL-1H-3A,7-METHANOAZULENE
Structure: 2833522D2833414C5048412C33414C504841424554412C36414C5048412C37424554412C3841414C50484129292D4F435441485944524F2D332C362C382C382D54455452414D455448594C2D31482D33412C372D4D455448414E4F415A554C454E452E6D6F6C0A20204368656D447261773130323130393033353332440A2031382032302020302020302020302020302020302020302020302020303939392056323030300A20202020302E343630362020202D312E3331333120202020302E303030302043202020302020302020302020302020302020302020302020302020302020302020302020300A20202020312E313935372020202D302E3933383520202020302E303030302043202020302020302020302020302020302020302020302020302020302020302020302020300A20202020312E303636362020202D302E3132333720202020302E303030302043202020302020302020302020302020302020302020302020302020302020302020302020300A20202020302E3235313820202020302E3030353420202020302E303030302043202020302020302020302020302020302020302020302020302020302020302020302020300A20202020302E3430323520202020302E3739353520202020302E303030302043202020302020302020302020302020302020302020302020302020302020302020302020300A2020202D302E3231373320202020312E3330383220202020302E303030302043202020302020302020302020302020302020302020302020302020302020302020302020300A2020202D302E3936353220202020312E3031323120202020302E303030302043202020302020302020302020302020302020302020302020302020302020302020302020300A2020202D312E3036363720202020302E3230373920202020302E303030302043202020302020302020302020302020302020302020302020302020302020302020302020300A2020202D302E393337362020202D302E3538363220202020302E303030302043202020302020302020302020302020302020302020302020302020302020302020302020300A2020202D302E313232382020202D302E3732393720202020302E303030302043202020302020302020302020302020302020302020302020302020302020302020302020300A2020202D302E3333313620202020302E3538383720202020302E303030302043202020302020302020302020302020302020302020302020302020302020302020302020300A2020202D312E3839313620202020302E3230373920202020302E303030302048202020302020302020302020302020302020302020302020302020302020302020302020300A2020202D302E333634302020202D312E3531383720202020302E303030302048202020302020302020302020302020302020302020302020302020302020302020302020300A20202020312E383931362020202D302E3132333720202020302E303030302048202020302020302020302020302020302020302020302020302020302020302020302020300A2020202D312E313233352020202D312E3430333220202020302E303030302043202020302020302020302020302020302020302020302020302020302020302020302020300A2020202D312E373632392020202D302E3538353120202020302E303030302043202020302020302020302020302020302020302020302020302020302020302020302020300A20202020312E3634393920202020302E3435393920202020302E303030302043202020302020302020302020302020302020302020302020302020302020302020302020300A2020202D312E3631373120202020312E3531383720202020302E303030302043202020302020302020302020302020302020302020302020302020302020302020302020300A2020312020322020312020302020202020200A2020322020332020312020302020202020200A2020332020342020312020302020202020200A2020342020352020312020302020202020200A2020352020362020312020302020202020200A2020362020372020312020302020202020200A2020372020382020312020302020202020200A2020382020392020312020302020202020200A2020392031302020312020302020202020200A2020312031302020312020302020202020200A2020342031302020312020302020202020200A2020342031312020312020302020202020200A2020382031312020312020302020202020200A2020382031322020312020312020202020200A2031302031332020312020362020202020200A2020332031342020312020312020202020200A2020392031352020312020362020202020200A2020392031362020312020312020202020200A2020332031372020312020362020202020200A2020372031382020312020362020202020200A4D202053545920203120202031205355500A4D2020534C4220203120202031202020310A4D202053414C20202031202031202031350A4D202053424C20202031202031202031370A4D2020534D5420202031204D650A4D2020534256202020312031372020202D382E3333353620202020352E383832370A4D202053545920203120202032205355500A4D2020534C4220203120202032202020320A4D202053414C20202032202031202031360A4D202053424C20202032202031202031380A4D2020534D5420202032204D650A4D2020534256202020322031382020202D382E3937353020202020362E373030380A4D202053545920203120202033205355500A4D2020534C4220203120202033202020330A4D202053414C20202033202031202031370A4D202053424C20202033202031202031390A4D2020534D5420202033204D650A4D2020534256202020332031392020202D372E3536363520202020372E323833320A4D202053545920203120202034205355500A4D2020534C4220203120202034202020340A4D202053414C20202034202031202031380A4D202053424C20202034202031202032300A4D2020534D5420202034204D650A4D2020534256202020342032302020202D382E3830313720202020372E323036320A4D2020454E44
Contributor: MASS SPECTROSCOPY SOC. OF JAPAN (MSSJ)
InstType: EI
InstName: HITACHI M-80
IoniMethod: _ENERGY 20 eV
IonPolarity: pos
Date: 2010-10-09 19:48:36+02:00
Num Peaks: 25
27 18 29 18 39 28 41 11 55 81 56 75 67 45 69 15 77 82 79 59 
91 132 93 39 105 251 107 64 119 999 120 15 133 77 136 77 147 99 148 5 
161 216 162 42 175 13 189 4 206 36 
