Name: 2-CYANOACETAMIDE
MW: 84
Formula: C3H4N2O
Synonym: MassBank: JP009423
Synonym: 2-CYANOACETAMIDE
Structure: 310A31360A322D4359414E4F41434554414D4944452E6D6F6C0A20204368656D447261773031303331303132303232440A2020362020352020302020302020302020302020302020302020302020303939392056323030300A2020202D302E3731343520202020302E3230363220202020302E303030302043202020302020302020302020302020302020302020302020302020302020302020302020300A20202020302E3030303020202020302E3631383820202020302E303030302043202020302020302020302020302020302020302020302020302020302020302020302020300A2020202D302E373134352020202D302E3631383820202020302E30303030204F202020302020302020302020302020302020302020302020302020302020302020302020300A2020202D312E3432383920202020302E3631383820202020302E30303030204E202020302020302020302020302020302020302020302020302020302020302020302020300A20202020302E3731343520202020302E3230363320202020302E303030302043202020302020302020302020302020302020302020302020302020302020302020302020300A20202020312E343238392020202D302E3230363220202020302E30303030204E202020302020302020302020302020302020302020302020302020302020302020302020300A2020312020322020312020302020202020200A2020312020332020322020302020202020200A2020312020342020312020302020202020200A2020352020362020332020302020202020200A2020322020352020312020302020202020200A4D2020454E44
Contributor: GUNMA COLLEGE OF TECHNOLOGY
InstType: EI
InstName: HITACHI M-80A
IoniMethod: _ENERGY 70 eV
IonPolarity: pos
Date: 2010-10-09 19:48:36+02:00
Num Peaks: 20
25 11 26 20 27 35 28 40 29 25 30 23 38 69 39 97 40 247 41 515 
42 52 43 51 44 999 45 15 53 14 55 11 67 38 68 44 84 58 85 74 
