Name: 3-HYDROXYTETRAHYDROFURAN
MW: 88
Formula: C4H8O2
Synonym: MassBank: JP009299
Synonym: 3-HYDROXYTETRAHYDROFURAN
Structure: 310A31370A332D485944524F58595445545241485944524F465552414E2E6D6F6C0A20204368656D447261773032323231303231343132440A2020362020362020302020302020302020302020302020302020302020303939392056323030300A20202020312E303437332020202D302E3431323520202020302E30303030204F202020302020302020302020302020302020302020302020302020302020302020302020300A20202020302E323632372020202D302E3636373420202020302E303030302043202020302020302020302020302020302020302020302020302020302020302020302020300A2020202D302E323232332020202D302E3030303020202020302E303030302043202020302020302020302020302020302020302020302020302020302020302020302020300A20202020302E3236323720202020302E3636373420202020302E303030302043202020302020302020302020302020302020302020302020302020302020302020302020300A20202020312E3034373320202020302E3431323520202020302E303030302043202020302020302020302020302020302020302020302020302020302020302020302020300A2020202D312E303437332020202D302E3030303020202020302E30303030204F202020302020302020302020302020302020302020302020302020302020302020302020300A2020312020322020312020302020202020200A2020322020332020312020302020202020200A2020332020342020312020302020202020200A2020342020352020312020302020202020200A2020312020352020312020302020202020200A2020332020362020312020302020202020200A4D2020454E44
Contributor: YAMAMOTO M, DEP. CHEMISTRY, FAC. SCIENCE, NARA WOMEN'S UNIV.
InstType: EI
InstName: HITACHI RMU-6M
IoniMethod: _ENERGY 20 eV
IonPolarity: pos
Date: 2010-10-09 19:48:36+02:00
Num Peaks: 28
15 14 27 33 28 137 29 14 30 208 31 360 32 91 33 2 39 39 40 82 
41 105 42 9 43 152 44 131 45 56 55 1 56 35 57 999 58 882 59 6 
60 61 61 11 69 16 70 20 71 23 87 16 88 169 89 11 
