Name: MassBank: JP000459
MW: 142
Formula: C5H6N2O3
Synonym: MassBank: JP000459
Synonym: 3,5-DIMETHYL-4-NITROISOXAZOLE
Structure: 332C352D44494D455448594C2D342D4E4954524F49534F58415A4F4C452E6D6F6C0A20204368656D447261773032323231303031323732440A2031302031302020302020302020302020302020302020302020302020303939392056323030300A20202020312E323533352020202D302E3431323520202020302E30303030204F202020302020302020302020302020302020302020302020302020302020302020302020300A20202020312E3235333520202020302E3431323520202020302E30303030204E202020302020302020302020302020302020302020302020302020302020302020302020300A20202020302E3436383920202020302E3636373420202020302E303030302043202020302020302020302020302020302020302020302020302020302020302020302020300A2020202D302E3031363020202020302E3030303020202020302E303030302043202020302020302020302020302020302020302020302020302020302020302020302020300A20202020302E343638392020202D302E3636373420202020302E303030302043202020302020302020302020302020302020302020302020302020302020302020302020300A2020202D302E3834313020202020302E3030303020202020302E30303030204E202020302020332020302020302020302020302020302020302020302020302020302020300A2020202D312E3235333520202020302E3731343520202020302E30303030204F202020302020302020302020302020302020302020302020302020302020302020302020300A2020202D312E323533352020202D302E3731343520202020302E30303030204F202020302020352020302020302020302020302020302020302020302020302020302020300A20202020302E323134302020202D312E3435323120202020302E303030302043202020302020302020302020302020302020302020302020302020302020302020302020300A20202020302E3231343020202020312E3435323120202020302E303030302043202020302020302020302020302020302020302020302020302020302020302020302020300A2020312020322020312020302020202020200A2020322020332020322020302020202020200A2020332020342020312020302020202020200A2020342020352020322020302020202020200A2020312020352020312020302020202020200A2020362020372020322020302020202020200A2020362020382020312020302020202020200A2020342020362020312020302020202020200A2020352020392020312020302020202020200A2020332031302020312020302020202020200A4D202043484720203220202036202020312020203820202D310A4D2020454E44
Contributor: SASAKI S, TOYOHASHI UNIV. OF TECH.
InstType: EI
InstName: MX-1303
IoniMethod: _ENERGY 50 eV
IonPolarity: pos
Date: 2010-10-09 19:48:36+02:00
Num Peaks: 42
26 61 27 144 29 48 30 17 31 15 37 14 38 54 39 14 40 113 41 163 
42 348 43 999 45 23 50 17 51 36 52 5 53 48 54 137 55 26 56 3 
57 26 60 13 62 18 63 3 64 12 65 32 66 25 67 9 68 14 69 32 
70 25 71 5 80 46 81 40 82 17 83 17 84 18 85 12 95 20 96 4 
142 194 143 14 
