Name: MassBank: JP002354
MW: 290
Formula: C15H26Si3
Synonym: MassBank: JP002354
Synonym: 2-(PHENYLETHYNYL)-1,1,1,2,3,3,3-HEPTAMETHYLTRISILANE
Structure: 322D285048454E594C455448594E594C292D312C312C312C322C332C332C332D48455054414D455448594C54524953494C414E452E6D6F6C0A20204368656D447261773132323130393231313532440A2031382031382020302020302020302020302020302020302020302020303939392056323030300A20202020312E3635343320202020302E3832353020202020302E303030302053692020302020302020302020302020302020302020302020302020302020302020302020300A20202020312E3635343320202020302E3030303020202020302E303030302053692020302020302020302020302020302020302020302020302020302020302020302020300A20202020312E363534332020202D302E3832353020202020302E303030302053692020302020302020302020302020302020302020302020302020302020302020302020300A20202020302E383239332020202D302E3832353020202020302E303030302043202020302020302020302020302020302020302020302020302020302020302020302020300A20202020312E363534332020202D312E3635303020202020302E303030302043202020302020302020302020302020302020302020302020302020302020302020302020300A20202020322E343739332020202D302E3832353020202020302E303030302043202020302020302020302020302020302020302020302020302020302020302020302020300A20202020322E3437393320202020302E3030303020202020302E303030302043202020302020302020302020302020302020302020302020302020302020302020302020300A20202020302E3832393320202020302E3832353020202020302E303030302043202020302020302020302020302020302020302020302020302020302020302020302020300A20202020312E3635343320202020312E3635303020202020302E303030302043202020302020302020302020302020302020302020302020302020302020302020302020300A20202020322E3437393320202020302E3832353020202020302E303030302043202020302020302020302020302020302020302020302020302020302020302020302020300A20202020302E3832393320202020302E3030303020202020302E303030302043202020302020302020302020302020302020302020302020302020302020302020302020300A20202020302E3030343320202020302E3030303020202020302E303030302043202020302020302020302020302020302020302020302020302020302020302020302020300A2020202D302E3832303720202020302E3030303020202020302E303030302043202020302020302020302020302020302020302020302020302020302020302020302020300A2020202D312E323238302020202D302E3639373920202020302E303030302043202020302020302020302020302020302020302020302020302020302020302020302020300A2020202D322E303632332020202D302E3639373920202020302E303030302043202020302020302020302020302020302020302020302020302020302020302020302020300A2020202D322E3437393320202020302E3032343320202020302E303030302043202020302020302020302020302020302020302020302020302020302020302020302020300A2020202D322E3036323520202020302E3734363320202020302E303030302043202020302020302020302020302020302020302020302020302020302020302020302020300A2020202D312E3232393020202020302E3734363320202020302E303030302043202020302020302020302020302020302020302020302020302020302020302020302020300A2020322020312020312020312020202020200A2020322020332020312020312020202020200A2020332020342020312020302020202020200A2020332020352020312020302020202020200A2020332020362020312020302020202020200A2020322020372020312020302020202020200A2020312020382020312020302020202020200A2020312020392020312020302020202020200A2020312031302020312020302020202020200A2031312031322020332020302020202020200A2031332031342020312020302020202020200A2031342031352020322020302020202020200A2031352031362020312020302020202020200A2031362031372020322020302020202020200A2031372031382020312020302020202020200A2031332031382020322020302020202020200A2031322031332020312020302020202020200A2020322031312020312020302020202020200A4D2020454E44
Contributor: MASS SPECTROSCOPY SOC. OF JAPAN (MSSJ)
InstType: EI
InstName: JEOL JMS-D-3000
IoniMethod: _ENERGY 70 eV
IonPolarity: pos
Date: 2010-10-09 19:48:36+02:00
Num Peaks: 63
43 148 45 219 46 13 47 15 53 31 55 15 59 66 67 12 69 12 73 999 
74 83 75 97 76 15 77 14 83 15 85 15 91 13 93 14 99 22 101 79 
102 43 103 20 105 70 115 29 116 699 117 111 118 56 119 13 125 10 129 86 
130 17 131 63 132 10 133 11 135 247 136 33 137 11 140 72 141 15 142 10 
143 22 145 39 155 33 159 252 160 41 161 18 175 10 177 22 187 68 188 13 
191 26 201 21 202 32 203 11 217 275 218 69 219 28 275 93 276 29 277 15 
290 172 291 57 292 27 
