Name: MassBank: JP000482
MW: 113
Formula: C7H15N
Synonym: MassBank: JP000482
Synonym: 1,3-DIMETHYLPIPERIDINE
Structure: 310A32310A312C332D44494D455448594C50495045524944494E452E6D6F6C0A20204368656D447261773131313230393131353832440A2020382020382020302020302020302020302020302020302020302020303939392056323030300A20202020302E373134352020202D302E3431323520202020302E30303030204E202020302020302020302020302020302020302020302020302020302020302020302020300A2020202D302E303030302020202D302E3832353020202020302E303030302043202020302020302020302020302020302020302020302020302020302020302020302020300A2020202D302E373134352020202D302E3431323520202020302E303030302043202020302020302020302020302020302020302020302020302020302020302020302020300A2020202D302E3731343520202020302E3431323520202020302E303030302043202020302020302020302020302020302020302020302020302020302020302020302020300A20202020302E3030303020202020302E3832353020202020302E303030302043202020302020302020302020302020302020302020302020302020302020302020302020300A20202020302E3731343520202020302E3431323520202020302E303030302043202020302020302020302020302020302020302020302020302020302020302020302020300A2020202D312E343238392020202D302E3832353020202020302E303030302043202020302020302020302020302020302020302020302020302020302020302020302020300A20202020312E343238392020202D302E3832353020202020302E303030302043202020302020302020302020302020302020302020302020302020302020302020302020300A2020312020322020312020302020202020200A2020322020332020312020302020202020200A2020332020342020312020302020202020200A2020342020352020312020302020202020200A2020352020362020312020302020202020200A2020312020362020312020302020202020200A2020332020372020312020302020202020200A2020312020382020312020302020202020200A4D2020454E44
Contributor: SASAKI S, TOYOHASHI UNIV. OF TECH.
InstType: EI
InstName: MX-1303
IoniMethod: _ENERGY 50 eV
IonPolarity: pos
Date: 2010-10-09 19:48:36+02:00
Num Peaks: 55
26 25 27 105 29 50 30 4 36 10 38 12 39 136 40 3 41 236 42 532 
43 767 45 2 50 10 51 15 52 14 53 4 54 32 55 81 56 57 57 13 
58 575 59 25 64 10 65 2 66 14 67 41 68 60 69 5 70 177 71 180 
72 17 78 1 79 20 80 18 81 36 82 6 83 21 84 223 85 35 92 1 
93 15 94 31 95 15 96 6 97 30 98 139 99 18 101 1 105 10 108 12 
110 30 111 3 112 999 113 532 114 42 
