Name: TRIMETHYLSILYLMETHANETHIOL
MW: 120
Formula: C4H12SSi
Synonym: MassBank: JP002357
Synonym: TRIMETHYLSILYLMETHANETHIOL
Structure: 310A31360A5452494D455448594C53494C594C4D455448414E455448494F4C2E6D6F6C0A20204368656D447261773038313231303039303532440A2020362020352020302020302020302020302020302020302020302020303939392056323030300A20202020302E3335373220202020302E3431323520202020302E303030302043202020302020302020302020302020302020302020302020302020302020302020302020300A20202020312E3037313720202020302E3030303020202020302E303030302053202020302020302020302020302020302020302020302020302020302020302020302020300A2020202D302E3335373220202020302E3030303020202020302E303030302053692020302020302020302020302020302020302020302020302020302020302020302020300A20202020302E303535332020202D302E3731343520202020302E303030302043202020302020302020302020302020302020302020302020302020302020302020302020300A2020202D312E303731372020202D302E3431323520202020302E303030302043202020302020302020302020302020302020302020302020302020302020302020302020300A2020202D302E3736393720202020302E3731343520202020302E303030302043202020302020302020302020302020302020302020302020302020302020302020302020300A2020312020322020312020302020202020200A2020332020342020312020302020202020200A2020332020352020312020302020202020200A2020332020362020312020302020202020200A2020312020332020312020302020202020200A4D2020454E44
Contributor: MASS SPECTROSCOPY SOC. OF JAPAN (MSSJ)
InstType: EI
InstName: JEOL JMS-D-3000
IoniMethod: _ENERGY 70 eV
IonPolarity: pos
Date: 2010-10-09 19:48:36+02:00
Num Peaks: 27
42 33 43 249 44 629 45 254 46 50 47 39 48 38 53 18 55 19 57 19 
58 72 59 252 60 23 61 29 64 43 72 23 73 999 74 115 75 144 77 164 
105 286 106 27 107 26 117 50 119 49 120 153 121 25 
