Name: METHYL DISULFIDE
CAS: 624-92-0
MW: 93
Formula: C2H6S2
Synonym: MassBank: JP005727
Synonym: METHYL DISULFIDE
Structure: 310A31320A4D455448594C20444953554C464944452E6D6F6C0A20204368656D447261773038313231303030313832440A2020342020332020302020302020302020302020302020302020302020303939392056323030300A2020202D302E333537322020202D302E3230363320202020302E303030302053202020302020302020302020302020302020302020302020302020302020302020302020300A20202020302E3335373220202020302E3230363320202020302E303030302053202020302020302020302020302020302020302020302020302020302020302020302020300A2020202D312E3037313720202020302E3230363320202020302E303030302043202020302020302020302020302020302020302020302020302020302020302020302020300A20202020312E303731372020202D302E3230363220202020302E303030302043202020302020302020302020302020302020302020302020302020302020302020302020300A2020312020322020312020302020202020200A2020312020332020312020302020202020200A2020322020342020312020302020202020200A4D2020454E44
Contributor: MASS SPECTROSCOPY SOC. OF JAPAN (MSSJ)
InstType: EI
InstName: HITACHI M-80
IoniMethod: _ENERGY 70 eV
IonPolarity: pos
Date: 2010-10-09 19:48:36+02:00
Num Peaks: 35
15 251 16 4 17 3 18 11 27 9 28 65 32 82 33 23 34 9 35 8 
44 79 45 999 46 451 47 326 48 131 49 41 50 6 61 165 62 6 63 7 
64 163 65 8 66 15 76 9 77 6 78 32 79 565 80 23 81 52 93 10 
94 958 95 44 96 86 97 3 98 2 
