Name: MassBank: JP003943
MW: 121
Formula: C8H11N
Synonym: MassBank: JP003943
Synonym: 2,3,5-TRIMETHYLPYRIDINE
Structure: 310A32330A322C332C352D5452494D455448594C5059524944494E452E6D6F6C0A20204368656D447261773132323030393039353332440A2020392020392020302020302020302020302020302020302020302020303939392056323030300A2020202D302E3731343520202020302E3431323520202020302E303030302043202020302020302020302020302020302020302020302020302020302020302020302020300A2020202D302E373134352020202D302E3431323520202020302E303030302043202020302020302020302020302020302020302020302020302020302020302020302020300A20202020302E303030302020202D302E3832353020202020302E303030302043202020302020302020302020302020302020302020302020302020302020302020302020300A20202020302E373134352020202D302E3431323520202020302E303030302043202020302020302020302020302020302020302020302020302020302020302020302020300A20202020302E3731343520202020302E3431323520202020302E303030302043202020302020302020302020302020302020302020302020302020302020302020302020300A2020202D302E3030303020202020302E3832353020202020302E30303030204E202020302020302020302020302020302020302020302020302020302020302020302020300A20202020312E343238392020202D302E3832353020202020302E303030302043202020302020302020302020302020302020302020302020302020302020302020302020300A2020202D312E343238392020202D302E3832353020202020302E303030302043202020302020302020302020302020302020302020302020302020302020302020302020300A2020202D312E3432383920202020302E3832353020202020302E303030302043202020302020302020302020302020302020302020302020302020302020302020302020300A2020312020322020312020302020202020200A2020322020332020322020302020202020200A2020332020342020312020302020202020200A2020342020352020322020302020202020200A2020352020362020312020302020202020200A2020312020362020322020302020202020200A2020342020372020312020302020202020200A2020322020382020312020302020202020200A2020312020392020312020302020202020200A4D2020454E44
Contributor: MASS SPECTROSCOPY SOC. OF JAPAN (MSSJ)
InstType: EI
InstName: Unknown
IoniMethod: EI
IonPolarity: pos
Date: 2010-10-09 19:48:36+02:00
Num Peaks: 45
26 40 27 189 28 133 29 3 32 20 37 28 38 65 39 30 40 47 41 90 
42 70 43 3 50 65 51 143 52 105 53 13 54 43 62 38 63 54 64 4 
65 65 66 34 67 29 73 3 74 25 76 32 77 175 78 6 79 288 80 73 
81 30 91 6 92 27 93 67 94 39 104 2 105 30 106 268 118 30 119 5 
120 469 121 999 122 80 134 3 135 20 
