Name: MassBank: JP000771
MW: 224
Formula: C12H16O4
Synonym: MassBank: JP000771
Synonym: 2-METHOXY-3,7-BIS(METHOXYMETHYL)CYCLOHEPTA-2,4,6-TRIEN-1-ONE
Structure: 322D4D4554484F58592D332C372D424953284D4554484F58594D455448594C294359434C4F48455054412D322C342C362D545249454E2D312D4F4E452E6D6F6C0A20204368656D447261773031323231303032303032440A2031362031362020302020302020302020302020302020302020302020303939392056323030300A20202020302E353234302020202D302E3139383620202020302E303030302043202020302020302020302020302020302020302020302020302020302020302020302020300A20202020302E3333343420202020302E3630343320202020302E303030302043202020302020302020302020302020302020302020302020302020302020302020302020300A2020202D302E3431343620202020302E3935363720202020302E303030302043202020302020302020302020302020302020302020302020302020302020302020302020300A2020202D312E3135323120202020302E3539333220202020302E303030302043202020302020302020302020302020302020302020302020302020302020302020302020300A2020202D312E333239372020202D302E3231323520202020302E303030302043202020302020302020302020302020302020302020302020302020302020302020302020300A2020202D302E383130352020202D302E3835303620202020302E303030302043202020302020302020302020302020302020302020302020302020302020302020302020300A20202020302E303134352020202D302E3835303620202020302E303030302043202020302020302020302020302020302020302020302020302020302020302020302020300A20202020312E333239372020202D302E3337363220202020302E30303030204F202020302020302020302020302020302020302020302020302020302020302020302020300A20202020302E333738302020202D312E3538383120202020302E303030302043202020302020302020302020302020302020302020302020302020302020302020302020300A2020202D302E303831362020202D322E3237333220202020302E30303030204F202020302020302020302020302020302020302020302020302020302020302020302020300A20202020302E323831392020202D332E3031333820202020302E303030302043202020302020302020302020302020302020302020302020302020302020302020302020300A2020202D302E3431343620202020312E3738313720202020302E303030302043202020302020302020302020302020302020302020302020302020302020302020302020300A2020202D312E3133313420202020322E3139353520202020302E30303030204F202020302020302020302020302020302020302020302020302020302020302020302020300A2020202D312E3133313420202020332E3031333820202020302E303030302043202020302020302020302020302020302020302020302020302020302020302020302020300A20202020302E3937353620202020312E3132333520202020302E30303030204F202020302020302020302020302020302020302020302020302020302020302020302020300A20202020302E3834363520202020312E3933383320202020302E303030302043202020302020302020302020302020302020302020302020302020302020302020302020300A2020312020322020312020302020202020200A2020322020332020322020302020202020200A2020332020342020312020302020202020200A2020342020352020322020302020202020200A2020352020362020312020302020202020200A2020362020372020322020302020202020200A2020312020372020312020302020202020200A2020312020382020322020302020202020200A2031302031312020312020302020202020200A2020392031302020312020302020202020200A2020372020392020312020302020202020200A2031332031342020312020302020202020200A2031322031332020312020302020202020200A2020332031322020312020302020202020200A2031352031362020312020302020202020200A2020322031352020312020302020202020200A4D2020454E44
Contributor: ITO S, DEPT. OF CHEM., TOHOKU UNIV.
InstType: EI
InstName: Unknown
IoniMethod: _ENERGY 25 eV
IonPolarity: pos
Date: 2010-10-09 19:48:36+02:00
Num Peaks: 57
45 645 58 30 65 125 75 9 77 240 78 140 79 130 89 6 90 55 91 720 
92 100 93 11 103 105 104 180 105 320 106 12 107 55 108 750 109 95 118 5 
119 125 120 55 121 120 122 5 123 35 131 55 132 130 133 43 134 170 135 130 
136 40 138 8 147 55 148 50 149 999 150 13 151 70 160 45 161 40 162 7 
163 75 164 45 165 80 166 3 177 940 178 115 179 70 191 4 192 880 193 180 
194 110 195 4 209 335 210 40 224 995 225 17 226 30 
