Name: 3-METHYLCYCLOPENTANONE
MW: 98
Formula: C6H10O
Synonym: MassBank: JP005992
Synonym: 3-METHYLCYCLOPENTANONE
Structure: 310A31390A332D4D455448594C4359434C4F50454E54414E4F4E452E6D6F6C0A20204368656D447261773033323031303135333232440A2020372020372020302020302020302020302020302020302020302020303939392056323030300A20202020302E3239373520202020302E3731333620202020302E303030302043202020302020302020302020302020302020302020302020302020302020302020302020300A20202020302E353532342020202D302E3037313120202020302E303030302043202020302020302020302020302020302020302020302020302020302020302020302020300A2020202D302E313135302020202D302E3535363020202020302E303030302043202020302020302020302020302020302020302020302020302020302020302020302020300A2020202D302E373832342020202D302E3037313120202020302E303030302043202020302020302020302020302020302020302020302020302020302020302020302020300A2020202D302E3532373520202020302E3731333620202020302E303030302043202020302020302020302020302020302020302020302020302020302020302020302020300A2020202D302E313135302020202D312E3338313020202020302E303030302043202020302020302020302020302020302020302020302020302020302020302020302020300A20202020302E3738323420202020312E3338313020202020302E30303030204F202020302020302020302020302020302020302020302020302020302020302020302020300A2020312020322020312020302020202020200A2020322020332020312020302020202020200A2020332020342020312020302020202020200A2020342020352020312020302020202020200A2020312020352020312020302020202020200A2020332020362020312020302020202020200A2020312020372020322020302020202020200A4D2020454E44
Contributor: YAMAMOTO M, DEP. CHEMISTRY, FAC. SCIENCE, NARA WOMEN'S UNIV.
InstType: EI
InstName: HITACHI RMU-6M
IoniMethod: _ENERGY 70 eV
IonPolarity: pos
Date: 2010-10-09 19:48:36+02:00
Num Peaks: 24
15 32 26 59 27 326 28 44 29 162 37 17 38 42 39 34 40 82 41 622 
42 846 43 6 50 29 51 34 53 61 54 3 55 663 56 377 57 25 69 999 
70 101 83 95 98 588 99 43 
