Name: 2-PHENYL-3-BENZOYL-1-AZIRINE
MW: 221
Formula: C15H11NO
Synonym: MassBank: JP003253
Synonym: 2-PHENYL-3-BENZOYL-1-AZIRINE
Structure: 322D5048454E594C2D332D42454E5A4F594C2D312D415A4952494E452E6D6F6C0A20204368656D447261773032323131303134313232440A2031372031392020302020302020302020302020302020302020302020303939392056323030300A20202020312E3038363520202020302E3736393720202020302E303030302043202020302020302020302020302020302020302020302020302020302020302020302020300A20202020312E303836352020202D302E3035353320202020302E303030302043202020302020302020302020302020302020302020302020302020302020302020302020300A20202020312E3830313020202020302E3335373220202020302E30303030204E202020302020302020302020302020302020302020302020302020302020302020302020300A20202020302E3637343020202020312E3438343220202020302E303030302043202020302020302020302020302020302020302020302020302020302020302020302020300A20202020302E363734302020202D302E3736393720202020302E303030302043202020302020302020302020302020302020302020302020302020302020302020302020300A2020202D302E3135313020202020312E3438343220202020302E303030302043202020302020302020302020302020302020302020302020302020302020302020302020300A20202020312E3038363520202020322E3139383720202020302E30303030204F202020302020302020302020302020302020302020302020302020302020302020302020300A2020202D302E3536333520202020322E3139383720202020302E303030302043202020302020302020302020302020302020302020302020302020302020302020302020300A2020202D312E3338383520202020322E3139383720202020302E303030302043202020302020302020302020302020302020302020302020302020302020302020302020300A2020202D312E3830313020202020312E3438343220202020302E303030302043202020302020302020302020302020302020302020302020302020302020302020302020300A2020202D312E3338383520202020302E3736393720202020302E303030302043202020302020302020302020302020302020302020302020302020302020302020302020300A2020202D302E3536333520202020302E3736393720202020302E303030302043202020302020302020302020302020302020302020302020302020302020302020302020300A2020202D302E313531302020202D302E3736393720202020302E303030302043202020302020302020302020302020302020302020302020302020302020302020302020300A2020202D302E353633352020202D312E3438343220202020302E303030302043202020302020302020302020302020302020302020302020302020302020302020302020300A2020202D302E313531302020202D322E3139383720202020302E303030302043202020302020302020302020302020302020302020302020302020302020302020302020300A20202020302E363734302020202D322E3139383720202020302E303030302043202020302020302020302020302020302020302020302020302020302020302020302020300A20202020312E303836352020202D312E3438343220202020302E303030302043202020302020302020302020302020302020302020302020302020302020302020302020300A2020312020322020312020302020202020200A2020322020332020322020302020202020200A2020332020312020312020302020202020200A2020312020342020312020302020202020200A2020322020352020312020302020202020200A2020342020362020312020302020202020200A2020342020372020322020302020202020200A2020362020382020322020302020202020200A2020382020392020312020302020202020200A2020392031302020322020302020202020200A2031302031312020312020302020202020200A2031312031322020322020302020202020200A2031322020362020312020302020202020200A2020352031332020322020302020202020200A2031332031342020312020302020202020200A2031342031352020322020302020202020200A2031352031362020312020302020202020200A2031362031372020322020302020202020200A2031372020352020312020302020202020200A4D2020454E44
Contributor: MASS SPECTROSCOPY SOC. OF JAPAN (MSSJ)
InstType: EI
InstName: HITACHI RMU-6E
IoniMethod: _ENERGY 70 eV
IonPolarity: pos
Date: 2010-10-09 19:48:36+02:00
Num Peaks: 16
222 140 221 790 220 110 193 120 166 230 165 370 144 150 116 240 105 999 90 150 
89 360 77 840 63 210 51 420 50 150 39 150 
