Name: MassBank: JP001580
CAS: 106-99-0
MW: 54
Formula: C4H6
Synonym: MassBank: JP001580
Synonym: 1,3-BUTADIENE
Synonym: BUTADIENE 1,3
Structure: 310A31320A312C332D425554414449454E452E6D6F6C0A20204368656D447261773131313130393230353132440A2020342020332020302020302020302020302020302020302020302020303939392056323030300A2020202D312E3037313720202020302E3230363320202020302E303030302043202020302020302020302020302020302020302020302020302020302020302020302020300A2020202D302E333537322020202D302E3230363320202020302E303030302043202020302020302020302020302020302020302020302020302020302020302020302020300A20202020302E3335373220202020302E3230363320202020302E303030302043202020302020302020302020302020302020302020302020302020302020302020302020300A20202020312E303731372020202D302E3230363220202020302E303030302043202020302020302020302020302020302020302020302020302020302020302020302020300A2020312020322020322020302020202020200A2020322020332020312020302020202020200A2020332020342020322020302020202020200A4D2020454E44
Contributor: MASS SPECTROSCOPY SOC. OF JAPAN (MSSJ)
InstType: EI
InstName: HITACHI RMU-5B
IoniMethod: _ENERGY 80 eV
IonPolarity: pos
Date: 2010-10-09 19:48:36+02:00
Num Peaks: 23
12 14 13 16 14 26 15 22 25 46 25.5 36 26 252 27 601 28 411 29 12 
36 18 37 82 38 87 39 999 40 35 48 22 49 101 50 278 51 240 52 113 
53 598 54 846 55 38 
