Name: 1-DIETHOXYPHOSPHORYL-4-HYDROXY-NONAN-2-ONE
MW: 294
Formula: C13H27O5P
Synonym: MassBank: JP009357
Synonym: 1-DIETHOXYPHOSPHORYL-4-HYDROXY-NONAN-2-ONE
Structure: 312D44494554484F585950484F5350484F52594C2D342D485944524F58592D4E4F4E414E2D322D4F4E452E6D6F6C0A20204368656D447261773131313830393031323832440A2031392031382020302020302020302020302020302020302020302020303939392056323030300A2020202D312E353234372020202D302E3230363320202020302E303030302043202020302020302020302020302020302020302020302020302020302020302020302020300A2020202D302E383130322020202D302E3631383820202020302E303030302043202020302020302020302020302020302020302020302020302020302020302020302020300A2020202D302E303935372020202D302E3230363320202020302E303030302043202020302020302020302020302020302020302020302020302020302020302020302020300A20202020302E363138382020202D302E3631383820202020302E303030302043202020302020302020302020302020302020302020302020302020302020302020302020300A20202020312E333333322020202D302E3230363320202020302E303030302043202020302020302020302020302020302020302020302020302020302020302020302020300A20202020322E303437372020202D302E3631383820202020302E303030302043202020302020302020302020302020302020302020302020302020302020302020302020300A20202020322E303437372020202D312E3434333820202020302E303030302043202020302020302020302020302020302020302020302020302020302020302020302020300A20202020322E373632322020202D312E3835363320202020302E303030302043202020302020302020302020302020302020302020302020302020302020302020302020300A20202020322E373632322020202D322E3638313220202020302E303030302043202020302020302020302020302020302020302020302020302020302020302020302020300A2020202D302E383130322020202D312E3434333820202020302E30303030204F202020302020302020302020302020302020302020302020302020302020302020302020300A20202020302E363138382020202D312E3434333820202020302E30303030204F202020302020302020302020302020302020302020302020302020302020302020302020300A2020202D312E3532343720202020302E3631383720202020302E303030302050202020302020302020302020302020302020302020302020302020302020302020302020300A2020202D302E3639393720202020302E3631383720202020302E30303030204F202020302020302020302020302020302020302020302020302020302020302020302020300A2020202D322E3334393720202020302E3631383720202020302E30303030204F202020302020302020302020302020302020302020302020302020302020302020302020300A2020202D312E3532343720202020312E3434333720202020302E30303030204F202020302020302020302020302020302020302020302020302020302020302020302020300A2020202D322E373632322020202D302E3039353720202020302E303030302043202020302020302020302020302020302020302020302020302020302020302020302020300A2020202D322E333439372020202D302E3831303220202020302E303030302043202020302020302020302020302020302020302020302020302020302020302020302020300A2020202D302E3831303220202020312E3835363320202020302E303030302043202020302020302020302020302020302020302020302020302020302020302020302020300A2020202D302E3831303220202020322E3638313220202020302E303030302043202020302020302020302020302020302020302020302020302020302020302020302020300A2020312020322020312020302020202020200A2020322020332020312020302020202020200A2020332020342020312020302020202020200A2020342020352020312020302020202020200A2020352020362020312020302020202020200A2020362020372020312020302020202020200A2020372020382020312020302020202020200A2020382020392020312020302020202020200A2020322031302020322020302020202020200A2020342031312020312020302020202020200A2031322031332020322020302020202020200A2031322031342020312020302020202020200A2031322031352020312020302020202020200A2031362031372020312020302020202020200A2031342031362020312020302020202020200A2031382031392020312020302020202020200A2031352031382020312020302020202020200A2020312031322020312020302020202020200A4D2020454E44
Contributor: KANEMASA S, INST. OF ADVANCED MATERIAL STUDY KYUSHU UNIV.
InstType: EI
InstName: JEOL JMS-01-SG-2
IoniMethod: _ENERGY 75 eV
IonPolarity: pos
Date: 2010-10-09 19:48:36+02:00
Num Peaks: 38
38 62 40 150 42 151 43 60 44 68 55 107 65 82 81 110 96 76 97 159 
105 55 108 56 109 100 121 104 123 252 124 52 125 195 138 69 139 185 149 74 
151 160 152 181 167 173 179 191 194 421 195 363 223 999 224 94 225 24 228 16 
233 34 236 18 247 15 248 11 249 27 276 56 277 15 294 33 
