Name: MassBank: JP002444
MW: 238
Formula: C14H22O3
Synonym: MassBank: JP002444
Synonym: 6,6-DIMETHYL-8ALPHA-(1-OXOETHYL)-1ALPHA,5ALPHA-BICYCLO(3.3.0)OCTAN-2-ONE ETHYLENE ACETAL
Synonym: 8-ACETYL-2,2-ETHYLENEDIOXY-6,6-DIMETHYL-1ALPHA,5ALPHA-BICYCLO(3.3.0)OCTANE
Structure: 362C362D44494D455448594C2D38414C5048412D28312D4F584F455448594C292D31414C5048412C35414C5048412D42494359434C4F28332E332E30294F4354414E2D322D4F4E4520455448594C454E452041434554414C2E6D6F6C0A20204368656D447261773034323331303038313732440A2032302032322020302020302020302020302020302020302020302020303939392056323030300A2020202D302E303239302020202D302E3335393620202020302E303030302043202020302020302020302020302020302020302020302020302020302020302020302020300A2020202D302E363836362020202D302E3835343820202020302E303030302043202020302020302020302020302020302020302020302020302020302020302020302020300A2020202D302E343137322020202D312E3633343620202020302E303030302043202020302020302020302020302020302020302020302020302020302020302020302020300A20202020302E343036392020202D312E3632303420202020302E303030302043202020302020302020302020302020302020302020302020302020302020302020302020300A20202020302E363438312020202D302E3833313520202020302E303030302043202020302020302020302020302020302020302020302020302020302020302020302020300A20202020312E333036382020202D302E3333343720202020302E303030302043202020302020302020302020302020302020302020302020302020302020302020302020300A20202020312E3033383420202020302E3434353120202020302E303030302043202020302020302020302020302020302020302020302020302020302020302020302020300A20202020302E3230303220202020302E3339373120202020302E303030302043202020302020302020302020302020302020302020302020302020302020302020302020300A2020202D302E3531343320202020302E3830393620202020302E303030302043202020302020302020302020302020302020302020302020302020302020302020302020300A2020202D312E3232383820202020302E3339373120202020302E303030302043202020302020302020302020302020302020302020302020302020302020302020302020300A2020202D302E3531343320202020312E3633343620202020302E30303030204F202020302020302020302020302020302020302020302020302020302020302020302020300A20202020312E383438352020202D302E3935373220202020302E303030302043202020302020302020302020302020302020302020302020302020302020302020302020300A20202020322E3032313320202020302E3037373820202020302E303030302043202020302020302020302020302020302020302020302020302020302020302020302020300A2020202D302E3631323420202020302E3232333820202020302E303030302048202020302020302020302020302020302020302020302020302020302020302020302020300A20202020312E333234322020202D312E3330343320202020302E303030302048202020302020302020302020302020302020302020302020302020302020302020302020300A2020202D312E333434372020202D312E3335343220202020302E30303030204F202020302020302020302020302020302020302020302020302020302020302020302020300A2020202D302E393533302020202D302E3037353920202020302E30303030204F202020302020302020302020302020302020302020302020302020302020302020302020300A2020202D322E303231332020202D302E3837383120202020302E303030302043202020302020302020302020302020302020302020302020302020302020302020302020300A2020202D312E373830312020202D302E3038393120202020302E303030302043202020302020302020302020302020302020302020302020302020302020302020302020300A20202020302E3339303220202020312E3139383920202020302E303030302048202020302020302020302020302020302020302020302020302020302020302020302020300A2020312020322020312020302020202020200A2020322020332020312020302020202020200A2020332020342020312020302020202020200A2020342020352020312020302020202020200A2020352020362020312020302020202020200A2020362020372020312020302020202020200A2020372020382020312020302020202020200A2020312020382020312020302020202020200A2020312020352020312020302020202020200A2020392031302020312020302020202020200A2020392031312020322020302020202020200A2020382020392020312020312020202020200A2020362031322020312020312020202020200A2020362031332020312020362020202020200A2020312031342020312020312020202020200A2020352031352020312020312020202020200A2031382031392020312020302020202020200A2031362031382020312020302020202020200A2031372031392020312020302020202020200A2020322031362020312020302020202020200A2020322031372020312020302020202020200A2020382032302020312020362020202020200A4D2020454E44
Contributor: ITO S, DEPT. OF CHEM., TOHOKU UNIV.
InstType: EI
InstName: HITACHI M-52
IoniMethod: _ENERGY 13.5 eV
IonPolarity: pos
Date: 2010-10-09 19:48:36+02:00
Num Peaks: 14
86 183 87 59 99 999 100 2 126 26 133 31 151 44 181 3 193 92 195 242 
196 41 224 3 238 989 239 144 
