Name: 1-PARA-MENTHEN-3-YL ACETATE
MW: 196
Formula: C12H20O2
Synonym: MassBank: JP001219
Synonym: 1-PARA-MENTHEN-3-YL ACETATE
Structure: 312D504152412D4D454E5448454E2D332D594C20414345544154452E6D6F6C0A20204368656D447261773131323230393231353532440A2031342031342020302020302020302020302020302020302020302020303939392056323030300A20202020312E303331332020202D312E3037313720202020302E303030302043202020302020302020302020302020302020302020302020302020302020302020302020300A20202020302E363138372020202D312E3738363220202020302E303030302043202020302020302020302020302020302020302020302020302020302020302020302020300A20202020312E383536332020202D312E3037313720202020302E30303030204F202020302020302020302020302020302020302020302020302020302020302020302020300A20202020302E363138382020202D302E3335373220202020302E30303030204F202020302020302020302020302020302020302020302020302020302020302020302020300A2020202D302E323036322020202D302E3335373220202020302E303030302043202020302020302020302020302020302020302020302020302020302020302020302020300A2020202D302E3631383720202020302E3335373220202020302E303030302043202020302020302020302020302020302020302020302020302020302020302020302020300A2020202D312E3434333720202020302E3335373220202020302E303030302043202020302020302020302020302020302020302020302020302020302020302020302020300A2020202D312E383536332020202D302E3335373220202020302E303030302043202020302020302020302020302020302020302020302020302020302020302020302020300A2020202D312E343433382020202D312E3037313720202020302E303030302043202020302020302020302020302020302020302020302020302020302020302020302020300A2020202D302E363138382020202D312E3037313720202020302E303030302043202020302020302020302020302020302020302020302020302020302020302020302020300A2020202D312E383536332020202D312E3738363220202020302E303030302043202020302020302020302020302020302020302020302020302020302020302020302020300A2020202D302E3230363220202020312E3037313720202020302E303030302043202020302020302020302020302020302020302020302020302020302020302020302020300A20202020302E3631383820202020312E3037313720202020302E303030302043202020302020302020302020302020302020302020302020302020302020302020302020300A2020202D302E3631383720202020312E3738363220202020302E303030302043202020302020302020302020302020302020302020302020302020302020302020302020300A2020312020322020312020302020202020200A2020312020332020322020302020202020200A2020312020342020312020302020202020200A2020352020362020312020302020202020200A2020362020372020312020302020202020200A2020372020382020312020302020202020200A2020382020392020312020302020202020200A2020392031302020322020302020202020200A2020352031302020312020302020202020200A2020392031312020312020302020202020200A2031322031332020312020302020202020200A2031322031342020312020302020202020200A2020362031322020312020302020202020200A2020342020352020312020302020202020200A4D2020454E44
Contributor: SASAKI S, TOYOHASHI UNIV. OF TECH.
InstType: EI
InstName: HITACHI RMU-6D
IoniMethod: _ENERGY 20 eV
IonPolarity: pos
Date: 2010-10-09 19:48:36+02:00
Num Peaks: 59
18 45 27 40 41 20 43 21 54 10 55 70 56 60 57 9 58 10 59 10 
61 10 66 10 67 105 68 150 69 40 70 47 71 20 77 30 79 30 80 10 
81 580 82 385 83 110 84 7 85 70 86 30 91 40 92 8 93 380 94 180 
95 999 96 33 97 40 99 20 100 10 106 2 107 10 108 130 109 110 110 4 
111 20 112 60 118 30 120 14 121 15 122 400 125 10 134 2 136 165 137 65 
138 920 139 13 140 10 141 15 153 5 154 1 155 35 156 10 157 10 
