Name: MassBank: JP005638
MW: 178
Formula: C11H14O2
Synonym: MassBank: JP005638
Synonym: 2,2-DIMETHYL-4-PHENYL-1,3-DIOXOLAN
Structure: 322C322D44494D455448594C2D342D5048454E594C2D312C332D44494F584F4C414E2E6D6F6C0A20204368656D447261773132323030393036343932440A2031332031342020302020302020302020302020302020302020302020303939392056323030300A20202020302E3937383320202020312E3332313020202020302E30303030204F202020302020302020302020302020302020302020302020302020302020302020302020300A20202020312E3339303820202020302E3630363520202020302E303030302043202020302020302020302020302020302020302020302020302020302020302020302020300A20202020302E383338382020202D302E3030363620202020302E30303030204F202020302020302020302020302020302020302020302020302020302020302020302020300A20202020302E3038353120202020302E3332393020202020302E303030302043202020302020302020302020302020302020302020302020302020302020302020302020300A20202020302E3137313420202020312E3134393520202020302E303030302043202020302020302020302020302020302020302020302020302020302020302020302020300A2020202D302E363239332020202D302E3038333520202020302E303030302043202020302020302020302020302020302020302020302020302020302020302020302020300A2020202D302E363239332020202D302E3930383520202020302E303030302043202020302020302020302020302020302020302020302020302020302020302020302020300A2020202D312E333433382020202D312E3332313020202020302E303030302043202020302020302020302020302020302020302020302020302020302020302020302020300A2020202D322E303538332020202D302E3930383520202020302E303030302043202020302020302020302020302020302020302020302020302020302020302020302020300A2020202D322E303538332020202D302E3038333520202020302E303030302043202020302020302020302020302020302020302020302020302020302020302020302020300A2020202D312E3334333820202020302E3332393020202020302E303030302043202020302020302020302020302020302020302020302020302020302020302020302020300A20202020322E3035383320202020312E3039313520202020302E303030302043202020302020302020302020302020302020302020302020302020302020302020302020300A20202020312E393432392020202D302E3030363620202020302E303030302043202020302020302020302020302020302020302020302020302020302020302020302020300A2020312020322020312020302020202020200A2020322020332020312020302020202020200A2020332020342020312020302020202020200A2020342020352020312020302020202020200A2020312020352020312020302020202020200A2020362020372020312020302020202020200A2020372020382020322020302020202020200A2020382020392020312020302020202020200A2020392031302020322020302020202020200A2031302031312020312020302020202020200A2020362031312020322020302020202020200A2020342020362020312020302020202020200A2020322031322020312020362020202020200A2020322031332020312020312020202020200A4D2020454E44
Contributor: HASHIMOTO K, KYOTO COLLEGE OF PHARMACY
InstType: EI
InstName: HITACHI M-80
IoniMethod: _ENERGY 20 eV
IonPolarity: pos
Date: 2010-10-09 19:48:36+02:00
Num Peaks: 31
27 12 29 10 41 21 42 437 43 999 44 60 58 10 59 23 72 747 73 71 
77 24 78 55 79 35 89 10 90 101 91 198 92 46 103 62 104 48 105 42 
106 10 107 19 119 79 120 346 121 110 133 42 147 50 148 100 163 377 164 93 
178 4 
