Name: MassBank: JP001386
MW: 220
Formula: C12H20Si2
Synonym: MassBank: JP001386
Synonym: 1-METHYL-1-TRIMETHYLSILYL-2,3-BENZO-1-SILA-2-CYCLOPENTENE
Synonym: 1-METHYL-1-TRIMETHYLSILYL-1-SILAINDAN
Structure: 312D4D455448594C2D312D5452494D455448594C53494C594C2D322C332D42454E5A4F2D312D53494C412D322D4359434C4F50454E54454E452E6D6F6C0A20204368656D447261773131313930393136323332440A2031342031352020302020302020302020302020302020302020302020303939392056323030300A2020202D302E3734393520202020302E3132303520202020302E303030302053692020302020302020302020302020302020302020302020302020302020302020302020300A2020202D312E3233343520202020302E3738373920202020302E303030302043202020302020302020302020302020302020302020302020302020302020302020302020300A2020202D302E3734393520202020312E3435353420202020302E303030302043202020302020302020302020302020302020302020302020302020302020302020302020300A20202020302E3033353120202020312E3230303420202020302E303030302043202020302020302020302020302020302020302020302020302020302020302020302020300A20202020302E3734393520202020312E3631323920202020302E303030302043202020302020302020302020302020302020302020302020302020302020302020302020300A20202020312E3436343020202020312E3230303420202020302E303030302043202020302020302020302020302020302020302020302020302020302020302020302020300A20202020312E3436343020202020302E3337353420202020302E303030302043202020302020302020302020302020302020302020302020302020302020302020302020300A20202020302E373439352020202D302E3033373120202020302E303030302043202020302020302020302020302020302020302020302020302020302020302020302020300A20202020302E3033353120202020302E3337353420202020302E303030302043202020302020302020302020302020302020302020302020302020302020302020302020300A2020202D302E333133332020202D302E3835393320202020302E303030302053692020302020302020302020302020302020302020302020302020302020302020302020300A2020202D312E303637302020202D312E3139343820202020302E303030302043202020302020302020302020302020302020302020302020302020302020302020302020300A20202020302E343430342020202D302E3532333720202020302E303030302043202020302020302020302020302020302020302020302020302020302020302020302020300A20202020302E303232322020202D312E3631323920202020302E303030302043202020302020302020302020302020302020302020302020302020302020302020302020300A2020202D312E343634302020202D302E3239323020202020302E303030302043202020302020302020302020302020302020302020302020302020302020302020302020300A2020312020322020312020302020202020200A2020322020332020312020302020202020200A2020332020342020312020302020202020200A2020342020352020312020302020202020200A2020352020362020322020302020202020200A2020362020372020312020302020202020200A2020372020382020322020302020202020200A2020382020392020312020302020202020200A2020312020392020312020302020202020200A2020342020392020322020302020202020200A2031302031312020312020302020202020200A2031302031322020312020302020202020200A2031302031332020312020302020202020200A2020312031302020312020302020202020200A2020312031342020312020302020202020200A4D2020454E44
Contributor: MASS SPECTROSCOPY SOC. OF JAPAN (MSSJ)
InstType: EI
InstName: JEOL JMS-D-3000
IoniMethod: _ENERGY 70 eV
IonPolarity: pos
Date: 2010-10-09 19:48:36+02:00
Num Peaks: 32
43 72 45 64 53 25 59 38 73 209 74 18 75 13 93 16 103 11 105 68 
106 11 117 14 119 45 121 35 130 13 131 54 132 23 143 32 145 380 146 107 
147 999 148 152 149 48 160 40 161 18 177 48 191 11 205 61 206 15 220 231 
221 56 222 23 
