Name: MassBank: JP000953
CAS: 75-34-3
MW: 97
Formula: C2H4Cl2
Synonym: MassBank: JP000953
Synonym: 1,1-DICHLOROETHANE
Structure: 310A31320A312C312D444943484C4F524F455448414E452E6D6F6C0A20204368656D447261773130323330393039343232440A2020342020332020302020302020302020302020302020302020302020303939392056323030300A20202020302E3230363220202020302E3030303020202020302E303030302043202020302020302020302020302020302020302020302020302020302020302020302020300A20202020302E3631383820202020302E3731343520202020302E303030302043202020302020302020302020302020302020302020302020302020302020302020302020300A20202020302E363138382020202D302E3731343520202020302E3030303020436C2020302020302020302020302020302020302020302020302020302020302020302020300A2020202D302E3631383820202020302E3030303020202020302E3030303020436C2020302020302020302020302020302020302020302020302020302020302020302020300A2020312020322020312020302020202020200A2020312020332020312020302020202020200A2020312020342020312020302020202020200A4D2020454E44
Contributor: KOGA M, UNIV. OF OCCUPATIONAL AND ENVIRONMENTAL HEALTH
InstType: EI
InstName: JEOL JMS-01-SG
IoniMethod: _ENERGY 70 eV
IonPolarity: pos
Date: 2010-10-09 19:48:36+02:00
Num Peaks: 18
25 31 26 132 27 428 28 4 35 58 36 29 37 24 47 3 60 35 61 89 
62 84 63 999 64 42 65 314 83 129 85 8 98 68 100 36 
