Name: BENZO(K)FLUORANTHENE
CAS: 207-08-9
MW: 252
Formula: C20H12
Synonym: MassBank: JP001608
Synonym: BENZO(K)FLUORANTHENE
Synonym: 8,9-BENZFLUORANTHENE
Structure: 42454E5A4F284B29464C554F52414E5448454E452E6D6F6C0A20204368656D447261773035323431303138343932440A2032302032342020302020302020302020302020302020302020302020303939392056323030300A20202020312E3432323820202020312E3433323820202020302E303030302043202020302020302020302020302020302020302020302020302020302020302020302020300A20202020322E3234373720202020312E3433323820202020302E303030302043202020302020302020302020302020302020302020302020302020302020302020302020300A20202020322E3636323520202020302E3731343320202020302E303030302043202020302020302020302020302020302020302020302020302020302020302020302020300A20202020322E323835342020202D302E3031313720202020302E303030302043202020302020302020302020302020302020302020302020302020302020302020302020300A20202020322E363230392020202D302E3736353420202020302E303030302043202020302020302020302020302020302020302020302020302020302020302020302020300A20202020322E313336302020202D312E3433323820202020302E303030302043202020302020302020302020302020302020302020302020302020302020302020302020300A20202020312E333135352020202D312E3334363620202020302E303030302043202020302020302020302020302020302020302020302020302020302020302020302020300A20202020302E393830302020202D302E3539323920202020302E303030302043202020302020302020302020302020302020302020302020302020302020302020302020300A20202020302E313935342020202D302E3333383020202020302E303030302043202020302020302020302020302020302020302020302020302020302020302020302020300A2020202D302E353139312020202D302E3735303520202020302E303030302043202020302020302020302020302020302020302020302020302020302020302020302020300A2020202D312E323333362020202D302E3333383020202020302E303030302043202020302020302020302020302020302020302020302020302020302020302020302020300A2020202D312E3233333620202020302E3438373020202020302E303030302043202020302020302020302020302020302020302020302020302020302020302020302020300A2020202D302E3531393120202020302E3839393520202020302E303030302043202020302020302020302020302020302020302020302020302020302020302020302020300A20202020302E3139353420202020302E3438373020202020302E303030302043202020302020302020302020302020302020302020302020302020302020302020302020300A20202020302E3938303020202020302E3734323020202020302E303030302043202020302020302020302020302020302020302020302020302020302020302020302020300A20202020312E3436343920202020302E3037343520202020302E303030302043202020302020302020302020302020302020302020302020302020302020302020302020300A2020202D312E3934383120202020302E3839393520202020302E303030302043202020302020302020302020302020302020302020302020302020302020302020302020300A2020202D322E3636323520202020302E3438373020202020302E303030302043202020302020302020302020302020302020302020302020302020302020302020302020300A2020202D322E363632352020202D302E3333383020202020302E303030302043202020302020302020302020302020302020302020302020302020302020302020302020300A2020202D312E393438312020202D302E3735303520202020302E303030302043202020302020302020302020302020302020302020302020302020302020302020302020300A2020312020322020312020302020202020200A2020322020332020322020302020202020200A2020332020342020312020302020202020200A2020342020352020322020302020202020200A2020352020362020312020302020202020200A2020362020372020322020302020202020200A2020372020382020312020302020202020200A2020382020392020312020302020202020200A2020392031302020322020302020202020200A2031302031312020312020302020202020200A2031312031322020312020302020202020200A2031322031332020312020302020202020200A2031332031342020322020302020202020200A2020392031342020312020302020202020200A2031342031352020312020302020202020200A2020312031352020322020302020202020200A2031352031362020312020302020202020200A2020342031362020312020302020202020200A2020382031362020322020302020202020200A2031372031382020312020302020202020200A2031382031392020322020302020202020200A2031392032302020312020302020202020200A2031312032302020322020302020202020200A2031322031372020322020302020202020200A4D2020454E44
Contributor: KOGA M, UNIV. OF OCCUPATIONAL AND ENVIRONMENTAL HEALTH
InstType: EI
InstName: VARIAN MAT-44
IoniMethod: _ENERGY 70 eV
IonPolarity: pos
Date: 2010-10-09 19:48:36+02:00
Num Peaks: 31
55 33 57 31 63 12 69 42 74 12 75 12 81 13 83 15 84 22 87 16 
99 22 100 42 101 18 111 39 112 148 113 176 123 21 124 131 125 263 126 360 
223 10 224 39 225 19 226 21 248 51 249 43 250 228 251 107 252 999 253 210 
254 19 
