Name: BIS(TRIMEHYLSILYL)ACETYLENE
MW: 170
Formula: C8H18Si2
Synonym: MassBank: JP001940
Synonym: BIS(TRIMEHYLSILYL)ACETYLENE
Structure: 424953285452494D4548594C53494C594C2941434554594C454E452E6D6F6C0A20204368656D447261773039303631303030353932440A2031302020392020302020302020302020302020302020302020302020303939392056323030300A2020202D302E3431323520202020302E3030303020202020302E303030302043202020302020302020302020302020302020302020302020302020302020302020302020300A20202020302E3431323520202020302E3030303020202020302E303030302043202020302020302020302020302020302020302020302020302020302020302020302020300A2020202D312E3233373520202020302E3030303020202020302E303030302053692020302020302020302020302020302020302020302020302020302020302020302020300A20202020312E3233373520202020302E3030303020202020302E303030302053692020302020302020302020302020302020302020302020302020302020302020302020300A20202020322E3036323520202020302E3030303020202020302E303030302043202020302020302020302020302020302020302020302020302020302020302020302020300A20202020312E3233373520202020302E3832353020202020302E303030302043202020302020302020302020302020302020302020302020302020302020302020302020300A20202020312E323337352020202D302E3832353020202020302E303030302043202020302020302020302020302020302020302020302020302020302020302020302020300A2020202D322E3036323520202020302E3030303020202020302E303030302043202020302020302020302020302020302020302020302020302020302020302020302020300A2020202D312E3233373520202020302E3832353020202020302E303030302043202020302020302020302020302020302020302020302020302020302020302020302020300A2020202D312E323337352020202D302E3832353020202020302E303030302043202020302020302020302020302020302020302020302020302020302020302020302020300A2020312020322020332020302020202020200A2020312020332020312020302020202020200A2020322020342020312020302020202020200A2020342020352020312020302020202020200A2020342020362020312020312020202020200A2020342020372020312020312020202020200A2020332020382020312020302020202020200A2020332020392020312020312020202020200A2020332031302020312020312020202020200A4D2020454E44
Contributor: MASS SPECTROSCOPY SOC. OF JAPAN (MSSJ)
InstType: EI
InstName: JEOL JMS-D-3000
IoniMethod: _ENERGY 70 eV
IonPolarity: pos
Date: 2010-10-09 19:48:36+02:00
Num Peaks: 19
43 19 45 23 55 11 59 16 67 15 70 51 73 136 83 27 97 44 101 11 
117 19 125 17 139 16 155 999 156 190 157 85 158 12 170 91 171 20 
