Name: METHYL ACETO ACETATE
MW: 116
Formula: C5H8O3
Synonym: MassBank: JP002106
Synonym: METHYL ACETO ACETATE
Structure: 310A32300A303336395F4D455448594C20414345544F20414345544154452E6D6F6C0A20204368656D447261773039303631303136323432440A2020382020372020302020302020302020302020302020302020302020303939392056323030300A20202020302E3431323620202020302E3030303120202020302E303030302043202020302020302020302020302020302020302020302020302020302020302020302020300A20202020302E3030303020202020302E3731343520202020302E303030302043202020302020302020302020302020302020302020302020302020302020302020302020300A20202020312E3233373520202020302E3030303120202020302E30303030204F202020302020302020302020302020302020302020302020302020302020302020302020300A20202020302E303030302020202D302E3731343420202020302E30303030204F202020302020302020302020302020302020302020302020302020302020302020302020300A20202020302E343132352020202D312E3432383920202020302E303030302043202020302020302020302020302020302020302020302020302020302020302020302020300A2020202D302E3832353020202020302E3731343520202020302E303030302043202020302020302020302020302020302020302020302020302020302020302020302020300A2020202D312E3233373520202020312E3432383920202020302E303030302043202020302020302020302020302020302020302020302020302020302020302020302020300A2020202D312E323337352020202D302E3030303020202020302E30303030204F202020302020302020302020302020302020302020302020302020302020302020302020300A2020312020322020312020302020202020200A2020312020332020322020302020202020200A2020312020342020312020302020202020200A2020342020352020312020302020202020200A2020322020362020312020302020202020200A2020362020372020312020302020202020200A2020362020382020322020302020202020200A4D2020454E44
Contributor: TAJIMA S, GUNMA COLLEGE OF TECHNOLOGY
InstType: EI
InstName: HITACHI RMU-7M
IoniMethod: _ENERGY 70 eV
IonPolarity: pos
Date: 2010-10-09 19:48:36+02:00
Num Peaks: 23
14 18 15 131 26 23 27 46 28 39 29 72 31 99 32 59 39 18 41 37 
42 112 43 999 44 47 57 21 58 20 59 93 69 137 74 60 84 92 85 72 
88 32 101 28 116 36 
