Name: 2-TERT-BUTYL-1-METHYLPYRROLE
MW: 137
Formula: C9H15N
Synonym: MassBank: JP002020
Synonym: 2-TERT-BUTYL-1-METHYLPYRROLE
Structure: 322D544552542D425554594C2D312D4D455448594C505952524F4C452E6D6F6C0A20204368656D447261773032323131303136303932440A2031302031302020302020302020302020302020302020302020302020303939392056323030300A20202020302E333533392020202D302E3637353220202020302E30303030204E202020302020302020302020302020302020302020302020302020302020302020302020300A2020202D302E333133352020202D302E3139303220202020302E303030302043202020302020302020302020302020302020302020302020302020302020302020302020300A2020202D302E393831302020202D302E3637353220202020302E303030302043202020302020302020302020302020302020302020302020302020302020302020302020300A2020202D302E373236302020202D312E3435393820202020302E303030302043202020302020302020302020302020302020302020302020302020302020302020302020300A20202020302E303939302020202D312E3435393820202020302E303030302043202020302020302020302020302020302020302020302020302020302020302020302020300A20202020312E313338352020202D302E3432303220202020302E303030302043202020302020302020302020302020302020302020302020302020302020302020302020300A2020202D302E3331333520202020302E3633343820202020302E303030302043202020302020302020302020302020302020302020302020302020302020302020302020300A20202020302E3531313520202020302E3633343820202020302E303030302043202020302020302020302020302020302020302020302020302020302020302020302020300A2020202D302E3331333520202020312E3435393820202020302E303030302043202020302020302020302020302020302020302020302020302020302020302020302020300A2020202D312E3133383520202020302E3633343820202020302E303030302043202020302020302020302020302020302020302020302020302020302020302020302020300A2020312020322020312020302020202020200A2020322020332020322020302020202020200A2020332020342020312020302020202020200A2020342020352020322020302020202020200A2020312020352020312020302020202020200A2020312020362020312020302020202020200A2020372020382020312020302020202020200A2020372031302020312020302020202020200A2020372020392020312020302020202020200A2020322020372020312020302020202020200A4D2020454E44
Contributor: SASAKI S, TOYOHASHI UNIV. OF TECH.
InstType: EI
InstName: MX-1303
IoniMethod: _ENERGY 50 eV
IonPolarity: pos
Date: 2010-10-09 19:48:36+02:00
Num Peaks: 39
27 25 29 13 39 53 40 1 41 62 42 73 51 23 52 2 53 33 54 10 
55 28 56 1 60 10 60.5 15 61 23 63 1 65 22 67 27 77 33 78 1 
79 23 80 25 81 64 82 12 91 19 92 10 93 10 94 7 95 12 105 10 
106 52 107 8 108 14 120 19 121 36 122 999 123 96 137 311 138 36 
