Name: 3-INDOLEBUTYRIC ACID
MW: 203
Formula: C12H13NO2
Synonym: MassBank: JP004070
Synonym: 3-INDOLEBUTYRIC ACID
Structure: 332D494E444F4C454255545952494320414349442E6D6F6C0A20204368656D447261773032323231303231343332440A2031352031362020302020302020302020302020302020302020302020303939392056323030300A2020202D312E313531312020202D312E3134333220202020302E30303030204E202020302020302020302020302020302020302020302020302020302020302020302020300A2020202D302E383135362020202D302E3338393520202020302E303030302043202020302020302020302020302020302020302020302020302020302020302020302020300A20202020302E303034392020202D302E3437353820202020302E303030302043202020302020302020302020302020302020302020302020302020302020302020302020300A20202020302E313736342020202D312E3238323720202020302E303030302043202020302020302020302020302020302020302020302020302020302020302020302020300A20202020302E383930392020202D312E3639353220202020302E303030302043202020302020302020302020302020302020302020302020302020302020302020302020300A20202020302E383930392020202D322E3532303220202020302E303030302043202020302020302020302020302020302020302020302020302020302020302020302020300A20202020302E313736342020202D322E3933323720202020302E303030302043202020302020302020302020302020302020302020302020302020302020302020302020300A2020202D302E353338302020202D322E3532303220202020302E303030302043202020302020302020302020302020302020302020302020302020302020302020302020300A2020202D302E353338302020202D312E3639353220202020302E303030302043202020302020302020302020302020302020302020302020302020302020302020302020300A20202020302E3539393120202020322E3331393720202020302E303030302043202020302020302020302020302020302020302020302020302020302020302020302020300A20202020302E3835343020202020312E3533353020202020302E303030302043202020302020302020302020302020302020302020302020302020302020302020302020300A20202020302E3330323020202020302E3932313920202020302E303030302043202020302020302020302020302020302020302020302020302020302020302020302020300A20202020302E3535363920202020302E3133373320202020302E303030302043202020302020302020302020302020302020302020302020302020302020302020302020300A2020202D302E3139373820202020322E3533333220202020302E30303030204F202020302020302020302020302020302020302020302020302020302020302020302020300A20202020312E3135313120202020322E3933323720202020302E30303030204F202020302020302020302020302020302020302020302020302020302020302020302020300A2020312020322020312020302020202020200A2020322020332020322020302020202020200A2020332020342020312020302020202020200A2020342020352020312020302020202020200A2020352020362020322020302020202020200A2020362020372020312020302020202020200A2020372020382020322020302020202020200A2020382020392020312020302020202020200A2020312020392020312020302020202020200A2020342020392020322020302020202020200A2031302031312020312020302020202020200A2031312031322020312020302020202020200A2031322031332020312020302020202020200A2031302031342020322020302020202020200A2031302031352020312020302020202020200A2020332031332020312020302020202020200A4D2020454E44
Contributor: YAMAMOTO M, DEP. CHEMISTRY, FAC. SCIENCE, NARA WOMEN'S UNIV.
InstType: EI
InstName: HITACHI M-68
IoniMethod: _ENERGY 70 eV
IonPolarity: pos
Date: 2010-10-09 19:48:36+02:00
Num Peaks: 23
39 10 45 28 51 11 63 10 76 10 77 65 89 13 102 4 103 62 104 9 
115 34 116 1 117 22 128 34 129 48 130 999 131 117 142 20 143 105 144 3 
156 24 203 300 204 42 
