Name: MassBank: JP004341
MW: 218
Formula: C13H18N2O
Synonym: MassBank: JP004341
Synonym: 7-METHOXY-3A,8A-DIMETHYL-2,3,3A,8A-TETRAHYDROPYRROLO(2,3-B)INDOLE
Structure: 372D4D4554484F58592D33412C38412D44494D455448594C2D322C332C33412C38412D5445545241485944524F505952524F4C4F28322C332D4229494E444F4C452E6D6F6C0A20204368656D447261773035323231303034333832440A2031362031382020302020302020302020302020302020302020302020303939392056323030300A2020202D302E333230372020202D302E3737383620202020302E30303030204E202020302020302020302020302020302020302020302020302020302020302020302020300A2020202D312E303734342020202D302E3434333020202020302E303030302043202020302020302020302020302020302020302020302020302020302020302020302020300A2020202D302E3938383120202020302E3337373520202020302E303030302043202020302020302020302020302020302020302020302020302020302020302020302020300A2020202D302E3138313220202020302E3534393020202020302E303030302043202020302020302020302020302020302020302020302020302020302020302020302020300A20202020302E3233313320202020312E3236333520202020302E303030302043202020302020302020302020302020302020302020302020302020302020302020302020300A20202020312E3035363320202020312E3236333520202020302E303030302043202020302020302020302020302020302020302020302020302020302020302020302020300A20202020312E3436383820202020302E3534393020202020302E303030302043202020302020302020302020302020302020302020302020302020302020302020302020300A20202020312E303536332020202D302E3136353520202020302E303030302043202020302020302020302020302020302020302020302020302020302020302020302020300A20202020302E323331332020202D302E3136353520202020302E303030302043202020302020302020302020302020302020302020302020302020302020302020302020300A2020202D312E383831332020202D302E3631343520202020302E30303030204E202020302020302020302020302020302020302020302020302020302020302020302020300A2020202D312E3734313820202020302E3731333020202020302E303030302043202020302020302020302020302020302020302020302020302020302020302020302020300A2020202D322E3239333820202020302E3039393920202020302E303030302043202020302020302020302020302020302020302020302020302020302020302020302020300A2020202D312E313630362020202D312E3236333520202020302E303030302043202020302020302020302020302020302020302020302020302020302020302020302020300A2020202D302E3930313920202020312E3139383020202020302E303030302043202020302020302020302020302020302020302020302020302020302020302020302020300A20202020312E343638382020202D302E3837393920202020302E30303030204F202020302020302020302020302020302020302020302020302020302020302020302020300A20202020322E323933382020202D302E3837393920202020302E303030302043202020302020302020302020302020302020302020302020302020302020302020302020300A2020312020322020312020302020202020200A2020322020332020312020302020202020200A2020332020342020312020302020202020200A2020342020352020312020302020202020200A2020352020362020322020302020202020200A2020362020372020312020302020202020200A2020372020382020322020302020202020200A2020382020392020312020302020202020200A2020312020392020312020302020202020200A2020342020392020322020302020202020200A2031312031322020312020302020202020200A2031302031322020312020302020202020200A2020322031302020312020302020202020200A2020332031312020312020302020202020200A2020322031332020312020302020202020200A2020332031342020312020302020202020200A2031352031362020312020302020202020200A2020382031352020312020302020202020200A4D2020454E44
Contributor: SASAKI S, TOYOHASHI UNIV. OF TECH.
InstType: EI
InstName: MX-1303
IoniMethod: _ENERGY 50 eV
IonPolarity: pos
Date: 2010-10-09 19:48:36+02:00
Num Peaks: 127
26 16 27 67 29 26 30 12 31 10 39 81 40 19 41 7 42 107 43 48 
50 22 51 6 52 43 53 48 54 33 55 7 56 40 57 17 59 18 62 1 
63 52 65 65 66 20 67 2 68 15 69 10 71 18 75 2 76 26 77 367 
78 60 79 4 80 73 82 21 83 14 84 2 85 14 86 24 87 16 88 1 
89 56 90 28 91 79 92 3 93 31 94 76 95 39 96 6 97 13 101 30 
101.5 34 102 4 103 72 104 43 105 29 106 2 108 80 109 21 114 11 115 11 
116 56 117 102 118 55 119 2 120 17 121 11 123 32 127 2 128 45 129 44 
130 124 131 12 132 158 133 44 134 44 135 1 136 12 140 17 141 24 142 4 
143 86 144 157 145 164 146 17 147 65 148 340 149 18 154 2 155 18 156 77 
157 60 158 12 159 87 160 286 161 76 162 11 163 39 168 12 169 12 170 7 
171 44 172 96 173 202 174 72 175 999 176 184 177 66 184 2 185 26 186 66 
187 200 188 26 189 58 190 55 198 17 199 3 200 59 201 53 202 66 203 12 
204 26 212 10 214 22 216 1 217 30 218 375 219 71 
