Name: MassBank: JP007814
CAS: 1198-37-4
MW: 157
Formula: C11H11N
Synonym: MassBank: JP007814
Synonym: 2,4-DIMETHYLQUINOLINE
Structure: 322C342D44494D455448594C5155494E4F4C494E452E6D6F6C0A20204368656D447261773132323030393139333032440A2031322031332020302020302020302020302020302020302020302020303939392056323030300A20202020302E3335373220202020312E3233373520202020302E30303030204E202020302020302020302020302020302020302020302020302020302020302020302020300A20202020312E3037313720202020302E3832353020202020302E303030302043202020302020302020302020302020302020302020302020302020302020302020302020300A20202020312E3037313720202020302E3030303020202020302E303030302043202020302020302020302020302020302020302020302020302020302020302020302020300A20202020302E333537322020202D302E3431323520202020302E303030302043202020302020302020302020302020302020302020302020302020302020302020302020300A2020202D302E333537322020202D302E3030303020202020302E303030302043202020302020302020302020302020302020302020302020302020302020302020302020300A2020202D312E303731372020202D302E3431323520202020302E303030302043202020302020302020302020302020302020302020302020302020302020302020302020300A2020202D312E373836322020202D302E3030303020202020302E303030302043202020302020302020302020302020302020302020302020302020302020302020302020300A2020202D312E3738363220202020302E3832353020202020302E303030302043202020302020302020302020302020302020302020302020302020302020302020302020300A2020202D312E3037313720202020312E3233373520202020302E303030302043202020302020302020302020302020302020302020302020302020302020302020302020300A2020202D302E3335373220202020302E3832353020202020302E303030302043202020302020302020302020302020302020302020302020302020302020302020302020300A20202020302E333537322020202D312E3233373520202020302E303030302043202020302020302020302020302020302020302020302020302020302020302020302020300A20202020312E3738363220202020312E3233373520202020302E303030302043202020302020302020302020302020302020302020302020302020302020302020302020300A2020312020322020312020302020202020200A2020322020332020322020302020202020200A2020332020342020312020302020202020200A2020342020352020322020302020202020200A2020352020362020312020302020202020200A2020362020372020322020302020202020200A2020372020382020312020302020202020200A2020382020392020322020302020202020200A2020392031302020312020302020202020200A2020312031302020322020302020202020200A2020352031302020312020302020202020200A2020342031312020312020302020202020200A2020322031322020312020302020202020200A4D2020454E44
Contributor: HASHIMOTO K, KYOTO COLLEGE OF PHARMACY
InstType: EI
InstName: HITACHI M-80
IoniMethod: _ENERGY 20 eV
IonPolarity: pos
Date: 2010-10-09 19:48:36+02:00
Num Peaks: 23
39 60 41 13 50 30 51 40 63 70 75 48 77 61 89 81 101 19 102 20 
103 10 115 190 116 78 127 16 128 72 129 80 140 43 141 15 142 90 156 215 
157 999 158 182 159 27 
