Name: PROPANAL DIBENZYL ACETAL
MW: 256
Formula: C17H20O2
Synonym: MassBank: JP009270
Synonym: PROPANAL DIBENZYL ACETAL
Structure: 50524F50414E414C20444942454E5A594C2041434554414C2E6D6F6C0A20204368656D447261773038313231303035353832440A2031392032302020302020302020302020302020302020302020302020303939392056323030300A20202020302E343132352020202D312E3037313720202020302E303030302043202020302020302020302020302020302020302020302020302020302020302020302020300A20202020302E383235302020202D312E3738363220202020302E303030302043202020302020302020302020302020302020302020302020302020302020302020302020300A20202020312E363530302020202D312E3738363220202020302E303030302043202020302020302020302020302020302020302020302020302020302020302020302020300A2020202D302E343132352020202D312E3037313720202020302E30303030204F202020302020302020302020302020302020302020302020302020302020302020302020300A20202020302E383235302020202D302E3335373220202020302E30303030204F202020302020302020302020302020302020302020302020302020302020302020302020300A2020202D302E383235302020202D302E3335373220202020302E303030302043202020302020302020302020302020302020302020302020302020302020302020302020300A2020202D312E363530302020202D302E3335373220202020302E303030302043202020302020302020302020302020302020302020302020302020302020302020302020300A2020202D322E303632352020202D312E3037313720202020302E303030302043202020302020302020302020302020302020302020302020302020302020302020302020300A2020202D322E383837352020202D312E3037313720202020302E303030302043202020302020302020302020302020302020302020302020302020302020302020302020300A2020202D332E333030302020202D302E3335373220202020302E303030302043202020302020302020302020302020302020302020302020302020302020302020302020300A2020202D322E3838373520202020302E3335373220202020302E303030302043202020302020302020302020302020302020302020302020302020302020302020302020300A2020202D322E3036323520202020302E3335373220202020302E303030302043202020302020302020302020302020302020302020302020302020302020302020302020300A20202020312E363530302020202D302E3335373220202020302E303030302043202020302020302020302020302020302020302020302020302020302020302020302020300A20202020322E3036323520202020302E3335373220202020302E303030302043202020302020302020302020302020302020302020302020302020302020302020302020300A20202020312E3635303020202020312E3037313720202020302E303030302043202020302020302020302020302020302020302020302020302020302020302020302020300A20202020322E3036323520202020312E3738363220202020302E303030302043202020302020302020302020302020302020302020302020302020302020302020302020300A20202020322E3838373520202020312E3738363220202020302E303030302043202020302020302020302020302020302020302020302020302020302020302020302020300A20202020332E3330303020202020312E3037313720202020302E303030302043202020302020302020302020302020302020302020302020302020302020302020302020300A20202020322E3838373520202020302E3335373220202020302E303030302043202020302020302020302020302020302020302020302020302020302020302020302020300A2020312020322020312020302020202020200A2020322020332020312020302020202020200A2020362020372020312020302020202020200A2020372020382020312020302020202020200A2020382020392020322020302020202020200A2020392031302020312020302020202020200A2031302031312020322020302020202020200A2031312031322020312020302020202020200A2020372031322020322020302020202020200A2020342020362020312020302020202020200A2031332031342020312020302020202020200A2031342031352020312020302020202020200A2031352031362020322020302020202020200A2031362031372020312020302020202020200A2031372031382020322020302020202020200A2031382031392020312020302020202020200A2031342031392020322020302020202020200A2020352031332020312020302020202020200A2020312020342020312020302020202020200A2020312020352020312020302020202020200A4D2020454E44
Contributor: SODA AROMATIC CO., LTD.
InstType: EI
InstName: HITACHI M-80B
IoniMethod: _ENERGY 70 eV
IonPolarity: pos
Date: 2010-10-09 19:48:36+02:00
Num Peaks: 21
27 12 29 16 39 29 41 1 51 28 63 14 65 101 77 5 78 12 79 30 
89 19 90 3 91 999 92 267 93 14 105 1 107 81 108 12 148 15 165 1 
181 23 
