Name: PINANE
MW: 138
Formula: C10H18
Synonym: MassBank: JP000250
Synonym: PINANE
Synonym: 2,6,6-TRIMETHYL-BICYCLO(3,1,1)HEPTANE
Structure: 50494E414E452E6D6F6C0A20204368656D447261773132323130393032343032440A2031302031312020302020302020302020302020302020302020302020303939392056323030300A20202020302E3833383420202020302E3331353720202020302E303030302043202020302020302020302020302020302020302020302020302020302020302020302020300A20202020312E3235303920202020312E3033303120202020302E303030302043202020302020302020302020302020302020302020302020302020302020302020302020300A20202020312E313733302020202D302E3338323220202020302E303030302043202020302020302020302020302020302020302020302020302020302020302020302020300A20202020302E363836342020202D312E3033303120202020302E303030302043202020302020302020302020302020302020302020302020302020302020302020302020300A2020202D302E313337392020202D302E3935303120202020302E303030302043202020302020302020302020302020302020302020302020302020302020302020302020300A20202020302E353535352020202D302E3337343220202020302E303030302043202020302020302020302020302020302020302020302020302020302020302020302020300A2020202D302E353635322020202D302E3230393920202020302E303030302043202020302020302020302020302020302020302020302020302020302020302020302020300A2020202D312E323530392020202D302E3636383720202020302E303030302043202020302020302020302020302020302020302020302020302020302020302020302020300A2020202D312E3036383320202020302E3434343020202020302E303030302043202020302020302020302020302020302020302020302020302020302020302020302020300A20202020302E3033393820202020302E3332323820202020302E303030302043202020302020302020302020302020302020302020302020302020302020302020302020300A2020312020322020312020302020202020200A2020312020332020312020302020202020200A2020332020342020312020302020202020200A2020342020352020312020302020202020200A2020352020362020312020302020202020200A2020352020372020312020302020202020200A2020372020382020312020362020202020200A2020372020392020312020312020202020200A2020372031302020312020302020202020200A2020362031302020312020302020202020200A2020312031302020312020302020202020200A4D2020454E44
Contributor: YAMAMOTO M, DEP. CHEMISTRY, FAC. SCIENCE, NARA WOMEN'S UNIV.
InstType: EI
InstName: HITACHI RMU-6M
IoniMethod: _ENERGY 70 eV
IonPolarity: pos
Date: 2010-10-09 19:48:36+02:00
Num Peaks: 46
15 18 26 12 27 365 28 5 29 255 38 12 39 449 40 7 41 994 42 61 
43 173 50 2 51 66 52 31 53 248 54 7 55 999 56 76 57 57 63 2 
65 77 66 28 67 704 68 34 69 542 70 80 77 187 78 2 79 147 80 85 
81 576 82 66 83 576 84 64 91 58 93 6 94 112 95 800 96 320 97 7 
109 93 110 46 123 225 124 2 138 91 139 10 
