Name: 1-NITROPYRENE
MW: 247
Formula: C16H9NO2
Synonym: MassBank: JP000001
Synonym: 1-NITROPYRENE
Structure: 312D4E4954524F505952454E452E6D6F6C0A20204368656D447261773131323230393138323732440A2031392032322020302020302020302020302020302020302020302020303939392056323030300A2020202D312E3037313520202020302E3230363220202020302E303030302043202020302020302020302020302020302020302020302020302020302020302020302020300A2020202D312E3037313520202020312E3033313220202020302E303030302043202020302020302020302020302020302020302020302020302020302020302020302020300A2020202D302E3335373020202020312E3434333720202020302E303030302043202020302020302020302020302020302020302020302020302020302020302020302020300A20202020302E3335373420202020312E3033313220202020302E303030302043202020302020302020302020302020302020302020302020302020302020302020302020300A20202020312E3037303920202020312E3434333220202020302E303030302043202020302020302020302020302020302020302020302020302020302020302020302020300A20202020312E3738343920202020312E3033303920202020302E303030302043202020302020302020302020302020302020302020302020302020302020302020302020300A20202020312E3738343920202020302E3230363220202020302E303030302043202020302020302020302020302020302020302020302020302020302020302020302020300A20202020322E353030352020202D302E3230363920202020302E303030302043202020302020302020302020302020302020302020302020302020302020302020302020300A20202020322E353030352020202D312E3033313320202020302E303030302043202020302020302020302020302020302020302020302020302020302020302020302020300A20202020312E373836332020202D312E3434333620202020302E303030302043202020302020302020302020302020302020302020302020302020302020302020302020300A20202020312E303731392020202D312E3033313220202020302E303030302043202020302020302020302020302020302020302020302020302020302020302020302020300A20202020302E333537342020202D312E3434333720202020302E303030302043202020302020302020302020302020302020302020302020302020302020302020302020300A2020202D302E333537302020202D312E3033313320202020302E303030302043202020302020302020302020302020302020302020302020302020302020302020302020300A2020202D302E333537302020202D302E3230363320202020302E303030302043202020302020302020302020302020302020302020302020302020302020302020302020300A20202020302E3335373420202020302E3230363220202020302E303030302043202020302020302020302020302020302020302020302020302020302020302020302020300A20202020312E303731392020202D302E3230363320202020302E303030302043202020302020302020302020302020302020302020302020302020302020302020302020300A2020202D312E373836302020202D302E3230363320202020302E30303030204E202020302020332020302020302020302020302020302020302020302020302020302020300A2020202D312E373836302020202D312E3033313320202020302E30303030204F202020302020302020302020302020302020302020302020302020302020302020302020300A2020202D322E3530303520202020302E3230363220202020302E30303030204F202020302020352020302020302020302020302020302020302020302020302020302020300A2020312020322020312020302020202020200A2020322020332020322020302020202020200A2020332020342020312020302020202020200A2020342020352020322020302020202020200A2020352020362020312020302020202020200A2020362020372020322020302020202020200A2020372020382020312020302020202020200A2020382020392020322020302020202020200A2020392031302020312020302020202020200A2031302031312020322020302020202020200A2031312031322020312020302020202020200A2031322031332020322020302020202020200A2031332031342020312020302020202020200A2020312031342020322020302020202020200A2031342031352020312020302020202020200A2020342031352020312020302020202020200A2031352031362020322020302020202020200A2020372031362020312020302020202020200A2031312031362020312020302020202020200A2031372031382020322020302020202020200A2031372031392020312020302020202020200A2020312031372020312020302020202020200A4D202043484720203220203137202020312020313920202D310A4D2020454E44
Contributor: KOGA M, UNIV. OF OCCUPATIONAL AND ENVIRONMENTAL HEALTH
InstType: EI
InstName: VARIAN MAT-44
IoniMethod: _ENERGY 70 eV
IonPolarity: pos
Date: 2010-10-09 19:48:36+02:00
Num Peaks: 75
51 27 55 80 57 73 58 13 59 13 60 140 61 13 62 33 63 33 66 13 
68 87 70 20 72 53 73 73 74 33 75 27 76 20 78 13 80 40 81 20 
82 13 83 33 86 127 87 87 92 20 93 100 94 60 98 147 99 833 100 607 
104 40 107 13 108 13 110 33 112 13 113 13 115 13 116 13 120 13 122 40 
123 27 124 27 125 20 126 13 134 13 135 20 137 13 147 13 149 20 150 47 
151 33 159 20 162 20 163 27 173 20 174 87 175 47 177 20 187 53 188 47 
189 567 190 120 191 167 198 107 199 93 200 727 201 999 202 160 203 13 207 13 
214 13 217 253 218 53 247 527 248 102 
