Name: TRIS(PENTAFLUOROPHENYL)-DICHLOROPHOSPHORANE
MW: 601
Formula: C18Cl2F15P
Synonym: MassBank: JP003805
Synonym: TRIS(PENTAFLUOROPHENYL)-DICHLOROPHOSPHORANE
Structure: 545249532850454E5441464C554F524F5048454E594C292D444943484C4F524F50484F5350484F52414E452E6D6F6C0A20204368656D447261773038313231303039313432440A2033362033382020302020302020302020302020302020302020302020303939392056323030300A20202020302E3635313220202020302E3437333720202020302E303030302050202020302020302020302020302020302020302020302020302020302020302020302020300A20202020302E3832323720202020312E3238303620202020302E3030303020436C2020302020302020302020302020302020302020302020302020302020302020302020300A20202020312E3437313620202020302E3535393920202020302E3030303020436C2020302020302020302020302020302020302020302020302020302020302020302020300A20202020312E303837342020202D302E3530363120202020302E303030302043202020302020302020302020302020302020302020302020302020302020302020302020300A20202020312E393037392020202D302E3539323420202020302E303030302043202020302020302020302020302020302020302020302020302020302020302020302020300A20202020322E323433342020202D312E3334363020202020302E303030302043202020302020302020302020302020302020302020302020302020302020302020302020300A20202020312E373538352020202D322E3031333520202020302E303030302043202020302020302020302020302020302020302020302020302020302020302020302020300A20202020302E393338302020202D312E3932373220202020302E303030302043202020302020302020302020302020302020302020302020302020302020302020302020300A20202020302E363032352020202D312E3137333620202020302E303030302043202020302020302020302020302020302020302020302020302020302020302020302020300A20202020322E3339323820202020302E3037353120202020302E303030302046202020302020302020302020302020302020302020302020302020302020302020302020300A20202020332E303633392020202D312E3433323320202020302E303030302046202020302020302020302020302020302020302020302020302020302020302020302020300A20202020322E303934312020202D322E3736373120202020302E303030302046202020302020302020302020302020302020302020302020302020302020302020302020300A20202020302E343533312020202D322E3539343720202020302E303030302046202020302020302020302020302020302020302020302020302020302020302020302020300A2020202D302E323138302020202D312E3038373320202020302E303030302046202020302020302020302020302020302020302020302020302020302020302020302020300A2020202D302E383831362020202D302E3930363420202020302E303030302043202020302020302020302020302020302020302020302020302020302020302020302020300A2020202D302E373130302020202D312E3731333420202020302E303030302043202020302020302020302020302020302020302020302020302020302020302020302020300A2020202D312E333233312020202D322E3236353420202020302E303030302043202020302020302020302020302020302020302020302020302020302020302020302020300A2020202D322E313037382020202D322E3031303520202020302E303030302043202020302020302020302020302020302020302020302020302020302020302020302020300A2020202D322E323739332020202D312E3230333520202020302E303030302043202020302020302020302020302020302020302020302020302020302020302020302020300A2020202D312E363636322020202D302E3635313520202020302E303030302043202020302020302020302020302020302020302020302020302020302020302020302020300A20202020302E303734362020202D312E3936383320202020302E303030302046202020302020302020302020302020302020302020302020302020302020302020302020300A2020202D312E313531362020202D332E3037323420202020302E303030302046202020302020302020302020302020302020302020302020302020302020302020302020300A2020202D322E373230392020202D322E3536323520202020302E303030302046202020302020302020302020302020302020302020302020302020302020302020302020300A2020202D332E303633392020202D302E3934383620202020302E303030302046202020302020302020302020302020302020302020302020302020302020302020302020300A2020202D312E3833373720202020302E3135353520202020302E303030302046202020302020302020302020302020302020302020302020302020302020302020302020300A2020202D302E3237373620202020312E3030393920202020302E303030302043202020302020302020302020302020302020302020302020302020302020302020302020300A2020202D302E3939323120202020302E3539373420202020302E303030302043202020302020302020302020302020302020302020302020302020302020302020302020300A2020202D312E3730363620202020312E3030393920202020302E303030302043202020302020302020302020302020302020302020302020302020302020302020302020300A2020202D312E3730363620202020312E3833343920202020302E303030302043202020302020302020302020302020302020302020302020302020302020302020302020300A2020202D302E3939323120202020322E3234373420202020302E303030302043202020302020302020302020302020302020302020302020302020302020302020302020300A2020202D302E3237373620202020312E3833343920202020302E303030302043202020302020302020302020302020302020302020302020302020302020302020302020300A2020202D302E393932312020202D302E3232373620202020302E303030302046202020302020302020302020302020302020302020302020302020302020302020302020300A2020202D322E3432313120202020302E3539373420202020302E303030302046202020302020302020302020302020302020302020302020302020302020302020302020300A2020202D322E3432313120202020322E3234373420202020302E303030302046202020302020302020302020302020302020302020302020302020302020302020302020300A2020202D302E3939323120202020332E3037323420202020302E303030302046202020302020302020302020302020302020302020302020302020302020302020302020300A20202020302E3433363820202020322E3234373420202020302E303030302046202020302020302020302020302020302020302020302020302020302020302020302020300A2020312020322020312020302020202020200A2020312020332020312020302020202020200A2020342020352020312020302020202020200A2020352020362020322020302020202020200A2020362020372020312020302020202020200A2020372020382020322020302020202020200A2020382020392020312020302020202020200A2020342020392020322020302020202020200A2020352031302020312020302020202020200A2020362031312020312020302020202020200A2020372031322020312020302020202020200A2020382031332020312020302020202020200A2020392031342020312020302020202020200A2020312020342020312020302020202020200A2031352031362020312020302020202020200A2031362031372020322020302020202020200A2031372031382020312020302020202020200A2031382031392020322020302020202020200A2031392032302020312020302020202020200A2031352032302020322020302020202020200A2031362032312020312020302020202020200A2031372032322020312020302020202020200A2031382032332020312020302020202020200A2031392032342020312020302020202020200A2032302032352020312020302020202020200A2020312031352020312020302020202020200A2032362032372020312020302020202020200A2032372032382020322020302020202020200A2032382032392020312020302020202020200A2032392033302020322020302020202020200A2033302033312020312020302020202020200A2032362033312020322020302020202020200A2032372033322020312020302020202020200A2032382033332020312020302020202020200A2032392033342020312020302020202020200A2033302033352020312020302020202020200A2033312033362020312020302020202020200A2020312032362020312020302020202020200A4D2020454E44
Contributor: SASAKI S, TOYOHASHI UNIV. OF TECH.
InstType: EI
InstName: Unknown
IoniMethod: _ENERGY 70 eV
IonPolarity: pos
Date: 2010-10-09 19:48:36+02:00
Num Peaks: 32
69 540 79 45 93 67 98 6 99 26 105 30 110 71 117 2 129 300 148 57 
167 35 168 3 198 75 217 241 227 130 246 5 258 70 265 131 277 110 278 0 
296 410 297 59 312 40 315 6 346 30 365 999 366 115 513 6 514 22 532 720 
533 136 534 20 
