Name: MassBank: JP000801
MW: 432
Formula: C23H52O3Si2
Synonym: MassBank: JP000801
Synonym: 1-O-TETRADECYLGLYCEROL 2,3-DITRIMETHYLSILYL ETHER
Synonym: 1-O-TETRADECYL-2,3-DI-O-TRIMETHYLSILYLGLYCEROL
Structure: 312D4F2D5445545241444543594C474C594345524F4C20322C332D44495452494D455448594C53494C594C2045544845522E6D6F6C0A20204368656D447261773131323230393231333232440A2032382032372020302020302020302020302020302020302020302020303939392056323030300A20202020312E3830313020202020332E3537323420202020302E30303030204F202020302020302020302020302020302020302020302020302020302020302020302020300A20202020312E3338383520202020342E3238363820202020302E303030302043202020302020302020302020302020302020302020302020302020302020302020302020300A20202020302E3536333520202020342E3238363820202020302E303030302043202020302020302020302020302020302020302020302020302020302020302020302020300A20202020302E3135313020202020332E3537323420202020302E30303030204F202020302020302020302020302020302020302020302020302020302020302020302020300A20202020302E3135313020202020352E3030313320202020302E303030302043202020302020302020302020302020302020302020302020302020302020302020302020300A2020202D302E3637343020202020352E3030313320202020302E30303030204F202020302020302020302020302020302020302020302020302020302020302020302020300A20202020312E3338383520202020322E3835373920202020302E303030302043202020302020302020302020302020302020302020302020302020302020302020302020300A20202020312E3830313020202020322E3134333420202020302E303030302043202020302020302020302020302020302020302020302020302020302020302020302020300A20202020312E3338383520202020312E3432383920202020302E303030302043202020302020302020302020302020302020302020302020302020302020302020302020300A20202020312E3830313020202020302E3731343520202020302E303030302043202020302020302020302020302020302020302020302020302020302020302020302020300A20202020312E333838352020202D302E3030303020202020302E303030302043202020302020302020302020302020302020302020302020302020302020302020302020300A20202020312E383031302020202D302E3731343520202020302E303030302043202020302020302020302020302020302020302020302020302020302020302020302020300A20202020312E333838352020202D312E3432383920202020302E303030302043202020302020302020302020302020302020302020302020302020302020302020302020300A20202020312E383031302020202D322E3134333420202020302E303030302043202020302020302020302020302020302020302020302020302020302020302020302020300A20202020312E333838352020202D322E3835373920202020302E303030302043202020302020302020302020302020302020302020302020302020302020302020302020300A20202020312E383031302020202D332E3537323420202020302E303030302043202020302020302020302020302020302020302020302020302020302020302020302020300A20202020312E333838352020202D342E3238363820202020302E303030302043202020302020302020302020302020302020302020302020302020302020302020302020300A20202020312E383031302020202D352E3030313320202020302E303030302043202020302020302020302020302020302020302020302020302020302020302020302020300A20202020312E333838352020202D352E3731353820202020302E303030302043202020302020302020302020302020302020302020302020302020302020302020302020300A20202020312E383031302020202D362E3433303220202020302E303030302043202020302020302020302020302020302020302020302020302020302020302020302020300A2020202D312E3038363520202020352E3731353820202020302E303030302053692020302020302020302020302020302020302020302020302020302020302020302020300A2020202D302E3337323020202020362E3132383320202020302E303030302043202020302020302020302020302020302020302020302020302020302020302020302020300A2020202D312E3830313020202020352E3330333320202020302E303030302043202020302020302020302020302020302020302020302020302020302020302020302020300A2020202D312E3439393020202020362E3433303220202020302E303030302043202020302020302020302020302020302020302020302020302020302020302020302020300A2020202D302E3637343020202020332E3537323420202020302E303030302053692020302020302020302020302020302020302020302020302020302020302020302020300A2020202D302E3637343020202020322E3734373420202020302E303030302043202020302020302020302020302020302020302020302020302020302020302020302020300A2020202D312E3439393020202020332E3537323420202020302E303030302043202020302020302020302020302020302020302020302020302020302020302020302020300A2020202D302E3637343020202020342E3339373420202020302E303030302043202020302020302020302020302020302020302020302020302020302020302020302020300A2020312020322020312020302020202020200A2020322020332020312020302020202020200A2020332020342020312020302020202020200A2020332020352020312020302020202020200A2020352020362020312020302020202020200A2020372020382020312020302020202020200A2020382020392020312020302020202020200A2020392031302020312020302020202020200A2031302031312020312020302020202020200A2031312031322020312020302020202020200A2031322031332020312020302020202020200A2031332031342020312020302020202020200A2031342031352020312020302020202020200A2031352031362020312020302020202020200A2031362031372020312020302020202020200A2031372031382020312020302020202020200A2031382031392020312020302020202020200A2031392032302020312020302020202020200A2020312020372020312020302020202020200A2032312032322020312020312020202020200A2032312032332020312020312020202020200A2032312032342020312020302020202020200A2020362032312020312020302020202020200A2032352032362020312020302020202020200A2032352032372020312020302020202020200A2032352032382020312020302020202020200A2020342032352020312020302020202020200A4D2020454E44
Contributor: HAYASHI A, DEPT. OF CHEMISTRY, FAC. OF SCI. AND TECHNOLOGY, KINKI UNIV.
InstType: EI
InstName: SHIMADZU LKB-9000B
IoniMethod: _ENERGY 70 eV
IonPolarity: pos
Date: 2010-10-09 19:48:36+02:00
Num Peaks: 69
55 29 56 14 57 62 67 13 68 10 69 44 70 18 71 83 73 182 74 18 
75 63 76 8 81 16 82 16 83 49 84 16 85 83 89 18 95 15 96 14 
97 46 98 13 99 29 101 51 102 8 103 109 104 11 105 23 109 13 111 19 
113 18 115 33 116 72 117 324 118 35 119 32 123 9 125 13 127 14 129 99 
130 176 131 173 132 43 133 298 134 33 135 20 141 13 145 22 147 363 148 59 
149 52 150 8 175 26 177 34 189 13 204 77 205 999 206 19 207 85 208 11 
221 11 252 9 285 45 286 11 327 8 328 15 329 14 342 8 417 20 
