Name: 3-(2-AMINOETHYL)-5-METHYLINDOLE
MW: 174
Formula: C11H14N2
Synonym: MassBank: JP004308
Synonym: 3-(2-AMINOETHYL)-5-METHYLINDOLE
Structure: 332D28322D414D494E4F455448594C292D352D4D455448594C494E444F4C452E6D6F6C0A20204368656D447261773032323231303039343132440A2031332031342020302020302020302020302020302020302020302020303939392056323030300A20202020302E343434342020202D312E3337383320202020302E30303030204E202020302020302020302020302020302020302020302020302020302020302020302020300A2020202D302E333039332020202D312E3034323720202020302E303030302043202020302020302020302020302020302020302020302020302020302020302020302020300A2020202D302E323233312020202D302E3232323220202020302E303030302043202020302020302020302020302020302020302020302020302020302020302020302020300A20202020302E353833392020202D302E3035303720202020302E303030302043202020302020302020302020302020302020302020302020302020302020302020302020300A20202020302E3939363420202020302E3636333820202020302E303030302043202020302020302020302020302020302020302020302020302020302020302020302020300A20202020312E3832313420202020302E3636333820202020302E303030302043202020302020302020302020302020302020302020302020302020302020302020302020300A20202020322E323333392020202D302E3035303720202020302E303030302043202020302020302020302020302020302020302020302020302020302020302020302020300A20202020312E383231342020202D302E3736353220202020302E303030302043202020302020302020302020302020302020302020302020302020302020302020302020300A20202020302E393936342020202D302E3736353220202020302E303030302043202020302020302020302020302020302020302020302020302020302020302020302020300A20202020322E3233333920202020312E3337383320202020302E303030302043202020302020302020302020302020302020302020302020302020302020302020302020300A2020202D302E3833363220202020302E3332393820202020302E303030302043202020302020302020302020302020302020302020302020302020302020302020302020300A2020202D312E3632303820202020302E3037343920202020302E303030302043202020302020302020302020302020302020302020302020302020302020302020302020300A2020202D322E3233333920202020302E3632363920202020302E30303030204E202020302020302020302020302020302020302020302020302020302020302020302020300A2020312020322020312020302020202020200A2020322020332020322020302020202020200A2020332020342020312020302020202020200A2020342020352020312020302020202020200A2020352020362020322020302020202020200A2020362020372020312020302020202020200A2020372020382020322020302020202020200A2020382020392020312020302020202020200A2020312020392020312020302020202020200A2020342020392020322020302020202020200A2020362031302020312020302020202020200A2031312031322020312020302020202020200A2031322031332020312020302020202020200A2020332031312020312020302020202020200A4D2020454E44
Contributor: SASAKI S, TOYOHASHI UNIV. OF TECH.
InstType: EI
InstName: MX-1303
IoniMethod: _ENERGY 50 eV
IonPolarity: pos
Date: 2010-10-09 19:48:36+02:00
Num Peaks: 30
39 23 41 11 51 19 63 2 65 20 75 12 77 26 78 1 89 20 91 38 
103 14 115 10 116 30 117 24 127 10 128 3 129 29 130 47 131 19 141 1 
142 72 143 116 144 999 145 53 146 58 156 14 157 15 172 1 174 131 175 22 
