Name: STIGMASTEROL
MW: 412
Formula: C29H48O
Synonym: MassBank: JP004124
Synonym: STIGMASTEROL
Structure: 303534305F535449474D41535445524F4C2E6D6F6C0A20204368656D447261773038323031303035323532440A2033372034302020302020302020302020302020302020302020302020303939392056323030300A2020202D332E373635392020202D302E3834353020202020302E303030302043202020302020302020302020302020302020302020302020302020302020302020302020300A2020202D332E373635392020202D312E3637303020202020302E303030302043202020302020302020302020302020302020302020302020302020302020302020302020300A2020202D332E303531342020202D322E3038323520202020302E303030302043202020302020302020302020302020302020302020302020302020302020302020302020300A2020202D322E333336392020202D312E3637303020202020302E303030302043202020302020302020302020302020302020302020302020302020302020302020302020300A2020202D322E333336392020202D302E3834353020202020302E303030302043202020302020302020302020302020302020302020302020302020302020302020302020300A2020202D332E303531342020202D302E3433323520202020302E303030302043202020302020302020302020302020302020302020302020302020302020302020302020300A2020202D312E363232352020202D322E3038323520202020302E303030302043202020302020302020302020302020302020302020302020302020302020302020302020300A2020202D302E393038302020202D312E3637303020202020302E303030302043202020302020302020302020302020302020302020302020302020302020302020302020300A2020202D302E393038302020202D302E3834353020202020302E303030302043202020302020302020302020302020302020302020302020302020302020302020302020300A2020202D312E363232352020202D302E3433323520202020302E303030302043202020302020302020302020302020302020302020302020302020302020302020302020300A2020202D302E313933352020202D302E3433323520202020302E303030302043202020302020302020302020302020302020302020302020302020302020302020302020300A20202020302E353931312020202D302E3638373320202020302E303030302043202020302020302020302020302020302020302020302020302020302020302020302020300A20202020312E303736302020202D302E3032303020202020302E303030302043202020302020302020302020302020302020302020302020302020302020302020302020300A20202020302E3539313120202020302E3634373520202020302E303030302043202020302020302020302020302020302020302020302020302020302020302020302020300A20202020302E3834363020202020312E3433323220202020302E303030302043202020302020302020302020302020302020302020302020302020302020302020302020300A20202020302E3034393220202020312E3634353620202020302E303030302043202020302020302020302020302020302020302020302020302020302020302020302020300A20202020302E3834363020202020322E3235373220202020302E303030302048202020302020302020302020302020302020302020302020302020302020302020302020300A20202020312E3637313020202020312E3433323220202020302E303030302043202020302020302020302020302020302020302020302020302020302020302020302020300A20202020322E3235343420202020322E3031353520202020302E303030302043202020302020302020302020302020302020302020302020302020302020302020302020300A20202020332E3035313420202020312E3830323020202020302E303030302043202020302020302020302020302020302020302020302020302020302020302020302020300A20202020332E3633353620202020322E3338343320202020302E303030302048202020302020302020302020302020302020302020302020302020302020302020302020300A20202020332E3736353820202020312E3338393520202020302E303030302043202020302020302020302020302020302020302020302020302020302020302020302020300A20202020342E3438303220202020312E3830323020202020302E303030302043202020302020302020302020302020302020302020302020302020302020302020302020300A20202020332E3736353820202020302E3536343520202020302E303030302043202020302020302020302020302020302020302020302020302020302020302020302020300A20202020332E3233373820202020302E3338353320202020302E303030302043202020302020302020302020302020302020302020302020302020302020302020302020300A20202020322E3733353620202020312E3033393720202020302E303030302043202020302020302020302020302020302020302020302020302020302020302020302020300A20202020312E3431363120202020302E3634373520202020302E303030302048202020302020302020302020302020302020302020302020302020302020302020302020300A2020202D302E313933352020202D312E3235373520202020302E303030302048202020302020302020302020302020302020302020302020302020302020302020302020300A20202020302E333839382020202D312E3031353720202020302E303030302048202020302020302020302020302020302020302020302020302020302020302020302020300A2020202D302E3930383020202020302E3830353020202020302E303030302043202020302020302020302020302020302020302020302020302020302020302020302020300A2020202D312E3632323520202020302E3339323520202020302E303030302043202020302020302020302020302020302020302020302020302020302020302020302020300A2020202D302E3139333520202020302E3339323520202020302E303030302043202020302020302020302020302020302020302020302020302020302020302020302020300A2020202D302E3139333520202020312E3231373520202020302E303030302043202020302020302020302020302020302020302020302020302020302020302020302020300A2020202D342E343830322020202D312E3235373520202020302E303030302048202020302020302020302020302020302020302020302020302020302020302020302020300A2020202D342E313738342020202D322E3338343320202020302E30303030204F202020302020302020302020302020302020302020302020302020302020302020302020300A2020202D312E363232352020202D312E3235373520202020302E303030302043202020302020302020302020302020302020302020302020302020302020302020302020300A2020202D322E3230353820202020302E3135303920202020302E303030302048202020302020302020302020302020302020302020302020302020302020302020302020300A2020312020322020312020302020202020200A2020322020332020312020302020202020200A2020332020342020312020302020202020200A2020342020352020312020302020202020200A2020352020362020312020302020202020200A2020362020312020312020302020202020200A2020342020372020322020302020202020200A2020372020382020312020302020202020200A2020382020392020312020302020202020200A2020392031302020312020302020202020200A2031302020352020312020302020202020200A2020392031312020312020302020202020200A2031312033322020312020302020202020200A2033322033302020312020302020202020200A2033312031302020312020302020202020200A2031312031322020312020302020202020200A2031322031332020312020302020202020200A2031332031342020312020302020202020200A2031342033322020312020302020202020200A2031342031352020312020302020202020200A2031352031362020312020302020202020200A2031352031372020312020312020202020200A2031352031382020312020302020202020200A2031382031392020322020302020202020200A2031392032302020312020302020202020200A2032302032312020312020312020202020200A2032302032362020312020302020202020200A2032302032322020312020302020202020200A2032322032332020312020302020202020200A2032322032342020312020302020202020200A2032352032362020312020302020202020200A2031342032372020312020362020202020200A2020392032382020312020312020202020200A2031312032392020312020362020202020200A2033302033312020312020302020202020200A2033322033332020312020312020202020200A2020322033342020312020362020202020200A2020322033352020312020312020202020200A2020352033362020312020312020202020200A2031302033372020312020362020202020200A4D2020454E44
Contributor: YAMAMOTO M, DEP. CHEMISTRY, FAC. SCIENCE, NARA WOMEN'S UNIV.
InstType: EI
InstName: HITACHI RMU-6E
IoniMethod: _ENERGY 70 eV
IonPolarity: pos
Date: 2010-10-09 19:48:36+02:00
Num Peaks: 225
41 286 42 20 43 325 44 13 53 59 54 13 55 999 56 52 57 241 58 13 
65 26 66 13 67 306 68 59 69 618 70 72 71 163 72 13 73 20 75 10 
77 91 78 26 79 286 80 59 81 680 82 182 83 900 84 104 85 98 91 280 
92 59 93 345 94 104 95 442 96 130 97 514 98 65 99 26 100 8 103 20 
104 20 105 332 106 68 107 377 108 81 109 306 110 130 111 91 112 26 115 31 
116 16 117 117 118 52 119 280 120 111 121 254 122 91 123 358 124 111 125 47 
126 20 127 20 128 33 129 65 130 33 131 189 132 65 133 468 134 104 135 228 
136 46 137 176 138 46 139 111 140 22 141 33 142 26 143 117 144 59 145 410 
146 91 147 384 148 65 149 143 150 26 151 208 152 33 155 33 156 26 157 130 
158 111 159 501 160 111 161 221 162 59 163 189 164 46 165 48 166 72 167 16 
169 35 170 16 171 94 172 39 173 172 174 59 175 147 176 65 177 98 178 35 
179 20 180 22 181 13 183 33 184 17 185 117 186 46 187 117 188 39 189 87 
190 23 191 59 192 13 197 52 198 21 199 150 200 39 201 78 202 26 203 72 
204 16 205 39 207 22 210 91 211 46 212 260 213 72 214 130 215 39 216 98 
217 26 218 39 226 22 227 85 228 59 229 130 230 72 231 117 232 46 233 33 
234 33 236 47 239 72 240 39 241 91 242 31 243 59 244 26 245 52 246 46 
247 20 253 117 254 59 255 64 256 156 257 72 258 117 259 42 267 99 268 33 
269 39 270 111 271 468 272 247 273 169 274 39 281 70 282 85 283 111 284 33 
285 91 286 42 287 20 295 33 296 26 297 18 298 13 299 117 300 338 301 135 
302 26 309 39 310 20 311 13 313 31 314 104 315 33 327 46 328 23 351 280 
352 91 353 26 354 10 365 20 367 10 368 9 369 169 370 52 371 10 379 104 
380 33 381 10 382 7 383 20 392 10 393 7 394 78 395 33 396 7 397 72 
398 26 410 13 412 610 413 182 414 33 
