Name: MassBank: JP008570
MW: 165
Formula: C2H2Cl4
Synonym: MassBank: JP008570
Synonym: 1,1,2,2-TETRACHLOROETHANE
Structure: 310A31360A312C312C322C322D544554524143484C4F524F455448414E452E6D6F6C0A20204368656D447261773130323330393031303732440A2020362020352020302020302020302020302020302020302020302020303939392056323030300A20202020302E3431323520202020302E3030303020202020302E303030302043202020302020302020302020302020302020302020302020302020302020302020302020300A2020202D302E3431323520202020302E3030303020202020302E303030302043202020302020302020302020302020302020302020302020302020302020302020302020300A2020202D302E383235302020202D302E3731343520202020302E3030303020436C2020302020302020302020302020302020302020302020302020302020302020302020300A2020202D302E3832353020202020302E3731343520202020302E3030303020436C2020302020302020302020302020302020302020302020302020302020302020302020300A20202020302E3832353020202020302E3731343520202020302E3030303020436C2020302020302020302020302020302020302020302020302020302020302020302020300A20202020302E383235302020202D302E3731343520202020302E3030303020436C2020302020302020302020302020302020302020302020302020302020302020302020300A2020312020322020312020302020202020200A2020322020332020312020302020202020200A2020322020342020312020302020202020200A2020312020352020312020302020202020200A2020312020362020312020302020202020200A4D2020454E44
Contributor: SODA AROMATIC CO., LTD.
InstType: EI
InstName: HITACHI M-80B
IoniMethod: _ENERGY 70 eV
IonPolarity: pos
Date: 2010-10-09 19:48:36+02:00
Num Peaks: 33
25 28 26 79 35 73 36 10 37 22 47 37 48 33 49 16 50 10 59 12 
60 106 61 107 62 33 63 28 83 999 84 19 85 639 86 10 87 104 94 13 
95 146 96 103 97 96 98 59 99 14 130 20 131 99 132 22 133 95 135 25 
166 77 168 104 170 39 
