Name: METHYL LACTATE
CAS: 547-64-8
MW: 104
Formula: C4H8O3
Synonym: MassBank: JP009095
Synonym: METHYL LACTATE
Structure: 310A31380A4D455448594C204C4143544154452E6D6F6C0A20204368656D447261773038313231303030323532440A2020372020362020302020302020302020302020302020302020302020303939392056323030300A2020202D302E323036322020202D302E3335373220202020302E303030302043202020302020302020302020302020302020302020302020302020302020302020302020300A20202020302E3230363220202020302E3335373220202020302E303030302043202020302020302020302020302020302020302020302020302020302020302020302020300A2020202D302E3230363220202020312E3037313720202020302E30303030204F202020302020302020302020302020302020302020302020302020302020302020302020300A20202020312E3033313320202020302E3335373220202020302E303030302043202020302020302020302020302020302020302020302020302020302020302020302020300A2020202D312E303331332020202D302E3335373220202020302E30303030204F202020302020302020302020302020302020302020302020302020302020302020302020300A20202020302E323036322020202D312E3037313720202020302E30303030204F202020302020302020302020302020302020302020302020302020302020302020302020300A20202020312E303331332020202D312E3037313720202020302E303030302043202020302020302020302020302020302020302020302020302020302020302020302020300A2020312020322020312020302020202020200A2020322020332020312020302020202020200A2020322020342020312020302020202020200A2020312020352020322020302020202020200A2020312020362020312020302020202020200A2020362020372020312020302020202020200A4D2020454E44
Contributor: SODA AROMATIC CO., LTD.
InstType: EI
InstName: HITACHI M-80B
IoniMethod: _ENERGY 70 eV
IonPolarity: pos
Date: 2010-10-09 19:48:36+02:00
Num Peaks: 18
14 11 15 96 19 27 26 16 27 83 29 136 30 20 31 18 33 149 42 21 
43 143 44 19 45 999 46 23 55 12 59 26 61 28 89 10 
