Name: MassBank: JP002464
MW: 161
Formula: C6H11NO2S
Synonym: MassBank: JP002464
Synonym: (4R)-2,2-DIMETHYL-1,3-THIAZOLIDINE-4-CARBOXYLIC ACID
Structure: 283452292D322C322D44494D455448594C2D312C332D544849415A4F4C4944494E452D342D434152424F58594C494320414349442E6D6F6C0A20204368656D447261773130323130393138313032440A2031312031312020302020302020302020302020302020302020302020303939392056323030300A2020202D302E353339372020202D302E3133313320202020302E303030302043202020302020302020302020302020302020302020302020302020302020302020302020300A20202020302E323835332020202D302E3133313320202020302E30303030204E202020302020302020302020302020302020302020302020302020302020302020302020300A20202020302E3534303320202020302E3635333320202020302E303030302043202020302020302020302020302020302020302020302020302020302020302020302020300A2020202D302E3132373220202020312E3133383220202020302E303030302053202020302020302020302020302020302020302020302020302020302020302020302020300A2020202D302E3739343620202020302E3635333320202020302E303030302043202020302020302020302020302020302020302020302020302020302020302020302020300A2020202D312E333634372020202D302E3133313320202020302E303030302048202020302020302020302020302020302020302020302020302020302020302020302020300A20202020312E3336343720202020302E3635333820202020302E303030302043202020302020302020302020302020302020302020302020302020302020302020302020300A20202020302E3935323220202020312E3336383820202020302E303030302043202020302020302020302020302020302020302020302020302020302020302020302020300A2020202D302E353339372020202D302E3935363320202020302E303030302043202020302020302020302020302020302020302020302020302020302020302020302020300A20202020302E313734382020202D312E3336383820202020302E30303030204F202020302020302020302020302020302020302020302020302020302020302020302020300A2020202D312E323534322020202D312E3336383820202020302E30303030204F202020302020302020302020302020302020302020302020302020302020302020302020300A2020312020322020312020302020202020200A2020322020332020312020302020202020200A2020332020342020312020302020202020200A2020342020352020312020302020202020200A2020352020312020312020302020202020200A2020312020362020312020312020202020200A2020332020372020312020312020202020200A2020332020382020312020362020202020200A2020312020392020312020362020202020200A2020392031302020322020302020202020200A2020392031312020312020302020202020200A4D202053545920203120202031205355500A4D2020534C4220203120202031202020310A4D202053414C20202031202031202020370A4D202053424C20202031202031202020370A4D2020534D5420202031204D650A4D2020534256202020312020372020202D362E3137303920202020362E323231370A4D202053545920203120202032205355500A4D2020534C4220203120202032202020320A4D202053414C20202032202031202020380A4D202053424C20202032202031202020380A4D2020534D5420202032204D650A4D2020534256202020322020382020202D362E3538333420202020362E393336370A4D202053545920203120202033205355500A4D2020534C4220203120202033202020330A4D202053414C202020332020332020203920203130202031310A4D202053424C20202033202031202020390A4D2020534D542020203320434F4F480A4D2020534256202020332020392020202D362E3939353320202020352E333936320A4D2020454E44
Contributor: ITO S, DEPT. OF CHEM., TOHOKU UNIV.
InstType: EI
InstName: HITACHI M-52
IoniMethod: _ENERGY 13.5 eV
IonPolarity: pos
Date: 2010-10-09 19:48:36+02:00
Num Peaks: 37
42 38 43 75 57 48 58 46 59 131 68 300 69 169 72 4 74 34 75 21 
82 33 83 87 84 154 86 17 89 64 96 2 97 40 99 78 100 45 105 6 
109 55 110 31 111 17 112 11 113 24 114 146 115 269 116 15 122 17 127 51 
128 85 146 32 148 23 159 30 161 999 162 4 163 33 
