Name: 2-AMINO-4-METHYLPHENOL
MW: 123
Formula: C7H9NO
Synonym: MassBank: JP009406
Synonym: 2-AMINO-4-METHYLPHENOL
Synonym: 2-HYDROXY-5-METHYLANILINE
Structure: 310A32330A322D414D494E4F2D342D4D455448594C5048454E4F4C2E6D6F6C0A20204368656D447261773132323130393232323232440A2020392020392020302020302020302020302020302020302020302020303939392056323030300A20202020302E373134352020202D302E3431323520202020302E303030302043202020302020302020302020302020302020302020302020302020302020302020302020300A20202020302E3731343520202020302E3431323520202020302E303030302043202020302020302020302020302020302020302020302020302020302020302020302020300A2020202D302E3030303020202020302E3832353020202020302E303030302043202020302020302020302020302020302020302020302020302020302020302020302020300A2020202D302E3731343520202020302E3431323520202020302E303030302043202020302020302020302020302020302020302020302020302020302020302020302020300A2020202D302E373134352020202D302E3431323520202020302E303030302043202020302020302020302020302020302020302020302020302020302020302020302020300A20202020302E303030302020202D302E3832353020202020302E303030302043202020302020302020302020302020302020302020302020302020302020302020302020300A2020202D312E3432383920202020302E3832353020202020302E303030302043202020302020302020302020302020302020302020302020302020302020302020302020300A20202020312E3432383920202020302E3832353020202020302E30303030204E202020302020302020302020302020302020302020302020302020302020302020302020300A20202020312E343238392020202D302E3832353020202020302E30303030204F202020302020302020302020302020302020302020302020302020302020302020302020300A2020312020322020312020302020202020200A2020322020332020322020302020202020200A2020332020342020312020302020202020200A2020342020352020322020302020202020200A2020352020362020312020302020202020200A2020312020362020322020302020202020200A2020342020372020312020302020202020200A2020322020382020312020302020202020200A2020312020392020312020302020202020200A4D2020454E44
Contributor: GUNMA COLLEGE OF TECHNOLOGY
InstType: EI
InstName: HITACHI M-80A
IoniMethod: _ENERGY 70 eV
IonPolarity: pos
Date: 2010-10-09 19:48:36+02:00
Num Peaks: 45
15 25 17 24 26 26 27 71 29 37 37 10 38 32 39 88 40 27 41 67 
42 38 46 16 50 50 51 118 52 81 53 56 54 46 55 27 61 19 62 21 
63 45 64 17 65 68 66 84 67 85 68 26 74 11 75 14 76 22 77 206 
78 348 79 51 80 72 92 15 93 88 94 277 95 40 96 14 104 37 105 37 
106 207 107 56 122 461 123 999 124 89 
