Name: (Z)-3-DODECEN-1-OL
MW: 184
Formula: C12H24O
Synonym: MassBank: JP005380
Synonym: (Z)-3-DODECEN-1-OL
Structure: 285A292D332D444F444543454E2D312D4F4C2E6D6F6C0A20204368656D447261773130323230393231313532440A2031352031342020302020302020302020302020302020302020302020303939392056323030300A2020202D322E3036323520202020312E3037313720202020302E303030302043202020302020302020302020302020302020302020302020302020302020302020302020300A2020202D312E3233373520202020312E3037313720202020302E303030302043202020302020302020302020302020302020302020302020302020302020302020302020300A2020202D322E3437353020202020302E3335373220202020302E303030302043202020302020302020302020302020302020302020302020302020302020302020302020300A2020202D302E3832353020202020312E3738363220202020302E303030302048202020302020302020302020302020302020302020302020302020302020302020302020300A2020202D322E3437353020202020312E3738363220202020302E303030302048202020302020302020302020302020302020302020302020302020302020302020302020300A2020202D302E3832353020202020302E3335373220202020302E303030302043202020302020302020302020302020302020302020302020302020302020302020302020300A2020202D332E3330303020202020302E3335373220202020302E303030302043202020302020302020302020302020302020302020302020302020302020302020302020300A2020202D332E373132352020202D302E3335373220202020302E30303030204F202020302020302020302020302020302020302020302020302020302020302020302020300A20202020302E3030303020202020302E3335373220202020302E303030302043202020302020302020302020302020302020302020302020302020302020302020302020300A20202020302E343132352020202D302E3335373220202020302E303030302043202020302020302020302020302020302020302020302020302020302020302020302020300A20202020312E323337352020202D302E3335373220202020302E303030302043202020302020302020302020302020302020302020302020302020302020302020302020300A20202020312E363530302020202D312E3037313720202020302E303030302043202020302020302020302020302020302020302020302020302020302020302020302020300A20202020322E343735302020202D312E3037313720202020302E303030302043202020302020302020302020302020302020302020302020302020302020302020302020300A20202020322E383837352020202D312E3738363220202020302E303030302043202020302020302020302020302020302020302020302020302020302020302020302020300A20202020332E373132352020202D312E3738363220202020302E303030302043202020302020302020302020302020302020302020302020302020302020302020302020300A2020312020322020322020302020202020200A2020312020332020312020302020202020200A2020322020342020312020302020202020200A2020312020352020312020302020202020200A2020322020362020312020302020202020200A2020332020372020312020302020202020200A2020372020382020312020302020202020200A2020362020392020312020302020202020200A2020392031302020312020302020202020200A2031302031312020312020302020202020200A2031312031322020312020302020202020200A2031322031332020312020302020202020200A2031332031342020312020302020202020200A2031342031352020312020302020202020200A4D2020454E44
Contributor: YAMAOKA R, KYOTO INSTITUTE OF TECHNOLOGY
InstType: EI
InstName: SHIMADZU QP-1000
IoniMethod: _ENERGY 70 eV
IonPolarity: pos
Date: 2010-10-09 19:48:36+02:00
Num Peaks: 57
40 12 41 324 42 59 43 999 44 662 45 90 46 51 51 1 52 28 53 14 
54 350 55 81 56 241 57 381 58 28 65 3 66 60 67 531 68 693 69 36 
70 146 71 101 72 12 77 3 78 19 79 75 81 391 82 38 83 182 84 52 
85 34 91 3 92 30 93 12 95 193 96 20 97 99 98 30 99 11 103 1 
105 18 109 109 110 114 111 4 112 15 116 12 117 12 123 5 124 56 125 10 
133 14 134 3 137 28 138 60 149 17 166 5 167 13 
