Name: 1-ACETYL-3-(2-PYRIDYL)-2-PYRAZOLINE
MW: 189
Formula: C10H11N3O
Synonym: MassBank: JP000445
Synonym: 1-ACETYL-3-(2-PYRIDYL)-2-PYRAZOLINE
Structure: 312D41434554594C2D332D28322D5059524944594C292D322D505952415A4F4C494E452E6D6F6C0A20204368656D447261773131313730393231303332440A2031342031352020302020302020302020302020302020302020302020303939392056323030300A2020202D312E3136313720202020302E3038393220202020302E30303030204E202020302020302020302020302020302020302020302020302020302020302020302020300A2020202D302E333737312020202D302E3136353720202020302E30303030204E202020302020302020302020302020302020302020302020302020302020302020302020300A20202020302E3130373820202020302E3530313720202020302E303030302043202020302020302020302020302020302020302020302020302020302020302020302020300A2020202D302E3337373120202020312E3136393220202020302E303030302043202020302020302020302020302020302020302020302020302020302020302020302020300A2020202D312E3136313720202020302E3931343220202020302E303030302043202020302020302020302020302020302020302020302020302020302020302020302020300A20202020302E3933323820202020302E3530313720202020302E303030302043202020302020302020302020302020302020302020302020302020302020302020302020300A20202020312E333435332020202D302E3231323820202020302E303030302043202020302020302020302020302020302020302020302020302020302020302020302020300A20202020322E313730332020202D302E3231323820202020302E303030302043202020302020302020302020302020302020302020302020302020302020302020302020300A20202020322E3538323820202020302E3530313720202020302E303030302043202020302020302020302020302020302020302020302020302020302020302020302020300A20202020322E3137303320202020312E3231363220202020302E303030302043202020302020302020302020302020302020302020302020302020302020302020302020300A20202020312E3334353320202020312E3231363220202020302E30303030204E202020302020302020302020302020302020302020302020302020302020302020302020300A2020202D312E383239322020202D302E3339353720202020302E303030302043202020302020302020302020302020302020302020302020302020302020302020302020300A2020202D322E353832382020202D302E3036303120202020302E30303030204F202020302020302020302020302020302020302020302020302020302020302020302020300A2020202D312E373432392020202D312E3231363220202020302E303030302043202020302020302020302020302020302020302020302020302020302020302020302020300A2020312020322020312020302020202020200A2020322020332020322020302020202020200A2020332020342020312020302020202020200A2020342020352020312020302020202020200A2020312020352020312020302020202020200A2020362020372020312020302020202020200A2020372020382020322020302020202020200A2020382020392020312020302020202020200A2020392031302020322020302020202020200A2031302031312020312020302020202020200A2020362031312020322020302020202020200A2020332020362020312020302020202020200A2031322031332020322020302020202020200A2031322031342020312020302020202020200A2020312031322020312020302020202020200A4D2020454E44
Contributor: SASAKI S, TOYOHASHI UNIV. OF TECH.
InstType: EI
InstName: MX-1303
IoniMethod: _ENERGY 50 eV
IonPolarity: pos
Date: 2010-10-09 19:48:36+02:00
Num Peaks: 14
78 252 79 137 91 61 93 4 104 128 105 63 117 252 118 42 119 56 146 999 
147 540 148 4 188 38 189 213 
