Name: MassBank: JP000418
MW: 172
Formula: C8H20N4
Synonym: MassBank: JP000418
Synonym: 1,5,5-TRIETHYL-3-METHYL-3,4-DIHYDROFORMAZAN
Structure: 312C352C352D545249455448594C2D332D4D455448594C2D332C342D4449485944524F464F524D415A414E2E6D6F6C0A20204368656D447261773131313630393132313032440A2031322031312020302020302020302020302020302020302020302020303939392056323030300A20202020312E3233373520202020302E3030303020202020302E30303030204E202020302020302020302020302020302020302020302020302020302020302020302020300A20202020302E3431323520202020302E3030303020202020302E30303030204E202020302020302020302020302020302020302020302020302020302020302020302020300A2020202D302E303030302020202D302E3731343520202020302E303030302043202020302020302020302020302020302020302020302020302020302020302020302020300A2020202D302E383235302020202D302E3731343520202020302E30303030204E202020302020302020302020302020302020302020302020302020302020302020302020300A2020202D312E3233373520202020302E3030303020202020302E30303030204E202020302020302020302020302020302020302020302020302020302020302020302020300A20202020302E343132352020202D312E3432383920202020302E303030302043202020302020302020302020302020302020302020302020302020302020302020302020300A2020202D322E3036323520202020302E3030303020202020302E303030302043202020302020302020302020302020302020302020302020302020302020302020302020300A2020202D322E343735302020202D302E3731343520202020302E303030302043202020302020302020302020302020302020302020302020302020302020302020302020300A2020202D302E3832353020202020302E3731343520202020302E303030302043202020302020302020302020302020302020302020302020302020302020302020302020300A2020202D312E3233373520202020312E3432383920202020302E303030302043202020302020302020302020302020302020302020302020302020302020302020302020300A20202020312E3635303020202020302E3731343520202020302E303030302043202020302020302020302020302020302020302020302020302020302020302020302020300A20202020322E3437353020202020302E3731343520202020302E303030302043202020302020302020302020302020302020302020302020302020302020302020302020300A2020312020322020322020302020202020200A2020322020332020312020302020202020200A2020332020342020312020302020202020200A2020342020352020312020302020202020200A2020332020362020312020302020202020200A2020372020382020312020302020202020200A2020352020372020312020302020202020200A2020392031302020312020302020202020200A2020352020392020312020302020202020200A2031312031322020312020302020202020200A2020312031312020312020302020202020200A4D2020454E44
Contributor: SASAKI S, TOYOHASHI UNIV. OF TECH.
InstType: EI
InstName: SHIMADZU LKB-2091
IoniMethod: _ENERGY 70 eV
IonPolarity: pos
Date: 2010-10-09 19:48:36+02:00
Num Peaks: 26
27 224 28 280 29 360 30 18 31 44 41 44 42 312 43 7 44 999 45 36 
46 44 56 12 57 40 58 288 59 60 70 4 71 114 72 520 73 96 85 2 
86 40 87 124 99 184 114 5 115 760 116 64 
