Name: 4-(3-INDOLYL)BUTYLIC ACID METHYL ESTER
MW: 217
Formula: C13H15NO2
Synonym: MassBank: JP005255
Synonym: 4-(3-INDOLYL)BUTYLIC ACID METHYL ESTER
Structure: 342D28332D494E444F4C594C29425554594C49432041434944204D455448594C2045535445522E6D6F6C0A20204368656D447261773033323331303233343032440A2031362031372020302020302020302020302020302020302020302020303939392056323030300A2020202D322E3331393720202020302E3539393120202020302E303030302043202020302020302020302020302020302020302020302020302020302020302020302020300A2020202D312E3533353020202020302E3835343020202020302E303030302043202020302020302020302020302020302020302020302020302020302020302020302020300A2020202D302E3932313920202020302E3330323020202020302E303030302043202020302020302020302020302020302020302020302020302020302020302020302020300A2020202D302E3133373320202020302E3535363920202020302E303030302043202020302020302020302020302020302020302020302020302020302020302020302020300A2020202D322E3933323720202020312E3135313120202020302E30303030204F202020302020302020302020302020302020302020302020302020302020302020302020300A2020202D322E353333322020202D302E3139373820202020302E30303030204F202020302020302020302020302020302020302020302020302020302020302020302020300A20202020312E313433322020202D312E3135313120202020302E30303030204E202020302020302020302020302020302020302020302020302020302020302020302020300A20202020302E333839352020202D302E3831353620202020302E303030302043202020302020302020302020302020302020302020302020302020302020302020302020300A20202020302E3437353820202020302E3030343920202020302E303030302043202020302020302020302020302020302020302020302020302020302020302020302020300A20202020312E3238323720202020302E3137363420202020302E303030302043202020302020302020302020302020302020302020302020302020302020302020302020300A20202020312E3639353220202020302E3839303920202020302E303030302043202020302020302020302020302020302020302020302020302020302020302020302020300A20202020322E3532303220202020302E3839303920202020302E303030302043202020302020302020302020302020302020302020302020302020302020302020302020300A20202020322E3933323720202020302E3137363420202020302E303030302043202020302020302020302020302020302020302020302020302020302020302020302020300A20202020322E353230322020202D302E3533383020202020302E303030302043202020302020302020302020302020302020302020302020302020302020302020302020300A20202020312E363935322020202D302E3533383020202020302E303030302043202020302020302020302020302020302020302020302020302020302020302020302020300A2020202D312E393439382020202D302E3738313220202020302E303030302043202020302020302020302020302020302020302020302020302020302020302020302020300A2020312020322020312020302020202020200A2020322020332020312020302020202020200A2020332020342020312020302020202020200A2020312020352020322020302020202020200A2020312020362020312020302020202020200A2020372020382020312020302020202020200A2020382020392020322020302020202020200A2020392031302020312020302020202020200A2031302031312020312020302020202020200A2031312031322020322020302020202020200A2031322031332020312020302020202020200A2031332031342020322020302020202020200A2031342031352020312020302020202020200A2020372031352020312020302020202020200A2031302031352020322020302020202020200A2020342020392020312020302020202020200A2020362031362020312020302020202020200A4D2020454E44
Contributor: MASS SPECTROSCOPY SOC. OF JAPAN (MSSJ)
InstType: EI
InstName: HITACHI M-80
IoniMethod: _ENERGY 20 eV
IonPolarity: pos
Date: 2010-10-09 19:48:36+02:00
Num Peaks: 22
40 46 44 91 51 50 57 28 63 18 65 46 77 73 79 50 102 28 103 60 
115 28 117 23 130 999 131 128 143 228 144 64 156 37 157 18 186 96 206 23 
217 297 218 46 
