Name: MassBank: JP008944
MW: 98
Formula: C6H10O
Synonym: MassBank: JP008944
Synonym: 2-METHYLCYCLOPENTANONE (2,5,5-D3)
Structure: 322D4D455448594C4359434C4F50454E54414E4F4E452028322C352C352D4433292E6D6F6C0A20204368656D447261773031323231303037353032440A2031302031302020302020302020302020302020302020302020302020303939392056323030300A2020202D302E3239353520202020302E3334313220202020302E303030302043202020302020302020302020302020302020302020302020302020302020302020302020300A20202020302E3532353020202020302E3235343920202020302E303030302043202020302020302020302020302020302020302020302020302020302020302020302020300A20202020302E363936352020202D302E3535323020202020302E303030302043202020302020302020302020302020302020302020302020302020302020302020302020300A2020202D302E303137392020202D302E3936343520202020302E303030302043202020302020302020302020302020302020302020302020302020302020302020302020300A2020202D302E363331302020202D302E3431323520202020302E303030302043202020302020302020302020302020302020302020302020302020302020302020302020300A20202020302E3532353020202020312E3037393920202020302E303030302043202020302020302020302020302020302020302020302020302020302020302020302020300A2020202D302E3730383020202020312E3035353620202020302E30303030204F202020302020302020302020302020302020302020302020302020302020302020302020300A2020202D312E313135392020202D312E3037393920202020302E303030302048202020312020302020302020302020302020302020302020302020302020302020302020300A2020202D312E3334353520202020302E3030303020202020302E303030302048202020312020302020302020302020302020302020302020302020302020302020302020300A20202020312E3334353520202020302E3334313220202020302E303030302048202020312020302020302020302020302020302020302020302020302020302020302020300A2020312020322020312020302020202020200A2020322020332020312020302020202020200A2020332020342020312020302020202020200A2020342020352020312020302020202020200A2020312020352020312020302020202020200A2020322020362020312020302020202020200A2020312020372020322020302020202020200A2020352020382020312020312020202020200A2020352020392020312020362020202020200A2020322031302020312020302020202020200A4D202049534F2020332020203820202032202020392020203220203130202020320A4D2020454E44
Contributor: YAMAMOTO M, DEP. CHEMISTRY, FAC. SCIENCE, NARA WOMEN'S UNIV.
InstType: EI
InstName: HITACHI RMU-6M
IoniMethod: _ENERGY 70 eV
IonPolarity: pos
Date: 2010-10-09 19:48:36+02:00
Num Peaks: 40
26 20 27 92 28 160 29 12 30 182 31 34 32 10 38 2 39 89 40 143 
41 167 42 29 43 999 44 215 45 64 46 2 50 10 51 14 52 16 53 1 
54 23 55 66 56 253 57 18 58 151 59 15 69 200 70 9 71 184 72 74 
73 71 82 2 83 41 84 11 85 35 86 9 99 12 100 64 101 421 102 31 
