Name: MYRCENOL
MW: 154
Formula: C10H18O
Synonym: MassBank: JP006928
Synonym: MYRCENOL
Synonym: 2-METHYL-6-METHYLENE-7-OCTEN-2-OL
Structure: 4D595243454E4F4C2E6D6F6C0A20204368656D447261773031323231303037323432440A2031312031302020302020302020302020302020302020302020302020303939392056323030300A2020202D312E303136342020202D302E3932303720202020302E303030302043202020302020302020302020302020302020302020302020302020302020302020302020300A2020202D312E343238392020202D302E3230363320202020302E303030302043202020302020302020302020302020302020302020302020302020302020302020302020300A2020202D302E3731343520202020302E3230363320202020302E303030302043202020302020302020302020302020302020302020302020302020302020302020302020300A20202020302E303030302020202D302E3230363220202020302E303030302043202020302020302020302020302020302020302020302020302020302020302020302020300A20202020302E3731343520202020302E3230363220202020302E303030302043202020302020302020302020302020302020302020302020302020302020302020302020300A20202020312E343238392020202D302E3230363320202020302E303030302043202020302020302020302020302020302020302020302020302020302020302020302020300A20202020322E3134333420202020302E3230363320202020302E303030302043202020302020302020302020302020302020302020302020302020302020302020302020300A20202020322E3134333420202020312E3033313320202020302E303030302043202020302020302020302020302020302020302020302020302020302020302020302020300A2020202D322E313433342020202D302E3631383820202020302E30303030204F202020302020302020302020302020302020302020302020302020302020302020302020300A20202020312E343238392020202D312E3033313320202020302E303030302043202020302020302020302020302020302020302020302020302020302020302020302020300A2020202D312E3834313420202020302E3530383220202020302E303030302043202020302020302020302020302020302020302020302020302020302020302020302020300A2020312020322020312020302020202020200A2020322020332020312020302020202020200A2020332020342020312020302020202020200A2020342020352020312020302020202020200A2020352020362020312020302020202020200A2020362020372020312020302020202020200A2020372020382020322020302020202020200A2020322020392020312020302020202020200A2020362031302020322020302020202020200A2020322031312020312020302020202020200A4D2020454E44
Contributor: TAJIMA S, GUNMA COLLEGE OF TECHNOLOGY
InstType: EI
InstName: HITACHI M-80B
IoniMethod: _ENERGY 70 eV
IonPolarity: pos
Date: 2010-10-09 19:48:36+02:00
Num Peaks: 49
15 18 27 137 28 18 29 65 31 113 39 175 40 39 41 309 42 21 43 441 
44 11 45 22 50 14 51 45 52 39 53 134 54 21 55 93 56 24 57 29 
58 44 59 999 60 29 65 44 66 37 67 144 68 333 69 154 70 17 71 88 
77 48 78 16 79 325 80 326 81 376 82 44 83 21 91 19 92 44 93 345 
94 52 95 51 107 52 108 13 121 150 122 13 136 116 137 12 139 37 
