Name: 2-ACETYL-1-METHYLINDOLE
MW: 173
Formula: C11H11NO
Synonym: MassBank: JP001984
Synonym: 2-ACETYL-1-METHYLINDOLE
Structure: 322D41434554594C2D312D4D455448594C494E444F4C452E6D6F6C0A20204368656D447261773132323130393231353932440A2031332031342020302020302020302020302020302020302020302020303939392056323030300A2020202D302E3234353620202020302E3335333920202020302E30303030204E202020302020302020302020302020302020302020302020302020302020302020302020300A2020202D302E373330352020202D302E3331333520202020302E303030302043202020302020302020302020302020302020302020302020302020302020302020302020300A2020202D302E323435362020202D302E3938313020202020302E303030302043202020302020302020302020302020302020302020302020302020302020302020302020300A20202020302E353339312020202D302E3732363020202020302E303030302043202020302020302020302020302020302020302020302020302020302020302020302020300A20202020312E323533352020202D312E3133383520202020302E303030302043202020302020302020302020302020302020302020302020302020302020302020302020300A20202020312E393638302020202D302E3732363020202020302E303030302043202020302020302020302020302020302020302020302020302020302020302020302020300A20202020312E3936383020202020302E3039393020202020302E303030302043202020302020302020302020302020302020302020302020302020302020302020302020300A20202020312E3235333520202020302E3531313520202020302E303030302043202020302020302020302020302020302020302020302020302020302020302020302020300A20202020302E3533393120202020302E3039393020202020302E303030302043202020302020302020302020302020302020302020302020302020302020302020302020300A2020202D302E3530303520202020312E3133383520202020302E303030302043202020302020302020302020302020302020302020302020302020302020302020302020300A2020202D312E353535352020202D302E3331333520202020302E303030302043202020302020302020302020302020302020302020302020302020302020302020302020300A2020202D312E3936383020202020302E3430303920202020302E30303030204F202020302020302020302020302020302020302020302020302020302020302020302020300A2020202D312E393638302020202D312E3032383020202020302E303030302043202020302020302020302020302020302020302020302020302020302020302020302020300A2020312020322020312020302020202020200A2020322020332020322020302020202020200A2020332020342020312020302020202020200A2020342020352020312020302020202020200A2020352020362020322020302020202020200A2020362020372020312020302020202020200A2020372020382020322020302020202020200A2020382020392020312020302020202020200A2020312020392020312020302020202020200A2020342020392020322020302020202020200A2020312031302020312020302020202020200A2031312031322020322020302020202020200A2031312031332020312020302020202020200A2020322031312020312020302020202020200A4D2020454E44
Contributor: SASAKI S, TOYOHASHI UNIV. OF TECH.
InstType: EI
InstName: MX-1303
IoniMethod: _ENERGY 50 eV
IonPolarity: pos
Date: 2010-10-09 19:48:36+02:00
Num Peaks: 29
39 38 43 130 51 34 62 2 63 78 75 16 76 15 77 8 79 10 86.5 11 
87 10 88 2 89 680 96 45 101 13 102 4 103 45 114 16 115 54 128 3 
129 25 130 244 131 25 144 4 158 999 159 115 172 81 173 97 174 118 
