Name: MassBank: JP006647
MW: 319
Formula: C21H25N3
Synonym: MassBank: JP006647
Synonym: 2,8-DIMETHYL-5-(2-(6-METHYL-3-PYRIDYL)ETHYL)-1,2,3,4-TETRAHYDRO-GAMMA-CARBOLINE
Structure: 322C382D44494D455448594C2D352D28322D28362D4D455448594C2D332D5059524944594C29455448594C292D312C322C332C342D5445545241485944524F2D47414D4D412D434152424F4C494E452E6D6F6C0A20204368656D447261773132323130393035313032440A2032342032372020302020302020302020302020302020302020302020303939392056323030300A2020202D312E393830332020202D312E3434333820202020302E303030302043202020302020302020302020302020302020302020302020302020302020302020302020300A2020202D312E393830332020202D322E3236383820202020302E303030302043202020302020302020302020302020302020302020302020302020302020302020302020300A2020202D312E323635382020202D322E3638313220202020302E303030302043202020302020302020302020302020302020302020302020302020302020302020302020300A2020202D302E353531332020202D322E3236383820202020302E303030302043202020302020302020302020302020302020302020302020302020302020302020302020300A2020202D302E353531332020202D312E3434333820202020302E303030302043202020302020302020302020302020302020302020302020302020302020302020302020300A2020202D312E323635382020202D312E3033313320202020302E303030302043202020302020302020302020302020302020302020302020302020302020302020302020300A2020202D312E323635382020202D332E3530363320202020302E303030302043202020302020302020302020302020302020302020302020302020302020302020302020300A2020202D312E323635382020202D302E3230363320202020302E303030302043202020302020302020302020302020302020302020302020302020302020302020302020300A2020202D312E3938303320202020302E3230363320202020302E303030302043202020302020302020302020302020302020302020302020302020302020302020302020300A2020202D312E3938303320202020312E3033313320202020302E303030302043202020302020302020302020302020302020302020302020302020302020302020302020300A2020202D312E3236353820202020312E3434333820202020302E303030302043202020302020302020302020302020302020302020302020302020302020302020302020300A2020202D312E3236353820202020322E3236383720202020302E303030302043202020302020302020302020302020302020302020302020302020302020302020302020300A2020202D312E3938303320202020322E3638313320202020302E303030302043202020302020302020302020302020302020302020302020302020302020302020302020300A2020202D322E3639343720202020322E3236383720202020302E30303030204E202020302020302020302020302020302020302020302020302020302020302020302020300A2020202D322E3639343720202020312E3434333820202020302E303030302043202020302020302020302020302020302020302020302020302020302020302020302020300A20202020302E323333332020202D322E3532333720202020302E30303030204E202020302020302020302020302020302020302020302020302020302020302020302020300A20202020302E373138322020202D312E3835363320202020302E303030302043202020302020302020302020302020302020302020302020302020302020302020302020300A20202020302E323333332020202D312E3138383820202020302E303030302043202020302020302020302020302020302020302020302020302020302020302020302020300A20202020312E353338372020202D312E3737303020202020302E303030302043202020302020302020302020302020302020302020302020302020302020302020302020300A20202020312E383734332020202D312E3031363320202020302E303030302043202020302020302020302020302020302020302020302020302020302020302020302020300A20202020312E333839332020202D302E3334383920202020302E30303030204E202020302020302020302020302020302020302020302020302020302020302020302020300A20202020302E353638392020202D302E3433353120202020302E303030302043202020302020302020302020302020302020302020302020302020302020302020302020300A20202020322E363934372020202D302E3933303120202020302E303030302043202020302020302020302020302020302020302020302020302020302020302020302020300A2020202D312E3938303320202020332E3530363320202020302E303030302043202020302020302020302020302020302020302020302020302020302020302020302020300A2020312020322020322020302020202020200A2020322020332020312020302020202020200A2020332020342020322020302020202020200A2020342020352020312020302020202020200A2020352020362020322020302020202020200A2020362020312020312020302020202020200A2020332020372020312020302020202020200A2020362020382020312020302020202020200A2020382020392020312020302020202020200A2020392031302020312020302020202020200A2031302031312020322020302020202020200A2031312031322020312020302020202020200A2031322031332020322020302020202020200A2031332031342020312020302020202020200A2031342031352020322020302020202020200A2031352031302020312020302020202020200A2020342031362020312020302020202020200A2031362031372020312020302020202020200A2031372031382020322020302020202020200A2031382020352020312020302020202020200A2031372031392020312020302020202020200A2031392032302020312020302020202020200A2032302032312020312020302020202020200A2032312032322020312020302020202020200A2032322031382020312020302020202020200A2032302032332020312020302020202020200A2031332032342020312020302020202020200A4D2020454E44
Contributor: SASAKI S, TOYOHASHI UNIV. OF TECH.
InstType: EI
InstName: JEOL JMS-01-SG-2
IoniMethod: _ENERGY 75 eV
IonPolarity: pos
Date: 2010-10-09 19:48:36+02:00
Num Peaks: 18
42 13 43 62 44 10 77 1 105 14 106 10 115 10 120 5 157 726 158 87 
170 999 171 13 213 160 261 51 276 429 277 8 318 350 319 690 
