Name: MassBank: JP005413
MW: 102
Formula: C5H10O2
Synonym: MassBank: JP005413
Synonym: 4-METHYL-1,3-DIOXANE
Structure: 310A31390A342D4D455448594C2D312C332D44494F58414E452E6D6F6C0A20204368656D447261773034323131303030353032440A2020372020372020302020302020302020302020302020302020302020303939392056323030300A20202020312E3233373520202020302E3030303020202020302E30303030204F202020302020302020302020302020302020302020302020302020302020302020302020300A20202020302E383235302020202D302E3731343520202020302E303030302043202020302020302020302020302020302020302020302020302020302020302020302020300A2020202D302E303030302020202D302E3731343520202020302E30303030204F202020302020302020302020302020302020302020302020302020302020302020302020300A2020202D302E3431323520202020302E3030303020202020302E303030302043202020302020302020302020302020302020302020302020302020302020302020302020300A2020202D302E3030303020202020302E3731343520202020302E303030302043202020302020302020302020302020302020302020302020302020302020302020302020300A20202020302E3832353020202020302E3731343520202020302E303030302043202020302020302020302020302020302020302020302020302020302020302020302020300A2020202D312E3233373520202020302E3030303020202020302E303030302043202020302020302020302020302020302020302020302020302020302020302020302020300A2020312020322020312020302020202020200A2020322020332020312020302020202020200A2020332020342020312020302020202020200A2020342020352020312020302020202020200A2020352020362020312020302020202020200A2020312020362020312020302020202020200A2020342020372020312020302020202020200A4D2020454E44
Contributor: TAJIMA S, GUNMA COLLEGE OF TECHNOLOGY
InstType: EI
InstName: HITACHI RMU-7M
IoniMethod: _ENERGY 70 eV
IonPolarity: pos
Date: 2010-10-09 19:48:36+02:00
Num Peaks: 26
15 22 27 124 28 326 29 217 30 107 31 364 39 85 40 26 41 191 42 332 
43 999 44 160 45 386 55 815 56 43 57 221 58 167 59 75 61 22 71 86 
72 739 73 82 87 219 101 831 102 47 103 67 
