Name: MassBank: JP009142
MW: 142
Formula: C8H14O2
Synonym: MassBank: JP009142
Synonym: 2,5-DIMETHYL-3-HEXYN-2,5-DIOL
Structure: 322C352D44494D455448594C2D332D484558594E2D322C352D44494F4C2E6D6F6C0A20204368656D447261773132323130393031333432440A2031302020392020302020302020302020302020302020302020302020303939392056323030300A2020202D312E323337352020202D302E3832353020202020302E303030302043202020302020302020302020302020302020302020302020302020302020302020302020300A2020202D312E323337352020202D302E3030303020202020302E303030302043202020302020302020302020302020302020302020302020302020302020302020302020300A2020202D302E343132352020202D302E3030303020202020302E303030302043202020302020302020302020302020302020302020302020302020302020302020302020300A20202020302E343132352020202D302E3030303020202020302E303030302043202020302020302020302020302020302020302020302020302020302020302020302020300A20202020312E323337352020202D302E3030303020202020302E303030302043202020302020302020302020302020302020302020302020302020302020302020302020300A20202020312E3233373520202020302E3832353020202020302E303030302043202020302020302020302020302020302020302020302020302020302020302020302020300A2020202D322E303632352020202D302E3030303020202020302E30303030204F202020302020302020302020302020302020302020302020302020302020302020302020300A20202020322E303632352020202D302E3030303020202020302E30303030204F202020302020302020302020302020302020302020302020302020302020302020302020300A20202020312E323337352020202D302E3832353020202020302E303030302043202020302020302020302020302020302020302020302020302020302020302020302020300A2020202D312E3233373520202020302E3832353020202020302E303030302043202020302020302020302020302020302020302020302020302020302020302020302020300A2020312020322020312020302020202020200A2020322020332020312020302020202020200A2020332020342020332020302020202020200A2020342020352020312020302020202020200A2020352020362020312020302020202020200A2020322020372020312020302020202020200A2020352020382020312020302020202020200A2020352020392020312020302020202020200A2020322031302020312020302020202020200A4D2020454E44
Contributor: SODA AROMATIC CO., LTD.
InstType: EI
InstName: HITACHI M-80B
IoniMethod: _ENERGY 70 eV
IonPolarity: pos
Date: 2010-10-09 19:48:36+02:00
Num Peaks: 35
15 70 27 66 29 41 31 37 38 17 39 125 41 160 42 25 43 999 44 28 
50 17 51 45 52 12 53 97 54 11 55 58 56 32 57 22 59 93 65 39 
66 24 67 66 68 10 69 124 77 21 79 65 81 497 82 45 83 18 95 16 
109 810 110 68 111 19 127 202 128 12 
