Name: 4-CHLORO-META-CRESOL
CAS: 59-50-7
MW: 142
Formula: C7H7ClO
Synonym: MassBank: JP000936
Synonym: 4-CHLORO-META-CRESOL
Structure: 310A32330A342D43484C4F524F2D4D4554412D435245534F4C2E6D6F6C0A20204368656D447261773033323531303130353532440A2020392020392020302020302020302020302020302020302020302020303939392056323030300A2020202D302E3731343520202020302E3431323520202020302E303030302043202020302020302020302020302020302020302020302020302020302020302020302020300A20202020302E3030303020202020302E3832353020202020302E303030302043202020302020302020302020302020302020302020302020302020302020302020302020300A20202020302E3731343520202020302E3431323520202020302E303030302043202020302020302020302020302020302020302020302020302020302020302020302020300A20202020302E373134352020202D302E3431323520202020302E303030302043202020302020302020302020302020302020302020302020302020302020302020302020300A2020202D302E303030302020202D302E3832353020202020302E303030302043202020302020302020302020302020302020302020302020302020302020302020302020300A2020202D302E373134352020202D302E3431323520202020302E303030302043202020302020302020302020302020302020302020302020302020302020302020302020300A20202020312E3432383920202020302E3832353020202020302E303030302043202020302020302020302020302020302020302020302020302020302020302020302020300A20202020312E343238392020202D302E3832353020202020302E3030303020436C2020302020302020302020302020302020302020302020302020302020302020302020300A2020202D312E3432383920202020302E3832353020202020302E30303030204F202020302020302020302020302020302020302020302020302020302020302020302020300A2020312020322020312020302020202020200A2020322020332020322020302020202020200A2020332020342020312020302020202020200A2020342020352020322020302020202020200A2020352020362020312020302020202020200A2020312020362020322020302020202020200A2020332020372020312020302020202020200A2020342020382020312020302020202020200A2020312020392020312020302020202020200A4D2020454E44
Contributor: KOGA M, UNIV. OF OCCUPATIONAL AND ENVIRONMENTAL HEALTH
InstType: EI
InstName: JEOL JMS-01-SG
IoniMethod: _ENERGY 70 eV
IonPolarity: pos
Date: 2010-10-09 19:48:36+02:00
Num Peaks: 24
50 85 51 174 52 36 53 8 61 29 62 49 63 73 71 2 73 39 74 31 
75 41 77 44 78 121 79 118 89 26 105 6 107 999 108 83 113 34 141 8 
142 764 143 90 144 248 145 22 
