Name: 2-ETHOXYETHYLAMINE
MW: 89
Formula: C4H11NO
Synonym: MassBank: JP008893
Synonym: 2-ETHOXYETHYLAMINE
Synonym: 2-AMINOETHYL ETHYL ETHER
Structure: 310A31360A322D4554484F5859455448594C414D494E452E6D6F6C0A20204368656D447261773132323130393232323932440A2020362020352020302020302020302020302020302020302020302020303939392056323030300A2020202D312E373836322020202D302E3230363320202020302E30303030204E202020302020302020302020302020302020302020302020302020302020302020302020300A2020202D312E3037313720202020302E3230363320202020302E303030302043202020302020302020302020302020302020302020302020302020302020302020302020300A2020202D302E333537322020202D302E3230363320202020302E303030302043202020302020302020302020302020302020302020302020302020302020302020302020300A20202020302E3335373220202020302E3230363320202020302E30303030204F202020302020302020302020302020302020302020302020302020302020302020302020300A20202020312E303731372020202D302E3230363220202020302E303030302043202020302020302020302020302020302020302020302020302020302020302020302020300A20202020312E3738363220202020302E3230363320202020302E303030302043202020302020302020302020302020302020302020302020302020302020302020302020300A2020322020332020312020302020202020200A2020312020322020312020302020202020200A2020352020362020312020302020202020200A2020342020352020312020302020202020200A2020332020342020312020302020202020200A4D2020454E44
Contributor: TAJIMA S, GUNMA COLLEGE OF TECHNOLOGY
InstType: EI
InstName: HITACHI RMU-7M
IoniMethod: _ENERGY 70 eV
IonPolarity: pos
Date: 2010-10-09 19:48:36+02:00
Num Peaks: 17
14 16 15 53 17 12 18 73 26 40 27 142 28 143 29 130 30 999 31 103 
41 35 42 100 43 61 44 81 45 191 59 12 60 10 
