Name: 2-BUTYLTHIOPHENE
CAS: 1455-20-5
MW: 140
Formula: C8H12S
Synonym: MassBank: JP007775
Synonym: 2-BUTYLTHIOPHENE
Structure: 310A32330A322D425554594C5448494F5048454E452E6D6F6C0A20204368656D447261773031303331303130323132440A2020392020392020302020302020302020302020302020302020302020303939392056323030300A2020202D302E3737363120202020302E3238393820202020302E303030302043202020302020302020302020302020302020302020302020302020302020302020302020300A2020202D302E383632332020202D302E3533303720202020302E303030302043202020302020302020302020302020302020302020302020302020302020302020302020300A2020202D312E363639332020202D302E3730323320202020302E303030302043202020302020302020302020302020302020302020302020302020302020302020302020300A2020202D322E3038313820202020302E3031323220202020302E303030302043202020302020302020302020302020302020302020302020302020302020302020302020300A2020202D312E3532393820202020302E3632353320202020302E303030302053202020302020302020302020302020302020302020302020302020302020302020302020300A2020202D302E3036313620202020302E3730323320202020302E303030302043202020302020302020302020302020302020302020302020302020302020302020302020300A20202020302E3635323920202020302E3238393820202020302E303030302043202020302020302020302020302020302020302020302020302020302020302020302020300A20202020312E3336373320202020302E3730323320202020302E303030302043202020302020302020302020302020302020302020302020302020302020302020302020300A20202020322E3038313820202020302E3238393820202020302E303030302043202020302020302020302020302020302020302020302020302020302020302020302020300A2020312020322020322020302020202020200A2020322020332020312020302020202020200A2020332020342020322020302020202020200A2020342020352020312020302020202020200A2020312020352020312020302020202020200A2020362020372020312020302020202020200A2020372020382020312020302020202020200A2020382020392020312020302020202020200A2020312020362020312020302020202020200A4D2020454E44
Contributor: HASHIMOTO K, KYOTO COLLEGE OF PHARMACY
InstType: EI
InstName: HITACHI M-80
IoniMethod: _ENERGY 20 eV
IonPolarity: pos
Date: 2010-10-09 19:48:36+02:00
Num Peaks: 27
27 30 29 30 39 40 41 60 43 20 45 119 46 10 53 100 55 10 58 10 
65 10 67 31 69 40 71 21 77 30 78 10 79 10 84 60 85 31 91 10 
96 23 97 999 98 440 99 181 140 369 141 49 142 10 
