Name: 3-(DIETHOXYPHOSPHORYL)METHYL-5-PHENYL-2-ISOXAZOLINE
MW: 297
Formula: C14H20NO4P
Synonym: MassBank: JP009359
Synonym: 3-(DIETHOXYPHOSPHORYL)METHYL-5-PHENYL-2-ISOXAZOLINE
Structure: 332D2844494554484F585950484F5350484F52594C294D455448594C2D352D5048454E594C2D322D49534F58415A4F4C494E452E6D6F6C0A20204368656D447261773032323231303130353832440A2032302032312020302020302020302020302020302020302020302020303939392056323030300A2020202D302E3637303020202020302E3931393820202020302E303030302043202020302020302020302020302020302020302020302020302020302020302020302020300A2020202D302E3637303020202020302E3039343820202020302E303030302043202020302020302020302020302020302020302020302020302020302020302020302020300A20202020302E313134362020202D302E3136303220202020302E303030302043202020302020302020302020302020302020302020302020302020302020302020302020300A20202020302E3539393520202020302E3530373320202020302E30303030204E202020302020302020302020302020302020302020302020302020302020302020302020300A20202020302E3131343620202020312E3137343720202020302E30303030204F202020302020302020302020302020302020302020302020302020302020302020302020300A2020202D312E3333373520202020312E3430343720202020302E303030302043202020302020302020302020302020302020302020302020302020302020302020302020300A20202020302E333639352020202D302E3934343820202020302E303030302043202020302020302020302020302020302020302020302020302020302020302020302020300A20202020312E313736352020202D312E3131363320202020302E303030302050202020302020302020302020302020302020302020302020302020302020302020302020300A20202020312E393733342020202D312E3332393820202020302E30303030204F202020302020302020302020302020302020302020302020302020302020302020302020300A20202020312E333639312020202D302E3331343120202020302E30303030204F202020302020302020302020302020302020302020302020302020302020302020302020300A20202020302E393833392020202D312E3931383520202020302E30303030204F202020302020302020302020302020302020302020302020302020302020302020302020300A20202020322E313630312020202D302E3037393820202020302E303030302043202020302020302020302020302020302020302020302020302020302020302020302020300A20202020322E373538362020202D302E3634373720202020302E303030302043202020302020302020302020302020302020302020302020302020302020302020302020300A20202020322E313836392020202D322E3132363720202020302E303030302043202020302020302020302020302020302020302020302020302020302020302020302020300A20202020312E363033362020202D322E3731303120202020302E303030302043202020302020302020302020302020302020302020302020302020302020302020302020300A2020202D312E3235313220202020322E3232353220202020302E303030302043202020302020302020302020302020302020302020302020302020302020302020302020300A2020202D312E3931383720202020322E3731303120202020302E303030302043202020302020302020302020302020302020302020302020302020302020302020302020300A2020202D322E3637323320202020322E3337343520202020302E303030302043202020302020302020302020302020302020302020302020302020302020302020302020300A2020202D322E3735383620202020312E3535343120202020302E303030302043202020302020302020302020302020302020302020302020302020302020302020302020300A2020202D322E3039313120202020312E3036393120202020302E303030302043202020302020302020302020302020302020302020302020302020302020302020302020300A2020312020322020312020302020202020200A2020322020332020312020302020202020200A2020332020342020322020302020202020200A2020342020352020312020302020202020200A2020352020312020312020302020202020200A2020312020362020312020302020202020200A2020332020372020312020302020202020200A2020372020382020312020302020202020200A2020382020392020312020302020202020200A2020382031302020312020302020202020200A2020382031312020322020302020202020200A2031302031322020312020302020202020200A2031322031332020312020302020202020200A2020392031342020312020302020202020200A2031342031352020312020302020202020200A2020362031362020322020302020202020200A2031362031372020312020302020202020200A2031372031382020322020302020202020200A2031382031392020312020302020202020200A2031392032302020322020302020202020200A2032302020362020312020302020202020200A4D2020454E44
Contributor: KANEMASA S, INST. OF ADVANCED MATERIAL STUDY KYUSHU UNIV.
InstType: EI
InstName: JEOL JMS-01-SG-2
IoniMethod: _ENERGY 75 eV
IonPolarity: pos
Date: 2010-10-09 19:48:36+02:00
Num Peaks: 50
39 187 40 79 41 316 42 104 43 999 44 203 45 327 51 139 53 118 55 175 
57 84 58 165 65 73 67 176 68 154 69 129 73 149 77 191 78 89 81 148 
91 95 104 128 105 108 106 73 109 160 122 81 129 90 130 28 131 41 137 69 
141 25 142 25 148 25 149 46 150 51 152 31 153 27 156 26 158 63 159 27 
164 37 172 56 173 31 181 32 192 30 215 63 220 27 240 24 296 54 297 24 
