Name: 2-(2-(2-NITROPHENYL)-TRANS-VINYL)PYRIDINE
MW: 226
Formula: C13H10N2O2
Synonym: MassBank: JP005029
Synonym: 2-(2-(2-NITROPHENYL)-TRANS-VINYL)PYRIDINE
Structure: 322D28322D28322D4E4954524F5048454E594C292D5452414E532D56494E594C295059524944494E452E6D6F6C0A20204368656D447261773132323130393130343632440A2031392032302020302020302020302020302020302020302020302020303939392056323030300A20202020312E3037313720202020302E3230363220202020302E303030302043202020302020302020302020302020302020302020302020302020302020302020302020300A20202020312E373836322020202D302E3230363320202020302E303030302043202020302020302020302020302020302020302020302020302020302020302020302020300A20202020322E3530303620202020302E3230363220202020302E303030302043202020302020302020302020302020302020302020302020302020302020302020302020300A20202020322E3530303620202020312E3033313220202020302E303030302043202020302020302020302020302020302020302020302020302020302020302020302020300A20202020312E3738363220202020312E3434333820202020302E303030302043202020302020302020302020302020302020302020302020302020302020302020302020300A20202020312E3037313720202020312E3033313320202020302E30303030204E202020302020302020302020302020302020302020302020302020302020302020302020300A20202020302E333537322020202D302E3230363220202020302E303030302043202020302020302020302020302020302020302020302020302020302020302020302020300A2020202D302E3335373220202020302E3230363220202020302E303030302043202020302020302020302020302020302020302020302020302020302020302020302020300A2020202D312E303731372020202D302E3230363220202020302E303030302043202020302020302020302020302020302020302020302020302020302020302020302020300A2020202D312E3738363220202020302E3230363220202020302E303030302043202020302020302020302020302020302020302020302020302020302020302020302020300A2020202D322E353030362020202D302E3230363220202020302E303030302043202020302020302020302020302020302020302020302020302020302020302020302020300A2020202D322E353030362020202D312E3033313320202020302E303030302043202020302020302020302020302020302020302020302020302020302020302020302020300A2020202D312E373836322020202D312E3434333820202020302E303030302043202020302020302020302020302020302020302020302020302020302020302020302020300A2020202D312E303731372020202D312E3033313320202020302E303030302043202020302020302020302020302020302020302020302020302020302020302020302020300A2020202D312E3738363220202020312E3033313320202020302E30303030204E202020302020332020302020302020302020302020302020302020302020302020302020300A2020202D312E3037313720202020312E3434333820202020302E30303030204F202020302020302020302020302020302020302020302020302020302020302020302020300A2020202D322E3530303620202020312E3434333820202020302E30303030204F202020302020352020302020302020302020302020302020302020302020302020302020300A2020202D302E3335373220202020312E3033313320202020302E303030302048202020302020302020302020302020302020302020302020302020302020302020302020300A20202020302E333537322020202D312E3033313320202020302E303030302048202020302020302020302020302020302020302020302020302020302020302020302020300A2020312020322020312020302020202020200A2020322020332020322020302020202020200A2020332020342020312020302020202020200A2020342020352020322020302020202020200A2020352020362020312020302020202020200A2020312020362020322020302020202020200A2020372020382020322020302020202020200A2020392031302020312020302020202020200A2031302031312020322020302020202020200A2031312031322020312020302020202020200A2031322031332020322020302020202020200A2031332031342020312020302020202020200A2020392031342020322020302020202020200A2031352031362020322020302020202020200A2031352031372020312020302020202020200A2031302031352020312020302020202020200A2020382020392020312020302020202020200A2020312020372020312020302020202020200A2020382031382020312020302020202020200A2020372031392020312020302020202020200A4D202043484720203220203135202020312020313720202D310A4D2020454E44
Contributor: SASAKI S, TOYOHASHI UNIV. OF TECH.
InstType: EI
InstName: MX-1309
IoniMethod: _ENERGY 70 eV
IonPolarity: pos
Date: 2010-10-09 19:48:36+02:00
Num Peaks: 76
62 24 63 82 65 84 75 5 76 98 77 190 78 297 79 20 80 21 84 74 
87 14 88 1 89 90 90 33 91 80 92 31 93 30 97 10 98 10 99 1 
101 35 102 49 103 15 104 4 105 66 106 20 108 16 114 12 115 29 119 422 
120 59 121 1 125 12 126 30 127 68 128 4 129 12 130 10 139 41 140 3 
141 29 142 10 149 10 150 3 151 69 152 148 153 52 154 6 155 23 156 112 
165 11 166 7 167 197 168 44 169 23 177 3 178 128 179 165 180 999 181 26 
182 35 192 11 193 14 194 3 195 17 196 11 197 56 198 1 206 94 207 10 
209 26 223 3 224 26 225 103 226 143 227 30 
