Name: MassBank: JP006761
MW: 215
Formula: C7H5BrO3
Synonym: MassBank: JP006761
Synonym: 3-BROMO-4,5-DIHYDROXYBENZALDEHYDE
Structure: 332D42524F4D4F2D342C352D4449485944524F585942454E5A414C4445485944452E6D6F6C0A20204368656D447261773032323231303134313732440A2031312031312020302020302020302020302020302020302020302020303939392056323030300A2020202D302E303030302020202D312E3434333720202020302E303030302043202020302020302020302020302020302020302020302020302020302020302020302020300A2020202D302E303030302020202D302E3631383720202020302E303030302043202020302020302020302020302020302020302020302020302020302020302020302020300A20202020302E373134352020202D302E3230363220202020302E303030302043202020302020302020302020302020302020302020302020302020302020302020302020300A20202020302E3731343520202020302E3631383820202020302E303030302043202020302020302020302020302020302020302020302020302020302020302020302020300A2020202D302E3030303020202020312E3033313320202020302E303030302043202020302020302020302020302020302020302020302020302020302020302020302020300A2020202D302E3731343520202020302E3631383820202020302E303030302043202020302020302020302020302020302020302020302020302020302020302020302020300A2020202D302E373134352020202D302E3230363220202020302E303030302043202020302020302020302020302020302020302020302020302020302020302020302020300A2020202D302E373134352020202D312E3835363320202020302E30303030204F202020302020302020302020302020302020302020302020302020302020302020302020300A2020202D312E3432383920202020312E3033313320202020302E30303030204F202020302020302020302020302020302020302020302020302020302020302020302020300A2020202D302E3030303020202020312E3835363320202020302E30303030204F202020302020302020302020302020302020302020302020302020302020302020302020300A20202020312E3432383920202020312E3033313320202020302E303030302042722020302020302020302020302020302020302020302020302020302020302020302020300A2020312020322020312020302020202020200A2020322020332020312020302020202020200A2020332020342020322020302020202020200A2020342020352020312020302020202020200A2020352020362020322020302020202020200A2020362020372020312020302020202020200A2020322020372020322020302020202020200A2020312020382020322020302020202020200A2020362020392020312020302020202020200A2020352031302020312020302020202020200A2020342031312020312020302020202020200A4D2020454E44
Contributor: MASS SPECTROSCOPY SOC. OF JAPAN (MSSJ)
InstType: EI
InstName: HITACHI RMS-4
IoniMethod: _ENERGY 70 eV
IonPolarity: pos
Date: 2010-10-09 19:48:36+02:00
Num Peaks: 63
41 27 43 70 45 65 46 17 49 102 50 317 51 452 52 22 53 237 54 65 
55 86 58 2 60 27 61 108 62 177 63 16 64 32 65 22 66 27 67 2 
69 43 73 22 74 27 75 2 77 91 78 48 79 242 80 11 81 81 82 22 
90 43 91 3 94 27 95 27 107 188 108 15 109 43 117 22 118 22 119 2 
129 22 130 22 131 43 133 3 135 43 137 27 141 22 149 3 159 81 160 22 
161 70 169 2 171 20 187 204 188 54 189 19 190 54 215 999 216 839 217 97 
218 882 219 156 220 27 
