Name: TRANS-2-HEXENAL
MW: 98
Formula: C6H10O
Synonym: MassBank: JP008674
Synonym: TRANS-2-HEXENAL
Structure: 310A31380A5452414E532D322D484558454E414C2E6D6F6C0A20204368656D447261773038313231303037343832440A2020372020362020302020302020302020302020302020302020302020303939392056323030300A2020202D312E3432383920202020302E3230363320202020302E303030302043202020302020302020302020302020302020302020302020302020302020302020302020300A2020202D302E373134352020202D302E3230363320202020302E303030302043202020302020302020302020302020302020302020302020302020302020302020302020300A20202020302E3030303020202020302E3230363320202020302E303030302043202020302020302020302020302020302020302020302020302020302020302020302020300A20202020302E373134352020202D302E3230363220202020302E303030302043202020302020302020302020302020302020302020302020302020302020302020302020300A20202020312E3432383920202020302E3230363320202020302E303030302043202020302020302020302020302020302020302020302020302020302020302020302020300A20202020322E313433342020202D302E3230363220202020302E303030302043202020302020302020302020302020302020302020302020302020302020302020302020300A2020202D322E313433342020202D302E3230363320202020302E30303030204F202020302020302020302020302020302020302020302020302020302020302020302020300A2020312020322020312020302020202020200A2020322020332020322020302020202020200A2020332020342020312020302020202020200A2020342020352020312020302020202020200A2020352020362020312020302020202020200A2020312020372020322020302020202020200A4D2020454E44
Contributor: SODA AROMATIC CO., LTD.
InstType: EI
InstName: HITACHI M-80B
IoniMethod: _ENERGY 70 eV
IonPolarity: pos
Date: 2010-10-09 19:48:36+02:00
Num Peaks: 40
15 37 26 74 27 533 28 75 29 438 31 18 37 32 38 96 39 727 40 124 
41 999 42 570 43 175 44 20 50 46 51 60 52 26 53 117 54 93 55 640 
56 126 57 398 58 16 62 13 63 18 65 25 66 10 67 35 68 59 69 534 
70 161 71 14 79 51 80 62 81 22 83 467 84 24 97 75 98 205 99 14 
