Name: MassBank: JP004820
MW: 444
Formula: C32H32Si
Synonym: MassBank: JP004820
Synonym: 7,7-DIMESITYL-2,3,5,6-DIBENZO-7-SILANORBORNADIENE
Structure: 372C372D44494D45534954594C2D322C332C352C362D444942454E5A4F2D372D53494C414E4F52424F524E414449454E452E6D6F6C0A20204368656D447261773035323031303232313132440A2033332033382020302020302020302020302020302020302020302020303939392056323030300A2020202D312E3737383020202020302E3135363920202020302E303030302043202020302020302020302020302020302020302020302020302020302020302020302020300A2020202D322E313930352020202D302E3535373520202020302E303030302043202020302020302020302020302020302020302020302020302020302020302020302020300A2020202D312E373738302020202D312E3237323020202020302E303030302043202020302020302020302020302020302020302020302020302020302020302020302020300A2020202D302E393533302020202D312E3237323020202020302E303030302043202020302020302020302020302020302020302020302020302020302020302020302020300A2020202D302E353430352020202D302E3535373520202020302E303030302043202020302020302020302020302020302020302020302020302020302020302020302020300A2020202D302E3935333020202020302E3135363920202020302E303030302043202020302020302020302020302020302020302020302020302020302020302020302020300A20202020302E323536342020202D302E3737313120202020302E303030302043202020302020302020302020302020302020302020302020302020302020302020302020300A2020202D302E313536312020202D312E3438353520202020302E303030302043202020302020302020302020302020302020302020302020302020302020302020302020300A20202020302E383339372020202D312E3335343420202020302E303030302043202020302020302020302020302020302020302020302020302020302020302020302020300A20202020302E343237322020202D322E3036383920202020302E303030302043202020302020302020302020302020302020302020302020302020302020302020302020300A20202020302E3034323820202020302E3032353820202020302E303030302043202020302020302020302020302020302020302020302020302020302020302020302020300A20202020302E383339372020202D322E3738333420202020302E303030302043202020302020302020302020302020302020302020302020302020302020302020302020300A20202020312E363634372020202D322E3738333420202020302E303030302043202020302020302020302020302020302020302020302020302020302020302020302020300A20202020322E303737322020202D322E3036383920202020302E303030302043202020302020302020302020302020302020302020302020302020302020302020302020300A20202020312E363634372020202D312E3335343420202020302E303030302043202020302020302020302020302020302020302020302020302020302020302020302020300A20202020312E3135363120202020302E3733353120202020302E303030302043202020302020302020302020302020302020302020302020302020302020302020302020300A2020202D312E3334373520202020312E3139323520202020302E303030302043202020302020302020302020302020302020302020302020302020302020302020302020300A20202020312E3132303120202020312E3535393320202020302E303030302043202020302020302020302020302020302020302020302020302020302020302020302020300A20202020312E3831353920202020322E3030323520202020302E303030302043202020302020302020302020302020302020302020302020302020302020302020302020300A20202020322E3534373720202020312E3632313620202020302E303030302043202020302020302020302020302020302020302020302020302020302020302020302020300A20202020322E3538333720202020302E3739373420202020302E303030302043202020302020302020302020302020302020302020302020302020302020302020302020300A20202020312E3838373920202020302E3335343120202020302E303030302043202020302020302020302020302020302020302020302020302020302020302020302020300A2020202D322E3132323820202020302E3931303320202020302E303030302043202020302020302020302020302020302020302020302020302020302020302020302020300A2020202D322E3735343820202020312E3434303620202020302E303030302043202020302020302020302020302020302020302020302020302020302020302020302020300A2020202D322E3631313520202020322E3235333120202020302E303030302043202020302020302020302020302020302020302020302020302020302020302020302020300A2020202D312E3833363320202020322E3533353220202020302E303030302043202020302020302020302020302020302020302020302020302020302020302020302020300A2020202D312E3230343320202020322E3030343920202020302E303030302043202020302020302020302020302020302020302020302020302020302020302020302020300A20202020322E313230302020202D302E3639333020202020302E303030302043202020302020302020302020302020302020302020302020302020302020302020302020300A20202020302E3338383320202020312E3934303220202020302E303030302043202020302020302020302020302020302020302020302020302020302020302020302020300A20202020332E3234333520202020322E3036343920202020302E303030302043202020302020302020302020302020302020302020302020302020302020302020302020300A2020202D322E363539302020202D302E3031383520202020302E303030302043202020302020302020302020302020302020302020302020302020302020302020302020300A2020202D332E3234333520202020322E3738333420202020302E303030302043202020302020302020302020302020302020302020302020302020302020302020302020300A2020202D302E3432393020202020322E3238373120202020302E303030302043202020302020302020302020302020302020302020302020302020302020302020302020300A2020312020322020322020302020202020200A2020322020332020312020302020202020200A2020332020342020322020302020202020200A2020342020352020312020302020202020200A2020352020362020322020302020202020200A2020362020312020312020302020202020200A2020352020372020312020302020202020200A2020342020382020312020302020202020200A2020372020392020312020302020202020200A2020382031302020312020302020202020200A2020372031312020312020302020202020200A2031312020382020312020302020202020200A2020392031302020322020302020202020200A2031302031322020312020302020202020200A2031322031332020322020302020202020200A2031332031342020312020302020202020200A2031342031352020322020302020202020200A2031352020392020312020302020202020200A2031312031362020312020302020202020200A2031312031372020312020302020202020200A2031362031382020322020302020202020200A2031382031392020312020302020202020200A2031392032302020322020302020202020200A2032302032312020312020302020202020200A2032312032322020322020302020202020200A2032322031362020312020302020202020200A2031372032332020322020302020202020200A2032332032342020312020302020202020200A2032342032352020322020302020202020200A2032352032362020312020302020202020200A2032362032372020322020302020202020200A2032372031372020312020302020202020200A2032322032382020312020302020202020200A2031382032392020312020302020202020200A2032302033302020312020302020202020200A2032332033312020312020302020202020200A2032352033322020312020302020202020200A2032372033332020312020302020202020200A4D2020454E44
Contributor: MASS SPECTROSCOPY SOC. OF JAPAN (MSSJ)
InstType: EI
InstName: JEOL JMS-D-3000
IoniMethod: _ENERGY 20 eV
IonPolarity: pos
Date: 2010-10-09 19:48:36+02:00
Num Peaks: 26
146 629 147 518 148 96 149 20 160 196 161 39 178 115 179 19 221 18 222 11 
235 148 236 30 251 240 252 59 253 16 264 17 265 43 266 999 267 258 268 65 
324 43 325 13 444 454 445 186 446 51 447 11 
