Name: MassBank: JP002000
MW: 227
Formula: C12H9N3O2
Synonym: MassBank: JP002000
Synonym: 2-METHYL-8-NITROPYRROLO(3,2-F)QUINOLINE
Structure: 322D4D455448594C2D382D4E4954524F505952524F4C4F28332C322D46295155494E4F4C494E452E6D6F6C0A20204368656D447261773031323231303037333032440A2031372031392020302020302020302020302020302020302020302020303939392056323030300A2020202D302E333435302020202D312E3632383820202020302E30303030204E202020302020302020302020302020302020302020302020302020302020302020302020300A2020202D312E303539352020202D312E3231363320202020302E303030302043202020302020302020302020302020302020302020302020302020302020302020302020300A2020202D312E303539352020202D302E3339313320202020302E303030302043202020302020302020302020302020302020302020302020302020302020302020302020300A2020202D302E3334353020202020302E3032313220202020302E303030302043202020302020302020302020302020302020302020302020302020302020302020302020300A20202020302E333639352020202D302E3339313320202020302E303030302043202020302020302020302020302020302020302020302020302020302020302020302020300A20202020312E3038333920202020302E3032313220202020302E303030302043202020302020302020302020302020302020302020302020302020302020302020302020300A20202020312E373938342020202D302E3339313320202020302E303030302043202020302020302020302020302020302020302020302020302020302020302020302020300A20202020312E373938342020202D312E3231363320202020302E303030302043202020302020302020302020302020302020302020302020302020302020302020302020300A20202020312E303833392020202D312E3632383820202020302E303030302043202020302020302020302020302020302020302020302020302020302020302020302020300A20202020302E333639352020202D312E3231363320202020302E303030302043202020302020302020302020302020302020302020302020302020302020302020302020300A20202020322E3431313520202020302E3136303720202020302E30303030204E202020302020302020302020302020302020302020302020302020302020302020302020300A20202020312E3235353520202020302E3832383120202020302E303030302043202020302020302020302020302020302020302020302020302020302020302020302020300A20202020322E3037353920202020302E3931343420202020302E303030302043202020302020302020302020302020302020302020302020302020302020302020302020300A2020202D312E3737343020202020302E3032313220202020302E30303030204E202020302020332020302020302020302020302020302020302020302020302020302020300A2020202D312E3737343020202020302E3834363220202020302E30303030204F202020302020302020302020302020302020302020302020302020302020302020302020300A2020202D322E343838342020202D302E3339313320202020302E30303030204F202020302020352020302020302020302020302020302020302020302020302020302020300A20202020322E3438383420202020312E3632383820202020302E303030302043202020302020302020302020302020302020302020302020302020302020302020302020300A2020312020322020322020302020202020200A2020322020332020312020302020202020200A2020332020342020322020302020202020200A2020342020352020312020302020202020200A2020352020362020322020302020202020200A2020362020372020312020302020202020200A2020372020382020322020302020202020200A2020382020392020312020302020202020200A2020392031302020322020302020202020200A2020312031302020312020302020202020200A2020352031302020312020302020202020200A2031322031332020312020302020202020200A2031312031332020322020302020202020200A2020362031322020312020302020202020200A2020372031312020312020302020202020200A2031342031352020322020302020202020200A2031342031362020312020302020202020200A2020332031342020312020302020202020200A2031332031372020312020302020202020200A4D202043484720203220203134202020312020313620202D310A4D2020454E44
Contributor: SASAKI S, TOYOHASHI UNIV. OF TECH.
InstType: EI
InstName: Unknown
IoniMethod: _ENERGY 50 eV
IonPolarity: pos
Date: 2010-10-09 19:48:36+02:00
Num Peaks: 24
41 474 43 895 44 474 55 58 57 685 67 158 69 368 71 26 81 132 83 184 
84 132 85 11 90 105 95 79 97 105 98 8 127 237 153 132 154 840 169 13 
181 685 197 52 227 999 228 105 
