Name: 1-IODO-2-METHYLPROPANE
MW: 183
Formula: C4H9I
Synonym: MassBank: JP006806
Synonym: 1-IODO-2-METHYLPROPANE
Synonym: ISOBUTYL IODIDE
Structure: 310A31340A312D494F444F2D322D4D455448594C50524F50414E452E6D6F6C0A20204368656D447261773131313930393135343032440A2020352020342020302020302020302020302020302020302020302020303939392056323030300A20202020302E333537322020202D302E3631383820202020302E303030302043202020302020302020302020302020302020302020302020302020302020302020302020300A2020202D302E333537322020202D302E3230363220202020302E303030302043202020302020302020302020302020302020302020302020302020302020302020302020300A2020202D302E3335373220202020302E3631383820202020302E303030302043202020302020302020302020302020302020302020302020302020302020302020302020300A2020202D312E303731372020202D302E3631383720202020302E303030302043202020302020302020302020302020302020302020302020302020302020302020302020300A20202020312E303731372020202D302E3230363220202020302E303030302049202020302020302020302020302020302020302020302020302020302020302020302020300A2020312020322020312020302020202020200A2020322020332020312020302020202020200A2020322020342020312020302020202020200A2020312020352020312020302020202020200A4D2020454E44
Contributor: TAJIMA S, GUNMA COLLEGE OF TECHNOLOGY
InstType: EI
InstName: HITACHI RMU-7M
IoniMethod: _ENERGY 70 eV
IonPolarity: pos
Date: 2010-10-09 19:48:36+02:00
Num Peaks: 15
15 14 27 71 28 17 29 325 39 88 41 367 42 26 43 19 55 35 57 999 
58 44 127 12 141 10 169 10 184 107 
