Name: MassBank: JP004421
MW: 214
Formula: C14H18N2
Synonym: MassBank: JP004421
Synonym: 2,2,4-TRIMETHYL-1,2,3,4-TETRAHYDRO-GAMMA-CARBOLINE
Structure: 322C322C342D5452494D455448594C2D312C322C332C342D5445545241485944524F2D47414D4D412D434152424F4C494E452E6D6F6C0A20204368656D447261773132313930393039323032440A2031362031382020302020302020302020302020302020302020302020303939392056323030300A2020202D312E3532383820202020302E3637343020202020302E303030302043202020302020302020302020302020302020302020302020302020302020302020302020300A2020202D312E353238382020202D302E3135313020202020302E30303030204E202020302020302020302020302020302020302020302020302020302020302020302020300A2020202D302E383134332020202D302E3536333520202020302E303030302043202020302020302020302020302020302020302020302020302020302020302020302020300A2020202D302E303939392020202D302E3135313020202020302E303030302043202020302020302020302020302020302020302020302020302020302020302020302020300A2020202D302E3039393920202020302E3637343020202020302E303030302043202020302020302020302020302020302020302020302020302020302020302020302020300A2020202D302E3831343320202020312E3038363520202020302E303030302043202020302020302020302020302020302020302020302020302020302020302020302020300A20202020302E363834372020202D302E3430353920202020302E303030302043202020302020302020302020302020302020302020302020302020302020302020302020300A20202020312E3136393720202020302E3236313520202020302E303030302043202020302020302020302020302020302020302020302020302020302020302020302020300A20202020302E3638343720202020302E3932393020202020302E30303030204E202020302020302020302020302020302020302020302020302020302020302020302020300A20202020312E303230332020202D312E3135393620202020302E303030302043202020302020302020302020302020302020302020302020302020302020302020302020300A20202020312E383430382020202D312E3234353820202020302E303030302043202020302020302020302020302020302020302020302020302020302020302020302020300A20202020322E333235372020202D302E3537383420202020302E303030302043202020302020302020302020302020302020302020302020302020302020302020302020300A20202020312E3939303120202020302E3137353320202020302E303030302043202020302020302020302020302020302020302020302020302020302020302020302020300A2020202D312E3934313320202020312E3338383520202020302E303030302043202020302020302020302020302020302020302020302020302020302020302020302020300A2020202D322E3332353720202020302E3436303520202020302E303030302043202020302020302020302020302020302020302020302020302020302020302020302020300A2020202D302E383134332020202D312E3338383520202020302E303030302043202020302020302020302020302020302020302020302020302020302020302020302020300A2020312020322020312020302020202020200A2020322020332020312020302020202020200A2020332020342020312020302020202020200A2020342020352020322020302020202020200A2020352020362020312020302020202020200A2020362020312020312020302020202020200A2020342020372020312020302020202020200A2020372020382020322020302020202020200A2020382020392020312020302020202020200A2020392020352020312020302020202020200A2020372031302020312020302020202020200A2031302031312020322020302020202020200A2031312031322020312020302020202020200A2031322031332020322020302020202020200A2031332020382020312020302020202020200A2020312031342020312020312020202020200A2020312031352020312020362020202020200A2020332031362020312020302020202020200A4D2020454E44
Contributor: SASAKI S, TOYOHASHI UNIV. OF TECH.
InstType: EI
InstName: JEOL JMS-01-SG-2
IoniMethod: _ENERGY 75 eV
IonPolarity: pos
Date: 2010-10-09 19:48:36+02:00
Num Peaks: 16
42 10 43 70 44 10 77 1 92 7 115 13 117 10 128 1 129 15 130 20 
156 128 157 999 158 137 199 234 213 18 214 158 
