Name: PENTYL LACTATE
MW: 160
Formula: C8H16O3
Synonym: MassBank: JP009224
Synonym: PENTYL LACTATE
Synonym: AMYL LACTATE
Structure: 50454E54594C204C4143544154452E6D6F6C0A20204368656D447261773038313331303132303732440A2031312031302020302020302020302020302020302020302020302020303939392056323030300A20202020312E323337352020202D302E3030303020202020302E303030302043202020302020302020302020302020302020302020302020302020302020302020302020300A20202020322E303632352020202D302E3030303020202020302E303030302043202020302020302020302020302020302020302020302020302020302020302020302020300A20202020322E3437353020202020302E3731343520202020302E30303030204F202020302020302020302020302020302020302020302020302020302020302020302020300A20202020322E343735302020202D302E3731343520202020302E303030302043202020302020302020302020302020302020302020302020302020302020302020302020300A20202020302E3832353020202020302E3731343520202020302E30303030204F202020302020302020302020302020302020302020302020302020302020302020302020300A20202020302E383235302020202D302E3731343520202020302E30303030204F202020302020302020302020302020302020302020302020302020302020302020302020300A20202020302E303030302020202D302E3731343520202020302E303030302043202020302020302020302020302020302020302020302020302020302020302020302020300A2020202D302E3431323520202020302E3030303020202020302E303030302043202020302020302020302020302020302020302020302020302020302020302020302020300A2020202D312E3233373520202020302E3030303020202020302E303030302043202020302020302020302020302020302020302020302020302020302020302020302020300A2020202D312E3635303020202020302E3731343520202020302E303030302043202020302020302020302020302020302020302020302020302020302020302020302020300A2020202D322E3437353020202020302E3731343520202020302E303030302043202020302020302020302020302020302020302020302020302020302020302020302020300A2020312020322020312020302020202020200A2020322020332020312020302020202020200A2020322020342020312020302020202020200A2020312020352020322020302020202020200A2020312020362020312020302020202020200A2020372020382020312020302020202020200A2020382020392020312020302020202020200A2020392031302020312020302020202020200A2031302031312020312020302020202020200A2020362020372020312020302020202020200A4D2020454E44
Contributor: SODA AROMATIC CO., LTD.
InstType: EI
InstName: HITACHI M-80B
IoniMethod: _ENERGY 70 eV
IonPolarity: pos
Date: 2010-10-09 19:48:36+02:00
Num Peaks: 22
15 15 19 15 27 129 29 11 31 12 39 52 41 137 42 7 43 439 44 26 
45 999 46 2 55 80 56 17 63 10 69 2 70 138 71 107 75 24 85 2 
91 16 99 15 
