Name: DIMETHYLGLYOXIME
CAS: 95-45-4
MW: 116
Formula: C4H8N2O2
Synonym: MassBank: JP009515
Synonym: DIMETHYLGLYOXIME
Structure: 310A32300A303731355F44494D455448594C474C594F58494D452E6D6F6C0A20204368656D447261773130313931303232333832440A2020382020372020302020302020302020302020302020302020302020303939392056323030300A2020202D302E3431323520202020302E3030303020202020302E303030302043202020302020302020302020302020302020302020302020302020302020302020302020300A20202020302E3431323520202020302E3030303020202020302E303030302043202020302020302020302020302020302020302020302020302020302020302020302020300A20202020302E383235302020202D302E3731343520202020302E30303030204E202020302020302020302020302020302020302020302020302020302020302020302020300A20202020312E363530302020202D302E3731343520202020302E30303030204F202020302020302020302020302020302020302020302020302020302020302020302020300A2020202D302E383235302020202D302E3731343520202020302E30303030204E202020302020302020302020302020302020302020302020302020302020302020302020300A2020202D312E363530302020202D302E3731343520202020302E30303030204F202020302020302020302020302020302020302020302020302020302020302020302020300A2020202D302E3832353020202020302E3731343520202020302E303030302043202020302020302020302020302020302020302020302020302020302020302020302020300A20202020302E3832353020202020302E3731343520202020302E303030302043202020302020302020302020302020302020302020302020302020302020302020302020300A2020312020322020312020302020202020200A2020322020332020322020302020202020200A2020332020342020312020302020202020200A2020312020352020322020302020202020200A2020352020362020312020302020202020200A2020312020372020312020302020202020200A2020322020382020312020302020202020200A4D2020454E44
Contributor: NARA WOMEN'S UNIVERSITY
InstType: EI
InstName: HITACHI M-80
IoniMethod: _ENERGY 70 eV
IonPolarity: pos
Date: 2010-10-09 19:48:36+02:00
Num Peaks: 41
14 24 15 382 17 13 18 28 26 56 27 213 28 288 29 53 30 145 31 281 
37 21 38 55 39 137 40 273 41 340 42 999 43 115 44 40 50 31 51 56 
52 81 53 58 54 130 55 60 56 29 57 125 58 499 59 15 66 44 67 70 
68 218 69 94 81 52 82 35 84 73 98 42 99 348 100 19 101 13 116 511 
117 115 
