Name: MassBank: JP005805
CAS: 4695-62-9
MW: 152
Formula: C10H16O
Synonym: MassBank: JP005805
Synonym: 1,3,3-TRIMETHYLBICYCLO(2.2.1)HEPTAN-2-ONE
Synonym: (+)-FENCHONE
Structure: 282B292D46454E43484F4E452E6D6F6C0A20204368656D447261773130303630393134313732440A2031322031332020302020302020302020302020302020302020302020303939392056323030300A2020202D302E3035343320202020302E3431323520202020302E303030302043202020302020302020302020302020302020302020302020302020302020302020302020300A2020202D302E373638382020202D302E3030303020202020302E303030302043202020302020302020302020302020302020302020302020302020302020302020302020300A2020202D302E373638382020202D302E3832353020202020302E303030302043202020302020302020302020302020302020302020302020302020302020302020302020300A2020202D302E303534332020202D312E3233373520202020302E303030302043202020302020302020302020302020302020302020302020302020302020302020302020300A20202020302E363630322020202D302E3832353020202020302E303030302043202020302020302020302020302020302020302020302020302020302020302020302020300A20202020302E363630322020202D302E3030303020202020302E303030302043202020302020302020302020302020302020302020302020302020302020302020302020300A20202020302E303238312020202D302E3231333520202020302E303030302043202020302020302020302020302020302020302020302020302020302020302020302020300A2020202D302E3035313720202020312E3233373520202020302E30303030204F202020302020302020302020302020302020302020302020302020302020302020302020300A20202020312E333735382020202D312E3233373520202020302E303030302048202020302020302020302020302020302020302020302020302020302020302020302020300A20202020312E343834332020202D302E3030303020202020302E303030302043202020302020302020302020302020302020302020302020302020302020302020302020300A20202020302E3837323420202020302E3739373520202020302E303030302043202020302020302020302020302020302020302020302020302020302020302020302020300A2020202D312E3438343320202020302E3431323520202020302E303030302043202020302020302020302020302020302020302020302020302020302020302020302020300A2020312020322020312020302020202020200A2020322020332020312020302020202020200A2020332020342020312020302020202020200A2020342020352020312020302020202020200A2020352020362020312020302020202020200A2020362020312020312020302020202020200A2020322020372020312020312020202020200A2020352020372020312020312020202020200A2020312020382020322020302020202020200A2020352020392020312020362020202020200A2020362031302020312020302020202020200A2020362031312020312020302020202020200A2020322031322020312020302020202020200A4D202053545920203120202031205355500A4D2020534C4220203120202031202020310A4D202053414C20202031202031202031300A4D202053424C20202031202031202031310A4D2020534D5420202031204D650A4D2020534256202020312031312020202D362E3539303920202020352E373032380A4D202053545920203120202032205355500A4D2020534C4220203120202032202020320A4D202053414C20202032202031202031310A4D202053424C20202032202031202031320A4D2020534D5420202032204D650A4D2020534256202020322031322020202D372E3230323820202020362E353030330A4D202053545920203120202033205355500A4D2020534C4220203120202033202020330A4D202053414C20202033202031202031320A4D202053424C20202033202031202031330A4D2020534D5420202033204D650A4D2020534256202020332031332020202D382E3133303520202020362E313135330A4D2020454E44
Contributor: FUJISE Y, HAMAMATSU UNIV. SCHOOL OF MEDICINE
InstType: EI
InstName: JEOL JMS-D-300
IoniMethod: _ENERGY 70 eV
IonPolarity: pos
Date: 2010-10-09 19:48:36+02:00
Num Peaks: 16
53 30 55 24 67 42 68 35 69 397 70 27 72 21 77 13 79 31 80 137 
81 999 82 84 109 41 137 19 152 167 153 19 
