Name: MassBank: JP000954
CAS: 107-06-2
MW: 97
Formula: C2H4Cl2
Synonym: MassBank: JP000954
Synonym: 1,2-DICHLOROETHANE
Structure: 310A31320A312C322D444943484C4F524F455448414E452E6D6F6C0A20204368656D447261773131303330393233313032440A2020342020332020302020302020302020302020302020302020302020303939392056323030300A2020202D302E333537322020202D302E3230363320202020302E303030302043202020302020302020302020302020302020302020302020302020302020302020302020300A20202020302E3335373220202020302E3230363320202020302E303030302043202020302020302020302020302020302020302020302020302020302020302020302020300A20202020312E303731372020202D302E3230363220202020302E3030303020436C2020302020302020302020302020302020302020302020302020302020302020302020300A2020202D312E3037313720202020302E3230363320202020302E3030303020436C2020302020302020302020302020302020302020302020302020302020302020302020300A2020312020322020312020302020202020200A2020322020332020312020302020202020200A2020312020342020312020302020202020200A4D2020454E44
Contributor: KOGA M, UNIV. OF OCCUPATIONAL AND ENVIRONMENTAL HEALTH
InstType: EI
InstName: JEOL JMS-01-SG
IoniMethod: _ENERGY 70 eV
IonPolarity: pos
Date: 2010-10-09 19:48:36+02:00
Num Peaks: 18
25 30 26 131 27 398 28 3 35 42 36 26 47 21 48 2 49 249 51 78 
60 32 61 9 62 999 63 125 64 311 65 3 98 73 100 45 
