Name: N-HEXYL-EPSILON-CAPROLACTAM
MW: 197
Formula: C12H23NO
Synonym: MassBank: JP004150
Synonym: N-HEXYL-EPSILON-CAPROLACTAM
Structure: 4E2D484558594C2D455053494C4F4E2D434150524F4C414354414D2E6D6F6C0A20204368656D447261773038313231303032303832440A2031342031342020302020302020302020302020302020302020302020303939392056323030300A2020202D312E393339342020202D302E3532323020202020302E303030302043202020302020302020302020302020302020302020302020302020302020302020302020300A2020202D322E373237372020202D302E3237383820202020302E303030302043202020302020302020302020302020302020302020302020302020302020302020302020300A2020202D332E3032393120202020302E3438393220202020302E303030302043202020302020302020302020302020302020302020302020302020302020302020302020300A2020202D322E3631363620202020312E3230333720202020302E303030302043202020302020302020302020302020302020302020302020302020302020302020302020300A2020202D312E3739303120202020312E3333373720202020302E303030302043202020302020302020302020302020302020302020302020302020302020302020302020300A2020202D312E3230363820202020302E3735343420202020302E303030302043202020302020302020302020302020302020302020302020302020302020302020302020300A2020202D312E383136342020202D312E3333373720202020302E30303030204F202020302020302020302020302020302020302020302020302020302020302020302020300A2020202D312E323537372020202D302E3035373220202020302E30303030204E202020302020302020302020302020302020302020302020302020302020302020302020300A2020202D302E353433322020202D302E3436393720202020302E303030302043202020302020302020302020302020302020302020302020302020302020302020302020300A20202020302E313731322020202D302E3035373220202020302E303030302043202020302020302020302020302020302020302020302020302020302020302020302020300A20202020302E383835372020202D302E3436393720202020302E303030302043202020302020302020302020302020302020302020302020302020302020302020302020300A20202020312E363030322020202D302E3035373220202020302E303030302043202020302020302020302020302020302020302020302020302020302020302020302020300A20202020322E333134362020202D302E3436393720202020302E303030302043202020302020302020302020302020302020302020302020302020302020302020302020300A20202020332E303239312020202D302E3035373220202020302E303030302043202020302020302020302020302020302020302020302020302020302020302020302020300A2020312020322020312020302020202020200A2020322020332020312020302020202020200A2020332020342020312020302020202020200A2020342020352020312020302020202020200A2020352020362020312020302020202020200A2020312020372020322020302020202020200A2020312020382020312020302020202020200A2020362020382020312020302020202020200A2020392031302020312020302020202020200A2031302031312020312020302020202020200A2031312031322020312020302020202020200A2031322031332020312020302020202020200A2031332031342020312020302020202020200A2020382020392020312020302020202020200A4D2020454E44
Contributor: MASS SPECTROSCOPY SOC. OF JAPAN (MSSJ)
InstType: EI
InstName: HITACHI RMU-6E
IoniMethod: _ENERGY 70 eV
IonPolarity: pos
Date: 2010-10-09 19:48:36+02:00
Num Peaks: 145
26 10 27 140 28 150 29 14 30 170 31 6 32 6 33 0 37 2 38 4 
39 90 40 2 41 410 42 220 43 220 44 27 45 8 46 1 50 2 51 1 
52 4 53 31 54 29 55 30 56 160 57 90 58 23 59 0 60 4 64 2 
65 6 66 0 67 62 68 29 69 130 70 8 71 31 72 11 73 4 74 0 
75 5 76 4 77 6 78 0 79 14 80 6 81 32 82 2 83 28 84 90 
85 330 86 2 87 3 88 1 89 1 90 0 91 13 92 4 93 4 94 1 
95 24 96 27 97 26 98 62 99 94 100 13 101 4 102 0 103 4 104 4 
105 4 106 1 107 2 108 5 109 8 110 1 111 9 112 80 113 150 114 11 
115 8 116 2 117 3 118 0 121 2 122 3 123 5 124 1 125 8 126 999 
127 384 128 4 129 4 132 2 133 2 134 0 135 2 136 3 137 4 138 1 
139 4 140 260 141 80 142 1 143 1 144 1 145 1 149 0 150 3 151 3 
152 4 153 0 154 194 155 78 156 10 157 0 160 1 161 3 162 4 163 0 
164 1 165 1 166 5 167 1 168 60 169 40 170 6 171 0 178 1 179 1 
180 6 181 0 182 40 183 6 184 2 191 0 192 1 193 4 194 3 195 0 
196 16 197 310 198 68 199 1 200 1 
