Name: SULFOMETHOXAZOLE
MW: 253
Formula: C10H11N3O3S
Synonym: MassBank: JP006289
Synonym: SULFOMETHOXAZOLE
Synonym: 4-AMINO-N'-(5-METHYL-3-ISOXAZOLYL)-BENZENESULFONAMIDE
Structure: 53554C464F4D4554484F58415A4F4C452E6D6F6C0A20204368656D447261773033323531303034333432440A2031372031382020302020302020302020302020302020302020302020303939392056323030300A2020202D312E313734372020202D302E3039313520202020302E303030302043202020302020302020302020302020302020302020302020302020302020302020302020300A2020202D312E393939372020202D302E3039313520202020302E303030302043202020302020302020302020302020302020302020302020302020302020302020302020300A2020202D322E343132322020202D302E3830353920202020302E303030302043202020302020302020302020302020302020302020302020302020302020302020302020300A2020202D312E393939372020202D312E3532303420202020302E303030302043202020302020302020302020302020302020302020302020302020302020302020302020300A2020202D312E313734372020202D312E3532303420202020302E303030302043202020302020302020302020302020302020302020302020302020302020302020302020300A2020202D302E373632322020202D302E3830353920202020302E303030302043202020302020302020302020302020302020302020302020302020302020302020302020300A2020202D302E3736323220202020302E3632333020202020302E303030302053202020302020302020302020302020302020302020302020302020302020302020302020300A2020202D302E3034373820202020302E3231303520202020302E30303030204F202020302020302020302020302020302020302020302020302020302020302020302020300A2020202D312E3437363720202020312E3033353520202020302E30303030204F202020302020302020302020302020302020302020302020302020302020302020302020300A2020202D302E3334393720202020312E3333373520202020302E30303030204E202020302020302020302020302020302020302020302020302020302020302020302020300A20202020312E3734343820202020302E3932353020202020302E30303030204F202020302020302020302020302020302020302020302020302020302020302020302020300A20202020302E3936303220202020302E3637303020202020302E30303030204E202020302020302020302020302020302020302020302020302020302020302020302020300A20202020302E3437353320202020312E3333373520202020302E303030302043202020302020302020302020302020302020302020302020302020302020302020302020300A20202020302E3936303220202020322E3030343920202020302E303030302043202020302020302020302020302020302020302020302020302020302020302020302020300A20202020312E3734343820202020312E3735303020202020302E303030302043202020302020302020302020302020302020302020302020302020302020302020302020300A20202020322E3431323220202020322E3233343920202020302E303030302043202020302020302020302020302020302020302020302020302020302020302020302020300A2020202D322E343132322020202D322E3233343920202020302E30303030204E202020302020302020302020302020302020302020302020302020302020302020302020300A2020312020322020312020302020202020200A2020322020332020322020302020202020200A2020332020342020312020302020202020200A2020342020352020322020302020202020200A2020352020362020312020302020202020200A2020312020362020322020302020202020200A2020372020382020322020302020202020200A2020372020392020322020302020202020200A2020372031302020312020302020202020200A2020312020372020312020302020202020200A2031312031322020312020302020202020200A2031322031332020322020302020202020200A2031332031342020312020302020202020200A2031342031352020322020302020202020200A2031312031352020312020302020202020200A2031352031362020312020302020202020200A2031302031332020312020302020202020200A2020342031372020312020302020202020200A4D2020454E44
Contributor: MASS SPECTROSCOPY SOC. OF JAPAN (MSSJ)
InstType: EI
InstName: HITACHI M-80
IoniMethod: _ENERGY 70 eV
IonPolarity: pos
Date: 2010-10-09 19:48:36+02:00
Num Peaks: 62
15 10 27 14 28 58 30 9 39 107 40 17 41 56 42 25 43 110 52 39 
53 24 54 20 55 18 63 24 64 47 65 484 66 84 67 51 68 20 69 15 
78 9 79 30 80 61 81 6 83 9 90 14 91 59 92 999 93 102 97 9 
98 11 105 20 106 87 107 52 108 544 109 44 118 35 119 334 120 31 123 8 
124 7 140 96 141 9 142 5 145 6 146 24 147 28 156 497 157 51 158 27 
160 15 162 353 163 39 174 193 175 21 188 48 189 114 190 14 191 6 253 117 
254 28 255 20 
