Name: MassBank: JP004611
MW: 298
Formula: C15H22O4S
Synonym: MassBank: JP004611
Synonym: 1,1-ETHYLENEDIOXY-5-HYDROXY-5-METHYL-4-PHENYLSULFOXYHEXANE
Structure: 312C312D455448594C454E4544494F58592D352D485944524F58592D352D4D455448594C2D342D5048454E594C53554C464F5859484558414E452E6D6F6C0A20204368656D447261773130323330393131323332440A2032302032312020302020302020302020302020302020302020302020303939392056323030300A20202020302E3030303020202020322E3238343820202020302E30303030204F202020302020302020302020302020302020302020302020302020302020302020302020300A20202020302E3030303020202020312E3435393820202020302E303030302043202020302020302020302020302020302020302020302020302020302020302020302020300A20202020302E3731343520202020312E3034373320202020302E303030302043202020302020302020302020302020302020302020302020302020302020302020302020300A2020202D302E3731343520202020312E3034373320202020302E303030302043202020302020302020302020302020302020302020302020302020302020302020302020300A20202020312E3432383920202020312E3435393820202020302E303030302043202020302020302020302020302020302020302020302020302020302020302020302020300A20202020322E3134333420202020312E3837323320202020302E30303030204F202020302020302020302020302020302020302020302020302020302020302020302020300A20202020312E3031363420202020322E3137343220202020302E303030302043202020302020302020302020302020302020302020302020302020302020302020302020300A20202020312E3834313420202020302E3734353320202020302E303030302043202020302020302020302020302020302020302020302020302020302020302020302020300A20202020302E3731343520202020302E3232323320202020302E303030302043202020302020302020302020302020302020302020302020302020302020302020302020300A20202020312E343238392020202D302E3139303220202020302E303030302043202020302020302020302020302020302020302020302020302020302020302020302020300A2020202D312E3432383920202020312E3435393820202020302E303030302043202020302020302020302020302020302020302020302020302020302020302020302020300A2020202D322E3134333420202020312E3034373320202020302E303030302043202020302020302020302020302020302020302020302020302020302020302020302020300A2020202D322E3134333420202020302E3232323320202020302E303030302043202020302020302020302020302020302020302020302020302020302020302020302020300A2020202D312E343238392020202D302E3139303220202020302E303030302043202020302020302020302020302020302020302020302020302020302020302020302020300A2020202D302E3731343520202020302E3232323320202020302E303030302043202020302020302020302020302020302020302020302020302020302020302020302020300A20202020312E343238392020202D312E3031353220202020302E303030302043202020302020302020302020302020302020302020302020302020302020302020302020300A20202020302E373631352020202D312E3530303220202020302E30303030204F202020302020302020302020302020302020302020302020302020302020302020302020300A20202020312E303136342020202D322E3238343820202020302E303030302043202020302020302020302020302020302020302020302020302020302020302020302020300A20202020312E383431342020202D322E3238343820202020302E303030302043202020302020302020302020302020302020302020302020302020302020302020302020300A20202020322E303936342020202D312E3530303220202020302E30303030204F202020302020302020302020302020302020302020302020302020302020302020302020300A2020312020322020322020302020202020200A2020322020332020312020302020202020200A2020322020342020312020302020202020200A2020332020352020312020302020202020200A2020352020362020312020302020202020200A2020352020372020312020302020202020200A2020352020382020312020302020202020200A2020332020392020312020302020202020200A2020392031302020312020302020202020200A2020342031312020322020302020202020200A2031312031322020312020302020202020200A2031322031332020322020302020202020200A2031332031342020312020302020202020200A2031342031352020322020302020202020200A2031352020342020312020302020202020200A2031302031362020312020302020202020200A2031362031372020312020302020202020200A2031372031382020312020302020202020200A2031382031392020312020302020202020200A2031392032302020312020302020202020200A2032302031362020312020302020202020200A4D2020454E44
Contributor: KATO T, DEPT. OF CHEM., FAC. OF SCI., TOHOKU UNIV.
InstType: EI
InstName: Unknown
IoniMethod: _ENERGY 25 eV
IonPolarity: pos
Date: 2010-10-09 19:48:36+02:00
Num Peaks: 89
15 30 17 17 18 673 28 999 29 27 30 16 31 15 32 14 39 16 41 93 
43 423 44 2 45 314 51 20 55 50 56 3 57 229 58 45 59 110 61 2 
65 12 66 134 67 17 69 20 70 10 71 74 72 10 73 62 74 62 77 84 
78 58 79 2 81 15 82 50 83 98 84 2 85 224 86 102 87 24 88 4 
91 72 92 13 93 15 94 2 95 72 97 22 99 70 100 2 101 715 102 16 
103 10 108 2 109 39 110 357 111 377 112 2 113 107 114 34 115 30 116 1 
117 79 118 12 125 50 126 6 127 16 128 20 129 37 135 13 136 633 137 37 
138 32 139 3 149 24 151 52 154 13 155 8 157 19 171 21 173 156 174 4 
178 16 191 11 220 10 222 2 223 80 224 80 225 21 226 1 280 13 
