Name: ACRYLONITRILE
CAS: 107-13-1
MW: 53
Formula: C3H3N
Synonym: MassBank: JP000948
Synonym: ACRYLONITRILE
Synonym: 2-PROPENENITRILE
Structure: 310A31320A414352594C4F4E495452494C452E6D6F6C0A20204368656D447261773032323131303134343832440A2020342020332020302020302020302020302020302020302020302020303939392056323030300A2020202D302E323036322020202D302E3335373220202020302E303030302043202020302020302020302020302020302020302020302020302020302020302020302020300A20202020302E363138382020202D302E3335373220202020302E303030302043202020302020302020302020302020302020302020302020302020302020302020302020300A20202020312E3033313320202020302E3335373220202020302E303030302043202020302020302020302020302020302020302020302020302020302020302020302020300A2020202D312E303331332020202D302E3335373220202020302E30303030204E202020302020302020302020302020302020302020302020302020302020302020302020300A2020312020322020312020302020202020200A2020322020332020322020302020202020200A2020312020342020332020302020202020200A4D2020454E44
Contributor: KOGA M, UNIV. OF OCCUPATIONAL AND ENVIRONMENTAL HEALTH
InstType: EI
InstName: JEOL JMS-01-SG
IoniMethod: _ENERGY 70 eV
IonPolarity: pos
Date: 2010-10-09 19:48:36+02:00
Num Peaks: 14
24 37 25 102 26 785 27 16 28 44 36 36 37 62 38 10 39 30 50 91 
51 335 52 80 53 999 54 32 
