Name: TRANS-MENTHONE
CAS: 89-80-5
MW: 154
Formula: C10H18O
Synonym: MassBank: JP007382
Synonym: TRANS-MENTHONE
Synonym: TRNS-5-METHYL-2-(1-METHYLETHYL)CYCLOHEXANONE
Structure: 5452414E532D4D454E54484F4E452E6D6F6C0A20204368656D447261773038313231303038313232440A2031312031312020302020302020302020302020302020302020302020303939392056323030300A20202020302E3230363220202020302E3335373220202020302E303030302043202020302020302020302020302020302020302020302020302020302020302020302020300A20202020302E363138372020202D302E3335373220202020302E303030302043202020302020302020302020302020302020302020302020302020302020302020302020300A20202020302E323036322020202D312E3037313720202020302E303030302043202020302020302020302020302020302020302020302020302020302020302020302020300A2020202D302E363138382020202D312E3037313720202020302E303030302043202020302020302020302020302020302020302020302020302020302020302020302020300A2020202D312E303331332020202D302E3335373220202020302E303030302043202020302020302020302020302020302020302020302020302020302020302020302020300A2020202D302E3631383820202020302E3335373220202020302E303030302043202020302020302020302020302020302020302020302020302020302020302020302020300A2020202D312E383536332020202D302E3335373220202020302E303030302043202020302020302020302020302020302020302020302020302020302020302020302020300A20202020312E343433372020202D302E3335373220202020302E303030302043202020302020302020302020302020302020302020302020302020302020302020302020300A20202020312E383536332020202D312E3037313720202020302E303030302043202020302020302020302020302020302020302020302020302020302020302020302020300A20202020312E3835363320202020302E3335373220202020302E303030302043202020302020302020302020302020302020302020302020302020302020302020302020300A20202020302E3631383720202020312E3037313720202020302E30303030204F202020302020302020302020302020302020302020302020302020302020302020302020300A2020312020322020312020302020202020200A2020322020332020312020302020202020200A2020332020342020312020302020202020200A2020342020352020312020302020202020200A2020352020362020312020302020202020200A2020312020362020312020302020202020200A2020352020372020312020312020202020200A2020382020392020312020302020202020200A2020382031302020312020302020202020200A2020322020382020312020362020202020200A2020312031312020322020302020202020200A4D2020454E44
Contributor: YAMAMOTO M, DEP. CHEMISTRY, FAC. SCIENCE, NARA WOMEN'S UNIV.
InstType: EI
InstName: HITACHI M-80
IoniMethod: _ENERGY 70 eV
IonPolarity: pos
Date: 2010-10-09 19:48:36+02:00
Num Peaks: 31
55 176 56 155 57 36 58 11 67 19 68 20 69 380 70 201 71 29 79 12 
81 27 83 159 84 114 85 16 93 23 94 20 95 105 96 12 97 186 98 75 
109 16 110 57 111 207 112 999 113 75 121 41 125 58 139 390 140 39 154 280 
155 32 
