Name: DESMOSTEROL
CAS: 313-04-2
MW: 384
Formula: C27H44O
Synonym: MassBank: JP009550
Synonym: DESMOSTEROL
Structure: 4445534D4F535445524F4C2E6D6F6C0A20204368656D447261773039323131303039333332440A2033342033372020302020302020302020302020302020302020302020303939392056323030300A2020202D332E363932352020202D312E3036323320202020302E303030302043202020302020302020302020302020302020302020302020302020302020302020302020300A2020202D332E363932352020202D312E3838373320202020302E303030302043202020302020302020302020302020302020302020302020302020302020302020302020300A2020202D322E393738302020202D322E3239393820202020302E303030302043202020302020302020302020302020302020302020302020302020302020302020302020300A2020202D322E323633352020202D312E3838373320202020302E303030302043202020302020302020302020302020302020302020302020302020302020302020302020300A2020202D322E323633352020202D312E3036323320202020302E303030302043202020302020302020302020302020302020302020302020302020302020302020302020300A2020202D322E393738302020202D302E3634393820202020302E303030302043202020302020302020302020302020302020302020302020302020302020302020302020300A2020202D312E353439312020202D322E3239393820202020302E303030302043202020302020302020302020302020302020302020302020302020302020302020302020300A2020202D302E383334362020202D312E3838373320202020302E303030302043202020302020302020302020302020302020302020302020302020302020302020302020300A2020202D302E383334362020202D312E3036323320202020302E303030302043202020302020302020302020302020302020302020302020302020302020302020302020300A2020202D312E353439312020202D302E3634393820202020302E303030302043202020302020302020302020302020302020302020302020302020302020302020302020300A2020202D302E313230312020202D302E3634393820202020302E303030302043202020302020302020302020302020302020302020302020302020302020302020302020300A2020202D302E3132303120202020302E3137353220202020302E303030302043202020302020302020302020302020302020302020302020302020302020302020302020300A2020202D302E3833343620202020302E3538373720202020302E303030302043202020302020302020302020302020302020302020302020302020302020302020302020300A2020202D312E3534393120202020302E3137353220202020302E303030302043202020302020302020302020302020302020302020302020302020302020302020302020300A20202020302E363634352020202D302E3930343720202020302E303030302043202020302020302020302020302020302020302020302020302020302020302020302020300A20202020312E313439342020202D302E3233373320202020302E303030302043202020302020302020302020302020302020302020302020302020302020302020302020300A20202020302E3636343520202020302E3433303220202020302E303030302043202020302020302020302020302020302020302020302020302020302020302020302020300A20202020302E3931393420202020312E3231343820202020302E303030302043202020302020302020302020302020302020302020302020302020302020302020302020300A20202020312E3133333020202020322E3031313720202020302E303030302048202020302020302020302020302020302020302020302020302020302020302020302020300A20202020312E3731303520202020302E3938303520202020302E303030302043202020302020302020302020302020302020302020302020302020302020302020302020300A20202020302E3132383420202020312E3434393120202020302E303030302043202020302020302020302020302020302020302020302020302020302020302020302020300A20202020322E3330383920202020312E3534383420202020302E303030302043202020302020302020302020302020302020302020302020302020302020302020302020300A20202020332E3039393920202020312E3331343120202020302E303030302043202020302020302020302020302020302020302020302020302020302020302020302020300A20202020332E3639383320202020312E3838323020202020302E303030302043202020302020302020302020302020302020302020302020302020302020302020302020300A20202020342E3438393420202020312E3634373620202020302E303030302043202020302020302020302020302020302020302020302020302020302020302020302020300A20202020332E3530353820202020322E3638343220202020302E303030302043202020302020302020302020302020302020302020302020302020302020302020302020300A2020202D302E3132303120202020312E3030303220202020302E303030302043202020302020302020302020302020302020302020302020302020302020302020302020300A2020202D302E313230312020202D312E3437343820202020302E303030302048202020302020302020302020302020302020302020302020302020302020302020302020300A2020202D312E363830322020202D312E3634353620202020302E303030302043202020302020302020302020302020302020302020302020302020302020302020302020300A2020202D332E393036302020202D322E3638343220202020302E30303030204F202020302020302020302020302020302020302020302020302020302020302020302020300A2020202D342E343839342020202D322E3130303820202020302E303030302048202020302020302020302020302020302020302020302020302020302020302020302020300A2020202D322E323633352020202D302E3233373320202020302E303030302048202020302020302020302020302020302020302020302020302020302020302020302020300A20202020312E3436313420202020302E3634333720202020302E303030302048202020302020302020302020302020302020302020302020302020302020302020302020300A20202020302E323932342020202D312E3336343220202020302E303030302048202020302020302020302020302020302020302020302020302020302020302020302020300A2020312020322020312020302020202020200A2020322020332020312020302020202020200A2020332020342020312020302020202020200A2020342020352020312020302020202020200A2020352020362020312020302020202020200A2020362020312020312020302020202020200A2020342020372020322020302020202020200A2020372020382020312020302020202020200A2020382020392020312020302020202020200A2020392031302020312020302020202020200A2031302020352020312020302020202020200A2020392031312020312020302020202020200A2031312031322020312020302020202020200A2031322031332020312020302020202020200A2031332031342020312020302020202020200A2031342031302020312020302020202020200A2031312031352020312020302020202020200A2031352031362020312020302020202020200A2031362031372020312020302020202020200A2031372031322020312020302020202020200A2031372031382020312020302020202020200A2031382031392020312020312020202020200A2031382032302020312020302020202020200A2031382032312020312020302020202020200A2032302032322020312020302020202020200A2032322032332020312020302020202020200A2032332032342020322020302020202020200A2032342032352020312020302020202020200A2032342032362020312020302020202020200A2031322032372020312020312020202020200A2020392032382020312020312020202020200A2020352032392020312020312020202020200A2020322033302020312020312020202020200A2020322033312020312020362020202020200A2031302033322020312020362020202020200A2031372033332020312020362020202020200A2031312033342020312020362020202020200A4D2020454E44
Contributor: NARA WOMEN'S UNIVERSITY
InstType: EI
InstName: HITACHI M-80
IoniMethod: _ENERGY 70 eV
IonPolarity: pos
Date: 2010-10-09 19:48:36+02:00
Num Peaks: 173
18 29 27 20 28 197 29 35 32 46 39 32 41 191 42 20 43 73 53 32 
55 198 56 72 57 72 65 12 67 107 68 36 69 501 70 55 71 22 77 31 
78 12 79 98 80 22 81 195 82 100 83 94 84 16 85 11 91 105 92 32 
93 128 94 52 95 225 96 42 97 47 105 147 106 47 107 202 108 54 109 154 
111 43 115 14 117 48 118 33 119 113 120 94 121 126 122 35 123 81 124 24 
125 20 128 14 129 32 130 18 131 89 132 47 133 139 134 48 135 91 136 24 
137 43 138 53 139 10 141 12 142 12 143 72 144 45 145 174 146 51 147 120 
148 32 149 58 150 20 151 31 152 42 155 13 156 13 157 60 158 88 159 149 
160 65 161 116 162 36 163 70 164 28 165 16 169 15 171 55 172 24 173 70 
174 27 175 60 176 36 177 39 178 18 179 10 183 17 185 50 186 24 187 50 
188 16 189 36 190 12 191 27 197 33 198 13 199 59 200 18 201 31 203 25 
204 10 205 18 206 10 211 32 212 17 213 118 214 38 215 39 216 13 217 27 
225 16 227 29 228 34 229 58 230 44 231 69 232 23 239 32 240 14 241 19 
243 22 244 13 245 34 246 27 253 85 254 32 255 62 256 17 257 28 258 48 
259 19 267 16 269 16 270 130 271 999 272 306 273 110 274 22 281 28 282 17 
283 15 285 28 286 10 298 11 299 173 300 299 301 69 302 11 313 12 314 17 
324 11 325 12 351 112 352 33 366 48 367 19 368 13 369 315 370 93 371 15 
384 421 385 126 386 23 
