Name: NERAL DIMETHYL ACETAL
MW: 198
Formula: C12H22O2
Synonym: MassBank: JP008659
Synonym: NERAL DIMETHYL ACETAL
Synonym: CIS-3,7-DIMETHYL-2,6-OCTADIENAL DIMETHYL ACETAL
Structure: 4E4552414C2044494D455448594C2041434554414C2E6D6F6C0A20204368656D447261773039303831303039353132440A2031342031332020302020302020302020302020302020302020302020303939392056323030300A20202020312E343433382020202D302E3030303020202020302E303030302043202020302020302020302020302020302020302020302020302020302020302020302020300A20202020312E3033313220202020302E3731343520202020302E303030302043202020302020302020302020302020302020302020302020302020302020302020302020300A20202020302E3230363320202020302E3731343520202020302E303030302043202020302020302020302020302020302020302020302020302020302020302020302020300A2020202D302E3230363320202020312E3432383920202020302E303030302043202020302020302020302020302020302020302020302020302020302020302020302020300A2020202D302E323036332020202D302E3030303020202020302E303030302043202020302020302020302020302020302020302020302020302020302020302020302020300A2020202D312E303331322020202D302E3030303020202020302E303030302043202020302020302020302020302020302020302020302020302020302020302020302020300A2020202D312E343433382020202D302E3731343520202020302E303030302043202020302020302020302020302020302020302020302020302020302020302020302020300A2020202D322E323638372020202D302E3731343520202020302E303030302043202020302020302020302020302020302020302020302020302020302020302020302020300A2020202D322E363831322020202D312E3432383920202020302E303030302043202020302020302020302020302020302020302020302020302020302020302020302020300A2020202D322E3638313320202020302E3030303020202020302E303030302043202020302020302020302020302020302020302020302020302020302020302020302020300A20202020322E323638382020202D302E3030303020202020302E30303030204F202020302020302020302020302020302020302020302020302020302020302020302020300A20202020312E303331332020202D302E3731343520202020302E30303030204F202020302020302020302020302020302020302020302020302020302020302020302020300A20202020322E3638313320202020302E3731343520202020302E303030302043202020302020302020302020302020302020302020302020302020302020302020302020300A20202020312E343433382020202D312E3432383920202020302E303030302043202020302020302020302020302020302020302020302020302020302020302020302020300A2020312020322020312020302020202020200A2020322020332020322020302020202020200A2020332020342020312020302020202020200A2020332020352020312020302020202020200A2020352020362020312020302020202020200A2020362020372020312020302020202020200A2020372020382020322020302020202020200A2020382020392020312020302020202020200A2020382031302020312020302020202020200A2031312031332020312020302020202020200A2031322031342020312020302020202020200A2020312031312020312020302020202020200A2020312031322020312020302020202020200A4D2020454E44
Contributor: SODA AROMATIC CO., LTD.
InstType: EI
InstName: HITACHI M-80B
IoniMethod: _ENERGY 70 eV
IonPolarity: pos
Date: 2010-10-09 19:48:36+02:00
Num Peaks: 80
15 74 27 195 29 207 30 14 31 206 38 12 39 319 40 32 41 999 42 42 
43 122 45 263 47 17 50 15 51 56 52 28 53 225 54 39 55 200 56 16 
57 14 58 18 59 44 63 15 65 57 66 22 67 160 68 37 69 756 70 34 
71 52 73 463 74 19 75 148 77 112 78 25 79 121 80 37 81 67 82 36 
83 283 84 30 85 46 86 292 87 34 91 210 92 35 93 148 94 29 95 50 
97 28 98 244 99 35 103 12 105 54 106 15 107 57 108 30 109 61 110 38 
111 36 115 52 117 16 119 189 120 17 121 49 122 13 123 820 124 58 125 11 
128 23 129 21 134 48 135 40 136 14 137 14 141 37 151 82 166 76 167 14 
