Name: 4-METHOXYCINNAMIC ACID
CAS: 830-09-1
MW: 178
Formula: C10H10O3
Synonym: MassBank: JP005725
Synonym: 4-METHOXYCINNAMIC ACID
Structure: 342D4D4554484F585943494E4E414D494320414349442E6D6F6C0A20204368656D447261773034323031303232353432440A2031332031332020302020302020302020302020302020302020302020303939392056323030300A2020202D322E3236383820202020302E3335373220202020302E303030302043202020302020302020302020302020302020302020302020302020302020302020302020300A2020202D312E3434333820202020302E3335373220202020302E303030302043202020302020302020302020302020302020302020302020302020302020302020302020300A2020202D312E303331322020202D302E3335373220202020302E303030302043202020302020302020302020302020302020302020302020302020302020302020302020300A2020202D302E323036322020202D302E3335373220202020302E303030302043202020302020302020302020302020302020302020302020302020302020302020302020300A20202020302E3230363320202020302E3335373220202020302E303030302043202020302020302020302020302020302020302020302020302020302020302020302020300A20202020312E3033313220202020302E3335373220202020302E303030302043202020302020302020302020302020302020302020302020302020302020302020302020300A20202020312E343433382020202D302E3335373220202020302E303030302043202020302020302020302020302020302020302020302020302020302020302020302020300A20202020312E303331332020202D312E3037313720202020302E303030302043202020302020302020302020302020302020302020302020302020302020302020302020300A20202020302E323036332020202D312E3037313720202020302E303030302043202020302020302020302020302020302020302020302020302020302020302020302020300A2020202D322E363831332020202D302E3335373220202020302E30303030204F202020302020302020302020302020302020302020302020302020302020302020302020300A2020202D322E3638313320202020312E3037313720202020302E30303030204F202020302020302020302020302020302020302020302020302020302020302020302020300A20202020322E323638372020202D302E3335373220202020302E30303030204F202020302020302020302020302020302020302020302020302020302020302020302020300A20202020322E363831332020202D312E3037313720202020302E303030302043202020302020302020302020302020302020302020302020302020302020302020302020300A2020312020322020312020302020202020200A2020322020332020322020302020202020200A2020332020342020312020302020202020200A2020342020352020312020302020202020200A2020352020362020322020302020202020200A2020362020372020312020302020202020200A2020372020382020322020302020202020200A2020382020392020312020302020202020200A2020342020392020322020302020202020200A2020312031302020322020302020202020200A2020312031312020312020302020202020200A2031322031332020312020302020202020200A2020372031322020312020302020202020200A4D2020454E44
Contributor: MASS SPECTROSCOPY SOC. OF JAPAN (MSSJ)
InstType: EI
InstName: HITACHI M-80
IoniMethod: _ENERGY 70 eV
IonPolarity: pos
Date: 2010-10-09 19:48:36+02:00
Num Peaks: 75
15 96 26 17 27 25 37 13 38 39 39 96 40 13 45 91 49 6 50 87 
51 105 52 25 53 38 61 15 62 89 63 217 64 88 65 71 66 13 67 5 
74 47 75 56 76 35 77 200 78 37 79 127 80 13 86 7 87 14 88 6 
89 217 90 125 91 80 92 57 93 8 94 6 101 15 102 44 103 42 104 5 
105 8 107 62 108 14 109 6 117 87 118 87 119 14 120 4 121 51 122 9 
124 10 125 12 132 133 133 206 134 27 135 52 136 10 137 13 145 9 146 13 
147 36 148 5 149 10 150 20 152 7 160 13 161 330 162 39 163 43 164 9 
176 21 177 180 178 999 179 101 180 10 
