Name: 1.3-CYCLOOCTADIENE
MW: 108
Formula: C8H12
Synonym: MassBank: JP001557
Synonym: 1.3-CYCLOOCTADIENE
Structure: 310A32310A312E332D4359434C4F4F4354414449454E452E6D6F6C0A20204368656D447261773131323230393233303732440A2020382020382020302020302020302020302020302020302020302020303939392056323030300A20202020302E393935392020202D302E3431323520202020302E303030302043202020302020302020302020302020302020302020302020302020302020302020302020300A20202020302E343132352020202D302E3939353920202020302E303030302043202020302020302020302020302020302020302020302020302020302020302020302020300A2020202D302E343132352020202D302E3939353920202020302E303030302043202020302020302020302020302020302020302020302020302020302020302020302020300A2020202D302E393935392020202D302E3431323520202020302E303030302043202020302020302020302020302020302020302020302020302020302020302020302020300A2020202D302E3939353920202020302E3431323520202020302E303030302043202020302020302020302020302020302020302020302020302020302020302020302020300A2020202D302E3431323520202020302E3939353920202020302E303030302043202020302020302020302020302020302020302020302020302020302020302020302020300A20202020302E3431323520202020302E3939353920202020302E303030302043202020302020302020302020302020302020302020302020302020302020302020302020300A20202020302E3939353920202020302E3431323520202020302E303030302043202020302020302020302020302020302020302020302020302020302020302020302020300A2020312020322020322020302020202020200A2020322020332020312020302020202020200A2020332020342020322020302020202020200A2020342020352020312020302020202020200A2020352020362020312020302020202020200A2020362020372020312020302020202020200A2020372020382020312020302020202020200A2020312020382020312020302020202020200A4D2020454E44
Contributor: YAMAMOTO M, DEP. CHEMISTRY, FAC. SCIENCE, NARA WOMEN'S UNIV.
InstType: EI
InstName: HITACHI RMU-6M
IoniMethod: _ENERGY 70 eV
IonPolarity: pos
Date: 2010-10-09 19:48:36+02:00
Num Peaks: 35
26 23 27 219 28 35 29 39 38 33 39 385 40 55 41 286 42 15 50 61 
51 139 52 86 53 102 54 135 55 23 62 14 63 38 65 144 66 192 67 525 
68 37 74 11 77 312 78 121 79 999 80 541 81 49 91 189 92 24 93 505 
94 40 105 15 107 39 108 443 109 39 
