Name: SEC-BUTYL BROMIDE
MW: 135
Formula: C4H9Br
Synonym: MassBank: JP008922
Synonym: SEC-BUTYL BROMIDE
Structure: 310A31340A5345432D425554594C2042524F4D4944452E6D6F6C0A20204368656D447261773038313231303036343232440A2020352020342020302020302020302020302020302020302020302020303939392056323030300A20202020302E333537322020202D302E3230363220202020302E303030302043202020302020302020302020302020302020302020302020302020302020302020302020300A2020202D302E333537322020202D302E3631383820202020302E303030302043202020302020302020302020302020302020302020302020302020302020302020302020300A2020202D312E303731372020202D302E3230363220202020302E303030302043202020302020302020302020302020302020302020302020302020302020302020302020300A20202020312E303731372020202D302E3631383720202020302E303030302043202020302020302020302020302020302020302020302020302020302020302020302020300A20202020302E3335373220202020302E3631383820202020302E303030302042722020302020302020302020302020302020302020302020302020302020302020302020300A2020312020322020312020302020202020200A2020322020332020312020302020202020200A2020312020342020312020302020202020200A2020312020352020312020302020202020200A4D2020454E44
Contributor: YAMAMOTO M, DEP. CHEMISTRY, FAC. SCIENCE, NARA WOMEN'S UNIV.
InstType: EI
InstName: HITACHI RMU-6M
IoniMethod: _ENERGY 70 eV
IonPolarity: pos
Date: 2010-10-09 19:48:36+02:00
Num Peaks: 22
15 12 26 42 27 199 28 6 29 482 30 13 38 20 39 13 40 16 41 546 
42 25 50 2 51 13 53 16 55 47 56 9 57 999 58 41 107 12 109 1 
136 12 138 12 
