Name: ETHYLENE GLYCOL MONO-ALLYL ETHER
MW: 102
Formula: C5H10O2
Synonym: MassBank: JP006763
Synonym: ETHYLENE GLYCOL MONO-ALLYL ETHER
Structure: 310A31380A455448594C454E4520474C59434F4C204D4F4E4F2D414C4C594C2045544845522E6D6F6C0A20204368656D447261773038313131303139303932440A2020372020362020302020302020302020302020302020302020302020303939392056323030300A2020202D302E373134352020202D302E3230363320202020302E303030302043202020302020302020302020302020302020302020302020302020302020302020302020300A2020202D312E3432383920202020302E3230363320202020302E303030302043202020302020302020302020302020302020302020302020302020302020302020302020300A20202020302E3030303020202020302E3230363320202020302E30303030204F202020302020302020302020302020302020302020302020302020302020302020302020300A2020202D322E313433342020202D302E3230363320202020302E30303030204F202020302020302020302020302020302020302020302020302020302020302020302020300A20202020302E373134352020202D302E3230363220202020302E303030302043202020302020302020302020302020302020302020302020302020302020302020302020300A20202020312E3432383920202020302E3230363320202020302E303030302043202020302020302020302020302020302020302020302020302020302020302020302020300A20202020322E313433342020202D302E3230363220202020302E303030302043202020302020302020302020302020302020302020302020302020302020302020302020300A2020312020322020312020302020202020200A2020312020332020312020302020202020200A2020322020342020312020302020202020200A2020352020362020312020302020202020200A2020362020372020322020302020202020200A2020332020352020312020302020202020200A4D2020454E44
Contributor: YAMAMOTO M, DEP. CHEMISTRY, FAC. SCIENCE, NARA WOMEN'S UNIV.
InstType: EI
InstName: HITACHI RMU-6M
IoniMethod: _ENERGY 70 eV
IonPolarity: pos
Date: 2010-10-09 19:48:36+02:00
Num Peaks: 27
15 44 26 28 27 115 28 42 29 109 30 24 31 339 32 10 38 20 39 260 
40 48 41 999 42 202 43 81 44 54 45 288 46 10 54 10 55 26 56 24 
57 181 58 532 59 91 61 14 69 14 71 127 83 14 
