Name: 2-BUTOXYETHANOL
MW: 118
Formula: C6H14O2
Synonym: MassBank: JP006161
Synonym: 2-BUTOXYETHANOL
Synonym: ETHYLENE GLYCOL MONOBUTYL ETHER
Structure: 310A32300A322D4255544F5859455448414E4F4C2E6D6F6C0A20204368656D447261773031303331303130303632440A2020382020372020302020302020302020302020302020302020302020303939392056323030300A20202020312E373836322020202D302E3230363320202020302E303030302043202020302020302020302020302020302020302020302020302020302020302020302020300A20202020312E3037313720202020302E3230363320202020302E303030302043202020302020302020302020302020302020302020302020302020302020302020302020300A20202020302E333537322020202D302E3230363320202020302E30303030204F202020302020302020302020302020302020302020302020302020302020302020302020300A2020202D302E3335373220202020302E3230363220202020302E303030302043202020302020302020302020302020302020302020302020302020302020302020302020300A2020202D312E303731372020202D302E3230363320202020302E303030302043202020302020302020302020302020302020302020302020302020302020302020302020300A2020202D312E3738363220202020302E3230363220202020302E303030302043202020302020302020302020302020302020302020302020302020302020302020302020300A2020202D322E353030362020202D302E3230363320202020302E303030302043202020302020302020302020302020302020302020302020302020302020302020302020300A20202020322E3530303620202020302E3230363320202020302E30303030204F202020302020302020302020302020302020302020302020302020302020302020302020300A2020312020322020312020302020202020200A2020342020352020312020302020202020200A2020352020362020312020302020202020200A2020362020372020312020302020202020200A2020332020342020312020302020202020200A2020322020332020312020302020202020200A2020312020382020312020302020202020200A4D2020454E44
Contributor: HASHIMOTO K, KYOTO COLLEGE OF PHARMACY
InstType: EI
InstName: HITACHI M-80
IoniMethod: _ENERGY 20 eV
IonPolarity: pos
Date: 2010-10-09 19:48:36+02:00
Num Peaks: 21
27 37 28 21 29 428 31 78 41 377 42 17 43 36 44 20 45 485 55 40 
56 92 57 999 58 41 63 20 71 33 72 12 73 11 75 52 87 110 100 14 
118 2 
