Name: 3-METHYL-2-PYRAZOLINE
MW: 84
Formula: C4H8N2
Synonym: MassBank: JP000888
Synonym: 3-METHYL-2-PYRAZOLINE
Structure: 310A31370A332D4D455448594C2D322D505952415A4F4C494E452E6D6F6C0A20204368656D447261773033323031303030323332440A2020362020362020302020302020302020302020302020302020302020303939392056323030300A20202020312E3034373320202020302E3431323520202020302E30303030204E202020302020302020302020302020302020302020302020302020302020302020302020300A20202020302E3236323720202020302E3636373420202020302E30303030204E202020302020302020302020302020302020302020302020302020302020302020302020300A2020202D302E3232323320202020302E3030303020202020302E303030302043202020302020302020302020302020302020302020302020302020302020302020302020300A20202020302E323632372020202D302E3636373420202020302E303030302043202020302020302020302020302020302020302020302020302020302020302020302020300A20202020312E303437332020202D302E3431323520202020302E303030302043202020302020302020302020302020302020302020302020302020302020302020302020300A2020202D312E3034373320202020302E3030303020202020302E303030302043202020302020302020302020302020302020302020302020302020302020302020302020300A2020312020322020312020302020202020200A2020322020332020322020302020202020200A2020332020342020312020302020202020200A2020342020352020312020302020202020200A2020312020352020312020302020202020200A2020332020362020312020302020202020200A4D2020454E44
Contributor: SASAKI S, TOYOHASHI UNIV. OF TECH.
InstType: EI
InstName: SHIMADZU LKB-2091
IoniMethod: _ENERGY 70 eV
IonPolarity: pos
Date: 2010-10-09 19:48:36+02:00
Num Peaks: 26
26 68 27 219 28 280 29 14 30 33 38 17 39 96 40 4 41 106 42 451 
43 55 50 2 51 22 52 16 53 4 54 20 55 178 56 458 57 22 69 6 
70 5 81 25 82 29 83 999 84 842 85 51 
