Name: ISOPROPANOL
CAS: 67-63-0
MW: 60
Formula: C3H8O
Synonym: MassBank: JP007677
Synonym: ISOPROPANOL
Synonym: 2-METHYLETHANOL
Structure: 310A31320A49534F50524F50414E4F4C2E6D6F6C0A20204368656D447261773031323231303037353432440A2020342020332020302020302020302020302020302020302020302020303939392056323030300A2020202D302E3230363220202020302E3030303020202020302E303030302043202020302020302020302020302020302020302020302020302020302020302020302020300A2020202D302E363138382020202D302E3731343520202020302E303030302043202020302020302020302020302020302020302020302020302020302020302020302020300A2020202D302E3631383820202020302E3731343520202020302E303030302043202020302020302020302020302020302020302020302020302020302020302020302020300A20202020302E3631383820202020302E3030303020202020302E30303030204F202020302020302020302020302020302020302020302020302020302020302020302020300A2020312020322020312020302020202020200A2020312020332020312020302020202020200A2020312020342020312020302020202020200A4D2020454E44
Contributor: TAJIMA S, GUNMA COLLEGE OF TECHNOLOGY
InstType: EI
InstName: HITACHI RMU-7M
IoniMethod: _ENERGY 70 eV
IonPolarity: pos
Date: 2010-10-09 19:48:36+02:00
Num Peaks: 15
14 13 15 57 19 81 27 131 29 80 31 53 38 16 39 55 41 83 42 36 
43 182 44 27 45 999 46 25 59 33 
