Name: 5-METHYL-N-UNDECYL-2-PYRROLIDONE
MW: 253
Formula: C16H31NO
Synonym: MassBank: JP004137
Synonym: 5-METHYL-N-UNDECYL-2-PYRROLIDONE
Structure: 352D4D455448594C2D4E2D554E444543594C2D322D505952524F4C49444F4E452E6D6F6C0A20204368656D447261773034323331303037323432440A2031382031382020302020302020302020302020302020302020302020303939392056323030300A2020202D322E3834363320202020302E3031363020202020302E30303030204E202020302020302020302020302020302020302020302020302020302020302020302020300A2020202D322E313738392020202D302E3436383920202020302E303030302043202020302020302020302020302020302020302020302020302020302020302020302020300A2020202D322E343333382020202D312E3235333520202020302E303030302043202020302020302020302020302020302020302020302020302020302020302020302020300A2020202D332E323538382020202D312E3235333520202020302E303030302043202020302020302020302020302020302020302020302020302020302020302020302020300A2020202D332E353133382020202D302E3436383920202020302E303030302043202020302020302020302020302020302020302020302020302020302020302020302020300A2020202D312E333934332020202D302E3231343020202020302E30303030204F202020302020302020302020302020302020302020302020302020302020302020302020300A2020202D322E3834363320202020302E3834313020202020302E303030302043202020302020302020302020302020302020302020302020302020302020302020302020300A2020202D322E3133313920202020312E3235333520202020302E303030302043202020302020302020302020302020302020302020302020302020302020302020302020300A2020202D312E3431373420202020302E3834313020202020302E303030302043202020302020302020302020302020302020302020302020302020302020302020302020300A2020202D302E3730323920202020312E3235333520202020302E303030302043202020302020302020302020302020302020302020302020302020302020302020302020300A20202020302E3031313620202020302E3834313020202020302E303030302043202020302020302020302020302020302020302020302020302020302020302020302020300A20202020302E3732363020202020312E3235333520202020302E303030302043202020302020302020302020302020302020302020302020302020302020302020302020300A20202020312E3434303520202020302E3834313020202020302E303030302043202020302020302020302020302020302020302020302020302020302020302020302020300A20202020322E3135353020202020312E3235333520202020302E303030302043202020302020302020302020302020302020302020302020302020302020302020302020300A20202020322E3836393420202020302E3834313020202020302E303030302043202020302020302020302020302020302020302020302020302020302020302020302020300A20202020332E3538333920202020312E3235333520202020302E303030302043202020302020302020302020302020302020302020302020302020302020302020302020300A20202020342E3239383420202020302E3834313020202020302E303030302043202020302020302020302020302020302020302020302020302020302020302020302020300A2020202D342E323938342020202D302E3231343020202020302E303030302043202020302020302020302020302020302020302020302020302020302020302020302020300A2020312020322020312020302020202020200A2020322020332020312020302020202020200A2020332020342020312020302020202020200A2020342020352020312020302020202020200A2020312020352020312020302020202020200A2020322020362020322020302020202020200A2020372020382020312020302020202020200A2020382020392020312020302020202020200A2020392031302020312020302020202020200A2031302031312020312020302020202020200A2031312031322020312020302020202020200A2031322031332020312020302020202020200A2031332031342020312020302020202020200A2031342031352020312020302020202020200A2031352031362020312020302020202020200A2031362031372020312020302020202020200A2020312020372020312020302020202020200A2020352031382020312020302020202020200A4D2020454E44
Contributor: MASS SPECTROSCOPY SOC. OF JAPAN (MSSJ)
InstType: EI
InstName: HITACHI RMU-6E
IoniMethod: _ENERGY 70 eV
IonPolarity: pos
Date: 2010-10-09 19:48:36+02:00
Num Peaks: 93
27 33 28 30 29 84 30 3 39 22 40 5 41 150 42 5 43 104 44 26 
45 2 53 1 54 14 55 166 56 64 57 6 58 12 67 26 68 24 69 3 
70 25 71 16 72 4 73 0 79 4 80 3 81 6 82 3 83 104 84 164 
85 18 86 1 94 8 95 4 96 7 97 1 98 134 99 16 100 54 101 0 
110 10 111 10 112 999 113 62 114 46 115 3 124 6 125 0 126 128 127 33 
128 3 138 1 139 2 140 164 141 40 142 0 152 4 153 2 154 66 155 2 
156 3 166 3 167 2 168 5 169 16 170 3 180 2 181 0 182 37 183 12 
184 4 185 0 194 2 195 1 196 40 197 1 198 5 210 28 211 10 212 0 
213 1 224 25 225 8 226 0 236 13 237 3 238 176 239 3 240 3 252 16 
253 250 254 5 255 6 
