Name: DIFURFURYL SULFIDE
MW: 194
Formula: C10H10O2S
Synonym: MassBank: JP009168
Synonym: DIFURFURYL SULFIDE
Structure: 4449465552465552594C2053554C464944452E6D6F6C0A20204368656D447261773039323131303230343732440A2031332031342020302020302020302020302020302020302020302020303939392056323030300A2020202D302E303030302020202D302E3238393820202020302E303030302053202020302020302020302020302020302020302020302020302020302020302020302020300A20202020302E373134352020202D302E3730323320202020302E303030302043202020302020302020302020302020302020302020302020302020302020302020302020300A20202020312E343238392020202D302E3238393820202020302E303030302043202020302020302020302020302020302020302020302020302020302020302020302020300A20202020312E3531353220202020302E3533303720202020302E303030302043202020302020302020302020302020302020302020302020302020302020302020302020300A20202020322E3332323120202020302E3730323320202020302E303030302043202020302020302020302020302020302020302020302020302020302020302020302020300A20202020322E373334362020202D302E3031323220202020302E303030302043202020302020302020302020302020302020302020302020302020302020302020302020300A20202020322E313832362020202D302E3632353320202020302E30303030204F202020302020302020302020302020302020302020302020302020302020302020302020300A2020202D302E373134352020202D302E3730323320202020302E303030302043202020302020302020302020302020302020302020302020302020302020302020302020300A2020202D312E343238392020202D302E3238393820202020302E303030302043202020302020302020302020302020302020302020302020302020302020302020302020300A2020202D322E313832362020202D302E3632353320202020302E303030302043202020302020302020302020302020302020302020302020302020302020302020302020300A2020202D322E373334362020202D302E3031323220202020302E303030302043202020302020302020302020302020302020302020302020302020302020302020302020300A2020202D322E3332323120202020302E3730323320202020302E303030302043202020302020302020302020302020302020302020302020302020302020302020302020300A2020202D312E3531353220202020302E3533303720202020302E30303030204F202020302020302020302020302020302020302020302020302020302020302020302020300A2020322020332020312020302020202020200A2020332020342020322020302020202020200A2020342020352020312020302020202020200A2020352020362020322020302020202020200A2020362020372020312020302020202020200A2020332020372020312020302020202020200A2020312020322020312020302020202020200A2020382020392020312020302020202020200A2020392031302020322020302020202020200A2031302031312020312020302020202020200A2031312031322020322020302020202020200A2031322031332020312020302020202020200A2020392031332020312020302020202020200A2020312020382020312020302020202020200A4D2020454E44
Contributor: SODA AROMATIC CO., LTD.
InstType: EI
InstName: HITACHI M-80B
IoniMethod: _ENERGY 70 eV
IonPolarity: pos
Date: 2010-10-09 19:48:36+02:00
Num Peaks: 23
26 12 27 134 29 18 38 14 39 57 41 19 45 144 50 34 51 67 52 45 
53 263 54 11 58 16 59 17 69 17 81 999 82 91 85 65 112 17 113 135 
126 56 194 122 195 12 
