Name: 2-METHYL-2-BUTANOL
MW: 88
Formula: C5H12O
Synonym: MassBank: JP008592
Synonym: 2-METHYL-2-BUTANOL
Synonym: 1,1-DIMETHYLPROPANOL
Structure: 310A31360A322D4D455448594C2D322D425554414E4F4C2E6D6F6C0A20204368656D447261773130323330393131303032440A2020362020352020302020302020302020302020302020302020302020303939392056323030300A2020202D302E323036332020202D302E3832353020202020302E303030302043202020302020302020302020302020302020302020302020302020302020302020302020300A2020202D302E3230363320202020302E3030303020202020302E303030302043202020302020302020302020302020302020302020302020302020302020302020302020300A20202020302E3631383820202020302E3030303020202020302E303030302043202020302020302020302020302020302020302020302020302020302020302020302020300A20202020312E303331332020202D302E3731343520202020302E303030302043202020302020302020302020302020302020302020302020302020302020302020302020300A2020202D312E3033313320202020302E3030303020202020302E30303030204F202020302020302020302020302020302020302020302020302020302020302020302020300A2020202D302E3230363320202020302E3832353020202020302E303030302043202020302020302020302020302020302020302020302020302020302020302020302020300A2020312020322020312020302020202020200A2020322020332020312020302020202020200A2020332020342020312020302020202020200A2020322020352020312020302020202020200A2020322020362020312020302020202020200A4D2020454E44
Contributor: SODA AROMATIC CO., LTD.
InstType: EI
InstName: HITACHI M-80B
IoniMethod: _ENERGY 70 eV
IonPolarity: pos
Date: 2010-10-09 19:48:36+02:00
Num Peaks: 21
15 38 26 15 27 130 29 98 31 227 39 80 41 146 42 30 43 291 44 12 
45 112 53 16 55 341 56 16 57 20 58 14 59 999 60 31 71 62 73 615 
74 24 
