Name: O-HYDROXYACETOPHENONE
MW: 136
Formula: C8H8O2
Synonym: MassBank: JP006334
Synonym: O-HYDROXYACETOPHENONE
Structure: 4F2D485944524F5859414345544F5048454E4F4E452E6D6F6C0A20204368656D447261773038313231303033303832440A2031302031302020302020302020302020302020302020302020302020303939392056323030300A2020202D312E303331332020202D302E3335373220202020302E303030302043202020302020302020302020302020302020302020302020302020302020302020302020300A2020202D312E3434333820202020302E3335373220202020302E303030302043202020302020302020302020302020302020302020302020302020302020302020302020300A2020202D312E343433382020202D312E3037313720202020302E30303030204F202020302020302020302020302020302020302020302020302020302020302020302020300A2020202D302E323036322020202D302E3335373220202020302E303030302043202020302020302020302020302020302020302020302020302020302020302020302020300A20202020302E3230363320202020302E3335373220202020302E303030302043202020302020302020302020302020302020302020302020302020302020302020302020300A20202020312E3033313220202020302E3335373220202020302E303030302043202020302020302020302020302020302020302020302020302020302020302020302020300A20202020312E343433382020202D302E3335373220202020302E303030302043202020302020302020302020302020302020302020302020302020302020302020302020300A20202020312E303331332020202D312E3037313720202020302E303030302043202020302020302020302020302020302020302020302020302020302020302020302020300A20202020302E323036322020202D312E3037313720202020302E303030302043202020302020302020302020302020302020302020302020302020302020302020302020300A2020202D302E3230363220202020312E3037313720202020302E30303030204F202020302020302020302020302020302020302020302020302020302020302020302020300A2020312020322020312020302020202020200A2020342020352020312020302020202020200A2020352020362020322020302020202020200A2020362020372020312020302020202020200A2020372020382020322020302020202020200A2020382020392020312020302020202020200A2020342020392020322020302020202020200A2020312020332020322020302020202020200A2020312020342020312020302020202020200A2020352031302020312020302020202020200A4D2020454E44
Contributor: EGUCHI S, FAC. OF SCIENCE, HIROSHIMA UNIV.
InstType: EI
InstName: HITACHI RMU-7L
IoniMethod: _ENERGY 70 eV
IonPolarity: pos
Date: 2010-10-09 19:48:36+02:00
Num Peaks: 38
43 195 44 33 49 19 50 7 51 90 52 35 53 100 54 4 55 50 61 55 
62 82 63 15 64 75 65 355 66 95 75 5 76 40 77 95 78 45 79 4 
80 55 81 40 89 38 90 5 91 35 92 55 93 272 94 10 95 40 104 10 
105 45 106 1 107 45 121 999 122 105 123 1 136 440 137 65 
