Name: 2-METHOXY-4-(2-PROPENYL)PHENOL
MW: 164
Formula: C10H12O2
Synonym: MassBank: JP008438
Synonym: 2-METHOXY-4-(2-PROPENYL)PHENOL
Synonym: EUGENOL
Structure: 322D4D4554484F58592D342D28322D50524F50454E594C295048454E4F4C2E6D6F6C0A20204368656D447261773031323231303032303532440A2031322031322020302020302020302020302020302020302020302020303939392056323030300A20202020312E303731372020202D302E3431323520202020302E303030302043202020302020302020302020302020302020302020302020302020302020302020302020300A20202020312E3037313720202020302E3431323520202020302E303030302043202020302020302020302020302020302020302020302020302020302020302020302020300A20202020302E3335373220202020302E3832353020202020302E303030302043202020302020302020302020302020302020302020302020302020302020302020302020300A2020202D302E3335373220202020302E3431323520202020302E303030302043202020302020302020302020302020302020302020302020302020302020302020302020300A2020202D302E333537322020202D302E3431323520202020302E303030302043202020302020302020302020302020302020302020302020302020302020302020302020300A20202020302E333537322020202D302E3832353020202020302E303030302043202020302020302020302020302020302020302020302020302020302020302020302020300A2020202D312E3037313720202020302E3832353020202020302E303030302043202020302020302020302020302020302020302020302020302020302020302020302020300A2020202D312E3738363220202020302E3431323520202020302E303030302043202020302020302020302020302020302020302020302020302020302020302020302020300A2020202D322E3530303620202020302E3832353020202020302E303030302043202020302020302020302020302020302020302020302020302020302020302020302020300A20202020312E3738363220202020302E3832353020202020302E30303030204F202020302020302020302020302020302020302020302020302020302020302020302020300A20202020322E3530303620202020302E3431323520202020302E303030302043202020302020302020302020302020302020302020302020302020302020302020302020300A20202020312E373836322020202D302E3832353020202020302E30303030204F202020302020302020302020302020302020302020302020302020302020302020302020300A2020312020322020312020302020202020200A2020322020332020322020302020202020200A2020332020342020312020302020202020200A2020342020352020322020302020202020200A2020352020362020312020302020202020200A2020312020362020322020302020202020200A2020372020382020312020302020202020200A2020382020392020322020302020202020200A2020342020372020312020302020202020200A2031302031312020312020302020202020200A2020322031302020312020302020202020200A2020312031322020312020302020202020200A4D2020454E44
Contributor: SODA AROMATIC CO., LTD.
InstType: EI
InstName: HITACHI M-80B
IoniMethod: _ENERGY 70 eV
IonPolarity: pos
Date: 2010-10-09 19:48:36+02:00
Num Peaks: 58
15 68 26 14 27 89 29 26 38 24 39 166 40 25 41 74 43 34 50 47 
51 146 52 66 53 82 55 220 62 22 63 70 64 19 65 129 66 63 67 16 
74 13 75 15 76 13 77 327 78 94 79 78 81 23 89 20 91 235 92 25 
93 51 94 84 95 10 102 20 103 269 104 176 105 79 106 11 107 30 109 11 
115 19 119 18 120 11 121 162 122 66 131 222 132 86 133 166 134 18 135 14 
137 181 138 15 147 37 149 303 150 25 163 34 164 999 165 102 
