Name: MassBank: JP008945
MW: 98
Formula: C6H10O
Synonym: MassBank: JP008945
Synonym: 3-METHYLCYCLOPENTANONE (2,2,5,5-D4)
Structure: 332D4D455448594C4359434C4F50454E54414E4F4E452028322C322C352C352D4434292E6D6F6C0A20204368656D447261773033323031303135333332440A2031312031312020302020302020302020302020302020302020302020303939392056323030300A20202020302E3334313220202020302E3334373820202020302E303030302043202020302020302020302020302020302020302020302020302020302020302020302020300A20202020302E323534392020202D302E3437323720202020302E303030302043202020302020302020302020302020302020302020302020302020302020302020302020300A2020202D302E353532302020202D302E3634343220202020302E303030302043202020302020302020302020302020302020302020302020302020302020302020302020300A2020202D302E3936343520202020302E3037303320202020302E303030302043202020302020302020302020302020302020302020302020302020302020302020302020300A2020202D302E3431323520202020302E3638333420202020302E303030302043202020302020302020302020302020302020302020302020302020302020302020302020300A2020202D302E383837362020202D312E3339373920202020302E303030302043202020302020302020302020302020302020302020302020302020302020302020302020300A20202020312E3035353620202020302E3736303320202020302E30303030204F202020302020302020302020302020302020302020302020302020302020302020302020300A2020202D312E3037393920202020312E3136383320202020302E303030302048202020312020302020302020302020302020302020302020302020302020302020302020300A20202020302E3030303020202020312E3339373920202020302E303030302048202020312020302020302020302020302020302020302020302020302020302020302020300A20202020312E303739392020202D302E3437323720202020302E303030302048202020312020302020302020302020302020302020302020302020302020302020302020300A20202020302E333431322020202D312E3239333120202020302E303030302048202020312020302020302020302020302020302020302020302020302020302020302020300A2020312020322020312020302020202020200A2020322020332020312020302020202020200A2020332020342020312020302020202020200A2020342020352020312020302020202020200A2020312020352020312020302020202020200A2020332020362020312020302020202020200A2020312020372020322020302020202020200A2020352020382020312020312020202020200A2020352020392020312020362020202020200A2020322031302020312020312020202020200A2020322031312020312020362020202020200A4D202049534F20203420202038202020322020203920202032202031302020203220203131202020320A4D2020454E44
Contributor: YAMAMOTO M, DEP. CHEMISTRY, FAC. SCIENCE, NARA WOMEN'S UNIV.
InstType: EI
InstName: HITACHI RMU-6M
IoniMethod: _ENERGY 70 eV
IonPolarity: pos
Date: 2010-10-09 19:48:36+02:00
Num Peaks: 40
26 25 27 134 28 222 29 31 30 436 31 98 32 40 37 1 38 28 39 121 
40 221 41 26 42 392 43 488 44 994 45 9 46 30 51 27 52 30 53 3 
54 33 55 125 56 654 57 29 58 537 59 169 60 15 69 7 70 999 71 67 
72 99 73 16 74 100 85 17 86 39 87 6 100 43 101 284 102 494 103 34 
