Name: MassBank: JP006628
MW: 293
Formula: C19H19NO2
Synonym: MassBank: JP006628
Synonym: 3,6-DIACETYL-9-PROPYLCARBAZOLE
Structure: 332C362D444941434554594C2D392D50524F50594C43415242415A4F4C452E6D6F6C0A20204368656D447261773032323231303031353732440A2032322032342020302020302020302020302020302020302020302020303939392056323030300A2020202D302E363635322020202D302E3731353520202020302E30303030204E202020302020302020302020302020302020302020302020302020302020302020302020300A2020202D312E313530312020202D302E3034383120202020302E303030302043202020302020302020302020302020302020302020302020302020302020302020302020300A2020202D312E3937303620202020302E3033383220202020302E303030302043202020302020302020302020302020302020302020302020302020302020302020302020300A2020202D322E3330363220202020302E3739313820202020302E303030302043202020302020302020302020302020302020302020302020302020302020302020302020300A2020202D312E3832313320202020312E3435393320202020302E303030302043202020302020302020302020302020302020302020302020302020302020302020302020300A2020202D312E3030303820202020312E3337333020202020302E303030302043202020302020302020302020302020302020302020302020302020302020302020302020300A2020202D302E3636353220202020302E3631393420202020302E303030302043202020302020302020302020302020302020302020302020302020302020302020302020300A20202020302E3131393420202020302E3336343420202020302E303030302043202020302020302020302020302020302020302020302020302020302020302020302020300A20202020302E3833333920202020302E3737363920202020302E303030302043202020302020302020302020302020302020302020302020302020302020302020302020300A20202020312E3534383420202020302E3336343420202020302E303030302043202020302020302020302020302020302020302020302020302020302020302020302020300A20202020312E353438342020202D302E3436303620202020302E303030302043202020302020302020302020302020302020302020302020302020302020302020302020300A20202020302E383333392020202D302E3837333120202020302E303030302043202020302020302020302020302020302020302020302020302020302020302020302020300A20202020302E313139342020202D302E3436303620202020302E303030302043202020302020302020302020302020302020302020302020302020302020302020302020300A2020202D302E393230322020202D312E3530303120202020302E303030302043202020302020302020302020302020302020302020302020302020302020302020302020300A2020202D302E333336382020202D322E3038333520202020302E303030302043202020302020302020302020302020302020302020302020302020302020302020302020300A2020202D302E353530332020202D322E3838303420202020302E303030302043202020302020302020302020302020302020302020302020302020302020302020302020300A20202020322E3236323820202020302E3737363920202020302E303030302043202020302020302020302020302020302020302020302020302020302020302020302020300A20202020322E3236323820202020312E3630313920202020302E30303030204F202020302020302020302020302020302020302020302020302020302020302020302020300A20202020322E3937373320202020302E3336343420202020302E303030302043202020302020302020302020302020302020302020302020302020302020302020302020300A2020202D322E3135363820202020322E3231323920202020302E303030302043202020302020302020302020302020302020302020302020302020302020302020302020300A2020202D322E3937373320202020322E3239393220202020302E30303030204F202020302020302020302020302020302020302020302020302020302020302020302020300A2020202D312E3637313920202020322E3838303420202020302E303030302043202020302020302020302020302020302020302020302020302020302020302020302020300A2020312020322020312020302020202020200A2020322020332020312020302020202020200A2020332020342020322020302020202020200A2020342020352020312020302020202020200A2020352020362020322020302020202020200A2020362020372020312020302020202020200A2020322020372020322020302020202020200A2020372020382020312020302020202020200A2020382020392020312020302020202020200A2020392031302020322020302020202020200A2031302031312020312020302020202020200A2031312031322020322020302020202020200A2031322031332020312020302020202020200A2020382031332020322020302020202020200A2020312031332020312020302020202020200A2031342031352020312020302020202020200A2031352031362020312020302020202020200A2020312031342020312020302020202020200A2031372031382020322020302020202020200A2031372031392020312020302020202020200A2031302031372020312020302020202020200A2032302032312020322020302020202020200A2032302032322020312020302020202020200A2020352032302020312020302020202020200A4D2020454E44
Contributor: SASAKI S, TOYOHASHI UNIV. OF TECH.
InstType: EI
InstName: MX-1303
IoniMethod: _ENERGY 50 eV
IonPolarity: pos
Date: 2010-10-09 19:48:36+02:00
Num Peaks: 49
39 20 41 78 42 14 43 26 44 145 45 76 55 50 56 1 57 73 60 14 
67 11 69 4 70 11 71 27 73 13 77 1 78 52 81 12 82 11 83 3 
84 10 85 12 97 17 125 1 131.5 78 139 10 151 29 152 1 164 48 165 26 
177 17 178 11 179 45 180 14 191 10 192 3 193 47 220 33 221 313 222 6 
235 48 236 18 250 12 264 999 265 153 278 917 279 138 293 79 294 134 
