Name: LINALYL HEXANOATE
MW: 252
Formula: C16H28O2
Synonym: MassBank: JP007005
Synonym: LINALYL HEXANOATE
Synonym: 3,7-DIMETHYL-1,6-OCTADIEN-3-YL HEXANOATE
Structure: 4C494E414C594C20484558414E4F4154452E6D6F6C0A20204368656D447261773032323231303033343732440A2031382031372020302020302020302020302020302020302020302020303939392056323030300A20202020302E333136382020202D302E3230363320202020302E303030302043202020302020302020302020302020302020302020302020302020302020302020302020300A20202020312E3033313320202020302E3230363220202020302E303030302043202020302020302020302020302020302020302020302020302020302020302020302020300A20202020312E373435372020202D302E3230363320202020302E303030302043202020302020302020302020302020302020302020302020302020302020302020302020300A20202020312E373435372020202D312E3033313320202020302E303030302043202020302020302020302020302020302020302020302020302020302020302020302020300A20202020322E343630322020202D312E3434333820202020302E303030302043202020302020302020302020302020302020302020302020302020302020302020302020300A20202020322E343630322020202D322E3236383820202020302E303030302043202020302020302020302020302020302020302020302020302020302020302020302020300A20202020302E333136382020202D312E3033313320202020302E30303030204F202020302020302020302020302020302020302020302020302020302020302020302020300A2020202D302E3339373720202020302E3230363220202020302E30303030204F202020302020302020302020302020302020302020302020302020302020302020302020300A2020202D302E3339373720202020312E3033313220202020302E303030302043202020302020302020302020302020302020302020302020302020302020302020302020300A2020202D312E3232323720202020312E3033313220202020302E303030302043202020302020302020302020302020302020302020302020302020302020302020302020300A2020202D312E3633353220202020302E3331363820202020302E303030302043202020302020302020302020302020302020302020302020302020302020302020302020300A2020202D312E323232372020202D302E3339373720202020302E303030302043202020302020302020302020302020302020302020302020302020302020302020302020300A2020202D312E363335322020202D312E3131323220202020302E303030302043202020302020302020302020302020302020302020302020302020302020302020302020300A2020202D312E323232372020202D312E3832363620202020302E303030302043202020302020302020302020302020302020302020302020302020302020302020302020300A2020202D322E343630322020202D312E3131323220202020302E303030302043202020302020302020302020302020302020302020302020302020302020302020302020300A2020202D302E3339373720202020312E3835363220202020302E303030302043202020302020302020302020302020302020302020302020302020302020302020302020300A20202020302E3331363820202020322E3236383820202020302E303030302043202020302020302020302020302020302020302020302020302020302020302020302020300A20202020302E3432373320202020312E3033313220202020302E303030302043202020302020302020302020302020302020302020302020302020302020302020302020300A2020312020322020312020302020202020200A2020322020332020312020302020202020200A2020332020342020312020302020202020200A2020342020352020312020302020202020200A2020352020362020312020302020202020200A2020312020372020322020302020202020200A2020312020382020312020302020202020200A2020392031302020312020302020202020200A2031302031312020312020302020202020200A2031312031322020312020302020202020200A2031322031332020322020302020202020200A2031332031342020312020302020202020200A2031332031352020312020302020202020200A2020392031362020312020302020202020200A2031362031372020322020302020202020200A2020392031382020312020302020202020200A2020382020392020312020302020202020200A4D2020454E44
Contributor: SODA AROMATIC CO., LTD.
InstType: EI
InstName: HITACHI M-80B
IoniMethod: _ENERGY 70 eV
IonPolarity: pos
Date: 2010-10-09 19:48:36+02:00
Num Peaks: 49
27 170 29 131 39 180 40 23 41 574 42 68 43 304 45 34 50 11 51 29 
52 17 53 129 54 16 55 150 56 26 57 24 60 214 61 19 65 31 66 17 
67 122 68 196 69 485 70 31 71 112 73 106 74 13 77 103 78 16 79 135 
80 325 81 132 82 19 83 18 87 24 91 115 92 181 93 999 94 122 95 25 
99 148 105 46 106 11 107 77 108 17 121 258 122 21 136 114 137 29 
