Name: MassBank: JP004636
MW: 166
Formula: C11H18O
Synonym: MassBank: JP004636
Synonym: 1,5-DIMETHYLBICYCLO(3.2.2)NONAN-2-ONE
Structure: 312C352D44494D455448594C42494359434C4F28332E322E32294E4F4E414E2D322D4F4E452E6D6F6C0A20204368656D447261773131313630393133303032440A2031322031332020302020302020302020302020302020302020302020303939392056323030300A2020202D302E3438363720202020302E3730393220202020302E303030302043202020302020302020302020302020302020302020302020302020302020302020302020300A20202020302E3431333820202020302E3931383020202020302E303030302043202020302020302020302020302020302020302020302020302020302020302020302020300A20202020312E3037303120202020302E3236313720202020302E303030302043202020302020302020302020302020302020302020302020302020302020302020302020300A20202020302E383234382020202D302E3633393020202020302E303030302043202020302020302020302020302020302020302020302020302020302020302020302020300A2020202D302E303636382020202D302E3839313620202020302E303030302043202020302020302020302020302020302020302020302020302020302020302020302020300A20202020302E353136362020202D302E3330383320202020302E303030302043202020302020302020302020302020302020302020302020302020302020302020302020300A20202020302E3331303720202020302E3438383020202020302E303030302043202020302020302020302020302020302020302020302020302020302020302020302020300A2020202D312E3037303120202020302E3132353820202020302E303030302043202020302020302020302020302020302020302020302020302020302020302020302020300A2020202D302E383634322020202D302E3637303520202020302E303030302043202020302020302020302020302020302020302020302020302020302020302020302020300A20202020302E3634383120202020312E3731343620202020302E30303030204F202020302020302020302020302020302020302020302020302020302020302020302020300A2020202D302E303636382020202D312E3731343620202020302E303030302043202020302020302020302020302020302020302020302020302020302020302020302020300A2020202D302E3839373820202020312E3432313320202020302E303030302043202020302020302020302020302020302020302020302020302020302020302020302020300A2020312020322020312020302020202020200A2020322020332020312020302020202020200A2020332020342020312020302020202020200A2020342020352020312020302020202020200A2020352020362020312020302020202020200A2020362020372020312020302020202020200A2020382020392020312020302020202020200A2020312020372020312020302020202020200A2020312020382020312020302020202020200A2020352020392020312020302020202020200A2020322031302020322020302020202020200A2020352031312020312020302020202020200A2020312031322020312020302020202020200A4D2020454E44
Contributor: KATO T, DEPT. OF CHEM., FAC. OF SCI., TOHOKU UNIV.
InstType: EI
InstName: HITACHI M-52
IoniMethod: _ENERGY 25 eV
IonPolarity: pos
Date: 2010-10-09 19:48:36+02:00
Num Peaks: 38
18 179 28 70 41 66 43 7 55 160 67 348 68 780 69 32 70 119 81 124 
82 80 83 5 92 59 93 109 94 60 95 18 96 70 97 81 98 51 105 10 
106 155 107 466 108 121 109 999 110 167 111 101 119 167 120 6 122 96 123 98 
133 842 134 10 137 79 148 438 149 55 151 6 166 286 167 57 
