Name: MassBank: JP006376
CAS: 765-69-5
MW: 112
Formula: C6H8O2
Synonym: MassBank: JP006376
Synonym: 2-METHYL-1,3-CYCLOPENTANEDIONE
Structure: 310A32310A322D4D455448594C2D312C332D4359434C4F50454E54414E4544494F4E452E6D6F6C0A20204368656D447261773031323231303032333132440A2020382020382020302020302020302020302020302020302020302020303939392056323030300A20202020302E323632372020202D302E3636373420202020302E303030302043202020302020302020302020302020302020302020302020302020302020302020302020300A2020202D302E323232332020202D302E3030303020202020302E303030302043202020302020302020302020302020302020302020302020302020302020302020302020300A20202020302E3236323720202020302E3636373420202020302E303030302043202020302020302020302020302020302020302020302020302020302020302020302020300A20202020312E3034373320202020302E3431323520202020302E303030302043202020302020302020302020302020302020302020302020302020302020302020302020300A20202020312E303437332020202D302E3431323520202020302E303030302043202020302020302020302020302020302020302020302020302020302020302020302020300A20202020302E303037372020202D312E3435323120202020302E30303030204F202020302020302020302020302020302020302020302020302020302020302020302020300A20202020302E3030373720202020312E3435323120202020302E30303030204F202020302020302020302020302020302020302020302020302020302020302020302020300A2020202D312E303437332020202D302E3030303020202020302E303030302043202020302020302020302020302020302020302020302020302020302020302020302020300A2020312020322020312020302020202020200A2020322020332020312020302020202020200A2020332020342020312020302020202020200A2020342020352020312020302020202020200A2020312020352020312020302020202020200A2020312020362020322020302020202020200A2020332020372020322020302020202020200A2020322020382020312020302020202020200A4D2020454E44
Contributor: HISAHIRO HAGIWARA, CHEMICAL RESEARCH INSTITUTE OF NON-AQUEOUSSOLUTIONS TOHOKU UNIV.
InstType: EI
InstName: JEOL JMS-DX-300
IoniMethod: _ENERGY 70 eV
IonPolarity: pos
Date: 2010-10-09 19:48:36+02:00
Num Peaks: 35
31 28 32 499 37 12 38 22 39 131 40 58 41 179 42 103 43 294 44 48 
45 17 50 19 51 27 52 20 53 88 54 58 55 473 56 559 57 201 58 45 
63 12 65 43 66 50 67 58 68 13 69 188 70 134 82 11 83 458 84 90 
85 65 97 36 111 166 112 999 113 78 
