Name: 1-TETRAHYDROFURFURYL-5-FLUOROURACIL
MW: 214
Formula: C9H11FN2O3
Synonym: MassBank: JP005585
Synonym: 1-TETRAHYDROFURFURYL-5-FLUOROURACIL
Structure: 312D5445545241485944524F465552465552594C2D352D464C554F524F55524143494C2E6D6F6C0A20204368656D447261773131323230393232343732440A2031352031362020302020302020302020302020302020302020302020303939392056323030300A2020202D302E343132352020202D302E3239353620202020302E30303030204E202020302020302020302020302020302020302020302020302020302020302020302020300A20202020302E343132352020202D302E3239353620202020302E303030302043202020302020302020302020302020302020302020302020302020302020302020302020300A20202020302E3832353020202020302E3431383920202020302E30303030204F202020302020302020302020302020302020302020302020302020302020302020302020300A20202020302E383235302020202D312E3031303120202020302E30303030204E202020302020302020302020302020302020302020302020302020302020302020302020300A20202020302E343132352020202D312E3732343620202020302E303030302043202020302020302020302020302020302020302020302020302020302020302020302020300A20202020302E383235302020202D322E3433393020202020302E30303030204F202020302020302020302020302020302020302020302020302020302020302020302020300A2020202D302E343132352020202D312E3732343620202020302E303030302043202020302020302020302020302020302020302020302020302020302020302020302020300A2020202D302E383235302020202D312E3031303120202020302E303030302043202020302020302020302020302020302020302020302020302020302020302020302020300A2020202D302E383235302020202D322E3433393020202020302E303030302046202020302020302020302020302020302020302020302020302020302020302020302020300A2020202D302E3832353020202020302E3431383920202020302E303030302043202020302020302020302020302020302020302020302020302020302020302020302020300A2020202D302E3431323520202020312E3133333320202020302E303030302043202020302020302020302020302020302020302020302020302020302020302020302020300A2020202D302E3734383120202020312E3838373020202020302E303030302043202020302020302020302020302020302020302020302020302020302020302020302020300A2020202D302E3133353020202020322E3433393020202020302E303030302043202020302020302020302020302020302020302020302020302020302020302020302020300A20202020302E3537393520202020322E3032363520202020302E303030302043202020302020302020302020302020302020302020302020302020302020302020302020300A20202020302E3430383020202020312E3231393620202020302E30303030204F202020302020302020302020302020302020302020302020302020302020302020302020300A2020312020322020312020302020202020200A2020322020332020322020302020202020200A2020322020342020312020302020202020200A2020342020352020312020302020202020200A2020352020362020322020302020202020200A2020352020372020312020302020202020200A2020372020382020322020302020202020200A2020312020382020312020302020202020200A2020372020392020312020302020202020200A2031302031312020312020302020202020200A2031312031322020312020302020202020200A2031322031332020312020302020202020200A2031332031342020312020302020202020200A2031342031352020312020302020202020200A2031312031352020312020302020202020200A2020312031302020312020302020202020200A4D2020454E44
Contributor: MASS SPECTROSCOPY SOC. OF JAPAN (MSSJ)
InstType: EI
InstName: JEOL JMS-01-SG-2
IoniMethod: _ENERGY 75 eV
IonPolarity: pos
Date: 2010-10-09 19:48:36+02:00
Num Peaks: 24
41 170 42 50 43 430 44 0 45 60 54 20 55 60 56 0 71 999 72 130 
73 30 84 3 85 50 100 150 101 30 126 0 130 40 131 20 143 60 144 1 
194 120 195 20 214 80 215 90 
