Name: (16R)-ENT-17-METHOXYKAURAN-15-ONE
MW: 318
Formula: C21H34O2
Synonym: MassBank: JP006330
Synonym: (16R)-ENT-17-METHOXYKAURAN-15-ONE
Structure: 28313652292D454E542D31372D4D4554484F58594B415552414E2D31352D4F4E452E6D6F6C0A20204368656D447261773130303630393135353432440A2032372033302020302020302020302020302020302020302020302020303939392056323030300A2020202D302E383133372020202D312E3131313820202020302E303030302048202020302020302020302020302020302020302020302020302020302020302020302020300A2020202D312E343339362020202D302E3230353320202020302E303030302043202020302020302020302020302020302020302020302020302020302020302020302020300A2020202D312E343339362020202D312E3033303420202020302E303030302043202020302020302020302020302020302020302020302020302020302020302020302020300A2020202D302E373235312020202D312E3434323920202020302E303030302043202020302020302020302020302020302020302020302020302020302020302020302020300A2020202D302E303130362020202D312E3033303420202020302E303030302043202020302020302020302020302020302020302020302020302020302020302020302020300A2020202D302E303130362020202D302E3230353320202020302E303030302043202020302020302020302020302020302020302020302020302020302020302020302020300A2020202D302E3732353120202020302E3230373120202020302E303030302043202020302020302020302020302020302020302020302020302020302020302020302020300A20202020302E373033382020202D312E3434323920202020302E303030302043202020302020302020302020302020302020302020302020302020302020302020302020300A20202020312E343138332020202D312E3033303420202020302E303030302043202020302020302020302020302020302020302020302020302020302020302020302020300A20202020312E343138332020202D302E3230353320202020302E303030302043202020302020302020302020302020302020302020302020302020302020302020302020300A20202020302E3730333820202020302E3230373120202020302E303030302043202020302020302020302020302020302020302020302020302020302020302020302020300A20202020322E3133323720202020302E3230373120202020302E303030302043202020302020302020302020302020302020302020302020302020302020302020302020300A20202020322E3133323720202020312E3033323220202020302E303030302043202020302020302020302020302020302020302020302020302020302020302020302020300A20202020312E3431383320202020312E3434343720202020302E303030302043202020302020302020302020302020302020302020302020302020302020302020302020300A20202020302E3730333820202020312E3033323220202020302E303030302043202020302020302020302020302020302020302020302020302020302020302020302020300A2020202D302E3030373420202020302E3631393620202020302E303030302048202020302020302020302020302020302020302020302020302020302020302020302020300A2020202D322E313530352020202D312E3434343720202020302E303030302048202020302020302020302020302020302020302020302020302020302020302020302020300A2020202D302E343233312020202D302E3331353920202020302E303030302043202020302020302020302020302020302020302020302020302020302020302020302020300A2020202D312E303237322020202D302E3331353920202020302E303030302043202020302020302020302020302020302020302020302020302020302020302020302020300A2020202D312E3433373320202020302E3339343720202020302E303030302043202020302020302020302020302020302020302020302020302020302020302020302020300A2020202D302E3431393920202020302E3530363320202020302E30303030204F202020302020302020302020302020302020302020302020302020302020302020302020300A20202020322E303032392020202D302E3739303520202020302E303030302048202020302020302020302020302020302020302020302020302020302020302020302020300A2020202D322E3032313020202020302E3937383420202020302E30303030204F202020302020302020302020302020302020302020302020302020302020302020302020300A20202020302E3239303120202020302E3932323420202020302E303030302043202020302020302020302020302020302020302020302020302020302020302020302020300A20202020322E383437362020202D302E3230353120202020302E303030302043202020302020302020302020302020302020302020302020302020302020302020302020300A2020202D322E3834373620202020302E3937383820202020302E303030302043202020302020302020302020302020302020302020302020302020302020302020302020300A20202020322E3834363320202020302E3631393920202020302E303030302043202020302020302020302020302020302020302020302020302020302020302020302020300A2020322020332020312020302020202020200A2020332020342020312020302020202020200A2020342020352020312020302020202020200A2020352020362020312020302020202020200A2020362020372020312020302020202020200A2020372020322020312020302020202020200A2020352020382020312020302020202020200A2020382020392020312020302020202020200A2020392031302020312020302020202020200A2031302031312020312020302020202020200A2031312020362020312020302020202020200A2031302031322020312020302020202020200A2031322031332020312020302020202020200A2031332031342020312020302020202020200A2031342031352020312020302020202020200A2031352031312020312020302020202020200A2020332031372020312020362020202020200A2020352031382020312020312020202020200A2020332031392020312020312020202020200A2031392031382020312020302020202020200A2031392032302020312020312020202020200A2031382032312020322020302020202020200A2020362031362020312020312020202020200A2031302032322020312020312020202020200A2031392020312020312020312020202020200A2032302032332020312020302020202020200A2031312032342020312020362020202020200A2031322032352020312020362020202020200A2032332032362020312020302020202020200A2031322032372020312020312020202020200A4D202053545920203120202031205355500A4D2020534C4220203120202031202020310A4D202053414C20202031202031202032340A4D202053424C20202031202031202032370A4D2020534D5420202031204D650A4D2020534256202020312032372020202D372E3130333020202020382E373231360A4D202053545920203120202032205355500A4D2020534C4220203120202032202020320A4D202053414C20202032202031202032350A4D202053424C20202032202031202032380A4D2020534D5420202032204D650A4D2020534256202020322032382020202D352E3937343520202020372E353934310A4D202053545920203120202033205355500A4D2020534C4220203120202033202020330A4D202053414C20202033202031202032360A4D202053424C20202033202031202032390A4D2020534D5420202033204D650A4D2020534256202020332032392020202D372E3531363020202020382E303036370A4D202053545920203120202034205355500A4D2020534C4220203120202034202020340A4D202053414C20202034202031202032370A4D202053424C20202034202031202033300A4D2020534D5420202034204D650A4D2020534256202020342033302020202D352E3937353920202020382E343139310A4D2020454E44
Contributor: EGUCHI S, FAC. OF SCIENCE, HIROSHIMA UNIV.
InstType: EI
InstName: HITACHI RMU-7L
IoniMethod: _ENERGY 70 eV
IonPolarity: pos
Date: 2010-10-09 19:48:36+02:00
Num Peaks: 170
40 25 41 999 42 35 43 29 45 745 46 29 47 25 50 2 51 40 52 45 
53 300 54 3 55 634 56 42 57 230 65 6 66 29 67 420 68 55 69 53 
70 40 71 52 72 25 73 3 74 15 75 23 76 23 77 10 78 35 79 440 
80 60 81 47 82 65 83 55 84 40 85 5 91 450 92 110 93 345 94 8 
95 277 96 45 97 67 98 2 103 29 104 40 105 255 106 3 107 197 108 38 
109 165 110 3 111 40 112 20 115 47 116 2 117 18 118 32 119 90 120 5 
121 125 122 65 123 250 124 4 125 20 130 11 131 64 132 3 133 85 134 27 
135 50 136 8 137 170 138 28 139 30 141 3 142 20 143 28 144 18 145 6 
146 25 147 80 148 52 149 15 150 30 151 15 152 21 153 2 154 15 155 20 
156 15 157 3 158 15 159 55 160 25 161 7 162 57 163 50 164 30 165 4 
166 25 167 35 168 25 169 3 171 25 172 10 173 65 174 2 175 51 176 30 
177 35 180 5 181 145 182 45 183 25 185 3 186 10 187 42 188 25 189 6 
190 35 191 25 193 25 194 4 195 30 199 30 201 40 202 3 203 30 204 25 
205 33 213 5 214 15 215 424 216 90 217 3 218 131 219 30 223 35 229 2 
230 850 231 210 232 40 243 11 244 50 253 109 254 35 255 5 256 21 257 80 
258 58 259 5 268 70 269 15 271 50 272 4 273 155 274 57 275 45 285 9 
286 290 287 92 288 54 300 6 303 160 304 45 317 30 318 48 319 65 320 10 
