Name: L-MENTHYL 3-OXOHEXANOATE
MW: 268
Formula: C16H28O3
Synonym: MassBank: JP001155
Synonym: L-MENTHYL 3-OXOHEXANOATE
Structure: 303231375F4C2D4D454E5448594C20332D4F584F484558414E4F4154452E6D6F6C0A20204368656D447261773039303631303135323732440A2031392031392020302020302020302020302020302020302020302020303939392056323030300A2020202D302E343132352020202D302E3030303020202020302E303030302043202020302020302020302020302020302020302020302020302020302020302020302020300A2020202D312E323337352020202D302E3030303020202020302E303030302043202020302020302020302020302020302020302020302020302020302020302020302020300A2020202D312E363439392020202D302E3731343520202020302E303030302043202020302020302020302020302020302020302020302020302020302020302020302020300A2020202D312E323337352020202D312E3432383920202020302E303030302043202020302020302020302020302020302020302020302020302020302020302020302020300A2020202D312E363439392020202D322E3134333320202020302E303030302043202020302020302020302020302020302020302020302020302020302020302020302020300A2020202D312E323337352020202D322E3835373820202020302E303030302043202020302020302020302020302020302020302020302020302020302020302020302020300A20202020302E303030302020202D302E3731343520202020302E30303030204F202020302020302020302020302020302020302020302020302020302020302020302020300A20202020302E3030303020202020302E3731343520202020302E30303030204F202020302020302020302020302020302020302020302020302020302020302020302020300A2020202D322E343734392020202D302E3731343520202020302E30303030204F202020302020302020302020302020302020302020302020302020302020302020302020300A20202020302E3832353020202020302E3731343520202020302E303030302043202020302020302020302020302020302020302020302020302020302020302020302020300A20202020312E3233373520202020312E3432383920202020302E303030302043202020302020302020302020302020302020302020302020302020302020302020302020300A20202020322E3036323420202020312E3432383920202020302E303030302043202020302020302020302020302020302020302020302020302020302020302020302020300A20202020322E3437343920202020302E3731343520202020302E303030302043202020302020302020302020302020302020302020302020302020302020302020302020300A20202020322E303632342020202D302E3030303020202020302E303030302043202020302020302020302020302020302020302020302020302020302020302020302020300A20202020312E323337352020202D302E3030303020202020302E303030302043202020302020302020302020302020302020302020302020302020302020302020302020300A20202020322E343734392020202D302E3731343520202020302E303030302043202020302020302020302020302020302020302020302020302020302020302020302020300A20202020302E3832353020202020322E3134333320202020302E303030302043202020302020302020302020302020302020302020302020302020302020302020302020300A20202020302E3030303020202020322E3134333320202020302E303030302043202020302020302020302020302020302020302020302020302020302020302020302020300A20202020312E3233373520202020322E3835373820202020302E303030302043202020302020302020302020302020302020302020302020302020302020302020302020300A2020312020322020312020302020202020200A2020322020332020312020302020202020200A2020332020342020312020302020202020200A2020342020352020312020302020202020200A2020352020362020312020302020202020200A2020312020372020322020302020202020200A2020312020382020312020302020202020200A2020332020392020322020302020202020200A2031302031312020312020302020202020200A2031312031322020312020302020202020200A2031322031332020312020302020202020200A2031332031342020312020302020202020200A2031342031352020312020302020202020200A2031302031352020312020302020202020200A2031342031362020312020362020202020200A2031372031382020312020302020202020200A2031372031392020312020302020202020200A2031372031312020312020312020202020200A2031302020382020312020362020202020200A4D2020454E44
Contributor: NAKAYAMA M, MASS SPECTROSCOPY SOC. OF JAPAN (MSSJ)
InstType: EI
InstName: HITACHI RMU-6L
IoniMethod: _ENERGY 70 eV
IonPolarity: pos
Date: 2010-10-09 19:48:36+02:00
Num Peaks: 85
40 40 41 700 42 130 43 999 44 30 45 20 51 10 52 10 53 80 54 80 
55 580 56 90 57 350 58 60 59 20 60 10 65 30 66 20 67 190 68 90 
69 410 70 60 71 720 72 30 74 10 77 30 78 10 79 60 80 80 81 650 
82 260 83 700 84 80 85 30 86 20 87 20 91 20 94 30 95 680 96 200 
97 140 98 20 99 10 102 20 105 10 107 10 109 80 110 50 111 30 112 30 
113 160 114 10 115 10 121 10 122 10 123 300 124 30 125 10 127 10 128 10 
129 30 130 40 131 150 132 20 137 40 138 770 139 240 140 20 141 20 145 60 
146 10 149 10 150 10 151 10 152 10 153 10 154 10 155 50 156 10 157 10 
170 10 171 10 267 4 268 9 269 1 
