Name: TRIFLUOROACETIC ACID ETHYL ESTER
MW: 142
Formula: C4H5F3O2
Synonym: MassBank: JP005403
Synonym: TRIFLUOROACETIC ACID ETHYL ESTER
Synonym: ETHYL TRIFLUOROACETATE
Structure: 310A32320A545249464C554F524F414345544943204143494420455448594C2045535445522E6D6F6C0A20204368656D447261773038313231303038333632440A2020392020382020302020302020302020302020302020302020302020303939392056323030300A20202020302E3335373220202020302E3135313020202020302E303030302043202020302020302020302020302020302020302020302020302020302020302020302020300A20202020312E303731372020202D302E3236313520202020302E303030302043202020302020302020302020302020302020302020302020302020302020302020302020300A20202020302E3335373220202020302E3937363020202020302E30303030204F202020302020302020302020302020302020302020302020302020302020302020302020300A2020202D302E333537322020202D302E3236313520202020302E30303030204F202020302020302020302020302020302020302020302020302020302020302020302020300A20202020312E3438343220202020302E3435333020202020302E303030302046202020302020302020302020302020302020302020302020302020302020302020302020300A20202020312E373836322020202D302E3637343020202020302E303030302046202020302020302020302020302020302020302020302020302020302020302020302020300A20202020302E363539322020202D302E3937363020202020302E303030302046202020302020302020302020302020302020302020302020302020302020302020302020300A2020202D312E3037313720202020302E3135313020202020302E303030302043202020302020302020302020302020302020302020302020302020302020302020302020300A2020202D312E373836322020202D302E3236313520202020302E303030302043202020302020302020302020302020302020302020302020302020302020302020302020300A2020312020322020312020302020202020200A2020312020332020322020302020202020200A2020312020342020312020302020202020200A2020322020352020312020302020202020200A2020322020362020312020302020202020200A2020322020372020312020302020202020200A2020382020392020312020302020202020200A2020342020382020312020302020202020200A4D2020454E44
Contributor: TAJIMA S, GUNMA COLLEGE OF TECHNOLOGY
InstType: EI
InstName: HITACHI RMU-7M
IoniMethod: _ENERGY 70 eV
IonPolarity: pos
Date: 2010-10-09 19:48:36+02:00
Num Peaks: 22
15 35 26 46 27 278 28 134 29 999 30 25 31 54 33 27 43 29 44 40 
45 20 47 17 50 22 51 17 69 275 73 10 97 12 99 58 115 10 127 19 
141 38 142 12 
