Name: MassBank: JP002081
MW: 574
Formula: C28H46O12
Synonym: MassBank: JP002081
Synonym: 2-(3,4-DIMETHOXYPHENYL)ETHYL 2,3,4-TRI-O-METHYL-ALPHA-(L)-RHAMNOPYRANOSYL(1.RAR.3)-2,4,6-TRI-O-METHYL-BETA-(D)-GLUCOPYRANOSIDE
Synonym: DEACYLACTEOSIDE PERMETHYL ETHER
Structure: 322D28332C342D44494D4554484F58595048454E594C29455448594C20322C332C342D5452492D4F2D4D455448594C2D414C5048412D284C292D5248414D4E4F505952414E4F53594C28312E5241522E33292D322C342C362D5452492D4F2D4D455448594C2D424554412D2844292D474C55434F505952414E4F534944452E6D6F6C0A20204368656D447261773132323130393134323532440A2035302035322020302020302020302020302020302020302020302020303939392056323030300A2020202D322E353031382020202D312E3633353520202020302E303030302043202020302020302020302020302020302020302020302020302020302020302020302020300A2020202D332E363931362020202D322E3534313620202020302E303030302043202020302020302020302020302020302020302020302020302020302020302020302020300A2020202D322E353031382020202D332E3433353720202020302E303030302043202020302020302020302020302020302020302020302020302020302020302020302020300A2020202D302E363339362020202D332E3433353720202020302E303030302043202020302020302020302020302020302020302020302020302020302020302020302020300A20202020302E353937392020202D322E3534313620202020302E303030302043202020302020302020302020302020302020302020302020302020302020302020302020300A2020202D302E363339362020202D312E3633353520202020302E30303030204F202020302020302020302020302020302020302020302020302020302020302020302020300A2020202D332E363931362020202D312E3738313020202020302E30303030204F202020302020302020302020302020302020302020302020302020302020302020302020300A2020202D332E363931362020202D332E3433353720202020302E303030302048202020302020302020302020302020302020302020302020302020302020302020302020300A20202020302E353937392020202D332E3335343720202020302E303030302048202020302020302020302020302020302020302020302020302020302020302020302020300A2020202D302E363339362020202D322E3633373020202020302E303030302048202020302020302020302020302020302020302020302020302020302020302020302020300A2020202D302E363339362020202D342E3236303720202020302E30303030204F202020302020302020302020302020302020302020302020302020302020302020302020300A2020202D322E353031382020202D342E3236303720202020302E30303030204F202020302020302020302020302020302020302020302020302020302020302020302020300A2020202D322E353031382020202D322E3638343620202020302E303030302048202020302020302020302020302020302020302020302020302020302020302020302020300A20202020302E3635333820202020312E3738353720202020302E30303030204F202020302020302020302020302020302020302020302020302020302020302020302020300A2020202D322E353133372020202D322E3233313620202020302E303030302043202020302020302020302020302020302020302020302020302020302020302020302020300A20202020302E3539313920202020302E3934323620202020302E303030302043202020302020302020302020302020302020302020302020302020302020302020302020300A2020202D302E3539373920202020302E3033363520202020302E303030302043202020302020302020302020302020302020302020302020302020302020302020302020300A20202020302E353931392020202D302E3835373620202020302E303030302043202020302020302020302020302020302020302020302020302020302020302020302020300A20202020322E343534312020202D302E3835373620202020302E303030302043202020302020302020302020302020302020302020302020302020302020302020302020300A20202020332E3639313620202020302E3033363520202020302E303030302043202020302020302020302020302020302020302020302020302020302020302020302020300A20202020322E3435343120202020302E3934323620202020302E30303030204F202020302020302020302020302020302020302020302020302020302020302020302020300A2020202D302E3539373920202020302E3739373220202020302E30303030204F202020302020302020302020302020302020302020302020302020302020302020302020300A2020202D302E353937392020202D302E3835373620202020302E303030302048202020302020302020302020302020302020302020302020302020302020302020302020300A20202020332E3639313620202020302E3839323520202020302E303030302048202020302020302020302020302020302020302020302020302020302020302020302020300A20202020332E363931362020202D302E3737363520202020302E303030302043202020302020302020302020302020302020302020302020302020302020302020302020300A20202020322E343534312020202D302E3035383820202020302E30303030204F202020302020302020302020302020302020302020302020302020302020302020302020300A20202020322E343534312020202D312E3638323620202020302E303030302048202020302020302020302020302020302020302020302020302020302020302020302020300A20202020302E353931392020202D312E3638323620202020302E30303030204F202020302020302020302020302020302020302020302020302020302020302020302020300A20202020302E353931392020202D302E3130363520202020302E303030302048202020302020302020302020302020302020302020302020302020302020302020302020300A20202020302E3538303020202020302E3334363520202020302E303030302048202020302020302020302020302020302020302020302020302020302020302020302020300A2020202D342E343036312020202D312E3336383520202020302E303030302043202020302020302020302020302020302020302020302020302020302020302020302020300A2020202D312E373837342020202D342E3637333220202020302E303030302043202020302020302020302020302020302020302020302020302020302020302020302020300A20202020302E303734392020202D342E3637333220202020302E303030302043202020302020302020302020302020302020302020302020302020302020302020302020300A2020202D312E3331323420202020312E3230393720202020302E303030302043202020302020302020302020302020302020302020302020302020302020302020302020300A20202020312E3733393720202020302E3335333720202020302E303030302043202020302020302020302020302020302020302020302020302020302020302020302020300A20202020342E343036312020202D312E3138393020202020302E30303030204F202020302020302020302020302020302020302020302020302020302020302020302020300A20202020342E343036312020202D322E3031343020202020302E303030302043202020302020302020302020302020302020302020302020302020302020302020302020300A2020202D302E3036303720202020322E3139383220202020302E303030302043202020302020302020302020302020302020302020302020302020302020302020302020300A2020202D302E3036303720202020332E3032333220202020302E303030302043202020302020302020302020302020302020302020302020302020302020302020302020300A2020202D302E3737353120202020332E3433353720202020302E303030302043202020302020302020302020302020302020302020302020302020302020302020302020300A2020202D302E3737353120202020342E3236303720202020302E303030302043202020302020302020302020302020302020302020302020302020302020302020302020300A2020202D312E3438393620202020342E3637333220202020302E303030302043202020302020302020302020302020302020302020302020302020302020302020302020300A2020202D322E3230343120202020342E3236303720202020302E303030302043202020302020302020302020302020302020302020302020302020302020302020302020300A2020202D322E3230343120202020332E3433353720202020302E303030302043202020302020302020302020302020302020302020302020302020302020302020302020300A2020202D312E3438393620202020332E3032333220202020302E303030302043202020302020302020302020302020302020302020302020302020302020302020302020300A2020202D322E3931383620202020332E3032333220202020302E30303030204F202020302020302020302020302020302020302020302020302020302020302020302020300A2020202D322E3931383620202020342E3637333220202020302E30303030204F202020302020302020302020302020302020302020302020302020302020302020302020300A2020202D332E3633333020202020342E3236303720202020302E303030302043202020302020302020302020302020302020302020302020302020302020302020302020300A2020202D332E3633333020202020332E3433353720202020302E303030302043202020302020302020302020302020302020302020302020302020302020302020302020300A2020202D322E353031382020202D302E3831303520202020302E303030302048202020302020302020302020302020302020302020302020302020302020302020302020300A2020312020322020312020302020202020200A2020322020332020312020302020202020200A2020332020342020312020302020202020200A2020342020352020312020302020202020200A2020352020362020312020302020202020200A2020312020362020312020302020202020200A2020322020372020312020302020202020200A2020322020382020312020302020202020200A2020352020392020312020302020202020200A2020342031302020312020302020202020200A2020342031312020312020302020202020200A2020332031322020312020302020202020200A2020332031332020312020302020202020200A2020312031352020312020302020202020200A2031362031372020312020302020202020200A2031372031382020312020302020202020200A2031382031392020312020302020202020200A2031392032302020312020302020202020200A2032302032312020312020302020202020200A2031362032312020312020302020202020200A2031372032322020312020302020202020200A2031372032332020312020302020202020200A2032302032342020312020302020202020200A2032302032352020312020302020202020200A2031392032362020312020302020202020200A2031392032372020312020302020202020200A2031382032382020312020302020202020200A2031382032392020312020302020202020200A2031362033302020312020302020202020200A2020352032382020312020302020202020200A2020372033312020312020302020202020200A2031322033322020312020302020202020200A2031312033332020312020302020202020200A2032322033342020312020302020202020200A2032362033352020312020302020202020200A2032352033362020312020302020202020200A2033362033372020312020302020202020200A2031342033382020312020302020202020200A2033382033392020312020302020202020200A2033392034302020312020302020202020200A2034302034312020322020302020202020200A2034312034322020312020302020202020200A2034322034332020322020302020202020200A2034332034342020312020302020202020200A2034342034352020322020302020202020200A2034352034302020312020302020202020200A2034342034362020312020302020202020200A2034332034372020312020302020202020200A2034372034382020312020302020202020200A2034362034392020312020302020202020200A2020312035302020312020302020202020200A2031342031362020312020302020202020200A4D2020454E44
Contributor: ENDO K, PHARMACEUTICAL INST., TOHOKU UNIV.
InstType: EI
InstName: HITACHI M-52
IoniMethod: _ENERGY 25 eV
IonPolarity: pos
Date: 2010-10-09 19:48:36+02:00
Num Peaks: 76
18 25 28 14 43 11 45 3 55 11 57 18 59 104 69 1 71 161 72 39 
73 21 75 18 87 14 88 300 89 75 97 4 98 14 99 182 101 343 102 3 
103 14 111 21 113 29 114 1 115 39 116 11 117 29 121 1 125 64 127 64 
128 11 129 9 130 11 131 43 138 32 143 1 145 75 149 11 150 25 151 4 
155 11 157 182 158 18 159 19 160 14 164 999 165 829 166 19 167 29 187 21 
188 29 189 59 190 68 193 36 210 89 211 1 245 14 249 14 263 154 264 2 
304 14 307 11 337 14 369 3 414 236 415 54 416 14 429 1 442 18 574 129 
575 46 576 1 83 14 84 11 85 29 86 7 
