Name: 2-ETHYL-1-PYRROLINE
MW: 97
Formula: C6H11N
Synonym: MassBank: JP000472
Synonym: 2-ETHYL-1-PYRROLINE
Structure: 310A31390A322D455448594C2D312D505952524F4C494E452E6D6F6C0A20204368656D447261773031303331303132343532440A2020372020372020302020302020302020302020302020302020302020303939392056323030300A20202020302E3831353320202020302E3632353320202020302E30303030204E202020302020302020302020302020302020302020302020302020302020302020302020300A20202020302E3036313620202020302E3238393820202020302E303030302043202020302020302020302020302020302020302020302020302020302020302020302020300A20202020302E313437392020202D302E3533303720202020302E303030302043202020302020302020302020302020302020302020302020302020302020302020302020300A20202020302E393534382020202D302E3730323320202020302E303030302043202020302020302020302020302020302020302020302020302020302020302020302020300A20202020312E3336373320202020302E3031323220202020302E303030302043202020302020302020302020302020302020302020302020302020302020302020302020300A2020202D302E3635323920202020302E3730323320202020302E303030302043202020302020302020302020302020302020302020302020302020302020302020302020300A2020202D312E3336373320202020302E3238393820202020302E303030302043202020302020302020302020302020302020302020302020302020302020302020302020300A2020312020322020322020302020202020200A2020322020332020312020302020202020200A2020332020342020312020302020202020200A2020342020352020312020302020202020200A2020312020352020312020302020202020200A2020362020372020312020302020202020200A2020322020362020312020302020202020200A4D2020454E44
Contributor: SASAKI S, TOYOHASHI UNIV. OF TECH.
InstType: EI
InstName: MX-1303
IoniMethod: _ENERGY 50 eV
IonPolarity: pos
Date: 2010-10-09 19:48:36+02:00
Num Peaks: 43
26 37 27 180 29 63 30 2 37 14 38 34 39 265 40 9 41 435 42 241 
43 36 50 2 51 37 52 39 53 51 54 29 55 60 56 22 57 22 63 2 
64 10 65 24 66 15 67 5 68 170 69 999 70 85 71 1 77 20 78 14 
79 18 80 2 81 17 82 21 83 14 91 8 92 11 94 13 95 21 96 39 
97 383 98 125 99 16 
