Name: MassBank: JP009881
MW: 210
Formula: C14H26O
Synonym: MassBank: JP009881
Synonym: 4-HYDROXY-5,8-DIMETHYL-5-PROPYL-1,7-NONADIENE
Structure: 342D485944524F58592D352C382D44494D455448594C2D352D50524F50594C2D312C372D4E4F4E414449454E452E6D6F6C0A20204368656D447261773034313231303230323132440A2031352031342020302020302020302020302020302020302020302020303939392056323030300A20202020312E373836322020202D302E3633333620202020302E303030302043202020302020302020302020302020302020302020302020302020302020302020302020300A20202020312E3738363220202020302E3139313420202020302E303030302043202020302020302020302020302020302020302020302020302020302020302020302020300A20202020312E3037313720202020302E3630333920202020302E303030302043202020302020302020302020302020302020302020302020302020302020302020302020300A20202020302E3335373220202020302E3139313420202020302E303030302043202020302020302020302020302020302020302020302020302020302020302020302020300A2020202D302E3335373220202020302E3630333920202020302E303030302043202020302020302020302020302020302020302020302020302020302020302020302020300A2020202D302E373639372020202D302E3131303520202020302E303030302043202020302020302020302020302020302020302020302020302020302020302020302020300A2020202D302E333537322020202D302E3832353020202020302E303030302043202020302020302020302020302020302020302020302020302020302020302020302020300A2020202D302E373639372020202D312E3533393520202020302E303030302043202020302020302020302020302020302020302020302020302020302020302020302020300A2020202D302E333537322020202D322E3235333920202020302E303030302043202020302020302020302020302020302020302020302020302020302020302020302020300A2020202D312E3037313720202020312E3031363420202020302E303030302043202020302020302020302020302020302020302020302020302020302020302020302020300A2020202D312E3037313720202020312E3834313420202020302E303030302043202020302020302020302020302020302020302020302020302020302020302020302020300A2020202D312E3738363220202020322E3235333920202020302E303030302043202020302020302020302020302020302020302020302020302020302020302020302020300A2020202D312E353934372020202D312E3533393520202020302E303030302043202020302020302020302020302020302020302020302020302020302020302020302020300A20202020302E3035353320202020312E3331383420202020302E303030302043202020302020302020302020302020302020302020302020302020302020302020302020300A20202020302E333537322020202D302E3633333620202020302E30303030204F202020302020302020302020302020302020302020302020302020302020302020302020300A2020312020322020322020302020202020200A2020322020332020312020302020202020200A2020332020342020312020302020202020200A2020342020352020312020302020202020200A2020352020362020312020302020202020200A2020362020372020312020302020202020200A2020372020382020322020302020202020200A2020382020392020312020302020202020200A2031302031312020312020302020202020200A2031312031322020312020302020202020200A2020352031302020312020302020202020200A2020382031332020312020302020202020200A2020352031342020312020302020202020200A2020342031352020312020302020202020200A4D2020454E44
Contributor: KURARAY CO., LTD.
InstType: EI
InstName: JEOL JMS-D-300
IoniMethod: _ENERGY 70 eV
IonPolarity: pos
Date: 2010-10-09 19:48:36+02:00
Num Peaks: 77
25 12 26 102 27 167 28 167 29 122 31 10 37 20 38 40 39 260 40 102 
41 675 42 168 43 600 44 32 45 20 50 28 51 32 52 27 53 112 54 42 
55 407 56 150 57 120 58 20 65 28 66 22 67 166 68 67 69 990 70 314 
71 999 72 63 77 45 78 20 79 73 80 18 81 140 82 37 83 180 84 77 
85 57 91 52 92 10 93 51 94 18 95 133 96 33 97 118 98 57 99 202 
100 50 105 13 107 40 108 12 109 123 110 23 111 40 112 10 113 18 121 28 
123 42 124 10 125 17 126 18 136 10 138 22 139 80 140 90 141 46 149 18 
150 10 151 343 152 50 167 30 168 28 169 83 210 100 
