Name: PHENYL-3-TRIMETHYLSTANNYLPROPYL SULFIDE
MW: 316
Formula: C12H20SSn
Synonym: MassBank: JP004979
Synonym: PHENYL-3-TRIMETHYLSTANNYLPROPYL SULFIDE
Synonym: 1-PHENYLTHIO-3-TRIMETHYLSTANNYLPROPANE
Structure: 5048454E594C2D332D5452494D455448594C5354414E4E594C50524F50594C2053554C464944452E6D6F6C0A20204368656D447261773131323230393232333032440A2031342031342020302020302020302020302020302020302020302020303939392056323030300A2020202D302E3030303020202020302E3035353320202020302E303030302043202020302020302020302020302020302020302020302020302020302020302020302020300A20202020302E3731343520202020302E3436373820202020302E303030302043202020302020302020302020302020302020302020302020302020302020302020302020300A20202020312E3432383920202020302E3035353320202020302E303030302043202020302020302020302020302020302020302020302020302020302020302020302020300A20202020322E3134333420202020302E3436373820202020302E3030303020536E2020302020302020302020302020302020302020302020302020302020302020302020300A20202020322E353535392020202D302E3234363720202020302E303030302043202020302020302020302020302020302020302020302020302020302020302020302020300A20202020312E3733303920202020312E3138323220202020302E303030302043202020302020302020302020302020302020302020302020302020302020302020302020300A20202020322E3835373920202020302E3838303320202020302E303030302043202020302020302020302020302020302020302020302020302020302020302020302020300A2020202D302E3731343520202020302E3436373820202020302E303030302053202020302020302020302020302020302020302020302020302020302020302020302020300A2020202D312E3432383920202020302E3035353320202020302E303030302043202020302020302020302020302020302020302020302020302020302020302020302020300A2020202D312E343238392020202D302E3736393720202020302E303030302043202020302020302020302020302020302020302020302020302020302020302020302020300A2020202D322E313433342020202D312E3138323220202020302E303030302043202020302020302020302020302020302020302020302020302020302020302020302020300A2020202D322E383537392020202D302E3736393720202020302E303030302043202020302020302020302020302020302020302020302020302020302020302020302020300A2020202D322E3835373920202020302E3035353320202020302E303030302043202020302020302020302020302020302020302020302020302020302020302020302020300A2020202D322E3134333420202020302E3436373820202020302E303030302043202020302020302020302020302020302020302020302020302020302020302020302020300A2020312020322020312020302020202020200A2020322020332020312020302020202020200A2020342020352020312020312020202020200A2020342020362020312020312020202020200A2020342020372020312020302020202020200A2020332020342020312020302020202020200A2020392031302020312020302020202020200A2031302031312020322020302020202020200A2031312031322020312020302020202020200A2031322031332020322020302020202020200A2031332031342020312020302020202020200A2020392031342020322020302020202020200A2020382020392020312020302020202020200A2020312020382020312020302020202020200A4D2020454E44
Contributor: MASS SPECTROSCOPY SOC. OF JAPAN (MSSJ)
InstType: EI
InstName: JEOL JMS-D-3000
IoniMethod: _ENERGY 70 eV
IonPolarity: pos
Date: 2010-10-09 19:48:36+02:00
Num Peaks: 28
45 248 77 406 91 167 109 162 123 274 131 179 133 303 135 415 150 282 162 162 
163 534 164 218 165 667 227 192 229 269 255 316 256 222 257 543 258 239 259 765 
297 440 298 286 299 722 300 355 301 999 302 179 303 192 305 188 
