Name: ETHYLENE GLYCOL MONO-TERT-BUTYL ETHER
MW: 118
Formula: C6H14O2
Synonym: MassBank: JP008925
Synonym: ETHYLENE GLYCOL MONO-TERT-BUTYL ETHER
Structure: 310A32300A455448594C454E4520474C59434F4C204D4F4E4F2D544552542D425554594C2045544845522E6D6F6C0A20204368656D447261773032323131303136303832440A2020382020372020302020302020302020302020302020302020302020303939392056323030300A2020202D302E333537322020202D302E3030303020202020302E303030302043202020302020302020302020302020302020302020302020302020302020302020302020300A2020202D312E303731372020202D302E3431323520202020302E303030302043202020302020302020302020302020302020302020302020302020302020302020302020300A20202020302E333537322020202D302E3431323520202020302E30303030204F202020302020302020302020302020302020302020302020302020302020302020302020300A2020202D312E373836322020202D302E3030303020202020302E30303030204F202020302020302020302020302020302020302020302020302020302020302020302020300A20202020312E303731372020202D302E3030303020202020302E303030302043202020302020302020302020302020302020302020302020302020302020302020302020300A20202020302E3635393220202020302E3731343520202020302E303030302043202020302020302020302020302020302020302020302020302020302020302020302020300A20202020312E3738363220202020302E3431323520202020302E303030302043202020302020302020302020302020302020302020302020302020302020302020302020300A20202020312E343834322020202D302E3731343520202020302E303030302043202020302020302020302020302020302020302020302020302020302020302020302020300A2020312020322020312020302020202020200A2020312020332020312020302020202020200A2020322020342020312020302020202020200A2020352020362020312020302020202020200A2020352020382020312020302020202020200A2020352020372020312020302020202020200A2020332020352020312020302020202020200A4D2020454E44
Contributor: YAMAMOTO M, DEP. CHEMISTRY, FAC. SCIENCE, NARA WOMEN'S UNIV.
InstType: EI
InstName: HITACHI RMU-6M
IoniMethod: _ENERGY 20 eV
IonPolarity: pos
Date: 2010-10-09 19:48:36+02:00
Num Peaks: 15
28 10 29 80 31 26 41 17 45 131 55 13 56 105 57 999 58 44 59 684 
60 23 87 6 88 18 103 282 104 17 
