Name: MassBank: JP001993
MW: 175
Formula: C11H13NO
Synonym: MassBank: JP001993
Synonym: 5-METHOXY-1,2-DIMETHYLINDOLE
Structure: 352D4D4554484F58592D312C322D44494D455448594C494E444F4C452E6D6F6C0A20204368656D447261773034323331303036313232440A2031332031342020302020302020302020302020302020302020302020303939392056323030300A20202020312E3136363320202020302E3335333920202020302E30303030204E202020302020302020302020302020302020302020302020302020302020302020302020300A20202020312E363531322020202D302E3331333520202020302E303030302043202020302020302020302020302020302020302020302020302020302020302020302020300A20202020312E313636332020202D302E3938313020202020302E303030302043202020302020302020302020302020302020302020302020302020302020302020302020300A20202020302E333831372020202D302E3732363020202020302E303030302043202020302020302020302020302020302020302020302020302020302020302020302020300A2020202D302E333332382020202D312E3133383520202020302E303030302043202020302020302020302020302020302020302020302020302020302020302020302020300A2020202D312E303437332020202D302E3732363020202020302E303030302043202020302020302020302020302020302020302020302020302020302020302020302020300A2020202D312E3034373320202020302E3039393020202020302E303030302043202020302020302020302020302020302020302020302020302020302020302020302020300A2020202D302E3333323820202020302E3531313520202020302E303030302043202020302020302020302020302020302020302020302020302020302020302020302020300A20202020302E3338313720202020302E3039393020202020302E303030302043202020302020302020302020302020302020302020302020302020302020302020302020300A20202020322E343736322020202D302E3331333520202020302E303030302043202020302020302020302020302020302020302020302020302020302020302020302020300A20202020312E3432313220202020312E3133383520202020302E303030302043202020302020302020302020302020302020302020302020302020302020302020302020300A2020202D312E373631372020202D312E3133383520202020302E30303030204F202020302020302020302020302020302020302020302020302020302020302020302020300A2020202D322E343736322020202D302E3732363020202020302E303030302043202020302020302020302020302020302020302020302020302020302020302020302020300A2020312020322020312020302020202020200A2020322020332020322020302020202020200A2020332020342020312020302020202020200A2020342020352020312020302020202020200A2020352020362020322020302020202020200A2020362020372020312020302020202020200A2020372020382020322020302020202020200A2020382020392020312020302020202020200A2020312020392020312020302020202020200A2020342020392020322020302020202020200A2020322031302020312020302020202020200A2020312031312020312020302020202020200A2031322031332020312020302020202020200A2020362031322020312020302020202020200A4D2020454E44
Contributor: SASAKI S, TOYOHASHI UNIV. OF TECH.
InstType: EI
InstName: MX-1303
IoniMethod: _ENERGY 50 eV
IonPolarity: pos
Date: 2010-10-09 19:48:36+02:00
Num Peaks: 32
45 77 46 119 56 330 57 8 58 286 61 210 68 62 69 5 70 580 71 49 
72 100 73 26 78 42 82 159 83 30 84 9 85 34 86 46 92 32 96 4 
98 53 116 30 118 82 129 4 130 58 131 112 132 840 133 5 160 680 161 36 
175 999 176 80 
