Name: MassBank: JP002961
MW: 132
Formula: C5H8O4
Synonym: MassBank: JP002961
Synonym: ALPHA-METHYLENE-BETA,GAMMA-DIHYDROXYBUTYRIC ACID
Structure: 310A32320A414C5048412D4D455448594C454E452D424554412C47414D4D412D4449485944524F58594255545952494320414349442E6D6F6C0A20204368656D447261773038303631303130343232440A2020392020382020302020302020302020302020302020302020302020303939392056323030300A2020202D302E3230363320202020302E3731343520202020302E303030302043202020302020302020302020302020302020302020302020302020302020302020302020300A20202020302E3230363320202020302E3030303020202020302E303030302043202020302020302020302020302020302020302020302020302020302020302020302020300A2020202D302E323036332020202D302E3731343520202020302E303030302043202020302020302020302020302020302020302020302020302020302020302020302020300A20202020302E323036322020202D312E3432383920202020302E303030302043202020302020302020302020302020302020302020302020302020302020302020302020300A2020202D312E3033313320202020302E3731343520202020302E30303030204F202020302020302020302020302020302020302020302020302020302020302020302020300A20202020302E3230363220202020312E3432383920202020302E30303030204F202020302020302020302020302020302020302020302020302020302020302020302020300A20202020312E303331332020202D312E3432383920202020302E30303030204F202020302020302020302020302020302020302020302020302020302020302020302020300A2020202D312E303331332020202D302E3731343520202020302E30303030204F202020302020302020302020302020302020302020302020302020302020302020302020300A20202020312E3033313220202020302E3030303020202020302E303030302043202020302020302020302020302020302020302020302020302020302020302020302020300A2020312020322020312020302020202020200A2020322020332020312020302020202020200A2020332020342020312020302020202020200A2020312020352020322020302020202020200A2020312020362020312020302020202020200A2020342020372020312020302020202020200A2020332020382020312020302020202020200A2020322020392020322020302020202020200A4D2020454E44
Contributor: SASAKI S, TOYOHASHI UNIV. OF TECH.
InstType: EI
InstName: Unknown
IoniMethod: EI
IonPolarity: pos
Date: 2010-10-09 19:48:36+02:00
Num Peaks: 17
37 95 38 127 39 676 40 37 41 122 42 88 43 486 44 74 45 257 55 372 
56 534 57 2 60 210 67 88 68 506 84 999 96 608 
