Name: 4-METHYLAMINO-ANTIPYRINE
MW: 217
Formula: C12H15N3O
Synonym: MassBank: JP003243
Synonym: 4-METHYLAMINO-ANTIPYRINE
Structure: 342D4D455448594C414D494E4F2D414E5449505952494E452E6D6F6C0A20204368656D447261773034323131303032353932440A2031362031372020302020302020302020302020302020302020302020303939392056323030300A20202020312E3136313720202020302E3431323520202020302E303030302043202020302020302020302020302020302020302020302020302020302020302020302020300A20202020302E3337373120202020302E3636373420202020302E303030302043202020302020302020302020302020302020302020302020302020302020302020302020300A20202020302E3132323220202020312E3435323120202020302E30303030204F202020302020302020302020302020302020302020302020302020302020302020302020300A2020202D302E3130373820202020302E3030303020202020302E30303030204E202020302020302020302020302020302020302020302020302020302020302020302020300A20202020302E333737312020202D302E3636373420202020302E30303030204E202020302020302020302020302020302020302020302020302020302020302020302020300A20202020302E313232322020202D312E3435323120202020302E303030302043202020302020302020302020302020302020302020302020302020302020302020302020300A20202020312E313631372020202D302E3431323520202020302E303030302043202020302020302020302020302020302020302020302020302020302020302020302020300A20202020312E383239322020202D302E3839373420202020302E303030302043202020302020302020302020302020302020302020302020302020302020302020302020300A2020202D302E3933323820202020302E3030303020202020302E303030302043202020302020302020302020302020302020302020302020302020302020302020302020300A2020202D312E3334353320202020302E3731343520202020302E303030302043202020302020302020302020302020302020302020302020302020302020302020302020300A2020202D322E3137303320202020302E3731343520202020302E303030302043202020302020302020302020302020302020302020302020302020302020302020302020300A2020202D322E3538323820202020302E3030303020202020302E303030302043202020302020302020302020302020302020302020302020302020302020302020302020300A2020202D322E313730332020202D302E3731343520202020302E303030302043202020302020302020302020302020302020302020302020302020302020302020302020300A2020202D312E333435332020202D302E3731343520202020302E303030302043202020302020302020302020302020302020302020302020302020302020302020302020300A20202020312E3832393220202020302E3839373420202020302E30303030204E202020302020302020302020302020302020302020302020302020302020302020302020300A20202020322E3538323820202020302E3536313920202020302E303030302043202020302020302020302020302020302020302020302020302020302020302020302020300A2020312020322020312020302020202020200A2020322020332020322020302020202020200A2020322020342020312020302020202020200A2020342020352020312020302020202020200A2020352020362020312020302020202020200A2020352020372020312020302020202020200A2020372020382020312020302020202020200A2020312020372020322020302020202020200A2020342020392020312020302020202020200A2020392031302020312020302020202020200A2031302031312020322020302020202020200A2031312031322020312020302020202020200A2031322031332020322020302020202020200A2031332031342020312020302020202020200A2020392031342020322020302020202020200A2031352031362020312020302020202020200A2020312031352020312020302020202020200A4D2020454E44
Contributor: MASS SPECTROSCOPY SOC. OF JAPAN (MSSJ)
InstType: EI
InstName: HITACHI RMU-6E
IoniMethod: _ENERGY 70 eV
IonPolarity: pos
Date: 2010-10-09 19:48:36+02:00
Num Peaks: 16
218 200 217 770 216 220 215 230 123 410 119 130 98 230 97 120 91 150 83 620 
77 200 67 40 57 260 56 999 51 90 42 360 
