Name: NITROSOPIPERIDINE
MW: 114
Formula: C5H10N2O
Synonym: MassBank: JP003292
Synonym: NITROSOPIPERIDINE
Structure: 310A32310A4E4954524F534F50495045524944494E452E6D6F6C0A20204368656D447261773038313231303032353332440A2020382020382020302020302020302020302020302020302020302020303939392056323030300A2020202D302E3230363220202020302E3030303020202020302E30303030204E202020302020302020302020302020302020302020302020302020302020302020302020300A20202020302E3230363220202020302E3731343520202020302E303030302043202020302020302020302020302020302020302020302020302020302020302020302020300A20202020312E3033313320202020302E3731343520202020302E303030302043202020302020302020302020302020302020302020302020302020302020302020302020300A20202020312E343433382020202D302E3030303020202020302E303030302043202020302020302020302020302020302020302020302020302020302020302020302020300A20202020312E303331332020202D302E3731343520202020302E303030302043202020302020302020302020302020302020302020302020302020302020302020302020300A20202020302E323036322020202D302E3731343520202020302E303030302043202020302020302020302020302020302020302020302020302020302020302020302020300A2020202D312E3033313320202020302E3030303020202020302E30303030204E202020302020302020302020302020302020302020302020302020302020302020302020300A2020202D312E3434333820202020302E3731343520202020302E30303030204F202020302020302020302020302020302020302020302020302020302020302020302020300A2020312020322020312020302020202020200A2020322020332020312020302020202020200A2020332020342020312020302020202020200A2020342020352020312020302020202020200A2020352020362020312020302020202020200A2020312020362020312020302020202020200A2020372020382020322020302020202020200A2020312020372020312020302020202020200A4D2020454E44
Contributor: KOGA M, UNIV. OF OCCUPATIONAL AND ENVIRONMENTAL HEALTH
InstType: EI
InstName: VARIAN MAT-44
IoniMethod: _ENERGY 70 eV
IonPolarity: pos
Date: 2010-10-09 19:48:36+02:00
Num Peaks: 15
51 33 52 26 53 84 54 166 55 999 56 442 57 59 67 42 68 22 69 21 
82 39 83 41 84 49 114 267 115 18 
