Name: MassBank: JP004255
MW: 172
Formula: C10H20O2
Synonym: MassBank: JP004255
Synonym: 3,5,5-TRIMETHYLHEXANOIC ACID METHYL ESER
Structure: 332C352C352D5452494D455448594C484558414E4F49432041434944204D455448594C20455345522E6D6F6C0A20204368656D447261773032323231303030333232440A2031322031312020302020302020302020302020302020302020302020303939392056323030300A2020202D322E303632352020202D302E3330323020202020302E303030302043202020302020302020302020302020302020302020302020302020302020302020302020300A2020202D312E323337352020202D302E3330323020202020302E303030302043202020302020302020302020302020302020302020302020302020302020302020302020300A2020202D302E343132352020202D302E3330323020202020302E303030302043202020302020302020302020302020302020302020302020302020302020302020302020300A20202020302E3030303020202020302E3431323520202020302E303030302043202020302020302020302020302020302020302020302020302020302020302020302020300A20202020302E3832353020202020302E3431323520202020302E303030302043202020302020302020302020302020302020302020302020302020302020302020302020300A2020202D302E3431323520202020312E3132373020202020302E303030302043202020302020302020302020302020302020302020302020302020302020302020302020300A2020202D312E3233373520202020302E3532333020202020302E303030302043202020302020302020302020302020302020302020302020302020302020302020302020300A2020202D312E323337352020202D312E3132373020202020302E303030302043202020302020302020302020302020302020302020302020302020302020302020302020300A20202020312E323337352020202D302E3330323020202020302E303030302043202020302020302020302020302020302020302020302020302020302020302020302020300A20202020302E383235302020202D312E3031363420202020302E30303030204F202020302020302020302020302020302020302020302020302020302020302020302020300A20202020322E303632352020202D302E3330323020202020302E30303030204F202020302020302020302020302020302020302020302020302020302020302020302020300A20202020302E303030302020202D312E3031363420202020302E303030302043202020302020302020302020302020302020302020302020302020302020302020302020300A2020312020322020312020302020202020200A2020322020332020312020302020202020200A2020332020342020312020302020202020200A2020342020352020312020302020202020200A2020342020362020312020302020202020200A2020322020372020312020312020202020200A2020322020382020312020312020202020200A2020352020392020312020302020202020200A2020392031302020312020302020202020200A2020392031312020322020302020202020200A2031302031322020312020302020202020200A4D2020454E44
Contributor: KOGA M, UNIV. OF OCCUPATIONAL AND ENVIRONMENTAL HEALTH
InstType: EI
InstName: JEOL JMS-01-SG
IoniMethod: _ENERGY 70 eV
IonPolarity: pos
Date: 2010-10-09 19:48:36+02:00
Num Peaks: 33
37 26 39 15 41 169 43 43 51 13 53 2 55 208 56 134 57 999 58 5 
67 13 69 73 71 78 73 3 74 608 75 78 77 17 83 57 84 47 85 17 
86 17 97 9 98 34 99 34 101 30 113 2 115 104 116 208 117 160 125 14 
141 156 142 8 157 100 
