Name: BIS(TRIMETHYLSILYL)METHANE
MW: 160
Formula: C7H20Si2
Synonym: MassBank: JP001444
Synonym: BIS(TRIMETHYLSILYL)METHANE
Synonym: 1.1.1.3.3.3-HEXAMETHYLDISILMETHYLENE
Structure: 310A32320A424953285452494D455448594C53494C594C294D455448414E452E6D6F6C0A20204368656D447261773131323230393233303232440A2020392020382020302020302020302020302020302020302020302020303939392056323030300A20202020302E3030303020202020302E3431323520202020302E303030302043202020302020302020302020302020302020302020302020302020302020302020302020300A2020202D302E373134352020202D302E3030303020202020302E303030302053692020302020302020302020302020302020302020302020302020302020302020302020300A2020202D312E3132373020202020302E3731343520202020302E303030302043202020302020302020302020302020302020302020302020302020302020302020302020300A2020202D302E333032302020202D302E3731343520202020302E303030302043202020302020302020302020302020302020302020302020302020302020302020302020300A2020202D312E343238392020202D302E3431323520202020302E303030302043202020302020302020302020302020302020302020302020302020302020302020302020300A20202020302E3731343520202020302E3030303020202020302E303030302053692020302020302020302020302020302020302020302020302020302020302020302020300A20202020312E3132373020202020302E3731343520202020302E303030302043202020302020302020302020302020302020302020302020302020302020302020302020300A20202020312E343238392020202D302E3431323520202020302E303030302043202020302020302020302020302020302020302020302020302020302020302020302020300A20202020302E333032302020202D302E3731343520202020302E303030302043202020302020302020302020302020302020302020302020302020302020302020302020300A2020322020332020312020312020202020200A2020322020342020312020312020202020200A2020322020352020312020302020202020200A2020312020322020312020302020202020200A2020362020372020312020312020202020200A2020362020382020312020302020202020200A2020362020392020312020312020202020200A2020312020362020312020302020202020200A4D2020454E44
Contributor: MASS SPECTROSCOPY SOC. OF JAPAN (MSSJ)
InstType: EI
InstName: JEOL JMS-D-3000
IoniMethod: _ENERGY 70 eV
IonPolarity: pos
Date: 2010-10-09 19:48:36+02:00
Num Peaks: 21
43 36 44 15 45 85 51 15 57 10 58 11 59 73 65 68 66 10 72 10 
73 374 74 32 75 14 85 17 101 12 115 11 129 47 145 999 146 146 147 69 
160 1 
