Name: MassBank: JP002157
MW: 406
Formula: C30H30O
Synonym: MassBank: JP002157
Synonym: 2,4,6-TRI(ALPHA-METHYLBENZYL(5D))PHENOL
Structure: 322C342C362D54524928414C5048412D4D455448594C42454E5A594C28354429295048454E4F4C2E6D6F6C0A20204368656D447261773132323030393133333232440A2034362034392020302020302020302020302020302020302020302020303939392056323030300A2020202D312E3737343020202020302E3431323520202020302E303030302043202020302020302020302020302020302020302020302020302020302020302020302020300A2020202D312E373734302020202D302E3431323520202020302E303030302043202020302020302020302020302020302020302020302020302020302020302020302020300A2020202D312E303539352020202D302E3832353020202020302E303030302043202020302020302020302020302020302020302020302020302020302020302020302020300A2020202D302E333435302020202D302E3431323520202020302E303030302043202020302020302020302020302020302020302020302020302020302020302020302020300A2020202D302E3334353020202020302E3431323520202020302E303030302043202020302020302020302020302020302020302020302020302020302020302020302020300A2020202D312E3035393520202020302E3832353020202020302E303030302043202020302020302020302020302020302020302020302020302020302020302020302020300A2020202D322E3438383420202020302E3832353020202020302E303030302043202020302020302020302020302020302020302020302020302020302020302020302020300A20202020302E3538333820202020302E3934383820202020302E303030302043202020302020302020302020302020302020302020302020302020302020302020302020300A2020202D312E303539352020202D312E3635303020202020302E303030302043202020302020302020302020302020302020302020302020302020302020302020302020300A20202020322E3038303420202020312E3932343720202020302E303030302048202020312020302020302020302020302020302020302020302020302020302020302020300A2020202D312E373734302020202D322E3036323520202020302E303030302043202020302020302020302020302020302020302020302020302020302020302020302020300A2020202D302E333435302020202D322E3036323520202020302E303030302043202020302020302020302020302020302020302020302020302020302020302020302020300A20202020302E3531313920202020312E3737303620202020302E303030302043202020302020302020302020302020302020302020302020302020302020302020302020300A20202020312E3539313620202020302E3538313920202020302E303030302043202020302020302020302020302020302020302020302020302020302020302020302020300A2020202D332E3230323920202020302E3431323520202020302E303030302043202020302020302020302020302020302020302020302020302020302020302020302020300A2020202D322E3438383420202020312E3635303020202020302E303030302043202020302020302020302020302020302020302020302020302020302020302020302020300A2020202D322E343838342020202D312E3635303020202020302E303030302043202020302020302020302020302020302020302020302020302020302020302020302020300A2020202D332E323032392020202D322E3036323520202020302E303030302043202020302020302020302020302020302020302020302020302020302020302020302020300A2020202D332E323032392020202D322E3838373520202020302E303030302043202020302020302020302020302020302020302020302020302020302020302020302020300A2020202D322E343838342020202D332E3330303020202020302E303030302043202020302020302020302020302020302020302020302020302020302020302020302020300A2020202D312E373734302020202D322E3838373520202020302E303030302043202020302020302020302020302020302020302020302020302020302020302020302020300A2020202D332E3230323920202020322E3036323520202020302E303030302043202020302020302020302020302020302020302020302020302020302020302020302020300A2020202D332E3230323920202020322E3838373520202020302E303030302043202020302020302020302020302020302020302020302020302020302020302020302020300A2020202D322E3438383420202020332E3330303020202020302E303030302043202020302020302020302020302020302020302020302020302020302020302020302020300A2020202D312E3737343020202020322E3838373520202020302E303030302043202020302020302020302020302020302020302020302020302020302020302020302020300A2020202D312E3737343020202020322E3036323520202020302E303030302043202020302020302020302020302020302020302020302020302020302020302020302020300A20202020322E3232333620202020312E3131323220202020302E303030302043202020302020302020302020302020302020302020302020302020302020302020302020300A20202020322E3939383920202020302E3833303120202020302E303030302043202020302020302020302020302020302020302020302020302020302020302020302020300A20202020332E3134323120202020302E3031373620202020302E303030302043202020302020302020302020302020302020302020302020302020302020302020302020300A20202020322E353130312020202D302E3531323720202020302E303030302043202020302020302020302020302020302020302020302020302020302020302020302020300A20202020312E373334392020202D302E3233303520202020302E303030302043202020302020302020302020302020302020302020302020302020302020302020302020300A2020202D332E3931373420202020312E3635303020202020302E303030302048202020312020302020302020302020302020302020302020302020302020302020302020300A2020202D332E3931373420202020332E3330303020202020302E303030302048202020312020302020302020302020302020302020302020302020302020302020302020300A2020202D322E3438383420202020342E3132353020202020302E303030302048202020312020302020302020302020302020302020302020302020302020302020302020300A2020202D312E3035393520202020332E3330303020202020302E303030302048202020312020302020302020302020302020302020302020302020302020302020302020300A2020202D312E3035393520202020312E3635303020202020302E303030302048202020312020302020302020302020302020302020302020302020302020302020302020300A2020202D322E343838342020202D302E3832353020202020302E303030302048202020312020302020302020302020302020302020302020302020302020302020302020300A2020202D332E393137342020202D312E3635303020202020302E303030302048202020312020302020302020302020302020302020302020302020302020302020302020300A2020202D332E393137342020202D332E3330303020202020302E303030302048202020312020302020302020302020302020302020302020302020302020302020302020300A2020202D322E343838342020202D342E3132353020202020302E303030302048202020312020302020302020302020302020302020302020302020302020302020302020300A2020202D312E303539352020202D332E3330303020202020302E303030302048202020312020302020302020302020302020302020302020302020302020302020302020300A20202020332E3633303820202020312E3336303420202020302E303030302048202020312020302020302020302020302020302020302020302020302020302020302020300A20202020332E393137342020202D302E3236343620202020302E303030302048202020312020302020302020302020302020302020302020302020302020302020302020300A20202020322E363533342020202D312E3332353220202020302E303030302048202020312020302020302020302020302020302020302020302020302020302020302020300A20202020312E313032392020202D302E3736303820202020302E303030302048202020312020302020302020302020302020302020302020302020302020302020302020300A20202020302E333639352020202D302E3832353020202020302E30303030204F202020302020302020302020302020302020302020302020302020302020302020302020300A2020312020322020322020302020202020200A2020322020332020312020302020202020200A2020332020342020322020302020202020200A2020342020352020312020302020202020200A2020352020362020322020302020202020200A2020362020312020312020302020202020200A2020312020372020312020302020202020200A2020352020382020312020302020202020200A2020332020392020312020302020202020200A2020392031312020312020302020202020200A2020392031322020312020302020202020200A2020382031332020312020302020202020200A2020382031342020312020302020202020200A2020372031352020312020302020202020200A2020372031362020312020302020202020200A2031312031372020322020302020202020200A2031372031382020312020302020202020200A2031382031392020322020302020202020200A2031392032302020312020302020202020200A2032302032312020322020302020202020200A2032312031312020312020302020202020200A2031362032322020322020302020202020200A2032322032332020312020302020202020200A2032332032342020322020302020202020200A2032342032352020312020302020202020200A2032352032362020322020302020202020200A2032362031362020312020302020202020200A2031342032372020322020302020202020200A2032372032382020312020302020202020200A2032382032392020322020302020202020200A2032392033302020312020302020202020200A2033302033312020322020302020202020200A2033312031342020312020302020202020200A2032322033322020312020302020202020200A2032332033332020312020302020202020200A2032342033342020312020302020202020200A2032352033352020312020302020202020200A2032362033362020312020302020202020200A2031372033372020312020302020202020200A2031382033382020312020302020202020200A2031392033392020312020302020202020200A2032302034302020312020302020202020200A2032312034312020312020302020202020200A2032372031302020312020302020202020200A2032382034322020312020302020202020200A2032392034332020312020302020202020200A2033302034342020312020302020202020200A2033312034352020312020302020202020200A2020342034362020312020302020202020200A4D202049534F202038202031302020203220203332202020322020333320202032202033342020203220203335202020322020333620202032202033372020203220203338202020320A4D202049534F20203720203339202020322020343020202032202034312020203220203432202020322020343320202032202034342020203220203435202020320A4D2020454E44
Contributor: KOGA M, UNIV. OF OCCUPATIONAL AND ENVIRONMENTAL HEALTH
InstType: EI
InstName: JEOL JMS-01-SG
IoniMethod: _ENERGY 70 eV
IonPolarity: pos
Date: 2010-10-09 19:48:36+02:00
Num Peaks: 18
83 66 96 68 108 68 109 12 110 420 111 71 154 68 240 7 241 85 311 164 
312 83 322 9 323 187 324 66 407 999 408 4 421 586 422 59 
