Name: 5-BROMOSALICYLALDEHYDE
MW: 199
Formula: C7H5BrO2
Synonym: MassBank: JP006759
Synonym: 5-BROMOSALICYLALDEHYDE
Synonym: 5-BROMO-2-HYDROXYBENZALDEHYDE
Structure: 352D42524F4D4F53414C4943594C414C4445485944452E6D6F6C0A20204368656D447261773034323331303034323532440A2031302031302020302020302020302020302020302020302020302020303939392056323030300A20202020312E3037313720202020302E3832353020202020302E303030302043202020302020302020302020302020302020302020302020302020302020302020302020300A20202020302E3335373220202020302E3431323520202020302E303030302043202020302020302020302020302020302020302020302020302020302020302020302020300A20202020302E333537322020202D302E3431323520202020302E303030302043202020302020302020302020302020302020302020302020302020302020302020302020300A20202020312E303731372020202D302E3832353020202020302E30303030204F202020302020302020302020302020302020302020302020302020302020302020302020300A2020202D302E333537322020202D302E3832353020202020302E303030302043202020302020302020302020302020302020302020302020302020302020302020302020300A2020202D312E303731372020202D302E3431323520202020302E303030302043202020302020302020302020302020302020302020302020302020302020302020302020300A2020202D312E3037313720202020302E3431323520202020302E303030302043202020302020302020302020302020302020302020302020302020302020302020302020300A2020202D302E3335373220202020302E3832353020202020302E303030302043202020302020302020302020302020302020302020302020302020302020302020302020300A20202020312E3738363220202020302E3431323520202020302E30303030204F202020302020302020302020302020302020302020302020302020302020302020302020300A2020202D312E3738363220202020302E3832353020202020302E303030302042722020302020302020302020302020302020302020302020302020302020302020302020300A2020312020322020312020302020202020200A2020322020332020312020302020202020200A2020332020342020312020302020202020200A2020332020352020322020302020202020200A2020352020362020312020302020202020200A2020362020372020322020302020202020200A2020372020382020312020302020202020200A2020322020382020322020302020202020200A2020312020392020322020302020202020200A2020372031302020312020302020202020200A4D2020454E44
Contributor: MASS SPECTROSCOPY SOC. OF JAPAN (MSSJ)
InstType: EI
InstName: JEOL JMS-D-300
IoniMethod: _ENERGY 70 eV
IonPolarity: pos
Date: 2010-10-09 19:48:36+02:00
Num Peaks: 69
40 42 41 26 42 48 43 3 45 21 45.5 21 46 328 46.5 5 60 63 60.5 29 
61 265 62 49 63 999 64 481 65 984 66 16 67 37 69 21 71.5 16 72 4 
72.5 16 73 79 74 238 75 42 76 69 77 32 79 37 80 6 81 32 82 58 
85 21 85.5 3 86 122 86.5 26 87 111 90 4 91 71 92 212 93 169 94 4 
95 21 99.5 32 100 58 100.5 4 101 58 103 29 116 26 117 12 118 29 119 111 
120 24 121 2 143 280 144 40 145 265 146 3 154 291 155 37 156 270 157 3 
170 29 171 249 172 95 173 2 174 71 182 148 183 21 184 14 185 21 
