Name: MassBank: JP006620
MW: 268
Formula: C18H24N2
Synonym: MassBank: JP006620
Synonym: 3,3-DIMETHYL-1,2,3,4-TETRAHYDRO-GAMMA-CARBOLINE-1-SPIROCYCLOHEXANE
Structure: 332C332D44494D455448594C2D312C322C332C342D5445545241485944524F2D47414D4D412D434152424F4C494E452D312D535049524F4359434C4F484558414E452E6D6F6C0A20204368656D447261773032323131303230313332440A2032302032332020302020302020302020302020302020302020302020303939392056323030300A2020202D312E3531343820202020312E3432393720202020302E303030302043202020302020302020302020302020302020302020302020302020302020302020302020300A2020202D312E3531343820202020302E3630343720202020302E303030302043202020302020302020302020302020302020302020302020302020302020302020302020300A2020202D302E3830303320202020302E3139323220202020302E303030302043202020302020302020302020302020302020302020302020302020302020302020302020300A2020202D302E3038353820202020302E3630343720202020302E303030302043202020302020302020302020302020302020302020302020302020302020302020302020300A2020202D302E3038353820202020312E3432393720202020302E303030302043202020302020302020302020302020302020302020302020302020302020302020302020300A2020202D302E3830303320202020312E3834323220202020302E303030302043202020302020302020302020302020302020302020302020302020302020302020302020300A2020202D312E353134382020202D302E3232303320202020302E30303030204E202020302020302020302020302020302020302020302020302020302020302020302020300A2020202D312E353134382020202D312E3034353320202020302E303030302043202020302020302020302020302020302020302020302020302020302020302020302020300A2020202D302E383030332020202D312E3435373820202020302E303030302043202020302020302020302020302020302020302020302020302020302020302020302020300A2020202D302E303835382020202D312E3034353320202020302E303030302043202020302020302020302020302020302020302020302020302020302020302020302020300A2020202D302E303835382020202D302E3232303320202020302E303030302043202020302020302020302020302020302020302020302020302020302020302020302020300A20202020302E363938382020202D312E3330303220202020302E30303030204E202020302020302020302020302020302020302020302020302020302020302020302020300A20202020312E313833372020202D302E3633323820202020302E303030302043202020302020302020302020302020302020302020302020302020302020302020302020300A20202020302E3639383820202020302E3033343620202020302E303030302043202020302020302020302020302020302020302020302020302020302020302020302020300A20202020322E303034322020202D302E3534363620202020302E303030302043202020302020302020302020302020302020302020302020302020302020302020302020300A20202020322E3333393820202020302E3230373120202020302E303030302043202020302020302020302020302020302020302020302020302020302020302020302020300A20202020312E3835343820202020302E3837343520202020302E303030302043202020302020302020302020302020302020302020302020302020302020302020302020300A20202020312E3033343420202020302E3738383320202020302E303030302043202020302020302020302020302020302020302020302020302020302020302020302020300A2020202D322E333339382020202D312E3034353320202020302E303030302043202020302020302020302020302020302020302020302020302020302020302020302020300A2020202D312E373238332020202D312E3834323220202020302E303030302043202020302020302020302020302020302020302020302020302020302020302020302020300A2020312020322020312020302020202020200A2020322020332020312020302020202020200A2020332020342020312020302020202020200A2020342020352020312020302020202020200A2020352020362020312020302020202020200A2020362020312020312020302020202020200A2020332020372020312020302020202020200A2020372020382020312020302020202020200A2020382020392020312020302020202020200A2020392031302020312020302020202020200A2031302031312020322020302020202020200A2031312020332020312020302020202020200A2031302031322020312020302020202020200A2031322031332020312020302020202020200A2031332031342020322020302020202020200A2031342031312020312020302020202020200A2031332031352020312020302020202020200A2031352031362020322020302020202020200A2031362031372020312020302020202020200A2031372031382020322020302020202020200A2031382031342020312020302020202020200A2020382031392020312020312020202020200A2020382032302020312020362020202020200A4D2020454E44
Contributor: SASAKI S, TOYOHASHI UNIV. OF TECH.
InstType: EI
InstName: JEOL JMS-01-SG-2
IoniMethod: _ENERGY 75 eV
IonPolarity: pos
Date: 2010-10-09 19:48:36+02:00
Num Peaks: 15
42 22 43 12 77 11 115 4 155 80 182 39 183 40 197 8 211 80 212 92 
225 999 226 19 239 40 267 37 268 210 
