Name: 3-DIMETHYLAMINOMETHYL-4-(1-PYRROLIDINYL)-2(5H)-FURANONE
MW: 210
Formula: C11H18N2O2
Synonym: MassBank: JP005120
Synonym: 3-DIMETHYLAMINOMETHYL-4-(1-PYRROLIDINYL)-2(5H)-FURANONE
Structure: 332D44494D455448594C414D494E4F4D455448594C2D342D28312D505952524F4C4944494E594C292D32283548292D465552414E4F4E452E6D6F6C0A20204368656D447261773032323231303137303232440A2031352031362020302020302020302020302020302020302020302020303939392056323030300A2020202D312E303739392020202D312E3636363020202020302E30303030204F202020302020302020302020302020302020302020302020302020302020302020302020300A2020202D312E333334392020202D302E3838313420202020302E303030302043202020302020302020302020302020302020302020302020302020302020302020302020300A2020202D302E363637342020202D302E3339363520202020302E303030302043202020302020302020302020302020302020302020302020302020302020302020302020300A2020202D302E303030302020202D302E3838313420202020302E303030302043202020302020302020302020302020302020302020302020302020302020302020302020300A2020202D302E323534392020202D312E3636363020202020302E303030302043202020302020302020302020302020302020302020302020302020302020302020302020300A2020202D322E313139352020202D302E3632363520202020302E30303030204F202020302020302020302020302020302020302020302020302020302020302020302020300A20202020302E373834362020202D302E3632363520202020302E30303030204E202020302020302020302020302020302020302020302020302020302020302020302020300A20202020312E3033393620202020302E3135383220202020302E303030302043202020302020302020302020302020302020302020302020302020302020302020302020300A20202020312E3836343620202020302E3135383220202020302E303030302043202020302020302020302020302020302020302020302020302020302020302020302020300A20202020322E313139352020202D302E3632363520202020302E303030302043202020302020302020302020302020302020302020302020302020302020302020302020300A20202020312E343532312020202D312E3131313420202020302E303030302043202020302020302020302020302020302020302020302020302020302020302020302020300A2020202D302E3636373420202020302E3432383520202020302E303030302043202020302020302020302020302020302020302020302020302020302020302020302020300A2020202D312E3338313920202020302E3834313020202020302E30303030204E202020302020302020302020302020302020302020302020302020302020302020302020300A2020202D322E3039363420202020302E3432383520202020302E303030302043202020302020302020302020302020302020302020302020302020302020302020302020300A2020202D312E3338313920202020312E3636363020202020302E303030302043202020302020302020302020302020302020302020302020302020302020302020302020300A2020312020322020312020302020202020200A2020322020332020312020302020202020200A2020332020342020322020302020202020200A2020342020352020312020302020202020200A2020312020352020312020302020202020200A2020322020362020322020302020202020200A2020372020382020312020302020202020200A2020382020392020312020302020202020200A2020392031302020312020302020202020200A2031302031312020312020302020202020200A2020372031312020312020302020202020200A2020342020372020312020302020202020200A2031332031342020312020302020202020200A2031332031352020312020302020202020200A2031322031332020312020302020202020200A2020332031322020312020302020202020200A4D2020454E44
Contributor: HAYASHI A, FAC. OF SCIENCE AND TECHNOLOGY, KINKI UNIV.
InstType: EI
InstName: JEOL JMS-HX-100
IoniMethod: _ENERGY 23 eV
IonPolarity: pos
Date: 2010-10-09 19:48:36+02:00
Num Peaks: 78
41 2 42 2 43 2 44 87 45 5 46 5 53 4 54 2 55 3 56 2 
57 5 58 17 59 2 67 3 68 5 69 3 70 30 71 7 72 35 79 4 
80 7 82 4 83 6 84 21 85 3 92 1 93 9 94 31 95 16 96 55 
97 7 98 2 104 1 105 2 106 4 107 10 108 18 109 6 110 4 112 48 
116 1 118 6 119 3 120 51 121 47 122 105 123 10 124 18 125 4 126 6 
135 2 136 5 137 26 138 20 139 82 140 123 141 18 142 2 149 2 150 6 
151 2 152 18 153 2 164 22 165 999 166 948 167 298 168 31 169 2 174 1 
181 2 195 244 196 31 197 2 209 11 210 539 211 78 212 8 
