Name: TERT-BUTANOL
MW: 74
Formula: C4H10O
Synonym: MassBank: JP008892
Synonym: TERT-BUTANOL
Synonym: 1,1-DIMETHYL ETHANOL
Structure: 310A31340A544552542D425554414E4F4C2E6D6F6C0A20204368656D447261773130323330393130333232440A2020352020342020302020302020302020302020302020302020302020303939392056323030300A20202020302E303030302020202D302E3030303020202020302E303030302043202020302020302020302020302020302020302020302020302020302020302020302020300A20202020302E303030302020202D302E3832353020202020302E303030302043202020302020302020302020302020302020302020302020302020302020302020302020300A2020202D302E383235302020202D302E3030303020202020302E303030302043202020302020302020302020302020302020302020302020302020302020302020302020300A20202020302E3030303020202020302E3832353020202020302E303030302043202020302020302020302020302020302020302020302020302020302020302020302020300A20202020302E383235302020202D302E3030303020202020302E30303030204F202020302020302020302020302020302020302020302020302020302020302020302020300A2020312020322020312020302020202020200A2020312020342020312020302020202020200A2020312020332020312020302020202020200A2020312020352020312020302020202020200A4D2020454E44
Contributor: TAJIMA S, GUNMA COLLEGE OF TECHNOLOGY
InstType: EI
InstName: HITACHI RMU-7M
IoniMethod: _ENERGY 70 eV
IonPolarity: pos
Date: 2010-10-09 19:48:36+02:00
Num Peaks: 20
14 20 15 118 26 19 27 80 28 19 29 84 31 292 38 18 39 91 40 12 
41 211 42 31 43 150 44 12 55 28 56 13 57 97 58 10 59 999 60 37 
