Name: DICHLOROMETHANE
CAS: 75-09-2
MW: 83
Formula: CH2Cl2
Synonym: MassBank: JP000970
Synonym: DICHLOROMETHANE
Structure: 310A31300A444943484C4F524F4D455448414E452E6D6F6C0A20204368656D447261773039323131303138313832440A2020332020322020302020302020302020302020302020302020302020303939392056323030300A2020202D302E3030303020202020302E3230363320202020302E303030302043202020302020302020302020302020302020302020302020302020302020302020302020300A20202020302E373134352020202D302E3230363320202020302E3030303020436C2020302020302020302020302020302020302020302020302020302020302020302020300A2020202D302E373134352020202D302E3230363320202020302E3030303020436C2020302020302020302020302020302020302020302020302020302020302020302020300A2020312020322020312020302020202020200A2020312020332020312020302020202020200A4D2020454E44
Contributor: KOGA M, UNIV. OF OCCUPATIONAL AND ENVIRONMENTAL HEALTH
InstType: EI
InstName: JEOL JMS-01-SG
IoniMethod: _ENERGY 70 eV
IonPolarity: pos
Date: 2010-10-09 19:48:36+02:00
Num Peaks: 17
31 21 32 22 35 146 36 4 37 54 41 32 42 25 44 3 47 220 48 96 
49 999 50 4 51 284 84 601 85 23 86 38 88 58 
