Name: MassBank: JP004407
MW: 200
Formula: C13H16N2
Synonym: MassBank: JP004407
Synonym: 3,8-DIMETHYL-1,2,3,4-TETRAHYDRO-GAMMA-CARBOLINE
Structure: 332C382D44494D455448594C2D312C322C332C342D5445545241485944524F2D47414D4D412D434152424F4C494E452E6D6F6C0A20204368656D447261773032323231303038343932440A2031352031372020302020302020302020302020302020302020302020303939392056323030300A2020202D312E3938303320202020302E3037313320202020302E303030302043202020302020302020302020302020302020302020302020302020302020302020302020300A2020202D312E393830332020202D302E3735333720202020302E303030302043202020302020302020302020302020302020302020302020302020302020302020302020300A2020202D312E323635382020202D312E3136363220202020302E303030302043202020302020302020302020302020302020302020302020302020302020302020302020300A2020202D302E353531332020202D302E3735333720202020302E303030302043202020302020302020302020302020302020302020302020302020302020302020302020300A2020202D302E3535313320202020302E3037313320202020302E303030302043202020302020302020302020302020302020302020302020302020302020302020302020300A2020202D312E3236353820202020302E3438333820202020302E303030302043202020302020302020302020302020302020302020302020302020302020302020302020300A20202020302E323333332020202D312E3030383620202020302E30303030204E202020302020302020302020302020302020302020302020302020302020302020302020300A20202020302E373138322020202D302E3334313220202020302E303030302043202020302020302020302020302020302020302020302020302020302020302020302020300A20202020302E3233333320202020302E3332363320202020302E303030302043202020302020302020302020302020302020302020302020302020302020302020302020300A20202020312E353338372020202D302E3235343920202020302E303030302043202020302020302020302020302020302020302020302020302020302020302020302020300A20202020312E3837343320202020302E3439383720202020302E303030302043202020302020302020302020302020302020302020302020302020302020302020302020300A20202020312E3338393320202020312E3136363220202020302E30303030204E202020302020302020302020302020302020302020302020302020302020302020302020300A20202020302E3536383920202020312E3037393920202020302E303030302043202020302020302020302020302020302020302020302020302020302020302020302020300A2020202D322E3639343720202020302E3438333820202020302E303030302043202020302020302020302020302020302020302020302020302020302020302020302020300A20202020322E3639343720202020302E3538353020202020302E303030302043202020302020302020302020302020302020302020302020302020302020302020302020300A2020312020322020322020302020202020200A2020322020332020312020302020202020200A2020332020342020322020302020202020200A2020342020352020312020302020202020200A2020352020362020322020302020202020200A2020362020312020312020302020202020200A2020342020372020312020302020202020200A2020372020382020312020302020202020200A2020382020392020322020302020202020200A2020392020352020312020302020202020200A2020382031302020312020302020202020200A2031302031312020312020302020202020200A2031312031322020312020302020202020200A2031322031332020312020302020202020200A2031332020392020312020302020202020200A2020312031342020312020302020202020200A2031312031352020312020302020202020200A4D2020454E44
Contributor: SASAKI S, TOYOHASHI UNIV. OF TECH.
InstType: EI
InstName: JEOL JMS-01-SG-2
IoniMethod: _ENERGY 75 eV
IonPolarity: pos
Date: 2010-10-09 19:48:36+02:00
Num Peaks: 10
42 72 115 28 128 12 142 1 154 10 156 74 157 999 158 11 199 66 200 151 
