Name: 5-ALPHA-CHOLESTANE
MW: 372
Formula: C27H48
Synonym: MassBank: JP002711
Synonym: 5-ALPHA-CHOLESTANE
Structure: 352D414C5048412D43484F4C455354414E452E6D6F6C0A20204368656D447261773034323331303034313732440A2033312033342020302020302020302020302020302020302020302020303939392056323030300A2020202D322E373039342020202D322E3831303520202020302E303030302043202020302020302020302020302020302020302020302020302020302020302020302020300A2020202D322E373039342020202D312E3938353520202020302E303030302043202020302020302020302020302020302020302020302020302020302020302020302020300A2020202D312E393935302020202D312E3537333020202020302E303030302043202020302020302020302020302020302020302020302020302020302020302020302020300A2020202D312E393935302020202D332E3232333020202020302E303030302043202020302020302020302020302020302020302020302020302020302020302020302020300A2020202D312E323830352020202D322E3831303520202020302E303030302043202020302020302020302020302020302020302020302020302020302020302020302020300A2020202D302E353636302020202D332E3232333020202020302E303030302043202020302020302020302020302020302020302020302020302020302020302020302020300A20202020302E313438342020202D322E3831303520202020302E303030302043202020302020302020302020302020302020302020302020302020302020302020302020300A20202020302E313438342020202D312E3938353520202020302E303030302043202020302020302020302020302020302020302020302020302020302020302020302020300A20202020302E383632392020202D312E3537333020202020302E303030302043202020302020302020302020302020302020302020302020302020302020302020302020300A20202020312E363437352020202D312E3832373920202020302E303030302043202020302020302020302020302020302020302020302020302020302020302020302020300A20202020322E313332352020202D312E3136303520202020302E303030302043202020302020302020302020302020302020302020302020302020302020302020302020300A20202020312E363437352020202D302E3439333020202020302E303030302043202020302020302020302020302020302020302020302020302020302020302020302020300A20202020312E3930323520202020302E3239313620202020302E303030302043202020302020302020302020302020302020302020302020302020302020302020302020300A20202020312E3331393120202020302E3837353020202020302E303030302043202020302020302020302020302020302020302020302020302020302020302020302020300A20202020312E3533323620202020312E3637313820202020302E303030302043202020302020302020302020302020302020302020302020302020302020302020302020300A20202020302E3934393320202020322E3235353220202020302E303030302043202020302020302020302020302020302020302020302020302020302020302020302020300A20202020312E3136323820202020332E3035323120202020302E303030302043202020302020302020302020302020302020302020302020302020302020302020302020300A20202020302E3537393420202020332E3633353520202020302E303030302043202020302020302020302020302020302020302020302020302020302020302020302020300A20202020312E3935393720202020332E3236353620202020302E303030302043202020302020302020302020302020302020302020302020302020302020302020302020300A20202020322E3730393420202020302E3436333120202020302E303030302043202020302020302020302020302020302020302020302020302020302020302020302020300A20202020302E383632392020202D302E3734383020202020302E303030302043202020302020302020302020302020302020302020302020302020302020302020302020300A20202020302E3836323920202020302E3037373020202020302E303030302043202020302020302020302020302020302020302020302020302020302020302020302020300A20202020302E313438342020202D302E3333353520202020302E303030302043202020302020302020302020302020302020302020302020302020302020302020302020300A2020202D302E353636302020202D302E3734383020202020302E303030302043202020302020302020302020302020302020302020302020302020302020302020302020300A2020202D302E353636302020202D312E3537333020202020302E303030302043202020302020302020302020302020302020302020302020302020302020302020302020300A2020202D312E323830352020202D312E3938353520202020302E303030302043202020302020302020302020302020302020302020302020302020302020302020302020300A2020202D312E323830352020202D312E3136303520202020302E303030302043202020302020302020302020302020302020302020302020302020302020302020302020300A2020202D312E323830352020202D332E3633353520202020302E303030302048202020302020302020302020302020302020302020302020302020302020302020302020300A2020202D302E353636302020202D322E3339383020202020302E303030302048202020302020302020302020302020302020302020302020302020302020302020302020300A20202020302E313438342020202D312E3136303520202020302E303030302048202020302020302020302020302020302020302020302020302020302020302020302020300A20202020302E383632392020202D322E3339383020202020302E303030302048202020302020302020302020302020302020302020302020302020302020302020302020300A2020312020322020312020302020202020200A2020322020332020312020302020202020200A2020312020342020312020302020202020200A2020342020352020312020302020202020200A2020352020362020312020302020202020200A2020362020372020312020302020202020200A2020372020382020312020302020202020200A2020382020392020312020302020202020200A2020392031302020312020302020202020200A2031302031312020312020302020202020200A2031312031322020312020302020202020200A2031322031332020312020302020202020200A2031332031342020312020302020202020200A2031342031352020312020302020202020200A2031352031362020312020302020202020200A2031362031372020312020302020202020200A2031372031382020312020302020202020200A2031372031392020312020302020202020200A2031332032302020312020312020202020200A2031322032312020312020302020202020200A2020392032312020312020302020202020200A2032312032322020312020312020202020200A2032312032332020312020302020202020200A2032332032342020312020302020202020200A2032342032352020312020302020202020200A2020382032352020312020302020202020200A2032352032362020312020302020202020200A2020332032362020312020302020202020200A2020352032362020312020302020202020200A2032362032372020312020312020202020200A2020352032382020312020362020202020200A2032352032392020312020362020202020200A2020382033302020312020312020202020200A2020392033312020312020362020202020200A4D2020454E44
Contributor: HAYASHI A, DEPT. OF CHEMISTRY, FAC. OF SCI. AND TECHNOLOGY, KINKI UNIV.
InstType: EI
InstName: SHIMADZU LKB-9000B
IoniMethod: _ENERGY 70 eV
IonPolarity: pos
Date: 2010-10-09 19:48:36+02:00
Num Peaks: 120
53 53 54 15 55 323 56 48 57 197 58 22 59 6 65 3 66 19 67 252 
68 107 69 24 70 32 71 71 72 19 75 16 76 28 77 69 78 17 79 16 
80 53 81 391 82 94 83 17 84 19 85 20 87 5 88 2 91 99 92 27 
93 209 94 9 95 400 96 10 97 110 98 2 99 12 101 11 105 84 106 5 
107 156 108 189 109 398 110 2 111 49 112 19 113 14 115 1 116 15 117 20 
118 14 119 4 120 35 121 204 122 167 123 20 124 31 125 12 128 14 129 2 
131 13 134 25 135 156 136 6 137 88 138 10 143 2 145 1 146 12 147 59 
148 126 149 47 150 190 151 111 152 17 153 1 155 14 159 18 161 45 162 8 
163 75 164 22 165 4 175 10 176 8 178 1 179 6 189 4 190 18 202 10 
203 94 204 2 215 12 216 13 217 999 218 57 219 152 220 30 221 6 223 0 
231 19 232 127 233 41 247 2 251 3 257 37 258 12 259 2 262 96 263 15 
266 1 295 0 315 11 354 16 357 272 358 9 370 12 372 338 373 86 374 12 
