Name: TRIMETHYLAMINE
CAS: 75-50-3
MW: 59
Formula: C3H9N
Synonym: MassBank: JP009052
Synonym: TRIMETHYLAMINE
Structure: 310A31320A5452494D455448594C414D494E452E6D6F6C0A20204368656D447261773038313231303038343432440A2020342020332020302020302020302020302020302020302020302020303939392056323030300A20202020302E323036322020202D302E3030303020202020302E30303030204E202020302020302020302020302020302020302020302020302020302020302020302020300A20202020302E3631383820202020302E3731343520202020302E303030302043202020302020302020302020302020302020302020302020302020302020302020302020300A20202020302E363138382020202D302E3731343520202020302E303030302043202020302020302020302020302020302020302020302020302020302020302020302020300A2020202D302E363138382020202D302E3030303020202020302E303030302043202020302020302020302020302020302020302020302020302020302020302020302020300A2020312020322020312020302020202020200A2020312020332020312020302020202020200A2020312020342020312020302020202020200A4D2020454E44
Contributor: SODA AROMATIC CO., LTD.
InstType: EI
InstName: HITACHI M-80B
IoniMethod: _ENERGY 70 eV
IonPolarity: pos
Date: 2010-10-09 19:48:36+02:00
Num Peaks: 23
15 81 17 13 18 16 26 17 27 36 28 48 29 59 30 155 32 11 38 17 
39 24 40 47 41 52 42 365 43 87 44 38 45 12 54 15 56 28 57 58 
58 999 59 436 60 18 
