Name: MassBank: JP009241
MW: 152
Formula: C9H12O2
Synonym: MassBank: JP009241
Synonym: ALLYL 2,4-HEXADIENOATE
Synonym: ALLYL SORBATE
Structure: 414C4C594C20322C342D484558414449454E4F4154452E6D6F6C0A20204368656D447261773038303631303033353932440A2031312031302020302020302020302020302020302020302020302020303939392056323030300A2020202D302E333537322020202D302E3230363220202020302E303030302043202020302020302020302020302020302020302020302020302020302020302020302020300A20202020302E333537322020202D302E3631383820202020302E303030302043202020302020302020302020302020302020302020302020302020302020302020302020300A20202020312E303731372020202D302E3230363220202020302E303030302043202020302020302020302020302020302020302020302020302020302020302020302020300A20202020312E373836322020202D302E3631383720202020302E303030302043202020302020302020302020302020302020302020302020302020302020302020302020300A20202020322E353030362020202D302E3230363220202020302E303030302043202020302020302020302020302020302020302020302020302020302020302020302020300A20202020332E323135312020202D302E3631383720202020302E303030302043202020302020302020302020302020302020302020302020302020302020302020302020300A2020202D302E3335373220202020302E3631383820202020302E30303030204F202020302020302020302020302020302020302020302020302020302020302020302020300A2020202D312E303731372020202D302E3631383820202020302E30303030204F202020302020302020302020302020302020302020302020302020302020302020302020300A2020202D312E373836322020202D302E3230363220202020302E303030302043202020302020302020302020302020302020302020302020302020302020302020302020300A2020202D322E353030362020202D302E3631383820202020302E303030302043202020302020302020302020302020302020302020302020302020302020302020302020300A2020202D332E323135312020202D302E3230363220202020302E303030302043202020302020302020302020302020302020302020302020302020302020302020302020300A2020312020322020312020302020202020200A2020322020332020322020302020202020200A2020332020342020312020302020202020200A2020342020352020322020302020202020200A2020352020362020312020302020202020200A2020312020372020322020302020202020200A2020312020382020312020302020202020200A2020392031302020312020302020202020200A2031302031312020322020302020202020200A2020382020392020312020302020202020200A4D2020454E44
Contributor: SODA AROMATIC CO., LTD.
InstType: EI
InstName: HITACHI M-80B
IoniMethod: _ENERGY 70 eV
IonPolarity: pos
Date: 2010-10-09 19:48:36+02:00
Num Peaks: 46
26 24 27 120 29 38 37 1 38 64 39 562 41 824 42 3 43 118 50 18 
51 48 52 2 53 27 54 10 55 91 57 2 62 12 63 27 65 161 66 12 
67 707 68 211 69 30 77 2 79 89 80 26 81 49 82 2 83 66 84 16 
85 10 91 3 93 72 94 21 95 999 96 9 97 64 107 75 109 14 110 1 
111 62 123 13 137 137 138 1 152 270 153 23 
