Name: MassBank: JP004909
CAS: 106-93-4
MW: 185
Formula: C2H4Br2
Synonym: MassBank: JP004909
Synonym: 1,2-DIBROMOETHANE
Structure: 310A31320A312C322D444942524F4D4F455448414E452E6D6F6C0A20204368656D447261773131303330393233303132440A2020342020332020302020302020302020302020302020302020302020303939392056323030300A2020202D302E333537322020202D302E3230363320202020302E303030302043202020302020302020302020302020302020302020302020302020302020302020302020300A20202020302E3335373220202020302E3230363320202020302E303030302043202020302020302020302020302020302020302020302020302020302020302020302020300A20202020312E303731372020202D302E3230363320202020302E303030302042722020302020302020302020302020302020302020302020302020302020302020302020300A2020202D312E3037313720202020302E3230363320202020302E303030302042722020302020302020302020302020302020302020302020302020302020302020302020300A2020312020322020312020302020202020200A2020322020332020312020302020202020200A2020312020342020312020302020202020200A4D2020454E44
Contributor: MASS SPECTROSCOPY SOC. OF JAPAN (MSSJ)
InstType: EI
InstName: JEOL JMS-D-3000
IoniMethod: _ENERGY 70 eV
IonPolarity: pos
Date: 2010-10-09 19:48:36+02:00
Num Peaks: 15
79 28 80 27 81 28 82 26 93 39 95 36 105 26 106 19 107 999 108 35 
109 937 110 20 186 17 188 31 190 16 
