Name: BENZENETHIOL
MW: 110
Formula: C6H6S
Synonym: MassBank: JP009161
Synonym: BENZENETHIOL
Structure: 310A31390A42454E5A454E455448494F4C2E6D6F6C0A20204368656D447261773038313431303038333732440A2020372020372020302020302020302020302020302020302020302020303939392056323030300A2020202D302E343132352020202D302E3030303020202020302E303030302043202020302020302020302020302020302020302020302020302020302020302020302020300A20202020302E3030303020202020302E3731343520202020302E303030302043202020302020302020302020302020302020302020302020302020302020302020302020300A20202020302E3832353020202020302E3731343520202020302E303030302043202020302020302020302020302020302020302020302020302020302020302020302020300A20202020312E323337352020202D302E3030303020202020302E303030302043202020302020302020302020302020302020302020302020302020302020302020302020300A20202020302E383235302020202D302E3731343520202020302E303030302043202020302020302020302020302020302020302020302020302020302020302020302020300A20202020302E303030302020202D302E3731343520202020302E303030302043202020302020302020302020302020302020302020302020302020302020302020302020300A2020202D312E323337352020202D302E3030303020202020302E303030302053202020302020302020302020302020302020302020302020302020302020302020302020300A2020312020322020312020302020202020200A2020322020332020322020302020202020200A2020332020342020312020302020202020200A2020342020352020322020302020202020200A2020352020362020312020302020202020200A2020312020362020322020302020202020200A2020312020372020312020302020202020200A4D2020454E44
Contributor: SODA AROMATIC CO., LTD.
InstType: EI
InstName: HITACHI M-80B
IoniMethod: _ENERGY 70 eV
IonPolarity: pos
Date: 2010-10-09 19:48:36+02:00
Num Peaks: 42
26 19 27 39 33 18 37 44 38 67 39 215 40 10 45 128 49 19 50 145 
51 194 52 16 54 14 55 41 57 44 58 58 59 13 61 17 62 22 63 51 
65 144 66 387 67 14 69 153 70 13 71 31 73 12 74 49 75 19 76 14 
77 155 78 21 81 33 82 50 83 19 84 181 95 16 108 27 109 226 110 999 
111 79 112 44 
