Name: 3-METHYLPYRIDINE
MW: 93
Formula: C6H7N
Synonym: MassBank: JP001695
Synonym: 3-METHYLPYRIDINE
Synonym: BETA METHYL PYRIDINE
Structure: 310A31390A332D4D455448594C5059524944494E452E6D6F6C0A20204368656D447261773033323031303137323832440A2020372020372020302020302020302020302020302020302020302020303939392056323030300A2020202D302E3030303020202020302E3731343520202020302E303030302043202020302020302020302020302020302020302020302020302020302020302020302020300A2020202D302E343132352020202D302E3030303020202020302E303030302043202020302020302020302020302020302020302020302020302020302020302020302020300A2020202D302E303030302020202D302E3731343520202020302E303030302043202020302020302020302020302020302020302020302020302020302020302020302020300A20202020302E383235302020202D302E3731343520202020302E303030302043202020302020302020302020302020302020302020302020302020302020302020302020300A20202020312E3233373520202020302E3030303020202020302E303030302043202020302020302020302020302020302020302020302020302020302020302020302020300A20202020302E3832353020202020302E3731343520202020302E30303030204E202020302020302020302020302020302020302020302020302020302020302020302020300A2020202D312E323337352020202D302E3030303020202020302E303030302043202020302020302020302020302020302020302020302020302020302020302020302020300A2020312020322020312020302020202020200A2020322020332020322020302020202020200A2020332020342020312020302020202020200A2020342020352020322020302020202020200A2020352020362020312020302020202020200A2020312020362020322020302020202020200A2020322020372020312020302020202020200A4D2020454E44
Contributor: TAJIMA S, GUNMA COLLEGE OF TECHNOLOGY
InstType: EI
InstName: HITACHI RMU-7M
IoniMethod: _ENERGY 70 eV
IonPolarity: pos
Date: 2010-10-09 19:48:36+02:00
Num Peaks: 25
26 17 27 31 28 26 37 27 38 62 39 252 40 132 41 33 50 26 51 49 
52 26 53 25 54 27 61 15 62 26 63 61 64 34 65 276 66 408 67 101 
78 33 91 13 92 328 93 999 94 74 
