Name: MassBank: JP009896
MW: 216
Formula: C12H24O3
Synonym: MassBank: JP009896
Synonym: 2-(4-HYDROXY-3,4-DIMETHYLPENTOXY)TETRAHYDRO-2H-PYRAN
Structure: 322D28342D485944524F58592D332C342D44494D455448594C50454E544F5859295445545241485944524F2D32482D505952414E2E6D6F6C0A20204368656D447261773132323130393230323232440A2031352031352020302020302020302020302020302020302020302020303939392056323030300A20202020302E373134352020202D312E3138323220202020302E303030302043202020302020302020302020302020302020302020302020302020302020302020302020300A20202020302E373134352020202D322E3030373220202020302E303030302043202020302020302020302020302020302020302020302020302020302020302020302020300A20202020312E343238392020202D322E3431393720202020302E303030302043202020302020302020302020302020302020302020302020302020302020302020302020300A20202020322E313433342020202D322E3030373220202020302E303030302043202020302020302020302020302020302020302020302020302020302020302020302020300A20202020322E313433342020202D312E3138323220202020302E303030302043202020302020302020302020302020302020302020302020302020302020302020302020300A20202020312E343238392020202D302E3736393720202020302E30303030204F202020302020302020302020302020302020302020302020302020302020302020302020300A20202020302E303030302020202D302E3736393720202020302E30303030204F202020302020302020302020302020302020302020302020302020302020302020302020300A20202020302E3030303020202020302E3035353320202020302E303030302043202020302020302020302020302020302020302020302020302020302020302020302020300A2020202D302E3731343520202020302E3436373820202020302E303030302043202020302020302020302020302020302020302020302020302020302020302020302020300A2020202D302E3731343520202020312E3239323820202020302E303030302043202020302020302020302020302020302020302020302020302020302020302020302020300A2020202D312E3432383920202020312E3730353320202020302E303030302043202020302020302020302020302020302020302020302020302020302020302020302020300A20202020302E3030303020202020312E3730353320202020302E303030302043202020302020302020302020302020302020302020302020302020302020302020302020300A2020202D322E3134333420202020322E3131373820202020302E30303030204F202020302020302020302020302020302020302020302020302020302020302020302020300A2020202D312E3031363420202020322E3431393720202020302E303030302043202020302020302020302020302020302020302020302020302020302020302020302020300A2020202D312E3834313420202020302E3939303820202020302E303030302043202020302020302020302020302020302020302020302020302020302020302020302020300A2020312020322020312020302020202020200A2020322020332020312020302020202020200A2020332020342020312020302020202020200A2020342020352020312020302020202020200A2020352020362020312020302020202020200A2020362020312020312020302020202020200A2020312020372020312020302020202020200A2020372020382020312020302020202020200A2020382020392020312020302020202020200A2020392031302020312020302020202020200A2031302031312020312020302020202020200A2031302031322020312020302020202020200A2031312031332020312020302020202020200A2031312031342020312020302020202020200A2031312031352020312020302020202020200A4D2020454E44
Contributor: KURARAY CO., LTD.
InstType: EI
InstName: JEOL JMS-D-300
IoniMethod: _ENERGY 70 eV
IonPolarity: pos
Date: 2010-10-09 19:48:36+02:00
Num Peaks: 33
27 65 28 40 29 138 31 90 39 60 41 286 42 68 43 400 44 13 45 20 
53 17 55 262 56 90 57 150 58 27 59 440 67 87 69 235 70 20 71 32 
73 20 83 65 84 30 85 999 86 58 99 105 101 63 112 180 114 15 116 62 
126 30 129 195 132 28 
