Name: N-HYDROXYMETHYL-2-PYRROLIDONE
MW: 115
Formula: C5H9NO2
Synonym: MassBank: JP004171
Synonym: N-HYDROXYMETHYL-2-PYRROLIDONE
Structure: 310A32310A4E2D485944524F58594D455448594C2D322D505952524F4C49444F4E452E6D6F6C0A20204368656D447261773038313231303032303932440A2020382020382020302020302020302020302020302020302020302020303939392056323030300A2020202D302E303136302020202D302E3336383820202020302E30303030204E202020302020302020302020302020302020302020302020302020302020302020302020300A20202020302E3436383920202020302E3239383620202020302E303030302043202020302020302020302020302020302020302020302020302020302020302020302020300A20202020312E3235333520202020302E3034333720202020302E303030302043202020302020302020302020302020302020302020302020302020302020302020302020300A20202020312E323533352020202D302E3738313320202020302E303030302043202020302020302020302020302020302020302020302020302020302020302020302020300A20202020302E343638392020202D312E3033363220202020302E303030302043202020302020302020302020302020302020302020302020302020302020302020302020300A20202020302E3231343020202020312E3038333320202020302E30303030204F202020302020302020302020302020302020302020302020302020302020302020302020300A2020202D302E383431302020202D302E3336383820202020302E303030302043202020302020302020302020302020302020302020302020302020302020302020302020300A2020202D312E323533352020202D312E3038333320202020302E30303030204F202020302020302020302020302020302020302020302020302020302020302020302020300A2020312020322020312020302020202020200A2020322020332020312020302020202020200A2020332020342020312020302020202020200A2020342020352020312020302020202020200A2020312020352020312020302020202020200A2020322020362020322020302020202020200A2020372020382020312020302020202020200A2020312020372020312020302020202020200A4D2020454E44
Contributor: MASS SPECTROSCOPY SOC. OF JAPAN (MSSJ)
InstType: EI
InstName: HITACHI RMU-6E
IoniMethod: _ENERGY 70 eV
IonPolarity: pos
Date: 2010-10-09 19:48:36+02:00
Num Peaks: 66
24 3 25 12 26 120 27 34 28 999 29 500 30 748 31 30 32 6 37 19 
38 40 39 21 40 140 41 852 42 788 43 13 44 96 45 9 46 38 49 0 
50 4 51 10 52 27 53 2 54 51 55 92 56 252 57 14 58 51 59 56 
60 80 61 0 65 2 66 7 67 7 68 5 69 160 70 136 71 47 72 2 
73 1 78 8 79 2 80 0 81 2 82 6 83 284 84 51 85 316 86 440 
87 17 88 0 94 1 95 1 96 2 97 4 98 288 99 38 100 6 112 0 
113 2 114 100 115 772 116 7 117 5 118 1 
