Name: N-ETHYLANILINE
MW: 121
Formula: C8H11N
Synonym: MassBank: JP003985
Synonym: N-ETHYLANILINE
Structure: 310A32330A4E2D455448594C414E494C494E452E6D6F6C0A20204368656D447261773038313231303032303532440A2020392020392020302020302020302020302020302020302020302020303939392056323030300A2020202D302E3631383820202020302E3030303020202020302E30303030204E202020302020302020302020302020302020302020302020302020302020302020302020300A20202020302E3230363220202020302E3030303020202020302E303030302043202020302020302020302020302020302020302020302020302020302020302020302020300A20202020302E3631383820202020302E3731343520202020302E303030302043202020302020302020302020302020302020302020302020302020302020302020302020300A20202020312E3434333720202020302E3731343520202020302E303030302043202020302020302020302020302020302020302020302020302020302020302020302020300A20202020312E383536332020202D302E3030303020202020302E303030302043202020302020302020302020302020302020302020302020302020302020302020302020300A20202020312E343433382020202D302E3731343520202020302E303030302043202020302020302020302020302020302020302020302020302020302020302020302020300A20202020302E363138372020202D302E3731343520202020302E303030302043202020302020302020302020302020302020302020302020302020302020302020302020300A2020202D312E3033313320202020302E3731343520202020302E303030302043202020302020302020302020302020302020302020302020302020302020302020302020300A2020202D312E3835363320202020302E3731343520202020302E303030302043202020302020302020302020302020302020302020302020302020302020302020302020300A2020312020322020312020302020202020200A2020322020332020312020302020202020200A2020332020342020322020302020202020200A2020342020352020312020302020202020200A2020352020362020322020302020202020200A2020362020372020312020302020202020200A2020322020372020322020302020202020200A2020382020392020312020302020202020200A2020312020382020312020302020202020200A4D2020454E44
Contributor: MASS SPECTROSCOPY SOC. OF JAPAN (MSSJ)
InstType: EI
InstName: HITACHI RMU-6L
IoniMethod: _ENERGY 70 eV
IonPolarity: pos
Date: 2010-10-09 19:48:36+02:00
Num Peaks: 43
15 42 26 31 27 113 28 11 29 56 30 33 37 10 38 3 39 121 40 26 
41 23 42 2 43 15 44 23 50 34 51 14 52 56 52.5 20 53 102 58 1 
60 10 61 10 62 11 63 4 64 24 65 76 66 36 74 1 75 11 76 11 
77 230 78 5 79 65 91 22 92 20 93 1 104 25 105 10 106 999 107 7 
120 63 121 360 122 33 
