Name: MassBank: JP007759
MW: 125
Formula: C7H11NO
Synonym: MassBank: JP007759
Synonym: 4-ETHYL-2,5-DIMETHYLOXAZOLE
Structure: 310A32330A342D455448594C2D322C352D44494D455448594C4F58415A4F4C452E6D6F6C0A20204368656D447261773033323531303231353132440A2020392020392020302020302020302020302020302020302020302020303939392056323030300A20202020302E3434373920202020302E3636373420202020302E30303030204F202020302020302020302020302020302020302020302020302020302020302020302020300A20202020302E3933323820202020302E3030303020202020302E303030302043202020302020302020302020302020302020302020302020302020302020302020302020300A20202020302E343437392020202D302E3636373420202020302E30303030204E202020302020302020302020302020302020302020302020302020302020302020302020300A2020202D302E333336372020202D302E3431323520202020302E303030302043202020302020302020302020302020302020302020302020302020302020302020302020300A2020202D302E3333363720202020302E3431323520202020302E303030302043202020302020302020302020302020302020302020302020302020302020302020302020300A2020202D312E3030343220202020302E3839373420202020302E303030302043202020302020302020302020302020302020302020302020302020302020302020302020300A20202020312E3735373820202020302E3030303020202020302E303030302043202020302020302020302020302020302020302020302020302020302020302020302020300A2020202D312E303034322020202D302E3839373420202020302E303030302043202020302020302020302020302020302020302020302020302020302020302020302020300A2020202D312E373537382020202D302E3536313920202020302E303030302043202020302020302020302020302020302020302020302020302020302020302020302020300A2020312020322020312020302020202020200A2020322020332020322020302020202020200A2020332020342020312020302020202020200A2020342020352020322020302020202020200A2020312020352020312020302020202020200A2020352020362020312020302020202020200A2020322020372020312020302020202020200A2020382020392020312020302020202020200A2020342020382020312020302020202020200A4D2020454E44
Contributor: HASHIMOTO K, KYOTO COLLEGE OF PHARMACY
InstType: EI
InstName: HITACHI M-80
IoniMethod: _ENERGY 20 eV
IonPolarity: pos
Date: 2010-10-09 19:48:36+02:00
Num Peaks: 20
41 10 42 310 43 767 54 19 55 93 56 39 68 30 69 999 70 89 82 216 
83 49 84 211 96 20 97 10 110 960 111 190 124 189 125 760 126 181 127 10 
