Name: TRIALLYLHYDRAZINE
MW: 152
Formula: C9H16N2
Synonym: MassBank: JP000516
Synonym: TRIALLYLHYDRAZINE
Structure: 545249414C4C594C48594452415A494E452E6D6F6C0A20204368656D447261773038313231303038313932440A2031312031302020302020302020302020302020302020302020302020303939392056323030300A20202020302E333537322020202D302E3431323520202020302E30303030204E202020302020302020302020302020302020302020302020302020302020302020302020300A20202020302E3335373220202020302E3431323520202020302E30303030204E202020302020302020302020302020302020302020302020302020302020302020302020300A20202020312E303731372020202D302E3832353020202020302E303030302043202020302020302020302020302020302020302020302020302020302020302020302020300A20202020312E373836322020202D302E3431323520202020302E303030302043202020302020302020302020302020302020302020302020302020302020302020302020300A20202020312E3738363220202020302E3431323520202020302E303030302043202020302020302020302020302020302020302020302020302020302020302020302020300A2020202D302E333537322020202D302E3832353020202020302E303030302043202020302020302020302020302020302020302020302020302020302020302020302020300A2020202D312E303731372020202D302E3431323520202020302E303030302043202020302020302020302020302020302020302020302020302020302020302020302020300A2020202D312E373836322020202D302E3832353020202020302E303030302043202020302020302020302020302020302020302020302020302020302020302020302020300A2020202D302E3335373220202020302E3832353020202020302E303030302043202020302020302020302020302020302020302020302020302020302020302020302020300A2020202D312E3037313720202020302E3431323520202020302E303030302043202020302020302020302020302020302020302020302020302020302020302020302020300A2020202D312E3738363220202020302E3832353020202020302E303030302043202020302020302020302020302020302020302020302020302020302020302020302020300A2020312020322020312020302020202020200A2020332020342020312020302020202020200A2020342020352020322020302020202020200A2020312020332020312020302020202020200A2020362020372020312020302020202020200A2020372020382020322020302020202020200A2020312020362020312020302020202020200A2020392031302020312020302020202020200A2031302031312020322020302020202020200A2020322020392020312020302020202020200A4D2020454E44
Contributor: SASAKI S, TOYOHASHI UNIV. OF TECH.
InstType: EI
InstName: SHIMADZU LKB-2091
IoniMethod: _ENERGY 70 eV
IonPolarity: pos
Date: 2010-10-09 19:48:36+02:00
Num Peaks: 26
28 78 29 41 30 33 38 1 39 189 40 30 41 999 42 9 43 41 53 13 
54 33 55 7 56 50 57 11 67 14 68 2 69 28 70 14 81 18 83 1 
94 8 111 426 112 37 113 2 152 104 153 12 
