Name: ISOAMYL SALICYLATE
MW: 208
Formula: C12H16O3
Synonym: MassBank: JP000078
Synonym: ISOAMYL SALICYLATE
Synonym: ISOAMYL ORTHO HYDROXY BENZOATE
Structure: 49534F414D594C204F5254484F20485944524F58592042454E5A4F4154452E6D6F6C0A20204368656D447261773038313131303230353932440A2031352031352020302020302020302020302020302020302020302020303939392056323030300A2020202D302E373134352020202D302E3431323520202020302E303030302043202020302020302020302020302020302020302020302020302020302020302020302020300A2020202D312E343238392020202D302E3030303020202020302E303030302043202020302020302020302020302020302020302020302020302020302020302020302020300A2020202D322E313433342020202D302E3431323520202020302E303030302043202020302020302020302020302020302020302020302020302020302020302020302020300A2020202D322E383537392020202D302E3030303020202020302E303030302043202020302020302020302020302020302020302020302020302020302020302020302020300A2020202D322E3835373920202020302E3832353020202020302E303030302043202020302020302020302020302020302020302020302020302020302020302020302020300A2020202D322E3134333420202020312E3233373520202020302E303030302043202020302020302020302020302020302020302020302020302020302020302020302020300A2020202D312E3432383920202020302E3832353020202020302E303030302043202020302020302020302020302020302020302020302020302020302020302020302020300A2020202D302E373134352020202D312E3233373520202020302E30303030204F202020302020302020302020302020302020302020302020302020302020302020302020300A20202020302E303030302020202D302E3030303020202020302E30303030204F202020302020302020302020302020302020302020302020302020302020302020302020300A2020202D322E313433342020202D312E3233373520202020302E30303030204F202020302020302020302020302020302020302020302020302020302020302020302020300A20202020302E373134352020202D302E3431323520202020302E303030302043202020302020302020302020302020302020302020302020302020302020302020302020300A20202020312E343238392020202D302E3030303020202020302E303030302043202020302020302020302020302020302020302020302020302020302020302020302020300A20202020322E313433342020202D302E3431323520202020302E303030302043202020302020302020302020302020302020302020302020302020302020302020302020300A20202020322E383537392020202D302E3030303020202020302E303030302043202020302020302020302020302020302020302020302020302020302020302020302020300A20202020322E313433342020202D312E3233373520202020302E303030302043202020302020302020302020302020302020302020302020302020302020302020302020300A2020312020322020312020302020202020200A2020322020332020312020302020202020200A2020332020342020322020302020202020200A2020342020352020312020302020202020200A2020352020362020322020302020202020200A2020362020372020312020302020202020200A2020322020372020322020302020202020200A2020312020382020322020302020202020200A2020312020392020312020302020202020200A2020332031302020312020302020202020200A2031312031322020312020302020202020200A2031322031332020312020302020202020200A2031332031342020312020302020202020200A2031332031352020312020302020202020200A2020392031312020312020302020202020200A4D2020454E44
Contributor: TAJIMA S, GUNMA COLLEGE OF TECHNOLOGY
InstType: EI
InstName: HITACHI RMU-7M
IoniMethod: _ENERGY 70 eV
IonPolarity: pos
Date: 2010-10-09 19:48:36+02:00
Num Peaks: 24
27 54 29 71 39 159 41 137 42 42 43 418 53 31 55 150 63 44 64 57 
65 186 66 13 69 13 70 186 71 98 92 242 93 106 120 999 121 379 122 30 
138 354 139 69 208 132 209 17 
