Name: N-ACETYL-ALANYL-VALYL-GLYCINE METHYLESTER
MW: 301
Formula: C13H23N3O5
Synonym: MassBank: JP000118
Synonym: N-ACETYL-ALANYL-VALYL-GLYCINE METHYLESTER
Structure: 303036305F4E2D41434554594C2D414C414E594C2D56414C594C2D474C5943494E45204D455448594C45535445522E6D6F6C0A20204368656D447261773039303331303137313932440A2032332032322020302020302020302020302020302020302020302020303939392056323030300A2020202D322E383537382020202D302E3631383820202020302E303030302043202020302020302020302020302020302020302020302020302020302020302020302020300A2020202D312E343238392020202D302E3631383820202020302E30303030204E202020302020302020302020302020302020302020302020302020302020302020302020300A2020202D322E313433332020202D302E3230363220202020302E303030302043202020302020302020302020302020302020302020302020302020302020302020302020300A2020202D322E383537382020202D312E3434333820202020302E30303030204F202020302020302020302020302020302020302020302020302020302020302020302020300A2020202D332E353732332020202D302E3230363320202020302E30303030204F202020302020302020302020302020302020302020302020302020302020302020302020300A2020202D302E373134352020202D302E3230363220202020302E303030302043202020302020302020302020302020302020302020302020302020302020302020302020300A20202020302E373134352020202D302E3230363220202020302E30303030204E202020302020302020302020302020302020302020302020302020302020302020302020300A20202020302E303030302020202D302E3631383820202020302E303030302043202020302020302020302020302020302020302020302020302020302020302020302020300A20202020302E303030302020202D312E3434333820202020302E303030302043202020302020302020302020302020302020302020302020302020302020302020302020300A2020202D302E373134352020202D312E3835363220202020302E303030302043202020302020302020302020302020302020302020302020302020302020302020302020300A20202020302E373134352020202D312E3835363220202020302E303030302043202020302020302020302020302020302020302020302020302020302020302020302020300A2020202D302E3731343520202020302E3631383820202020302E30303030204F202020302020302020302020302020302020302020302020302020302020302020302020300A20202020302E3731343520202020302E3631383820202020302E303030302043202020302020302020302020302020302020302020302020302020302020302020302020300A20202020322E3134333320202020302E3631383820202020302E30303030204E202020302020302020302020302020302020302020302020302020302020302020302020300A20202020312E3432383920202020312E3033313320202020302E303030302043202020302020302020302020302020302020302020302020302020302020302020302020300A20202020312E3432383920202020312E3835363220202020302E303030302043202020302020302020302020302020302020302020302020302020302020302020302020300A20202020302E3030303020202020312E3033313320202020302E30303030204F202020302020302020302020302020302020302020302020302020302020302020302020300A20202020322E3835373820202020312E3033313320202020302E303030302043202020302020302020302020302020302020302020302020302020302020302020302020300A20202020322E3835373820202020312E3835363220202020302E30303030204F202020302020302020302020302020302020302020302020302020302020302020302020300A20202020332E3537323320202020302E3631383820202020302E303030302043202020302020302020302020302020302020302020302020302020302020302020302020300A2020202D332E3537323320202020302E3631383720202020302E303030302043202020302020302020302020302020302020302020302020302020302020302020302020300A2020202D302E373134352020202D312E3033313220202020302E303030302048202020302020302020302020302020302020302020302020302020302020302020302020300A20202020302E3636333520202020312E3333393420202020302E303030302048202020302020302020302020302020302020302020302020302020302020302020302020300A2020322020332020312020302020202020200A2020312020332020312020302020202020200A2020312020342020322020302020202020200A2020312020352020312020302020202020200A2020382020372020312020312020202020200A2020362020382020312020302020202020200A2020382020392020312020302020202020200A2020392031302020312020302020202020200A2020392031312020312020302020202020200A2020362031322020322020302020202020200A2031352031342020312020312020202020200A2031332031352020312020302020202020200A2031352031362020312020302020202020200A2031332031372020322020302020202020200A2020372031332020312020302020202020200A2020322020362020312020302020202020200A2031382031392020322020302020202020200A2031382032302020312020302020202020200A2031342031382020312020302020202020200A2020352032312020312020302020202020200A2020382032322020312020312020202020200A2031352032332020312020312020202020200A4D2020454E44
Contributor: YAMAMOTO M, DEP. CHEMISTRY, FAC. SCIENCE, NARA WOMEN'S UNIV.
InstType: EI
InstName: HITACHI RMU-6M
IoniMethod: _ENERGY 70 eV
IonPolarity: pos
Date: 2010-10-09 19:48:36+02:00
Num Peaks: 35
27 18 28 37 29 20 30 7 39 12 41 31 42 29 43 10 44 473 45 16 
55 74 56 4 57 22 69 26 70 17 71 2 72 999 73 56 82 10 83 2 
84 12 85 13 86 120 87 12 88 19 90 26 114 80 127 2 155 18 159 24 
173 17 185 9 186 18 213 25 215 18 
