Name: MassBank: JP005711
CAS: 2403-88-5
MW: 157
Formula: C9H19NO
Synonym: MassBank: JP005711
Synonym: 2,2,6,6-TETRAMETHYL-4-PIPERIDINOL
Structure: 322C322C362C362D54455452414D455448594C2D342D50495045524944494E4F4C2E6D6F6C0A20204368656D447261773132323030393036323332440A2031312031312020302020302020302020302020302020302020302020303939392056323030300A20202020302E3030303020202020312E3035363120202020302E30303030204E202020302020302020302020302020302020302020302020302020302020302020302020300A2020202D302E3731343520202020302E3634333620202020302E303030302043202020302020302020302020302020302020302020302020302020302020302020302020300A2020202D302E373134352020202D302E3138313420202020302E303030302043202020302020302020302020302020302020302020302020302020302020302020302020300A20202020302E303030302020202D302E3539333920202020302E303030302043202020302020302020302020302020302020302020302020302020302020302020302020300A20202020302E373134352020202D302E3138313420202020302E303030302043202020302020302020302020302020302020302020302020302020302020302020302020300A20202020302E3731343520202020302E3634333620202020302E303030302043202020302020302020302020302020302020302020302020302020302020302020302020300A20202020302E303030302020202D312E3431383920202020302E30303030204F202020302020302020302020302020302020302020302020302020302020302020302020300A20202020312E3532363920202020302E3530303420202020302E303030302043202020302020302020302020302020302020302020302020302020302020302020302020300A20202020302E3939363620202020312E3431383920202020302E303030302043202020302020302020302020302020302020302020302020302020302020302020302020300A2020202D302E3939363620202020312E3431383920202020302E303030302043202020302020302020302020302020302020302020302020302020302020302020302020300A2020202D312E3532363920202020302E3530303420202020302E303030302043202020302020302020302020302020302020302020302020302020302020302020302020300A2020312020322020312020302020202020200A2020322020332020312020302020202020200A2020332020342020312020302020202020200A2020342020352020312020302020202020200A2020352020362020312020302020202020200A2020312020362020312020302020202020200A2020342020372020312020302020202020200A2020362020382020312020312020202020200A2020362020392020312020362020202020200A2020322031302020312020312020202020200A2020322031312020312020362020202020200A4D2020454E44
Contributor: MASS SPECTROSCOPY SOC. OF JAPAN (MSSJ)
InstType: EI
InstName: HITACHI M-80
IoniMethod: _ENERGY 70 eV
IonPolarity: pos
Date: 2010-10-09 19:48:36+02:00
Num Peaks: 63
15 19 18 63 19 9 27 25 28 24 29 44 30 31 31 10 39 33 40 5 
41 70 42 190 43 46 44 22 45 9 46 5 53 12 54 5 55 33 56 38 
57 53 58 593 59 25 67 10 68 5 69 4 70 13 71 11 72 13 79 4 
80 4 81 8 82 22 83 18 84 16 85 73 86 89 87 4 96 12 97 5 
98 53 99 25 100 8 107 15 108 15 109 3 110 5 112 24 113 4 123 5 
124 108 125 13 126 6 140 135 141 14 142 999 143 109 144 7 156 6 157 10 
158 823 159 89 160 5 
