Name: TERT-BUTYL 4-PICOLYL SULFIDE
MW: 181
Formula: C10H15NS
Synonym: MassBank: JP002997
Synonym: TERT-BUTYL 4-PICOLYL SULFIDE
Structure: 544552542D425554594C20342D5049434F4C594C2053554C464944452E6D6F6C0A20204368656D447261773038313231303037303432440A2031322031322020302020302020302020302020302020302020302020303939392056323030300A20202020302E363138382020202D302E3330323020202020302E303030302053202020302020302020302020302020302020302020302020302020302020302020302020300A2020202D312E3835363220202020312E3132373020202020302E303030302043202020302020302020302020302020302020302020302020302020302020302020302020300A2020202D312E3033313220202020312E3132373020202020302E303030302043202020302020302020302020302020302020302020302020302020302020302020302020300A2020202D302E3631383720202020302E3431323520202020302E303030302043202020302020302020302020302020302020302020302020302020302020302020302020300A2020202D312E303331322020202D302E3330323020202020302E303030302043202020302020302020302020302020302020302020302020302020302020302020302020300A2020202D312E383536322020202D302E3330323020202020302E303030302043202020302020302020302020302020302020302020302020302020302020302020302020300A2020202D322E3236383820202020302E3431323520202020302E30303030204E202020302020302020302020302020302020302020302020302020302020302020302020300A20202020302E3230363320202020302E3431323520202020302E303030302043202020302020302020302020302020302020302020302020302020302020302020302020300A20202020312E343433382020202D302E3330323020202020302E303030302043202020302020302020302020302020302020302020302020302020302020302020302020300A20202020312E3434333820202020302E3532333020202020302E303030302043202020302020302020302020302020302020302020302020302020302020302020302020300A20202020322E323638382020202D302E3330323020202020302E303030302043202020302020302020302020302020302020302020302020302020302020302020302020300A20202020312E343433382020202D312E3132373020202020302E303030302043202020302020302020302020302020302020302020302020302020302020302020302020300A2020322020332020322020302020202020200A2020332020342020312020302020202020200A2020342020352020322020302020202020200A2020352020362020312020302020202020200A2020362020372020322020302020202020200A2020322020372020312020302020202020200A2020342020382020312020302020202020200A2020312020382020312020302020202020200A2020392031302020312020302020202020200A2020392031322020312020302020202020200A2020392031312020312020302020202020200A2020312020392020312020302020202020200A4D2020454E44
Contributor: SASAKI S, TOYOHASHI UNIV. OF TECH.
InstType: EI
InstName: Unknown
IoniMethod: EI
IonPolarity: pos
Date: 2010-10-09 19:48:36+02:00
Num Peaks: 25
29 260 39 300 41 340 45 10 50 400 51 130 52 50 53 1 57 999 58 50 
59 60 63 0 65 120 78 70 79 150 80 1 92 200 93 50 106 40 124 1 
125 830 126 110 127 40 181 2 182 30 
