Name: 12-FLUORO-(Z)-3-DODECENYL ACETATE
MW: 244
Formula: C14H25FO2
Synonym: MassBank: JP005382
Synonym: 12-FLUORO-(Z)-3-DODECENYL ACETATE
Structure: 31322D464C554F524F2D285A292D332D444F444543454E594C20414345544154452E6D6F6C0A20204368656D447261773132313030393231333632440A2031392031382020302020302020302020302020302020302020302020303939392056323030300A20202020332E3530363320202020302E3731343520202020302E303030302043202020302020302020302020302020302020302020302020302020302020302020302020300A20202020322E3638313220202020302E3731343520202020302E303030302043202020302020302020302020302020302020302020302020302020302020302020302020300A20202020332E3931383820202020312E3432383920202020302E30303030204F202020302020302020302020302020302020302020302020302020302020302020302020300A20202020332E3931383820202020302E3030303020202020302E30303030204F202020302020302020302020302020302020302020302020302020302020302020302020300A20202020332E353036332020202D302E3731343520202020302E303030302043202020302020302020302020302020302020302020302020302020302020302020302020300A20202020322E363831322020202D302E3731343520202020302E303030302043202020302020302020302020302020302020302020302020302020302020302020302020300A20202020322E323638372020202D312E3432383920202020302E303030302043202020302020302020302020302020302020302020302020302020302020302020302020300A20202020312E343433382020202D312E3432383920202020302E303030302043202020302020302020302020302020302020302020302020302020302020302020302020300A20202020312E303331322020202D302E3731343520202020302E303030302043202020302020302020302020302020302020302020302020302020302020302020302020300A20202020302E323036322020202D302E3731343520202020302E303030302043202020302020302020302020302020302020302020302020302020302020302020302020300A2020202D302E3230363220202020302E3030303020202020302E303030302043202020302020302020302020302020302020302020302020302020302020302020302020300A2020202D312E3033313320202020302E3030303020202020302E303030302043202020302020302020302020302020302020302020302020302020302020302020302020300A2020202D312E3434333820202020302E3731343520202020302E303030302043202020302020302020302020302020302020302020302020302020302020302020302020300A2020202D322E3236383720202020302E3731343520202020302E303030302043202020302020302020302020302020302020302020302020302020302020302020302020300A2020202D322E3638313220202020312E3432383920202020302E303030302043202020302020302020302020302020302020302020302020302020302020302020302020300A2020202D332E3530363320202020312E3432383920202020302E303030302043202020302020302020302020302020302020302020302020302020302020302020302020300A2020202D332E3931383820202020322E3134333420202020302E303030302046202020302020302020302020302020302020302020302020302020302020302020302020300A20202020312E303331332020202D322E3134333420202020302E303030302048202020302020302020302020302020302020302020302020302020302020302020302020300A20202020322E363831322020202D322E3134333420202020302E303030302048202020302020302020302020302020302020302020302020302020302020302020302020300A2020312020322020312020302020202020200A2020312020332020322020302020202020200A2020312020342020312020302020202020200A2020352020362020312020302020202020200A2020362020372020312020302020202020200A2020372020382020322020302020202020200A2020382020392020312020302020202020200A2020392031302020312020302020202020200A2031302031312020312020302020202020200A2031312031322020312020302020202020200A2031322031332020312020302020202020200A2031332031342020312020302020202020200A2031342031352020312020302020202020200A2031352031362020312020302020202020200A2031362031372020312020302020202020200A2020342020352020312020302020202020200A2020382031382020312020302020202020200A2020372031392020312020302020202020200A4D2020454E44
Contributor: YAMAOKA R, KYOTO INSTITUTE OF TECHNOLOGY
InstType: EI
InstName: SHIMADZU QP-1000
IoniMethod: _ENERGY 70 eV
IonPolarity: pos
Date: 2010-10-09 19:48:36+02:00
Num Peaks: 86
41 251 42 44 43 885 44 52 45 222 46 836 47 28 48 9 52 18 53 11 
54 529 55 999 56 180 57 267 58 95 59 18 60 16 61 49 65 31 66 6 
67 680 68 827 69 336 70 9 71 98 72 61 73 134 74 3 75 33 77 25 
79 95 80 3 81 526 82 342 83 137 84 3 85 32 86 36 87 147 88 8 
89 232 90 12 93 21 94 4 95 241 96 128 97 52 98 1 99 23 100 23 
101 60 102 5 103 93 107 14 108 17 109 11 110 35 111 12 113 23 114 5 
115 31 116 21 117 36 119 1 121 16 123 39 127 26 128 6 129 18 130 15 
131 41 132 2 133 121 134 13 141 27 142 5 145 11 147 29 155 28 156 5 
163 12 175 19 177 25 183 2 184 112 185 14 
