Name: LANOST-8-EN-3-OL
CAS: 79-62-9
MW: 428
Formula: C30H52O
Synonym: MassBank: JP002697
Synonym: LANOST-8-EN-3-OL
Synonym: DIHYDROLANOSTEROL
Structure: 303438345F4C414E4F53542D382D454E2D332D4F4C2E6D6F6C0A20204368656D447261773039303631303137343132440A2033342033372020302020302020302020302020302020302020302020303939392056323030300A2020202D332E343134312020202D322E3239313520202020302E303030302043202020302020302020302020302020302020302020302020302020302020302020302020300A2020202D332E343134312020202D312E3436363520202020302E303030302043202020302020302020302020302020302020302020302020302020302020302020302020300A2020202D322E363939362020202D312E3035343020202020302E303030302043202020302020302020302020302020302020302020302020302020302020302020302020300A2020202D322E363939362020202D322E3730343020202020302E303030302043202020302020302020302020302020302020302020302020302020302020302020302020300A2020202D322E313639332020202D332E3333363020202020302E303030302043202020302020302020302020302020302020302020302020302020302020302020302020300A2020202D332E323239392020202D332E3333363020202020302E303030302043202020302020302020302020302020302020302020302020302020302020302020302020300A2020202D312E393835322020202D322E3239313520202020302E303030302043202020302020302020302020302020302020302020302020302020302020302020302020300A2020202D312E323730372020202D322E3730343020202020302E303030302043202020302020302020302020302020302020302020302020302020302020302020302020300A2020202D302E353536322020202D322E3239313520202020302E303030302043202020302020302020302020302020302020302020302020302020302020302020302020300A2020202D302E353536322020202D312E3436363520202020302E303030302043202020302020302020302020302020302020302020302020302020302020302020302020300A20202020302E313538322020202D312E3035343020202020302E303030302043202020302020302020302020302020302020302020302020302020302020302020302020300A20202020302E313538322020202D312E3837393020202020302E303030302043202020302020302020302020302020302020302020302020302020302020302020302020300A20202020302E393432392020202D312E3330383920202020302E303030302043202020302020302020302020302020302020302020302020302020302020302020302020300A20202020312E343237382020202D302E3634313520202020302E303030302043202020302020302020302020302020302020302020302020302020302020302020302020300A20202020302E3934323920202020302E3032363020202020302E303030302043202020302020302020302020302020302020302020302020302020302020302020302020300A20202020312E3139373820202020302E3831303620202020302E303030302043202020302020302020302020302020302020302020302020302020302020302020302020300A20202020322E3030343820202020302E3938323120202020302E303030302043202020302020302020302020302020302020302020302020302020302020302020302020300A20202020322E3235393720202020312E3736363720202020302E303030302043202020302020302020302020302020302020302020302020302020302020302020302020300A20202020332E3036363720202020312E3933383320202020302E303030302043202020302020302020302020302020302020302020302020302020302020302020302020300A20202020332E3332313620202020322E3732323920202020302E303030302043202020302020302020302020302020302020302020302020302020302020302020302020300A20202020342E3132383620202020322E3839343420202020302E303030302043202020302020302020302020302020302020302020302020302020302020302020302020300A20202020322E3736393620202020332E3333363020202020302E303030302043202020302020302020302020302020302020302020302020302020302020302020302020300A20202020312E3034363720202020312E3632313620202020302E303030302043202020302020302020302020302020302020302020302020302020302020302020302020300A20202020302E313538322020202D302E3232393020202020302E303030302043202020302020302020302020302020302020302020302020302020302020302020302020300A20202020302E3135383220202020302E3539363020202020302E303030302043202020302020302020302020302020302020302020302020302020302020302020302020300A2020202D302E3535363220202020302E3138333520202020302E303030302043202020302020302020302020302020302020302020302020302020302020302020302020300A2020202D312E323730372020202D302E3232393020202020302E303030302043202020302020302020302020302020302020302020302020302020302020302020302020300A2020202D312E323730372020202D312E3035343020202020302E303030302043202020302020302020302020302020302020302020302020302020302020302020302020300A2020202D312E393835322020202D312E3436363520202020302E303030302043202020302020302020302020302020302020302020302020302020302020302020302020300A2020202D312E393835322020202D302E3634313520202020302E303030302043202020302020302020302020302020302020302020302020302020302020302020302020300A2020202D342E313238362020202D322E3730343020202020302E30303030204F202020302020302020302020302020302020302020302020302020302020302020302020300A2020202D312E373739372020202D332E3039303520202020302E303030302048202020302020302020302020302020302020302020302020302020302020302020302020300A20202020312E3736373820202020302E3031303820202020302E303030302048202020302020302020302020302020302020302020302020302020302020302020302020300A20202020302E3430333220202020312E3033323620202020302E303030302048202020302020302020302020302020302020302020302020302020302020302020302020300A2020312020322020312020302020202020200A2020322020332020312020302020202020200A2020312020342020312020302020202020200A2020342020352020312020362020202020200A2020342020362020312020312020202020200A2020342020372020312020302020202020200A2020372020382020312020302020202020200A2020382020392020312020302020202020200A2020392031302020312020302020202020200A2031302031312020312020302020202020200A2031312031322020312020362020202020200A2031312031332020312020302020202020200A2031332031342020312020302020202020200A2031352031342020312020302020202020200A2031352031362020312020302020202020200A2031362031372020312020302020202020200A2031372031382020312020302020202020200A2031382031392020312020302020202020200A2031392032302020312020302020202020200A2032302032312020312020302020202020200A2032302032322020312020302020202020200A2031362032332020312020302020202020200A2031352032342020312020302020202020200A2031312032342020312020302020202020200A2032342032352020312020312020202020200A2032342032362020312020302020202020200A2032362032372020312020302020202020200A2032372032382020312020302020202020200A2031302032382020322020302020202020200A2032382032392020312020302020202020200A2020332032392020312020302020202020200A2020372032392020312020302020202020200A2032392033302020312020312020202020200A2020312033312020312020312020202020200A2020372033322020312020362020202020200A2031352033332020312020362020202020200A2031362033342020312020312020202020200A4D2020454E44
Contributor: HAYASHI A, DEPT. OF CHEMISTRY, FAC. OF SCI. AND TECHNOLOGY, KINKI UNIV.
InstType: EI
InstName: SHIMADZU LKB-9000B
IoniMethod: _ENERGY 70 eV
IonPolarity: pos
Date: 2010-10-09 19:48:36+02:00
Num Peaks: 260
43 28 55 80 57 84 67 48 69 179 70 17 71 95 77 2 78 11 79 89 
81 144 82 3 83 178 84 21 85 35 91 10 92 20 93 150 94 37 95 35 
96 39 97 175 103 16 105 20 106 48 107 220 108 45 109 24 110 35 111 143 
112 20 113 2 115 41 116 16 117 55 118 3 119 273 120 60 121 282 122 8 
123 176 124 25 125 59 127 2 128 49 129 58 130 32 131 13 132 47 133 204 
134 79 135 26 136 64 137 79 139 35 141 4 142 43 143 100 144 42 145 20 
146 47 147 205 148 54 149 16 150 28 151 46 152 30 153 5 154 29 155 44 
156 38 157 13 158 47 159 203 160 65 161 26 162 44 163 100 164 28 165 6 
166 25 167 33 168 21 169 7 170 31 171 141 172 49 173 19 174 47 175 138 
176 33 177 5 178 23 179 54 180 27 181 3 182 17 183 60 184 32 185 12 
186 61 187 220 188 62 189 18 190 42 191 63 192 20 193 8 194 22 195 37 
196 24 197 6 198 37 199 99 200 37 201 12 202 51 203 124 204 75 205 14 
206 69 207 57 208 17 209 37 210 27 211 45 212 37 213 11 214 60 215 145 
216 43 217 5 218 13 219 70 220 24 221 3 222 18 223 39 224 21 225 7 
226 29 227 156 228 55 229 15 230 36 231 63 233 51 234 2 235 19 236 19 
237 33 238 2 239 64 240 56 241 162 242 3 243 89 244 29 245 77 246 3 
247 78 248 29 249 23 251 2 252 25 253 66 254 52 255 13 256 37 257 83 
258 44 259 12 260 34 261 80 262 26 265 2 267 33 269 67 270 36 271 11 
272 47 273 164 274 67 275 7 276 28 279 22 281 28 282 3 283 67 284 27 
285 35 286 4 287 40 288 34 289 16 293 2 295 51 296 27 297 169 298 4 
299 76 300 24 301 46 311 5 312 18 313 63 314 30 315 7 316 23 327 42 
328 30 329 27 331 1 337 15 339 49 340 27 341 7 342 29 343 20 351 14 
353 3 354 20 355 27 365 60 366 3 367 57 368 22 373 21 377 5 378 97 
379 62 380 35 381 2 382 16 389 20 391 34 392 3 393 131 394 60 395 999 
396 364 397 77 398 22 399 23 405 2 406 36 407 16 408 77 409 5 410 126 
411 194 412 81 413 86 414 268 415 52 424 24 426 8 427 36 428 135 429 51 
