Name: MassBank: JP002716
MW: 528
Formula: C31H52N2O3Si
Synonym: MassBank: JP002716
Synonym: 17ALPHA-TRIMETHYLSILOXYPROGESTERONE 3,20-BIS(O-METHYLOXIME)
Structure: 3137414C5048412D5452494D455448594C53494C4F585950524F4745535445524F4E4520332C32302D424953284F2D4D455448594C4F58494D45292E6D6F6C0A20204368656D447261773132313130393031303032440A2033362033392020302020302020302020302020302020302020302020303939392056323030300A2020202D312E3834303220202020302E3234303720202020302E303030302043202020302020302020302020302020302020302020302020302020302020302020302020300A2020202D322E3535343720202020302E3635333220202020302E303030302043202020302020302020302020302020302020302020302020302020302020302020302020300A2020202D322E3535343720202020312E3437383220202020302E303030302043202020302020302020302020302020302020302020302020302020302020302020302020300A2020202D312E3834303220202020312E3839303720202020302E303030302043202020302020302020302020302020302020302020302020302020302020302020302020300A2020202D312E3132353820202020312E3437383220202020302E303030302043202020302020302020302020302020302020302020302020302020302020302020302020300A2020202D302E3431313320202020312E3839303720202020302E303030302043202020302020302020302020302020302020302020302020302020302020302020302020300A20202020302E3330333220202020312E3437383220202020302E303030302043202020302020302020302020302020302020302020302020302020302020302020302020300A20202020302E3330333220202020302E3635333220202020302E303030302043202020302020302020302020302020302020302020302020302020302020302020302020300A20202020312E3031373620202020302E3234303720202020302E303030302043202020302020302020302020302020302020302020302020302020302020302020302020300A20202020312E3830323320202020302E3439353720202020302E303030302043202020302020302020302020302020302020302020302020302020302020302020302020300A20202020322E323837322020202D302E3137313820202020302E303030302043202020302020302020302020302020302020302020302020302020302020302020302020300A20202020312E383032332020202D302E3833393220202020302E303030302043202020302020302020302020302020302020302020302020302020302020302020302020300A20202020312E353434372020202D312E3838363820202020302E303030302043202020302020302020302020302020302020302020302020302020302020302020302020300A20202020322E313336332020202D322E3435333020202020302E303030302043202020302020302020302020302020302020302020302020302020302020302020302020300A20202020312E303137362020202D302E3538343320202020302E303030302043202020302020302020302020302020302020302020302020302020302020302020302020300A20202020312E303137362020202D312E3430393320202020302E303030302043202020302020302020302020302020302020302020302020302020302020302020302020300A20202020302E333033322020202D302E3939363820202020302E303030302043202020302020302020302020302020302020302020302020302020302020302020302020300A2020202D302E343131332020202D302E3538343320202020302E303030302043202020302020302020302020302020302020302020302020302020302020302020302020300A2020202D302E3431313320202020302E3234303720202020302E303030302043202020302020302020302020302020302020302020302020302020302020302020302020300A2020202D312E3132353820202020302E3635333220202020302E303030302043202020302020302020302020302020302020302020302020302020302020302020302020300A2020202D302E3534323420202020312E3233363620202020302E303030302043202020302020302020302020302020302020302020302020302020302020302020302020300A20202020322E353530302020202D312E3138373920202020302E30303030204F202020302020302020302020302020302020302020302020302020302020302020302020300A20202020332E323331322020202D302E3833393220202020302E303030302053692020302020302020302020302020302020302020302020302020302020302020302020300A20202020322E383932392020202D302E3038363820202020302E303030302043202020302020302020302020302020302020302020302020302020302020302020302020300A20202020332E393833372020202D302E3530303920202020302E303030302043202020302020302020302020302020302020302020302020302020302020302020302020300A20202020332E353639352020202D312E3539313720202020302E303030302043202020302020302020302020302020302020302020302020302020302020302020302020300A2020202D332E3236393220202020312E3839303720202020302E30303030204E202020302020302020302020302020302020302020302020302020302020302020302020300A2020202D332E3236393220202020322E3731353720202020302E30303030204F202020302020302020302020302020302020302020302020302020302020302020302020300A2020202D332E3938333720202020332E3132383220202020302E303030302043202020302020302020302020302020302020302020302020302020302020302020302020300A20202020302E373437382020202D322E3130303320202020302E30303030204E202020302020302020302020302020302020302020302020302020302020302020302020300A20202020302E353532312020202D322E3931343720202020302E30303030204F202020302020302020302020302020302020302020302020302020302020302020302020300A2020202D302E323434382020202D332E3132383220202020302E303030302043202020302020302020302020302020302020302020302020302020302020302020302020300A2020202D302E393934372020202D302E3334383120202020302E303030302048202020302020302020302020302020302020302020302020302020302020302020302020300A20202020302E3838363520202020312E3233363620202020302E303030302048202020302020302020302020302020302020302020302020302020302020302020302020300A20202020312E3233313220202020312E3033373620202020302E303030302048202020302020302020302020302020302020302020302020302020302020302020302020300A2020202D312E3834303220202020322E3731353720202020302E303030302048202020302020302020302020302020302020302020302020302020302020302020302020300A2020312020322020312020302020202020200A2020322020332020312020302020202020200A2020332020342020312020302020202020200A2020342020352020322020302020202020200A2020352020362020312020302020202020200A2020362020372020312020302020202020200A2020372020382020312020302020202020200A2020382020392020312020302020202020200A2020392031302020312020302020202020200A2031302031312020312020302020202020200A2031312031322020312020302020202020200A2031322031332020312020362020202020200A2031332031342020312020302020202020200A2031322031352020312020302020202020200A2020392031352020312020302020202020200A2031352031362020312020362020202020200A2031352031372020312020302020202020200A2031372031382020312020302020202020200A2031382031392020312020302020202020200A2020382031392020312020302020202020200A2031392032302020312020302020202020200A2020312032302020312020302020202020200A2020352032302020312020302020202020200A2032302032312020312020362020202020200A2032322032332020312020302020202020200A2032332032342020312020312020202020200A2032332032352020312020302020202020200A2032332032362020312020312020202020200A2031322032322020312020312020202020200A2032372032382020312020302020202020200A2032382032392020312020302020202020200A2020332032372020322020302020202020200A2033302033312020312020302020202020200A2033312033322020312020302020202020200A2031332033302020322020302020202020200A2031392033332020312020312020202020200A2020382033342020312020362020202020200A2020392033352020312020312020202020200A2020342033362020312020302020202020200A4D2020454E44
Contributor: HAYASHI A, DEPT. OF CHEMISTRY, FAC. OF SCI. AND TECHNOLOGY, KINKI UNIV.
InstType: EI
InstName: SHIMADZU LKB-9000B
IoniMethod: _ENERGY 70 eV
IonPolarity: pos
Date: 2010-10-09 19:48:36+02:00
Num Peaks: 214
50 73 51 85 53 85 54 4 55 121 56 59 57 304 58 1 59 339 60 88 
61 106 63 5 65 79 67 138 68 98 69 6 70 95 71 202 72 82 73 999 
74 166 75 864 76 100 77 11 78 58 79 192 80 27 81 27 82 77 83 14 
84 85 85 7 89 442 90 80 91 296 92 13 93 55 94 116 95 89 97 1 
98 53 100 44 103 97 104 2 105 197 106 52 108 68 110 6 111 54 112 35 
113 94 114 7 115 103 116 105 117 173 118 7 119 106 120 178 121 103 122 15 
123 80 124 56 125 140 126 6 127 33 128 106 129 32 130 6 131 134 132 33 
134 64 135 15 136 117 137 169 138 63 139 6 141 107 142 77 143 172 144 17 
145 180 146 84 148 57 149 13 150 75 151 54 152 93 153 13 154 36 155 71 
156 291 157 20 158 270 159 98 160 63 161 3 162 60 164 49 165 63 166 6 
167 82 168 68 169 52 170 28 171 163 172 190 173 95 174 8 175 45 176 28 
177 15 178 2 179 45 181 84 182 97 183 11 184 96 185 52 186 110 187 10 
188 152 189 21 190 71 192 5 194 33 195 26 196 75 197 7 198 85 199 42 
200 140 202 6 203 4 205 56 210 56 211 7 212 64 214 54 217 29 218 7 
219 29 220 18 221 76 222 1 223 37 224 61 225 78 226 7 227 54 230 44 
233 59 234 6 235 67 236 53 237 3 238 6 239 52 241 69 242 88 243 5 
247 52 248 44 249 27 250 3 252 35 258 49 262 62 266 8 268 22 272 43 
273 212 274 6 279 53 283 47 284 68 285 5 286 51 295 34 298 65 300 6 
307 92 308 45 309 47 315 16 317 90 323 16 325 8 326 7 328 13 339 200 
342 7 343 3 344 16 358 29 369 70 370 9 372 77 387 52 388 45 397 8 
399 160 400 23 401 114 413 5 415 46 416 59 428 101 429 55 430 343 431 72 
445 55 459 30 460 68 461 61 
