Name: 2-METHYLBUTYRIC ACID
MW: 102
Formula: C5H10O2
Synonym: MassBank: JP009181
Synonym: 2-METHYLBUTYRIC ACID
Structure: 310A31380A322D4D455448594C4255545952494320414349442E6D6F6C0A20204368656D447261773031323231303037343632440A2020372020362020302020302020302020302020302020302020302020303939392056323030300A20202020302E3230363220202020302E3335373220202020302E303030302043202020302020302020302020302020302020302020302020302020302020302020302020300A2020202D302E323036332020202D302E3335373220202020302E303030302043202020302020302020302020302020302020302020302020302020302020302020302020300A20202020302E323036322020202D312E3037313720202020302E303030302043202020302020302020302020302020302020302020302020302020302020302020302020300A20202020312E303331332020202D312E3037313720202020302E303030302043202020302020302020302020302020302020302020302020302020302020302020302020300A20202020312E3033313220202020302E3335373220202020302E30303030204F202020302020302020302020302020302020302020302020302020302020302020302020300A2020202D302E3230363320202020312E3037313720202020302E30303030204F202020302020302020302020302020302020302020302020302020302020302020302020300A2020202D312E303331332020202D302E3335373220202020302E303030302043202020302020302020302020302020302020302020302020302020302020302020302020300A2020312020322020312020302020202020200A2020322020332020312020302020202020200A2020332020342020312020302020202020200A2020312020352020322020302020202020200A2020312020362020312020302020202020200A2020322020372020312020302020202020200A4D2020454E44
Contributor: SODA AROMATIC CO., LTD.
InstType: EI
InstName: HITACHI M-80B
IoniMethod: _ENERGY 70 eV
IonPolarity: pos
Date: 2010-10-09 19:48:36+02:00
Num Peaks: 31
15 27 16 11 26 49 27 327 28 99 29 576 30 30 31 21 38 19 39 185 
40 22 41 575 42 39 43 41 45 144 46 11 50 17 51 15 53 22 55 78 
56 90 57 581 58 24 59 22 60 29 69 42 73 118 74 999 75 30 87 227 
88 11 
