Name: NICOTINE
MW: 162
Formula: C10H14N2
Synonym: MassBank: JP009715
Synonym: NICOTINE
Synonym: 3-(1-METHYL-2-PYRROLIDINYL)PYRIDINE
Structure: 4E49434F54494E452E6D6F6C0A20204368656D447261773032323231303038353832440A2031332031342020302020302020302020302020302020302020302020303939392056323030300A2020202D312E313236382020202D312E3035363620202020302E303030302043202020302020302020302020302020302020302020302020302020302020302020302020300A2020202D312E313730302020202D302E3233323820202020302E30303030204E202020302020302020302020302020302020302020302020302020302020302020302020300A2020202D302E3532383820202020302E3238363420202020302E303030302043202020302020302020302020302020302020302020302020302020302020302020302020300A20202020302E3236383120202020302E3037323920202020302E303030302043202020302020302020302020302020302020302020302020302020302020302020302020300A20202020302E343831362020202D302E3732343020202020302E303030302043202020302020302020302020302020302020302020302020302020302020302020302020300A20202020312E323738352020202D302E3933373520202020302E303030302043202020302020302020302020302020302020302020302020302020302020302020302020300A20202020312E383631392020202D302E3335343120202020302E303030302043202020302020302020302020302020302020302020302020302020302020302020302020300A20202020312E3634383320202020302E3434323720202020302E30303030204E202020302020302020302020302020302020302020302020302020302020302020302020300A20202020302E3835313420202020302E3635363320202020302E303030302043202020302020302020302020302020302020302020302020302020302020302020302020300A2020202D302E3832343520202020312E3035363620202020302E303030302043202020302020302020302020302020302020302020302020302020302020302020302020300A2020202D312E3634383320202020312E3031333520202020302E303030302043202020302020302020302020302020302020302020302020302020302020302020302020300A2020202D312E3836313920202020302E3231363620202020302E303030302043202020302020302020302020302020302020302020302020302020302020302020302020300A2020202D302E3131363320202020312E3030303920202020302E303030302048202020302020302020302020302020302020302020302020302020302020302020302020300A2020312020322020312020302020202020200A2020322020332020312020302020202020200A2020332020342020312020312020202020200A2020342020352020322020302020202020200A2020352020362020312020302020202020200A2020362020372020322020302020202020200A2020372020382020312020302020202020200A2020382020392020322020302020202020200A2020342020392020312020302020202020200A2020332031302020312020302020202020200A2031302031312020312020302020202020200A2031312031322020312020302020202020200A2020322031322020312020302020202020200A2020332031332020312020362020202020200A4D2020454E44
Contributor: HASHIMOTO K, KYOTO COLLEGE OF PHARMACY
InstType: EI
InstName: HITACHI M-80
IoniMethod: _ENERGY 20 eV
IonPolarity: pos
Date: 2010-10-09 19:48:36+02:00
Num Peaks: 37
41 16 42 188 43 17 44 42 55 61 56 10 57 11 65 32 77 10 78 25 
79 15 80 10 81 20 82 58 83 23 84 999 85 168 91 19 92 92 93 24 
104 16 105 30 106 26 107 18 117 36 118 74 119 146 120 46 130 50 131 14 
132 24 133 631 134 87 147 10 161 334 162 489 163 68 
