Name: MassBank: JP002784
MW: 218
Formula: C12H14N2O2
Synonym: MassBank: JP002784
Synonym: 5-ETHYL-5-PHENYL-HEXAHYDROPYRIMIDINE-4,6-DIONE
Structure: 352D455448594C2D352D5048454E594C2D48455841485944524F505952494D4944494E452D342C362D44494F4E452E6D6F6C0A20204368656D447261773034323331303035323332440A2031362031372020302020302020302020302020302020302020302020303939392056323030300A20202020312E3336393120202020312E3430323920202020302E303030302043202020302020302020302020302020302020302020302020302020302020302020302020300A20202020312E3738313620202020302E3638383420202020302E30303030204E202020302020302020302020302020302020302020302020302020302020302020302020300A20202020312E333639312020202D302E3032363120202020302E303030302043202020302020302020302020302020302020302020302020302020302020302020302020300A20202020302E353434312020202D302E3032363120202020302E303030302043202020302020302020302020302020302020302020302020302020302020302020302020300A20202020302E3133313620202020302E3638383420202020302E303030302043202020302020302020302020302020302020302020302020302020302020302020302020300A20202020302E3534343120202020312E3430323920202020302E30303030204E202020302020302020302020302020302020302020302020302020302020302020302020300A20202020312E373831362020202D302E3734303520202020302E30303030204F202020302020302020302020302020302020302020302020302020302020302020302020300A2020202D302E3639333420202020302E3638383420202020302E30303030204F202020302020302020302020302020302020302020302020302020302020302020302020300A2020202D302E323331312020202D302E3330383220202020302E303030302043202020302020302020302020302020302020302020302020302020302020302020302020300A2020202D302E333734342020202D312E3132303720202020302E303030302043202020302020302020302020302020302020302020302020302020302020302020302020300A2020202D312E313439362020202D312E3430323920202020302E303030302043202020302020302020302020302020302020302020302020302020302020302020302020300A2020202D312E373831362020202D302E3837323620202020302E303030302043202020302020302020302020302020302020302020302020302020302020302020302020300A2020202D312E363338342020202D302E3036303120202020302E303030302043202020302020302020302020302020302020302020302020302020302020302020302020300A2020202D302E3836333120202020302E3232323120202020302E303030302043202020302020302020302020302020302020302020302020302020302020302020302020300A20202020302E363837342020202D302E3833383520202020302E303030302043202020302020302020302020302020302020302020302020302020302020302020302020300A20202020302E303535342020202D312E3336383820202020302E303030302043202020302020302020302020302020302020302020302020302020302020302020302020300A2020312020322020312020302020202020200A2020322020332020312020302020202020200A2020332020342020312020302020202020200A2020342020352020312020302020202020200A2020352020362020312020302020202020200A2020312020362020312020302020202020200A2020332020372020322020302020202020200A2020352020382020322020302020202020200A2020392031302020312020302020202020200A2031302031312020322020302020202020200A2031312031322020312020302020202020200A2031322031332020322020302020202020200A2031332031342020312020302020202020200A2020392031342020322020302020202020200A2020342020392020312020302020202020200A2031352031362020312020302020202020200A2020342031352020312020302020202020200A4D2020454E44
Contributor: SASAKI S, TOYOHASHI UNIV. OF TECH.
InstType: EI
InstName: Unknown
IoniMethod: EI
IonPolarity: pos
Date: 2010-10-09 19:48:36+02:00
Num Peaks: 131
29 179 30 207 31 6 32 38 34 2 35 17 36 93 37 2 38 49 39 309 
40 33 41 13 42 115 43 48 44 279 45 1 46 3 49 1 50 93 51 26 
52 67 53 46 54 43 55 3 56 33 57 28 58 109 59 0 60 1 61 12 
62 51 63 15 64 47 65 130 66 18 67 1 68 9 69 19 70 10 71 1 
72 3 73 9 74 33 75 4 76 57 77 236 78 129 79 3 80 9 81 8 
82 13 83 1 84 3 85 5 86 13 87 0 88 23 89 159 90 98 91 48 
92 49 93 7 94 3 95 1 96 4 97 7 98 7 99 0 100 3 101 15 
102 73 103 28 104 89 105 39 106 15 107 0 111 2 112 7 113 14 114 2 
115 349 116 299 117 999 118 29 119 124 120 17 125 9 126 0 127 14 128 29 
129 44 130 7 131 79 132 235 133 34 134 1 135 4 140 15 141 9 142 3 
143 60 144 49 145 99 146 55 147 110 148 16 149 7 157 0 158 69 159 10 
160 47 161 10 162 14 163 3 170 3 171 0 172 22 173 52 174 49 175 1 
176 19 189 1 190 80 191 24 192 34 193 3 203 3 210 0 217 3 218 13 
219 4 
