Name: 2-METHYLFURAN
CAS: 534-22-5
MW: 82
Formula: C5H6O
Synonym: MassBank: JP007725
Synonym: 2-METHYLFURAN
Structure: 310A31370A322D4D455448594C465552414E2E6D6F6C0A20204368656D447261773031323231303037353432440A2020362020362020302020302020302020302020302020302020302020303939392056323030300A2020202D302E363637342020202D302E3236323720202020302E30303030204F202020302020302020302020302020302020302020302020302020302020302020302020300A20202020302E3030303020202020302E3232323320202020302E303030302043202020302020302020302020302020302020302020302020302020302020302020302020300A20202020302E363637342020202D302E3236323720202020302E303030302043202020302020302020302020302020302020302020302020302020302020302020302020300A20202020302E343132352020202D312E3034373320202020302E303030302043202020302020302020302020302020302020302020302020302020302020302020302020300A2020202D302E343132352020202D312E3034373320202020302E303030302043202020302020302020302020302020302020302020302020302020302020302020302020300A20202020302E3030303020202020312E3034373320202020302E303030302043202020302020302020302020302020302020302020302020302020302020302020302020300A2020312020322020312020302020202020200A2020322020332020322020302020202020200A2020332020342020312020302020202020200A2020342020352020322020302020202020200A2020312020352020312020302020202020200A2020322020362020312020302020202020200A4D2020454E44
Contributor: HASHIMOTO K, KYOTO COLLEGE OF PHARMACY
InstType: EI
InstName: HITACHI M-80
IoniMethod: _ENERGY 20 eV
IonPolarity: pos
Date: 2010-10-09 19:48:36+02:00
Num Peaks: 17
27 212 28 96 29 19 39 658 40 19 41 10 42 10 43 89 51 386 52 71 
53 763 54 208 55 150 80 14 81 601 82 999 83 45 
