Name: DIMETHYLHYDRAZONE ACETALDEHYDE
MW: 86
Formula: C4H10N2
Synonym: MassBank: JP000826
Synonym: DIMETHYLHYDRAZONE ACETALDEHYDE
Synonym: ACETALDEHYDE DIMETHYLHYDRAZONE
Structure: 310A31360A44494D455448594C48594452415A4F4E452041434554414C4445485944452E6D6F6C0A20204368656D447261773036323431303035333632440A2020362020352020302020302020302020302020302020302020302020303939392056323030300A2020202D302E373134352020202D302E3230363220202020302E303030302043202020302020302020302020302020302020302020302020302020302020302020302020300A2020202D312E343238392020202D302E3631383820202020302E303030302043202020302020302020302020302020302020302020302020302020302020302020302020300A20202020302E303030302020202D302E3631383820202020302E30303030204E202020302020302020302020302020302020302020302020302020302020302020302020300A20202020302E373134352020202D302E3230363220202020302E30303030204E202020302020302020302020302020302020302020302020302020302020302020302020300A20202020302E3731343520202020302E3631383820202020302E303030302043202020302020302020302020302020302020302020302020302020302020302020302020300A20202020312E343238392020202D302E3631383820202020302E303030302043202020302020302020302020302020302020302020302020302020302020302020302020300A2020312020322020312020302020202020200A2020332020342020312020302020202020200A2020342020352020312020302020202020200A2020342020362020312020302020202020200A2020312020332020322020302020202020200A4D2020454E44
Contributor: SASAKI S, TOYOHASHI UNIV. OF TECH.
InstType: EI
InstName: SHIMADZU LKB-2091
IoniMethod: _ENERGY 70 eV
IonPolarity: pos
Date: 2010-10-09 19:48:36+02:00
Num Peaks: 20
27 152 28 326 29 33 30 35 39 26 40 61 41 100 42 78 43 326 44 911 
45 196 55 2 56 94 58 35 71 261 72 1 83 15 85 305 86 999 87 72 
