Name: MassBank: JP008571
MW: 82
Formula: C6H10
Synonym: MassBank: JP008571
Synonym: 2,3-DIMETHYL-1,3-BUTADIENE
Structure: 310A31360A322C332D44494D455448594C2D312C332D425554414449454E452E6D6F6C0A20204368656D447261773132323030393131333432440A2020362020352020302020302020302020302020302020302020302020303939392056323030300A2020202D302E383235302020202D302E3731343520202020302E303030302043202020302020302020302020302020302020302020302020302020302020302020302020300A2020202D302E3431323520202020302E3030303020202020302E303030302043202020302020302020302020302020302020302020302020302020302020302020302020300A20202020302E3431323520202020302E3030303020202020302E303030302043202020302020302020302020302020302020302020302020302020302020302020302020300A20202020302E383235302020202D302E3731343520202020302E303030302043202020302020302020302020302020302020302020302020302020302020302020302020300A20202020302E3832353020202020302E3731343520202020302E303030302043202020302020302020302020302020302020302020302020302020302020302020302020300A2020202D302E3832353020202020302E3731343520202020302E303030302043202020302020302020302020302020302020302020302020302020302020302020302020300A2020312020322020322020302020202020200A2020322020332020312020302020202020200A2020332020342020322020302020202020200A2020332020352020312020302020202020200A2020322020362020312020302020202020200A4D2020454E44
Contributor: SODA AROMATIC CO., LTD.
InstType: EI
InstName: HITACHI M-80B
IoniMethod: _ENERGY 70 eV
IonPolarity: pos
Date: 2010-10-09 19:48:36+02:00
Num Peaks: 31
15 46 26 29 27 233 28 21 29 38 37 38 38 116 39 898 40 176 41 717 
42 129 43 34 50 63 51 105 52 46 53 199 54 301 55 51 56 18 61 12 
62 19 63 36 65 137 66 38 67 999 68 47 77 23 79 53 81 110 82 543 
83 31 
