Name: ISOTHIPENDYL
MW: 285
Formula: C16H19N3S
Synonym: MassBank: JP005766
Synonym: ISOTHIPENDYL
Synonym: 10-(2-DIMETHYLAMINO-2-METHYLETHYL)-10H-PYRIDO(3,2-B)(1,4)BENZOTHIAZINE
Structure: 49534F54484950454E44594C2E6D6F6C0A20204368656D447261773131323230393233313832440A2032302032322020302020302020302020302020302020302020302020303939392056323030300A20202020302E3030303020202020322E3036323520202020302E303030302053202020302020302020302020302020302020302020302020302020302020302020302020300A2020202D302E3731343520202020312E3635303020202020302E303030302043202020302020302020302020302020302020302020302020302020302020302020302020300A2020202D302E3731343520202020302E3832353020202020302E303030302043202020302020302020302020302020302020302020302020302020302020302020302020300A20202020302E3030303020202020302E3431323520202020302E30303030204E202020302020302020302020302020302020302020302020302020302020302020302020300A20202020302E3731343520202020302E3832353020202020302E303030302043202020302020302020302020302020302020302020302020302020302020302020302020300A20202020302E3731343520202020312E3635303020202020302E303030302043202020302020302020302020302020302020302020302020302020302020302020302020300A20202020312E3432383920202020302E3431323520202020302E303030302043202020302020302020302020302020302020302020302020302020302020302020302020300A20202020322E3134333420202020302E3832353020202020302E303030302043202020302020302020302020302020302020302020302020302020302020302020302020300A20202020322E3134333420202020312E3635303020202020302E303030302043202020302020302020302020302020302020302020302020302020302020302020302020300A20202020312E3432383920202020322E3036323520202020302E303030302043202020302020302020302020302020302020302020302020302020302020302020302020300A2020202D312E3432383920202020322E3036323520202020302E303030302043202020302020302020302020302020302020302020302020302020302020302020302020300A2020202D322E3134333420202020312E3635303020202020302E303030302043202020302020302020302020302020302020302020302020302020302020302020302020300A2020202D322E3134333420202020302E3832353020202020302E303030302043202020302020302020302020302020302020302020302020302020302020302020302020300A2020202D312E3432383920202020302E3431323520202020302E30303030204E202020302020302020302020302020302020302020302020302020302020302020302020300A20202020302E303030302020202D302E3431323520202020302E303030302043202020302020302020302020302020302020302020302020302020302020302020302020300A20202020302E373134352020202D302E3832353020202020302E303030302043202020302020302020302020302020302020302020302020302020302020302020302020300A20202020312E343238392020202D302E3431323520202020302E303030302043202020302020302020302020302020302020302020302020302020302020302020302020300A20202020302E373134352020202D312E3635303020202020302E30303030204E202020302020302020302020302020302020302020302020302020302020302020302020300A2020202D302E303030302020202D322E3036323520202020302E303030302043202020302020302020302020302020302020302020302020302020302020302020302020300A20202020312E343238392020202D322E3036323520202020302E303030302043202020302020302020302020302020302020302020302020302020302020302020302020300A2020312020322020312020302020202020200A2020322020332020312020302020202020200A2020332020342020312020302020202020200A2020342020352020312020302020202020200A2020352020362020312020302020202020200A2020312020362020312020302020202020200A2020372020382020312020302020202020200A2020382020392020322020302020202020200A2020392031302020312020302020202020200A2020362031302020322020302020202020200A2020352020372020322020302020202020200A2031312031322020312020302020202020200A2031322031332020322020302020202020200A2031332031342020312020302020202020200A2020322031312020322020302020202020200A2020332031342020322020302020202020200A2031352031362020312020302020202020200A2031362031372020312020302020202020200A2031382031392020312020302020202020200A2031382032302020312020302020202020200A2031362031382020312020302020202020200A2020342031352020312020302020202020200A4D2020454E44
Contributor: HAMAMATSU UNIV. SCHOOL OF MEDICINE
InstType: EI
InstName: JEOL JMS-D-300
IoniMethod: _ENERGY 70 eV
IonPolarity: pos
Date: 2010-10-09 19:48:36+02:00
Num Peaks: 13
56 22 57 11 70 22 71 21 72 999 73 47 86 35 168 19 181 14 199 16 
200 55 214 2 285 12 
