Name: LIMONENE
MW: 136
Formula: C10H16
Synonym: MassBank: JP006892
Synonym: LIMONENE
Synonym: P-MENTHA-1,8-DIENE
Structure: 2852292D312D4D455448594C2D342D28312D4D455448594C455448454E594C294359434C4F484558454E452E6D6F6C0A20204368656D447261773130323230393137323432440A2031322031322020302020302020302020302020302020302020302020303939392056323030300A2020202D302E3338313620202020302E3332373120202020302E303030302043202020302020302020302020302020302020302020302020302020302020302020302020300A2020202D302E333831362020202D302E3439373920202020302E303030302043202020302020302020302020302020302020302020302020302020302020302020302020300A20202020302E333332392020202D302E3931303420202020302E303030302043202020302020302020302020302020302020302020302020302020302020302020302020300A20202020312E303437342020202D302E3439373920202020302E303030302043202020302020302020302020302020302020302020302020302020302020302020302020300A20202020312E3034373420202020302E3332373120202020302E303030302043202020302020302020302020302020302020302020302020302020302020302020302020300A20202020302E3333323920202020302E3733393620202020302E303030302043202020302020302020302020302020302020302020302020302020302020302020302020300A20202020312E3736313820202020302E3733393620202020302E303030302048202020302020302020302020302020302020302020302020302020302020302020302020300A2020202D302E3936343920202020302E3931303420202020302E303030302048202020302020302020302020302020302020302020302020302020302020302020302020300A2020202D312E3137383520202020302E3131333520202020302E303030302043202020302020302020302020302020302020302020302020302020302020302020302020300A2020202D312E333932302020202D302E3638333320202020302E303030302043202020302020302020302020302020302020302020302020302020302020302020302020300A2020202D312E3736313820202020302E3639363920202020302E303030302043202020302020302020302020302020302020302020302020302020302020302020302020300A20202020312E373631352020202D302E3931303420202020302E303030302043202020302020302020302020302020302020302020302020302020302020302020302020300A2020312020322020312020302020202020200A2020322020332020312020302020202020200A2020332020342020312020302020202020200A2020342020352020322020302020202020200A2020352020362020312020302020202020200A2020362020312020312020302020202020200A2020352020372020312020302020202020200A2020312020382020312020362020202020200A2020312020392020312020312020202020200A2020392031302020322020302020202020200A2020392031312020312020302020202020200A2020342031322020312020302020202020200A4D202053545920203120202031205355500A4D2020534C4220203120202031202020310A4D202053414C20202031202031202031320A4D202053424C20202031202031202031320A4D2020534D5420202031204D650A4D2020534256202020312031322020202D362E3732383620202020352E343432310A4D2020454E44
Contributor: TAJIMA S, GUNMA COLLEGE OF TECHNOLOGY
InstType: EI
InstName: HITACHI M-80B
IoniMethod: _ENERGY 70 eV
IonPolarity: pos
Date: 2010-10-09 19:48:36+02:00
Num Peaks: 40
27 150 28 29 29 78 38 15 39 265 40 80 41 240 42 32 43 21 50 18 
51 72 52 32 53 241 54 20 55 77 63 19 65 75 66 43 67 446 68 999 
69 77 77 159 78 33 79 275 80 107 81 105 82 17 91 146 92 181 93 584 
94 211 95 72 105 36 106 11 107 165 108 51 121 176 122 15 136 204 137 20 
