Name: 1-ETHYNYLCYCLOHEXANOL
MW: 124
Formula: C8H12O
Synonym: MassBank: JP008566
Synonym: 1-ETHYNYLCYCLOHEXANOL
Structure: 310A32330A312D455448594E594C4359434C4F484558414E4F4C2E6D6F6C0A20204368656D447261773131313830393034303132440A2020392020392020302020302020302020302020302020302020302020303939392056323030300A20202020302E3039383020202020302E3233313120202020302E303030302043202020302020302020302020302020302020302020302020302020302020302020302020300A20202020302E3831323520202020302E3634333620202020302E303030302043202020302020302020302020302020302020302020302020302020302020302020302020300A20202020312E3532363920202020302E3233313120202020302E303030302043202020302020302020302020302020302020302020302020302020302020302020302020300A20202020312E353236392020202D302E3539333920202020302E303030302043202020302020302020302020302020302020302020302020302020302020302020302020300A20202020302E383132352020202D312E3030363420202020302E303030302043202020302020302020302020302020302020302020302020302020302020302020302020300A20202020302E303938302020202D302E3539333920202020302E303030302043202020302020302020302020302020302020302020302020302020302020302020302020300A2020202D302E3731343520202020302E3038373920202020302E303030302043202020302020302020302020302020302020302020302020302020302020302020302020300A2020202D312E353236392020202D302E3035353420202020302E303030302043202020302020302020302020302020302020302020302020302020302020302020302020300A2020202D302E3138343220202020312E3030363420202020302E30303030204F202020302020302020302020302020302020302020302020302020302020302020302020300A2020312020322020312020302020202020200A2020322020332020312020302020202020200A2020332020342020312020302020202020200A2020342020352020312020302020202020200A2020352020362020312020302020202020200A2020312020362020312020302020202020200A2020372020382020332020302020202020200A2020312020372020312020302020202020200A2020312020392020312020302020202020200A4D2020454E44
Contributor: SODA AROMATIC CO., LTD.
InstType: EI
InstName: HITACHI M-80B
IoniMethod: _ENERGY 70 eV
IonPolarity: pos
Date: 2010-10-09 19:48:36+02:00
Num Peaks: 48
15 21 26 39 27 283 28 97 29 116 31 22 32 16 37 12 38 36 39 450 
40 124 41 291 42 79 43 108 50 56 51 122 52 36 53 404 54 70 55 261 
56 35 57 23 62 18 63 36 64 18 65 48 66 43 67 203 68 821 69 105 
70 27 77 62 78 37 79 52 80 25 81 999 82 153 83 43 91 61 93 16 
94 12 95 689 96 360 97 40 105 15 109 219 110 18 123 77 
