Name: CYCRIMINE
MW: 287
Formula: C19H29NO
Synonym: MassBank: JP003073
Synonym: CYCRIMINE
Structure: 43594352494D494E452E6D6F6C0A20204368656D447261773039323031303039313832440A2032312032332020302020302020302020302020302020302020302020303939392056323030300A20202020302E3737363120202020302E3336393520202020302E303030302043202020302020302020302020302020302020302020302020302020302020302020302020300A20202020302E303631362020202D302E3034333020202020302E303030302043202020302020302020302020302020302020302020302020302020302020302020302020300A2020202D302E3635323920202020302E3336393520202020302E303030302043202020302020302020302020302020302020302020302020302020302020302020302020300A20202020302E3336333620202020312E3038333920202020302E30303030204F202020302020302020302020302020302020302020302020302020302020302020302020300A2020202D312E333637332020202D302E3034333020202020302E30303030204E202020302020302020302020302020302020302020302020302020302020302020302020300A2020202D312E333637332020202D302E3836383020202020302E303030302043202020302020302020302020302020302020302020302020302020302020302020302020300A2020202D322E303831382020202D312E3238303520202020302E303030302043202020302020302020302020302020302020302020302020302020302020302020302020300A2020202D322E373936332020202D302E3836383020202020302E303030302043202020302020302020302020302020302020302020302020302020302020302020302020300A2020202D322E373936332020202D302E3034333020202020302E303030302043202020302020302020302020302020302020302020302020302020302020302020302020300A2020202D322E3038313820202020302E3336393520202020302E303030302043202020302020302020302020302020302020302020302020302020302020302020302020300A20202020312E3439303620202020302E3738323020202020302E303030302043202020302020302020302020302020302020302020302020302020302020302020302020300A20202020312E3537363820202020312E3630323420202020302E303030302043202020302020302020302020302020302020302020302020302020302020302020302020300A20202020322E3338333820202020312E3737343020202020302E303030302043202020302020302020302020302020302020302020302020302020302020302020302020300A20202020322E3739363320202020312E3035393520202020302E303030302043202020302020302020302020302020302020302020302020302020302020302020302020300A20202020322E3234343220202020302E3434363420202020302E303030302043202020302020302020302020302020302020302020302020302020302020302020302020300A20202020312E313838362020202D302E3334353020202020302E303030302043202020302020302020302020302020302020302020302020302020302020302020302020300A20202020322E303133362020202D302E3334353020202020302E303030302043202020302020302020302020302020302020302020302020302020302020302020302020300A20202020322E343236312020202D312E3035393520202020302E303030302043202020302020302020302020302020302020302020302020302020302020302020302020300A20202020322E303133362020202D312E3737343020202020302E303030302043202020302020302020302020302020302020302020302020302020302020302020302020300A20202020312E313838362020202D312E3737343020202020302E303030302043202020302020302020302020302020302020302020302020302020302020302020302020300A20202020302E373736312020202D312E3035393520202020302E303030302043202020302020302020302020302020302020302020302020302020302020302020302020300A2020312020322020312020302020202020200A2020322020332020312020302020202020200A2020312020342020312020302020202020200A2020352020362020312020302020202020200A2020362020372020312020302020202020200A2020372020382020312020302020202020200A2020382020392020312020302020202020200A2020392031302020312020302020202020200A2020352031302020312020302020202020200A2020332020352020312020302020202020200A2031312031322020312020302020202020200A2031322031332020312020302020202020200A2031332031342020312020302020202020200A2031342031352020312020302020202020200A2031312031352020312020302020202020200A2020312031312020312020302020202020200A2031362031372020312020302020202020200A2031372031382020322020302020202020200A2031382031392020312020302020202020200A2031392032302020322020302020202020200A2032302032312020312020302020202020200A2031362032312020322020302020202020200A2020312031362020312020302020202020200A4D2020454E44
Contributor: SASAKI S, TOYOHASHI UNIV. OF TECH.
InstType: EI
InstName: Unknown
IoniMethod: EI
IonPolarity: pos
Date: 2010-10-09 19:48:36+02:00
Num Peaks: 47
65 9 66 4 67 19 68 1 69 24 70 19 71 4 77 2 78 9 79 24 
80 4 81 1 82 9 83 19 84 29 85 5 86 9 90 4 91 19 92 1 
95 4 96 24 97 19 98 999 99 79 100 9 104 9 105 1 106 19 107 4 
108 9 128 1 129 19 130 9 131 34 132 0 133 4 217 4 218 69 219 3 
220 9 221 4 269 14 270 1 271 1 286 4 287 9 
