Name: ENDO-NORBORNEOL
MW: 112
Formula: C7H12O
Synonym: MassBank: JP000554
Synonym: ENDO-NORBORNEOL
Synonym: NORBORNEOL
Structure: 310A32320A303134365F454E444F2D4E4F52424F524E454F4C2E6D6F6C0A20204368656D447261773039303331303138313932440A2020382020392020302020302020302020302020302020302020302020303939392056323030300A20202020302E3431323520202020302E3030303020202020302E303030302043202020302020302020302020302020302020302020302020302020302020302020302020300A20202020312E3233373520202020302E3030303020202020302E30303030204F202020302020302020302020302020302020302020302020302020302020302020302020300A2020202D302E3030303020202020302E3731343520202020302E303030302043202020302020302020302020302020302020302020302020302020302020302020302020300A2020202D302E3832353020202020302E3731343520202020302E303030302043202020302020302020302020302020302020302020302020302020302020302020302020300A2020202D312E3233373520202020302E3030303020202020302E303030302043202020302020302020302020302020302020302020302020302020302020302020302020300A2020202D302E383235302020202D302E3731343520202020302E303030302043202020302020302020302020302020302020302020302020302020302020302020302020300A2020202D302E303030302020202D302E3731343520202020302E303030302043202020302020302020302020302020302020302020302020302020302020302020302020300A2020202D302E323537312020202D302E3036393420202020302E303030302043202020302020302020302020302020302020302020302020302020302020302020302020300A2020312020322020312020362020202020200A2020312020332020312020302020202020200A2020332020342020312020302020202020200A2020342020352020312020302020202020200A2020352020362020312020302020202020200A2020362020372020312020302020202020200A2020372020312020312020302020202020200A2020332020382020312020312020202020200A2020362020382020312020312020202020200A4D2020454E44
Contributor: HASHIMOTO K, KYOTO COLLEGE OF PHARMACY
InstType: EI
InstName: HITACHI M-80
IoniMethod: _ENERGY 20 eV
IonPolarity: pos
Date: 2010-10-09 19:48:36+02:00
Num Peaks: 34
39 11 40 64 41 23 42 47 43 25 44 34 52 40 53 22 54 89 55 60 
56 148 58 25 65 10 66 453 67 421 68 446 69 56 70 95 71 43 77 23 
78 10 79 577 80 50 81 98 82 12 83 136 84 41 91 10 93 47 94 999 
95 83 97 54 111 11 112 28 
