Name: MassBank: JP006687
MW: 328
Formula: C15H20O8
Synonym: MassBank: JP006687
Synonym: 9-ACETOXY-4,4-ETHYLENEDIOXY-1-METHOXYCARBONYL-9-METHYL-7-OXABICYCLO(4.3.0)NONAN-8-ONE
Structure: 392D414345544F58592D342C342D455448594C454E4544494F58592D312D4D4554484F5859434152424F4E594C2D392D4D455448594C2D372D4F584142494359434C4F28342E332E30294E4F4E414E2D382D4F4E452E6D6F6C0A20204368656D447261773036323131303230343432440A2032332032352020302020302020302020302020302020302020302020303939392056323030300A20202020302E3033373320202020302E3132313620202020302E303030302043202020302020302020302020302020302020302020302020302020302020302020302020300A20202020302E343439382020202D302E3539323820202020302E303030302043202020302020302020302020302020302020302020302020302020302020302020302020300A20202020312E323734382020202D302E3539323820202020302E303030302043202020302020302020302020302020302020302020302020302020302020302020302020300A20202020312E3638373320202020302E3132313620202020302E303030302043202020302020302020302020302020302020302020302020302020302020302020302020300A20202020312E3237343920202020302E3833363220202020302E303030302043202020302020302020302020302020302020302020302020302020302020302020302020300A20202020302E3434393820202020302E3833363120202020302E303030302043202020302020302020302020302020302020302020302020302020302020302020302020300A2020202D302E3130313820202020312E3434393020202020302E30303030204F202020302020302020302020302020302020302020302020302020302020302020302020300A2020202D302E3835353820202020312E3131333820202020302E303030302043202020302020302020302020302020302020302020302020302020302020302020302020300A2020202D302E3736393720202020302E3239333220202020302E303030302043202020302020302020302020302020302020302020302020302020302020302020302020300A2020202D312E3537303320202020312E3532363320202020302E30303030204F202020302020302020302020302020302020302020302020302020302020302020302020300A2020202D312E303635342020202D302E3437373020202020302E303030302043202020302020302020302020302020302020302020302020302020302020302020302020300A2020202D302E343333302020202D302E3834323320202020302E303030302043202020302020302020302020302020302020302020302020302020302020302020302020300A2020202D312E323536302020202D302E3839393720202020302E30303030204F202020302020302020302020302020302020302020302020302020302020302020302020300A20202020302E303238322020202D312E3532363320202020302E30303030204F202020302020302020302020302020302020302020302020302020302020302020302020300A20202020302E383531322020202D312E3436383820202020302E303030302043202020302020302020302020302020302020302020302020302020302020302020302020300A20202020322E393536382020202D302E3239303920202020302E303030302043202020302020302020302020302020302020302020302020302020302020302020302020300A20202020322E3935363820202020302E3533343120202020302E303030302043202020302020302020302020302020302020302020302020302020302020302020302020300A20202020322E313732392020202D302E3534353920202020302E30303030204F202020302020302020302020302020302020302020302020302020302020302020302020300A20202020322E3137323920202020302E3738383720202020302E30303030204F202020302020302020302020302020302020302020302020302020302020302020302020300A2020202D312E3536363520202020302E3530363820202020302E30303030204F202020302020302020302020302020302020302020302020302020302020302020302020300A2020202D322E3234323420202020302E3033333820202020302E303030302043202020302020302020302020302020302020302020302020302020302020302020302020300A2020202D322E333134342020202D302E3738383120202020302E30303030204F202020302020302020302020302020302020302020302020302020302020302020302020300A2020202D322E3935363820202020302E3434363320202020302E303030302043202020302020302020302020302020302020302020302020302020302020302020302020300A2020312020322020312020302020202020200A2020322020332020312020302020202020200A2020332020342020312020302020202020200A2020342020352020312020302020202020200A2020352020362020312020302020202020200A2020362020372020312020302020202020200A2020372020382020312020302020202020200A2020382020392020312020302020202020200A2020312020392020312020302020202020200A2020312020362020312020302020202020200A2020382031302020322020302020202020200A2020392031312020312020302020202020200A2031322031332020322020302020202020200A2031342031352020312020302020202020200A2031322031342020312020302020202020200A2020312031322020312020302020202020200A2031362031372020312020302020202020200A2031362031382020312020302020202020200A2031372031392020312020302020202020200A2020342031382020312020302020202020200A2020342031392020312020302020202020200A2032312032322020322020302020202020200A2032312032332020312020302020202020200A2032302032312020312020302020202020200A2020392032302020312020302020202020200A4D2020454E44
Contributor: MASS SPECTROSCOPY SOC. OF JAPAN (MSSJ)
InstType: EI
InstName: HITACHI RMU-6L
IoniMethod: _ENERGY 70 eV
IonPolarity: pos
Date: 2010-10-09 19:48:36+02:00
Num Peaks: 101
41 151 42 108 43 552 44 5 45 65 51 26 53 68 54 3 55 144 56 131 
57 131 59 4 60 52 61 29 65 40 66 3 67 63 68 33 69 71 70 8 
71 89 73 47 77 45 78 3 79 45 81 47 82 31 83 5 84 39 85 51 
86 444 87 33 88 35 89 46 91 37 93 3 95 48 96 28 97 47 98 3 
99 999 100 125 101 32 105 3 107 25 109 35 111 29 112 3 113 110 114 68 
115 190 116 3 121 32 124 30 126 28 127 3 129 47 137 36 138 27 139 5 
140 27 141 26 144 96 145 3 148 29 149 40 153 37 154 9 155 123 156 27 
165 73 166 3 167 55 168 31 179 29 181 4 183 59 186 39 193 29 197 9 
195 34 199 89 204 26 209 40 210 78 211 37 214 60 224 4 225 45 239 74 
241 52 242 3 253 50 255 37 268 129 269 8 270 26 297 25 298 22 328 4 
329 21 
