Name: DIMETHYLHYDRAZONE PROPIONALDEHYDE
MW: 100
Formula: C5H12N2
Synonym: MassBank: JP000827
Synonym: DIMETHYLHYDRAZONE PROPIONALDEHYDE
Synonym: PROPIONALDEHYDE DIMETHYLHYDRAZONE
Structure: 310A31380A303730335F44494D455448594C48594452415A4F4E452050524F50494F4E414C4445485944452E6D6F6C0A20204368656D447261773038323031303039323932440A2020372020362020302020302020302020302020302020302020302020303939392056323030300A2020202D302E3230363220202020312E3432383920202020302E303030302043202020302020302020302020302020302020302020302020302020302020302020302020300A20202020302E3230363220202020302E3731343520202020302E303030302043202020302020302020302020302020302020302020302020302020302020302020302020300A2020202D312E3033313320202020312E3432383920202020302E303030302043202020302020302020302020302020302020302020302020302020302020302020302020300A2020202D302E3230363220202020302E3030303020202020302E30303030204E202020302020302020302020302020302020302020302020302020302020302020302020300A20202020302E323036322020202D302E3731343520202020302E30303030204E202020302020302020302020302020302020302020302020302020302020302020302020300A20202020312E303331332020202D302E3731343520202020302E303030302043202020302020302020302020302020302020302020302020302020302020302020302020300A2020202D302E323036322020202D312E3432383920202020302E303030302043202020302020302020302020302020302020302020302020302020302020302020302020300A2020312020322020312020302020202020200A2020312020332020312020302020202020200A2020342020352020312020302020202020200A2020352020362020312020302020202020200A2020352020372020312020302020202020200A2020322020342020322020302020202020200A4D2020454E44
Contributor: SASAKI S, TOYOHASHI UNIV. OF TECH.
InstType: EI
InstName: SHIMADZU LKB-2091
IoniMethod: _ENERGY 70 eV
IonPolarity: pos
Date: 2010-10-09 19:48:36+02:00
Num Peaks: 25
27 158 28 267 29 111 30 9 39 69 40 33 41 106 42 45 43 661 44 999 
45 491 46 3 54 26 55 24 56 103 57 4 58 157 59 28 71 59 72 2 
85 346 86 22 99 90 100 72 101 64 
