Name: MassBank: JP000797
MW: 212
Formula: C12H12N4
Synonym: MassBank: JP000797
Synonym: 2-AMINO-3,4-DIMETHYLIMIDAZO(4,5-F)QUINOLINE
Synonym: ME-IQ
Structure: 322D414D494E4F2D332C342D44494D455448594C494D4944415A4F28342C352D46295155494E4F4C494E452E6D6F6C0A20204368656D447261773132323130393232313332440A2031362031382020302020302020302020302020302020302020302020303939392056323030300A2020202D312E383335312020202D302E3030303020202020302E30303030204E202020302020302020302020302020302020302020302020302020302020302020302020300A2020202D322E3234373620202020302E3731343520202020302E303030302043202020302020302020302020302020302020302020302020302020302020302020302020300A2020202D312E3833353120202020312E3432383920202020302E303030302043202020302020302020302020302020302020302020302020302020302020302020302020300A2020202D312E3031303120202020312E3432383920202020302E303030302043202020302020302020302020302020302020302020302020302020302020302020302020300A2020202D302E3539373620202020302E3731343520202020302E303030302043202020302020302020302020302020302020302020302020302020302020302020302020300A20202020302E3232373420202020302E3731343520202020302E303030302043202020302020302020302020302020302020302020302020302020302020302020302020300A20202020302E363339392020202D302E3030303020202020302E303030302043202020302020302020302020302020302020302020302020302020302020302020302020300A20202020302E323237342020202D302E3731343520202020302E303030302043202020302020302020302020302020302020302020302020302020302020302020302020300A2020202D302E353937362020202D302E3731343520202020302E303030302043202020302020302020302020302020302020302020302020302020302020302020302020300A2020202D312E3031303120202020302E3030303020202020302E303030302043202020302020302020302020302020302020302020302020302020302020302020302020300A20202020312E3533333120202020302E3939323020202020302E303030302043202020302020302020302020302020302020302020302020302020302020302020302020300A20202020302E3737393420202020312E3332373620202020302E30303030204E202020302020302020302020302020302020302020302020302020302020302020302020300A20202020312E3434363920202020302E3137313520202020302E30303030204E202020302020302020302020302020302020302020302020302020302020302020302020300A20202020302E363339392020202D312E3432383920202020302E303030302043202020302020302020302020302020302020302020302020302020302020302020302020300A20202020322E303630302020202D302E3338303520202020302E303030302043202020302020302020302020302020302020302020302020302020302020302020302020300A20202020322E3234373620202020312E3430343520202020302E30303030204E202020302020302020302020302020302020302020302020302020302020302020302020300A2020312020322020322020302020202020200A2020322020332020312020302020202020200A2020332020342020322020302020202020200A2020342020352020312020302020202020200A2020352020362020312020302020202020200A2020362020372020322020302020202020200A2020372020382020312020302020202020200A2020382020392020322020302020202020200A2020392031302020312020302020202020200A2020312031302020312020302020202020200A2020352031302020322020302020202020200A2031312031322020322020302020202020200A2031312031332020312020302020202020200A2020362031322020312020302020202020200A2020372031332020312020302020202020200A2020382031342020312020302020202020200A2031332031352020312020302020202020200A2031312031362020312020302020202020200A4D2020454E44
Contributor: MASS SPECTROSCOPY SOC. OF JAPAN (MSSJ)
InstType: EI
InstName: VARIAN MAT-44S
IoniMethod: _ENERGY 75 eV
IonPolarity: pos
Date: 2010-10-09 19:48:36+02:00
Num Peaks: 107
40 101 41 83 42 177 43 208 44 33 45 11 49 11 50 114 51 163 52 110 
53 59 54 26 55 39 56 19 57 34 58 11 59 10 61 31 62 93 63 167 
64 97 65 70 66 60 67 27 68 11 69 11 70 10 71 21 72 13 73 20 
74 56 75 111 76 123 77 103 78 73 79 40 80 20 81 14 84 10 85 24 
86 31 87 51 88 69 89 86 90 53 91 34 92 37 93 34 98 21 99 33 
100 36 101 64 102 59 103 54 104 31 105 21 106 71 111 11 112 10 113 27 
114 67 115 97 116 126 117 59 118 17 126 17 127 46 128 66 129 57 130 39 
131 14 139 11 140 47 141 80 142 184 143 138 144 29 145 17 153 29 154 26 
155 79 156 41 157 30 158 13 166 11 167 31 168 51 169 73 170 156 171 31 
180 19 181 0 182 31 183 40 184 131 185 26 194 50 195 31 196 50 197 380 
198 61 209 11 210 30 211 362 212 999 213 157 214 17 
