Name: 3-METHYLCYCLOHEXANONE
MW: 112
Formula: C7H12O
Synonym: MassBank: JP006952
Synonym: 3-METHYLCYCLOHEXANONE
Structure: 310A32310A332D4D455448594C4359434C4F484558414E4F4E452E6D6F6C0A20204368656D447261773033323031303135333032440A2020382020382020302020302020302020302020302020302020302020303939392056323030300A20202020302E373134352020202D302E3431323520202020302E303030302043202020302020302020302020302020302020302020302020302020302020302020302020300A2020202D302E303030302020202D302E3832353020202020302E303030302043202020302020302020302020302020302020302020302020302020302020302020302020300A2020202D302E373134352020202D302E3431323520202020302E303030302043202020302020302020302020302020302020302020302020302020302020302020302020300A2020202D302E3731343520202020302E3431323520202020302E303030302043202020302020302020302020302020302020302020302020302020302020302020302020300A20202020302E3030303020202020302E3832353020202020302E303030302043202020302020302020302020302020302020302020302020302020302020302020302020300A20202020302E3731343520202020302E3431323520202020302E303030302043202020302020302020302020302020302020302020302020302020302020302020302020300A2020202D312E343238392020202D302E3832353020202020302E303030302043202020302020302020302020302020302020302020302020302020302020302020302020300A20202020312E343238392020202D302E3832353020202020302E30303030204F202020302020302020302020302020302020302020302020302020302020302020302020300A2020312020322020312020302020202020200A2020322020332020312020302020202020200A2020332020342020312020302020202020200A2020342020352020312020302020202020200A2020352020362020312020302020202020200A2020312020362020312020302020202020200A2020332020372020312020302020202020200A2020312020382020322020302020202020200A4D2020454E44
Contributor: TAJIMA S, GUNMA COLLEGE OF TECHNOLOGY
InstType: EI
InstName: HITACHI M-80B
IoniMethod: _ENERGY 70 eV
IonPolarity: pos
Date: 2010-10-09 19:48:36+02:00
Num Peaks: 31
15 37 26 27 27 236 28 38 29 91 38 27 39 357 40 64 41 519 42 398 
43 72 50 16 51 24 52 12 53 50 54 21 55 346 56 492 57 33 65 10 
67 27 68 72 69 999 70 81 79 28 83 25 84 34 94 36 97 124 112 290 
113 20 
