Name: MassBank: JP006644
MW: 321
Formula: C21H23NO2
Synonym: MassBank: JP006644
Synonym: 3,6-DIACETYL-9-ISOPENTYLCARBAZOLE
Structure: 332C362D444941434554594C2D392D49534F50454E54594C43415242415A4F4C452E6D6F6C0A20204368656D447261773032323231303031353232440A2032342032362020302020302020302020302020302020302020302020303939392056323030300A2020202D302E363635322020202D302E3432333820202020302E30303030204E202020302020302020302020302020302020302020302020302020302020302020302020300A2020202D312E3135303120202020302E3234333620202020302E303030302043202020302020302020302020302020302020302020302020302020302020302020302020300A2020202D312E3937303620202020302E3332393820202020302E303030302043202020302020302020302020302020302020302020302020302020302020302020302020300A2020202D322E3330363220202020312E3038333520202020302E303030302043202020302020302020302020302020302020302020302020302020302020302020302020300A2020202D312E3832313320202020312E3735313020202020302E303030302043202020302020302020302020302020302020302020302020302020302020302020302020300A2020202D312E3030303820202020312E3636343720202020302E303030302043202020302020302020302020302020302020302020302020302020302020302020302020300A2020202D302E3636353220202020302E3931313020202020302E303030302043202020302020302020302020302020302020302020302020302020302020302020302020300A20202020302E3131393420202020302E3635363120202020302E303030302043202020302020302020302020302020302020302020302020302020302020302020302020300A20202020302E3833333920202020312E3036383620202020302E303030302043202020302020302020302020302020302020302020302020302020302020302020302020300A20202020312E3534383420202020302E3635363120202020302E303030302043202020302020302020302020302020302020302020302020302020302020302020302020300A20202020312E353438342020202D302E3136383920202020302E303030302043202020302020302020302020302020302020302020302020302020302020302020302020300A20202020302E383333392020202D302E3538313420202020302E303030302043202020302020302020302020302020302020302020302020302020302020302020302020300A20202020302E313139342020202D302E3136383920202020302E303030302043202020302020302020302020302020302020302020302020302020302020302020302020300A2020202D302E393230322020202D312E3230383520202020302E303030302043202020302020302020302020302020302020302020302020302020302020302020302020300A2020202D302E333336382020202D312E3739313820202020302E303030302043202020302020302020302020302020302020302020302020302020302020302020302020300A2020202D302E353530332020202D322E3538383720202020302E303030302043202020302020302020302020302020302020302020302020302020302020302020302020300A20202020302E303333302020202D332E3137323120202020302E303030302043202020302020302020302020302020302020302020302020302020302020302020302020300A2020202D312E333437322020202D322E3830323220202020302E303030302043202020302020302020302020302020302020302020302020302020302020302020302020300A20202020322E3236323820202020312E3036383620202020302E303030302043202020302020302020302020302020302020302020302020302020302020302020302020300A20202020322E3236323820202020312E3839333620202020302E30303030204F202020302020302020302020302020302020302020302020302020302020302020302020300A20202020322E3937373320202020302E3635363120202020302E303030302043202020302020302020302020302020302020302020302020302020302020302020302020300A2020202D322E3135363820202020322E3530343620202020302E303030302043202020302020302020302020302020302020302020302020302020302020302020302020300A2020202D322E3937373320202020322E3539303920202020302E30303030204F202020302020302020302020302020302020302020302020302020302020302020302020300A2020202D312E3637313920202020332E3137323120202020302E303030302043202020302020302020302020302020302020302020302020302020302020302020302020300A2020312020322020312020302020202020200A2020322020332020312020302020202020200A2020332020342020322020302020202020200A2020342020352020312020302020202020200A2020352020362020322020302020202020200A2020362020372020312020302020202020200A2020322020372020322020302020202020200A2020372020382020312020302020202020200A2020382020392020312020302020202020200A2020392031302020322020302020202020200A2031302031312020312020302020202020200A2031312031322020322020302020202020200A2031322031332020312020302020202020200A2020382031332020322020302020202020200A2020312031332020312020302020202020200A2031342031352020312020302020202020200A2031352031362020312020302020202020200A2031362031372020312020302020202020200A2031362031382020312020302020202020200A2020312031342020312020302020202020200A2031392032302020322020302020202020200A2031392032312020312020302020202020200A2031302031392020312020302020202020200A2032322032332020322020302020202020200A2032322032342020312020302020202020200A2020352032322020312020302020202020200A4D2020454E44
Contributor: SASAKI S, TOYOHASHI UNIV. OF TECH.
InstType: EI
InstName: MX-1303
IoniMethod: _ENERGY 50 eV
IonPolarity: pos
Date: 2010-10-09 19:48:36+02:00
Num Peaks: 21
41 33 43 179 45 10 55 1 146 34 164 17 165 10 178 6 179 26 192 16 
193 39 220 2 221 240 222 58 236 21 264 999 265 185 306 636 307 120 321 80 
322 149 
