Name: 2-METHOXY-4-FORMYL-5-METHYLPHENOL
MW: 166
Formula: C9H10O3
Synonym: MassBank: JP008293
Synonym: 2-METHOXY-4-FORMYL-5-METHYLPHENOL
Synonym: 4-HYDROXY-5-METHOXY-2-METHYLBENZALDHYDE
Structure: 322D4D4554484F58592D342D464F524D594C2D352D4D455448594C5048454E4F4C2E6D6F6C0A20204368656D447261773031323231303032303732440A2031322031322020302020302020302020302020302020302020302020303939392056323030300A2020202D302E323036322020202D302E3731343520202020302E303030302043202020302020302020302020302020302020302020302020302020302020302020302020300A2020202D302E3631383720202020302E3030303020202020302E303030302043202020302020302020302020302020302020302020302020302020302020302020302020300A2020202D302E3230363220202020302E3731343520202020302E303030302043202020302020302020302020302020302020302020302020302020302020302020302020300A20202020302E3631383820202020302E3731343520202020302E303030302043202020302020302020302020302020302020302020302020302020302020302020302020300A20202020312E303331332020202D302E3030303020202020302E303030302043202020302020302020302020302020302020302020302020302020302020302020302020300A20202020302E363138382020202D302E3731343520202020302E303030302043202020302020302020302020302020302020302020302020302020302020302020302020300A20202020312E383536332020202D302E3030303020202020302E303030302043202020302020302020302020302020302020302020302020302020302020302020302020300A20202020312E3033313320202020312E3432383920202020302E303030302043202020302020302020302020302020302020302020302020302020302020302020302020300A20202020312E3835363320202020312E3432383920202020302E30303030204F202020302020302020302020302020302020302020302020302020302020302020302020300A2020202D312E3434333720202020302E3030303020202020302E30303030204F202020302020302020302020302020302020302020302020302020302020302020302020300A2020202D312E3835363320202020302E3731343520202020302E303030302043202020302020302020302020302020302020302020302020302020302020302020302020300A2020202D302E363138372020202D312E3432383920202020302E30303030204F202020302020302020302020302020302020302020302020302020302020302020302020300A2020312020322020312020302020202020200A2020322020332020322020302020202020200A2020332020342020312020302020202020200A2020342020352020322020302020202020200A2020352020362020312020302020202020200A2020312020362020322020302020202020200A2020352020372020312020302020202020200A2020382020392020322020302020202020200A2020342020382020312020302020202020200A2031302031312020312020302020202020200A2020322031302020312020302020202020200A2020312031322020312020302020202020200A4D2020454E44
Contributor: UBE SCIENTIFIC ANALYSIS LABORATORY
InstType: EI
InstName: HITACHI M-60
IoniMethod: _ENERGY 70 eV
IonPolarity: pos
Date: 2010-10-09 19:48:36+02:00
Num Peaks: 97
14 5 15 35 17 1 26 7 27 53 28 8 29 43 31 9 32 1 37 11 
38 31 39 176 40 42 41 82 42 7 43 30 44 3 45 2 46 1 47 5 
48 3 49 4 50 45 51 100 52 33 53 87 54 8 55 105 56 4 57 3 
61 10 62 30 63 42 64 15 65 80 66 93 67 92 68 9 69 11 73 14 
74 10 75 12 76 9 77 103 78 26 79 33 80 5 81 12 82 4 83 39 
84 6 85 3 86 2 87 1 89 4 90 3 91 16 92 5 93 30 94 80 
95 128 96 9 100 19 105 12 106 13 107 14 108 7 109 23 110 2 114 36 
117 1 119 3 120 2 121 12 122 102 123 215 124 18 125 2 133 3 134 6 
135 11 136 13 137 326 138 31 139 4 141 1 149 4 150 18 151 146 152 13 
153 1 163 3 164 48 165 772 166 999 167 91 168 12 
