Name: MassBank: JP003401
MW: 102
Formula: C4H6O3
Synonym: MassBank: JP003401
Synonym: 4-METHYL-1,3-DIOXOLANE-2-ONE
Synonym: PROPYLENE CARBONATE
Structure: 310A31390A342D4D455448594C2D312C332D44494F584F4C414E452D322D4F4E452E6D6F6C0A20204368656D447261773034323131303030353132440A2020372020372020302020302020302020302020302020302020302020303939392056323030300A20202020302E3731333620202020302E3532373520202020302E30303030204F202020302020302020302020302020302020302020302020302020302020302020302020300A20202020302E373133362020202D302E3239373520202020302E303030302043202020302020302020302020302020302020302020302020302020302020302020302020300A2020202D302E303731312020202D302E3535323420202020302E30303030204F202020302020302020302020302020302020302020302020302020302020302020302020300A2020202D302E3535363020202020302E3131353020202020302E303030302043202020302020302020302020302020302020302020302020302020302020302020302020300A2020202D302E3037313120202020302E3738323420202020302E303030302043202020302020302020302020302020302020302020302020302020302020302020302020300A20202020312E333831302020202D302E3738323420202020302E30303030204F202020302020302020302020302020302020302020302020302020302020302020302020300A2020202D312E3338313020202020302E3131353020202020302E303030302043202020302020302020302020302020302020302020302020302020302020302020302020300A2020312020322020312020302020202020200A2020322020332020312020302020202020200A2020332020342020312020302020202020200A2020342020352020312020302020202020200A2020312020352020312020302020202020200A2020322020362020322020302020202020200A2020342020372020312020302020202020200A4D2020454E44
Contributor: KOGA M, UNIV. OF OCCUPATIONAL AND ENVIRONMENTAL HEALTH
InstType: EI
InstName: JEOL JMS-01-SG-2
IoniMethod: _ENERGY 75 eV
IonPolarity: pos
Date: 2010-10-09 19:48:36+02:00
Num Peaks: 9
43 939 44 69 45 35 56 999 57 92 58 74 87 96 102 7 103 119 
