Name: 3-HYDROXYBENZALDEHYDE
MW: 122
Formula: C7H6O2
Synonym: MassBank: JP009573
Synonym: 3-HYDROXYBENZALDEHYDE
Structure: 310A32330A332D485944524F585942454E5A414C4445485944452E6D6F6C0A20204368656D447261773032323231303231333632440A2020392020392020302020302020302020302020302020302020302020303939392056323030300A20202020302E3832353020202020312E3037313720202020302E303030302043202020302020302020302020302020302020302020302020302020302020302020302020300A20202020302E3431323520202020302E3335373220202020302E303030302043202020302020302020302020302020302020302020302020302020302020302020302020300A20202020302E383235302020202D302E3335373220202020302E303030302043202020302020302020302020302020302020302020302020302020302020302020302020300A20202020302E343132352020202D312E3037313720202020302E303030302043202020302020302020302020302020302020302020302020302020302020302020302020300A2020202D302E343132352020202D312E3037313720202020302E303030302043202020302020302020302020302020302020302020302020302020302020302020302020300A2020202D302E383235302020202D302E3335373220202020302E303030302043202020302020302020302020302020302020302020302020302020302020302020302020300A2020202D302E3431323520202020302E3335373220202020302E303030302043202020302020302020302020302020302020302020302020302020302020302020302020300A20202020302E3431323520202020312E3738363220202020302E30303030204F202020302020302020302020302020302020302020302020302020302020302020302020300A20202020302E383235302020202D312E3738363220202020302E30303030204F202020302020302020302020302020302020302020302020302020302020302020302020300A2020312020322020312020302020202020200A2020322020332020312020302020202020200A2020332020342020322020302020202020200A2020342020352020312020302020202020200A2020352020362020322020302020202020200A2020362020372020312020302020202020200A2020322020372020322020302020202020200A2020312020382020322020302020202020200A2020342020392020312020302020202020200A4D2020454E44
Contributor: HAMAMATSU UNIV. SCHOOL OF MEDICINE
InstType: EI
InstName: JEOL JMS-AX-505-H
IoniMethod: _ENERGY 70 eV
IonPolarity: pos
Date: 2010-10-09 19:48:36+02:00
Num Peaks: 38
26 14 27 26 28 281 29 63 31 25 32 73 37 46 38 107 39 374 40 58 
41 13 43 13 49 14 50 69 51 57 53 70 55 41 57 10 61 43 62 72 
63 146 64 66 65 469 66 128 67 13 69 40 73 12 74 38 75 25 76 17 
77 14 92 27 93 522 94 105 119 12 121 899 122 999 123 84 
