Name: MassBank: JP002082
MW: 734
Formula: C35H58O16
Synonym: MassBank: JP002082
Synonym: 2-(3,4-DIMETHOXYPHENYL)ETHYL 2,3,5-TRI-O-METHYL-BETA-(D)-APIOFURANOSYL(1.RAR.6)-2,3,4-TRI-O-METHYL-ALPHA-(L)-RHAMNOPYRANOSYL(1.RAR.3)-2,4-DI-O-METHYL-BETA-(D)-GLUCOPYRANOSIDE
Synonym: DEACYLFORSYTHOSIDE B PERMETHYL ETHER
Structure: 322D28332C342D44494D4554484F58595048454E594C29455448594C20322C332C352D5452492D4F2D4D455448594C2D424554412D2844292D4150494F465552414E4F53594C28312E5241522E36292D322C332C342D5452492D4F2D4D455448594C2D414C5048412D284C292D5248414D4E4F505952414E4F53594C28312E5241522E33292D322C342D44492D4F2D4D455448594C2D424554412D2844292D474C55434F505952414E4F534944452E6D6F6C0A20204368656D447261773132323130393134333932440A2035312035342020302020302020302020302020302020302020302020303939392056323030300A2020202D312E373230362020202D322E3036323520202020302E303030302043202020302020302020302020302020302020302020302020302020302020302020302020300A2020202D312E373230362020202D322E3838373520202020302E303030302043202020302020302020302020302020302020302020302020302020302020302020302020300A2020202D312E303036312020202D332E3330303020202020302E303030302043202020302020302020302020302020302020302020302020302020302020302020302020300A2020202D302E323931362020202D322E3838373520202020302E303030302043202020302020302020302020302020302020302020302020302020302020302020302020300A2020202D302E323931362020202D322E3036323520202020302E303030302043202020302020302020302020302020302020302020302020302020302020302020302020300A2020202D312E303035322020202D312E3635313420202020302E30303030204F202020302020302020302020302020302020302020302020302020302020302020302020300A2020202D322E343334342020202D312E3635313420202020302E30303030204F202020302020302020302020302020302020302020302020302020302020302020302020300A2020202D322E343335302020202D302E3832353020202020302E303030302043202020302020302020302020302020302020302020302020302020302020302020302020300A2020202D322E343334342020202D332E3330313420202020302E30303030204F202020302020302020302020302020302020302020302020302020302020302020302020300A2020202D322E343335302020202D342E3132353020202020302E303030302043202020302020302020302020302020302020302020302020302020302020302020302020300A2020202D312E303035322020202D342E3132363420202020302E30303030204F202020302020302020302020302020302020302020302020302020302020302020302020300A2020202D312E373230362020202D342E3533373520202020302E303030302043202020302020302020302020302020302020302020302020302020302020302020302020300A20202020302E343234312020202D332E3330313420202020302E30303030204F202020302020302020302020302020302020302020302020302020302020302020302020300A20202020302E343232382020202D342E3132353020202020302E303030302043202020302020302020302020302020302020302020302020302020302020302020302020300A20202020302E343232382020202D312E3635303020202020302E303030302043202020302020302020302020302020302020302020302020302020302020302020302020300A20202020312E313337332020202D322E3036323520202020302E303030302043202020302020302020302020302020302020302020302020302020302020302020302020300A20202020312E383931332020202D312E3732373720202020302E303030302043202020302020302020302020302020302020302020302020302020302020302020302020300A20202020322E343433302020202D322E3334303020202020302E303030302043202020302020302020302020302020302020302020302020302020302020302020302020300A20202020322E303330352020202D332E3035343520202020302E303030302043202020302020302020302020302020302020302020302020302020302020302020302020300A20202020312E323235312020202D322E3838333120202020302E30303030204F202020302020302020302020302020302020302020302020302020302020302020302020300A20202020322E303633362020202D302E3932303920202020302E30303030204F202020302020302020302020302020302020302020302020302020302020302020302020300A20202020312E343830322020202D302E3333373520202020302E303030302043202020302020302020302020302020302020302020302020302020302020302020302020300A20202020332E313130302020202D322E3832353620202020302E30303030204F202020302020302020302020302020302020302020302020302020302020302020302020300A20202020332E383634302020202D322E3439303820202020302E303030302043202020302020302020302020302020302020302020302020302020302020302020302020300A20202020322E393935362020202D312E3732373520202020302E303030302043202020302020302020302020302020302020302020302020302020302020302020302020300A20202020322E373431342020202D302E3934323620202020302E30303030204F202020302020302020302020302020302020302020302020302020302020302020302020300A20202020332E333234382020202D302E3335393220202020302E303030302043202020302020302020302020302020302020302020302020302020302020302020302020300A2020202D332E313439352020202D302E3431323520202020302E303030302043202020302020302020302020302020302020302020302020302020302020302020302020300A2020202D332E3134393520202020302E3431323520202020302E303030302043202020302020302020302020302020302020302020302020302020302020302020302020300A2020202D322E3433343420202020302E3832333620202020302E30303030204F202020302020302020302020302020302020302020302020302020302020302020302020300A2020202D312E3732303620202020302E3431323520202020302E303030302043202020302020302020302020302020302020302020302020302020302020302020302020300A2020202D312E373230362020202D302E3431323520202020302E303030302043202020302020302020302020302020302020302020302020302020302020302020302020300A2020202D332E383633372020202D302E3832363420202020302E30303030204F202020302020302020302020302020302020302020302020302020302020302020302020300A2020202D332E383634302020202D312E3635303020202020302E303030302043202020302020302020302020302020302020302020302020302020302020302020302020300A2020202D332E3836343020202020302E3832353020202020302E303030302043202020302020302020302020302020302020302020302020302020302020302020302020300A2020202D332E3836333720202020312E3634383620202020302E30303030204F202020302020302020302020302020302020302020302020302020302020302020302020300A2020202D312E3030353220202020302E3832333620202020302E30303030204F202020302020302020302020302020302020302020302020302020302020302020302020300A2020202D302E3239313620202020302E3431323520202020302E303030302043202020302020302020302020302020302020302020302020302020302020302020302020300A20202020302E3432323820202020302E3832353020202020302E303030302043202020302020302020302020302020302020302020302020302020302020302020302020300A20202020302E3432323820202020312E3635303020202020302E303030302043202020302020302020302020302020302020302020302020302020302020302020302020300A20202020312E3133373320202020322E3036323520202020302E303030302043202020302020302020302020302020302020302020302020302020302020302020302020300A20202020312E3133373320202020322E3838373520202020302E303030302043202020302020302020302020302020302020302020302020302020302020302020302020300A20202020302E3432323820202020332E3330303020202020302E303030302043202020302020302020302020302020302020302020302020302020302020302020302020300A2020202D302E3239313620202020322E3838373520202020302E303030302043202020302020302020302020302020302020302020302020302020302020302020302020300A2020202D302E3239313620202020322E3036323520202020302E303030302043202020302020302020302020302020302020302020302020302020302020302020302020300A2020202D312E3030353220202020332E3330303020202020302E30303030204F202020302020302020302020302020302020302020302020302020302020302020302020300A2020202D312E3030363120202020342E3132353020202020302E303030302043202020302020302020302020302020302020302020302020302020302020302020302020300A20202020302E3432343120202020342E3132353020202020302E30303030204F202020302020302020302020302020302020302020302020302020302020302020302020300A20202020312E3133373320202020342E3533373520202020302E303030302043202020302020302020302020302020302020302020302020302020302020302020302020300A2020202D312E303035322020202D302E3832363420202020302E30303030204F202020302020302020302020302020302020302020302020302020302020302020302020300A2020202D302E323931362020202D302E3431323520202020302E303030302043202020302020302020302020302020302020302020302020302020302020302020302020300A2020312020322020312020302020202020200A2020322020332020312020302020202020200A2020332020342020312020302020202020200A2020342020352020312020302020202020200A2020352020362020312020302020202020200A2020362020312020312020302020202020200A2020312020372020312020302020202020200A2020372020382020312020302020202020200A2020322020392020312020302020202020200A2020392031302020312020302020202020200A2020332031312020312020302020202020200A2031312031322020312020302020202020200A2020342031332020312020302020202020200A2031332031342020312020302020202020200A2020352031352020312020302020202020200A2031352031362020312020302020202020200A2031362031372020312020302020202020200A2031372031382020312020302020202020200A2031382031392020312020302020202020200A2031392032302020312020302020202020200A2032302031362020312020302020202020200A2031372032312020312020302020202020200A2032312032322020312020302020202020200A2031382032332020312020302020202020200A2032332032342020312020302020202020200A2031382032352020312020302020202020200A2032352032362020312020302020202020200A2032362032372020312020302020202020200A2020382032382020312020302020202020200A2032382032392020312020302020202020200A2032392033302020312020302020202020200A2033302033312020312020302020202020200A2033312033322020312020302020202020200A2033322020382020312020302020202020200A2032382033332020312020302020202020200A2033332033342020312020302020202020200A2032392033352020312020302020202020200A2033352033362020312020302020202020200A2033312033372020312020302020202020200A2033372033382020312020302020202020200A2033382033392020312020302020202020200A2033392034302020312020302020202020200A2034302034312020322020302020202020200A2034312034322020312020302020202020200A2034322034332020322020302020202020200A2034332034342020312020302020202020200A2034342034352020322020302020202020200A2034352034302020312020302020202020200A2034342034362020312020302020202020200A2034362034372020312020302020202020200A2034332034382020312020302020202020200A2034382034392020312020302020202020200A2033322035302020312020302020202020200A2035302035312020312020302020202020200A4D2020454E44
Contributor: ENDO K, PHARMACEUTICAL INST., TOHOKU UNIV.
InstType: EI
InstName: HITACHI M-52
IoniMethod: _ENERGY 25 eV
IonPolarity: pos
Date: 2010-10-09 19:48:36+02:00
Num Peaks: 80
17 21 18 158 28 63 29 2 41 21 43 32 45 116 57 2 59 137 67 11 
69 21 71 20 72 42 73 21 75 758 76 4 81 21 83 11 84 11 85 6 
87 11 88 326 89 53 97 5 99 232 100 21 101 411 102 3 103 11 105 11 
111 74 113 6 114 74 115 74 116 21 117 4 125 53 127 53 128 21 129 16 
130 21 131 32 138 42 141 1 143 358 144 53 145 105 151 3 157 126 164 999 
165 695 166 16 167 21 173 21 174 42 175 7 178 11 179 21 181 32 188 4 
189 611 190 84 191 21 193 3 195 21 207 21 210 53 263 4 323 21 429 32 
512 11 575 7 576 21 589 32 590 11 603 1 605 11 734 179 735 63 736 21 
