Name: MassBank: JP009961
MW: 308
Formula: C18H32N2O2
Synonym: MassBank: JP009961
Synonym: 3,7-DIMETHYL-10-(N-METHYLPIPERAZINYLCARBAMOYL)-(E)-7-DECEN-2-ONE
Structure: 332C372D44494D455448594C2D31302D284E2D4D455448594C5049504552415A494E594C43415242414D4F594C292D2845292D372D444543454E2D322D4F4E452E6D6F6C0A20204368656D447261773032323231303033353232440A2032332032332020302020302020302020302020302020302020302020303939392056323030300A20202020302E373134352020202D322E3638313220202020302E303030302043202020302020302020302020302020302020302020302020302020302020302020302020300A20202020302E373134352020202D332E3530363320202020302E303030302043202020302020302020302020302020302020302020302020302020302020302020302020300A20202020312E343238392020202D332E3931383820202020302E30303030204E202020302020302020302020302020302020302020302020302020302020302020302020300A20202020322E313433342020202D332E3530363320202020302E303030302043202020302020302020302020302020302020302020302020302020302020302020302020300A20202020322E313433342020202D322E3638313220202020302E303030302043202020302020302020302020302020302020302020302020302020302020302020302020300A20202020312E343238392020202D322E3236383720202020302E30303030204E202020302020302020302020302020302020302020302020302020302020302020302020300A20202020312E343238392020202D312E3434333820202020302E303030302043202020302020302020302020302020302020302020302020302020302020302020302020300A20202020312E343238392020202D342E3734333820202020302E303030302043202020302020302020302020302020302020302020302020302020302020302020302020300A20202020302E373134352020202D312E3033313320202020302E303030302043202020302020302020302020302020302020302020302020302020302020302020302020300A20202020322E313433342020202D312E3033313320202020302E30303030204F202020302020302020302020302020302020302020302020302020302020302020302020300A20202020302E373134352020202D302E3230363220202020302E303030302043202020302020302020302020302020302020302020302020302020302020302020302020300A20202020302E3030303020202020302E3230363220202020302E303030302043202020302020302020302020302020302020302020302020302020302020302020302020300A20202020302E3030303020202020312E3033313320202020302E303030302043202020302020302020302020302020302020302020302020302020302020302020302020300A2020202D302E373134352020202D302E3230363220202020302E303030302048202020302020302020302020302020302020302020302020302020302020302020302020300A2020202D302E3731343520202020312E3434333820202020302E303030302043202020302020302020302020302020302020302020302020302020302020302020302020300A20202020302E3731343520202020312E3434333820202020302E303030302043202020302020302020302020302020302020302020302020302020302020302020302020300A2020202D302E3731343520202020322E3236383720202020302E303030302043202020302020302020302020302020302020302020302020302020302020302020302020300A2020202D312E3432383920202020322E3638313220202020302E303030302043202020302020302020302020302020302020302020302020302020302020302020302020300A2020202D312E3432383920202020332E3530363320202020302E303030302043202020302020302020302020302020302020302020302020302020302020302020302020300A2020202D322E3134333420202020332E3931383820202020302E303030302043202020302020302020302020302020302020302020302020302020302020302020302020300A2020202D302E3731343520202020332E3931383820202020302E303030302043202020302020302020302020302020302020302020302020302020302020302020302020300A20202020302E3030303020202020332E3530363320202020302E303030302043202020302020302020302020302020302020302020302020302020302020302020302020300A2020202D302E3731343520202020342E3734333820202020302E30303030204F202020302020302020302020302020302020302020302020302020302020302020302020300A2020312020322020312020302020202020200A2020322020332020312020302020202020200A2020332020342020312020302020202020200A2020342020352020312020302020202020200A2020352020362020312020302020202020200A2020362020312020312020302020202020200A2020362020372020312020302020202020200A2020332020382020312020302020202020200A2020372020392020312020302020202020200A2020372031302020322020302020202020200A2020392031312020312020302020202020200A2031312031322020312020302020202020200A2031322031332020322020302020202020200A2031322031342020312020302020202020200A2031332031352020312020302020202020200A2031332031362020312020302020202020200A2031352031372020312020302020202020200A2031372031382020312020302020202020200A2031382031392020312020302020202020200A2031392032302020312020302020202020200A2031392032312020312020302020202020200A2032312032322020312020302020202020200A2032312032332020322020302020202020200A4D2020454E44
Contributor: KURARAY CO., LTD.
InstType: EI
InstName: JEOL JMS-D-300
IoniMethod: _ENERGY 70 eV
IonPolarity: pos
Date: 2010-10-09 19:48:36+02:00
Num Peaks: 78
29 49 30 25 41 87 42 14 43 437 44 391 53 28 55 14 56 359 57 598 
58 859 59 4 67 66 68 27 69 78 70 999 71 264 72 65 79 51 81 9 
82 57 83 498 84 68 85 11 86 19 93 40 95 82 96 2 97 123 98 769 
99 766 100 24 101 460 102 32 107 16 108 2 109 33 110 32 111 35 112 3 
113 32 124 51 125 17 127 14 128 35 137 16 138 16 140 1 141 35 142 155 
143 13 149 2 152 95 153 33 155 33 166 36 167 65 180 109 181 16 194 7 
195 19 208 21 209 250 210 5 222 44 223 43 224 47 237 25 238 35 251 13 
252 63 265 5 293 17 307 19 308 835 309 19 400 21 407 19 
