Name: ALPHA-AMYLCINNAMYL PROPIONATE
MW: 260
Formula: C17H24O2
Synonym: MassBank: JP008358
Synonym: ALPHA-AMYLCINNAMYL PROPIONATE
Synonym: 2-BENZYLIDENEHEPTYL PROPIONATE
Structure: 414C5048412D414D594C43494E4E414D594C2050524F50494F4E4154452E6D6F6C0A20204368656D447261773132323130393232343632440A2032312032312020302020302020302020302020302020302020302020303939392056323030300A2020202D302E333537322020202D322E3036323520202020302E303030302043202020302020302020302020302020302020302020302020302020302020302020302020300A2020202D302E333537322020202D322E3838373520202020302E303030302043202020302020302020302020302020302020302020302020302020302020302020302020300A20202020302E333537322020202D332E3330303020202020302E303030302043202020302020302020302020302020302020302020302020302020302020302020302020300A20202020312E303731372020202D322E3838373520202020302E303030302043202020302020302020302020302020302020302020302020302020302020302020302020300A20202020312E303731372020202D322E3036323520202020302E303030302043202020302020302020302020302020302020302020302020302020302020302020302020300A20202020302E333537322020202D312E3635303020202020302E303030302043202020302020302020302020302020302020302020302020302020302020302020302020300A20202020302E333537322020202D302E3832353020202020302E303030302043202020302020302020302020302020302020302020302020302020302020302020302020300A2020202D302E333537322020202D302E3431323520202020302E303030302043202020302020302020302020302020302020302020302020302020302020302020302020300A20202020312E303731372020202D302E3431323520202020302E303030302048202020302020302020302020302020302020302020302020302020302020302020302020300A2020202D312E303731372020202D302E3832353020202020302E303030302048202020302020302020302020302020302020302020302020302020302020302020302020300A2020202D302E3335373220202020302E3431323520202020302E303030302043202020302020302020302020302020302020302020302020302020302020302020302020300A2020202D312E3037313720202020302E3832353020202020302E30303030204F202020302020302020302020302020302020302020302020302020302020302020302020300A20202020302E3335373220202020302E3832353020202020302E303030302043202020302020302020302020302020302020302020302020302020302020302020302020300A2020202D312E3037313720202020312E3635303020202020302E303030302043202020302020302020302020302020302020302020302020302020302020302020302020300A2020202D302E3335373220202020322E3036323520202020302E30303030204F202020302020302020302020302020302020302020302020302020302020302020302020300A2020202D312E3738363220202020322E3036323520202020302E303030302043202020302020302020302020302020302020302020302020302020302020302020302020300A2020202D312E3738363220202020322E3838373520202020302E303030302043202020302020302020302020302020302020302020302020302020302020302020302020300A20202020302E3335373220202020312E3635303020202020302E303030302043202020302020302020302020302020302020302020302020302020302020302020302020300A20202020312E3037313720202020322E3036323520202020302E303030302043202020302020302020302020302020302020302020302020302020302020302020302020300A20202020312E3037313720202020322E3838373520202020302E303030302043202020302020302020302020302020302020302020302020302020302020302020302020300A20202020312E3738363220202020332E3330303020202020302E303030302043202020302020302020302020302020302020302020302020302020302020302020302020300A2020312020322020322020302020202020200A2020322020332020312020302020202020200A2020332020342020322020302020202020200A2020342020352020312020302020202020200A2020352020362020322020302020202020200A2020362020312020312020302020202020200A2020362020372020312020302020202020200A2020372020382020322020302020202020200A2020372020392020312020302020202020200A2020382031302020312020302020202020200A2020382031312020312020302020202020200A2031312031322020312020302020202020200A2031312031332020312020302020202020200A2031322031342020312020302020202020200A2031342031352020322020302020202020200A2031342031362020312020302020202020200A2031362031372020312020302020202020200A2031332031382020312020302020202020200A2031382031392020312020302020202020200A2031392032302020312020302020202020200A2032302032312020312020302020202020200A4D2020454E44
Contributor: SODA AROMATIC CO., LTD.
InstType: EI
InstName: HITACHI M-80B
IoniMethod: _ENERGY 70 eV
IonPolarity: pos
Date: 2010-10-09 19:48:36+02:00
Num Peaks: 67
26 13 27 215 29 823 30 19 31 12 39 74 41 204 42 14 43 103 51 36 
52 12 53 29 55 75 56 15 57 999 58 29 63 32 65 50 67 24 69 24 
71 13 75 17 76 12 77 53 78 46 79 35 81 12 82 15 89 25 91 446 
92 57 95 56 99 27 102 23 103 31 104 56 105 58 113 10 114 10 115 347 
116 159 117 238 118 30 127 69 128 273 129 906 130 775 131 181 132 15 133 65 
134 11 141 33 142 28 143 468 144 149 145 34 147 52 148 21 157 43 158 11 
171 23 186 210 187 47 203 45 204 65 205 11 260 13 
