Name: MassBank: JP008251
CAS: 120-20-7
MW: 181
Formula: C10H15NO2
Synonym: MassBank: JP008251
Synonym: 2-(3,4-DIMETOXYPHENYL)ETHYLAMINE
Synonym: HOMOVERATRYLAMINE
Structure: 322D28332C342D44494D45544F58595048454E594C29455448594C414D494E452E6D6F6C0A20204368656D447261773132323130393137333032440A2031332031332020302020302020302020302020302020302020302020303939392056323030300A2020202D322E343735302020202D312E3037313720202020302E30303030204E202020302020302020302020302020302020302020302020302020302020302020302020300A2020202D312E363530302020202D312E3037313720202020302E303030302043202020302020302020302020302020302020302020302020302020302020302020302020300A2020202D312E323337352020202D302E3335373220202020302E303030302043202020302020302020302020302020302020302020302020302020302020302020302020300A2020202D302E343132352020202D302E3335373220202020302E303030302043202020302020302020302020302020302020302020302020302020302020302020302020300A20202020302E3030303020202020302E3335373220202020302E303030302043202020302020302020302020302020302020302020302020302020302020302020302020300A20202020302E3832353020202020302E3335373220202020302E303030302043202020302020302020302020302020302020302020302020302020302020302020302020300A20202020312E3233373520202020312E3037313720202020302E30303030204F202020302020302020302020302020302020302020302020302020302020302020302020300A20202020322E3036323520202020312E3037313720202020302E303030302043202020302020302020302020302020302020302020302020302020302020302020302020300A20202020312E323337352020202D302E3335373220202020302E303030302043202020302020302020302020302020302020302020302020302020302020302020302020300A20202020322E303632352020202D302E3335373220202020302E30303030204F202020302020302020302020302020302020302020302020302020302020302020302020300A20202020322E343735302020202D312E3037313720202020302E303030302043202020302020302020302020302020302020302020302020302020302020302020302020300A20202020302E383235302020202D312E3037313720202020302E303030302043202020302020302020302020302020302020302020302020302020302020302020302020300A20202020302E303030302020202D312E3037313720202020302E303030302043202020302020302020302020302020302020302020302020302020302020302020302020300A2020322020332020312020302020202020200A2020332020342020312020302020202020200A2020342020352020312020302020202020200A2020352020362020322020302020202020200A2020362020372020312020302020202020200A2020372020382020312020302020202020200A2020362020392020312020302020202020200A2020392031302020312020302020202020200A2031302031312020312020302020202020200A2020392031322020322020302020202020200A2031322031332020312020302020202020200A2020342031332020322020302020202020200A2020312020322020312020302020202020200A4D2020454E44
Contributor: UBE SCIENTIFIC ANALYSIS LABORATORY
InstType: EI
InstName: HITACHI M-60
IoniMethod: _ENERGY 70 eV
IonPolarity: pos
Date: 2010-10-09 19:48:36+02:00
Num Peaks: 50
15 38 27 15 28 50 29 13 30 999 31 18 39 81 41 16 42 12 43 11 
50 19 51 72 52 25 63 28 64 16 65 88 66 23 67 15 77 59 78 70 
79 47 80 20 81 18 89 23 90 45 91 66 92 14 93 15 94 26 105 39 
106 69 107 94 108 41 109 54 118 10 121 36 122 20 123 28 127 19 135 25 
136 14 137 160 138 18 149 10 151 420 152 846 153 88 165 28 181 155 182 37 
