Name: MassBank: JP009768
MW: 326
Formula: C19H18O5
Synonym: MassBank: JP009768
Synonym: 7-((E-3,7-DIMETHYL-7-HYDROXY-4-OXO-5-YN-2-OCTENYL)OXY)-2H-1-BENZOPYRAN-2-ONE
Structure: 372D2828452D332C372D44494D455448594C2D372D485944524F58592D342D4F584F2D352D594E2D322D4F4354454E594C294F5859292D32482D312D42454E5A4F505952414E2D322D4F4E452E6D6F6C0A20204368656D447261773035323131303032353532440A2032342032352020302020302020302020302020302020302020302020303939392056323030300A20202020332E363537322020202D312E3432383920202020302E303030302043202020302020302020302020302020302020302020302020302020302020302020302020300A20202020342E303639372020202D302E3731343520202020302E303030302043202020302020302020302020302020302020302020302020302020302020302020302020300A20202020332E3635373220202020302E3030303020202020302E303030302043202020302020302020302020302020302020302020302020302020302020302020302020300A20202020322E3833323220202020302E3030303020202020302E303030302043202020302020302020302020302020302020302020302020302020302020302020302020300A20202020322E343139372020202D302E3731343520202020302E303030302043202020302020302020302020302020302020302020302020302020302020302020302020300A20202020322E383332322020202D312E3432383920202020302E30303030204F202020302020302020302020302020302020302020302020302020302020302020302020300A20202020312E353934372020202D302E3731343520202020302E303030302043202020302020302020302020302020302020302020302020302020302020302020302020300A20202020312E313832322020202D302E3030303020202020302E303030302043202020302020302020302020302020302020302020302020302020302020302020302020300A20202020312E3539343720202020302E3731343520202020302E303030302043202020302020302020302020302020302020302020302020302020302020302020302020300A20202020322E3431393720202020302E3731343520202020302E303030302043202020302020302020302020302020302020302020302020302020302020302020302020300A20202020342E303639372020202D322E3134333420202020302E30303030204F202020302020302020302020302020302020302020302020302020302020302020302020300A20202020302E333537322020202D302E3030303020202020302E30303030204F202020302020302020302020302020302020302020302020302020302020302020302020300A2020202D302E3035353320202020302E3731343520202020302E303030302043202020302020302020302020302020302020302020302020302020302020302020302020300A2020202D302E3838303320202020302E3731343520202020302E303030302043202020302020302020302020302020302020302020302020302020302020302020302020300A2020202D312E3239323820202020312E3432383920202020302E303030302043202020302020302020302020302020302020302020302020302020302020302020302020300A2020202D322E3131373820202020312E3432383920202020302E303030302043202020302020302020302020302020302020302020302020302020302020302020302020300A2020202D322E3533303320202020302E3731343520202020302E303030302043202020302020302020302020302020302020302020302020302020302020302020302020300A2020202D322E393432382020202D302E3030303020202020302E303030302043202020302020302020302020302020302020302020302020302020302020302020302020300A2020202D332E333535332020202D302E3731343520202020302E303030302043202020302020302020302020302020302020302020302020302020302020302020302020300A2020202D322E363430382020202D312E3132373020202020302E303030302043202020302020302020302020302020302020302020302020302020302020302020302020300A2020202D322E3533303320202020322E3134333420202020302E30303030204F202020302020302020302020302020302020302020302020302020302020302020302020300A2020202D332E373637382020202D312E3432383920202020302E30303030204F202020302020302020302020302020302020302020302020302020302020302020302020300A2020202D342E303639372020202D302E3330323020202020302E303030302043202020302020302020302020302020302020302020302020302020302020302020302020300A2020202D302E3838303320202020322E3134333420202020302E303030302043202020302020302020302020302020302020302020302020302020302020302020302020300A2020312020322020312020302020202020200A2020322020332020322020302020202020200A2020332020342020312020302020202020200A2020342020352020312020302020202020200A2020352020362020312020302020202020200A2020312020362020312020302020202020200A2020372020382020312020302020202020200A2020382020392020322020302020202020200A2020392031302020312020302020202020200A2020342031302020322020302020202020200A2020352020372020322020302020202020200A2020312031312020322020302020202020200A2031332031342020312020302020202020200A2031342031352020322020302020202020200A2031352031362020312020302020202020200A2031362031372020312020302020202020200A2031372031382020332020302020202020200A2031382031392020312020302020202020200A2031392032302020312020302020202020200A2031362032312020322020302020202020200A2031392032322020312020302020202020200A2031392032332020312020302020202020200A2031352032342020312020302020202020200A2031322031332020312020302020202020200A2020382031322020312020302020202020200A4D2020454E44
Contributor: HISAHIRO HAGIWARA, CHEMICAL RESEARCH INSTITUTE OF NON-AQUEOUSSOLUTIONS TOHOKU UNIV.
InstType: EI
InstName: JEOL JMS-DX-300
IoniMethod: _ENERGY 70 eV
IonPolarity: pos
Date: 2010-10-09 19:48:36+02:00
Num Peaks: 66
31 22 39 91 41 123 43 792 44 12 50 21 51 88 52 23 53 203 54 31 
55 64 58 3 59 73 63 45 65 39 67 64 69 86 77 233 78 67 79 11 
80 18 81 23 82 25 83 17 89 50 91 94 93 87 94 20 95 59 103 22 
104 17 105 73 106 29 107 113 108 25 109 16 117 26 119 44 121 31 122 30 
123 30 133 30 134 353 135 44 147 44 149 25 159 24 162 999 163 170 164 24 
165 146 166 18 173 98 187 151 188 21 215 266 216 40 265 28 267 28 268 29 
269 18 293 38 308 23 311 16 326 78 327 18 
