Name: MassBank: JP000007
MW: 161
Formula: C6H4Cl2O
Synonym: MassBank: JP000007
Synonym: 2,4-DICHLOROPHENOL
Structure: 310A32330A322C342D444943484C4F524F5048454E4F4C2E6D6F6C0A20204368656D447261773132323030393138333232440A2020392020392020302020302020302020302020302020302020302020303939392056323030300A20202020302E373134352020202D302E3431323520202020302E303030302043202020302020302020302020302020302020302020302020302020302020302020302020300A20202020302E3731343520202020302E3431323520202020302E303030302043202020302020302020302020302020302020302020302020302020302020302020302020300A2020202D302E3030303020202020302E3832353020202020302E303030302043202020302020302020302020302020302020302020302020302020302020302020302020300A2020202D302E3731343520202020302E3431323520202020302E303030302043202020302020302020302020302020302020302020302020302020302020302020302020300A2020202D302E373134352020202D302E3431323520202020302E303030302043202020302020302020302020302020302020302020302020302020302020302020302020300A20202020302E303030302020202D302E3832353020202020302E303030302043202020302020302020302020302020302020302020302020302020302020302020302020300A2020202D312E3432383920202020302E3832353020202020302E3030303020436C2020302020302020302020302020302020302020302020302020302020302020302020300A20202020312E3432383920202020302E3832353020202020302E3030303020436C2020302020302020302020302020302020302020302020302020302020302020302020300A20202020312E343238392020202D302E3832353020202020302E30303030204F202020302020302020302020302020302020302020302020302020302020302020302020300A2020312020322020312020302020202020200A2020322020332020322020302020202020200A2020332020342020312020302020202020200A2020342020352020322020302020202020200A2020352020362020312020302020202020200A2020312020362020322020302020202020200A2020342020372020312020302020202020200A2020322020382020312020302020202020200A2020312020392020312020302020202020200A4D2020454E44
Contributor: KOGA M, UNIV. OF OCCUPATIONAL AND ENVIRONMENTAL HEALTH
InstType: EI
InstName: VARIAN MAT-44
IoniMethod: _ENERGY 70 eV
IonPolarity: pos
Date: 2010-10-09 19:48:36+02:00
Num Peaks: 37
51 31 53 123 60 62 61 193 62 351 63 999 64 102 66 23 71 31 72 106 
73 195 74 86 75 64 81 68 82 45 83 28 84 20 91 23 96 38 97 318 
98 380 99 216 100 131 101 47 125 48 126 203 127 38 128 74 133 40 134 27 
135 26 161 192 162 942 163 153 164 553 165 55 166 92 
