Name: FENCHYL ALCOHOL (OD)
MW: 154
Formula: C10H18O
Synonym: MassBank: JP002595
Synonym: FENCHYL ALCOHOL (OD)
Synonym: 1,3,3-TRIMETHYLBICYCLO(2.2.1)HEPTAN-2-(2H)OL
Structure: 46454E4348594C20414C434F484F4C20284F44292E6D6F6C0A20204368656D447261773131313130393137313332440A2031322031332020302020302020302020302020302020302020302020303939392056323030300A2020202D302E373639372020202D302E3431323520202020302E303030302043202020302020302020302020302020302020302020302020302020302020302020302020300A2020202D302E373639372020202D312E3233373520202020302E303030302043202020302020302020302020302020302020302020302020302020302020302020302020300A2020202D302E303535332020202D312E3635303020202020302E303030302043202020302020302020302020302020302020302020302020302020302020302020302020300A20202020302E363539322020202D312E3233373520202020302E303030302043202020302020302020302020302020302020302020302020302020302020302020302020300A20202020302E363539322020202D302E3431323520202020302E303030302043202020302020302020302020302020302020302020302020302020302020302020302020300A2020202D302E3035353320202020302E3030303020202020302E303030302043202020302020302020302020302020302020302020302020302020302020302020302020300A20202020302E303237322020202D302E3632363020202020302E303030302043202020302020302020302020302020302020302020302020302020302020302020302020300A2020202D302E3035353320202020302E3832353020202020302E30303030204F202020302020302020302020302020302020302020302020302020302020302020302020300A2020202D302E3035353320202020312E3635303020202020302E303030302048202020312020302020302020302020302020302020302020302020302020302020302020300A2020202D312E3438343220202020302E3030303020202020302E303030302043202020302020302020302020302020302020302020302020302020302020302020302020300A20202020312E343834322020202D302E3431323520202020302E303030302043202020302020302020302020302020302020302020302020302020302020302020302020300A20202020302E3837323720202020302E3338343420202020302E303030302043202020302020302020302020302020302020302020302020302020302020302020302020300A2020312020322020312020302020202020200A2020322020332020312020302020202020200A2020332020342020312020302020202020200A2020342020352020312020302020202020200A2020352020362020312020302020202020200A2020362020312020312020302020202020200A2020312020372020312020302020202020200A2020372020342020312020302020202020200A2020362020382020312020302020202020200A2020382020392020312020302020202020200A2020312031302020312020302020202020200A2020352031312020312020312020202020200A2020352031322020312020362020202020200A4D202049534F20203120202039202020320A4D2020454E44
Contributor: YAMAMOTO M, DEP. CHEMISTRY, FAC. SCIENCE, NARA WOMEN'S UNIV.
InstType: EI
InstName: HITACHI RMU-6M
IoniMethod: _ENERGY 70 eV
IonPolarity: pos
Date: 2010-10-09 19:48:36+02:00
Num Peaks: 68
27 104 28 39 29 79 30 33 31 12 39 120 40 40 41 276 42 83 43 255 
44 72 45 15 46 27 51 21 52 16 53 78 54 37 55 141 56 75 57 31 
58 97 59 23 65 23 66 20 67 151 68 45 69 220 70 48 71 25 72 256 
73 207 74 27 77 33 78 21 79 60 80 744 81 999 82 216 83 116 84 155 
85 74 86 38 91 22 92 21 93 54 94 114 95 56 96 45 97 34 98 33 
99 26 100 16 106 10 107 94 108 34 109 24 110 19 111 19 112 127 113 15 
121 10 122 105 123 61 124 10 125 21 137 43 140 37 155 44 
