Name: MassBank: JP003235
MW: 255
Formula: C16H17NO2
Synonym: MassBank: JP003235
Synonym: 3,5-DIMETHYL-4-(2'-TETRALOYL)METHYL-ISOXAZOLE
Structure: 332C352D44494D455448594C2D342D2832272D54455452414C4F594C294D455448594C2D49534F58415A4F4C452E6D6F6C0A20204368656D447261773032323231303031323232440A2031392032312020302020302020302020302020302020302020302020303939392056323030300A20202020312E3336373320202020302E3735373520202020302E303030302043202020302020302020302020302020302020302020302020302020302020302020302020300A20202020312E333637332020202D302E3036373520202020302E303030302043202020302020302020302020302020302020302020302020302020302020302020302020300A20202020322E303831382020202D302E3438303020202020302E303030302043202020302020302020302020302020302020302020302020302020302020302020302020300A20202020322E373936332020202D302E3036373520202020302E303030302043202020302020302020302020302020302020302020302020302020302020302020302020300A20202020322E3739363320202020302E3735373520202020302E303030302043202020302020302020302020302020302020302020302020302020302020302020302020300A20202020322E3038313820202020312E3137303020202020302E303030302043202020302020302020302020302020302020302020302020302020302020302020302020300A20202020302E3635323920202020312E3137303020202020302E303030302043202020302020302020302020302020302020302020302020302020302020302020302020300A2020202D302E3036313620202020302E3735373520202020302E303030302043202020302020302020302020302020302020302020302020302020302020302020302020300A2020202D302E303631362020202D302E3036373520202020302E303030302043202020302020302020302020302020302020302020302020302020302020302020302020300A20202020302E363532392020202D302E3438303020202020302E303030302043202020302020302020302020302020302020302020302020302020302020302020302020300A20202020302E363532392020202D312E3330353020202020302E30303030204F202020302020302020302020302020302020302020302020302020302020302020302020300A2020202D302E373736312020202D302E3438303020202020302E303030302043202020302020302020302020302020302020302020302020302020302020302020302020300A2020202D312E343930362020202D302E3036373520202020302E303030302043202020302020302020302020302020302020302020302020302020302020302020302020300A2020202D312E3537363820202020302E3735333020202020302E303030302043202020302020302020302020302020302020302020302020302020302020302020302020300A2020202D322E3338333820202020302E3932343520202020302E30303030204F202020302020302020302020302020302020302020302020302020302020302020302020300A2020202D322E3739363320202020302E3231303020202020302E30303030204E202020302020302020302020302020302020302020302020302020302020302020302020300A2020202D322E323434322020202D302E3430333120202020302E303030302043202020302020302020302020302020302020302020302020302020302020302020302020300A2020202D302E3936333720202020312E3330353020202020302E303030302043202020302020302020302020302020302020302020302020302020302020302020302020300A2020202D322E343135382020202D312E3231303020202020302E303030302043202020302020302020302020302020302020302020302020302020302020302020302020300A2020312020322020322020302020202020200A2020322020332020312020302020202020200A2020332020342020322020302020202020200A2020342020352020312020302020202020200A2020352020362020322020302020202020200A2020362020312020312020302020202020200A2020312020372020312020302020202020200A2020372020382020312020302020202020200A2020382020392020312020302020202020200A2020392031302020312020302020202020200A2031302020322020312020302020202020200A2031302031312020322020302020202020200A2020392031322020312020302020202020200A2031322031332020312020302020202020200A2031332031342020322020302020202020200A2031342031352020312020302020202020200A2031352031362020312020302020202020200A2031362031372020322020302020202020200A2031372031332020312020302020202020200A2031342031382020312020302020202020200A2031372031392020312020302020202020200A4D2020454E44
Contributor: MASS SPECTROSCOPY SOC. OF JAPAN (MSSJ)
InstType: EI
InstName: HITACHI RMU-6E
IoniMethod: _ENERGY 70 eV
IonPolarity: pos
Date: 2010-10-09 19:48:36+02:00
Num Peaks: 8
255 450 212 290 146 460 110 999 68 640 43 580 42 120 41 30 
