Name: 5-METHYLMERCAPTOTETRAZOLE
MW: 116
Formula: C2H4N4S
Synonym: MassBank: JP008281
Synonym: 5-METHYLMERCAPTOTETRAZOLE
Structure: 310A31390A352D4D455448594C4D4552434150544F54455452415A4F4C452E6D6F6C0A20204368656D447261773034323331303037323732440A2020372020372020302020302020302020302020302020302020302020303939392056323030300A2020202D302E313437392020202D302E3533303720202020302E30303030204E202020302020302020302020302020302020302020302020302020302020302020302020300A2020202D302E393534382020202D302E3730323320202020302E30303030204E202020302020302020302020302020302020302020302020302020302020302020302020300A2020202D312E3336373320202020302E3031323220202020302E30303030204E202020302020302020302020302020302020302020302020302020302020302020302020300A2020202D302E3831353320202020302E3632353320202020302E30303030204E202020302020302020302020302020302020302020302020302020302020302020302020300A2020202D302E3036313620202020302E3238393820202020302E303030302043202020302020302020302020302020302020302020302020302020302020302020302020300A20202020302E3635323920202020302E3730323320202020302E303030302053202020302020302020302020302020302020302020302020302020302020302020302020300A20202020312E3336373320202020302E3238393820202020302E303030302043202020302020302020302020302020302020302020302020302020302020302020302020300A2020312020322020312020302020202020200A2020322020332020322020302020202020200A2020332020342020312020302020202020200A2020342020352020322020302020202020200A2020312020352020312020302020202020200A2020362020372020312020302020202020200A2020352020362020312020302020202020200A4D2020454E44
Contributor: UBE SCIENTIFIC ANALYSIS LABORATORY
InstType: EI
InstName: HITACHI M-60
IoniMethod: _ENERGY 70 eV
IonPolarity: pos
Date: 2010-10-09 19:48:36+02:00
Num Peaks: 37
13 31 14 80 15 264 16 28 29 463 32 49 33 19 34 16 41 87 42 48 
43 80 44 220 45 887 46 369 47 273 48 115 55 16 56 18 57 77 58 330 
59 222 60 42 61 50 69 196 70 11 71 11 72 32 73 532 74 58 75 23 
87 20 88 493 89 16 90 21 116 999 117 70 118 39 
