Name: (3R)-4-(METHOXYMETHYL-THIO)-3-(N-METHOXYMETHYL-N-TOSYL)AMINOBUTAN-2-ONE
MW: 361
Formula: C15H23NO5S2
Synonym: MassBank: JP002427
Synonym: (3R)-4-(METHOXYMETHYL-THIO)-3-(N-METHOXYMETHYL-N-TOSYL)AMINOBUTAN-2-ONE
Structure: 283352292D342D284D4554484F58594D455448594C2D5448494F292D332D284E2D4D4554484F58594D455448594C2D4E2D544F53594C29414D494E4F425554414E2D322D4F4E452E6D6F6C0A20204368656D447261773130323230393031353932440A2032342032342020302020302020302020302020302020302020302020303939392056323030300A2020202D312E393531382020202D302E3631383920202020302E303030302043202020302020302020302020302020302020302020302020302020302020302020302020300A2020202D312E393531382020202D312E3434333920202020302E303030302043202020302020302020302020302020302020302020302020302020302020302020302020300A2020202D312E323337342020202D312E3835363420202020302E303030302043202020302020302020302020302020302020302020302020302020302020302020302020300A2020202D302E353232392020202D312E3434333920202020302E303030302043202020302020302020302020302020302020302020302020302020302020302020302020300A2020202D302E353232392020202D302E3631383920202020302E303030302043202020302020302020302020302020302020302020302020302020302020302020302020300A2020202D312E323337342020202D302E3230363420202020302E303030302043202020302020302020302020302020302020302020302020302020302020302020302020300A2020202D312E3233373420202020302E3631383620202020302E303030302053202020302020302020302020302020302020302020302020302020302020302020302020300A2020202D312E3233373420202020312E3434333620202020302E30303030204F202020302020302020302020302020302020302020302020302020302020302020302020300A2020202D302E3431323520202020302E3631383620202020302E30303030204E202020302020302020302020302020302020302020302020302020302020302020302020300A2020202D322E3036323520202020302E3631383620202020302E30303030204F202020302020302020302020302020302020302020302020302020302020302020302020300A20202020302E3431323520202020302E3631383620202020302E303030302043202020302020302020302020302020302020302020302020302020302020302020302020300A2020202D302E3431323520202020312E3434333620202020302E303030302043202020302020302020302020302020302020302020302020302020302020302020302020300A2020202D312E3132373020202020312E3835363120202020302E30303030204F202020302020302020302020302020302020302020302020302020302020302020302020300A20202020312E3233373520202020302E3631383620202020302E303030302043202020302020302020302020302020302020302020302020302020302020302020302020300A20202020322E3036323520202020302E3631383620202020302E30303030204F202020302020302020302020302020302020302020302020302020302020302020302020300A20202020302E3431323520202020312E3434333620202020302E303030302048202020302020302020302020302020302020302020302020302020302020302020302020300A20202020302E343132352020202D302E3230363420202020302E303030302043202020302020302020302020302020302020302020302020302020302020302020302020300A20202020312E3233373520202020312E3434333620202020302E303030302043202020302020302020302020302020302020302020302020302020302020302020302020300A20202020312E313237302020202D302E3631383920202020302E303030302053202020302020302020302020302020302020302020302020302020302020302020302020300A20202020312E313237302020202D312E3434333920202020302E303030302043202020302020302020302020302020302020302020302020302020302020302020302020300A20202020312E383431342020202D312E3835363420202020302E30303030204F202020302020302020302020302020302020302020302020302020302020302020302020300A2020202D312E323337342020202D322E3638313420202020302E303030302043202020302020302020302020302020302020302020302020302020302020302020302020300A20202020312E383431312020202D322E3638313120202020302E303030302043202020302020302020302020302020302020302020302020302020302020302020302020300A2020202D312E3132373620202020322E3638313420202020302E303030302043202020302020302020302020302020302020302020302020302020302020302020302020300A2020312020322020322020302020202020200A2020322020332020312020302020202020200A2020332020342020322020302020202020200A2020342020352020312020302020202020200A2020352020362020322020302020202020200A2020362020312020312020302020202020200A2020362020372020312020302020202020200A2020372020382020322020302020202020200A2020372020392020312020302020202020200A2020372031302020322020302020202020200A2020392031312020312020302020202020200A2020392031322020312020302020202020200A2031322031332020312020302020202020200A2031312031342020312020302020202020200A2031342031352020322020302020202020200A2031312031362020312020312020202020200A2031312031372020312020312020202020200A2031342031382020312020302020202020200A2031372031392020312020302020202020200A2031392032302020312020302020202020200A2032302032312020312020302020202020200A2020332032322020312020302020202020200A2032312032332020312020302020202020200A2031332032342020312020302020202020200A4D202053545920203120202031205355500A4D2020534C4220203120202031202020310A4D202053414C20202031202031202032320A4D202053424C20202031202031202032320A4D2020534D5420202031204D650A4D2020534256202020312032322020202D362E3334343320202020372E303531310A4D202053545920203120202032205355500A4D2020534C4220203120202032202020320A4D202053414C20202032202031202032330A4D202053424C20202032202031202032330A4D2020534D5420202032204D650A4D2020534256202020322032332020202D362E3334343720202020372E303531340A4D202053545920203120202033205355500A4D2020534C4220203120202033202020330A4D202053414C20202033202031202032340A4D202053424C20202033202031202032340A4D2020534D5420202033204D650A4D2020534256202020332032342020202D362E3334343920202020382E373031340A4D2020454E44
Contributor: ITO S, DEPT. OF CHEM., TOHOKU UNIV.
InstType: EI
InstName: HITACHI M-52
IoniMethod: _ENERGY 11 eV
IonPolarity: pos
Date: 2010-10-09 19:48:36+02:00
Num Peaks: 39
42 114 45 23 46 54 58 10 70 58 72 68 91 32 96 3 97 26 100 42 
104 26 124 8 128 438 129 21 131 21 134 6 139 19 146 19 155 35 162 4 
190 21 227 32 228 999 229 4 237 18 241 18 242 695 243 3 245 23 286 638 
287 32 288 3 317 26 318 962 319 238 320 31 321 54 330 21 361 4 
