Name: 3-ETHYL-2-PYRAZOLINE
MW: 98
Formula: C5H10N2
Synonym: MassBank: JP000893
Synonym: 3-ETHYL-2-PYRAZOLINE
Structure: 310A31390A332D455448594C2D322D505952415A4F4C494E452E6D6F6C0A20204368656D447261773032323231303137343732440A2020372020372020302020302020302020302020302020302020302020303939392056323030300A20202020312E3336373320202020302E3031323220202020302E30303030204E202020302020302020302020302020302020302020302020302020302020302020302020300A20202020302E3831353320202020302E3632353320202020302E30303030204E202020302020302020302020302020302020302020302020302020302020302020302020300A20202020302E3036313620202020302E3238393820202020302E303030302043202020302020302020302020302020302020302020302020302020302020302020302020300A20202020302E313437392020202D302E3533303720202020302E303030302043202020302020302020302020302020302020302020302020302020302020302020302020300A20202020302E393534382020202D302E3730323320202020302E303030302043202020302020302020302020302020302020302020302020302020302020302020302020300A2020202D302E3635323920202020302E3730323320202020302E303030302043202020302020302020302020302020302020302020302020302020302020302020302020300A2020202D312E3336373320202020302E3238393820202020302E303030302043202020302020302020302020302020302020302020302020302020302020302020302020300A2020312020322020312020302020202020200A2020322020332020322020302020202020200A2020332020342020312020302020202020200A2020342020352020312020302020202020200A2020312020352020312020302020202020200A2020362020372020312020302020202020200A2020332020362020312020302020202020200A4D2020454E44
Contributor: SASAKI S, TOYOHASHI UNIV. OF TECH.
InstType: EI
InstName: SHIMADZU LKB-2091
IoniMethod: _ENERGY 70 eV
IonPolarity: pos
Date: 2010-10-09 19:48:36+02:00
Num Peaks: 32
26 41 27 231 28 385 29 20 30 96 38 26 39 173 40 4 41 500 42 413 
43 86 44 2 51 19 52 21 53 57 54 11 55 125 56 77 57 33 67 2 
68 54 69 346 70 125 81 4 82 32 83 999 84 53 95 4 96 22 97 365 
98 702 99 44 
