Name: DIETHYL DIETHYLMALONATE
MW: 216
Formula: C11H20O4
Synonym: MassBank: JP009009
Synonym: DIETHYL DIETHYLMALONATE
Structure: 4449455448594C204449455448594C4D414C4F4E4154452E6D6F6C0A20204368656D447261773039323131303230303232440A2031352031342020302020302020302020302020302020302020302020303939392056323030300A20202020302E353233302020202D302E3230363320202020302E303030302043202020302020302020302020302020302020302020302020302020302020302020302020300A20202020302E3532333020202020302E3631383720202020302E303030302043202020302020302020302020302020302020302020302020302020302020302020302020300A2020202D302E3330323020202020302E3631383720202020302E303030302043202020302020302020302020302020302020302020302020302020302020302020302020300A2020202D302E313931342020202D302E3631383820202020302E30303030204F202020302020302020302020302020302020302020302020302020302020302020302020300A20202020312E323337352020202D302E3631383820202020302E30303030204F202020302020302020302020302020302020302020302020302020302020302020302020300A2020202D302E3731343520202020312E3333333220202020302E30303030204F202020302020302020302020302020302020302020302020302020302020302020302020300A2020202D302E373134352020202D302E3039353720202020302E30303030204F202020302020302020302020302020302020302020302020302020302020302020302020300A20202020302E3532333020202020312E3434333720202020302E303030302043202020302020302020302020302020302020302020302020302020302020302020302020300A2020202D302E3139313420202020312E3835363320202020302E303030302043202020302020302020302020302020302020302020302020302020302020302020302020300A20202020312E3334383020202020302E3631383720202020302E303030302043202020302020302020302020302020302020302020302020302020302020302020302020300A20202020312E373630352020202D302E3039353720202020302E303030302043202020302020302020302020302020302020302020302020302020302020302020302020300A20202020312E323337352020202D312E3434333820202020302E303030302043202020302020302020302020302020302020302020302020302020302020302020302020300A20202020312E393532302020202D312E3835363320202020302E303030302043202020302020302020302020302020302020302020302020302020302020302020302020300A2020202D312E353339352020202D302E3039353720202020302E303030302043202020302020302020302020302020302020302020302020302020302020302020302020300A2020202D312E393532302020202D302E3831303220202020302E303030302043202020302020302020302020302020302020302020302020302020302020302020302020300A2020312020322020312020302020202020200A2020322020332020312020302020202020200A2020312020342020322020302020202020200A2020312020352020312020302020202020200A2020332020362020322020302020202020200A2020332020372020312020302020202020200A2020382020392020312020302020202020200A2020322020382020312020302020202020200A2031302031312020312020302020202020200A2020322031302020312020302020202020200A2031322031332020312020302020202020200A2020352031322020312020302020202020200A2031342031352020312020302020202020200A2020372031342020312020302020202020200A4D2020454E44
Contributor: SODA AROMATIC CO., LTD.
InstType: EI
InstName: HITACHI M-80B
IoniMethod: _ENERGY 70 eV
IonPolarity: pos
Date: 2010-10-09 19:48:36+02:00
Num Peaks: 60
15 13 26 21 27 262 28 32 29 999 30 23 31 22 39 84 40 19 41 308 
42 40 43 153 45 242 53 48 54 16 55 242 56 13 57 79 59 45 67 27 
68 18 69 345 70 34 71 48 73 213 81 12 83 158 84 11 85 14 86 33 
87 83 95 13 96 19 97 89 98 86 99 153 100 14 101 299 102 14 113 47 
114 86 115 309 116 66 127 49 129 277 130 17 141 62 142 195 143 262 144 88 
145 13 157 22 170 25 171 245 172 19 173 157 174 14 187 22 188 462 189 39 
