Name: MassBank: JP004777
MW: 206
Formula: C14H22O
Synonym: MassBank: JP004777
Synonym: 10,11-DIMETHYLSPIRO(5.6)DODEC-10-EN-7-ONE
Structure: 31302C31312D44494D455448594C535049524F28352E3629444F4445432D31302D454E2D372D4F4E452E6D6F6C0A20204368656D447261773131323230393233313132440A2031352031362020302020302020302020302020302020302020302020303939392056323030300A2020202D302E3538323620202020302E3930333720202020302E303030302043202020302020302020302020302020302020302020302020302020302020302020302020300A2020202D312E3239373020202020312E3331363220202020302E303030302043202020302020302020302020302020302020302020302020302020302020302020302020300A2020202D322E3031313520202020302E3930333720202020302E303030302043202020302020302020302020302020302020302020302020302020302020302020302020300A2020202D322E3031313520202020302E3037383720202020302E303030302043202020302020302020302020302020302020302020302020302020302020302020302020300A2020202D312E323937302020202D302E3333333820202020302E303030302043202020302020302020302020302020302020302020302020302020302020302020302020300A2020202D302E3538323620202020302E3037383720202020302E303030302043202020302020302020302020302020302020302020302020302020302020302020302020300A2020202D302E363333352020202D302E3733323920202020302E303030302043202020302020302020302020302020302020302020302020302020302020302020302020300A2020202D302E303530322020202D312E3331363220202020302E303030302043202020302020302020302020302020302020302020302020302020302020302020302020300A20202020302E373736332020202D312E3138323220202020302E303030302043202020302020302020302020302020302020302020302020302020302020302020302020300A20202020312E313838382020202D302E3436373720202020302E303030302043202020302020302020302020302020302020302020302020302020302020302020302020300A20202020302E3837363320202020302E3331313020202020302E303030302043202020302020302020302020302020302020302020302020302020302020302020302020300A20202020302E3039393120202020302E3534333520202020302E303030302043202020302020302020302020302020302020302020302020302020302020302020302020300A2020202D312E343132322020202D312E3034353420202020302E30303030204F202020302020302020302020302020302020302020302020302020302020302020302020300A20202020312E3435393720202020302E3839343420202020302E303030302043202020302020302020302020302020302020302020302020302020302020302020302020300A20202020322E303131352020202D302E3532393320202020302E303030302043202020302020302020302020302020302020302020302020302020302020302020302020300A2020312020322020312020302020202020200A2020322020332020312020302020202020200A2020332020342020312020302020202020200A2020342020352020312020302020202020200A2020352020362020312020302020202020200A2020362020372020312020302020202020200A2020372020382020312020302020202020200A2020382020392020312020302020202020200A2020392031302020312020302020202020200A2031302031312020322020302020202020200A2031312031322020312020302020202020200A2020312020362020312020302020202020200A2020362031322020312020302020202020200A2020372031332020322020302020202020200A2031312031342020312020302020202020200A2031302031352020312020302020202020200A4D2020454E44
Contributor: MASS SPECTROSCOPY SOC. OF JAPAN (MSSJ)
InstType: EI
InstName: JEOL JMS-D-3000
IoniMethod: _ENERGY 18 eV
IonPolarity: pos
Date: 2010-10-09 19:48:36+02:00
Num Peaks: 12
81 84 82 97 108 118 109 123 110 550 111 107 123 84 124 210 163 118 188 88 
206 999 207 147 
