Name: SUCCINONITRILE
MW: 80
Formula: C4H4N2
Synonym: MassBank: JP002890
Synonym: SUCCINONITRILE
Structure: 310A31360A53554343494E4F4E495452494C452E6D6F6C0A20204368656D447261773038313231303036353732440A2020362020352020302020302020302020302020302020302020302020303939392056323030300A2020202D312E303331332020202D302E3335373220202020302E303030302043202020302020302020302020302020302020302020302020302020302020302020302020300A2020202D302E323036322020202D302E3335373220202020302E303030302043202020302020302020302020302020302020302020302020302020302020302020302020300A20202020302E3230363320202020302E3335373220202020302E303030302043202020302020302020302020302020302020302020302020302020302020302020302020300A20202020312E3033313320202020302E3335373220202020302E303030302043202020302020302020302020302020302020302020302020302020302020302020302020300A2020202D312E383536332020202D302E3335373220202020302E30303030204E202020302020302020302020302020302020302020302020302020302020302020302020300A20202020312E3835363320202020302E3335373220202020302E30303030204E202020302020302020302020302020302020302020302020302020302020302020302020300A2020312020322020312020302020202020200A2020322020332020312020302020202020200A2020332020342020312020302020202020200A2020312020352020332020302020202020200A2020342020362020332020302020202020200A4D2020454E44
Contributor: MASS SPECTROSCOPY SOC. OF JAPAN (MSSJ)
InstType: EI
InstName: Unknown
IoniMethod: EI
IonPolarity: pos
Date: 2010-10-09 19:48:36+02:00
Num Peaks: 43
16 33 18 337 26 198 27 64 29 76 31 84 32 223 38 42 39 87 40 526 
41 148 42 76 44 338 45 29 51 118 52 183 53 999 54 112 56 61 57 66 
64 44 67 70 69 22 70 22 73 56 77 25 79 403 80 174 99 77 100 75 
101 59 102 77 109 22 114 31 126 29 127 39 141 24 143 25 145 84 149 37 
150 32 165 38 261 22 
