Name: TETRAFLUORODIAZIRIDINE
MW: 115
Formula: CF4N2
Synonym: MassBank: JP002970
Synonym: TETRAFLUORODIAZIRIDINE
Structure: 310A31390A5445545241464C554F524F4449415A49524944494E452E6D6F6C0A20204368656D447261773038313231303037323132440A2020372020372020302020302020302020302020302020302020302020303939392056323030300A2020202D302E3336333520202020302E3434323920202020302E30303030204E202020302020302020302020302020302020302020302020302020302020302020302020300A20202020302E3335313020202020302E3033303420202020302E30303030204E202020302020302020302020302020302020302020302020302020302020302020302020300A2020202D302E333633352020202D302E3338323120202020302E303030302043202020302020302020302020302020302020302020302020302020302020302020302020300A2020202D302E3737363020202020312E3135373420202020302E303030302046202020302020302020302020302020302020302020302020302020302020302020302020300A20202020312E3137363020202020302E3033303420202020302E303030302046202020302020302020302020302020302020302020302020302020302020302020302020300A2020202D302E303831332020202D312E3135373420202020302E303030302046202020302020302020302020302020302020302020302020302020302020302020302020300A2020202D312E313736302020202D302E3532353420202020302E303030302046202020302020302020302020302020302020302020302020302020302020302020302020300A2020312020322020312020302020202020200A2020322020332020312020302020202020200A2020312020332020312020302020202020200A2020312020342020312020302020202020200A2020322020352020312020302020202020200A2020332020362020312020302020202020200A2020332020372020312020302020202020200A4D2020454E44
Contributor: SASAKI S, TOYOHASHI UNIV. OF TECH.
InstType: EI
InstName: Unknown
IoniMethod: EI
IonPolarity: pos
Date: 2010-10-09 19:48:36+02:00
Num Peaks: 10
19 30 20 30 31 340 33 11 45 60 50 999 52 30 64 2 69 270 83 180 
