Name: TETRAMETHYLAMMONIUM BROMIDE
MW: 153
Formula: C4H12BrN
Synonym: MassBank: JP004530
Synonym: TETRAMETHYLAMMONIUM BROMIDE
Structure: 310A31360A54455452414D455448594C414D4D4F4E49554D2042524F4D4944452E6D6F6C0A20204368656D447261773038313231303037333032440A2020362020342020302020302020302020302020302020302020302020303939392056323030300A20202020302E3030303020202020302E3030303020202020302E30303030204E202020302020332020302020302020302020302020302020302020302020302020302020300A20202020302E303030302020202D302E3832353020202020302E303030302043202020302020302020302020302020302020302020302020302020302020302020302020300A2020202D302E3832353020202020302E3030303020202020302E303030302043202020302020302020302020302020302020302020302020302020302020302020302020300A20202020302E3030303020202020302E3832353020202020302E303030302043202020302020302020302020302020302020302020302020302020302020302020302020300A20202020302E3832353020202020302E3030303020202020302E303030302043202020302020302020302020302020302020302020302020302020302020302020302020300A2020202D302E353833342020202D302E3538333420202020302E303030302042722020302020352020302020302020302020302020302020302020302020302020302020300A2020312020322020312020302020202020200A2020312020332020312020302020202020200A2020312020342020312020302020202020200A2020312020352020312020302020202020200A4D202043484720203220202031202020312020203620202D310A4D2020454E44
Contributor: ISA K, DEPT. OF CHEM., FAC. OF EDUC., FUKUI UNIV.
InstType: EI
InstName: JEOL JMS-01-SG
IoniMethod: _ENERGY 20 eV
IonPolarity: pos
Date: 2010-10-09 19:48:36+02:00
Num Peaks: 10
15 310 18 570 30 140 42 4 58 999 59 460 74 140 79 0 80 20 94 400 
