Name: MassBank: JP000718
MW: 256
Formula: C15H12O4
Synonym: MassBank: JP000718
Synonym: 5,7-DIHYDROXYFLAVANONE
Synonym: 5,7-DIHYDROXY-2-PHENYLCHROMAN-4-ONE
Structure: 352C372D4449485944524F5859464C4156414E4F4E452E6D6F6C0A20204368656D447261773034323331303032323832440A2031392032312020302020302020302020302020302020302020302020303939392056323030300A20202020302E3731343520202020302E3230363320202020302E303030302043202020302020302020302020302020302020302020302020302020302020302020302020300A20202020302E373134352020202D302E3631383720202020302E303030302043202020302020302020302020302020302020302020302020302020302020302020302020300A20202020302E303030302020202D312E3033313320202020302E303030302043202020302020302020302020302020302020302020302020302020302020302020302020300A20202020302E303030302020202D312E3835363320202020302E30303030204F202020302020302020302020302020302020302020302020302020302020302020302020300A2020202D302E373134352020202D302E3631383820202020302E303030302043202020302020302020302020302020302020302020302020302020302020302020302020300A2020202D312E343238392020202D312E3033313320202020302E303030302043202020302020302020302020302020302020302020302020302020302020302020302020300A2020202D322E313433342020202D302E3631383820202020302E303030302043202020302020302020302020302020302020302020302020302020302020302020302020300A2020202D322E3134333420202020302E3230363220202020302E303030302043202020302020302020302020302020302020302020302020302020302020302020302020300A2020202D312E3432383920202020302E3631383820202020302E303030302043202020302020302020302020302020302020302020302020302020302020302020302020300A2020202D302E3731343520202020302E3230363220202020302E303030302043202020302020302020302020302020302020302020302020302020302020302020302020300A20202020302E3030303020202020302E3631383820202020302E30303030204F202020302020302020302020302020302020302020302020302020302020302020302020300A20202020312E3432383920202020302E3631383820202020302E303030302043202020302020302020302020302020302020302020302020302020302020302020302020300A20202020312E3432383920202020312E3434333820202020302E303030302043202020302020302020302020302020302020302020302020302020302020302020302020300A20202020322E3134333420202020312E3835363320202020302E303030302043202020302020302020302020302020302020302020302020302020302020302020302020300A20202020322E3835373920202020312E3434333820202020302E303030302043202020302020302020302020302020302020302020302020302020302020302020302020300A20202020322E3835373920202020302E3631383820202020302E303030302043202020302020302020302020302020302020302020302020302020302020302020302020300A20202020322E3134333420202020302E3230363320202020302E303030302043202020302020302020302020302020302020302020302020302020302020302020302020300A2020202D322E3835373920202020302E3631383720202020302E30303030204F202020302020302020302020302020302020302020302020302020302020302020302020300A2020202D312E343238392020202D312E3835363320202020302E30303030204F202020302020302020302020302020302020302020302020302020302020302020302020300A2020312020322020312020302020202020200A2020322020332020312020302020202020200A2020332020342020322020302020202020200A2020332020352020312020302020202020200A2020352020362020312020302020202020200A2020362020372020322020302020202020200A2020372020382020312020302020202020200A2020382020392020322020302020202020200A2020392031302020312020302020202020200A2020352031302020322020302020202020200A2031302031312020312020302020202020200A2020312031312020312020302020202020200A2020312031322020312020302020202020200A2031322031332020312020302020202020200A2031332031342020322020302020202020200A2031342031352020312020302020202020200A2031352031362020322020302020202020200A2031362031372020312020302020202020200A2031322031372020322020302020202020200A2020382031382020312020302020202020200A2020362031392020312020302020202020200A4D2020454E44
Contributor: TAKATORI M, DEPT. OF CHEMISTRY, FAC. OF EDUC., FUKUSHIMA UNIV.
InstType: EI
InstName: JEOL JMS-06-H
IoniMethod: _ENERGY 75 eV
IonPolarity: pos
Date: 2010-10-09 19:48:36+02:00
Num Peaks: 51
32 35 38 27 39 175 41 7 42 65 43 83 50 113 51 23 52 59 53 71 
55 104 63 6 65 37 66 23 67 35 68 4 69 387 76 37 77 264 78 26 
79 32 91 112 95 32 96 22 102 55 103 267 104 324 105 8 107 40 111 112 
115 23 123 9 124 600 125 35 131 33 149 9 150 23 152 999 153 259 154 3 
178 43 179 867 180 75 213 3 227 21 228 28 238 65 239 4 255 507 256 920 
257 140 
