Name: 2-METHYL-7-PHENYLINDOLE
MW: 207
Formula: C15H13N
Synonym: MassBank: JP004362
Synonym: 2-METHYL-7-PHENYLINDOLE
Structure: 322D4D455448594C2D372D5048454E594C494E444F4C452E6D6F6C0A20204368656D447261773031323231303037323832440A2031362031382020302020302020302020302020302020302020302020303939392056323030300A2020202D302E343531382020202D302E3537303120202020302E30303030204E202020302020302020302020302020302020302020302020302020302020302020302020300A2020202D302E393336372020202D312E3233373520202020302E303030302043202020302020302020302020302020302020302020302020302020302020302020302020300A2020202D302E343531382020202D312E3930343920202020302E303030302043202020302020302020302020302020302020302020302020302020302020302020302020300A20202020302E333332382020202D312E3635303020202020302E303030302043202020302020302020302020302020302020302020302020302020302020302020302020300A20202020312E303437332020202D322E3036323520202020302E303030302043202020302020302020302020302020302020302020302020302020302020302020302020300A20202020312E373631372020202D312E3635303020202020302E303030302043202020302020302020302020302020302020302020302020302020302020302020302020300A20202020312E373631372020202D302E3832353020202020302E303030302043202020302020302020302020302020302020302020302020302020302020302020302020300A20202020312E303437332020202D302E3431323520202020302E303030302043202020302020302020302020302020302020302020302020302020302020302020302020300A20202020302E333332382020202D302E3832353020202020302E303030302043202020302020302020302020302020302020302020302020302020302020302020302020300A20202020312E3034373320202020302E3431323520202020302E303030302043202020302020302020302020302020302020302020302020302020302020302020302020300A20202020312E3736313720202020302E3832353020202020302E303030302043202020302020302020302020302020302020302020302020302020302020302020302020300A20202020312E3736313720202020312E3635303020202020302E303030302043202020302020302020302020302020302020302020302020302020302020302020302020300A20202020312E3034373320202020322E3036323520202020302E303030302043202020302020302020302020302020302020302020302020302020302020302020302020300A20202020302E3333323820202020312E3635303020202020302E303030302043202020302020302020302020302020302020302020302020302020302020302020302020300A20202020302E3333323820202020302E3832353020202020302E303030302043202020302020302020302020302020302020302020302020302020302020302020302020300A2020202D312E373631372020202D312E3233373520202020302E303030302043202020302020302020302020302020302020302020302020302020302020302020302020300A2020312020322020312020302020202020200A2020322020332020322020302020202020200A2020332020342020312020302020202020200A2020342020352020312020302020202020200A2020352020362020322020302020202020200A2020362020372020312020302020202020200A2020372020382020322020302020202020200A2020382020392020312020302020202020200A2020312020392020312020302020202020200A2020342020392020322020302020202020200A2031302031312020312020302020202020200A2031312031322020322020302020202020200A2031322031332020312020302020202020200A2031332031342020322020302020202020200A2031342031352020312020302020202020200A2031302031352020322020302020202020200A2020382031302020312020302020202020200A2020322031362020312020302020202020200A4D2020454E44
Contributor: SASAKI S, TOYOHASHI UNIV. OF TECH.
InstType: EI
InstName: MX-1303
IoniMethod: _ENERGY 50 eV
IonPolarity: pos
Date: 2010-10-09 19:48:36+02:00
Num Peaks: 67
29 14 30 83 39 28 41 3 42 17 43 25 50 14 51 3 55 15 56 12 
57 18 63 3 74 11 75 24 75.5 12 76 4 77 53 78 13 82 13 82.5 1 
87 12 88 48 88.5 12 89 4 89.5 34 90 35 90.5 41 91 2 95.5 44 96 20 
101.5 39 102 12 102.5 130 103 46 104 19 115 1 127 10 128 16 130 18 139 2 
140 11 150 11 151 22 152 3 163 24 164 26 165 63 166 2 167 44 176 29 
177 20 178 5 179 16 180 12 190 23 191 9 192 35 199 11 200 18 201 2 
202 34 203 28 204 185 205 9 206 707 207 999 208 166 
