Name: DIMETHYL FUMALATE
CAS: 624-49-7
MW: 144
Formula: C6H8O4
Synonym: MassBank: JP008246
Synonym: DIMETHYL FUMALATE
Structure: 303439355F44494D455448594C2046554D414C4154452E6D6F6C0A20204368656D447261773130313931303231343732440A2031302020392020302020302020302020302020302020302020302020303939392056323030300A2020202D322E353030362020202D302E3230363220202020302E303030302043202020302020302020302020302020302020302020302020302020302020302020302020300A2020202D312E3738363220202020302E3230363220202020302E30303030204F202020302020302020302020302020302020302020302020302020302020302020302020300A2020202D312E303731372020202D302E3230363220202020302E303030302043202020302020302020302020302020302020302020302020302020302020302020302020300A2020202D302E3335373220202020302E3230363220202020302E303030302043202020302020302020302020302020302020302020302020302020302020302020302020300A20202020302E333537322020202D302E3230363220202020302E303030302043202020302020302020302020302020302020302020302020302020302020302020302020300A20202020312E3037313720202020302E3230363220202020302E303030302043202020302020302020302020302020302020302020302020302020302020302020302020300A20202020312E373836322020202D302E3230363220202020302E30303030204F202020302020302020302020302020302020302020302020302020302020302020302020300A20202020322E3530303620202020302E3230363220202020302E303030302043202020302020302020302020302020302020302020302020302020302020302020302020300A2020202D312E303731372020202D312E3033313320202020302E30303030204F202020302020302020302020302020302020302020302020302020302020302020302020300A20202020312E3037313720202020312E3033313320202020302E30303030204F202020302020302020302020302020302020302020302020302020302020302020302020300A2020312020322020312020302020202020200A2020322020332020312020302020202020200A2020332020342020312020302020202020200A2020342020352020322020302020202020200A2020352020362020312020302020202020200A2020362020372020312020302020202020200A2020372020382020312020302020202020200A2020332020392020322020302020202020200A2020362031302020322020302020202020200A4D2020454E44
Contributor: UBE SCIENTIFIC ANALYSIS LABORATORY
InstType: EI
InstName: HITACHI M-60
IoniMethod: _ENERGY 70 eV
IonPolarity: pos
Date: 2010-10-09 19:48:36+02:00
Num Peaks: 28
14 17 15 393 25 13 26 158 27 45 28 10 29 93 30 18 31 24 39 50 
41 39 42 16 45 14 53 148 54 111 55 32 59 310 60 7 81 42 82 62 
85 485 86 24 99 20 100 25 113 999 114 195 115 19 144 26 
