Name: 2-NITRODIPHENYL
MW: 199
Formula: C12H9NO2
Synonym: MassBank: JP001618
Synonym: 2-NITRODIPHENYL
Structure: 322D4E4954524F44495048454E594C2E6D6F6C0A20204368656D447261773032323131303132303032440A2031352031362020302020302020302020302020302020302020302020303939392056323030300A2020202D312E343238392020202D302E3832353020202020302E303030302043202020302020302020302020302020302020302020302020302020302020302020302020300A2020202D312E343238392020202D312E3635303020202020302E303030302043202020302020302020302020302020302020302020302020302020302020302020302020300A2020202D302E373134352020202D322E3036323520202020302E303030302043202020302020302020302020302020302020302020302020302020302020302020302020300A20202020302E303030302020202D312E3635303020202020302E303030302043202020302020302020302020302020302020302020302020302020302020302020302020300A20202020302E303030302020202D302E3832353020202020302E303030302043202020302020302020302020302020302020302020302020302020302020302020302020300A2020202D302E373134352020202D302E3431323520202020302E303030302043202020302020302020302020302020302020302020302020302020302020302020302020300A2020202D302E3731343520202020302E3431323520202020302E303030302043202020302020302020302020302020302020302020302020302020302020302020302020300A20202020302E373134352020202D302E3431323520202020302E30303030204E202020302020332020302020302020302020302020302020302020302020302020302020300A20202020302E3030303020202020302E3832353020202020302E303030302043202020302020302020302020302020302020302020302020302020302020302020302020300A20202020302E3030303020202020312E3635303020202020302E303030302043202020302020302020302020302020302020302020302020302020302020302020302020300A2020202D302E3731343520202020322E3036323520202020302E303030302043202020302020302020302020302020302020302020302020302020302020302020302020300A2020202D312E3432383920202020312E3635303020202020302E303030302043202020302020302020302020302020302020302020302020302020302020302020302020300A2020202D312E3432383920202020302E3832353020202020302E303030302043202020302020302020302020302020302020302020302020302020302020302020302020300A20202020312E343238392020202D302E3832353020202020302E30303030204F202020302020352020302020302020302020302020302020302020302020302020302020300A20202020302E3731343520202020302E3431323520202020302E30303030204F202020302020302020302020302020302020302020302020302020302020302020302020300A2020312020322020322020302020202020200A2020322020332020312020302020202020200A2020332020342020322020302020202020200A2020342020352020312020302020202020200A2020352020362020322020302020202020200A2020362020312020312020302020202020200A2020362020372020312020302020202020200A2020352020382020312020302020202020200A2020372020392020322020302020202020200A2020392031302020312020302020202020200A2031302031312020322020302020202020200A2031312031322020312020302020202020200A2031322031332020322020302020202020200A2031332020372020312020302020202020200A2020382031342020312020302020202020200A2020382031352020322020302020202020200A4D202043484720203220202038202020312020313420202D310A4D2020454E44
Contributor: KOGA M, UNIV. OF OCCUPATIONAL AND ENVIRONMENTAL HEALTH
InstType: EI
InstName: VARIAN MAT-44
IoniMethod: _ENERGY 70 eV
IonPolarity: pos
Date: 2010-10-09 19:48:36+02:00
Num Peaks: 93
40 62 41 37 43 21 44 30 46 61 49 38 50 535 51 693 52 157 53 118 
54 11 55 46 57 27 58 44 59 17 61 70 62 249 63 582 64 112 65 97 
66 14 68 19 69 18 70 24 72 11 73 42 74 318 75 406 76 588 77 345 
78 66 79 11 81 24 85 34 86 106 87 150 88 69 89 130 90 93 91 57 
92 28 98 84 99 63 100 43 101 93 102 126 103 45 104 47 110 20 111 22 
113 68 114 83 115 976 116 303 117 244 118 29 122 12 125 42 126 239 127 213 
128 156 129 163 130 64 138 16 139 168 140 79 141 242 142 262 143 439 144 112 
145 20 146 32 149 20 150 180 151 461 152 999 153 198 154 259 155 44 156 14 
166 54 167 23 168 92 169 65 170 209 171 504 172 71 181 28 182 336 183 59 
198 56 199 276 200 41 
