Name: MassBank: JP007963
MW: 216
Formula: C15H20O
Synonym: MassBank: JP007963
Synonym: 5-TERT-BUTYL-3,3-DIMETHYL-1-INDANONE
Structure: 352D544552542D425554594C2D332C332D44494D455448594C2D312D494E44414E4F4E452E6D6F6C0A20204368656D447261773034323331303037343932440A2031362031372020302020302020302020302020302020302020302020303939392056323030300A20202020312E3734363920202020302E3433373020202020302E303030302043202020302020302020302020302020302020302020302020302020302020302020302020300A20202020312E383333322020202D302E3338333520202020302E303030302043202020302020302020302020302020302020302020302020302020302020302020302020300A20202020312E303739352020202D302E3731393020202020302E303030302043202020302020302020302020302020302020302020302020302020302020302020302020300A20202020302E353237352020202D302E3130363020202020302E303030302043202020302020302020302020302020302020302020302020302020302020302020302020300A2020202D302E323937352020202D302E3130363020202020302E303030302043202020302020302020302020302020302020302020302020302020302020302020302020300A2020202D302E3731303020202020302E3630383520202020302E303030302043202020302020302020302020302020302020302020302020302020302020302020302020300A2020202D302E3239373520202020312E3332333020202020302E303030302043202020302020302020302020302020302020302020302020302020302020302020302020300A20202020302E3532373520202020312E3332333020202020302E303030302043202020302020302020302020302020302020302020302020302020302020302020302020300A20202020302E3934303020202020302E3630383520202020302E303030302043202020302020302020302020302020302020302020302020302020302020302020302020300A20202020322E3336303020202020302E3938393020202020302E30303030204F202020302020302020302020302020302020302020302020302020302020302020302020300A20202020302E343132312020202D312E3230343020202020302E303030302043202020302020302020302020302020302020302020302020302020302020302020302020300A20202020312E343932302020202D312E3433333520202020302E303030302043202020302020302020302020302020302020302020302020302020302020302020302020300A2020202D312E3533353020202020302E3630383520202020302E303030302043202020302020302020302020302020302020302020302020302020302020302020302020300A2020202D312E353335302020202D302E3231363520202020302E303030302043202020302020302020302020302020302020302020302020302020302020302020302020300A2020202D322E3336303020202020302E3630383520202020302E303030302043202020302020302020302020302020302020302020302020302020302020302020302020300A2020202D312E3533353020202020312E3433333520202020302E303030302043202020302020302020302020302020302020302020302020302020302020302020302020300A2020312020322020312020302020202020200A2020322020332020312020302020202020200A2020332020342020312020302020202020200A2020342020352020312020302020202020200A2020352020362020322020302020202020200A2020362020372020312020302020202020200A2020372020382020322020302020202020200A2020382020392020312020302020202020200A2020312020392020312020302020202020200A2020342020392020322020302020202020200A2020312031302020322020302020202020200A2020332031312020312020312020202020200A2020332031322020312020362020202020200A2031332031342020312020302020202020200A2031332031362020312020302020202020200A2031332031352020312020302020202020200A2020362031332020312020302020202020200A4D2020454E44
Contributor: MASS SPECTROSCOPY SOC. OF JAPAN (MSSJ)
InstType: EI
InstName: HITACHI M-80
IoniMethod: _ENERGY 20 eV
IonPolarity: pos
Date: 2010-10-09 19:48:36+02:00
Num Peaks: 31
14 11 15 62 27 57 29 6 39 70 41 118 51 41 57 7 64 35 65 33 
77 40 79 7 91 71 93 34 115 109 117 4 128 70 129 47 143 31 145 5 
158 14 159 107 160 18 173 5 185 18 187 34 188 7 201 999 202 190 216 203 
217 33 
