Name: MassBank: JP008095
MW: 331
Formula: C22H37NO
Synonym: MassBank: JP008095
Synonym: N-OCTADECA-9,12,15-TRIENOYLPYRROLIDINE
Structure: 4E2D4F435441444543412D392C31322C31352D545249454E4F594C505952524F4C4944494E452E6D6F6C0A20204368656D447261773038313231303032313832440A2032342032342020302020302020302020302020302020302020302020303939392056323030300A20202020352E3432303220202020302E3332393020202020302E30303030204E202020302020302020302020302020302020302020302020302020302020302020302020300A20202020352E3530363420202020312E3134393520202020302E303030302043202020302020302020302020302020302020302020302020302020302020302020302020300A20202020362E3331333420202020312E3332313020202020302E303030302043202020302020302020302020302020302020302020302020302020302020302020302020300A20202020362E3732353920202020302E3630363520202020302E303030302043202020302020302020302020302020302020302020302020302020302020302020302020300A20202020362E313733382020202D302E3030363620202020302E303030302043202020302020302020302020302020302020302020302020302020302020302020302020300A20202020342E373035372020202D302E3038333520202020302E303030302043202020302020302020302020302020302020302020302020302020302020302020302020300A20202020342E373035372020202D302E3930383520202020302E303030302043202020302020302020302020302020302020302020302020302020302020302020302020300A20202020332E393931322020202D312E3332313020202020302E303030302043202020302020302020302020302020302020302020302020302020302020302020302020300A20202020332E323736372020202D302E3930383520202020302E303030302043202020302020302020302020302020302020302020302020302020302020302020302020300A20202020322E353632332020202D312E3332313020202020302E303030302043202020302020302020302020302020302020302020302020302020302020302020302020300A20202020312E383437382020202D302E3930383520202020302E303030302043202020302020302020302020302020302020302020302020302020302020302020302020300A20202020312E313333332020202D312E3332313020202020302E303030302043202020302020302020302020302020302020302020302020302020302020302020302020300A20202020302E343138392020202D302E3930383520202020302E303030302043202020302020302020302020302020302020302020302020302020302020302020302020300A2020202D302E323935362020202D312E3332313020202020302E303030302043202020302020302020302020302020302020302020302020302020302020302020302020300A2020202D312E303130312020202D302E3930383520202020302E303030302043202020302020302020302020302020302020302020302020302020302020302020302020300A2020202D312E373234362020202D312E3332313020202020302E303030302043202020302020302020302020302020302020302020302020302020302020302020302020300A2020202D322E343339302020202D302E3930383520202020302E303030302043202020302020302020302020302020302020302020302020302020302020302020302020300A2020202D332E313533352020202D312E3332313020202020302E303030302043202020302020302020302020302020302020302020302020302020302020302020302020300A2020202D332E383638302020202D302E3930383520202020302E303030302043202020302020302020302020302020302020302020302020302020302020302020302020300A2020202D342E353832342020202D312E3332313020202020302E303030302043202020302020302020302020302020302020302020302020302020302020302020302020300A2020202D352E323936392020202D302E3930383520202020302E303030302043202020302020302020302020302020302020302020302020302020302020302020302020300A2020202D362E303131342020202D312E3332313020202020302E303030302043202020302020302020302020302020302020302020302020302020302020302020302020300A2020202D362E373235392020202D302E3930383520202020302E303030302043202020302020302020302020302020302020302020302020302020302020302020302020300A20202020332E3939313220202020302E3332393020202020302E30303030204F202020302020302020302020302020302020302020302020302020302020302020302020300A2020312020322020312020302020202020200A2020322020332020312020302020202020200A2020332020342020312020302020202020200A2020342020352020312020302020202020200A2020312020352020312020302020202020200A2020362020372020312020302020202020200A2020372020382020312020302020202020200A2020382020392020312020302020202020200A2020392031302020312020302020202020200A2031302031312020312020302020202020200A2031312031322020312020302020202020200A2031322031332020312020302020202020200A2031332031342020312020302020202020200A2031342031352020322020302020202020200A2031352031362020312020302020202020200A2031362031372020312020302020202020200A2031372031382020322020302020202020200A2031382031392020312020302020202020200A2031392032302020312020302020202020200A2032302032312020322020302020202020200A2032312032322020312020302020202020200A2032322032332020312020302020202020200A2020362032342020322020302020202020200A2020312020362020312020302020202020200A4D2020454E44
Contributor: YAMAMOTO M, DEP. CHEMISTRY, FAC. SCIENCE, NARA WOMEN'S UNIV.
InstType: EI
InstName: JEOL JMS-HX-100
IoniMethod: _ENERGY 70 eV
IonPolarity: pos
Date: 2010-10-09 19:48:36+02:00
Num Peaks: 197
38 2 39 35 40 4 41 215 42 28 43 137 44 5 45 1 50 2 51 6 
52 5 53 41 54 31 55 337 56 71 57 15 58 3 59 3 60 1 63 2 
65 24 66 23 67 193 68 39 69 77 70 495 71 116 72 454 73 22 77 72 
78 31 79 214 80 66 81 90 82 16 83 15 84 12 85 109 86 8 87 2 
91 88 92 20 93 102 94 33 95 101 96 17 97 11 98 268 99 37 100 9 
103 5 104 4 105 37 106 14 107 47 108 44 109 26 110 10 111 7 112 35 
113 999 114 96 115 9 116 3 117 9 118 4 119 18 120 7 121 28 122 12 
123 8 124 8 125 4 126 667 127 142 128 13 129 4 131 7 132 2 133 13 
134 6 135 20 136 10 137 5 138 9 139 9 140 109 141 27 142 3 143 2 
145 4 146 2 147 12 148 5 149 17 150 10 151 4 152 23 153 10 154 63 
155 13 156 2 159 3 161 7 162 4 163 10 164 6 165 4 166 24 167 8 
168 99 169 17 170 2 171 2 173 4 175 6 176 5 177 5 178 5 179 4 
180 35 181 9 182 116 183 18 184 2 185 2 187 2 189 4 190 2 191 5 
192 9 193 5 194 31 195 7 196 33 197 5 203 3 204 5 205 3 206 17 
207 3 208 36 209 8 210 24 211 5 217 2 218 5 219 3 220 26 221 8 
222 82 223 21 224 57 225 11 231 2 232 12 233 4 234 37 235 8 236 51 
237 19 238 15 239 4 246 16 247 4 248 28 249 10 250 27 251 13 252 7 
260 23 261 8 262 89 263 21 264 11 265 2 274 25 275 14 276 33 277 11 
278 2 288 39 289 10 290 4 291 2 302 30 303 7 316 16 317 4 327 2 
328 2 329 8 330 82 331 446 332 121 333 20 334 3 
