Name: MassBank: JP003649
MW: 233
Formula: C7H4F6S
Synonym: MassBank: JP003649
Synonym: 2,3-BIS(TRIFLUOROMETHYL)-5-METHYLTHIOPHENE
Structure: 322C332D42495328545249464C554F524F4D455448594C292D352D4D455448594C5448494F5048454E452E6D6F6C0A20204368656D447261773132323030393131303232440A2031342031342020302020302020302020302020302020302020302020303939392056323030300A2020202D302E3134333420202020302E3730323620202020302E303030302043202020302020302020302020302020302020302020302020302020302020302020302020300A20202020302E3334313520202020302E3033343420202020302E303030302043202020302020302020302020302020302020302020302020302020302020302020302020300A20202020312E3132363120202020302E3238393420202020302E303030302043202020302020302020302020302020302020302020302020302020302020302020302020300A20202020312E3132363120202020312E3131343420202020302E303030302043202020302020302020302020302020302020302020302020302020302020302020302020300A20202020302E3334323620202020312E3336383420202020302E303030302053202020302020302020302020302020302020302020302020302020302020302020302020300A20202020312E3739333420202020312E3539393520202020302E303030302043202020302020302020302020302020302020302020302020302020302020302020302020300A20202020302E323236372020202D302E3738323520202020302E303030302043202020302020302020302020302020302020302020302020302020302020302020302020300A20202020312E303433372020202D302E3839373420202020302E303030302046202020302020302020302020302020302020302020302020302020302020302020302020300A2020202D302E353930332020202D302E3636373720202020302E303030302046202020302020302020302020302020302020302020302020302020302020302020302020300A20202020302E313131392020202D312E3539393520202020302E303030302046202020302020302020302020302020302020302020302020302020302020302020302020300A2020202D302E3936383420202020302E3730323620202020302E303030302043202020302020302020302020302020302020302020302020302020302020302020302020300A2020202D302E3936383420202020312E3532373620202020302E303030302046202020302020302020302020302020302020302020302020302020302020302020302020300A2020202D312E3739333420202020302E3730323620202020302E303030302046202020302020302020302020302020302020302020302020302020302020302020302020300A2020202D302E393638342020202D302E3132323420202020302E303030302046202020302020302020302020302020302020302020302020302020302020302020302020300A2020312020322020322020302020202020200A2020322020332020312020302020202020200A2020332020342020322020302020202020200A2020342020352020312020302020202020200A2020312020352020312020302020202020200A2020342020362020312020302020202020200A2020372020382020312020312020202020200A2020372020392020312020312020202020200A2020372031302020312020302020202020200A2020322020372020312020302020202020200A2031312031322020312020312020202020200A2031312031332020312020302020202020200A2031312031342020312020312020202020200A2020312031312020312020302020202020200A4D2020454E44
Contributor: SASAKI S, TOYOHASHI UNIV. OF TECH.
InstType: EI
InstName: Unknown
IoniMethod: EI
IonPolarity: pos
Date: 2010-10-09 19:48:36+02:00
Num Peaks: 24
31 30 32 77 39 66 44 6 45 143 57 51 59 76 63 1 69 187 75 51 
93 50 95 1 101 77 113 77 115 121 121 1 145 49 165 999 166 72 184 14 
215 297 233 275 234 570 235 50 
