Name: 3-METHYL-1-PENTEN-4-YNE-3-OL
MW: 96
Formula: C6H8O
Synonym: MassBank: JP009983
Synonym: 3-METHYL-1-PENTEN-4-YNE-3-OL
Structure: 310A31380A332D4D455448594C2D312D50454E54454E2D342D594E452D332D4F4C2E6D6F6C0A20204368656D447261773032323231303233323332440A2020372020362020302020302020302020302020302020302020302020303939392056323030300A20202020312E333333322020202D302E3635393220202020302E303030302043202020302020302020302020302020302020302020302020302020302020302020302020300A20202020302E353038322020202D302E3635393220202020302E303030302043202020302020302020302020302020302020302020302020302020302020302020302020300A20202020302E3039353720202020302E3035353320202020302E303030302043202020302020302020302020302020302020302020302020302020302020302020302020300A2020202D302E363138382020202D302E3335373220202020302E303030302043202020302020302020302020302020302020302020302020302020302020302020302020300A2020202D312E333333322020202D302E3736393720202020302E303030302043202020302020302020302020302020302020302020302020302020302020302020302020300A2020202D302E3331363820202020302E3736393720202020302E30303030204F202020302020302020302020302020302020302020302020302020302020302020302020300A20202020302E3831303220202020302E3436373820202020302E303030302043202020302020302020302020302020302020302020302020302020302020302020302020300A2020312020322020322020302020202020200A2020322020332020312020302020202020200A2020332020342020312020302020202020200A2020342020352020332020302020202020200A2020332020362020312020302020202020200A2020332020372020312020302020202020200A4D2020454E44
Contributor: KURARAY CO., LTD.
InstType: EI
InstName: JEOL JMS-D-300
IoniMethod: _ENERGY 70 eV
IonPolarity: pos
Date: 2010-10-09 19:48:36+02:00
Num Peaks: 33
26 33 27 129 28 302 29 2 31 12 32 56 37 13 38 2 39 75 41 40 
42 13 43 39 44 12 50 62 51 135 52 5 53 288 54 26 55 113 61 1 
62 13 63 23 67 57 68 2 69 184 70 18 77 77 78 3 79 28 81 999 
82 57 95 13 96 13 
