Name: MassBank: JP009781
MW: 168
Formula: C11H20O
Synonym: MassBank: JP009781
Synonym: 2,6-DIMETHYL-5-(1-HYDROXY)ETHYL-2,5-HEPTADIENE
Synonym: 6-METHYL-3-(1-METHYLETHYLIDENE)HEPT-5-EN-2-OL
Structure: 322C362D44494D455448594C2D352D28312D485944524F585929455448594C2D322C352D48455054414449454E452E6D6F6C0A20204368656D447261773132323130393034333232440A2031322031312020302020302020302020302020302020302020302020303939392056323030300A20202020322E3134333420202020302E3030303020202020302E303030302043202020302020302020302020302020302020302020302020302020302020302020302020300A20202020312E343238392020202D302E3431323520202020302E303030302043202020302020302020302020302020302020302020302020302020302020302020302020300A20202020302E3731343520202020302E3030303020202020302E303030302043202020302020302020302020302020302020302020302020302020302020302020302020300A2020202D302E303030302020202D302E3431323520202020302E303030302043202020302020302020302020302020302020302020302020302020302020302020302020300A2020202D302E3731343520202020302E3030303020202020302E303030302043202020302020302020302020302020302020302020302020302020302020302020302020300A2020202D302E3731343520202020302E3832353020202020302E303030302043202020302020302020302020302020302020302020302020302020302020302020302020300A2020202D312E3432383920202020312E3233373520202020302E303030302043202020302020302020302020302020302020302020302020302020302020302020302020300A2020202D312E343238392020202D302E3431323520202020302E303030302043202020302020302020302020302020302020302020302020302020302020302020302020300A2020202D322E3134333420202020302E3030303020202020302E303030302043202020302020302020302020302020302020302020302020302020302020302020302020300A2020202D312E343238392020202D312E3233373520202020302E30303030204F202020302020302020302020302020302020302020302020302020302020302020302020300A20202020302E3030303020202020312E3233373520202020302E303030302043202020302020302020302020302020302020302020302020302020302020302020302020300A20202020312E343238392020202D312E3233373520202020302E303030302043202020302020302020302020302020302020302020302020302020302020302020302020300A2020312020322020312020302020202020200A2020322020332020322020302020202020200A2020332020342020312020302020202020200A2020342020352020312020302020202020200A2020352020362020322020302020202020200A2020362020372020312020302020202020200A2020382020392020312020302020202020200A2020382031302020312020302020202020200A2020352020382020312020302020202020200A2020362031312020312020302020202020200A2020322031322020312020302020202020200A4D2020454E44
Contributor: KURARAY CO., LTD.
InstType: EI
InstName: JEOL JMS-D-300
IoniMethod: _ENERGY 70 eV
IonPolarity: pos
Date: 2010-10-09 19:48:36+02:00
Num Peaks: 59
27 84 28 24 29 75 39 11 40 25 41 411 42 26 43 61 44 28 45 103 
51 29 53 11 55 178 56 26 57 62 59 6 65 50 67 166 68 38 69 33 
70 31 71 26 77 81 79 16 80 19 81 297 82 32 83 11 85 28 91 167 
92 24 93 14 94 21 95 110 96 25 97 25 98 27 99 193 105 75 106 2 
107 393 108 50 109 86 111 4 112 75 113 23 119 138 120 7 121 70 123 97 
124 20 125 6 132 18 135 999 136 117 150 38 151 58 153 260 154 31 
