Name: MassBank: JP009939
MW: 284
Formula: C19H24O2
Synonym: MassBank: JP009939
Synonym: ANDROSTA-4,6-DIENE-3,17-DIONE
Structure: 414E44524F5354412D342C362D4449454E452D332C31372D44494F4E452E6D6F6C0A20204368656D447261773038313331303132313232440A2032342032372020302020302020302020302020302020302020302020303939392056323030300A2020202D322E303633372020202D312E3334343820202020302E303030302043202020302020302020302020302020302020302020302020302020302020302020302020300A2020202D322E303633372020202D302E3531393820202020302E303030302043202020302020302020302020302020302020302020302020302020302020302020302020300A2020202D312E333439322020202D302E3130373320202020302E303030302043202020302020302020302020302020302020302020302020302020302020302020302020300A2020202D312E333439322020202D312E3735373320202020302E303030302043202020302020302020302020302020302020302020302020302020302020302020302020300A2020202D302E363334382020202D312E3334343820202020302E303030302043202020302020302020302020302020302020302020302020302020302020302020302020300A20202020302E303739372020202D312E3735373320202020302E303030302043202020302020302020302020302020302020302020302020302020302020302020302020300A20202020302E373934322020202D312E3334343820202020302E303030302043202020302020302020302020302020302020302020302020302020302020302020302020300A20202020302E373934322020202D302E3531393820202020302E303030302043202020302020302020302020302020302020302020302020302020302020302020302020300A20202020312E353038362020202D302E3130373320202020302E303030302043202020302020302020302020302020302020302020302020302020302020302020302020300A20202020322E323933332020202D302E3336323220202020302E303030302043202020302020302020302020302020302020302020302020302020302020302020302020300A20202020322E3737383220202020302E3330353220202020302E303030302043202020302020302020302020302020302020302020302020302020302020302020302020300A20202020322E3239333320202020302E3937323720202020302E303030302043202020302020302020302020302020302020302020302020302020302020302020302020300A20202020312E3530383620202020302E3731373720202020302E303030302043202020302020302020302020302020302020302020302020302020302020302020302020300A20202020312E3530383620202020312E3534323720202020302E303030302043202020302020302020302020302020302020302020302020302020302020302020302020300A20202020302E3739343220202020312E3133303220202020302E303030302043202020302020302020302020302020302020302020302020302020302020302020302020300A20202020302E3037393720202020302E3731373720202020302E303030302043202020302020302020302020302020302020302020302020302020302020302020302020300A20202020302E303739372020202D302E3130373320202020302E303030302043202020302020302020302020302020302020302020302020302020302020302020302020300A2020202D302E363334382020202D302E3531393820202020302E303030302043202020302020302020302020302020302020302020302020302020302020302020302020300A2020202D302E3633343820202020302E3330353220202020302E303030302043202020302020302020302020302020302020302020302020302020302020302020302020300A2020202D322E373738322020202D312E3735373320202020302E30303030204F202020302020302020302020302020302020302020302020302020302020302020302020300A20202020322E3534383220202020312E3735373320202020302E30303030204F202020302020302020302020302020302020302020302020302020302020302020302020300A20202020302E303739372020202D302E3933323320202020302E303030302048202020302020302020302020302020302020302020302020302020302020302020302020300A20202020312E333737352020202D312E3130333120202020302E303030302048202020302020302020302020302020302020302020302020302020302020302020302020300A20202020302E363833362020202D302E3130373320202020302E303030302048202020302020302020302020302020302020302020302020302020302020302020302020300A2020312020322020312020302020202020200A2020322020332020312020302020202020200A2020312020342020312020302020202020200A2020342020352020322020302020202020200A2020352020362020312020302020202020200A2020362020372020322020302020202020200A2020372020382020312020302020202020200A2020382020392020312020302020202020200A2020392031302020312020302020202020200A2031302031312020312020302020202020200A2031312031322020312020302020202020200A2031322031332020312020302020202020200A2020392031332020312020302020202020200A2031332031342020312020312020202020200A2031332031352020312020302020202020200A2031352031362020312020302020202020200A2031362031372020312020302020202020200A2020382031372020312020302020202020200A2031372031382020312020302020202020200A2020332031382020312020302020202020200A2020352031382020312020302020202020200A2031382031392020312020312020202020200A2020312032302020322020302020202020200A2031322032312020322020302020202020200A2031372032322020312020362020202020200A2020382032332020312020312020202020200A2020392032342020312020362020202020200A4D2020454E44
Contributor: KURARAY CO., LTD.
InstType: EI
InstName: JEOL JMS-D-300
IoniMethod: _ENERGY 70 eV
IonPolarity: pos
Date: 2010-10-09 19:48:36+02:00
Num Peaks: 137
27 29 28 9 29 39 39 4 41 109 53 54 55 115 65 4 67 93 69 19 
77 90 78 4 79 129 80 22 81 85 82 2 83 36 85 23 91 174 92 4 
93 98 94 31 95 76 96 3 97 98 98 23 103 31 104 2 105 186 106 62 
107 310 108 6 109 78 110 42 111 22 115 7 116 31 117 87 118 42 119 8 
120 33 121 115 122 71 123 6 124 129 125 20 127 20 128 6 129 78 130 28 
131 126 132 6 133 78 134 59 135 47 136 999 137 136 141 39 142 31 143 7 
144 47 145 84 146 47 147 8 148 121 149 388 150 82 151 2 153 22 155 47 
156 20 157 7 158 42 159 67 160 62 161 7 162 78 163 36 167 11 169 3 
170 26 171 79 172 45 173 5 174 34 175 28 181 22 182 2 183 47 184 39 
185 70 186 4 187 31 188 31 195 31 196 2 197 33 198 33 199 64 200 3 
201 39 207 19 209 47 210 2 211 31 212 28 213 57 214 3 215 22 222 20 
223 26 224 2 225 19 226 16 227 116 228 5 229 28 233 17 240 250 241 9 
242 60 243 17 244 87 245 2 251 68 255 14 256 42 257 1 266 90 267 28 
269 81 270 2 284 651 285 163 286 144 287 3 288 26 
