Name: TETRAKIS(PENTAFLUOROPHENYL)-SILANE
MW: 695
Formula: C24F20Si
Synonym: MassBank: JP003061
Synonym: TETRAKIS(PENTAFLUOROPHENYL)-SILANE
Structure: 54455452414B49532850454E5441464C554F524F5048454E594C292D53494C414E452E6D6F6C0A20204368656D447261773038313231303037323732440A2034352034382020302020302020302020302020302020302020302020303939392056323030300A20202020302E3431383120202020302E3033393820202020302E303030302053692020302020302020302020302020302020302020302020302020302020302020302020300A2020202D302E3330303820202020312E3730363320202020302E303030302043202020302020302020302020302020302020302020302020302020302020302020302020300A20202020302E3139313920202020322E3336383120202020302E303030302043202020302020302020302020302020302020302020302020302020302020302020302020300A2020202D302E3133343920202020332E3132353620202020302E303030302043202020302020302020302020302020302020302020302020302020302020302020302020300A2020202D302E3935343320202020332E3232313420202020302E303030302043202020302020302020302020302020302020302020302020302020302020302020302020300A2020202D312E3434373020202020322E3535393620202020302E303030302043202020302020302020302020302020302020302020302020302020302020302020302020300A2020202D312E3132303220202020312E3830323120202020302E303030302043202020302020302020302020302020302020302020302020302020302020302020302020300A20202020312E3031313320202020322E3237323320202020302E303030302046202020302020302020302020302020302020302020302020302020302020302020302020300A20202020302E3335373820202020332E3738373420202020302E303030302046202020302020302020302020302020302020302020302020302020302020302020302020300A2020202D312E3238313120202020332E3937383920202020302E303030302046202020302020302020302020302020302020302020302020302020302020302020302020300A2020202D322E3236363420202020322E3635353420202020302E303030302046202020302020302020302020302020302020302020302020302020302020302020302020300A2020202D312E3631323820202020312E3134303420202020302E303030302046202020302020302020302020302020302020302020302020302020302020302020302020300A20202020312E3731383120202020302E3236393020202020302E303030302043202020302020302020302020302020302020302020302020302020302020302020302020300A20202020312E3836313320202020312E3038313520202020302E303030302043202020302020302020302020302020302020302020302020302020302020302020302020300A20202020322E3633363620202020312E3336333620202020302E303030302043202020302020302020302020302020302020302020302020302020302020302020302020300A20202020332E3236383620202020302E3833333320202020302E303030302043202020302020302020302020302020302020302020302020302020302020302020302020300A20202020332E3132353320202020302E3032303920202020302E303030302043202020302020302020302020302020302020302020302020302020302020302020302020300A20202020322E333530312020202D302E3236313320202020302E303030302043202020302020302020302020302020302020302020302020302020302020302020302020300A20202020312E3232393320202020312E3631313820202020302E303030302046202020302020302020302020302020302020302020302020302020302020302020302020300A20202020322E3737393820202020322E3137363120202020302E303030302046202020302020302020302020302020302020302020302020302020302020302020302020300A20202020342E3034333820202020312E3131353520202020302E303030302046202020302020302020302020302020302020302020302020302020302020302020302020300A20202020332E373537332020202D302E3530393420202020302E303030302046202020302020302020302020302020302020302020302020302020302020302020302020300A20202020322E323036382020202D312E3037333820202020302E303030302046202020302020302020302020302020302020302020302020302020302020302020302020300A20202020302E363930332020202D312E3530333920202020302E303030302043202020302020302020302020302020302020302020302020302020302020302020302020300A2020202D302E303234322020202D312E3931363420202020302E303030302043202020302020302020302020302020302020302020302020302020302020302020302020300A2020202D302E303234322020202D322E3734313420202020302E303030302043202020302020302020302020302020302020302020302020302020302020302020302020300A20202020302E363930332020202D332E3135333920202020302E303030302043202020302020302020302020302020302020302020302020302020302020302020302020300A20202020312E343034382020202D322E3734313420202020302E303030302043202020302020302020302020302020302020302020302020302020302020302020302020300A20202020312E343034382020202D312E3931363420202020302E303030302043202020302020302020302020302020302020302020302020302020302020302020302020300A2020202D302E373338362020202D312E3530333920202020302E303030302046202020302020302020302020302020302020302020302020302020302020302020302020300A2020202D302E373338362020202D332E3135333920202020302E303030302046202020302020302020302020302020302020302020302020302020302020302020302020300A20202020302E363930332020202D332E3937383920202020302E303030302046202020302020302020302020302020302020302020302020302020302020302020302020300A20202020322E313139332020202D332E3135333920202020302E303030302046202020302020302020302020302020302020302020302020302020302020302020302020300A20202020322E313139332020202D312E3530333920202020302E303030302046202020302020302020302020302020302020302020302020302020302020302020302020300A2020202D312E353538342020202D302E3535313420202020302E303030302043202020302020302020302020302020302020302020302020302020302020302020302020300A2020202D322E3133363720202020302E3238353620202020302E303030302043202020302020302020302020302020302020302020302020302020302020302020302020300A2020202D322E3934393220202020302E3134323320202020302E303030302043202020302020302020302020302020302020302020302020302020302020302020302020300A2020202D332E323331332020202D302E3633323920202020302E303030302043202020302020302020302020302020302020302020302020302020302020302020302020300A2020202D322E373031302020202D312E3236343920202020302E303030302043202020302020302020302020302020302020302020302020302020302020302020302020300A2020202D312E383837392020202D312E3132323020202020302E303030302043202020302020302020302020302020302020302020302020302020302020302020302020300A2020202D312E3939333420202020312E3039383120202020302E303030302046202020302020302020302020302020302020302020302020302020302020302020302020300A2020202D332E3437393520202020302E3737343320202020302E303030302046202020302020302020302020302020302020302020302020302020302020302020302020300A2020202D342E303433382020202D302E3737363220202020302E303030302046202020302020302020302020302020302020302020302020302020302020302020302020300A2020202D322E393833322020202D322E3034303120202020302E303030302046202020302020302020302020302020302020302020302020302020302020302020302020300A2020202D312E343735372020202D312E3833353920202020302E303030302046202020302020302020302020302020302020302020302020302020302020302020302020300A2020322020332020312020302020202020200A2020332020342020322020302020202020200A2020342020352020312020302020202020200A2020352020362020322020302020202020200A2020362020372020312020302020202020200A2020322020372020322020302020202020200A2020332020382020312020302020202020200A2020342020392020312020302020202020200A2020352031302020312020302020202020200A2020362031312020312020302020202020200A2020372031322020312020302020202020200A2020312020322020312020302020202020200A2031332031342020312020302020202020200A2031342031352020322020302020202020200A2031352031362020312020302020202020200A2031362031372020322020302020202020200A2031372031382020312020302020202020200A2031332031382020322020302020202020200A2031342031392020312020302020202020200A2031352032302020312020302020202020200A2031362032312020312020302020202020200A2031372032322020312020302020202020200A2031382032332020312020302020202020200A2020312031332020312020302020202020200A2032342032352020312020302020202020200A2032352032362020322020302020202020200A2032362032372020312020302020202020200A2032372032382020322020302020202020200A2032382032392020312020302020202020200A2032342032392020322020302020202020200A2032352033302020312020302020202020200A2032362033312020312020302020202020200A2032372033322020312020302020202020200A2032382033332020312020302020202020200A2032392033342020312020302020202020200A2020312032342020312020302020202020200A2033352033362020312020302020202020200A2033362033372020322020302020202020200A2033372033382020312020302020202020200A2033382033392020322020302020202020200A2033392034302020312020302020202020200A2033352034302020322020302020202020200A2033362034312020312020302020202020200A2033372034322020312020302020202020200A2033382034332020312020302020202020200A2033392034342020312020302020202020200A2034302034352020312020302020202020200A2020312033352020312020302020202020200A4D2020454E44
Contributor: SASAKI S, TOYOHASHI UNIV. OF TECH.
InstType: EI
InstName: Unknown
IoniMethod: EI
IonPolarity: pos
Date: 2010-10-09 19:48:36+02:00
Num Peaks: 67
31 92 47 30 69 40 79 18 85 155 93 125 98 90 110 0 117 160 129 60 
130 45 141 5 148 170 159 70 177 60 183 3 189 90 196 40 203 50 208 1 
227 590 228 70 233 130 245 1 258 340 259 50 265 80 272 1 276 390 277 999 
278 140 297 6 325 50 331 200 337 70 344 0 348 20 356 70 362 110 368 0 
375 65 376 12 387 30 395 0 406 60 407 13 413 55 425 2 426 35 444 210 
445 40 479 1 480 30 510 50 523 55 529 0 542 10 548 20 554 10 561 2 
573 20 592 10 627 10 677 0 696 790 697 215 698 60 
