Name: BENZYL 6-ACETOXY-4-METHYL-4-HEXENOATE
MW: 276
Formula: C16H20O4
Synonym: MassBank: JP009931
Synonym: BENZYL 6-ACETOXY-4-METHYL-4-HEXENOATE
Structure: 42454E5A594C20362D414345544F58592D342D4D455448594C2D342D484558454E4F4154452E6D6F6C0A20204368656D447261773039303331303136303632440A2032302032302020302020302020302020302020302020302020302020303939392056323030300A2020202D302E373134352020202D312E3434333820202020302E303030302043202020302020302020302020302020302020302020302020302020302020302020302020300A20202020302E303030302020202D312E3033313320202020302E303030302043202020302020302020302020302020302020302020302020302020302020302020302020300A20202020302E373134352020202D312E3434333820202020302E303030302043202020302020302020302020302020302020302020302020302020302020302020302020300A20202020312E343238392020202D312E3033313320202020302E303030302043202020302020302020302020302020302020302020302020302020302020302020302020300A20202020312E343238392020202D302E3230363220202020302E303030302043202020302020302020302020302020302020302020302020302020302020302020302020300A20202020322E3134333420202020302E3230363220202020302E303030302043202020302020302020302020302020302020302020302020302020302020302020302020300A2020202D302E373134352020202D322E3236383720202020302E30303030204F202020302020302020302020302020302020302020302020302020302020302020302020300A2020202D312E343238392020202D312E3033313320202020302E30303030204F202020302020302020302020302020302020302020302020302020302020302020302020300A20202020322E313433342020202D312E3434333820202020302E303030302043202020302020302020302020302020302020302020302020302020302020302020302020300A20202020322E3134333420202020312E3033313320202020302E30303030204F202020302020302020302020302020302020302020302020302020302020302020302020300A20202020322E3835373920202020312E3434333820202020302E303030302043202020302020302020302020302020302020302020302020302020302020302020302020300A20202020322E3835373920202020322E3236383720202020302E30303030204F202020302020302020302020302020302020302020302020302020302020302020302020300A20202020332E3537323420202020312E3033313320202020302E303030302043202020302020302020302020302020302020302020302020302020302020302020302020300A2020202D312E343238392020202D302E3230363220202020302E303030302043202020302020302020302020302020302020302020302020302020302020302020302020300A2020202D322E3134333420202020302E3230363220202020302E303030302043202020302020302020302020302020302020302020302020302020302020302020302020300A2020202D322E383537392020202D302E3230363220202020302E303030302043202020302020302020302020302020302020302020302020302020302020302020302020300A2020202D332E3537323420202020302E3230363220202020302E303030302043202020302020302020302020302020302020302020302020302020302020302020302020300A2020202D332E3537323420202020312E3033313320202020302E303030302043202020302020302020302020302020302020302020302020302020302020302020302020300A2020202D322E3835373920202020312E3434333820202020302E303030302043202020302020302020302020302020302020302020302020302020302020302020302020300A2020202D322E3134333420202020312E3033313320202020302E303030302043202020302020302020302020302020302020302020302020302020302020302020302020300A2020312020322020312020302020202020200A2020322020332020312020302020202020200A2020332020342020312020302020202020200A2020342020352020322020302020202020200A2020352020362020312020302020202020200A2020312020372020322020302020202020200A2020312020382020312020302020202020200A2020342020392020312020302020202020200A2031312031322020322020302020202020200A2031312031332020312020302020202020200A2031302031312020312020302020202020200A2020362031302020312020302020202020200A2031342031352020312020302020202020200A2031352031362020312020302020202020200A2031362031372020322020302020202020200A2031372031382020312020302020202020200A2031382031392020322020302020202020200A2031392032302020312020302020202020200A2031352032302020322020302020202020200A2020382031342020312020302020202020200A4D2020454E44
Contributor: KURARAY CO., LTD.
InstType: EI
InstName: JEOL JMS-D-300
IoniMethod: _ENERGY 70 eV
IonPolarity: pos
Date: 2010-10-09 19:48:36+02:00
Num Peaks: 41
39 16 41 31 43 184 51 0 53 11 55 8 63 2 65 5 67 19 68 47 
69 22 71 0 77 19 79 28 80 2 81 8 82 19 83 16 84 17 89 0 
90 11 91 999 92 95 97 2 98 3 104 6 105 19 107 2 108 20 109 2 
110 67 111 1 125 433 126 47 143 113 144 0 156 63 157 14 185 6 216 5 
217 3 
