Name: MassBank: JP008001
MW: 302
Formula: C20H30O2
Synonym: MassBank: JP008001
Synonym: (1R,4AS,5S,8AS)-(-)-5BETA,8ABETA-DIMETHYL-1BETA,2-DIFORMYL-5ALPHA-(4-METHYL-3-PENTENYL)-1,4,4A,5,6,7,8,8AALPHA-OCTAHYDRONAPHTHALENE
Synonym: SACCULATAL
Structure: 2831522C3441532C35532C384153292D282D292D35424554412C3841424554412D44494D455448594C2D31424554412C322D4449464F524D594C2D35414C5048412D28342D4D455448594C2D332D50454E54454E594C292D312C342C34412C352C362C372C382C3841414C5048412D4F435441485944524F4E4150485448414C454E452E6D6F6C0A20204368656D447261773130313930393133343832440A2032352032362020302020302020302020302020302020302020302020303939392056323030300A2020202D312E313237302020202D302E3635393220202020302E303030302043202020302020302020302020302020302020302020302020302020302020302020302020300A2020202D312E313237302020202D312E3438343220202020302E303030302043202020302020302020302020302020302020302020302020302020302020302020302020300A2020202D302E343132352020202D312E3839363720202020302E303030302043202020302020302020302020302020302020302020302020302020302020302020302020300A20202020302E333032302020202D312E3438343220202020302E303030302043202020302020302020302020302020302020302020302020302020302020302020302020300A20202020302E333032302020202D302E3635393220202020302E303030302043202020302020302020302020302020302020302020302020302020302020302020302020300A2020202D302E343132352020202D302E3234363720202020302E303030302043202020302020302020302020302020302020302020302020302020302020302020302020300A20202020312E303136342020202D312E3839363720202020302E303030302043202020302020302020302020302020302020302020302020302020302020302020302020300A20202020312E373330392020202D312E3438343220202020302E303030302043202020302020302020302020302020302020302020302020302020302020302020302020300A20202020312E373330392020202D302E3635393220202020302E303030302043202020302020302020302020302020302020302020302020302020302020302020302020300A20202020312E303136342020202D302E3234363720202020302E303030302043202020302020302020302020302020302020302020302020302020302020302020302020300A2020202D312E383431342020202D302E3234363720202020302E303030302048202020302020302020302020302020302020302020302020302020302020302020302020300A2020202D312E383431342020202D312E3839363720202020302E303030302043202020302020302020302020302020302020302020302020302020302020302020302020300A2020202D302E393935392020202D322E3438303120202020302E303030302048202020302020302020302020302020302020302020302020302020302020302020302020300A20202020302E3135383720202020302E3135333320202020302E303030302048202020302020302020302020302020302020302020302020302020302020302020302020300A20202020302E3630333920202020302E3436373820202020302E303030302043202020302020302020302020302020302020302020302020302020302020302020302020300A20202020312E303136342020202D312E3037313720202020302E303030302043202020302020302020302020302020302020302020302020302020302020302020302020300A20202020302E303030302020202D322E3631313220202020302E303030302043202020302020302020302020302020302020302020302020302020302020302020302020300A20202020312E3539393820202020302E3333363720202020302E303030302043202020302020302020302020302020302020302020302020302020302020302020302020300A2020202D312E383431342020202D322E3732313720202020302E30303030204F202020302020302020302020302020302020302020302020302020302020302020302020300A2020202D302E343132352020202D332E3332353620202020302E30303030204F202020302020302020302020302020302020302020302020302020302020302020302020300A20202020312E3031363420202020312E3138323220202020302E303030302043202020302020302020302020302020302020302020302020302020302020302020302020300A20202020302E3630333920202020312E3839363720202020302E303030302043202020302020302020302020302020302020302020302020302020302020302020302020300A20202020312E3031363420202020322E3631313220202020302E303030302043202020302020302020302020302020302020302020302020302020302020302020302020300A20202020302E3630333920202020332E3332353620202020302E303030302043202020302020302020302020302020302020302020302020302020302020302020302020300A20202020312E3834313420202020322E3631313220202020302E303030302043202020302020302020302020302020302020302020302020302020302020302020302020300A2020312020322020322020302020202020200A2020322020332020312020302020202020200A2020332020342020312020302020202020200A2020342020352020312020302020202020200A2020352020362020312020302020202020200A2020362020312020312020302020202020200A2020342020372020312020302020202020200A2020372020382020312020302020202020200A2020382020392020312020302020202020200A2020392031302020312020302020202020200A2031302020352020312020302020202020200A2020312031312020312020302020202020200A2020322031322020312020302020202020200A2020332031332020312020362020202020200A2020352031342020312020362020202020200A2031302031352020312020362020202020200A2020342031362020312020312020202020200A2020332031372020312020312020202020200A2031302031382020312020312020202020200A2031322031392020322020302020202020200A2031372032302020322020302020202020200A2031352032312020312020302020202020200A2032312032322020312020302020202020200A2032322032332020322020302020202020200A2032332032342020312020302020202020200A2032332032352020312020302020202020200A4D2020454E44
Contributor: HISAHIRO HAGIWARA, CHEMICAL RESEARCH INSTITUTE OF NON-AQUEOUSSOLUTIONS TOHOKU UNIV.
InstType: EI
InstName: JEOL JMS-DX-300
IoniMethod: _ENERGY 70 eV
IonPolarity: pos
Date: 2010-10-09 19:48:36+02:00
Num Peaks: 73
31 336 39 91 41 995 43 386 45 165 53 135 55 545 57 74 59 229 61 50 
65 74 67 268 68 54 69 999 70 116 71 73 73 52 74 159 77 174 79 242 
81 348 82 99 83 178 91 470 92 69 93 288 94 66 95 305 96 101 97 129 
99 114 105 396 106 80 107 272 108 95 109 350 110 86 119 100 120 55 121 53 
122 144 123 145 131 133 133 233 134 272 135 269 136 83 137 105 145 122 147 201 
148 95 149 132 150 53 159 89 161 171 162 55 163 128 173 97 174 173 175 117 
176 71 177 172 189 204 190 140 191 131 192 125 203 69 231 494 232 92 259 913 
260 180 274 5 275 104 
