Name: MassBank: JP003937
MW: 107
Formula: C7H9N
Synonym: MassBank: JP003937
Synonym: 2,3-DIMETHYLPYRIDINE
Structure: 310A32310A322C332D44494D455448594C5059524944494E452E6D6F6C0A20204368656D447261773132323030393132303632440A2020382020382020302020302020302020302020302020302020302020303939392056323030300A2020202D302E343132352020202D302E3335373220202020302E303030302043202020302020302020302020302020302020302020302020302020302020302020302020300A2020202D302E3030303020202020302E3335373220202020302E303030302043202020302020302020302020302020302020302020302020302020302020302020302020300A20202020302E3832353020202020302E3335373220202020302E303030302043202020302020302020302020302020302020302020302020302020302020302020302020300A20202020312E323337352020202D302E3335373220202020302E303030302043202020302020302020302020302020302020302020302020302020302020302020302020300A20202020302E383235302020202D312E3037313720202020302E303030302043202020302020302020302020302020302020302020302020302020302020302020302020300A2020202D302E303030302020202D312E3037313720202020302E30303030204E202020302020302020302020302020302020302020302020302020302020302020302020300A2020202D302E3431323520202020312E3037313720202020302E303030302043202020302020302020302020302020302020302020302020302020302020302020302020300A2020202D312E323337352020202D302E3335373220202020302E303030302043202020302020302020302020302020302020302020302020302020302020302020302020300A2020312020322020312020302020202020200A2020322020332020322020302020202020200A2020332020342020312020302020202020200A2020342020352020322020302020202020200A2020352020362020312020302020202020200A2020312020362020322020302020202020200A2020322020372020312020302020202020200A2020312020382020312020302020202020200A4D2020454E44
Contributor: MASS SPECTROSCOPY SOC. OF JAPAN (MSSJ)
InstType: EI
InstName: Unknown
IoniMethod: EI
IonPolarity: pos
Date: 2010-10-09 19:48:36+02:00
Num Peaks: 41
26 88 27 185 28 87 29 3 31 29 37 55 38 72 39 47 40 100 41 52 
42 68 49 3 50 86 51 135 52 84 53 5 54 30 61 22 62 31 63 10 
64 47 65 189 66 215 67 5 68 32 74 21 75 28 76 3 77 79 78 40 
79 189 80 7 81 25 91 34 92 191 93 3 104 32 105 59 106 584 107 999 
108 84 
