Name: P-CHLOROBENZOIC ACID
MW: 155
Formula: C7H5ClO2
Synonym: MassBank: JP005274
Synonym: P-CHLOROBENZOIC ACID
Synonym: 4-CHLOROBENZOIC ACID
Structure: 502D43484C4F524F42454E5A4F494320414349442E6D6F6C0A20204368656D447261773033323531303131303832440A2031302031302020302020302020302020302020302020302020302020303939392056323030300A2020202D312E343433372020202D302E3030303020202020302E303030302043202020302020302020302020302020302020302020302020302020302020302020302020300A2020202D302E363138372020202D302E3030303020202020302E303030302043202020302020302020302020302020302020302020302020302020302020302020302020300A2020202D302E3230363220202020302E3731343520202020302E303030302043202020302020302020302020302020302020302020302020302020302020302020302020300A20202020302E3631383720202020302E3731343520202020302E303030302043202020302020302020302020302020302020302020302020302020302020302020302020300A20202020312E303331332020202D302E3030303020202020302E303030302043202020302020302020302020302020302020302020302020302020302020302020302020300A20202020302E363138382020202D302E3731343520202020302E303030302043202020302020302020302020302020302020302020302020302020302020302020302020300A2020202D302E323036322020202D302E3731343520202020302E303030302043202020302020302020302020302020302020302020302020302020302020302020302020300A2020202D312E3835363320202020302E3731343520202020302E30303030204F202020302020302020302020302020302020302020302020302020302020302020302020300A2020202D312E383536332020202D302E3731343520202020302E30303030204F202020302020302020302020302020302020302020302020302020302020302020302020300A20202020312E383536332020202D302E3030303020202020302E3030303020436C2020302020302020302020302020302020302020302020302020302020302020302020300A2020312020322020312020302020202020200A2020322020332020312020302020202020200A2020332020342020322020302020202020200A2020342020352020312020302020202020200A2020352020362020322020302020202020200A2020362020372020312020302020202020200A2020322020372020322020302020202020200A2020312020382020322020302020202020200A2020312020392020312020302020202020200A2020352031302020312020302020202020200A4D2020454E44
Contributor: YAMAMOTO M, DEP. CHEMISTRY, FAC. SCIENCE, NARA WOMEN'S UNIV.
InstType: EI
InstName: HITACHI RMU-6M
IoniMethod: _ENERGY 70 eV
IonPolarity: pos
Date: 2010-10-09 19:48:36+02:00
Num Peaks: 49
26 12 27 17 28 77 36 25 37 55 37.5 57 38 97 39 42 44 29 45 32 
49 34 50 262 51 125 52 10 53 18 55.5 32 56.5 10 61 19 62 14 63 20 
64 45 65 46 69.5 32 70.5 11 73 44 74 162 75 336 76 89 77 74 84 18 
85 39 87 14 99 11 104 10 110 20 111 492 112 46 113 167 114 13 128 27 
130 11 139 999 140 83 141 342 142 27 156 847 157 67 158 293 159 22 
