Name: DESIPRAMINE
MW: 266
Formula: C18H22N2
Synonym: MassBank: JP003855
Synonym: DESIPRAMINE
Structure: 444553495052414D494E452E6D6F6C0A20204368656D447261773039323131303039323432440A2032302032322020302020302020302020302020302020302020302020303939392056323030300A2020202D302E383036312020202D312E3033373120202020302E303030302043202020302020302020302020302020302020302020302020302020302020302020302020300A2020202D302E383036312020202D312E3836323120202020302E303030302043202020302020302020302020302020302020302020302020302020302020302020302020300A2020202D302E313631312020202D322E3337363520202020302E303030302043202020302020302020302020302020302020302020302020302020302020302020302020300A20202020302E363433322020202D322E3139323920202020302E303030302043202020302020302020302020302020302020302020302020302020302020302020302020300A20202020312E303031312020202D312E3434393620202020302E303030302043202020302020302020302020302020302020302020302020302020302020302020302020300A20202020302E363433322020202D302E3730363320202020302E303030302043202020302020302020302020302020302020302020302020302020302020302020302020300A2020202D302E313631312020202D302E3532323820202020302E30303030204E202020302020302020302020302020302020302020302020302020302020302020302020300A2020202D312E353230362020202D302E3632343620202020302E303030302043202020302020302020302020302020302020302020302020302020302020302020302020300A2020202D322E323335312020202D312E3033373120202020302E303030302043202020302020302020302020302020302020302020302020302020302020302020302020300A2020202D322E323335312020202D312E3836323120202020302E303030302043202020302020302020302020302020302020302020302020302020302020302020302020300A2020202D312E353230362020202D322E3237343620202020302E303030302043202020302020302020302020302020302020302020302020302020302020302020302020300A20202020312E383233382020202D312E3531313320202020302E303030302043202020302020302020302020302020302020302020302020302020302020302020302020300A20202020322E323838362020202D302E3832393720202020302E303030302043202020302020302020302020302020302020302020302020302020302020302020302020300A20202020312E393330362020202D302E3038363420202020302E303030302043202020302020302020302020302020302020302020302020302020302020302020302020300A20202020312E313037392020202D302E3032343720202020302E303030302043202020302020302020302020302020302020302020302020302020302020302020302020300A2020202D302E3334343720202020302E3238313520202020302E303030302043202020302020302020302020302020302020302020302020302020302020302020302020300A2020202D312E3133333120202020302E3532343720202020302E303030302043202020302020302020302020302020302020302020302020302020302020302020302020300A2020202D312E3331363620202020312E3332393020202020302E303030302043202020302020302020302020302020302020302020302020302020302020302020302020300A2020202D322E3130353020202020312E3537323220202020302E30303030204E202020302020302020302020302020302020302020302020302020302020302020302020300A2020202D322E3238383620202020322E3337363520202020302E303030302043202020302020302020302020302020302020302020302020302020302020302020302020300A2020312020322020322020302020202020200A2020322020332020312020302020202020200A2020332020342020312020302020202020200A2020342020352020312020302020202020200A2020352020362020322020302020202020200A2020362020372020312020302020202020200A2020372020312020312020302020202020200A2020312020382020312020302020202020200A2020382020392020322020302020202020200A2020392031302020312020302020202020200A2031302031312020322020302020202020200A2031312020322020312020302020202020200A2020352031322020312020302020202020200A2031322031332020322020302020202020200A2031332031342020312020302020202020200A2031342031352020322020302020202020200A2031352020362020312020302020202020200A2020372031362020312020302020202020200A2031362031372020312020302020202020200A2031372031382020312020302020202020200A2031382031392020312020302020202020200A2031392032302020312020302020202020200A4D2020454E44
Contributor: SASAKI S, TOYOHASHI UNIV. OF TECH.
InstType: EI
InstName: Unknown
IoniMethod: _ENERGY 70 eV
IonPolarity: pos
Date: 2010-10-09 19:48:36+02:00
Num Peaks: 118
40 24 41 79 42 144 43 6 44 509 45 29 55 49 56 6 57 69 58 369 
59 19 65 5 67 29 68 29 69 21 70 14 71 419 72 99 73 19 77 9 
78 39 79 19 82 79 83 11 84 569 85 49 86 14 89 8 90 44 91 139 
92 19 96 6 97 59 98 69 99 159 100 4 104 39 105 34 106 74 107 5 
114 64 115 59 116 39 117 8 118 69 124 69 125 29 126 1 127 24 128 44 
129 54 130 21 131 49 132 19 133 54 139 4 140 99 141 34 142 19 143 3 
144 29 150 4 151 34 152 8 153 34 154 29 163 29 164 2 165 164 166 79 
167 174 168 5 176 29 177 39 178 94 179 12 180 159 181 39 182 9 183 1 
190 34 191 79 192 179 193 70 194 584 195 999 196 184 197 3 198 34 199 29 
200 24 201 3 202 19 203 24 204 84 205 5 206 174 207 79 208 699 217 3 
218 69 219 39 220 214 221 9 222 129 223 39 232 4 233 5 234 779 235 940 
236 179 237 2 256 39 264 14 265 19 266 64 267 119 268 19 
