Name: 1.2.4-TRIMETHYLBENZENE
MW: 120
Formula: C9H12
Synonym: MassBank: JP001538
Synonym: 1.2.4-TRIMETHYLBENZENE
Synonym: PSEUDOCUMENE
Structure: 310A32330A312E322E342D5452494D455448594C42454E5A454E452E6D6F6C0A20204368656D447261773131323230393233303632440A2020392020392020302020302020302020302020302020302020302020303939392056323030300A20202020302E3731343520202020302E3431323520202020302E303030302043202020302020302020302020302020302020302020302020302020302020302020302020300A20202020302E373134352020202D302E3431323520202020302E303030302043202020302020302020302020302020302020302020302020302020302020302020302020300A2020202D302E303030302020202D302E3832353020202020302E303030302043202020302020302020302020302020302020302020302020302020302020302020302020300A2020202D302E373134352020202D302E3431323520202020302E303030302043202020302020302020302020302020302020302020302020302020302020302020302020300A2020202D302E3731343520202020302E3431323520202020302E303030302043202020302020302020302020302020302020302020302020302020302020302020302020300A20202020302E3030303020202020302E3832353020202020302E303030302043202020302020302020302020302020302020302020302020302020302020302020302020300A2020202D312E343238392020202D302E3832353020202020302E303030302043202020302020302020302020302020302020302020302020302020302020302020302020300A20202020312E343238392020202D302E3832353020202020302E303030302043202020302020302020302020302020302020302020302020302020302020302020302020300A20202020312E3432383920202020302E3832353020202020302E303030302043202020302020302020302020302020302020302020302020302020302020302020302020300A2020312020322020312020302020202020200A2020322020332020322020302020202020200A2020332020342020312020302020202020200A2020342020352020322020302020202020200A2020352020362020312020302020202020200A2020312020362020322020302020202020200A2020342020372020312020302020202020200A2020322020382020312020302020202020200A2020312020392020312020302020202020200A4D2020454E44
Contributor: YAMAMOTO M, DEP. CHEMISTRY, FAC. SCIENCE, NARA WOMEN'S UNIV.
InstType: EI
InstName: HITACHI RMU-6M
IoniMethod: _ENERGY 70 eV
IonPolarity: pos
Date: 2010-10-09 19:48:36+02:00
Num Peaks: 33
27 62 38 11 39 103 40 13 41 53 50 31 51 82 52 29 53 36 57.5 19 
58 24 59 28 62 15 63 43 65 56 74 13 75 12 77 127 78 47 79 81 
89 14 91 101 92 18 102 14 103 64 104 32 105 999 106 92 115 34 116 34 
119 153 120 608 121 63 
