Name: 2-N-BUTYLCYCLOPENTENONE
MW: 138
Formula: C9H14O
Synonym: MassBank: JP008338
Synonym: 2-N-BUTYLCYCLOPENTENONE
Synonym: 2-BUTYL-2-CYCLOPENTEN-1-ONE
Structure: 322D4E2D425554594C4359434C4F50454E54454E4F4E452E6D6F6C0A20204368656D447261773031303331303130313132440A2031302031302020302020302020302020302020302020302020302020303939392056323030300A20202020312E3532393820202020302E3236303320202020302E303030302043202020302020302020302020302020302020302020302020302020302020302020302020300A20202020302E373736312020202D302E3037353320202020302E303030302043202020302020302020302020302020302020302020302020302020302020302020302020300A20202020302E383632332020202D302E3839353720202020302E303030302043202020302020302020302020302020302020302020302020302020302020302020302020300A20202020312E363639332020202D312E3036373320202020302E303030302043202020302020302020302020302020302020302020302020302020302020302020302020300A20202020322E303831382020202D302E3335323820202020302E303030302043202020302020302020302020302020302020302020302020302020302020302020302020300A20202020312E3730313320202020312E3036373320202020302E30303030204F202020302020302020302020302020302020302020302020302020302020302020302020300A20202020302E3036313620202020302E3333373220202020302E303030302043202020302020302020302020302020302020302020302020302020302020302020302020300A2020202D302E363532392020202D302E3037353320202020302E303030302043202020302020302020302020302020302020302020302020302020302020302020302020300A2020202D312E3336373320202020302E3333373220202020302E303030302043202020302020302020302020302020302020302020302020302020302020302020302020300A2020202D322E303831382020202D302E3037353320202020302E303030302043202020302020302020302020302020302020302020302020302020302020302020302020300A2020312020322020312020302020202020200A2020322020332020322020302020202020200A2020332020342020312020302020202020200A2020342020352020312020302020202020200A2020312020352020312020302020202020200A2020312020362020322020302020202020200A2020372020382020312020302020202020200A2020382020392020312020302020202020200A2020392031302020312020302020202020200A2020322020372020312020302020202020200A4D2020454E44
Contributor: UBE SCIENTIFIC ANALYSIS LABORATORY
InstType: EI
InstName: HITACHI M-60
IoniMethod: _ENERGY 70 eV
IonPolarity: pos
Date: 2010-10-09 19:48:36+02:00
Num Peaks: 49
18 11 27 312 28 75 29 100 32 8 38 12 39 308 40 66 41 478 42 41 
43 134 50 24 51 68 52 50 53 215 54 91 55 161 56 16 57 9 63 20 
65 80 66 71 67 406 68 255 69 40 77 64 78 18 79 147 80 27 81 317 
82 125 83 31 84 9 91 30 93 20 94 34 95 310 96 999 97 195 98 9 
105 16 109 368 110 164 111 10 123 216 124 15 137 76 138 514 139 56 
