Name: MassBank: JP000465
MW: 96
Formula: C5H8N2
Synonym: MassBank: JP000465
Synonym: 1,5-DIMETHYLPYRAZOLE
Structure: 310A32330A312C352D44494D455448594C505952415A4F4C452E6D6F6C0A20204368656D447261773131313630393133303132440A2020392020392020302020302020302020302020302020302020302020303939392056323030300A20202020302E3237373320202020302E3535363020202020302E30303030204E202020302020302020302020302020302020302020302020302020302020302020302020300A20202020302E3934343820202020302E3037313120202020302E30303030204E202020302020302020302020302020302020302020302020302020302020302020302020300A20202020302E363839382020202D302E3731333620202020302E303030302043202020302020302020302020302020302020302020302020302020302020302020302020300A2020202D302E313335322020202D302E3731333620202020302E303030302043202020302020302020302020302020302020302020302020302020302020302020302020300A2020202D302E3339303120202020302E3037313120202020302E303030302043202020302020302020302020302020302020302020302020302020302020302020302020300A2020202D312E3137343720202020302E3332363020202020302E303030302043202020302020302020302020302020302020302020302020302020302020302020302020300A20202020302E3237373320202020312E3338313020202020302E303030302043202020302020302020302020302020302020302020302020302020302020302020302020300A2020202D302E363230312020202D312E3338313020202020302E303030302048202020302020302020302020302020302020302020302020302020302020302020302020300A20202020312E313734372020202D312E3338313020202020302E303030302048202020302020302020302020302020302020302020302020302020302020302020302020300A2020312020322020312020302020202020200A2020322020332020322020302020202020200A2020332020342020312020302020202020200A2020342020352020322020302020202020200A2020312020352020312020302020202020200A2020352020362020312020302020202020200A2020312020372020312020302020202020200A2020342020382020312020302020202020200A2020332020392020312020302020202020200A4D2020454E44
Contributor: SASAKI S, TOYOHASHI UNIV. OF TECH.
InstType: EI
InstName: MX-1303
IoniMethod: _ENERGY 50 eV
IonPolarity: pos
Date: 2010-10-09 19:48:36+02:00
Num Peaks: 31
26 26 27 90 28 117 29 2 30 20 37 14 38 30 39 9 40 34 41 107 
42 89 43 6 50 34 51 58 52 62 53 13 54 115 55 54 56 102 65 1 
66 30 67 33 68 141 69 2 80 8 81 67 82 7 94 1 95 590 96 999 
97 64 
