Name: ESTRADIOL DI-TRIMETHYLSILYL ETHER
MW: 416
Formula: C24H40O2Si2
Synonym: MassBank: JP006240
Synonym: ESTRADIOL DI-TRIMETHYLSILYL ETHER
Structure: 313039305F455354524144494F4C2044492D5452494D455448594C53494C594C2045544845522E6D6F6C0A20204368656D447261773039303631303232323232440A2033312033342020302020302020302020302020302020302020302020303939392056323030300A2020202D322E303431322020202D312E3638333020202020302E303030302043202020302020302020302020302020302020302020302020302020302020302020302020300A2020202D322E373535372020202D322E3039353520202020302E30303030204F202020302020302020302020302020302020302020302020302020302020302020302020300A2020202D322E303431322020202D302E3835383020202020302E303030302043202020302020302020302020302020302020302020302020302020302020302020302020300A2020202D312E333236382020202D302E3434353520202020302E303030302043202020302020302020302020302020302020302020302020302020302020302020302020300A2020202D312E333236382020202D322E3039353520202020302E303030302043202020302020302020302020302020302020302020302020302020302020302020302020300A2020202D302E363132332020202D312E3638333020202020302E303030302043202020302020302020302020302020302020302020302020302020302020302020302020300A20202020302E313032322020202D322E3039353520202020302E303030302043202020302020302020302020302020302020302020302020302020302020302020302020300A20202020302E383136372020202D312E3638333020202020302E303030302043202020302020302020302020302020302020302020302020302020302020302020302020300A20202020302E383136372020202D302E3835383020202020302E303030302043202020302020302020302020302020302020302020302020302020302020302020302020300A20202020312E353331312020202D302E3434353520202020302E303030302043202020302020302020302020302020302020302020302020302020302020302020302020300A20202020322E333135382020202D302E3730303520202020302E303030302043202020302020302020302020302020302020302020302020302020302020302020302020300A20202020322E383030372020202D302E3033333020202020302E303030302043202020302020302020302020302020302020302020302020302020302020302020302020300A20202020322E3331353820202020302E3633343420202020302E303030302043202020302020302020302020302020302020302020302020302020302020302020302020300A20202020322E3537303720202020312E3431393020202020302E30303030204F202020302020302020302020302020302020302020302020302020302020302020302020300A20202020312E3533313120202020302E3337393520202020302E303030302043202020302020302020302020302020302020302020302020302020302020302020302020300A20202020312E3533313120202020312E3230343520202020302E303030302043202020302020302020302020302020302020302020302020302020302020302020302020300A20202020302E3831363720202020302E3739323020202020302E303030302043202020302020302020302020302020302020302020302020302020302020302020302020300A20202020302E3130323220202020302E3337393520202020302E303030302043202020302020302020302020302020302020302020302020302020302020302020302020300A20202020302E313032322020202D302E3434353520202020302E303030302043202020302020302020302020302020302020302020302020302020302020302020302020300A2020202D302E363132332020202D302E3835383020202020302E303030302043202020302020302020302020302020302020302020302020302020302020302020302020300A2020202D332E343730322020202D312E3638333020202020302E303030302053692020302020302020302020302020302020302020302020302020302020302020302020300A2020202D332E303537372020202D302E3936383620202020302E303030302043202020302020302020302020302020302020302020302020302020302020302020302020300A2020202D332E383832372020202D322E3339373520202020302E303030302043202020302020302020302020302020302020302020302020302020302020302020302020300A2020202D342E313834362020202D312E3237303520202020302E303030302043202020302020302020302020302020302020302020302020302020302020302020302020300A20202020332E3337373720202020312E3539303520202020302E303030302053692020302020302020302020302020302020302020302020302020302020302020302020300A20202020332E3230363120202020322E3339373520202020302E303030302043202020302020302020302020302020302020302020302020302020302020302020302020300A20202020342E3138343620202020312E3736323120202020302E303030302043202020302020302020302020302020302020302020302020302020302020302020302020300A20202020332E3534393220202020302E3738333620202020302E303030302043202020302020302020302020302020302020302020302020302020302020302020302020300A20202020302E313032322020202D312E3237303520202020302E303030302048202020302020302020302020302020302020302020302020302020302020302020302020300A20202020302E383136372020202D302E3033333020202020302E303030302048202020302020302020302020302020302020302020302020302020302020302020302020300A20202020312E353331312020202D312E3237303520202020302E303030302048202020302020302020302020302020302020302020302020302020302020302020302020300A2020312020322020312020302020202020200A2020312020332020312020302020202020200A2020332020342020322020302020202020200A2020312020352020322020302020202020200A2020352020362020312020302020202020200A2020362020372020312020302020202020200A2020372020382020312020302020202020200A2020382020392020312020302020202020200A2020392031302020312020302020202020200A2031302031312020312020302020202020200A2031312031322020312020302020202020200A2031322031332020312020302020202020200A2031332031342020312020362020202020200A2031332031352020312020302020202020200A2031302031352020312020302020202020200A2031352031362020312020312020202020200A2031352031372020312020302020202020200A2031372031382020312020302020202020200A2031382031392020312020302020202020200A2020392031392020312020302020202020200A2031392032302020312020302020202020200A2020342032302020312020302020202020200A2020362032302020322020302020202020200A2032312032322020312020302020202020200A2032312032332020312020302020202020200A2032312032342020312020302020202020200A2020322032312020312020302020202020200A2032352032362020312020302020202020200A2032352032372020312020302020202020200A2032352032382020312020302020202020200A2031342032352020312020302020202020200A2031392032392020312020362020202020200A2020392033302020312020312020202020200A2031302033312020312020362020202020200A4D2020454E44
Contributor: MASS SPECTROSCOPY SOC. OF JAPAN (MSSJ)
InstType: EI
InstName: HITACHI M-80
IoniMethod: _ENERGY 20 eV
IonPolarity: pos
Date: 2010-10-09 19:48:36+02:00
Num Peaks: 70
73 29 81 13 93 10 95 10 105 8 107 12 115 26 129 260 130 48 131 9 
133 6 159 20 177 25 178 7 179 19 180 14 192 13 193 9 195 7 201 10 
203 7 204 9 205 46 206 14 217 25 218 83 219 33 229 32 230 49 231 63 
232 131 233 32 242 6 243 20 244 75 245 28 255 6 256 17 257 22 258 22 
269 33 270 20 271 34 272 23 273 5 283 42 284 64 285 482 286 132 287 91 
288 18 297 25 298 57 299 17 300 32 311 19 325 54 326 91 327 30 341 7 
355 7 401 60 402 29 414 14 415 17 416 999 417 357 418 123 419 27 420 7 
