Name: MassBank: JP001463
MW: 324
Formula: C20H28Si2
Synonym: MassBank: JP001463
Synonym: (1,2,1',2'-TETRAMETHYLDIBENZO(4,5-C,4',5'-E))-1,1,2,2-TETRAMETHYL-1,2-DISILACYCLOHEXA-3,5-DIENE
Structure: 28312C322C31272C32272D54455452414D455448594C444942454E5A4F28342C352D432C34272C35272D4529292D312C312C322C322D54455452414D455448594C2D312C322D444953494C414359434C4F484558412D332C352D4449454E452E6D6F6C0A20204368656D447261773130303630393135343032440A2032322032342020302020302020302020302020302020302020302020303939392056323030300A2020202D312E3738353620202020312E3037323120202020302E303030302043202020302020302020302020302020302020302020302020302020302020302020302020300A2020202D312E3738353620202020302E3234373120202020302E303030302043202020302020302020302020302020302020302020302020302020302020302020302020300A2020202D312E303731312020202D302E3136353420202020302E303030302043202020302020302020302020302020302020302020302020302020302020302020302020300A2020202D302E3335363720202020302E3234373120202020302E303030302043202020302020302020302020302020302020302020302020302020302020302020302020300A2020202D302E3335363720202020312E3037323120202020302E303030302043202020302020302020302020302020302020302020302020302020302020302020302020300A2020202D312E3037313120202020312E3438343620202020302E303030302043202020302020302020302020302020302020302020302020302020302020302020302020300A20202020302E333537382020202D302E3136353420202020302E303030302043202020302020302020302020302020302020302020302020302020302020302020302020300A20202020312E3037323320202020302E3234373120202020302E303030302043202020302020302020302020302020302020302020302020302020302020302020302020300A20202020312E3037333520202020312E3037323120202020302E303030302053692020302020302020302020302020302020302020302020302020302020302020302020300A20202020302E3335383120202020312E3438343620202020302E303030302053692020302020302020302020302020302020302020302020302020302020302020302020300A20202020302E333537382020202D302E3939303420202020302E303030302043202020302020302020302020302020302020302020302020302020302020302020302020300A20202020312E303732332020202D312E3430323920202020302E303030302043202020302020302020302020302020302020302020302020302020302020302020302020300A20202020312E373836382020202D302E3939303420202020302E303030302043202020302020302020302020302020302020302020302020302020302020302020302020300A20202020312E373836382020202D302E3136353420202020302E303030302043202020302020302020302020302020302020302020302020302020302020302020302020300A20202020322E3030383120202020312E3137393620202020302E303030302043202020302020302020302020302020302020302020302020302020302020302020302020300A2020202D322E3530313120202020312E3438343620202020302E303030302043202020302020302020302020302020302020302020302020302020302020302020302020300A20202020322E353031312020202D312E3430323920202020302E303030302043202020302020302020302020302020302020302020302020302020302020302020302020300A2020202D302E3039343120202020322E3137353520202020302E303030302043202020302020302020302020302020302020302020302020302020302020302020302020300A20202020312E3536333220202020312E3733353020202020302E303030302043202020302020302020302020302020302020302020302020302020302020302020302020300A20202020312E303731312020202D322E3232373920202020302E303030302043202020302020302020302020302020302020302020302020302020302020302020302020300A2020202D322E353031312020202D302E3136353420202020302E303030302043202020302020302020302020302020302020302020302020302020302020302020302020300A20202020302E3834333520202020322E3232373920202020302E303030302043202020302020302020302020302020302020302020302020302020302020302020302020300A2020312020322020322020302020202020200A2020322020332020312020302020202020200A2020332020342020322020302020202020200A2020342020352020312020302020202020200A2020352020362020322020302020202020200A2020362020312020312020302020202020200A2020342020372020312020302020202020200A2020372020382020322020302020202020200A2020382020392020312020302020202020200A2020392031302020312020302020202020200A2031302020352020312020302020202020200A2020372031312020312020302020202020200A2031312031322020322020302020202020200A2031322031332020312020302020202020200A2031332031342020322020302020202020200A2031342020382020312020302020202020200A2020392031352020312020312020202020200A2020312031362020312020302020202020200A2031332031372020312020302020202020200A2031302031382020312020362020202020200A2020392031392020312020362020202020200A2031322032302020312020302020202020200A2020322032312020312020302020202020200A2031302032322020312020312020202020200A4D202053545920203120202031205355500A4D2020534C4220203120202031202020310A4D202053414C20202031202031202031350A4D202053424C20202031202031202031370A4D2020534D5420202031204D650A4D2020534256202020312031372020202D362E3233323220202020362E303139390A4D202053545920203120202032205355500A4D2020534C4220203120202032202020320A4D202053414C20202032202031202031360A4D202053424C20202032202031202031380A4D2020534D5420202032204D650A4D2020534256202020322031382020202D372E3838323420202020362E333235300A4D202053545920203120202033205355500A4D2020534C4220203120202033202020330A4D202053414C20202033202031202031370A4D202053424C20202033202031202031390A4D2020534D5420202033204D650A4D2020534256202020332031392020202D362E3435323520202020352E353030300A4D202053545920203120202034205355500A4D2020534C4220203120202034202020340A4D202053414C20202034202031202031380A4D202053424C20202034202031202032300A4D2020534D5420202034204D650A4D2020534256202020342032302020202D372E3631393220202020362E363033340A4D202053545920203120202035205355500A4D2020534C4220203120202035202020350A4D202053414C20202035202031202031390A4D202053424C20202035202031202032310A4D2020534D5420202035204D650A4D2020534256202020352032312020202D362E3637373120202020362E353735330A4D202053545920203120202036205355500A4D2020534C4220203120202036202020360A4D202053414C20202036202031202032300A4D202053424C20202036202031202032320A4D2020534D5420202036204D650A4D2020534256202020362032322020202D372E3136383020202020352E303837350A4D202053545920203120202037205355500A4D2020534C4220203120202037202020370A4D202053414C20202037202031202032310A4D202053424C20202037202031202032330A4D2020534D5420202037204D650A4D2020534256202020372032332020202D372E3838323420202020352E353030300A4D202053545920203120202038205355500A4D2020534C4220203120202038202020380A4D202053414C20202038202031202032320A4D202053424C20202038202031202032340A4D2020534D5420202038204D650A4D2020534256202020382032342020202D362E3638313520202020362E363535370A4D2020454E44
Contributor: MASS SPECTROSCOPY SOC. OF JAPAN (MSSJ)
InstType: EI
InstName: JEOL JMS-D-3000
IoniMethod: _ENERGY 70 eV
IonPolarity: pos
Date: 2010-10-09 19:48:36+02:00
Num Peaks: 50
43 21 44 211 45 22 58 20 59 17 73 43 77 11 78 26 91 36 105 10 
117 28 118 21 126 18 163 39 165 14 178 10 179 13 180 11 192 11 194 12 
195 14 203 11 205 17 206 27 210 38 219 19 220 15 221 46 222 12 233 11 
234 10 235 30 236 23 237 17 249 19 250 29 251 999 252 255 253 69 254 13 
265 14 266 120 267 30 268 10 309 66 310 27 323 12 324 213 325 93 326 28 
