Name: CAMPHORIC ACID DIMETHYL ESTER
MW: 228
Formula: C12H20O4
Synonym: MassBank: JP002226
Synonym: CAMPHORIC ACID DIMETHYL ESTER
Structure: 43414D50484F52494320414349442044494D455448594C2045535445522E6D6F6C0A20204368656D447261773039303631303039353632440A2031372031372020302020302020302020302020302020302020302020303939392056323030300A2020202D302E3137343120202020302E3639333220202020302E303030302043202020302020302020302020302020302020302020302020302020302020302020302020300A2020202D302E313734312020202D302E3133313820202020302E303030302043202020302020302020302020302020302020302020302020302020302020302020302020300A20202020302E363130352020202D302E3338363820202020302E303030302043202020302020302020302020302020302020302020302020302020302020302020302020300A20202020312E3039353420202020302E3238303720202020302E303030302043202020302020302020302020302020302020302020302020302020302020302020302020300A20202020302E3631303520202020302E3934383120202020302E303030302043202020302020302020302020302020302020302020302020302020302020302020302020300A2020202D302E3338373720202020312E3439303120202020302E303030302048202020302020302020302020302020302020302020302020302020302020302020302020300A2020202D302E353836362020202D302E3834363320202020302E303030302043202020302020302020302020302020302020302020302020302020302020302020302020300A20202020302E363130352020202D312E3231313820202020302E303030302043202020302020302020302020302020302020302020302020302020302020302020302020300A2020202D302E393731302020202D302E3334353320202020302E303030302043202020302020302020302020302020302020302020302020302020302020302020302020300A20202020312E333935312020202D302E3634313720202020302E303030302043202020302020302020302020302020302020302020302020302020302020302020302020300A2020202D302E3937313020202020302E3930363720202020302E303030302043202020302020302020302020302020302020302020302020302020302020302020302020300A2020202D312E3138343520202020312E3730333620202020302E30303030204F202020302020302020302020302020302020302020302020302020302020302020302020300A2020202D312E3535343420202020302E3332333320202020302E30303030204F202020302020302020302020302020302020302020302020302020302020302020302020300A2020202D322E3335313320202020302E3533363920202020302E303030302043202020302020302020302020302020302020302020302020302020302020302020302020300A20202020322E303038322020202D302E3038393720202020302E30303030204F202020302020302020302020302020302020302020302020302020302020302020302020300A20202020312E353636362020202D312E3434383720202020302E30303030204F202020302020302020302020302020302020302020302020302020302020302020302020300A20202020322E333531332020202D312E3730333620202020302E303030302043202020302020302020302020302020302020302020302020302020302020302020302020300A2020312020322020312020302020202020200A2020322020332020312020302020202020200A2020332020342020312020302020202020200A2020342020352020312020302020202020200A2020352020312020312020302020202020200A2020312020362020312020362020202020200A2020322020372020312020362020202020200A2020332020382020312020362020202020200A2020322020392020312020312020202020200A2020332031302020312020312020202020200A2020312031312020312020312020202020200A2031312031322020322020302020202020200A2031312031332020312020302020202020200A2031332031342020312020302020202020200A2031302031352020322020302020202020200A2031302031362020312020302020202020200A2031362031372020312020302020202020200A4D2020454E44
Contributor: KOGA M, UNIV. OF OCCUPATIONAL AND ENVIRONMENTAL HEALTH
InstType: EI
InstName: JEOL JMS-01-SG
IoniMethod: _ENERGY 70 eV
IonPolarity: pos
Date: 2010-10-09 19:48:36+02:00
Num Peaks: 76
43 13 45 22 51 13 52 3 53 124 54 53 55 328 56 2 59 142 65 31 
66 31 67 34 68 346 69 293 70 13 73 20 75 22 77 57 79 106 80 3 
81 97 82 128 83 164 85 1 87 48 88 26 91 57 93 25 94 71 95 222 
96 253 97 4 99 13 100 17 101 151 102 2 107 75 108 693 109 999 110 9 
112 31 113 44 114 53 115 4 121 111 122 31 123 22 125 8 126 53 127 57 
128 102 129 1 135 26 136 697 137 408 138 5 139 17 140 62 142 17 146 2 
149 40 150 13 153 115 154 9 155 26 159 26 164 293 165 4 167 22 168 586 
169 235 170 3 181 22 196 195 197 88 198 13 
