Name: MassBank: JP006692
MW: 296
Formula: C14H16O7
Synonym: MassBank: JP006692
Synonym: 3,4,5-TRIACETOXYBENZYL METHYL ETHER
Structure: 332C342C352D545249414345544F585942454E5A594C204D455448594C2045544845522E6D6F6C0A20204368656D447261773032323131303231333832440A2032312032312020302020302020302020302020302020302020302020303939392056323030300A20202020302E373134352020202D322E3036323520202020302E30303030204F202020302020302020302020302020302020302020302020302020302020302020302020300A20202020302E373134352020202D322E3838373520202020302E303030302043202020302020302020302020302020302020302020302020302020302020302020302020300A2020202D302E303030302020202D312E3635303020202020302E303030302043202020302020302020302020302020302020302020302020302020302020302020302020300A2020202D302E303030302020202D302E3832353020202020302E303030302043202020302020302020302020302020302020302020302020302020302020302020302020300A2020202D302E373134352020202D302E3431323520202020302E303030302043202020302020302020302020302020302020302020302020302020302020302020302020300A2020202D302E3731343520202020302E3431323520202020302E303030302043202020302020302020302020302020302020302020302020302020302020302020302020300A20202020302E3030303020202020302E3832353020202020302E303030302043202020302020302020302020302020302020302020302020302020302020302020302020300A20202020302E3731343520202020302E3431323520202020302E303030302043202020302020302020302020302020302020302020302020302020302020302020302020300A20202020302E373134352020202D302E3431323520202020302E303030302043202020302020302020302020302020302020302020302020302020302020302020302020300A20202020312E3432383920202020302E3832353020202020302E30303030204F202020302020302020302020302020302020302020302020302020302020302020302020300A20202020322E3134333420202020302E3431323520202020302E303030302043202020302020302020302020302020302020302020302020302020302020302020302020300A20202020322E3835373920202020302E3832353020202020302E30303030204F202020302020302020302020302020302020302020302020302020302020302020302020300A20202020322E313433342020202D302E3431323520202020302E303030302043202020302020302020302020302020302020302020302020302020302020302020302020300A20202020302E3030303020202020312E3635303020202020302E30303030204F202020302020302020302020302020302020302020302020302020302020302020302020300A2020202D302E3731343520202020322E3036323520202020302E303030302043202020302020302020302020302020302020302020302020302020302020302020302020300A2020202D312E3432383920202020312E3635303020202020302E30303030204F202020302020302020302020302020302020302020302020302020302020302020302020300A2020202D302E3731343520202020322E3838373520202020302E303030302043202020302020302020302020302020302020302020302020302020302020302020302020300A2020202D312E3432383920202020302E3832353020202020302E30303030204F202020302020302020302020302020302020302020302020302020302020302020302020300A2020202D322E3134333420202020302E3431323520202020302E303030302043202020302020302020302020302020302020302020302020302020302020302020302020300A2020202D322E313433342020202D302E3431323520202020302E30303030204F202020302020302020302020302020302020302020302020302020302020302020302020300A2020202D322E3835373920202020302E3832353020202020302E303030302043202020302020302020302020302020302020302020302020302020302020302020302020300A2020312020322020312020302020202020200A2020332020342020312020302020202020200A2020342020352020312020302020202020200A2020352020362020322020302020202020200A2020362020372020312020302020202020200A2020372020382020322020302020202020200A2020382020392020312020302020202020200A2020342020392020322020302020202020200A2031312031322020322020302020202020200A2031312031332020312020302020202020200A2031302031312020312020302020202020200A2020382031302020312020302020202020200A2031352031362020322020302020202020200A2031352031372020312020302020202020200A2031342031352020312020302020202020200A2020372031342020312020302020202020200A2031392032302020322020302020202020200A2031392032312020312020302020202020200A2031382031392020312020302020202020200A2020362031382020312020302020202020200A2020312020332020312020302020202020200A4D2020454E44
Contributor: MASS SPECTROSCOPY SOC. OF JAPAN (MSSJ)
InstType: EI
InstName: JEOL JMS-D-300
IoniMethod: _ENERGY 70 eV
IonPolarity: pos
Date: 2010-10-09 19:48:36+02:00
Num Peaks: 51
41 26 42 14 43 999 44 2 51 17 52 24 53 23 55 2 57 14 64 10 
65 14 66 1 67 14 69 14 78 10 79 1 80 14 81 44 95 19 97 1 
106 19 109 41 110 25 122 1 123 25 124 58 125 14 126 1 127 13 138 31 
139 12 141 4 151 52 152 50 153 155 154 2 155 31 168 12 169 137 170 78 
171 68 194 11 195 23 211 2 212 706 213 73 214 11 254 24 255 29 296 58 
297 10 
