Name: (3R)-4-(TERT-BUTYLTHIO)-3-ETHOXYCARBONYLAMINO-2-BUTANONE
MW: 247
Formula: C11H21NO3S
Synonym: MassBank: JP002448
Synonym: (3R)-4-(TERT-BUTYLTHIO)-3-ETHOXYCARBONYLAMINO-2-BUTANONE
Structure: 283352292D342D28544552542D425554594C5448494F292D332D4554484F5859434152424F4E594C414D494E4F2D322D425554414E4F4E452E6D6F6C0A20204368656D447261773130323130393033333932440A2031372031362020302020302020302020302020302020302020302020303939392056323030300A20202020302E383235302020202D302E3236313520202020302E303030302043202020302020302020302020302020302020302020302020302020302020302020302020300A20202020302E303030302020202D302E3236313520202020302E303030302043202020302020302020302020302020302020302020302020302020302020302020302020300A20202020312E363530302020202D302E3236313520202020302E303030302043202020302020302020302020302020302020302020302020302020302020302020302020300A20202020302E3832353020202020302E3536333520202020302E30303030204E202020302020302020302020302020302020302020302020302020302020302020302020300A20202020302E383235302020202D312E3038363520202020302E303030302048202020302020302020302020302020302020302020302020302020302020302020302020300A20202020322E3036323520202020302E3435333020202020302E303030302043202020302020302020302020302020302020302020302020302020302020302020302020300A20202020322E303632352020202D302E3937363020202020302E30303030204F202020302020302020302020302020302020302020302020302020302020302020302020300A2020202D302E343132352020202D302E3937363020202020302E303030302053202020302020302020302020302020302020302020302020302020302020302020302020300A2020202D312E323337352020202D302E3937363020202020302E303030302043202020302020302020302020302020302020302020302020302020302020302020302020300A2020202D312E323337352020202D302E3135313020202020302E303030302043202020302020302020302020302020302020302020302020302020302020302020302020300A2020202D322E303632352020202D302E3937363020202020302E303030302043202020302020302020302020302020302020302020302020302020302020302020302020300A2020202D312E323337352020202D312E3830313020202020302E303030302043202020302020302020302020302020302020302020302020302020302020302020302020300A20202020302E3131303520202020302E3937363020202020302E303030302043202020302020302020302020302020302020302020302020302020302020302020302020300A20202020302E3131303520202020312E3830313020202020302E30303030204F202020302020302020302020302020302020302020302020302020302020302020302020300A2020202D302E3630333920202020302E3536333520202020302E30303030204F202020302020302020302020302020302020302020302020302020302020302020302020300A2020202D312E3331383420202020302E3937363020202020302E303030302043202020302020302020302020302020302020302020302020302020302020302020302020300A2020202D322E3033323920202020302E3536333520202020302E303030302043202020302020302020302020302020302020302020302020302020302020302020302020300A2020312020322020312020302020202020200A2020312020332020312020302020202020200A2020312020342020312020312020202020200A2020312020352020312020312020202020200A2020332020362020312020302020202020200A2020332020372020322020302020202020200A2020322020382020312020302020202020200A2020382020392020312020302020202020200A2020392031302020312020302020202020200A2020392031312020312020302020202020200A2020392031322020312020302020202020200A2020342031332020312020302020202020200A2031332031342020322020302020202020200A2031332031352020312020302020202020200A2031352031362020312020302020202020200A2031362031372020312020302020202020200A4D2020454E44
Contributor: ITO S, DEPT. OF CHEM., TOHOKU UNIV.
InstType: EI
InstName: HITACHI M-52
IoniMethod: _ENERGY 13.5 eV
IonPolarity: pos
Date: 2010-10-09 19:48:36+02:00
Num Peaks: 25
57 104 76 28 90 11 101 4 102 160 103 176 104 57 107 3 108 11 115 39 
145 30 146 3 148 94 149 69 150 88 157 1 158 999 159 66 160 25 174 2 
204 965 205 94 206 20 247 1 248 13 
