Name: MassBank: JP000901
MW: 126
Formula: C7H14N2
Synonym: MassBank: JP000901
Synonym: 3-ETHYL-1,4-DIMETHYL-2-PYRAZOLINE
Structure: 310A32330A332D455448594C2D312C342D44494D455448594C2D322D505952415A4F4C494E452E6D6F6C0A20204368656D447261773032323231303137333532440A2020392020392020302020302020302020302020302020302020302020303939392056323030300A20202020302E3933323820202020302E3030303020202020302E30303030204E202020302020302020302020302020302020302020302020302020302020302020302020300A20202020302E343437392020202D302E3636373420202020302E30303030204E202020302020302020302020302020302020302020302020302020302020302020302020300A2020202D302E333336372020202D302E3431323520202020302E303030302043202020302020302020302020302020302020302020302020302020302020302020302020300A2020202D302E3333363720202020302E3431323520202020302E303030302043202020302020302020302020302020302020302020302020302020302020302020302020300A20202020302E3434373920202020302E3636373420202020302E303030302043202020302020302020302020302020302020302020302020302020302020302020302020300A2020202D312E3030343220202020302E3839373420202020302E303030302043202020302020302020302020302020302020302020302020302020302020302020302020300A20202020312E3735373820202020302E3030303020202020302E303030302043202020302020302020302020302020302020302020302020302020302020302020302020300A2020202D312E303034322020202D302E3839373420202020302E303030302043202020302020302020302020302020302020302020302020302020302020302020302020300A2020202D312E373537382020202D302E3536313920202020302E303030302043202020302020302020302020302020302020302020302020302020302020302020302020300A2020312020322020312020302020202020200A2020322020332020322020302020202020200A2020332020342020312020302020202020200A2020342020352020312020302020202020200A2020312020352020312020302020202020200A2020342020362020312020302020202020200A2020312020372020312020302020202020200A2020382020392020312020302020202020200A2020332020382020312020302020202020200A4D2020454E44
Contributor: SASAKI S, TOYOHASHI UNIV. OF TECH.
InstType: EI
InstName: SHIMADZU LKB-2091
IoniMethod: _ENERGY 70 eV
IonPolarity: pos
Date: 2010-10-09 19:48:36+02:00
Num Peaks: 37
26 17 27 104 28 161 29 9 30 44 39 94 40 21 41 17 42 301 43 203 
44 52 51 1 52 12 53 24 54 62 55 14 56 171 57 17 67 21 68 8 
69 30 70 26 81 14 82 4 83 306 84 60 95 32 96 4 97 119 98 10 
109 25 110 2 111 999 112 73 125 208 126 52 127 47 
