Name: PARA-CRESOL DEUTEROMETHYL ETHER
MW: 122
Formula: C8H10O
Synonym: MassBank: JP001146
Synonym: PARA-CRESOL DEUTEROMETHYL ETHER
Synonym: (2H3)METHYL PARA-TOLYL ETHER
Structure: 28324833294D455448594C20504152412D544F4C594C2045544845522E6D6F6C0A20204368656D447261773130323030393133313132440A2031322031322020302020302020302020302020302020302020302020303939392056323030300A2020202D302E333537322020202D302E3135313420202020302E303030302043202020302020302020302020302020302020302020302020302020302020302020302020300A2020202D302E333537322020202D302E3937363320202020302E303030302043202020302020302020302020302020302020302020302020302020302020302020302020300A20202020302E333537332020202D312E3338383820202020302E303030302043202020302020302020302020302020302020302020302020302020302020302020302020300A20202020312E303731372020202D302E3937363320202020302E303030302043202020302020302020302020302020302020302020302020302020302020302020302020300A20202020312E303731372020202D302E3135313420202020302E303030302043202020302020302020302020302020302020302020302020302020302020302020302020300A20202020302E3335373320202020302E3236313120202020302E303030302043202020302020302020302020302020302020302020302020302020302020302020302020300A20202020302E3335373320202020312E3038363120202020302E30303030204F202020302020302020302020302020302020302020302020302020302020302020302020300A2020202D302E3335373220202020312E3439383620202020302E303030302043202020302020302020302020302020302020302020302020302020302020302020302020300A2020202D302E3736393720202020302E3738343120202020302E303030302048202020312020302020302020302020302020302020302020302020302020302020302020300A2020202D312E3037313720202020312E3931313120202020302E303030302048202020312020302020302020302020302020302020302020302020302020302020302020300A20202020302E3035353320202020322E3231333120202020302E303030302048202020312020302020302020302020302020302020302020302020302020302020302020300A20202020302E333536322020202D322E3231333120202020302E303030302043202020302020302020302020302020302020302020302020302020302020302020302020300A2020312020322020322020302020202020200A2020322020332020312020302020202020200A2020332020342020322020302020202020200A2020342020352020312020302020202020200A2020352020362020322020302020202020200A2020362020312020312020302020202020200A2020362020372020312020302020202020200A2020372020382020312020302020202020200A2020382020392020312020302020202020200A2020382031302020312020302020202020200A2020382031312020312020302020202020200A2020332031322020312020302020202020200A4D202049534F2020332020203920202032202031302020203220203131202020320A4D202053545920203120202031205355500A4D2020534C4220203120202031202020310A4D202053414C20202031202031202031320A4D202053424C20202031202031202031320A4D2020534D5420202031204D650A4D2020534256202020312031322020202D372E3034313120202020362E383636380A4D2020454E44
Contributor: NAKAYAMA M, MASS SPECTROSCOPY SOC. OF JAPAN (MSSJ)
InstType: EI
InstName: HITACHI RMS-4
IoniMethod: _ENERGY 80 eV
IonPolarity: pos
Date: 2010-10-09 19:48:36+02:00
Num Peaks: 94
15 107 16 76 17 107 18 107 26 107 27 259 28 641 29 233 30 138 31 198 
32 176 33 46 37 84 38 176 39 412 40 107 41 198 42 107 43 198 44 107 
45 176 46 76 47 46 48 46 49 69 50 360 51 565 52 344 53 259 54 76 
55 130 56 100 57 107 58 84 59 76 60 61 61 107 62 176 63 320 64 138 
65 390 66 107 67 92 68 61 69 92 70 61 71 76 72 61 73 122 74 138 
75 114 76 100 77 999 78 412 79 641 80 138 81 92 82 33 83 38 84 33 
85 38 86 92 87 92 88 69 89 122 90 100 91 275 92 198 93 153 94 92 
95 153 96 38 97 33 98 33 99 33 100 23 101 23 102 33 103 38 104 33 
105 153 106 69 107 428 108 214 109 100 110 107 111 92 115 33 121 92 122 176 
123 351 124 443 125 267 126 21 
