Name: N-(3-(4-HYDROXYPHENYL)PROPIONYL)PYRROLIDIN-2-ONE
MW: 233
Formula: C13H15NO3
Synonym: MassBank: JP006744
Synonym: N-(3-(4-HYDROXYPHENYL)PROPIONYL)PYRROLIDIN-2-ONE
Structure: 4E2D28332D28342D485944524F58595048454E594C2950524F50494F4E594C29505952524F4C4944494E2D322D4F4E452E6D6F6C0A20204368656D447261773038313231303031313232440A2031372031382020302020302020302020302020302020302020302020303939392056323030300A2020202D312E3834373820202020302E3030303020202020302E30303030204E202020302020302020302020302020302020302020302020302020302020302020302020300A2020202D322E363031352020202D302E3333353620202020302E303030302043202020302020302020302020302020302020302020302020302020302020302020302020300A2020202D332E3135333520202020302E3237373520202020302E303030302043202020302020302020302020302020302020302020302020302020302020302020302020300A2020202D322E3734313020202020302E3939323020202020302E303030302043202020302020302020302020302020302020302020302020302020302020302020302020300A2020202D312E3933343020202020302E3832303520202020302E303030302043202020302020302020302020302020302020302020302020302020302020302020302020300A2020202D322E373733302020202D312E3134323520202020302E30303030204F202020302020302020302020302020302020302020302020302020302020302020302020300A2020202D312E313333332020202D302E3431323520202020302E303030302043202020302020302020302020302020302020302020302020302020302020302020302020300A2020202D312E313333332020202D312E3233373520202020302E30303030204F202020302020302020302020302020302020302020302020302020302020302020302020300A2020202D302E3431383920202020302E3030303020202020302E303030302043202020302020302020302020302020302020302020302020302020302020302020302020300A20202020302E323935362020202D302E3431323520202020302E303030302043202020302020302020302020302020302020302020302020302020302020302020302020300A20202020312E3031303120202020302E3030303020202020302E303030302043202020302020302020302020302020302020302020302020302020302020302020302020300A20202020312E3031303120202020302E3832353020202020302E303030302043202020302020302020302020302020302020302020302020302020302020302020302020300A20202020312E3732343620202020312E3233373520202020302E303030302043202020302020302020302020302020302020302020302020302020302020302020302020300A20202020322E3433393020202020302E3832353020202020302E303030302043202020302020302020302020302020302020302020302020302020302020302020302020300A20202020322E3433393020202020302E3030303020202020302E303030302043202020302020302020302020302020302020302020302020302020302020302020302020300A20202020312E373234362020202D302E3431323520202020302E303030302043202020302020302020302020302020302020302020302020302020302020302020302020300A20202020332E3135333520202020312E3233373520202020302E30303030204F202020302020302020302020302020302020302020302020302020302020302020302020300A2020312020322020312020302020202020200A2020322020332020312020302020202020200A2020332020342020312020302020202020200A2020342020352020312020302020202020200A2020312020352020312020302020202020200A2020322020362020322020302020202020200A2020372020382020322020302020202020200A2020372020392020312020302020202020200A2020392031302020312020302020202020200A2031312031322020312020302020202020200A2031322031332020322020302020202020200A2031332031342020312020302020202020200A2031342031352020322020302020202020200A2031352031362020312020302020202020200A2031312031362020322020302020202020200A2031342031372020312020302020202020200A2031302031312020312020302020202020200A2020312020372020312020302020202020200A4D2020454E44
Contributor: MASS SPECTROSCOPY SOC. OF JAPAN (MSSJ)
InstType: EI
InstName: HITACHI RMU-6G
IoniMethod: _ENERGY 20 eV
IonPolarity: pos
Date: 2010-10-09 19:48:36+02:00
Num Peaks: 70
41 13 42 10 43 35 44 10 45 13 55 25 56 20 57 52 58 10 60 28 
61 10 67 10 68 10 69 60 70 20 71 35 73 25 77 10 81 35 82 18 
83 28 84 30 85 40 86 650 87 40 91 20 92 10 93 10 94 18 95 20 
96 12 97 25 98 30 99 20 100 45 101 10 103 10 107 220 108 20 109 10 
110 10 111 18 112 12 113 10 119 25 120 999 121 120 122 10 123 10 127 15 
129 12 131 15 135 10 136 10 137 12 140 45 141 10 147 50 148 120 149 37 
152 10 165 10 167 12 176 10 177 10 179 10 180 30 233 300 234 52 235 10 
