Name: MassBank: JP001757
MW: 292
Formula: C17H24O4
Synonym: MassBank: JP001757
Synonym: 1,2-BENZENEDICARBOXYLIC ACID 2-ETHYLHEXYLMETHYL ESTER
Synonym: METHYL(2-ETHYLHEXYL) PHTHALATE
Structure: 312C322D42454E5A454E454449434152424F58594C4943204143494420322D455448594C484558594C4D455448594C2045535445522E6D6F6C0A20204368656D447261773130323330393133353932440A2032312032312020302020302020302020302020302020302020302020303939392056323030300A2020202D312E303731372020202D312E3635303020202020302E303030302043202020302020302020302020302020302020302020302020302020302020302020302020300A2020202D302E333537322020202D322E3036323520202020302E303030302043202020302020302020302020302020302020302020302020302020302020302020302020300A2020202D302E333537322020202D322E3838373520202020302E303030302043202020302020302020302020302020302020302020302020302020302020302020302020300A2020202D312E303731372020202D332E3330303020202020302E303030302043202020302020302020302020302020302020302020302020302020302020302020302020300A2020202D312E373836322020202D322E3838373520202020302E303030302043202020302020302020302020302020302020302020302020302020302020302020302020300A2020202D312E373836322020202D322E3036323520202020302E303030302043202020302020302020302020302020302020302020302020302020302020302020302020300A2020202D312E303731372020202D302E3832353020202020302E303030302043202020302020302020302020302020302020302020302020302020302020302020302020300A2020202D302E333537322020202D302E3431323520202020302E30303030204F202020302020302020302020302020302020302020302020302020302020302020302020300A2020202D312E373836322020202D302E3431323520202020302E30303030204F202020302020302020302020302020302020302020302020302020302020302020302020300A20202020302E333537322020202D312E3635303020202020302E303030302043202020302020302020302020302020302020302020302020302020302020302020302020300A20202020302E333537322020202D302E3832353020202020302E30303030204F202020302020302020302020302020302020302020302020302020302020302020302020300A20202020312E303731372020202D322E3036323520202020302E30303030204F202020302020302020302020302020302020302020302020302020302020302020302020300A2020202D312E3738363220202020302E3431323520202020302E303030302043202020302020302020302020302020302020302020302020302020302020302020302020300A2020202D312E3037313720202020302E3832353020202020302E303030302043202020302020302020302020302020302020302020302020302020302020302020302020300A2020202D312E3037313720202020312E3635303020202020302E303030302043202020302020302020302020302020302020302020302020302020302020302020302020300A2020202D302E3335373220202020322E3036323520202020302E303030302043202020302020302020302020302020302020302020302020302020302020302020302020300A2020202D302E3335373220202020322E3838373520202020302E303030302043202020302020302020302020302020302020302020302020302020302020302020302020300A20202020302E3335373220202020332E3330303020202020302E303030302043202020302020302020302020302020302020302020302020302020302020302020302020300A2020202D302E3335373220202020302E3431323520202020302E303030302043202020302020302020302020302020302020302020302020302020302020302020302020300A20202020302E3335373220202020302E3832353020202020302E303030302043202020302020302020302020302020302020302020302020302020302020302020302020300A20202020312E373836322020202D312E3635303020202020302E303030302043202020302020302020302020302020302020302020302020302020302020302020302020300A2020312020322020312020302020202020200A2020322020332020322020302020202020200A2020332020342020312020302020202020200A2020342020352020322020302020202020200A2020352020362020312020302020202020200A2020312020362020322020302020202020200A2020372020382020322020302020202020200A2020372020392020312020302020202020200A2020312020372020312020302020202020200A2031302031312020322020302020202020200A2031302031322020312020302020202020200A2020322031302020312020302020202020200A2031332031342020312020302020202020200A2031342031352020312020302020202020200A2031352031362020312020302020202020200A2031362031372020312020302020202020200A2031372031382020312020302020202020200A2031392032302020312020302020202020200A2031342031392020312020302020202020200A2020392031332020312020302020202020200A2031322032312020312020302020202020200A4D2020454E44
Contributor: MASS SPECTROSCOPY SOC. OF JAPAN (MSSJ)
InstType: EI
InstName: Unknown
IoniMethod: EI
IonPolarity: pos
Date: 2010-10-09 19:48:36+02:00
Num Peaks: 37
28 10 41 33 42 27 43 81 55 58 56 56 57 70 68 4 69 28 70 315 
71 55 77 23 82 16 83 112 84 53 91 6 92 24 97 5 104 11 105 18 
112 120 113 17 132 12 133 13 135 29 136 18 149 450 150 43 151 3 162 4 
163 999 164 114 165 11 181 228 182 23 293 26 294 4 
