Name: (Z)-GAMMA-PHENOXYALLYLTRIMETHYLSILANE
MW: 206
Formula: C12H18OSi
Synonym: MassBank: JP004992
Synonym: (Z)-GAMMA-PHENOXYALLYLTRIMETHYLSILANE
Structure: 285A292D47414D4D412D5048454E4F5859414C4C594C5452494D455448594C53494C414E452E6D6F6C0A20204368656D447261773130323230393231343532440A2031372031372020302020302020302020302020302020302020302020303939392056323030300A2020202D302E3030303120202020312E3037313720202020302E303030302043202020302020302020302020302020302020302020302020302020302020302020302020300A20202020302E3832343920202020312E3037313720202020302E303030302043202020302020302020302020302020302020302020302020302020302020302020302020300A2020202D302E3431323620202020312E3738363120202020302E303030302048202020302020302020302020302020302020302020302020302020302020302020302020300A20202020312E3233373420202020302E3335373320202020302E303030302043202020302020302020302020302020302020302020302020302020302020302020302020300A20202020312E3233373420202020312E3738363120202020302E303030302048202020302020302020302020302020302020302020302020302020302020302020302020300A2020202D302E3431323620202020302E3335373320202020302E303030302043202020302020302020302020302020302020302020302020302020302020302020302020300A2020202D312E3233373420202020302E3335373320202020302E30303030204F202020302020302020302020302020302020302020302020302020302020302020302020300A20202020322E3036323420202020302E3335373320202020302E303030302053692020302020302020302020302020302020302020302020302020302020302020302020300A20202020322E3838373420202020302E3335373320202020302E303030302043202020302020302020302020302020302020302020302020302020302020302020302020300A2020202D312E363439392020202D302E3335373220202020302E303030302043202020302020302020302020302020302020302020302020302020302020302020302020300A2020202D322E343734392020202D302E3335373220202020302E303030302043202020302020302020302020302020302020302020302020302020302020302020302020300A2020202D322E383837342020202D312E3037313620202020302E303030302043202020302020302020302020302020302020302020302020302020302020302020302020300A2020202D322E343734392020202D312E3738363120202020302E303030302043202020302020302020302020302020302020302020302020302020302020302020302020300A2020202D312E363439392020202D312E3738363120202020302E303030302043202020302020302020302020302020302020302020302020302020302020302020302020300A2020202D312E323337342020202D312E3037313620202020302E303030302043202020302020302020302020302020302020302020302020302020302020302020302020300A20202020322E3036323420202020312E3138323320202020302E303030302043202020302020302020302020302020302020302020302020302020302020302020302020300A20202020322E303632352020202D302E3436373720202020302E303030302043202020302020302020302020302020302020302020302020302020302020302020302020300A2020312020322020322020302020202020200A2020312020332020312020302020202020200A2020322020342020312020302020202020200A2020322020352020312020302020202020200A2020312020362020312020302020202020200A2020372020362020312020302020202020200A2020342020382020312020302020202020200A2020382020392020312020302020202020200A2020372031302020312020302020202020200A2031302031312020322020302020202020200A2031312031322020312020302020202020200A2031322031332020322020302020202020200A2031332031342020312020302020202020200A2031342031352020322020302020202020200A2031352031302020312020302020202020200A2020382031362020312020312020202020200A2020382031372020312020312020202020200A4D2020454E44
Contributor: MASS SPECTROSCOPY SOC. OF JAPAN (MSSJ)
InstType: EI
InstName: JEOL JMS-D-3000
IoniMethod: _ENERGY 70 eV
IonPolarity: pos
Date: 2010-10-09 19:48:36+02:00
Num Peaks: 30
43 42 44 13 45 69 51 36 55 10 58 14 59 36 72 11 73 999 74 94 
75 71 76 9 77 66 91 15 95 11 105 11 116 22 117 61 129 63 135 20 
137 16 151 162 152 24 177 8 179 23 191 122 192 23 205 66 206 138 207 26 
