Name: (24R)-24-METHYL-5-CHOLESTEN-3BETA-YL TRIMETHYLSILYL ETHER
MW: 472
Formula: C31H56OSi
Synonym: MassBank: JP001882
Synonym: (24R)-24-METHYL-5-CHOLESTEN-3BETA-YL TRIMETHYLSILYL ETHER
Synonym: CAMPESTERYL TRIMETHYLSILYL ETHER
Structure: 28323452292D32342D4D455448594C2D352D43484F4C455354454E2D33424554412D594C205452494D455448594C53494C594C2045544845522E6D6F6C0A20204368656D447261773130323030393038353932440A2034312034342020302020302020302020302020302020302020302020303939392056323030300A2020202D322E383436382020202D302E3934343120202020302E303030302043202020302020302020302020302020302020302020302020302020302020302020302020300A2020202D322E383436382020202D312E3736393120202020302E303030302043202020302020302020302020302020302020302020302020302020302020302020302020300A2020202D322E313332332020202D322E3138313520202020302E303030302043202020302020302020302020302020302020302020302020302020302020302020302020300A2020202D312E343137392020202D312E3736393120202020302E303030302043202020302020302020302020302020302020302020302020302020302020302020302020300A2020202D312E343137392020202D302E3934343120202020302E303030302043202020302020302020302020302020302020302020302020302020302020302020302020300A2020202D322E313332332020202D302E3533313620202020302E303030302043202020302020302020302020302020302020302020302020302020302020302020302020300A2020202D302E373033342020202D322E3138313520202020302E303030302043202020302020302020302020302020302020302020302020302020302020302020302020300A20202020302E303131312020202D312E3736393120202020302E303030302043202020302020302020302020302020302020302020302020302020302020302020302020300A20202020302E303131312020202D302E3934343020202020302E303030302043202020302020302020302020302020302020302020302020302020302020302020302020300A2020202D302E373033342020202D302E3533313620202020302E303030302043202020302020302020302020302020302020302020302020302020302020302020302020300A20202020302E373235352020202D302E3533313620202020302E303030302043202020302020302020302020302020302020302020302020302020302020302020302020300A20202020302E3732353520202020302E3239333420202020302E303030302043202020302020302020302020302020302020302020302020302020302020302020302020300A20202020302E3031313120202020302E3730353920202020302E303030302043202020302020302020302020302020302020302020302020302020302020302020302020300A2020202D302E3730333420202020302E3239333420202020302E303030302043202020302020302020302020302020302020302020302020302020302020302020302020300A20202020312E353130322020202D302E3738363520202020302E303030302043202020302020302020302020302020302020302020302020302020302020302020302020300A20202020312E393935312020202D302E3131393120202020302E303030302043202020302020302020302020302020302020302020302020302020302020302020302020300A20202020312E3531303220202020302E3534383420202020302E303030302043202020302020302020302020302020302020302020302020302020302020302020302020300A20202020302E373235362020202D312E3335363520202020302E303030302048202020302020302020302020302020302020302020302020302020302020302020302020300A2020202D332E313239302020202D322E3534343320202020302E30303030204F202020302020302020302020302020302020302020302020302020302020302020302020300A2020202D332E363539332020202D312E3632353820202020302E303030302048202020302020302020302020302020302020302020302020302020302020302020302020300A2020202D312E343137392020202D302E3131393120202020302E303030302048202020302020302020302020302020302020302020302020302020302020302020302020300A20202020302E393339302020202D312E3332383520202020302E303030302048202020302020302020302020302020302020302020302020302020302020302020302020300A20202020322E3235373920202020302E3839373120202020302E303030302048202020302020302020302020302020302020302020302020302020302020302020302020300A2020202D302E373033342020202D332E3030363520202020302E303030302048202020302020302020302020302020302020302020302020302020302020302020302020300A20202020312E3235303720202020312E3538393120202020302E303030302043202020302020302020302020302020302020302020302020302020302020302020302020300A20202020302E3435373620202020312E3831363520202020302E303030302043202020302020302020302020302020302020302020302020302020302020302020302020300A20202020322E3037333720202020312E3634363620202020302E303030302043202020302020302020302020302020302020302020302020302020302020302020302020300A20202020312E3333363920202020322E3430393520202020302E303030302048202020302020302020302020302020302020302020302020302020302020302020302020300A20202020322E3433353320202020322E3338383120202020302E303030302043202020302020302020302020302020302020302020302020302020302020302020302020300A20202020332E3235383320202020322E3434353720202020302E303030302043202020302020302020302020302020302020302020302020302020302020302020302020300A20202020342E3031323020202020322E3738313220202020302E303030302043202020302020302020302020302020302020302020302020302020302020302020302020300A20202020342E3637393420202020322E3239363320202020302E303030302043202020302020302020302020302020302020302020302020302020302020302020302020300A20202020342E3039383220202020332E3630313720202020302E303030302043202020302020302020302020302020302020302020302020302020302020302020302020300A2020202D332E393034322020202D322E3832363520202020302E303030302053692020302020302020302020302020302020302020302020302020302020302020302020300A20202020332E3435373920202020312E3634353220202020302E303030302043202020302020302020302020302020302020302020302020302020302020302020302020300A20202020332E3035383720202020332E3234363220202020302E303030302048202020302020302020302020302020302020302020302020302020302020302020302020300A2020202D302E373034332020202D312E3335343520202020302E303030302043202020302020302020302020302020302020302020302020302020302020302020302020300A2020202D342E363739342020202D332E3130383720202020302E303030302043202020302020302020302020302020302020302020302020302020302020302020302020300A20202020302E3636363620202020312E3131373720202020302E303030302043202020302020302020302020302020302020302020302020302020302020302020302020300A2020202D332E363232302020202D332E3630313720202020302E303030302043202020302020302020302020302020302020302020302020302020302020302020302020300A2020202D342E313836342020202D322E3035313220202020302E303030302043202020302020302020302020302020302020302020302020302020302020302020302020300A2020312020322020312020302020202020200A2020322020332020312020302020202020200A2020332020342020312020302020202020200A2020342020352020312020302020202020200A2020352020362020312020302020202020200A2020362020312020312020302020202020200A2020342020372020322020302020202020200A2020372020382020312020302020202020200A2020382020392020312020302020202020200A2020392031302020312020302020202020200A2031302020352020312020302020202020200A2020392031312020312020302020202020200A2031312031322020312020302020202020200A2031322031332020312020302020202020200A2031332031342020312020302020202020200A2031342031302020312020302020202020200A2031312031352020312020302020202020200A2031352031362020312020302020202020200A2031362031372020312020302020202020200A2031372031322020312020302020202020200A2020392031382020312020312020202020200A2020322031392020312020312020202020200A2020322032302020312020362020202020200A2031302032312020312020362020202020200A2031312032322020312020362020202020200A2031372032332020312020362020202020200A2020372032342020312020302020202020200A2031372032352020312020302020202020200A2032352032362020312020302020202020200A2032352032372020312020302020202020200A2032352032382020312020312020202020200A2032372032392020312020302020202020200A2032392033302020312020302020202020200A2033302033312020312020302020202020200A2033312033322020312020302020202020200A2033312033332020312020302020202020200A2031392033342020312020302020202020200A2033302033352020312020312020202020200A2033302033362020312020312020202020200A2020352033372020312020312020202020200A2033342033382020312020302020202020200A2031322033392020312020312020202020200A2033342034302020312020302020202020200A2033342034312020312020302020202020200A4D202053545920203120202031205355500A4D2020534C4220203120202031202020310A4D202053414C20202031202031202033370A4D202053424C20202031202031202034300A4D2020534D5420202031204D650A4D2020534256202020312034302020202D362E3130393520202020372E333738380A4D202053545920203120202032205355500A4D2020534C4220203120202032202020320A4D202053414C20202032202031202033380A4D202053424C20202032202031202034310A4D2020534D5420202032204D650A4D2020534256202020322034312020202D372E3539383320202020372E353037300A4D202053545920203120202033205355500A4D2020534C4220203120202033202020330A4D202053414C20202033202031202033390A4D202053424C20202033202031202034320A4D2020534D5420202033204D650A4D2020534256202020332034322020202D362E3838323020202020382E363133350A4D202053545920203120202034205355500A4D2020534C4220203120202034202020340A4D202053414C20202034202031202034300A4D202053424C20202034202031202034330A4D2020534D5420202034204D650A4D2020534256202020342034332020202D362E3534303920202020372E303134300A4D202053545920203120202035205355500A4D2020534C4220203120202035202020350A4D202053414C20202035202031202034310A4D202053424C20202035202031202034340A4D2020534D5420202035204D650A4D2020534256202020352034342020202D372E3130353320202020382E353634350A4D2020454E44
Contributor: SEYAMA Y, DEPT. OF PHYSIOL. CHEMISTRY AND NUTRITION, FAC. OF MEDICINE, UNIV. OF TOKYO
InstType: EI
InstName: SHIMADZU LKB-9000B
IoniMethod: _ENERGY 70 eV
IonPolarity: pos
Date: 2010-10-09 19:48:36+02:00
Num Peaks: 136
41 102 42 19 43 367 44 32 47 19 51 18 53 25 55 252 56 23 57 196 
63 18 65 54 67 113 69 167 70 38 71 226 73 508 74 40 75 264 76 36 
79 77 80 26 81 177 82 11 83 106 84 12 85 64 89 14 91 179 92 42 
93 191 94 48 95 321 96 14 97 95 99 59 101 73 103 61 104 11 105 203 
106 56 107 258 108 53 109 121 111 48 113 19 115 47 116 67 117 61 118 23 
119 268 120 127 121 277 122 36 123 61 125 27 127 52 128 16 129 999 130 174 
131 161 132 64 133 184 134 109 135 121 136 63 143 127 144 104 145 241 146 110 
147 151 148 21 149 65 151 21 153 16 155 51 157 66 158 108 159 23 160 51 
161 104 162 86 163 73 164 42 165 32 167 17 169 60 171 23 173 50 174 49 
175 59 176 53 177 28 180 51 185 30 186 47 187 13 189 15 190 61 193 20 
195 29 196 59 197 29 198 58 199 35 201 26 202 25 203 64 211 23 213 94 
222 42 223 14 225 82 227 73 229 35 247 55 253 42 255 132 256 60 257 43 
260 45 261 132 262 46 281 60 289 71 341 67 342 157 343 745 344 209 367 259 
368 111 382 547 383 165 457 79 472 235 473 111 
