Name: 17BETA-ACETOXY-1ALPHA-HYDROXY-5ALPHA-ANDROSTANE
MW: 334
Formula: C21H34O3
Synonym: MassBank: JP008150
Synonym: 17BETA-ACETOXY-1ALPHA-HYDROXY-5ALPHA-ANDROSTANE
Structure: 3137424554412D414345544F58592D31414C5048412D485944524F58592D35414C5048412D414E44524F5354414E452E6D6F6C0A20204368656D447261773132313130393031303332440A2033302033332020302020302020302020302020302020302020302020303939392056323030300A2020202D332E303031312020202D312E3632323720202020302E303030302043202020302020302020302020302020302020302020302020302020302020302020302020300A2020202D332E303031312020202D302E3739373720202020302E303030302043202020302020302020302020302020302020302020302020302020302020302020302020300A2020202D322E323836372020202D302E3338353220202020302E303030302043202020302020302020302020302020302020302020302020302020302020302020302020300A2020202D322E323836372020202D322E3033353220202020302E303030302043202020302020302020302020302020302020302020302020302020302020302020302020300A2020202D312E353732322020202D312E3632323720202020302E303030302043202020302020302020302020302020302020302020302020302020302020302020302020300A2020202D302E383537372020202D322E3033353220202020302E303030302043202020302020302020302020302020302020302020302020302020302020302020302020300A2020202D302E313433322020202D312E3632323720202020302E303030302043202020302020302020302020302020302020302020302020302020302020302020302020300A2020202D302E313433322020202D302E3739373720202020302E303030302043202020302020302020302020302020302020302020302020302020302020302020302020300A20202020302E353731322020202D302E3338353220202020302E303030302043202020302020302020302020302020302020302020302020302020302020302020302020300A20202020312E333535392020202D302E3634303220202020302E303030302043202020302020302020302020302020302020302020302020302020302020302020302020300A20202020312E3834303820202020302E3032373320202020302E303030302043202020302020302020302020302020302020302020302020302020302020302020302020300A20202020312E3335353920202020302E3639343720202020302E303030302043202020302020302020302020302020302020302020302020302020302020302020302020300A20202020302E3537313220202020302E3433393820202020302E303030302043202020302020302020302020302020302020302020302020302020302020302020302020300A20202020302E3537313220202020312E3236343820202020302E303030302043202020302020302020302020302020302020302020302020302020302020302020302020300A2020202D302E3134333220202020302E3835323320202020302E303030302043202020302020302020302020302020302020302020302020302020302020302020302020300A2020202D302E3835373720202020302E3433393820202020302E303030302043202020302020302020302020302020302020302020302020302020302020302020302020300A2020202D302E383537372020202D302E3338353220202020302E303030302043202020302020302020302020302020302020302020302020302020302020302020302020300A2020202D312E353732322020202D302E3739373720202020302E303030302043202020302020302020302020302020302020302020302020302020302020302020302020300A2020202D312E3537323220202020302E3032373320202020302E303030302043202020302020302020302020302020302020302020302020302020302020302020302020300A2020202D322E3639393220202020302E3332393220202020302E30303030204F202020302020302020302020302020302020302020302020302020302020302020302020300A20202020312E3631303820202020312E3437393320202020302E30303030204F202020302020302020302020302020302020302020302020302020302020302020302020300A20202020322E3431373820202020312E3635303820202020302E303030302043202020302020302020302020302020302020302020302020302020302020302020302020300A20202020332E3030313120202020312E3036373520202020302E30303030204F202020302020302020302020302020302020302020302020302020302020302020302020300A20202020322E3633313320202020322E3434373720202020302E303030302043202020302020302020302020302020302020302020302020302020302020302020302020300A2020202D312E353732322020202D322E3434373720202020302E303030302048202020302020302020302020302020302020302020302020302020302020302020302020300A2020202D302E383537372020202D312E3231303220202020302E303030302048202020302020302020302020302020302020302020302020302020302020302020302020300A2020202D302E3134333220202020302E3032373320202020302E303030302048202020302020302020302020302020302020302020302020302020302020302020302020300A20202020302E353731322020202D312E3231303220202020302E303030302048202020302020302020302020302020302020302020302020302020302020302020302020300A20202020322E3137303720202020302E3832333820202020302E303030302048202020302020302020302020302020302020302020302020302020302020302020302020300A2020202D322E3037333120202020302E3431313720202020302E303030302048202020302020302020302020302020302020302020302020302020302020302020302020300A2020312020322020312020302020202020200A2020322020332020312020302020202020200A2020312020342020312020302020202020200A2020342020352020312020302020202020200A2020352020362020312020302020202020200A2020362020372020312020302020202020200A2020372020382020312020302020202020200A2020382020392020312020302020202020200A2020392031302020312020302020202020200A2031302031312020312020302020202020200A2031312031322020312020302020202020200A2031322031332020312020302020202020200A2020392031332020312020302020202020200A2031332031342020312020312020202020200A2031332031352020312020302020202020200A2031352031362020312020302020202020200A2031362031372020312020302020202020200A2020382031372020312020302020202020200A2031372031382020312020302020202020200A2020332031382020312020302020202020200A2020352031382020312020302020202020200A2031382031392020312020312020202020200A2020332032302020312020362020202020200A2032322032332020322020302020202020200A2032322032342020312020302020202020200A2032312032322020312020302020202020200A2031322032312020312020312020202020200A2020352032352020312020362020202020200A2031372032362020312020362020202020200A2020382032372020312020312020202020200A2020392032382020312020362020202020200A2031322032392020312020362020202020200A2020332033302020312020312020202020200A4D2020454E44
Contributor: NARA WOMEN'S UNIVERSITY
InstType: EI
InstName: HITACHI M-80
IoniMethod: _ENERGY 70 eV
IonPolarity: pos
Date: 2010-10-09 19:48:36+02:00
Num Peaks: 128
29 18 41 53 43 235 44 11 53 18 55 79 57 19 65 9 67 65 68 13 
69 28 71 14 77 30 79 81 80 20 81 125 82 18 83 18 91 72 92 18 
93 110 94 83 95 101 96 13 97 18 105 111 106 43 107 110 108 146 109 61 
110 13 111 23 117 23 118 18 119 69 120 46 121 67 122 27 123 18 124 11 
129 12 131 93 132 28 133 83 134 57 135 61 136 14 137 11 143 13 144 10 
145 89 146 209 147 130 148 86 149 43 150 9 157 13 158 9 159 101 160 60 
161 83 162 62 163 28 165 10 171 14 173 55 174 58 175 60 176 18 177 11 
179 11 180 10 185 73 186 19 187 41 188 24 189 18 199 32 200 31 201 362 
202 87 203 32 206 35 207 11 213 32 214 18 215 135 216 42 217 29 218 10 
219 45 220 14 221 10 227 28 228 25 229 13 230 43 231 16 233 28 234 12 
241 166 242 35 245 14 246 17 247 9 248 16 255 19 256 676 257 280 258 47 
259 120 260 77 261 104 262 28 273 22 274 403 275 90 276 12 287 13 301 49 
302 11 315 8 316 999 317 239 318 33 319 9 334 191 335 45 
