Name: MassBank: JP007789
CAS: 3581-91-7
MW: 113
Formula: C5H7NS
Synonym: MassBank: JP007789
Synonym: 4,5-DIMETHYLTHIAZOLE
Structure: 310A31390A342C352D44494D455448594C544849415A4F4C452E6D6F6C0A20204368656D447261773130313831303136333132440A2020372020372020302020302020302020302020302020302020302020303939392056323030300A20202020312E3034373320202020302E3032303220202020302E303030302053202020302020302020302020302020302020302020302020302020302020302020302020300A20202020312E303437332020202D302E3830343820202020302E303030302043202020302020302020302020302020302020302020302020302020302020302020302020300A20202020302E323632372020202D312E3035393720202020302E30303030204E202020302020302020302020302020302020302020302020302020302020302020302020300A2020202D302E323232332020202D302E3339323320202020302E303030302043202020302020302020302020302020302020302020302020302020302020302020302020300A20202020302E3236323720202020302E3237353120202020302E303030302043202020302020302020302020302020302020302020302020302020302020302020302020300A20202020302E3030373720202020312E3035393720202020302E303030302043202020302020302020302020302020302020302020302020302020302020302020302020300A2020202D312E303437332020202D302E3339323320202020302E303030302043202020302020302020302020302020302020302020302020302020302020302020302020300A2020312020322020312020302020202020200A2020322020332020322020302020202020200A2020332020342020312020302020202020200A2020342020352020322020302020202020200A2020312020352020312020302020202020200A2020352020362020312020302020202020200A2020342020372020312020302020202020200A4D2020454E44
Contributor: HASHIMOTO K, KYOTO COLLEGE OF PHARMACY
InstType: EI
InstName: HITACHI M-80
IoniMethod: _ENERGY 20 eV
IonPolarity: pos
Date: 2010-10-09 19:48:36+02:00
Num Peaks: 35
27 40 39 71 41 71 42 90 45 311 46 61 47 20 52 20 53 250 54 110 
55 61 58 61 59 170 60 30 61 10 65 20 68 29 71 939 72 250 73 92 
74 10 80 50 84 20 85 509 86 730 87 90 88 41 98 310 99 10 100 10 
112 369 113 999 114 210 115 189 116 11 
