Name: 2-BUTYL-2-CYCLOPENTENONE
MW: 138
Formula: C9H14O
Synonym: MassBank: JP009057
Synonym: 2-BUTYL-2-CYCLOPENTENONE
Structure: 322D425554594C2D322D4359434C4F50454E54454E4F4E452E6D6F6C0A20204368656D447261773031303331303130313232440A2031302031302020302020302020302020302020302020302020302020303939392056323030300A20202020312E3532393820202020302E3236303320202020302E303030302043202020302020302020302020302020302020302020302020302020302020302020302020300A20202020302E373736312020202D302E3037353320202020302E303030302043202020302020302020302020302020302020302020302020302020302020302020302020300A20202020302E383632332020202D302E3839353720202020302E303030302043202020302020302020302020302020302020302020302020302020302020302020302020300A20202020312E363639332020202D312E3036373320202020302E303030302043202020302020302020302020302020302020302020302020302020302020302020302020300A20202020322E303831382020202D302E3335323820202020302E303030302043202020302020302020302020302020302020302020302020302020302020302020302020300A20202020302E3036313620202020302E3333373220202020302E303030302043202020302020302020302020302020302020302020302020302020302020302020302020300A2020202D302E363532392020202D302E3037353320202020302E303030302043202020302020302020302020302020302020302020302020302020302020302020302020300A2020202D312E3336373320202020302E3333373220202020302E303030302043202020302020302020302020302020302020302020302020302020302020302020302020300A2020202D322E303831382020202D302E3037353320202020302E303030302043202020302020302020302020302020302020302020302020302020302020302020302020300A20202020312E3730313320202020312E3036373320202020302E30303030204F202020302020302020302020302020302020302020302020302020302020302020302020300A2020312020322020312020302020202020200A2020322020332020322020302020202020200A2020332020342020312020302020202020200A2020342020352020312020302020202020200A2020312020352020312020302020202020200A2020362020372020312020302020202020200A2020372020382020312020302020202020200A2020382020392020312020302020202020200A2020322020362020312020302020202020200A2020312031302020322020302020202020200A4D2020454E44
Contributor: SODA AROMATIC CO., LTD.
InstType: EI
InstName: HITACHI M-80B
IoniMethod: _ENERGY 70 eV
IonPolarity: pos
Date: 2010-10-09 19:48:36+02:00
Num Peaks: 46
15 11 26 22 27 290 29 86 38 22 39 329 40 42 41 430 42 38 43 80 
50 29 51 93 52 53 53 221 54 94 55 117 56 12 63 26 65 108 66 84 
67 432 68 216 69 29 77 77 78 23 79 155 80 22 81 270 82 36 83 20 
91 29 93 16 94 19 95 272 96 999 97 184 98 11 105 16 109 380 110 162 
111 11 123 195 124 15 137 56 138 384 139 38 
