Name: HYDROXYCITRONELLAL DIMETHYL ACETAL
MW: 218
Formula: C12H26O3
Synonym: MassBank: JP008391
Synonym: HYDROXYCITRONELLAL DIMETHYL ACETAL
Synonym: 3,7-DIMETHYL-7-HYDROXYOCTANAL DIMETHYL ACETAL
Structure: 485944524F5859434954524F4E454C4C414C2044494D455448594C2041434554414C2E6D6F6C0A20204368656D447261773032323231303038333132440A2031352031342020302020302020302020302020302020302020302020303939392056323030300A20202020312E3539343720202020302E3030303020202020302E303030302043202020302020302020302020302020302020302020302020302020302020302020302020300A20202020302E3736393720202020302E3030303020202020302E303030302043202020302020302020302020302020302020302020302020302020302020302020302020300A20202020302E333537322020202D302E3731343520202020302E303030302043202020302020302020302020302020302020302020302020302020302020302020302020300A2020202D302E343637382020202D302E3731343520202020302E303030302043202020302020302020302020302020302020302020302020302020302020302020302020300A2020202D302E3838303320202020302E3030303020202020302E303030302043202020302020302020302020302020302020302020302020302020302020302020302020300A2020202D312E3730353320202020302E3030303020202020302E303030302043202020302020302020302020302020302020302020302020302020302020302020302020300A2020202D322E313137382020202D302E3731343520202020302E303030302043202020302020302020302020302020302020302020302020302020302020302020302020300A2020202D322E353330332020202D312E3432383920202020302E303030302043202020302020302020302020302020302020302020302020302020302020302020302020300A2020202D322E383332322020202D302E3330323020202020302E30303030204F202020302020302020302020302020302020302020302020302020302020302020302020300A2020202D312E343033332020202D312E3132373020202020302E303030302043202020302020302020302020302020302020302020302020302020302020302020302020300A20202020302E373639372020202D312E3432383920202020302E303030302043202020302020302020302020302020302020302020302020302020302020302020302020300A20202020322E3030373220202020302E3731343520202020302E30303030204F202020302020302020302020302020302020302020302020302020302020302020302020300A20202020322E303037322020202D302E3731343520202020302E30303030204F202020302020302020302020302020302020302020302020302020302020302020302020300A20202020312E3539343720202020312E3432383920202020302E303030302043202020302020302020302020302020302020302020302020302020302020302020302020300A20202020322E383332322020202D302E3731343520202020302E303030302043202020302020302020302020302020302020302020302020302020302020302020302020300A2020312020322020312020302020202020200A2020322020332020312020302020202020200A2020332020342020312020302020202020200A2020342020352020312020302020202020200A2020352020362020312020302020202020200A2020362020372020312020302020202020200A2020372020382020312020302020202020200A2020372020392020312020302020202020200A2020372031302020312020302020202020200A2020332031312020312020302020202020200A2031322031342020312020302020202020200A2031332031352020312020302020202020200A2020312031322020312020302020202020200A2020312031332020312020302020202020200A4D2020454E44
Contributor: SODA AROMATIC CO., LTD.
InstType: EI
InstName: HITACHI M-80B
IoniMethod: _ENERGY 70 eV
IonPolarity: pos
Date: 2010-10-09 19:48:36+02:00
Num Peaks: 48
15 27 27 37 29 73 31 124 39 39 41 157 42 18 43 297 45 88 47 61 
53 34 55 162 56 22 57 25 58 73 59 319 61 34 67 27 68 12 69 111 
70 13 71 99 75 999 76 25 79 10 81 130 82 11 83 20 85 591 86 37 
93 14 95 73 96 67 97 47 98 62 99 10 110 14 111 115 112 17 113 18 
121 39 127 24 128 11 137 39 139 22 153 12 168 27 169 30 
