Name: 2-(N-BENZYLOXYCARBONYL-N-METHYLAMINO)ETHYLPHOSPHONIC ACID
MW: 273
Formula: C11H16NO5P
Synonym: MassBank: JP004578
Synonym: 2-(N-BENZYLOXYCARBONYL-N-METHYLAMINO)ETHYLPHOSPHONIC ACID
Structure: 322D284E2D42454E5A594C4F5859434152424F4E594C2D4E2D4D455448594C414D494E4F29455448594C50484F5350484F4E494320414349442E6D6F6C0A20204368656D447261773132323130393231303832440A2031382031382020302020302020302020302020302020302020302020303939392056323030300A20202020312E3233373520202020312E3031363420202020302E303030302043202020302020302020302020302020302020302020302020302020302020302020302020300A20202020302E3832353020202020302E3330323020202020302E303030302043202020302020302020302020302020302020302020302020302020302020302020302020300A20202020322E3036323520202020312E3031363420202020302E303030302050202020302020302020302020302020302020302020302020302020302020302020302020300A20202020322E3036323520202020302E3139313420202020302E30303030204F202020302020302020302020302020302020302020302020302020302020302020302020300A20202020322E3036323520202020312E3834313420202020302E30303030204F202020302020302020302020302020302020302020302020302020302020302020302020300A20202020322E3838373520202020312E3031363420202020302E30303030204F202020302020302020302020302020302020302020302020302020302020302020302020300A20202020312E323337352020202D302E3431323520202020302E30303030204E202020302020302020302020302020302020302020302020302020302020302020302020300A20202020322E303632352020202D302E3431323520202020302E303030302043202020302020302020302020302020302020302020302020302020302020302020302020300A20202020302E383235302020202D312E3132373020202020302E303030302043202020302020302020302020302020302020302020302020302020302020302020302020300A20202020312E323337352020202D312E3834313420202020302E30303030204F202020302020302020302020302020302020302020302020302020302020302020302020300A20202020302E303030302020202D312E3132373020202020302E30303030204F202020302020302020302020302020302020302020302020302020302020302020302020300A2020202D302E343132352020202D302E3431323520202020302E303030302043202020302020302020302020302020302020302020302020302020302020302020302020300A2020202D312E323337352020202D302E3431323520202020302E303030302043202020302020302020302020302020302020302020302020302020302020302020302020300A2020202D312E363530302020202D312E3132373020202020302E303030302043202020302020302020302020302020302020302020302020302020302020302020302020300A2020202D322E343735302020202D312E3132373020202020302E303030302043202020302020302020302020302020302020302020302020302020302020302020302020300A2020202D322E383837352020202D302E3431323520202020302E303030302043202020302020302020302020302020302020302020302020302020302020302020302020300A2020202D322E3437353020202020302E3330323020202020302E303030302043202020302020302020302020302020302020302020302020302020302020302020302020300A2020202D312E3635303020202020302E3330323020202020302E303030302043202020302020302020302020302020302020302020302020302020302020302020302020300A2020312020322020312020302020202020200A2020332020342020322020302020202020200A2020332020352020312020302020202020200A2020332020362020312020302020202020200A2020312020332020312020302020202020200A2020372020382020312020302020202020200A2020392031302020322020302020202020200A2031322031332020312020302020202020200A2031332031342020312020302020202020200A2031342031352020322020302020202020200A2031352031362020312020302020202020200A2031362031372020322020302020202020200A2031372031382020312020302020202020200A2031332031382020322020302020202020200A2031312031322020312020302020202020200A2020392031312020312020302020202020200A2020372020392020312020302020202020200A2020322020372020312020302020202020200A4D2020454E44
Contributor: HAYASHI A, DEPT. OF CHEMISTRY, FAC. OF SCI. AND TECHNOLOGY, KINKI UNIV.
InstType: EI
InstName: JEOL JMS-HX-100
IoniMethod: _ENERGY 70 eV
IonPolarity: pos
Date: 2010-10-09 19:48:36+02:00
Num Peaks: 104
36 27 38 9 39 55 40 19 41 62 42 38 43 54 44 196 45 22 46 3 
47 4 50 16 51 41 52 13 53 11 54 9 55 42 56 34 57 123 58 16 
59 4 60 21 61 13 62 8 63 29 64 9 65 116 66 9 67 15 68 12 
69 52 70 15 71 30 73 23 74 5 76 5 77 57 78 17 79 73 80 13 
81 49 82 15 83 26 84 12 85 17 86 4 87 7 89 35 90 32 91 999 
92 97 93 10 94 14 95 20 96 9 97 16 98 12 99 4 101 5 102 5 
104 23 105 13 106 6 107 56 108 91 109 70 110 7 111 9 112 3 115 5 
116 3 117 2 118 16 119 5 120 41 121 7 122 9 123 6 125 5 129 10 
134 8 135 3 136 2 137 6 138 417 139 80 140 8 143 2 146 7 149 7 
152 9 165 3 166 136 167 10 185 5 193 5 213 3 228 42 229 8 236 7 
256 4 264 2 273 78 274 12 
