Name: MassBank: JP008258
MW: 197
Formula: C8H4Cl2N2
Synonym: MassBank: JP008258
Synonym: 4,7-DICHLOROBENZOPYLIMIDINE
Structure: 303439375F342C372D444943484C4F524F42454E5A4F50594C494D4944494E452E6D6F6C0A20204368656D447261773130313931303231343732440A2031322031332020302020302020302020302020302020302020302020303939392056323030300A2020202D312E3037313720202020302E3832353020202020302E303030302043202020302020302020302020302020302020302020302020302020302020302020302020300A2020202D312E3037313720202020302E3030303020202020302E303030302043202020302020302020302020302020302020302020302020302020302020302020302020300A2020202D302E333537322020202D302E3431323520202020302E303030302043202020302020302020302020302020302020302020302020302020302020302020302020300A20202020302E3335373220202020302E3030303020202020302E303030302043202020302020302020302020302020302020302020302020302020302020302020302020300A20202020302E3335373220202020302E3832353020202020302E303030302043202020302020302020302020302020302020302020302020302020302020302020302020300A2020202D302E3335373220202020312E3233373520202020302E303030302043202020302020302020302020302020302020302020302020302020302020302020302020300A20202020312E303731372020202D302E3431323520202020302E303030302043202020302020302020302020302020302020302020302020302020302020302020302020300A20202020312E3738363220202020302E3030303020202020302E30303030204E202020302020302020302020302020302020302020302020302020302020302020302020300A20202020312E3738363220202020302E3832353020202020302E303030302043202020302020302020302020302020302020302020302020302020302020302020302020300A20202020312E3037313720202020312E3233373520202020302E30303030204E202020302020302020302020302020302020302020302020302020302020302020302020300A20202020312E303731372020202D312E3233373520202020302E3030303020436C2020302020302020302020302020302020302020302020302020302020302020302020300A2020202D312E3738363220202020312E3233373520202020302E3030303020436C2020302020302020302020302020302020302020302020302020302020302020302020300A2020312020322020322020302020202020200A2020322020332020312020302020202020200A2020332020342020322020302020202020200A2020342020352020312020302020202020200A2020352020362020322020302020202020200A2020362020312020312020302020202020200A2020342020372020312020302020202020200A2020372020382020322020302020202020200A2020382020392020312020302020202020200A2020392031302020322020302020202020200A2031302020352020312020302020202020200A2020372031312020312020302020202020200A2020312031322020312020302020202020200A4D2020454E44
Contributor: UBE SCIENTIFIC ANALYSIS LABORATORY
InstType: EI
InstName: HITACHI M-60
IoniMethod: _ENERGY 70 eV
IonPolarity: pos
Date: 2010-10-09 19:48:36+02:00
Num Peaks: 43
36 13 37 43 38 26 49 26 50 158 51 33 61 30 62 32 63 25 64 43 
72 19 73 47 74 92 75 133 76 41 81 82 83 26 84 24 85 32 86 24 
87 13 98 10 99 90 100 253 101 60 109 39 110 23 111 13 127 11 134 12 
135 12 136 238 137 25 138 72 163 999 164 91 165 299 166 29 198 497 199 52 
200 326 201 32 202 55 
