Name: 3-(2-AMINOPROPYL)-5-METHOXY-2-METHYLINDOLE
MW: 218
Formula: C13H18N2O
Synonym: MassBank: JP004342
Synonym: 3-(2-AMINOPROPYL)-5-METHOXY-2-METHYLINDOLE
Structure: 332D28322D414D494E4F50524F50594C292D352D4D4554484F58592D322D4D455448594C494E444F4C452E6D6F6C0A20204368656D447261773032323231303039343432440A2031362031372020302020302020302020302020302020302020302020303939392056323030300A20202020302E303331392020202D312E3333393820202020302E30303030204E202020302020302020302020302020302020302020302020302020302020302020302020300A2020202D302E373231382020202D312E3030343220202020302E303030302043202020302020302020302020302020302020302020302020302020302020302020302020300A2020202D302E363335362020202D302E3138333720202020302E303030302043202020302020302020302020302020302020302020302020302020302020302020302020300A20202020302E313731342020202D302E3031323220202020302E303030302043202020302020302020302020302020302020302020302020302020302020302020302020300A20202020302E3538333920202020302E3730323320202020302E303030302043202020302020302020302020302020302020302020302020302020302020302020302020300A20202020312E3430383920202020302E3730323320202020302E303030302043202020302020302020302020302020302020302020302020302020302020302020302020300A20202020312E383231342020202D302E3031323220202020302E303030302043202020302020302020302020302020302020302020302020302020302020302020302020300A20202020312E343038392020202D302E3732363720202020302E303030302043202020302020302020302020302020302020302020302020302020302020302020302020300A20202020302E353833392020202D302E3732363720202020302E303030302043202020302020302020302020302020302020302020302020302020302020302020302020300A2020202D312E343336332020202D312E3431363720202020302E303030302043202020302020302020302020302020302020302020302020302020302020302020302020300A20202020312E3832313420202020312E3431363720202020302E30303030204F202020302020302020302020302020302020302020302020302020302020302020302020300A20202020322E3634363420202020312E3431363720202020302E303030302043202020302020302020302020302020302020302020302020302020302020302020302020300A2020202D312E3234383720202020302E3336383320202020302E303030302043202020302020302020302020302020302020302020302020302020302020302020302020300A2020202D322E3033333320202020302E3131333320202020302E303030302043202020302020302020302020302020302020302020302020302020302020302020302020300A2020202D322E323436382020202D302E3638333520202020302E303030302043202020302020302020302020302020302020302020302020302020302020302020302020300A2020202D322E3634363420202020302E3636353420202020302E30303030204E202020302020302020302020302020302020302020302020302020302020302020302020300A2020312020322020312020302020202020200A2020322020332020322020302020202020200A2020332020342020312020302020202020200A2020342020352020312020302020202020200A2020352020362020322020302020202020200A2020362020372020312020302020202020200A2020372020382020322020302020202020200A2020382020392020312020302020202020200A2020312020392020312020302020202020200A2020342020392020322020302020202020200A2020322031302020312020302020202020200A2031312031322020312020302020202020200A2020362031312020312020302020202020200A2031332031342020312020302020202020200A2031342031352020312020302020202020200A2031342031362020312020302020202020200A2020332031332020312020302020202020200A4D2020454E44
Contributor: SASAKI S, TOYOHASHI UNIV. OF TECH.
InstType: EI
InstName: MX-1303
IoniMethod: _ENERGY 50 eV
IonPolarity: pos
Date: 2010-10-09 19:48:36+02:00
Num Peaks: 63
26 13 27 31 29 24 30 2 31 23 39 22 40 15 41 4 42 39 43 30 
45 17 51 2 52 10 55 10 59 11 63 2 65 14 77 41 78 21 79 1 
89 27 90 17 91 23 102 2 103 41 104 14 115 33 116 2 117 47 118 21 
128 18 129 2 130 119 131 214 132 105 133 2 142 16 143 35 144 51 145 3 
146 29 154 11 155 10 156 2 157 13 158 86 159 251 160 32 161 51 169 10 
170 16 172 1 173 46 174 726 175 999 176 12 186 33 187 13 188 23 200 1 
201 50 216 24 218 42 
