Name: CARBON-MONOXIDE
CAS: 630-08-0
MW: 27
Formula: CO
Synonym: MassBank: JP001577
Synonym: CARBON-MONOXIDE
Structure: 310A380A434152424F4E2D4D4F4E4F584944452E6D6F6C0A20204368656D447261773039303631303130323632440A2020322020312020302020302020302020302020302020302020302020303939392056323030300A2020202D302E3431323520202020302E3030303020202020302E303030302043202020302020302020302020302020302020302020302020302020302020302020302020300A20202020302E3431323520202020302E3030303020202020302E30303030204F202020302020302020302020302020302020302020302020302020302020302020302020300A2020312020322020322020302020202020200A4D2020454E44
Contributor: MASS SPECTROSCOPY SOC. OF JAPAN (MSSJ)
InstType: EI
InstName: HITACHI RMU-5B
IoniMethod: _ENERGY 80 eV
IonPolarity: pos
Date: 2010-10-09 19:48:36+02:00
Num Peaks: 5
12 35 14 17 16 20 28 999 29 12 
