Name: ETHYL METHYL ETHER
MW: 60
Formula: C3H8O
Synonym: MassBank: JP003705
Synonym: ETHYL METHYL ETHER
Structure: 310A31320A455448594C204D455448594C2045544845522E6D6F6C0A20204368656D447261773038313131303138333132440A2020342020332020302020302020302020302020302020302020302020303939392056323030300A2020202D302E333537322020202D302E3230363220202020302E30303030204F202020302020302020302020302020302020302020302020302020302020302020302020300A2020202D312E3037313720202020302E3230363220202020302E303030302043202020302020302020302020302020302020302020302020302020302020302020302020300A20202020302E3335373220202020302E3230363220202020302E303030302043202020302020302020302020302020302020302020302020302020302020302020302020300A20202020312E303731372020202D302E3230363220202020302E303030302043202020302020302020302020302020302020302020302020302020302020302020302020300A2020312020322020312020302020202020200A2020332020342020312020302020202020200A2020312020332020312020302020202020200A4D2020454E44
Contributor: SASAKI S, TOYOHASHI UNIV. OF TECH.
InstType: EI
InstName: Unknown
IoniMethod: EI
IonPolarity: pos
Date: 2010-10-09 19:48:36+02:00
Num Peaks: 16
15 207 26 88 27 205 28 8 29 490 30 34 31 199 32 2 41 8 42 16 
43 70 44 1 45 999 46 16 59 109 60 259 
