Name: MassBank: JP000796
MW: 211
Formula: C13H13N3
Synonym: MassBank: JP000796
Synonym: 3-AMINO-1,4-DIMETHYL-5H-PYRIDO(4,3-B)INDOLE
Synonym: TRP-P-1
Structure: 332D414D494E4F2D312C342D44494D455448594C2D35482D50595249444F28342C332D4229494E444F4C452E6D6F6C0A20204368656D447261773032323231303133343332440A2031362031382020302020302020302020302020302020302020302020303939392056323030300A2020202D302E323139392020202D312E3332373620202020302E30303030204E202020302020302020302020302020302020302020302020302020302020302020302020300A20202020302E333332322020202D302E3731343520202020302E303030302043202020302020302020302020302020302020302020302020302020302020302020302020300A2020202D302E3038303320202020302E3030303020202020302E303030302043202020302020302020302020302020302020302020302020302020302020302020302020300A2020202D302E383837332020202D302E3137313520202020302E303030302043202020302020302020302020302020302020302020302020302020302020302020302020300A2020202D312E3535343720202020302E3331333420202020302E303030302043202020302020302020302020302020302020302020302020302020302020302020302020300A2020202D322E333038342020202D302E3032323220202020302E303030302043202020302020302020302020302020302020302020302020302020302020302020302020300A2020202D322E333934372020202D302E3834323620202020302E303030302043202020302020302020302020302020302020302020302020302020302020302020302020300A2020202D312E373237322020202D312E3332373620202020302E303030302043202020302020302020302020302020302020302020302020302020302020302020302020300A2020202D302E393733352020202D302E3939323020202020302E303030302043202020302020302020302020302020302020302020302020302020302020302020302020300A20202020302E3333323220202020302E3731343520202020302E303030302043202020302020302020302020302020302020302020302020302020302020302020302020300A20202020312E313537322020202D302E3731343520202020302E303030302043202020302020302020302020302020302020302020302020302020302020302020302020300A20202020312E3536393720202020302E3030303020202020302E303030302043202020302020302020302020302020302020302020302020302020302020302020302020300A20202020312E3135373220202020302E3731343520202020302E30303030204E202020302020302020302020302020302020302020302020302020302020302020302020300A20202020312E353639372020202D312E3432383920202020302E303030302043202020302020302020302020302020302020302020302020302020302020302020302020300A2020202D302E3038303320202020312E3432383920202020302E303030302043202020302020302020302020302020302020302020302020302020302020302020302020300A20202020322E3339343720202020302E3030303020202020302E30303030204E202020302020302020302020302020302020302020302020302020302020302020302020300A2020312020322020312020302020202020200A2020322020332020312020302020202020200A2020332020342020312020302020202020200A2020342020352020312020302020202020200A2020352020362020322020302020202020200A2020362020372020312020302020202020200A2020372020382020322020302020202020200A2020382020392020312020302020202020200A2020312020392020312020302020202020200A2020342020392020322020302020202020200A2031312031322020312020302020202020200A2031322031332020322020302020202020200A2031302031332020312020302020202020200A2020322031312020322020302020202020200A2020332031302020322020302020202020200A2031312031342020312020302020202020200A2031302031352020312020302020202020200A2031322031362020312020302020202020200A4D2020454E44
Contributor: MASS SPECTROSCOPY SOC. OF JAPAN (MSSJ)
InstType: EI
InstName: VARIAN MAT-44S
IoniMethod: _ENERGY 75 eV
IonPolarity: pos
Date: 2010-10-09 19:48:36+02:00
Num Peaks: 122
41 85 42 338 43 104 44 84 45 20 50 65 51 104 52 67 53 30 54 47 
55 47 56 28 57 64 58 41 59 12 60 15 61 21 62 73 63 160 64 72 
65 88 66 30 67 27 68 2 69 67 70 110 71 36 72 22 73 29 74 51 
75 80 76 1 77 177 78 98 79 46 80 12 81 21 82 28 83 113 84 180 
85 41 86 36 87 62 88 92 89 123 90 84 91 371 92 6 93 10 95 14 
96 41 97 10 98 64 99 46 100 34 101 62 102 45 103 39 104 113 105 448 
106 37 111 15 112 16 113 83 114 113 115 328 116 95 117 81 118 19 125 22 
126 39 127 88 128 94 129 55 130 48 131 14 137 11 138 25 139 113 140 185 
141 89 142 215 143 113 144 29 149 14 151 10 152 35 153 41 154 109 155 89 
156 40 157 39 158 11 164 23 165 25 166 103 167 119 168 120 169 133 170 55 
171 140 172 17 179 105 180 49 181 33 182 38 183 149 184 5 191 11 192 59 
193 273 194 116 195 94 196 91 197 102 198 2 208 14 209 11 210 258 211 999 
212 157 213 14 
