Name: 3-IODO-2-TRIMETHYLSILOXYPROPENE
MW: 255
Formula: C6H13IOSi
Synonym: MassBank: JP004737
Synonym: 3-IODO-2-TRIMETHYLSILOXYPROPENE
Structure: 310A32320A332D494F444F2D322D5452494D455448594C53494C4F585950524F50454E452E6D6F6C0A20204368656D447261773032323231303231343532440A2020392020382020302020302020302020302020302020302020302020303939392056323030300A2020202D312E3132373020202020302E3030303020202020302E303030302043202020302020302020302020302020302020302020302020302020302020302020302020300A2020202D302E343132352020202D302E3431323520202020302E303030302043202020302020302020302020302020302020302020302020302020302020302020302020300A2020202D302E343132352020202D312E3233373520202020302E303030302043202020302020302020302020302020302020302020302020302020302020302020302020300A20202020302E3330323020202020302E3030303020202020302E30303030204F202020302020302020302020302020302020302020302020302020302020302020302020300A20202020302E3330323020202020302E3832353020202020302E303030302053692020302020302020302020302020302020302020302020302020302020302020302020300A2020202D302E3532333020202020302E3832353020202020302E303030302043202020302020302020302020302020302020302020302020302020302020302020302020300A20202020302E3330323020202020312E3635303020202020302E303030302043202020302020302020302020302020302020302020302020302020302020302020302020300A20202020312E3132373020202020302E3832353020202020302E303030302043202020302020302020302020302020302020302020302020302020302020302020302020300A20202020302E333032302020202D312E3635303020202020302E303030302049202020302020302020302020302020302020302020302020302020302020302020302020300A2020312020322020322020302020202020200A2020322020332020312020302020202020200A2020342020352020312020302020202020200A2020352020362020312020302020202020200A2020352020372020312020302020202020200A2020352020382020312020302020202020200A2020322020342020312020302020202020200A2020332020392020312020302020202020200A4D2020454E44
Contributor: MASS SPECTROSCOPY SOC. OF JAPAN (MSSJ)
InstType: EI
InstName: JEOL JMS-D-3000
IoniMethod: _ENERGY 18 eV
IonPolarity: pos
Date: 2010-10-09 19:48:36+02:00
Num Peaks: 41
18 17 32 587 43 38 44 21 55 14 56 16 57 21 58 11 69 11 70 19 
72 12 73 103 74 13 75 678 76 58 77 29 78 147 79 11 82 14 83 32 
84 11 85 15 99 14 101 58 111 76 113 69 114 35 115 77 129 999 130 131 
131 48 141 26 142 21 184 61 185 103 187 96 241 196 242 24 256 532 257 61 
258 21 
