Name: CYCLOPENTADECANOLIDE
MW: 240
Formula: C15H28O2
Synonym: MassBank: JP008719
Synonym: CYCLOPENTADECANOLIDE
Structure: 4359434C4F50454E5441444543414E4F4C4944452E6D6F6C0A20204368656D447261773039323031303038353532440A2031372031372020302020302020302020302020302020302020302020303939392056323030300A2020202D302E3633363320202020302E3138313820202020302E303030302043202020302020302020302020302020302020302020302020302020302020302020302020300A2020202D302E363336332020202D302E3634333220202020302E303030302043202020302020302020302020302020302020302020302020302020302020302020302020300A20202020302E303738322020202D312E3035353720202020302E303030302043202020302020302020302020302020302020302020302020302020302020302020302020300A20202020302E373932372020202D302E3634333220202020302E303030302043202020302020302020302020302020302020302020302020302020302020302020302020300A20202020302E3739323720202020302E3138313820202020302E303030302043202020302020302020302020302020302020302020302020302020302020302020302020300A20202020302E3037383220202020302E3539343320202020302E303030302043202020302020302020302020302020302020302020302020302020302020302020302020300A20202020312E343337372020202D312E3135373620202020302E303030302043202020302020302020302020302020302020302020302020302020302020302020302020300A20202020322E323432302020202D302E3937343020202020302E303030302043202020302020302020302020302020302020302020302020302020302020302020302020300A20202020322E363030302020202D302E3233303720202020302E303030302043202020302020302020302020302020302020302020302020302020302020302020302020300A20202020322E3234323020202020302E3531323620202020302E303030302043202020302020302020302020302020302020302020302020302020302020302020302020300A20202020312E3433373720202020302E3639363220202020302E303030302043202020302020302020302020302020302020302020302020302020302020302020302020300A2020202D312E3238313320202020302E3639363220202020302E30303030204F202020302020302020302020302020302020302020302020302020302020302020302020300A2020202D322E3038353620202020302E3531323620202020302E303030302043202020302020302020302020302020302020302020302020302020302020302020302020300A2020202D322E343433352020202D302E3233303720202020302E303030302043202020302020302020302020302020302020302020302020302020302020302020302020300A2020202D322E303835362020202D302E3937343020202020302E303030302043202020302020302020302020302020302020302020302020302020302020302020302020300A2020202D312E323831332020202D312E3135373620202020302E303030302043202020302020302020302020302020302020302020302020302020302020302020302020300A2020202D322E3630303020202020312E3135373620202020302E30303030204F202020302020302020302020302020302020302020302020302020302020302020302020300A2020322020332020312020302020202020200A2020332020342020312020302020202020200A2020352020362020312020302020202020200A2020362020312020312020302020202020200A2020342020372020312020302020202020200A2020372020382020312020302020202020200A2020382020392020312020302020202020200A2020392031302020312020302020202020200A2031302031312020312020302020202020200A2031312020352020312020302020202020200A2020312031322020312020302020202020200A2031322031332020312020302020202020200A2031332031342020312020302020202020200A2031342031352020312020302020202020200A2031352031362020312020302020202020200A2031362020322020312020302020202020200A2031332031372020322020302020202020200A4D2020454E44
Contributor: SODA AROMATIC CO., LTD.
InstType: EI
InstName: HITACHI M-80B
IoniMethod: _ENERGY 70 eV
IonPolarity: pos
Date: 2010-10-09 19:48:36+02:00
Num Peaks: 90
27 191 29 337 30 11 31 27 39 180 41 999 42 297 43 408 44 16 45 28 
53 73 54 142 55 988 56 293 57 215 58 55 59 30 60 77 61 31 65 12 
66 17 67 213 68 238 69 553 70 183 71 134 72 13 73 134 74 15 79 32 
80 26 81 194 82 304 83 404 84 227 85 48 87 39 93 18 94 29 95 133 
96 266 97 267 98 225 99 28 100 33 101 48 102 11 107 13 108 19 109 70 
110 144 111 113 112 52 113 26 114 61 115 35 116 36 121 14 122 16 123 62 
124 69 125 53 126 19 127 32 128 14 129 38 133 11 134 12 135 14 136 12 
137 41 138 63 139 30 140 11 141 15 151 29 152 38 153 15 155 10 158 11 
165 17 172 15 178 28 179 17 180 57 181 14 194 15 222 57 223 11 240 42 
