Name: 2-FLUOROANILINE
CAS: 348-54-9
MW: 111
Formula: C6H6FN
Synonym: MassBank: JP009537
Synonym: 2-FLUOROANILINE
Structure: 310A32310A322D464C554F524F414E494C494E452E6D6F6C0A20204368656D447261773031303331303133353032440A2020382020382020302020302020302020302020302020302020302020303939392056323030300A20202020302E3335373220202020312E3233373520202020302E30303030204E202020302020302020302020302020302020302020302020302020302020302020302020300A20202020302E3335373220202020302E3431323520202020302E303030302043202020302020302020302020302020302020302020302020302020302020302020302020300A2020202D302E3335373220202020302E3030303020202020302E303030302043202020302020302020302020302020302020302020302020302020302020302020302020300A2020202D302E333537322020202D302E3832353020202020302E303030302043202020302020302020302020302020302020302020302020302020302020302020302020300A20202020302E333537322020202D312E3233373520202020302E303030302043202020302020302020302020302020302020302020302020302020302020302020302020300A20202020312E303731372020202D302E3832353020202020302E303030302043202020302020302020302020302020302020302020302020302020302020302020302020300A20202020312E3037313720202020302E3030303020202020302E303030302043202020302020302020302020302020302020302020302020302020302020302020302020300A2020202D312E3037313720202020302E3431323520202020302E303030302046202020302020302020302020302020302020302020302020302020302020302020302020300A2020312020322020312020302020202020200A2020322020332020312020302020202020200A2020332020342020322020302020202020200A2020342020352020312020302020202020200A2020352020362020322020302020202020200A2020362020372020312020302020202020200A2020322020372020322020302020202020200A2020332020382020312020302020202020200A4D2020454E44
Contributor: NARA WOMEN'S UNIVERSITY
InstType: EI
InstName: HITACHI M-80
IoniMethod: _ENERGY 70 eV
IonPolarity: pos
Date: 2010-10-09 19:48:36+02:00
Num Peaks: 33
27 10 28 48 31 12 37 11 38 27 39 47 40 11 41 40 50 17 51 20 
52 54 56 18 57 89 58 11 61 10 62 18 63 72 64 130 65 54 72 13 
75 11 78 10 81 19 82 17 83 176 84 173 85 26 90 16 91 84 92 11 
110 45 111 999 112 73 
