Name: 1-BROMO-4-NITROBENZENE
MW: 200
Formula: C6H4BrNO2
Synonym: MassBank: JP001669
Synonym: 1-BROMO-4-NITROBENZENE
Structure: 312D42524F4D4F2D342D4E4954524F42454E5A454E452E6D6F6C0A20204368656D447261773131313730393233333532440A2031302031302020302020302020302020302020302020302020302020303939392056323030300A20202020312E3033313320202020302E3030303020202020302E303030302043202020302020302020302020302020302020302020302020302020302020302020302020300A20202020302E363138382020202D302E3731343520202020302E303030302043202020302020302020302020302020302020302020302020302020302020302020302020300A2020202D302E323036322020202D302E3731343520202020302E303030302043202020302020302020302020302020302020302020302020302020302020302020302020300A2020202D302E3631383820202020302E3030303020202020302E303030302043202020302020302020302020302020302020302020302020302020302020302020302020300A2020202D302E3230363220202020302E3731343520202020302E303030302043202020302020302020302020302020302020302020302020302020302020302020302020300A20202020302E3631383820202020302E3731343520202020302E303030302043202020302020302020302020302020302020302020302020302020302020302020302020300A2020202D312E3434333720202020302E3030303020202020302E30303030204E202020302020332020302020302020302020302020302020302020302020302020302020300A2020202D312E3835363220202020302E3731343520202020302E30303030204F202020302020302020302020302020302020302020302020302020302020302020302020300A2020202D312E383536332020202D302E3731343520202020302E30303030204F202020302020352020302020302020302020302020302020302020302020302020302020300A20202020312E3835363320202020302E3030303020202020302E303030302042722020302020302020302020302020302020302020302020302020302020302020302020300A2020312020322020312020302020202020200A2020322020332020322020302020202020200A2020332020342020312020302020202020200A2020342020352020322020302020202020200A2020352020362020312020302020202020200A2020312020362020322020302020202020200A2020372020382020322020302020202020200A2020372020392020312020302020202020200A2020342020372020312020302020202020200A2020312031302020312020302020202020200A4D202043484720203220202037202020312020203920202D310A4D2020454E44
Contributor: TAJIMA S, GUNMA COLLEGE OF TECHNOLOGY
InstType: EI
InstName: HITACHI RMU-7M
IoniMethod: _ENERGY 70 eV
IonPolarity: pos
Date: 2010-10-09 19:48:36+02:00
Num Peaks: 41
27 19 30 165 37 77 38 104 39 43 49 49 50 720 51 88 61 29 62 32 
63 88 64 66 65 22 73 71 74 350 75 999 76 790 77 56 92 47 117 22 
119 21 129 26 131 24 143 302 144 15 145 295 146 14 155 715 156 54 157 693 
158 46 171 532 172 38 173 520 174 33 185 33 187 32 201 663 202 44 203 643 
204 44 
