Name: 1-METHYLPIPERIDINE
MW: 99
Formula: C6H13N
Synonym: MassBank: JP000480
Synonym: 1-METHYLPIPERIDINE
Structure: 310A31390A312D4D455448594C50495045524944494E452E6D6F6C0A20204368656D447261773131323130393138333332440A2020372020372020302020302020302020302020302020302020302020303939392056323030300A20202020302E3030303020202020302E3431323520202020302E30303030204E202020302020302020302020302020302020302020302020302020302020302020302020300A20202020302E3731343520202020302E3030303020202020302E303030302043202020302020302020302020302020302020302020302020302020302020302020302020300A20202020302E373134352020202D302E3832353020202020302E303030302043202020302020302020302020302020302020302020302020302020302020302020302020300A2020202D302E303030302020202D312E3233373520202020302E303030302043202020302020302020302020302020302020302020302020302020302020302020302020300A2020202D302E373134352020202D302E3832353020202020302E303030302043202020302020302020302020302020302020302020302020302020302020302020302020300A2020202D302E3731343520202020302E3030303020202020302E303030302043202020302020302020302020302020302020302020302020302020302020302020302020300A20202020302E3030303020202020312E3233373520202020302E303030302043202020302020302020302020302020302020302020302020302020302020302020302020300A2020312020322020312020302020202020200A2020322020332020312020302020202020200A2020332020342020312020302020202020200A2020342020352020312020302020202020200A2020352020362020312020302020202020200A2020312020362020312020302020202020200A2020312020372020312020302020202020200A4D2020454E44
Contributor: SASAKI S, TOYOHASHI UNIV. OF TECH.
InstType: EI
InstName: MX-1303
IoniMethod: _ENERGY 50 eV
IonPolarity: pos
Date: 2010-10-09 19:48:36+02:00
Num Peaks: 38
26 47 27 181 29 109 30 8 38 17 39 153 40 33 41 21 42 620 43 700 
45 12 50 1 51 18 52 18 53 36 54 5 55 123 56 127 57 186 58 18 
59 11 67 25 68 45 69 2 70 310 71 120 80 22 81 2 82 39 83 20 
84 235 85 7 85.5 29 96 48 97 24 98 999 99 400 100 32 
