Name: 1-TRIMETHYLSILOXYCYCLOPENTENE
MW: 156
Formula: C8H16OSi
Synonym: MassBank: JP002395
Synonym: 1-TRIMETHYLSILOXYCYCLOPENTENE
Structure: 312D5452494D455448594C53494C4F58594359434C4F50454E54454E452E6D6F6C0A20204368656D447261773131323230393232353432440A2031302031302020302020302020302020302020302020302020302020303939392056323030300A2020202D302E3431383920202020302E3133383820202020302E303030302043202020302020302020302020302020302020302020302020302020302020302020302020300A2020202D302E353035312020202D302E3638313720202020302E303030302043202020302020302020302020302020302020302020302020302020302020302020302020300A2020202D312E333132312020202D302E3835333220202020302E303030302043202020302020302020302020302020302020302020302020302020302020302020302020300A2020202D312E373234362020202D302E3133383820202020302E303030302043202020302020302020302020302020302020302020302020302020302020302020302020300A2020202D312E3137323520202020302E3437343320202020302E303030302043202020302020302020302020302020302020302020302020302020302020302020302020300A20202020302E3239353620202020302E3535313320202020302E30303030204F202020302020302020302020302020302020302020302020302020302020302020302020300A20202020312E3031303120202020302E3133383820202020302E303030302053692020302020302020302020302020302020302020302020302020302020302020302020300A20202020312E3432323620202020302E3835333220202020302E303030302043202020302020302020302020302020302020302020302020302020302020302020302020300A20202020312E373234362020202D302E3237333720202020302E303030302043202020302020302020302020302020302020302020302020302020302020302020302020300A20202020302E353937362020202D302E3537353720202020302E303030302043202020302020302020302020302020302020302020302020302020302020302020302020300A2020312020322020322020302020202020200A2020322020332020312020302020202020200A2020332020342020312020302020202020200A2020342020352020312020302020202020200A2020312020352020312020302020202020200A2020362020372020312020302020202020200A2020372020382020312020302020202020200A2020372020392020312020302020202020200A2020372031302020312020302020202020200A2020312020362020312020302020202020200A4D2020454E44
Contributor: MASS SPECTROSCOPY SOC. OF JAPAN (MSSJ)
InstType: EI
InstName: JEOL JMS-D-3000
IoniMethod: _ENERGY 70 eV
IonPolarity: pos
Date: 2010-10-09 19:48:36+02:00
Num Peaks: 24
42 53 43 54 45 146 47 45 55 75 57 39 59 100 61 34 63 29 67 34 
70 47 71 39 73 818 74 75 75 999 76 72 77 44 85 29 99 51 127 40 
141 201 155 462 156 451 157 80 
