Name: HEXAMETHYLENE IMINE
MW: 99
Formula: C6H13N
Synonym: MassBank: JP002953
Synonym: HEXAMETHYLENE IMINE
Structure: 310A31390A484558414D455448594C454E4520494D494E452E6D6F6C0A20204368656D447261773038313131303230323332440A2020372020372020302020302020302020302020302020302020302020303939392056323030300A2020202D302E343132352020202D302E3930333620202020302E30303030204E202020302020302020302020302020302020302020302020302020302020302020302020300A2020202D302E393236392020202D302E3235383620202020302E303030302043202020302020302020302020302020302020302020302020302020302020302020302020300A2020202D302E3734333320202020302E3534353720202020302E303030302043202020302020302020302020302020302020302020302020302020302020302020302020300A2020202D302E3030303020202020302E3930333620202020302E303030302043202020302020302020302020302020302020302020302020302020302020302020302020300A20202020302E3734333320202020302E3534353720202020302E303030302043202020302020302020302020302020302020302020302020302020302020302020302020300A20202020302E393236392020202D302E3235383620202020302E303030302043202020302020302020302020302020302020302020302020302020302020302020302020300A20202020302E343132352020202D302E3930333620202020302E303030302043202020302020302020302020302020302020302020302020302020302020302020302020300A2020322020332020312020302020202020200A2020332020342020312020302020202020200A2020342020352020312020302020202020200A2020352020362020312020302020202020200A2020362020372020312020302020202020200A2020312020322020312020302020202020200A2020312020372020312020302020202020200A4D2020454E44
Contributor: MASS SPECTROSCOPY SOC. OF JAPAN (MSSJ)
InstType: EI
InstName: Unknown
IoniMethod: EI
IonPolarity: pos
Date: 2010-10-09 19:48:36+02:00
Num Peaks: 25
15 68 26 28 27 217 28 374 29 148 30 590 39 229 40 39 41 380 42 349 
43 999 44 363 53 24 54 30 55 95 56 561 57 450 68 54 69 27 70 923 
71 80 84 101 98 169 99 451 100 81 
