Name: 2-BENZOYLINDOLE
MW: 221
Formula: C15H11NO
Synonym: MassBank: JP004424
Synonym: 2-BENZOYLINDOLE
Synonym: 2-INDOLYL PHENYL KETONE
Structure: 322D42454E5A4F594C494E444F4C452E6D6F6C0A20204368656D447261773132323130393232333932440A2031372031392020302020302020302020302020302020302020302020303939392056323030300A20202020302E323433362020202D302E3538363020202020302E30303030204E202020302020302020302020302020302020302020302020302020302020302020302020300A20202020302E3135373320202020302E3233343520202020302E303030302043202020302020302020302020302020302020302020302020302020302020302020302020300A20202020302E3931313020202020302E3537303020202020302E303030302043202020302020302020302020302020302020302020302020302020302020302020302020300A20202020312E343633302020202D302E3034333020202020302E303030302043202020302020302020302020302020302020302020302020302020302020302020302020300A20202020322E323838302020202D302E3034333020202020302E303030302043202020302020302020302020302020302020302020302020302020302020302020302020300A20202020322E373030352020202D302E3735373520202020302E303030302043202020302020302020302020302020302020302020302020302020302020302020302020300A20202020322E323838302020202D312E3437323020202020302E303030302043202020302020302020302020302020302020302020302020302020302020302020302020300A20202020312E343633302020202D312E3437323020202020302E303030302043202020302020302020302020302020302020302020302020302020302020302020302020300A20202020312E303530352020202D302E3735373520202020302E303030302043202020302020302020302020302020302020302020302020302020302020302020302020300A2020202D302E3535373120202020302E3634373020202020302E303030302043202020302020302020302020302020302020302020302020302020302020302020302020300A2020202D312E3237313620202020302E3233343520202020302E303030302043202020302020302020302020302020302020302020302020302020302020302020302020300A2020202D312E323731362020202D302E3539303520202020302E303030302043202020302020302020302020302020302020302020302020302020302020302020302020300A2020202D312E393836312020202D312E3030333020202020302E303030302043202020302020302020302020302020302020302020302020302020302020302020302020300A2020202D322E373030352020202D302E3539303520202020302E303030302043202020302020302020302020302020302020302020302020302020302020302020302020300A2020202D322E3730303520202020302E3233343520202020302E303030302043202020302020302020302020302020302020302020302020302020302020302020302020300A2020202D312E3938363120202020302E3634373020202020302E303030302043202020302020302020302020302020302020302020302020302020302020302020302020300A2020202D302E3535373120202020312E3437323020202020302E30303030204F202020302020302020302020302020302020302020302020302020302020302020302020300A2020312020322020312020302020202020200A2020322020332020322020302020202020200A2020332020342020312020302020202020200A2020342020352020312020302020202020200A2020352020362020322020302020202020200A2020362020372020312020302020202020200A2020372020382020322020302020202020200A2020382020392020312020302020202020200A2020312020392020312020302020202020200A2020342020392020322020302020202020200A2031302031312020312020302020202020200A2031312031322020312020302020202020200A2031322031332020322020302020202020200A2031332031342020312020302020202020200A2031342031352020322020302020202020200A2031352031362020312020302020202020200A2031312031362020322020302020202020200A2031302031372020322020302020202020200A2020322031302020312020302020202020200A4D2020454E44
Contributor: SASAKI S, TOYOHASHI UNIV. OF TECH.
InstType: EI
InstName: MX-1303
IoniMethod: _ENERGY 50 eV
IonPolarity: pos
Date: 2010-10-09 19:48:36+02:00
Num Peaks: 63
41 76 43 57 45 15 50 1 51 147 55 58 56 10 57 7 60 14 62 11 
63 80 67 2 68 29 69 400 70 20 71 3 73 19 76 24 77 675 78 3 
81 191 82 20 83 31 85 2 88 24 89 550 90 54 93 2 95 39 96 10 
96.5 42 97 2 105 313 106 10 109 16 110 1 110.5 51 111 12 114 13 115 10 
116 158 117 14 121 17 123 2 136 21 137 48 143 142 144 75 145 51 149 14 
154 38 165 8 166 11 190 17 191 39 192 3 193 122 204 225 205 23 219 3 
220 463 221 999 222 175 
