Name: METHYL 2-HEPTENOATE
MW: 142
Formula: C8H14O2
Synonym: MassBank: JP006427
Synonym: METHYL 2-HEPTENOATE
Structure: 4D455448594C20322D48455054454E4F4154452E6D6F6C0A20204368656D447261773038313131303233333132440A2031302020392020302020302020302020302020302020302020302020303939392056323030300A2020202D312E3738363220202020302E3230363220202020302E303030302043202020302020302020302020302020302020302020302020302020302020302020302020300A2020202D312E303731372020202D302E3230363220202020302E303030302043202020302020302020302020302020302020302020302020302020302020302020302020300A2020202D302E3335373220202020302E3230363220202020302E303030302043202020302020302020302020302020302020302020302020302020302020302020302020300A20202020302E333537322020202D302E3230363220202020302E303030302043202020302020302020302020302020302020302020302020302020302020302020302020300A20202020312E3037313720202020302E3230363220202020302E303030302043202020302020302020302020302020302020302020302020302020302020302020302020300A20202020312E373836322020202D302E3230363220202020302E303030302043202020302020302020302020302020302020302020302020302020302020302020302020300A20202020322E3530303620202020302E3230363320202020302E303030302043202020302020302020302020302020302020302020302020302020302020302020302020300A2020202D312E3738363220202020312E3033313320202020302E30303030204F202020302020302020302020302020302020302020302020302020302020302020302020300A2020202D322E353030362020202D302E3230363220202020302E30303030204F202020302020302020302020302020302020302020302020302020302020302020302020300A2020202D322E353030362020202D312E3033313320202020302E303030302043202020302020302020302020302020302020302020302020302020302020302020302020300A2020312020322020312020302020202020200A2020322020332020322020302020202020200A2020332020342020312020302020202020200A2020342020352020312020302020202020200A2020352020362020312020302020202020200A2020362020372020312020302020202020200A2020312020382020322020302020202020200A2020312020392020312020302020202020200A2020392031302020312020302020202020200A4D2020454E44
Contributor: HISAHIRO HAGIWARA, CHEMICAL RESEARCH INSTITUTE OF NON-AQUEOUSSOLUTIONS TOHOKU UNIV.
InstType: EI
InstName: HITACHI M-80B
IoniMethod: _ENERGY 70 eV
IonPolarity: pos
Date: 2010-10-09 19:48:36+02:00
Num Peaks: 57
14 23 15 179 26 40 27 502 29 215 30 13 31 30 38 33 39 493 40 15 
41 846 42 101 43 308 44 11 45 51 50 24 51 49 52 29 53 263 54 110 
55 999 56 285 57 29 58 22 59 317 60 11 65 20 66 14 67 84 68 369 
69 355 70 24 71 110 72 21 73 12 74 401 75 17 77 16 79 26 81 251 
82 204 83 56 85 83 87 956 88 62 95 19 99 25 100 152 101 174 110 211 
111 465 112 33 113 591 114 46 127 32 142 109 143 15 
