Name: TRIPROPYL BORATE
MW: 188
Formula: C9H21BO3
Synonym: MassBank: JP003692
Synonym: TRIPROPYL BORATE
Structure: 54524950524F50594C20424F524154452E6D6F6C0A20204368656D447261773038313231303039313132440A2031332031322020302020302020302020302020302020302020302020303939392056323030300A20202020302E3030303020202020302E3335373220202020302E303030302042202020302020302020302020302020302020302020302020302020302020302020302020300A2020202D302E343132352020202D302E3335373220202020302E30303030204F202020302020302020302020302020302020302020302020302020302020302020302020300A2020202D302E3431323520202020312E3037313720202020302E30303030204F202020302020302020302020302020302020302020302020302020302020302020302020300A20202020302E3832353020202020302E3335373220202020302E30303030204F202020302020302020302020302020302020302020302020302020302020302020302020300A2020202D312E323337352020202D302E3335373220202020302E303030302043202020302020302020302020302020302020302020302020302020302020302020302020300A2020202D312E363530302020202D312E3037313720202020302E303030302043202020302020302020302020302020302020302020302020302020302020302020302020300A2020202D322E343735302020202D312E3037313720202020302E303030302043202020302020302020302020302020302020302020302020302020302020302020302020300A2020202D312E3233373520202020312E3037313720202020302E303030302043202020302020302020302020302020302020302020302020302020302020302020302020300A2020202D312E3635303020202020302E3335373220202020302E303030302043202020302020302020302020302020302020302020302020302020302020302020302020300A2020202D322E3437353020202020302E3335373220202020302E303030302043202020302020302020302020302020302020302020302020302020302020302020302020300A20202020312E323337352020202D302E3335373220202020302E303030302043202020302020302020302020302020302020302020302020302020302020302020302020300A20202020322E303632352020202D302E3335373220202020302E303030302043202020302020302020302020302020302020302020302020302020302020302020302020300A20202020322E343735302020202D312E3037313720202020302E303030302043202020302020302020302020302020302020302020302020302020302020302020302020300A2020312020322020312020302020202020200A2020312020332020312020302020202020200A2020312020342020312020302020202020200A2020352020362020312020302020202020200A2020362020372020312020302020202020200A2020322020352020312020302020202020200A2020382020392020312020302020202020200A2020392031302020312020302020202020200A2020332020382020312020302020202020200A2031312031322020312020302020202020200A2031322031332020312020302020202020200A2020342031312020312020302020202020200A4D2020454E44
Contributor: SASAKI S, TOYOHASHI UNIV. OF TECH.
InstType: EI
InstName: Unknown
IoniMethod: EI
IonPolarity: pos
Date: 2010-10-09 19:48:36+02:00
Num Peaks: 27
27 180 28 60 29 70 31 15 39 80 41 310 42 110 43 999 44 130 45 490 
55 50 56 1 57 70 58 80 59 120 87 8 101 100 103 230 104 30 117 5 
129 270 145 130 146 60 159 4 173 140 187 60 188 110 
