Name: 3-(METHYLTHIO)PROPANOL
MW: 106
Formula: C4H10OS
Synonym: MassBank: JP008746
Synonym: 3-(METHYLTHIO)PROPANOL
Structure: 310A31360A332D284D455448594C5448494F2950524F50414E4F4C2E6D6F6C0A20204368656D447261773032323231303131303332440A2020362020352020302020302020302020302020302020302020302020303939392056323030300A20202020312E303731372020202D302E3230363220202020302E303030302043202020302020302020302020302020302020302020302020302020302020302020302020300A20202020302E3335373220202020302E3230363220202020302E303030302043202020302020302020302020302020302020302020302020302020302020302020302020300A2020202D302E333537322020202D302E3230363220202020302E303030302043202020302020302020302020302020302020302020302020302020302020302020302020300A2020202D312E3037313720202020302E3230363220202020302E303030302053202020302020302020302020302020302020302020302020302020302020302020302020300A2020202D312E373836322020202D302E3230363220202020302E303030302043202020302020302020302020302020302020302020302020302020302020302020302020300A20202020312E3738363220202020302E3230363220202020302E30303030204F202020302020302020302020302020302020302020302020302020302020302020302020300A2020312020322020312020302020202020200A2020322020332020312020302020202020200A2020342020352020312020302020202020200A2020332020342020312020302020202020200A2020312020362020312020302020202020200A4D2020454E44
Contributor: SODA AROMATIC CO., LTD.
InstType: EI
InstName: HITACHI M-80B
IoniMethod: _ENERGY 70 eV
IonPolarity: pos
Date: 2010-10-09 19:48:36+02:00
Num Peaks: 47
14 14 15 66 26 49 27 380 28 114 29 261 30 112 31 789 34 12 35 166 
37 16 38 17 39 146 40 40 41 385 42 31 43 65 44 19 45 542 46 291 
47 609 48 436 49 504 50 22 51 19 55 22 56 10 57 674 58 745 59 278 
60 53 61 999 62 122 63 46 71 11 72 16 73 322 74 17 75 183 76 14 
77 14 87 15 88 90 89 11 106 934 107 44 108 36 
