Name: MassBank: JP002005
MW: 124
Formula: C7H12N2
Synonym: MassBank: JP002005
Synonym: 1,3,4,5-TETRAMETHYLPYRAZOLE
Structure: 310A32330A312C332C342C352D54455452414D455448594C505952415A4F4C452E6D6F6C0A20204368656D447261773131313130393137353132440A2020392020392020302020302020302020302020302020302020302020303939392056323030300A20202020302E3237303020202020302E3535393020202020302E30303030204E202020302020302020302020302020302020302020302020302020302020302020302020300A20202020302E3934303720202020302E3037383620202020302E30303030204E202020302020302020302020302020302020302020302020302020302020302020302020300A20202020302E363931312020202D302E3730373720202020302E303030302043202020302020302020302020302020302020302020302020302020302020302020302020300A2020202D302E313333392020202D302E3731333320202020302E303030302043202020302020302020302020302020302020302020302020302020302020302020302020300A2020202D302E3339343120202020302E3036393620202020302E303030302043202020302020302020302020302020302020302020302020302020302020302020302020300A2020202D312E3138303520202020302E3331393220202020302E303030302043202020302020302020302020302020302020302020302020302020302020302020302020300A2020202D302E363134332020202D312E3338343020202020302E303030302043202020302020302020302020302020302020302020302020302020302020302020302020300A20202020312E313830352020202D312E3337313920202020302E303030302043202020302020302020302020302020302020302020302020302020302020302020302020300A20202020302E3236343420202020312E3338343020202020302E303030302043202020302020302020302020302020302020302020302020302020302020302020302020300A2020312020322020312020302020202020200A2020322020332020322020302020202020200A2020332020342020312020302020202020200A2020342020352020322020302020202020200A2020312020352020312020302020202020200A2020352020362020312020302020202020200A2020342020372020312020302020202020200A2020332020382020312020302020202020200A2020312020392020312020302020202020200A4D2020454E44
Contributor: SASAKI S, TOYOHASHI UNIV. OF TECH.
InstType: EI
InstName: MX-1303
IoniMethod: _ENERGY 50 eV
IonPolarity: pos
Date: 2010-10-09 19:48:36+02:00
Num Peaks: 38
26 12 27 76 28 56 29 3 30 15 39 96 40 28 41 9 42 155 43 33 
50 12 51 3 52 28 53 64 54 36 55 6 56 218 57 17 65 22 66 4 
67 32 68 123 69 20 79 3 80 20 81 28 82 100 83 2 94 18 95 22 
96 19 108 2 109 463 110 50 122 22 123 999 124 842 125 71 
