Name: MassBank: JP003236
MW: 239
Formula: C12H17NO4
Synonym: MassBank: JP003236
Synonym: 4-(2-ACETYL-2-ETHOXYCARBONYL)ETHYL-3,5-DIMETHYLISOXAZOLE
Structure: 342D28322D41434554594C2D322D4554484F5859434152424F4E594C29455448594C2D332C352D44494D455448594C49534F58415A4F4C452E6D6F6C0A20204368656D447261773033323331303137343832440A2031372031372020302020302020302020302020302020302020302020303939392056323030300A20202020322E373432362020202D302E3734353620202020302E30303030204F202020302020302020302020302020302020302020302020302020302020302020302020300A20202020322E323639342020202D312E3432313420202020302E30303030204E202020302020302020302020302020302020302020302020302020302020302020302020300A20202020312E343733332020202D312E3138303220202020302E303030302043202020302020302020302020302020302020302020302020302020302020302020302020300A20202020312E343733332020202D302E3335353320202020302E303030302043202020302020302020302020302020302020302020302020302020302020302020302020300A20202020322E323436312020202D302E3038363720202020302E303030302043202020302020302020302020302020302020302020302020302020302020302020302020300A20202020322E3438373320202020302E3730323220202020302E303030302043202020302020302020302020302020302020302020302020302020302020302020302020300A20202020302E383933342020202D312E3736303120202020302E303030302043202020302020302020302020302020302020302020302020302020302020302020302020300A20202020302E3731313320202020302E3430363720202020302E303030302043202020302020302020302020302020302020302020302020302020302020302020302020300A2020202D302E3131343220202020302E3333313220202020302E303030302043202020302020302020302020302020302020302020302020302020302020302020302020300A2020202D302E353837342020202D302E3334343620202020302E303030302043202020302020302020302020302020302020302020302020302020302020302020302020300A2020202D302E323338372020202D312E3039323420202020302E30303030204F202020302020302020302020302020302020302020302020302020302020302020302020300A2020202D312E333939382020202D302E3230313420202020302E30303030204F202020302020302020302020302020302020302020302020302020302020302020302020300A2020202D312E393330312020202D302E3833333420202020302E303030302043202020302020302020302020302020302020302020302020302020302020302020302020300A2020202D322E373432362020202D302E3639303120202020302E303030302043202020302020302020302020302020302020302020302020302020302020302020302020300A2020202D302E3532363720202020312E3034353620202020302E303030302043202020302020302020302020302020302020302020302020302020302020302020302020300A2020202D312E3335313720202020312E3034353620202020302E30303030204F202020302020302020302020302020302020302020302020302020302020302020302020300A2020202D302E3131343220202020312E3736303120202020302E303030302043202020302020302020302020302020302020302020302020302020302020302020302020300A2020312020322020312020302020202020200A2020322020332020322020302020202020200A2020332020342020312020302020202020200A2020342020352020322020302020202020200A2020312020352020312020302020202020200A2020352020362020312020302020202020200A2020332020372020312020302020202020200A2020382020392020312020302020202020200A2031302031312020322020302020202020200A2031332031342020312020302020202020200A2031322031332020312020302020202020200A2031302031322020312020302020202020200A2020392031302020312020302020202020200A2031352031362020322020302020202020200A2031352031372020312020302020202020200A2020392031352020312020302020202020200A2020342020382020312020302020202020200A4D2020454E44
Contributor: MASS SPECTROSCOPY SOC. OF JAPAN (MSSJ)
InstType: EI
InstName: HITACHI RMU-6E
IoniMethod: _ENERGY 70 eV
IonPolarity: pos
Date: 2010-10-09 19:48:36+02:00
Num Peaks: 8
239 70 196 360 166 170 124 210 110 720 68 580 43 999 42 230 
