Name: MassBank: JP002985
MW: 205
Formula: C3H5Cl3N2O2
Synonym: MassBank: JP002985
Synonym: 3,3,3-TRICHLORO-2-HYDROXY-PROPIONIC ACID-HYDRAZIDE
Structure: 332C332C332D54524943484C4F524F2D322D485944524F58592D50524F50494F4E494320414349442D48594452415A4944452E6D6F6C0A20204368656D447261773032323131303139343732440A2031302020392020302020302020302020302020302020302020302020303939392056323030300A20202020302E343132352020202D302E3631383820202020302E303030302043202020302020302020302020302020302020302020302020302020302020302020302020300A2020202D302E333032302020202D302E3230363220202020302E303030302043202020302020302020302020302020302020302020302020302020302020302020302020300A2020202D302E3330323020202020302E3631383820202020302E303030302043202020302020302020302020302020302020302020302020302020302020302020302020300A20202020302E343132352020202D312E3434333820202020302E30303030204F202020302020302020302020302020302020302020302020302020302020302020302020300A20202020312E313237302020202D302E3230363220202020302E30303030204E202020302020302020302020302020302020302020302020302020302020302020302020300A20202020312E3132373020202020302E3631383820202020302E30303030204E202020302020302020302020302020302020302020302020302020302020302020302020300A2020202D312E303136342020202D302E3631383820202020302E30303030204F202020302020302020302020302020302020302020302020302020302020302020302020300A2020202D312E3132373020202020302E3631383820202020302E3030303020436C2020302020302020302020302020302020302020302020302020302020302020302020300A2020202D302E3330323020202020312E3434333820202020302E3030303020436C2020302020302020302020302020302020302020302020302020302020302020302020300A20202020302E3532333020202020302E3631383820202020302E3030303020436C2020302020302020302020302020302020302020302020302020302020302020302020300A2020312020322020312020302020202020200A2020322020332020312020302020202020200A2020312020342020322020302020202020200A2020352020362020312020302020202020200A2020312020352020312020302020202020200A2020322020372020312020302020202020200A2020332020382020312020312020202020200A2020332020392020312020302020202020200A2020332031302020312020312020202020200A4D2020454E44
Contributor: SASAKI S, TOYOHASHI UNIV. OF TECH.
InstType: EI
InstName: Unknown
IoniMethod: EI
IonPolarity: pos
Date: 2010-10-09 19:48:36+02:00
Num Peaks: 19
59 720 61 360 71 260 76 24 82 120 83 340 85 210 89 999 111 230 112 650 
114 430 116 1 147 60 149 60 151 30 171 0 206 80 208 80 210 30 
