Name: 3-CHLOROPHENYL 2-FLUORENYL KETONE
MW: 304
Formula: C20H13ClO
Synonym: MassBank: JP009621
Synonym: 3-CHLOROPHENYL 2-FLUORENYL KETONE
Structure: 332D43484C4F524F5048454E594C20322D464C554F52454E594C204B45544F4E452E6D6F6C0A20204368656D447261773032323231303136333032440A2032322032352020302020302020302020302020302020302020302020303939392056323030300A2020202D312E3536393720202020312E3037313720202020302E303030302043202020302020302020302020302020302020302020302020302020302020302020302020300A2020202D312E3938323220202020312E3738363220202020302E30303030204F202020302020302020302020302020302020302020302020302020302020302020302020300A20202020312E303434392020202D302E3235353920202020302E303030302043202020302020302020302020302020302020302020302020302020302020302020302020300A20202020302E3439323820202020302E3335373220202020302E303030302043202020302020302020302020302020302020302020302020302020302020302020302020300A2020202D302E3333323220202020302E3335373220202020302E303030302043202020302020302020302020302020302020302020302020302020302020302020302020300A2020202D302E3734343720202020312E3037313720202020302E303030302043202020302020302020302020302020302020302020302020302020302020302020302020300A2020202D302E3333323220202020312E3738363220202020302E303030302043202020302020302020302020302020302020302020302020302020302020302020302020300A20202020302E3439323820202020312E3738363220202020302E303030302043202020302020302020302020302020302020302020302020302020302020302020302020300A20202020302E3930353320202020312E3037313720202020302E303030302043202020302020302020302020302020302020302020302020302020302020302020302020300A20202020312E3731323320202020302E3930303220202020302E303030302043202020302020302020302020302020302020302020302020302020302020302020302020300A20202020322E3337393720202020312E3338353120202020302E303030302043202020302020302020302020302020302020302020302020302020302020302020302020300A20202020332E3133333420202020312E3034393520202020302E303030302043202020302020302020302020302020302020302020302020302020302020302020302020300A20202020332E3231393720202020302E3232393120202020302E303030302043202020302020302020302020302020302020302020302020302020302020302020302020300A20202020322E353532322020202D302E3235353920202020302E303030302043202020302020302020302020302020302020302020302020302020302020302020302020300A20202020312E3739383520202020302E3037393720202020302E303030302043202020302020302020302020302020302020302020302020302020302020302020302020300A2020202D312E3938323220202020302E3335373220202020302E303030302043202020302020302020302020302020302020302020302020302020302020302020302020300A2020202D312E353639372020202D302E3335373220202020302E303030302043202020302020302020302020302020302020302020302020302020302020302020302020300A2020202D312E393832322020202D312E3037313720202020302E303030302043202020302020302020302020302020302020302020302020302020302020302020302020300A2020202D322E383037322020202D312E3037313720202020302E303030302043202020302020302020302020302020302020302020302020302020302020302020302020300A2020202D332E323139372020202D302E3335373220202020302E303030302043202020302020302020302020302020302020302020302020302020302020302020302020300A2020202D322E3830373220202020302E3335373220202020302E303030302043202020302020302020302020302020302020302020302020302020302020302020302020300A2020202D312E353639372020202D312E3738363220202020302E3030303020436C2020302020302020302020302020302020302020302020302020302020302020302020300A2020312020322020322020302020202020200A2020332020342020312020302020202020200A2020342020352020312020302020202020200A2020352020362020322020302020202020200A2020362020372020312020302020202020200A2020372020382020322020302020202020200A2020382020392020312020302020202020200A2020342020392020322020302020202020200A2020392031302020312020302020202020200A2031302031312020312020302020202020200A2031312031322020322020302020202020200A2031322031332020312020302020202020200A2031332031342020322020302020202020200A2031342031352020312020302020202020200A2031302031352020322020302020202020200A2020332031352020312020302020202020200A2020312020362020312020302020202020200A2031362031372020312020302020202020200A2031372031382020322020302020202020200A2031382031392020312020302020202020200A2031392032302020322020302020202020200A2032302032312020312020302020202020200A2031362032312020322020302020202020200A2031382032322020312020302020202020200A2020312031362020312020302020202020200A4D2020454E44
Contributor: THE INSTITUTE OF SCIENTIFIC AND INDUSTRIALRESEARCH
InstType: EI
InstName: JEOL JMS-DX-300
IoniMethod: _ENERGY 70 eV
IonPolarity: pos
Date: 2010-10-09 19:48:36+02:00
Num Peaks: 44
29 42 36 18 39 10 40 8 41 13 44 384 50 15 51 2 59 22 63 31 
75 59 76 2 87 15 89 15 105 15 111 17 112 13 113 66 115 42 119 1 
120 77 121 19 138 55 139 999 140 81 141 330 142 22 162 2 163 175 164 175 
165 732 166 13 167 10 193 637 194 101 237 2 239 59 240 18 269 19 270 1 
304 653 305 147 306 230 307 46 
