Name: ETHYL 3-BROMOPROPIONATE
CAS: 539-74-2
MW: 179
Formula: C5H9BrO2
Synonym: MassBank: JP009505
Synonym: ETHYL 3-BROMOPROPIONATE
Structure: 310A32300A424554412D42524F4D4F50524F50494F4E4943204143494420455448594C2045535445522E6D6F6C0A20204368656D447261773038313131303136303732440A2020382020372020302020302020302020302020302020302020302020303939392056323030300A20202020302E333537322020202D302E3230363220202020302E303030302043202020302020302020302020302020302020302020302020302020302020302020302020300A20202020312E303731372020202D302E3631383820202020302E303030302043202020302020302020302020302020302020302020302020302020302020302020302020300A20202020312E373836322020202D302E3230363220202020302E303030302043202020302020302020302020302020302020302020302020302020302020302020302020300A20202020302E3335373220202020302E3631383820202020302E30303030204F202020302020302020302020302020302020302020302020302020302020302020302020300A2020202D302E333537322020202D302E3631383820202020302E30303030204F202020302020302020302020302020302020302020302020302020302020302020302020300A20202020312E3738363220202020302E3631383820202020302E303030302042722020302020302020302020302020302020302020302020302020302020302020302020300A2020202D312E303731372020202D302E3230363320202020302E303030302043202020302020302020302020302020302020302020302020302020302020302020302020300A2020202D312E373836322020202D302E3631383820202020302E303030302043202020302020302020302020302020302020302020302020302020302020302020302020300A2020312020322020312020302020202020200A2020322020332020312020302020202020200A2020312020342020322020302020202020200A2020312020352020312020302020202020200A2020332020362020312020302020202020200A2020372020382020312020302020202020200A2020352020372020312020302020202020200A4D2020454E44
Contributor: NARA WOMEN'S UNIVERSITY
InstType: EI
InstName: HITACHI M-80
IoniMethod: _ENERGY 30 eV
IonPolarity: pos
Date: 2010-10-09 19:48:36+02:00
Num Peaks: 36
15 27 26 64 27 482 28 345 29 999 30 35 31 68 32 27 41 30 42 19 
43 60 44 15 45 198 55 138 56 32 73 341 74 14 80 12 82 12 101 211 
102 13 106 25 107 396 108 53 109 379 110 30 135 331 136 13 137 323 138 11 
152 633 153 37 154 622 155 35 180 39 182 38 
