Name: MassBank: JP002022
MW: 152
Formula: C9H16N2
Synonym: MassBank: JP002022
Synonym: 1-BUTYL-3,5-DIMETHYLPYRAZOLE
Structure: 312D425554594C2D332C352D44494D455448594C505952415A4F4C452E6D6F6C0A20204368656D447261773131313730393233343932440A2031322031322020302020302020302020302020302020302020302020303939392056323030300A2020202D302E3030383620202020302E3636363620202020302E30303030204E202020302020302020302020302020302020302020302020302020302020302020302020300A2020202D302E3736323320202020312E3030323120202020302E30303030204E202020302020302020302020302020302020302020302020302020302020302020302020300A2020202D312E3331343320202020302E3338393120202020302E303030302043202020302020302020302020302020302020302020302020302020302020302020302020300A2020202D302E393031382020202D302E3332353420202020302E303030302043202020302020302020302020302020302020302020302020302020302020302020302020300A2020202D302E303934382020202D302E3135333920202020302E303030302043202020302020302020302020302020302020302020302020302020302020302020302020300A20202020302E353138322020202D302E3730353920202020302E303030302043202020302020302020302020302020302020302020302020302020302020302020302020300A2020202D322E3133343820202020302E3437353320202020302E303030302043202020302020302020302020302020302020302020302020302020302020302020302020300A20202020302E3730353920202020312E3037393120202020302E303030302043202020302020302020302020302020302020302020302020302020302020302020302020300A20202020312E3432303320202020302E3636363620202020302E303030302043202020302020302020302020302020302020302020302020302020302020302020302020300A20202020312E343230332020202D302E3135383420202020302E303030302043202020302020302020302020302020302020302020302020302020302020302020302020300A20202020322E313334382020202D302E3537303920202020302E303030302043202020302020302020302020302020302020302020302020302020302020302020302020300A2020202D312E323337342020202D312E3037393120202020302E303030302048202020302020302020302020302020302020302020302020302020302020302020302020300A2020312020322020312020302020202020200A2020322020332020322020302020202020200A2020332020342020312020302020202020200A2020342020352020322020302020202020200A2020312020352020312020302020202020200A2020352020362020312020302020202020200A2020332020372020312020302020202020200A2020382020392020312020302020202020200A2020392031302020312020302020202020200A2031302031312020312020302020202020200A2020312020382020312020302020202020200A2020342031322020312020302020202020200A4D2020454E44
Contributor: SASAKI S, TOYOHASHI UNIV. OF TECH.
InstType: EI
InstName: MX-1303
IoniMethod: _ENERGY 50 eV
IonPolarity: pos
Date: 2010-10-09 19:48:36+02:00
Num Peaks: 39
27 114 28 93 29 100 30 2 38 13 39 200 40 59 41 29 42 252 43 35 
51 14 53 7 54 59 55 75 56 43 57 2 65 31 66 38 67 32 68 10 
69 29 79 31 80 30 81 3 82 55 83 11 95 212 96 50 97 96 108 25 
109 999 110 19 111 12 123 13 137 106 138 5 151 13 152 266 153 30 
