Name: GAMMA-NONALACTONE
MW: 156
Formula: C9H16O2
Synonym: MassBank: JP008729
Synonym: GAMMA-NONALACTONE
Structure: 47414D4D412D4E4F4E414C4143544F4E452E6D6F6C0A20204368656D447261773038313131303139343332440A2031312031312020302020302020302020302020302020302020302020303939392056323030300A2020202D322E303238382020202D302E3031323220202020302E303030302043202020302020302020302020302020302020302020302020302020302020302020302020300A2020202D312E3631363320202020302E3730323320202020302E303030302043202020302020302020302020302020302020302020302020302020302020302020302020300A2020202D302E3830393320202020302E3533303720202020302E303030302043202020302020302020302020302020302020302020302020302020302020302020302020300A2020202D302E373233312020202D302E3238393820202020302E303030302043202020302020302020302020302020302020302020302020302020302020302020302020300A2020202D302E303038362020202D302E3730323320202020302E303030302043202020302020302020302020302020302020302020302020302020302020302020302020300A20202020302E373035392020202D302E3238393820202020302E303030302043202020302020302020302020302020302020302020302020302020302020302020302020300A20202020312E343230332020202D302E3730323320202020302E303030302043202020302020302020302020302020302020302020302020302020302020302020302020300A20202020322E313334382020202D302E3238393820202020302E303030302043202020302020302020302020302020302020302020302020302020302020302020302020300A20202020322E383439332020202D302E3730323320202020302E303030302043202020302020302020302020302020302020302020302020302020302020302020302020300A2020202D322E383439332020202D302E3039383520202020302E30303030204F202020302020302020302020302020302020302020302020302020302020302020302020300A2020202D312E343736382020202D302E3632353320202020302E30303030204F202020302020302020302020302020302020302020302020302020302020302020302020300A2020312020322020312020302020202020200A2020322020332020312020302020202020200A2020332020342020312020302020202020200A2020342020352020312020302020202020200A2020352020362020312020302020202020200A2020362020372020312020302020202020200A2020372020382020312020302020202020200A2020382020392020312020302020202020200A2020312031302020322020302020202020200A2020312031312020312020302020202020200A2020342031312020312020302020202020200A4D2020454E44
Contributor: SODA AROMATIC CO., LTD.
InstType: EI
InstName: HITACHI M-80B
IoniMethod: _ENERGY 70 eV
IonPolarity: pos
Date: 2010-10-09 19:48:36+02:00
Num Peaks: 31
26 12 27 132 28 54 29 238 39 58 41 122 42 44 43 74 44 13 53 13 
54 16 55 80 56 81 57 51 67 12 69 21 70 23 71 16 72 20 83 16 
84 20 85 999 86 41 96 15 97 11 99 21 100 42 101 16 114 24 128 23 
138 11 
