Name: DIBUTYLTIN MALEATE
MW: 348
Formula: C12H20O4Sn
Synonym: MassBank: JP008352
Synonym: DIBUTYLTIN MALEATE
Structure: 4449425554594C54494E204D414C454154452E6D6F6C0A20204368656D447261773039323131303138313132440A2031372031372020302020302020302020302020302020302020302020303939392056323030300A2020202D312E373832302020202D302E3634353220202020302E303030302043202020302020302020302020302020302020302020302020302020302020302020302020300A2020202D312E373832302020202D312E3437303220202020302E303030302043202020302020302020302020302020302020302020302020302020302020302020302020300A2020202D312E313336392020202D312E3938343620202020302E303030302043202020302020302020302020302020302020302020302020302020302020302020302020300A2020202D302E333332362020202D312E3830313020202020302E303030302043202020302020302020302020302020302020302020302020302020302020302020302020300A20202020302E303235332020202D312E3035373720202020302E30303030204F202020302020302020302020302020302020302020302020302020302020302020302020300A2020202D302E333332362020202D302E3331343420202020302E3030303020536E2020302020302020302020302020302020302020302020302020302020302020302020300A2020202D312E313336392020202D302E3133303920202020302E30303030204F202020302020302020302020302020302020302020302020302020302020302020302020300A2020202D322E353235332020202D302E3238373320202020302E30303030204F202020302020302020302020302020302020302020302020302020302020302020302020300A20202020302E313831382020202D322E3434363120202020302E30303030204F202020302020302020302020302020302020302020302020302020302020302020302020300A2020202D302E3131393120202020302E3438323420202020302E303030302043202020302020302020302020302020302020302020302020302020302020302020302020300A20202020302E3338313820202020302E3039383120202020302E303030302043202020302020302020302020302020302020302020302020302020302020302020302020300A2020202D302E3730323520202020312E3036353820202020302E303030302043202020302020302020302020302020302020302020302020302020302020302020302020300A2020202D302E3438383920202020312E3836323720202020302E303030302043202020302020302020302020302020302020302020302020302020302020302020302020300A2020202D312E3037323320202020322E3434363120202020302E303030302043202020302020302020302020302020302020302020302020302020302020302020302020300A20202020312E303936332020202D302E3331343420202020302E303030302043202020302020302020302020302020302020302020302020302020302020302020302020300A20202020312E3831303820202020302E3039383120202020302E303030302043202020302020302020302020302020302020302020302020302020302020302020302020300A20202020322E353235332020202D302E3331343420202020302E303030302043202020302020302020302020302020302020302020302020302020302020302020302020300A2020312020322020312020302020202020200A2020322020332020322020302020202020200A2020332020342020312020302020202020200A2020342020352020312020302020202020200A2020352020362020312020302020202020200A2020362020372020312020302020202020200A2020372020312020312020302020202020200A2020312020382020322020302020202020200A2020342020392020322020302020202020200A2020362031302020312020302020202020200A2020362031312020312020302020202020200A2031302031322020312020302020202020200A2031322031332020312020302020202020200A2031332031342020312020302020202020200A2031312031352020312020302020202020200A2031352031362020312020302020202020200A2031362031372020312020302020202020200A4D2020454E44
Contributor: UBE SCIENTIFIC ANALYSIS LABORATORY
InstType: EI
InstName: HITACHI M-60
IoniMethod: _ENERGY 70 eV
IonPolarity: pos
Date: 2010-10-09 19:48:36+02:00
Num Peaks: 37
18 10 24 11 25 76 26 609 27 32 28 40 29 52 37 15 39 10 41 79 
42 17 43 38 44 54 45 14 52 27 53 105 54 999 55 60 56 14 57 70 
69 29 70 13 71 15 81 13 82 19 83 15 96 11 97 12 98 285 99 24 
119 11 121 10 177 11 205 12 219 53 220 16 269 10 
