Name: THIOPROPERAZINE
MW: 446
Formula: C22H30N4O2S2
Synonym: MassBank: JP002771
Synonym: THIOPROPERAZINE
Structure: 303339365F5448494F50524F504552415A494E452E6D6F6C0A20204368656D447261773038323031303032343132440A2033302033332020302020302020302020302020302020302020302020303939392056323030300A2020202D312E3037313620202020332E3034323120202020302E303030302043202020302020302020302020302020302020302020302020302020302020302020302020300A2020202D312E3037313620202020322E3231373220202020302E303030302043202020302020302020302020302020302020302020302020302020302020302020302020300A2020202D302E3335373220202020312E3830343720202020302E303030302043202020302020302020302020302020302020302020302020302020302020302020302020300A20202020302E3335373220202020322E3231373220202020302E303030302043202020302020302020302020302020302020302020302020302020302020302020302020300A20202020302E3335373220202020332E3034323120202020302E303030302043202020302020302020302020302020302020302020302020302020302020302020302020300A2020202D302E3335373220202020332E3435343620202020302E303030302043202020302020302020302020302020302020302020302020302020302020302020302020300A20202020312E3037313720202020312E3830343720202020302E30303030204E202020302020302020302020302020302020302020302020302020302020302020302020300A20202020312E3738363120202020322E3231373220202020302E303030302043202020302020302020302020302020302020302020302020302020302020302020302020300A20202020312E3738363120202020332E3034323120202020302E303030302043202020302020302020302020302020302020302020302020302020302020302020302020300A20202020312E3037313720202020332E3435343620202020302E303030302053202020302020302020302020302020302020302020302020302020302020302020302020300A20202020322E3530303620202020312E3830343720202020302E303030302043202020302020302020302020302020302020302020302020302020302020302020302020300A20202020332E3231353020202020322E3231373220202020302E303030302043202020302020302020302020302020302020302020302020302020302020302020302020300A20202020332E3231353020202020332E3034323120202020302E303030302043202020302020302020302020302020302020302020302020302020302020302020302020300A20202020322E3530303620202020332E3435343620202020302E303030302043202020302020302020302020302020302020302020302020302020302020302020302020300A20202020312E3037313720202020302E3937393620202020302E303030302043202020302020302020302020302020302020302020302020302020302020302020302020300A20202020312E3738363120202020302E3536373220202020302E303030302043202020302020302020302020302020302020302020302020302020302020302020302020300A20202020312E373836312020202D302E3235373820202020302E303030302043202020302020302020302020302020302020302020302020302020302020302020302020300A2020202D312E3738363120202020312E3830343720202020302E303030302053202020302020302020302020302020302020302020302020302020302020302020302020300A2020202D322E3530303620202020312E3339323220202020302E30303030204E202020302020302020302020302020302020302020302020302020302020302020302020300A2020202D322E3139383620202020322E3531393220202020302E30303030204F202020302020302020302020302020302020302020302020302020302020302020302020300A2020202D312E3337333620202020312E3039303220202020302E30303030204F202020302020302020302020302020302020302020302020302020302020302020302020300A2020202D332E3231353020202020312E3830343720202020302E303030302043202020302020302020302020302020302020302020302020302020302020302020302020300A2020202D322E3530303620202020302E3536373220202020302E303030302043202020302020302020302020302020302020302020302020302020302020302020302020300A20202020312E313637332020202D302E3937393720202020302E30303030204E202020302020302020302020302020302020302020302020302020302020302020302020300A20202020302E343533302020202D312E3339323220202020302E303030302043202020302020302020302020302020302020302020302020302020302020302020302020300A20202020302E343533302020202D322E3231373120202020302E303030302043202020302020302020302020302020302020302020302020302020302020302020302020300A20202020312E313637332020202D322E3632393620202020302E30303030204E202020302020302020302020302020302020302020302020302020302020302020302020300A20202020312E383831382020202D322E3231373120202020302E303030302043202020302020302020302020302020302020302020302020302020302020302020302020300A20202020312E383831382020202D312E3339323220202020302E303030302043202020302020302020302020302020302020302020302020302020302020302020302020300A20202020312E313637332020202D332E3435343620202020302E303030302043202020302020302020302020302020302020302020302020302020302020302020302020300A2020312020322020322020302020202020200A2020322020332020312020302020202020200A2020332020342020322020302020202020200A2020342020352020312020302020202020200A2020352020362020322020302020202020200A2020362020312020312020302020202020200A2020342020372020312020302020202020200A2020372020382020312020302020202020200A2020382020392020322020302020202020200A2020392031302020312020302020202020200A2031302020352020312020302020202020200A2020382031312020312020302020202020200A2031312031322020322020302020202020200A2031322031332020312020302020202020200A2031332031342020322020302020202020200A2031342020392020312020302020202020200A2020372031352020312020302020202020200A2031352031362020312020302020202020200A2031362031372020312020302020202020200A2020322031382020312020302020202020200A2031382031392020312020302020202020200A2031382032302020322020302020202020200A2031382032312020322020302020202020200A2031392032322020312020302020202020200A2031392032332020312020302020202020200A2032342032352020312020302020202020200A2032352032362020312020302020202020200A2032362032372020312020302020202020200A2032372032382020312020302020202020200A2032382032392020312020302020202020200A2032392032342020312020302020202020200A2032372033302020312020302020202020200A2031372032342020312020302020202020200A4D2020454E44
Contributor: SASAKI S, TOYOHASHI UNIV. OF TECH.
InstType: EI
InstName: Unknown
IoniMethod: EI
IonPolarity: pos
Date: 2010-10-09 19:48:36+02:00
Num Peaks: 58
41 229 42 599 43 860 44 37 55 109 56 279 57 189 58 28 70 999 71 419 
72 69 84 11 85 149 96 49 97 139 98 15 99 99 111 169 113 990 114 17 
127 569 139 49 141 259 179 7 180 49 196 79 197 109 198 17 199 49 210 99 
211 149 212 23 214 39 223 49 224 59 225 4 237 19 238 69 239 29 266 1 
267 9 268 9 287 19 305 2 306 29 319 69 320 159 321 3 332 59 333 39 
338 49 345 3 346 29 359 9 375 49 388 1 400 9 446 219 
