Name: TEREPHTHALIC ACID DIMETHYL ESTER (D6)
MW: 194
Formula: C10H10O4
Synonym: MassBank: JP001325
Synonym: TEREPHTHALIC ACID DIMETHYL ESTER (D6)
Synonym: DI(2H3)METHYL TEREPHTHALATE
Structure: 303531325F5445524550485448414C494320414349442044494D455448594C20455354455220284436292E6D6F6C0A20204368656D447261773038323031303034303332440A2032302032302020302020302020302020302020302020302020302020303939392056323030300A2020202D312E363634352020202D302E3031333620202020302E303030302043202020302020302020302020302020302020302020302020302020302020302020302020300A2020202D302E383339342020202D302E3031333620202020302E303030302043202020302020302020302020302020302020302020302020302020302020302020302020300A2020202D302E3432363920202020302E3730303920202020302E303030302043202020302020302020302020302020302020302020302020302020302020302020302020300A20202020302E3339383020202020302E3730303920202020302E303030302043202020302020302020302020302020302020302020302020302020302020302020302020300A20202020302E383130352020202D302E3031333620202020302E303030302043202020302020302020302020302020302020302020302020302020302020302020302020300A20202020312E363335342020202D302E3031333620202020302E303030302043202020302020302020302020302020302020302020302020302020302020302020302020300A20202020302E333938302020202D302E3732383120202020302E303030302043202020302020302020302020302020302020302020302020302020302020302020302020300A2020202D302E343237302020202D302E3732383120202020302E303030302043202020302020302020302020302020302020302020302020302020302020302020302020300A2020202D322E3037363320202020302E3730303020202020302E30303030204F202020302020302020302020302020302020302020302020302020302020302020302020300A2020202D322E303736332020202D302E3732383120202020302E30303030204F202020302020302020302020302020302020302020302020302020302020302020302020300A20202020322E303438362020202D302E3732383120202020302E30303030204F202020302020302020302020302020302020302020302020302020302020302020302020300A20202020322E3034383820202020302E3730303020202020302E30303030204F202020302020302020302020302020302020302020302020302020302020302020302020300A2020202D322E393031392020202D302E3732383120202020302E303030302043202020302020302020302020302020302020302020302020302020302020302020302020300A2020202D322E363838332020202D312E3532353020202020302E303030302048202020312020302020302020302020302020302020302020302020302020302020302020300A2020202D332E363938382020202D302E3934313620202020302E303030302048202020312020302020302020302020302020302020302020302020302020302020302020300A20202020322E3837333820202020302E3730303020202020302E303030302043202020302020302020302020302020302020302020302020302020302020302020302020300A20202020322E3837333820202020312E3532353020202020302E303030302048202020312020302020302020302020302020302020302020302020302020302020302020300A20202020332E3639383820202020302E3730303020202020302E303030302048202020312020302020302020302020302020302020302020302020302020302020302020300A20202020322E383733382020202D302E3132353020202020302E303030302048202020312020302020302020302020302020302020302020302020302020302020302020300A2020202D322E3930313920202020302E3039363920202020302E303030302048202020312020302020302020302020302020302020302020302020302020302020302020300A2020312020322020312020302020202020200A2020322020332020312020302020202020200A2020332020342020322020302020202020200A2020342020352020312020302020202020200A2020352020362020312020302020202020200A2020352020372020322020302020202020200A2020372020382020312020302020202020200A2020322020382020322020302020202020200A2020312020392020322020302020202020200A2020312031302020312020302020202020200A2020362031312020322020302020202020200A2020362031322020312020302020202020200A2031302031332020312020302020202020200A2031322031362020312020302020202020200A2031332031342020312020302020202020200A2031332031352020312020302020202020200A2031362031372020312020302020202020200A2031362031382020312020302020202020200A2031362031392020312020302020202020200A2031332032302020312020302020202020200A4D202049534F2020362020313420202032202031352020203220203137202020322020313820202032202031392020203220203230202020320A4D2020454E44
Contributor: TAJIMA S, GUNMA COLLEGE OF TECHNOLOGY
InstType: EI
InstName: HITACHI RMU-7M
IoniMethod: _ENERGY 70 eV
IonPolarity: pos
Date: 2010-10-09 19:48:36+02:00
Num Peaks: 22
18 51 50 84 52 20 62 15 66 16 74 32 75 74 76 90 78 30 92 23 
103 124 104 55 119 31 120 53 138 208 139 15 165 14 166 999 167 95 182 11 
200 235 201 23 
