Name: 1-BUTYL-1-METHYLHYDRAZINE
MW: 102
Formula: C5H14N2
Synonym: MassBank: JP000381
Synonym: 1-BUTYL-1-METHYLHYDRAZINE
Structure: 310A31380A312D425554594C2D312D4D455448594C48594452415A494E452E6D6F6C0A20204368656D447261773131313730393233343432440A2020372020362020302020302020302020302020302020302020302020303939392056323030300A2020202D312E303731372020202D302E3230363220202020302E30303030204E202020302020302020302020302020302020302020302020302020302020302020302020300A2020202D312E373836322020202D302E3631383820202020302E30303030204E202020302020302020302020302020302020302020302020302020302020302020302020300A2020202D312E3037313720202020302E3631383820202020302E303030302043202020302020302020302020302020302020302020302020302020302020302020302020300A2020202D302E333537322020202D302E3631383820202020302E303030302043202020302020302020302020302020302020302020302020302020302020302020302020300A20202020302E333537322020202D302E3230363220202020302E303030302043202020302020302020302020302020302020302020302020302020302020302020302020300A20202020312E303731372020202D302E3631383820202020302E303030302043202020302020302020302020302020302020302020302020302020302020302020302020300A20202020312E373836322020202D302E3230363220202020302E303030302043202020302020302020302020302020302020302020302020302020302020302020302020300A2020312020322020312020302020202020200A2020312020332020312020302020202020200A2020342020352020312020302020202020200A2020352020362020312020302020202020200A2020362020372020312020302020202020200A2020312020342020312020302020202020200A4D2020454E44
Contributor: SASAKI S, TOYOHASHI UNIV. OF TECH.
InstType: EI
InstName: SHIMADZU LKB-2091
IoniMethod: _ENERGY 70 eV
IonPolarity: pos
Date: 2010-10-09 19:48:36+02:00
Num Peaks: 22
27 71 29 111 30 108 31 15 39 31 40 78 41 61 42 20 43 79 44 105 
45 85 46 2 55 12 56 16 57 45 58 1 59 999 60 32 71 77 72 1 
102 153 103 10 
