Name: BIS(CHLORODIMETHYLSILYL)METHANE
CAS: 5357-38-0
MW: 200
Formula: C5H14Cl2Si2
Synonym: MassBank: JP004662
Synonym: BIS(CHLORODIMETHYLSILYL)METHANE
Structure: 310A32320A4249532843484C4F524F44494D455448594C53494C594C294D455448414E452E6D6F6C0A20204368656D447261773039303531303232313332440A2020392020382020302020302020302020302020302020302020302020303939392056323030300A20202020302E3030303020202020302E3431323520202020302E303030302043202020302020302020302020302020302020302020302020302020302020302020302020300A2020202D302E373134352020202D302E3030303020202020302E303030302053692020302020302020302020302020302020302020302020302020302020302020302020300A2020202D312E3132373020202020302E3731343520202020302E303030302043202020302020302020302020302020302020302020302020302020302020302020302020300A2020202D302E333032302020202D302E3731343520202020302E303030302043202020302020302020302020302020302020302020302020302020302020302020302020300A2020202D312E343238392020202D302E3431323520202020302E3030303020436C2020302020302020302020302020302020302020302020302020302020302020302020300A20202020302E3731343520202020302E3030303020202020302E303030302053692020302020302020302020302020302020302020302020302020302020302020302020300A20202020312E3132373020202020302E3731343520202020302E303030302043202020302020302020302020302020302020302020302020302020302020302020302020300A20202020312E343238392020202D302E3431323520202020302E3030303020436C2020302020302020302020302020302020302020302020302020302020302020302020300A20202020302E333032302020202D302E3731343520202020302E303030302043202020302020302020302020302020302020302020302020302020302020302020302020300A2020322020332020312020302020202020200A2020322020342020312020302020202020200A2020322020352020312020302020202020200A2020312020322020312020302020202020200A2020362020372020312020302020202020200A2020362020382020312020302020202020200A2020362020392020312020302020202020200A2020312020362020312020302020202020200A4D2020454E44
Contributor: MASS SPECTROSCOPY SOC. OF JAPAN (MSSJ)
InstType: EI
InstName: JEOL JMS-D-3000
IoniMethod: _ENERGY 70 eV
IonPolarity: pos
Date: 2010-10-09 19:48:36+02:00
Num Peaks: 29
43 49 45 27 55 21 59 38 63 57 65 55 71 29 72 130 73 111 75 34 
79 32 85 44 86 20 93 178 95 65 131 101 149 87 151 40 165 146 166 28 
167 104 169 38 171 20 185 999 186 157 187 717 188 105 189 156 190 20 
