Name: ERGOSTERIN
CAS: 57-87-4
MW: 396
Formula: C28H44O
Synonym: MassBank: JP009506
Synonym: ERGOSTERIN
Structure: 303731305F4552474F53544552494E2E6D6F6C0A20204368656D447261773130313931303232333332440A2033342033372020302020302020302020302020302020302020302020303939392056323030300A2020202D322E383039302020202D332E3132393820202020302E303030302043202020302020302020302020302020302020302020302020302020302020302020302020300A2020202D332E353233322020202D332E3534333020202020302E30303030204F202020302020302020302020302020302020302020302020302020302020302020302020300A2020202D322E383039302020202D322E3330343820202020302E303030302043202020302020302020302020302020302020302020302020302020302020302020302020300A2020202D322E303934352020202D312E3839323320202020302E303030302043202020302020302020302020302020302020302020302020302020302020302020302020300A2020202D322E303934352020202D332E3534323320202020302E303030302043202020302020302020302020302020302020302020302020302020302020302020302020300A2020202D312E333830312020202D332E3132393820202020302E303030302043202020302020302020302020302020302020302020302020302020302020302020302020300A2020202D302E363635362020202D332E3534323320202020302E303030302043202020302020302020302020302020302020302020302020302020302020302020302020300A20202020302E303438392020202D332E3132393820202020302E303030302043202020302020302020302020302020302020302020302020302020302020302020302020300A20202020302E303438392020202D322E3330343820202020302E303030302043202020302020302020302020302020302020302020302020302020302020302020302020300A20202020302E373633332020202D312E3839323320202020302E303030302043202020302020302020302020302020302020302020302020302020302020302020302020300A20202020312E353438302020202D322E3134373220202020302E303030302043202020302020302020302020302020302020302020302020302020302020302020302020300A20202020322E303332392020202D312E3437393820202020302E303030302043202020302020302020302020302020302020302020302020302020302020302020302020300A20202020312E353438302020202D302E3831323320202020302E303030302043202020302020302020302020302020302020302020302020302020302020302020302020300A20202020312E383032392020202D302E3032373720202020302E303030302043202020302020302020302020302020302020302020302020302020302020302020302020300A20202020302E373633332020202D312E3036373320202020302E303030302043202020302020302020302020302020302020302020302020302020302020302020302020300A20202020302E373633332020202D302E3234323320202020302E303030302043202020302020302020302020302020302020302020302020302020302020302020302020300A20202020302E303438392020202D302E3635343820202020302E303030302043202020302020302020302020302020302020302020302020302020302020302020302020300A2020202D302E363635362020202D312E3036373320202020302E303030302043202020302020302020302020302020302020302020302020302020302020302020302020300A2020202D302E363635362020202D312E3839323320202020302E303030302043202020302020302020302020302020302020302020302020302020302020302020302020300A2020202D312E333830312020202D322E3330343820202020302E303030302043202020302020302020302020302020302020302020302020302020302020302020302020300A2020202D302E363634362020202D322E3731383020202020302E303030302048202020302020302020302020302020302020302020302020302020302020302020302020300A20202020302E373634362020202D322E3731383020202020302E303030302048202020302020302020302020302020302020302020302020302020302020302020302020300A2020202D312E333830312020202D312E3437393820202020302E303030302043202020302020302020302020302020302020302020302020302020302020302020302020300A20202020322E333437382020202D312E3031343420202020302E303030302048202020302020302020302020302020302020302020302020302020302020302020302020300A20202020312E3231313620202020302E3534363320202020302E303030302048202020302020302020302020302020302020302020302020302020302020302020302020300A20202020322E3235303020202020302E3636353720202020302E303030302043202020302020302020302020302020302020302020302020302020302020302020302020300A20202020322E353636352020202D302E3334303020202020302E303030302043202020302020302020302020302020302020302020302020302020302020302020302020300A20202020312E3837333220202020312E3339393520202020302E303030302043202020302020302020302020302020302020302020302020302020302020302020302020300A20202020322E3238353720202020322E3131343020202020302E303030302043202020302020302020302020302020302020302020302020302020302020302020302020300A20202020312E3537313220202020322E3532363520202020302E303030302043202020302020302020302020302020302020302020302020302020302020302020302020300A20202020322E3639383220202020322E3832383520202020302E303030302043202020302020302020302020302020302020302020302020302020302020302020302020300A20202020332E3030303120202020312E3730313520202020302E303030302048202020302020302020302020302020302020302020302020302020302020302020302020300A20202020322E3238353720202020332E3534333020202020302E303030302043202020302020302020302020302020302020302020302020302020302020302020302020300A20202020332E3532333220202020322E3832383520202020302E303030302043202020302020302020302020302020302020302020302020302020302020302020302020300A2020312020322020312020312020202020200A2020312020332020312020302020202020200A2020332020342020312020302020202020200A2020312020352020312020302020202020200A2020352020362020312020302020202020200A2020362020372020322020302020202020200A2020372020382020312020302020202020200A2020382020392020322020302020202020200A2020392031302020312020302020202020200A2031302031312020312020302020202020200A2031312031322020312020302020202020200A2031322031332020312020302020202020200A2031332031342020312020302020202020200A2031332031352020312020302020202020200A2031302031352020312020302020202020200A2031352031362020312020312020202020200A2031352031372020312020302020202020200A2031372031382020312020302020202020200A2031382031392020312020302020202020200A2020392031392020312020302020202020200A2031392032302020312020302020202020200A2020342032302020312020302020202020200A2020362032302020312020302020202020200A2031392032312020312020362020202020200A2031302032322020312020362020202020200A2032302032332020312020312020202020200A2031332032342020312020362020202020200A2031342032352020312020312020202020200A2031342032362020312020302020202020200A2031342032372020312020302020202020200A2032362032382020322020302020202020200A2032382032392020312020302020202020200A2032392033302020312020312020202020200A2032392033312020312020302020202020200A2032392033322020312020312020202020200A2033312033332020312020302020202020200A2033312033342020312020302020202020200A4D2020454E44
Contributor: NARA WOMEN'S UNIVERSITY
InstType: EI
InstName: HITACHI M-80
IoniMethod: _ENERGY 70 eV
IonPolarity: pos
Date: 2010-10-09 19:48:36+02:00
Num Peaks: 129
27 20 29 24 39 15 41 97 43 177 53 19 55 176 57 45 67 61 69 197 
70 23 71 16 77 26 79 49 81 116 82 18 83 73 91 64 92 10 93 54 
94 10 95 55 97 20 105 63 106 11 107 62 108 11 109 61 115 27 116 13 
117 36 118 21 119 70 120 11 121 24 123 16 125 33 127 10 128 45 129 49 
130 19 131 58 132 17 133 43 134 11 135 16 137 10 141 38 142 30 143 113 
144 36 145 91 146 20 147 37 153 13 154 11 155 40 156 23 157 94 158 49 
159 89 160 17 161 17 165 14 167 17 168 12 169 42 170 22 171 65 172 17 
173 24 175 49 176 16 177 14 181 20 182 12 183 44 184 16 185 49 186 21 
187 15 195 22 196 13 197 60 198 21 199 48 200 11 201 10 209 20 210 12 
211 93 212 24 213 40 217 21 223 15 224 12 225 26 226 21 227 30 229 15 
237 29 238 14 239 24 251 41 252 15 253 154 254 34 255 18 269 21 270 13 
271 85 272 19 337 185 338 64 339 12 363 450 364 139 365 22 376 14 377 11 
378 31 379 14 380 12 381 18 394 24 395 13 396 999 397 313 398 54 
