Name: MassBank: JP003054
MW: 215
Formula: C4ClF7
Synonym: MassBank: JP003054
Synonym: 3-CHLORO-1,1,1,2,4,4,4-HEPTAFLUORO-2-BUTENE
Structure: 332D43484C4F524F2D312C312C312C322C342C342C342D4845505441464C554F524F2D322D425554454E452E6D6F6C0A20204368656D447261773032323231303134343832440A2031322031312020302020302020302020302020302020302020302020303939392056323030300A20202020302E363539322020202D302E3631383820202020302E303030302043202020302020302020302020302020302020302020302020302020302020302020302020300A20202020302E3635393220202020302E3230363320202020302E303030302043202020302020302020302020302020302020302020302020302020302020302020302020300A2020202D302E3035353320202020302E3631383820202020302E303030302043202020302020302020302020302020302020302020302020302020302020302020302020300A2020202D302E3736393720202020302E3230363320202020302E303030302043202020302020302020302020302020302020302020302020302020302020302020302020300A2020202D312E343834322020202D302E3230363220202020302E303030302046202020302020302020302020302020302020302020302020302020302020302020302020300A2020202D312E3138323220202020302E3932303720202020302E303030302046202020302020302020302020302020302020302020302020302020302020302020302020300A2020202D302E333537322020202D302E3530383220202020302E303030302046202020302020302020302020302020302020302020302020302020302020302020302020300A20202020312E3337333720202020302E3631383820202020302E303030302046202020302020302020302020302020302020302020302020302020302020302020302020300A2020202D302E313635382020202D302E3631383820202020302E303030302046202020302020302020302020302020302020302020302020302020302020302020302020300A20202020302E363539322020202D312E3434333820202020302E303030302046202020302020302020302020302020302020302020302020302020302020302020302020300A20202020312E343834322020202D302E3631383820202020302E303030302046202020302020302020302020302020302020302020302020302020302020302020302020300A2020202D302E3035353320202020312E3434333820202020302E3030303020436C2020302020302020302020302020302020302020302020302020302020302020302020300A2020312020322020312020302020202020200A2020322020332020322020302020202020200A2020332020342020312020302020202020200A2020342020352020312020302020202020200A2020342020362020312020312020202020200A2020342020372020312020312020202020200A2020322020382020312020302020202020200A2020312020392020312020312020202020200A2020312031302020312020302020202020200A2020312031312020312020312020202020200A2020332031322020312020302020202020200A4D2020454E44
Contributor: SASAKI S, TOYOHASHI UNIV. OF TECH.
InstType: EI
InstName: Unknown
IoniMethod: EI
IonPolarity: pos
Date: 2010-10-09 19:48:36+02:00
Num Peaks: 58
31 14 35 2 37 1 43 0 47 4 49 2 50 6 55 1 62 2 66 3 
68 1 69 28 70 4 74 21 75 1 78 1 80 3 85 16 86 1 87 1 
89 4 90 4 93 132 94 0 97 6 99 2 109 17 111 1 112 20 113 2 
116 27 117 0 118 9 119 2 124 6 128 1 130 2 131 128 132 5 143 0 
147 999 148 34 149 323 150 1 162 3 163 1 166 194 167 1 168 59 169 2 
181 20 182 0 197 194 199 66 216 457 217 2 218 143 219 6 
