Name: MassBank: JP004668
MW: 188
Formula: C9H24Si2
Synonym: MassBank: JP004668
Synonym: 1,3-BIS(TRIMETHYLSILYL)PROPANE
Structure: 312C332D424953285452494D455448594C53494C594C2950524F50414E452E6D6F6C0A20204368656D447261773131313130393230353032440A2031312031302020302020302020302020302020302020302020302020303939392056323030300A2020202D302E3335373220202020302E3030303020202020302E303030302043202020302020302020302020302020302020302020302020302020302020302020302020300A20202020302E303535332020202D302E3731343520202020302E303030302043202020302020302020302020302020302020302020302020302020302020302020302020300A20202020302E383830332020202D302E3731343520202020302E303030302043202020302020302020302020302020302020302020302020302020302020302020302020300A20202020312E3239323820202020302E3030303020202020302E303030302053692020302020302020302020302020302020302020302020302020302020302020302020300A20202020322E303037322020202D302E3431323520202020302E303030302043202020302020302020302020302020302020302020302020302020302020302020302020300A20202020302E3537383320202020302E3431323520202020302E303030302043202020302020302020302020302020302020302020302020302020302020302020302020300A20202020312E3730353320202020302E3731343520202020302E303030302043202020302020302020302020302020302020302020302020302020302020302020302020300A2020202D312E3138323220202020302E3030303020202020302E303030302053692020302020302020302020302020302020302020302020302020302020302020302020300A2020202D312E313832322020202D302E3832353020202020302E303030302043202020302020302020302020302020302020302020302020302020302020302020302020300A2020202D322E3030373220202020302E3030303020202020302E303030302043202020302020302020302020302020302020302020302020302020302020302020302020300A2020202D312E3138323220202020302E3832353020202020302E303030302043202020302020302020302020302020302020302020302020302020302020302020302020300A2020312020322020312020302020202020200A2020322020332020312020302020202020200A2020342020352020312020312020202020200A2020342020362020312020312020202020200A2020342020372020312020302020202020200A2020332020342020312020302020202020200A2020382020392020312020312020202020200A2020382031302020312020302020202020200A2020382031312020312020312020202020200A2020312020382020312020302020202020200A4D2020454E44
Contributor: MASS SPECTROSCOPY SOC. OF JAPAN (MSSJ)
InstType: EI
InstName: JEOL JMS-D-3000
IoniMethod: _ENERGY 70 eV
IonPolarity: pos
Date: 2010-10-09 19:48:36+02:00
Num Peaks: 28
42 19 43 209 44 22 45 99 49 85 51 33 58 94 59 86 72 148 73 999 
74 97 75 36 84 67 85 41 86 37 99 276 100 183 101 44 114 106 115 22 
117 17 119 15 159 20 173 269 174 57 175 20 188 73 189 13 
