Name: MassBank: JP002691
MW: 488
Formula: C27H60O3Si2
Synonym: MassBank: JP002691
Synonym: 1-OCTADECYL-2,3-DI-TRIMETHYLSILYL GLYCEROL
Structure: 312D4F435441444543594C2D322C332D44492D5452494D455448594C53494C594C20474C594345524F4C2E6D6F6C0A20204368656D447261773131323230393231333632440A2033322033312020302020302020302020302020302020302020302020303939392056323030300A20202020312E3830313020202020352E3030313320202020302E30303030204F202020302020302020302020302020302020302020302020302020302020302020302020300A20202020312E3338383520202020352E3731353820202020302E303030302043202020302020302020302020302020302020302020302020302020302020302020302020300A20202020302E3536333520202020352E3731353820202020302E303030302043202020302020302020302020302020302020302020302020302020302020302020302020300A20202020302E3135313020202020352E3030313320202020302E30303030204F202020302020302020302020302020302020302020302020302020302020302020302020300A20202020302E3135313020202020362E3433303220202020302E303030302043202020302020302020302020302020302020302020302020302020302020302020302020300A2020202D302E3637343020202020362E3433303220202020302E30303030204F202020302020302020302020302020302020302020302020302020302020302020302020300A2020202D312E3038363520202020372E3134343720202020302E303030302053692020302020302020302020302020302020302020302020302020302020302020302020300A2020202D312E3439393020202020372E3835393220202020302E303030302043202020302020302020302020302020302020302020302020302020302020302020302020300A2020202D302E3337323020202020372E3535373220202020302E303030302043202020302020302020302020302020302020302020302020302020302020302020302020300A2020202D312E3830313020202020362E3733323220202020302E303030302043202020302020302020302020302020302020302020302020302020302020302020302020300A2020202D302E3637343020202020352E3030313320202020302E303030302053692020302020302020302020302020302020302020302020302020302020302020302020300A2020202D302E3637343020202020352E3832363320202020302E303030302043202020302020302020302020302020302020302020302020302020302020302020302020300A2020202D302E3637343020202020342E3137363320202020302E303030302043202020302020302020302020302020302020302020302020302020302020302020302020300A2020202D312E3439393020202020352E3030313320202020302E303030302043202020302020302020302020302020302020302020302020302020302020302020302020300A20202020312E3338383520202020342E3238363820202020302E303030302043202020302020302020302020302020302020302020302020302020302020302020302020300A20202020312E3830313020202020332E3537323420202020302E303030302043202020302020302020302020302020302020302020302020302020302020302020302020300A20202020312E3338383520202020322E3835373920202020302E303030302043202020302020302020302020302020302020302020302020302020302020302020302020300A20202020312E3830313020202020322E3134333420202020302E303030302043202020302020302020302020302020302020302020302020302020302020302020302020300A20202020312E3338383520202020312E3432383920202020302E303030302043202020302020302020302020302020302020302020302020302020302020302020302020300A20202020312E3830313020202020302E3731343520202020302E303030302043202020302020302020302020302020302020302020302020302020302020302020302020300A20202020312E333838352020202D302E3030303020202020302E303030302043202020302020302020302020302020302020302020302020302020302020302020302020300A20202020312E383031302020202D302E3731343520202020302E303030302043202020302020302020302020302020302020302020302020302020302020302020302020300A20202020312E333838352020202D312E3432383920202020302E303030302043202020302020302020302020302020302020302020302020302020302020302020302020300A20202020312E383031302020202D322E3134333420202020302E303030302043202020302020302020302020302020302020302020302020302020302020302020302020300A20202020312E333838352020202D322E3835373920202020302E303030302043202020302020302020302020302020302020302020302020302020302020302020302020300A20202020312E383031302020202D332E3537323420202020302E303030302043202020302020302020302020302020302020302020302020302020302020302020302020300A20202020312E333838352020202D342E3238363820202020302E303030302043202020302020302020302020302020302020302020302020302020302020302020302020300A20202020312E383031302020202D352E3030313320202020302E303030302043202020302020302020302020302020302020302020302020302020302020302020302020300A20202020312E333838352020202D352E3731353820202020302E303030302043202020302020302020302020302020302020302020302020302020302020302020302020300A20202020312E383031302020202D362E3433303220202020302E303030302043202020302020302020302020302020302020302020302020302020302020302020302020300A20202020312E333838352020202D372E3134343720202020302E303030302043202020302020302020302020302020302020302020302020302020302020302020302020300A20202020312E383031302020202D372E3835393220202020302E303030302043202020302020302020302020302020302020302020302020302020302020302020302020300A2020312020322020312020302020202020200A2020322020332020312020302020202020200A2020332020342020312020302020202020200A2020332020352020312020302020202020200A2020352020362020312020302020202020200A2020372020382020312020302020202020200A2020372020392020312020312020202020200A2020372031302020312020312020202020200A2020362020372020312020302020202020200A2031312031322020312020302020202020200A2031312031332020312020302020202020200A2031312031342020312020302020202020200A2020342031312020312020302020202020200A2031352031362020312020302020202020200A2031362031372020312020302020202020200A2031372031382020312020302020202020200A2031382031392020312020302020202020200A2031392032302020312020302020202020200A2032302032312020312020302020202020200A2032312032322020312020302020202020200A2032322032332020312020302020202020200A2032332032342020312020302020202020200A2032342032352020312020302020202020200A2032352032362020312020302020202020200A2032362032372020312020302020202020200A2032372032382020312020302020202020200A2032382032392020312020302020202020200A2032392033302020312020302020202020200A2033302033312020312020302020202020200A2033312033322020312020302020202020200A2020312031352020312020302020202020200A4D2020454E44
Contributor: HAYASHI A, DEPT. OF CHEMISTRY, FAC. OF SCI. AND TECHNOLOGY, KINKI UNIV.
InstType: EI
InstName: SHIMADZU LKB-9000B
IoniMethod: _ENERGY 70 eV
IonPolarity: pos
Date: 2010-10-09 19:48:36+02:00
Num Peaks: 39
67 11 71 61 73 123 74 13 75 5 83 48 84 14 85 64 89 1 98 12 
99 30 101 36 103 10 104 10 105 2 109 12 113 22 115 29 116 65 117 25 
118 29 119 3 125 15 130 167 131 148 132 37 133 27 134 32 135 18 145 21 
149 5 177 28 207 90 221 15 308 11 342 14 398 17 473 31 474 11 
