Name: 2-ETHYL-2-PROPANOL
MW: 88
Formula: C5H12O
Synonym: MassBank: JP000280
Synonym: 2-ETHYL-2-PROPANOL
Synonym: TERT-AMYL ALCOHOL
Structure: 310A31360A322D455448594C2D322D50524F50414E4F4C2E6D6F6C0A20204368656D447261773031303331303132343932440A2020362020352020302020302020302020302020302020302020302020303939392056323030300A2020202D302E3736393720202020302E3731343520202020302E303030302043202020302020302020302020302020302020302020302020302020302020302020302020300A2020202D302E333537322020202D302E3030303020202020302E303030302043202020302020302020302020302020302020302020302020302020302020302020302020300A20202020302E303535332020202D302E3731343520202020302E303030302043202020302020302020302020302020302020302020302020302020302020302020302020300A2020202D312E303731372020202D302E3431323520202020302E30303030204F202020302020302020302020302020302020302020302020302020302020302020302020300A20202020302E3335373220202020302E3431323520202020302E303030302043202020302020302020302020302020302020302020302020302020302020302020302020300A20202020312E3037313720202020302E3030303020202020302E303030302043202020302020302020302020302020302020302020302020302020302020302020302020300A2020312020322020312020302020202020200A2020322020332020312020302020202020200A2020322020342020312020302020202020200A2020352020362020312020302020202020200A2020322020352020312020302020202020200A4D2020454E44
Contributor: YAMAMOTO M, DEP. CHEMISTRY, FAC. SCIENCE, NARA WOMEN'S UNIV.
InstType: EI
InstName: HITACHI RMU-6M
IoniMethod: _ENERGY 70 eV
IonPolarity: pos
Date: 2010-10-09 19:48:36+02:00
Num Peaks: 24
15 53 26 19 27 137 28 2 29 115 31 297 38 10 39 9 40 10 41 171 
42 21 43 19 45 100 53 17 55 381 56 2 57 19 58 16 59 999 60 3 
70 13 71 57 72 589 74 26 
