Name: MassBank: JP005459
MW: 372
Formula: C19H36O5Si
Synonym: MassBank: JP005459
Synonym: ETHYL (4R*,5R*)-(E)-4-(2'-TETRAHYDROPYRANYL)OXY-5-(TERT-BUTYLDIMETHYLSILYL)OXY-2-HEXENOATE
Structure: 303234375F455448594C202834525F2C35525F292D2845292D342D2832272D5445545241485944524F505952414E594C294F58592D352D28544552542D425554594C44494D455448594C53494C594C294F58592D322D484558454E4F4154452E6D6F6C0A20204368656D447261773130313931303138323532440A2032352032352020302020302020302020302020302020302020302020303939392056323030300A2020202D302E3238323020202020302E3832353020202020302E303030302043202020302020302020302020302020302020302020302020302020302020302020302020300A2020202D302E3238323020202020302E3030303020202020302E303030302043202020302020302020302020302020302020302020302020302020302020302020302020300A20202020302E343332352020202D302E3431323520202020302E303030302043202020302020302020302020302020302020302020302020302020302020302020302020300A20202020302E343332352020202D312E3233373520202020302E303030302043202020302020302020302020302020302020302020302020302020302020302020302020300A2020202D302E323832302020202D312E3731313920202020302E303030302043202020302020302020302020302020302020302020302020302020302020302020302020300A20202020302E3433323920202020312E3233343820202020302E30303030204F202020302020302020302020302020302020302020302020302020302020302020302020300A2020202D302E3939333920202020312E3233343820202020302E30303030204F202020302020302020302020302020302020302020302020302020302020302020302020300A20202020312E313437302020202D312E3635303020202020302E30303030204F202020302020302020302020302020302020302020302020302020302020302020302020300A2020202D302E323832302020202D322E3437353020202020302E303030302043202020302020302020302020302020302020302020302020302020302020302020302020300A2020202D302E3939363520202020322E3036323520202020302E303030302043202020302020302020302020302020302020302020302020302020302020302020302020300A2020202D312E3731303920202020322E3437353020202020302E303030302043202020302020302020302020302020302020302020302020302020302020302020302020300A2020202D302E393935322020202D312E3239393420202020302E30303030204F202020302020302020302020302020302020302020302020302020302020302020302020300A2020202D312E383631342020202D302E3832353020202020302E303030302053692020302020302020302020302020302020302020302020302020302020302020302020300A2020202D322E323735322020202D312E3533393520202020302E303030302043202020302020302020302020302020302020302020302020302020302020302020302020300A2020202D312E343530322020202D302E3131303520202020302E303030302043202020302020302020302020302020302020302020302020302020302020302020302020300A2020202D322E353735392020202D302E3431323520202020302E303030302043202020302020302020302020302020302020302020302020302020302020302020302020300A2020202D322E393838342020202D312E3132373020202020302E303030302043202020302020302020302020302020302020302020302020302020302020302020302020300A2020202D332E323930342020202D302E3030303020202020302E303030302043202020302020302020302020302020302020302020302020302020302020302020302020300A2020202D322E3136333420202020302E3330323020202020302E303030302043202020302020302020302020302020302020302020302020302020302020302020302020300A20202020312E383631342020202D312E3233373520202020302E303030302043202020302020302020302020302020302020302020302020302020302020302020302020300A20202020322E353735392020202D312E3635303020202020302E30303030204F202020302020302020302020302020302020302020302020302020302020302020302020300A20202020332E323930342020202D312E3233373520202020302E303030302043202020302020302020302020302020302020302020302020302020302020302020302020300A20202020332E323930342020202D302E3431323520202020302E303030302043202020302020302020302020302020302020302020302020302020302020302020302020300A20202020322E3537353920202020302E3030303020202020302E303030302043202020302020302020302020302020302020302020302020302020302020302020302020300A20202020312E383631342020202D302E3431323520202020302E303030302043202020302020302020302020302020302020302020302020302020302020302020302020300A2020312020322020312020302020202020200A2020322020332020322020302020202020200A2020332020342020312020302020202020200A2020342020352020312020302020202020200A2020352031322020312020312020202020200A2020312020362020322020302020202020200A2020312020372020312020302020202020200A2020342020382020312020312020202020200A2020352020392020312020302020202020200A2031302031312020312020302020202020200A2020372031302020312020302020202020200A2031332031342020312020302020202020200A2031332031362020312020302020202020200A2031332031352020312020302020202020200A2031362031372020312020302020202020200A2031362031382020312020302020202020200A2031362031392020312020302020202020200A2031332031322020312020302020202020200A2020382032302020312020302020202020200A2032302032312020312020302020202020200A2032312032322020312020302020202020200A2032322032332020312020302020202020200A2032332032342020312020302020202020200A2032342032352020312020302020202020200A2032352032302020312020302020202020200A4D2020454E44
Contributor: HIRAMA M, TOHOKU UNIV. FACULTY OF SCIENCE DEPT. OF CHEMISTRY YUKIBUNSEKI
InstType: EI
InstName: HITACHI M-52
IoniMethod: _ENERGY 12 eV
IonPolarity: pos
Date: 2010-10-09 19:48:36+02:00
Num Peaks: 32
85 245 130 998 131 12 141 1 149 60 157 23 159 234 160 14 161 85 169 11 
185 79 186 2 187 4 212 5 213 31 214 10 215 6 231 999 232 54 233 1 
241 11 244 527 245 208 246 4 269 6 270 7 271 19 273 1 279 42 315 22 
329 65 330 20 
