Name: PYRIDOXINE
CAS: 58-56-0
MW: 169
Formula: C8H11NO3
Synonym: MassBank: JP006258
Synonym: PYRIDOXINE
Synonym: VITAMIN B6
Structure: 50595249444F58494E452E6D6F6C0A20204368656D447261773038313231303036323732440A2031322031322020302020302020302020302020302020302020302020303939392056323030300A20202020312E383536332020202D302E3335373220202020302E303030302043202020302020302020302020302020302020302020302020302020302020302020302020300A20202020312E303331332020202D302E3335373220202020302E303030302043202020302020302020302020302020302020302020302020302020302020302020302020300A20202020302E363138372020202D312E3037313720202020302E30303030204E202020302020302020302020302020302020302020302020302020302020302020302020300A2020202D302E323036322020202D312E3037313720202020302E303030302043202020302020302020302020302020302020302020302020302020302020302020302020300A2020202D302E363138382020202D302E3335373220202020302E303030302043202020302020302020302020302020302020302020302020302020302020302020302020300A2020202D312E343433372020202D302E3335373220202020302E303030302043202020302020302020302020302020302020302020302020302020302020302020302020300A2020202D312E383536332020202D312E3037313720202020302E30303030204F202020302020302020302020302020302020302020302020302020302020302020302020300A2020202D302E3230363320202020302E3335373220202020302E303030302043202020302020302020302020302020302020302020302020302020302020302020302020300A2020202D302E3631383820202020312E3037313720202020302E303030302043202020302020302020302020302020302020302020302020302020302020302020302020300A2020202D312E3434333820202020312E3037313720202020302E30303030204F202020302020302020302020302020302020302020302020302020302020302020302020300A20202020302E3631383820202020302E3335373220202020302E303030302043202020302020302020302020302020302020302020302020302020302020302020302020300A20202020312E3033313220202020312E3037313720202020302E30303030204F202020302020302020302020302020302020302020302020302020302020302020302020300A2020312020322020312020302020202020200A2020322020332020322020302020202020200A2020332020342020312020302020202020200A2020342020352020322020302020202020200A2020352020362020312020302020202020200A2020362020372020312020302020202020200A2020352020382020312020302020202020200A2020382020392020312020302020202020200A2020392031302020312020302020202020200A2020382031312020322020302020202020200A2020322031312020312020302020202020200A2031312031322020312020302020202020200A4D2020454E44
Contributor: MASS SPECTROSCOPY SOC. OF JAPAN (MSSJ)
InstType: EI
InstName: HITACHI M-80
IoniMethod: _ENERGY 70 eV
IonPolarity: pos
Date: 2010-10-09 19:48:36+02:00
Num Peaks: 77
15 28 26 36 27 138 28 206 29 102 30 12 31 148 32 43 37 14 38 52 
39 317 40 51 41 89 42 212 43 76 44 9 50 73 51 200 52 135 53 225 
54 176 55 78 56 6 57 10 58 6 61 10 62 16 63 42 64 39 65 80 
66 69 67 95 68 38 69 21 70 9 74 9 75 9 76 12 77 48 78 35 
79 50 80 141 81 187 82 148 83 16 91 24 92 51 93 51 94 999 95 114 
96 12 104 13 105 40 106 478 107 107 108 71 109 18 110 20 120 47 121 19 
122 241 123 90 124 17 133 50 134 22 135 8 136 98 137 12 138 21 149 8 
150 75 151 457 152 46 153 13 169 426 170 46 171 6 
