Name: 2-HYDROXY-5-METHOXYACETOPHENONE
MW: 166
Formula: C9H10O3
Synonym: MassBank: JP006337
Synonym: 2-HYDROXY-5-METHOXYACETOPHENONE
Structure: 322D485944524F58592D352D4D4554484F5859414345544F5048454E4F4E452E6D6F6C0A20204368656D447261773031323131303231333332440A2031322031322020302020302020302020302020302020302020302020303939392056323030300A2020202D302E3731343520202020302E3230363220202020302E303030302043202020302020302020302020302020302020302020302020302020302020302020302020300A2020202D302E373134352020202D302E3631383820202020302E303030302043202020302020302020302020302020302020302020302020302020302020302020302020300A20202020302E303030302020202D312E3033313320202020302E303030302043202020302020302020302020302020302020302020302020302020302020302020302020300A20202020302E373134352020202D302E3631383820202020302E303030302043202020302020302020302020302020302020302020302020302020302020302020302020300A20202020302E3731343520202020302E3230363220202020302E303030302043202020302020302020302020302020302020302020302020302020302020302020302020300A20202020302E3030303020202020302E3631383820202020302E303030302043202020302020302020302020302020302020302020302020302020302020302020302020300A20202020302E3030303020202020312E3434333820202020302E303030302043202020302020302020302020302020302020302020302020302020302020302020302020300A20202020312E3432383920202020302E3631383820202020302E30303030204F202020302020302020302020302020302020302020302020302020302020302020302020300A2020202D312E343238392020202D312E3033313320202020302E30303030204F202020302020302020302020302020302020302020302020302020302020302020302020300A2020202D312E343238392020202D312E3835363320202020302E303030302043202020302020302020302020302020302020302020302020302020302020302020302020300A20202020302E3731343520202020312E3835363320202020302E303030302043202020302020302020302020302020302020302020302020302020302020302020302020300A2020202D302E3731343520202020312E3835363320202020302E30303030204F202020302020302020302020302020302020302020302020302020302020302020302020300A2020312020322020322020302020202020200A2020322020332020312020302020202020200A2020332020342020322020302020202020200A2020342020352020312020302020202020200A2020352020362020322020302020202020200A2020362020312020312020302020202020200A2020362020372020312020302020202020200A2020352020382020312020302020202020200A2020322020392020312020302020202020200A2020392031302020312020302020202020200A2020372031312020312020302020202020200A2020372031322020322020302020202020200A4D2020454E44
Contributor: EGUCHI S, FAC. OF SCIENCE, HIROSHIMA UNIV.
InstType: EI
InstName: HITACHI RMU-7L
IoniMethod: _ENERGY 70 eV
IonPolarity: pos
Date: 2010-10-09 19:48:36+02:00
Num Peaks: 46
40 15 41 205 42 25 43 40 50 55 51 75 52 105 53 11 54 55 55 65 
61 10 62 3 63 50 64 15 65 50 66 2 67 25 68 10 69 45 74 2 
77 120 79 65 80 50 81 4 82 15 83 20 92 10 93 1 95 140 105 80 
106 25 107 4 108 108 109 45 123 135 124 2 133 120 137 15 148 70 149 2 
150 10 151 999 152 105 153 2 166 720 168 88 
