Name: N-HYDROXY-4-PYRIDONE
MW: 111
Formula: C5H5NO2
Synonym: MassBank: JP004094
Synonym: N-HYDROXY-4-PYRIDONE
Structure: 310A32310A4E2D485944524F58592D342D50595249444F4E452E6D6F6C0A20204368656D447261773038313231303032303932440A2020382020382020302020302020302020302020302020302020302020303939392056323030300A20202020302E343132352020202D302E3731343520202020302E303030302043202020302020302020302020302020302020302020302020302020302020302020302020300A2020202D302E343132352020202D302E3731343520202020302E303030302043202020302020302020302020302020302020302020302020302020302020302020302020300A2020202D302E3832353020202020302E3030303020202020302E303030302043202020302020302020302020302020302020302020302020302020302020302020302020300A2020202D302E3431323520202020302E3731343520202020302E303030302043202020302020302020302020302020302020302020302020302020302020302020302020300A20202020302E3431323520202020302E3731343520202020302E303030302043202020302020302020302020302020302020302020302020302020302020302020302020300A20202020302E383235302020202D302E3030303020202020302E30303030204E202020302020302020302020302020302020302020302020302020302020302020302020300A2020202D312E3635303020202020302E3030303020202020302E30303030204F202020302020302020302020302020302020302020302020302020302020302020302020300A20202020312E363530302020202D302E3030303020202020302E30303030204F202020302020302020302020302020302020302020302020302020302020302020302020300A2020312020322020322020302020202020200A2020322020332020312020302020202020200A2020332020342020312020302020202020200A2020342020352020322020302020202020200A2020352020362020312020302020202020200A2020312020362020312020302020202020200A2020332020372020322020302020202020200A2020362020382020312020302020202020200A4D2020454E44
Contributor: YAMAMOTO M, DEP. CHEMISTRY, FAC. SCIENCE, NARA WOMEN'S UNIV.
InstType: EI
InstName: HITACHI RMU-6E
IoniMethod: _ENERGY 70 eV
IonPolarity: pos
Date: 2010-10-09 19:48:36+02:00
Num Peaks: 56
18 120 20 23 25 31 26 233 27 265 28 221 29 114 30 20 31 21 37 71 
38 151 39 48 40 227 41 429 42 131 44 7 45 49 47.5 15 49 30 50 10 
51 127 52 80 53 179 54 16 55 340 55.5 59 56 90 57 63 58 51 62 17 
63 22 64 3 65 28 66 89 67 195 68 29 69 100 70 26 71 92 75 2 
76 32 77 16 78 15 81 1 82 25 83 52 84 71 85 1 91 15 94 79 
95 890 96 6 110 228 111 999 112 70 113 10 
