Name: MassBank: JP007022
MW: 146
Formula: C8H18O2
Synonym: MassBank: JP007022
Synonym: 2,5-DIMETHYL-2,5-HEXANEDIOL
Structure: 322C352D44494D455448594C2D322C352D484558414E4544494F4C2E6D6F6C0A20204368656D447261773132323130393031333132440A2031302020392020302020302020302020302020302020302020302020303939392056323030300A2020202D302E363539322020202D302E3932303720202020302E303030302043202020302020302020302020302020302020302020302020302020302020302020302020300A2020202D312E303731372020202D302E3230363320202020302E303030302043202020302020302020302020302020302020302020302020302020302020302020302020300A2020202D302E3335373220202020302E3230363320202020302E303030302043202020302020302020302020302020302020302020302020302020302020302020302020300A20202020302E333537322020202D302E3230363320202020302E303030302043202020302020302020302020302020302020302020302020302020302020302020302020300A20202020312E3037313720202020302E3230363220202020302E303030302043202020302020302020302020302020302020302020302020302020302020302020302020300A20202020302E3635393220202020302E3932303720202020302E303030302043202020302020302020302020302020302020302020302020302020302020302020302020300A2020202D312E373836322020202D302E3631383820202020302E30303030204F202020302020302020302020302020302020302020302020302020302020302020302020300A20202020312E3738363220202020302E3631383720202020302E30303030204F202020302020302020302020302020302020302020302020302020302020302020302020300A20202020312E343834322020202D302E3530383220202020302E303030302043202020302020302020302020302020302020302020302020302020302020302020302020300A2020202D312E3438343220202020302E3530383220202020302E303030302043202020302020302020302020302020302020302020302020302020302020302020302020300A2020312020322020312020302020202020200A2020322020332020312020302020202020200A2020332020342020312020302020202020200A2020342020352020312020302020202020200A2020352020362020312020302020202020200A2020322020372020312020302020202020200A2020352020382020312020302020202020200A2020352020392020312020302020202020200A2020322031302020312020302020202020200A4D2020454E44
Contributor: SODA AROMATIC CO., LTD.
InstType: EI
InstName: HITACHI M-80B
IoniMethod: _ENERGY 70 eV
IonPolarity: pos
Date: 2010-10-09 19:48:36+02:00
Num Peaks: 26
15 27 27 60 29 78 31 138 39 62 41 123 42 100 43 999 44 28 45 20 
53 20 55 285 56 17 57 36 58 64 59 761 60 18 67 18 69 64 70 461 
71 54 77 13 95 112 111 19 113 270 114 15 
