Name: MassBank: JP001622
CAS: 605-71-0
MW: 218
Formula: C10H6N2O4
Synonym: MassBank: JP001622
Synonym: 1,5-DINITRONAPHTHALENE
Structure: 312C352D44494E4954524F4E4150485448414C454E452E6D6F6C0A20204368656D447261773131313630393133303132440A2031362031372020302020302020302020302020302020302020302020303939392056323030300A2020202D302E373134352020202D302E3832353020202020302E303030302043202020302020302020302020302020302020302020302020302020302020302020302020300A2020202D312E343238392020202D302E3431323520202020302E303030302043202020302020302020302020302020302020302020302020302020302020302020302020300A2020202D312E3432383920202020302E3431323520202020302E303030302043202020302020302020302020302020302020302020302020302020302020302020302020300A2020202D302E3731343520202020302E3832353020202020302E303030302043202020302020302020302020302020302020302020302020302020302020302020302020300A20202020302E3030303020202020302E3431323520202020302E303030302043202020302020302020302020302020302020302020302020302020302020302020302020300A20202020302E3731343520202020302E3832353020202020302E303030302043202020302020302020302020302020302020302020302020302020302020302020302020300A20202020312E3432383920202020302E3431323520202020302E303030302043202020302020302020302020302020302020302020302020302020302020302020302020300A20202020312E343238392020202D302E3431323520202020302E303030302043202020302020302020302020302020302020302020302020302020302020302020302020300A20202020302E373134352020202D302E3832353020202020302E303030302043202020302020302020302020302020302020302020302020302020302020302020302020300A2020202D302E303030302020202D302E3431323520202020302E303030302043202020302020302020302020302020302020302020302020302020302020302020302020300A20202020302E3731343520202020312E3635303020202020302E30303030204E202020302020332020302020302020302020302020302020302020302020302020302020300A20202020302E3030303020202020322E3036323520202020302E30303030204F202020302020302020302020302020302020302020302020302020302020302020302020300A20202020312E3432383920202020322E3036323520202020302E30303030204F202020302020352020302020302020302020302020302020302020302020302020302020300A2020202D302E373134352020202D312E3635303020202020302E30303030204E202020302020332020302020302020302020302020302020302020302020302020302020300A20202020302E303030302020202D322E3036323520202020302E30303030204F202020302020302020302020302020302020302020302020302020302020302020302020300A2020202D312E343238392020202D322E3036323520202020302E30303030204F202020302020352020302020302020302020302020302020302020302020302020302020300A2020312020322020312020302020202020200A2020322020332020322020302020202020200A2020332020342020312020302020202020200A2020342020352020322020302020202020200A2020352020362020312020302020202020200A2020362020372020322020302020202020200A2020372020382020312020302020202020200A2020382020392020322020302020202020200A2020392031302020312020302020202020200A2020312031302020322020302020202020200A2020352031302020312020302020202020200A2031312031322020322020302020202020200A2031312031332020312020302020202020200A2020362031312020312020302020202020200A2031342031352020322020302020202020200A2031342031362020312020302020202020200A2020312031342020312020302020202020200A4D202043484720203420203131202020312020313320202D3120203134202020312020313620202D310A4D2020454E44
Contributor: KOGA M, UNIV. OF OCCUPATIONAL AND ENVIRONMENTAL HEALTH
InstType: EI
InstName: VARIAN MAT-44
IoniMethod: _ENERGY 70 eV
IonPolarity: pos
Date: 2010-10-09 19:48:36+02:00
Num Peaks: 78
45 14 46 259 49 31 50 392 51 271 54 11 55 42 60 26 61 110 62 303 
63 581 64 116 65 40 66 11 73 50 74 568 75 600 76 541 77 212 78 37 
79 11 85 39 86 139 87 244 88 328 89 478 90 156 91 107 92 24 97 19 
98 155 99 169 100 170 101 151 102 427 103 62 104 204 105 91 106 15 110 11 
111 18 112 21 113 339 114 999 115 110 116 240 117 51 118 58 119 237 120 54 
121 13 122 27 125 105 126 704 127 87 128 41 129 46 130 165 131 23 132 111 
133 18 141 46 142 81 143 15 144 28 145 11 146 21 156 24 157 16 158 126 
159 26 160 14 172 22 188 12 202 13 217 35 218 494 219 64 
