Name: ALLYLCYANIDE
MW: 67
Formula: C4H5N
Synonym: MassBank: JP005432
Synonym: ALLYLCYANIDE
Synonym: 1-CYANO-2-PROPENE
Structure: 310A31340A414C4C594C4359414E4944452E6D6F6C0A20204368656D447261773131313830393031313332440A2020352020342020302020302020302020302020302020302020302020303939392056323030300A20202020302E323036322020202D302E3335373220202020302E303030302043202020302020302020302020302020302020302020302020302020302020302020302020300A20202020302E3631383820202020302E3335373220202020302E303030302043202020302020302020302020302020302020302020302020302020302020302020302020300A20202020312E3434333820202020302E3335373220202020302E303030302043202020302020302020302020302020302020302020302020302020302020302020302020300A2020202D302E363138382020202D302E3335373220202020302E303030302043202020302020302020302020302020302020302020302020302020302020302020302020300A2020202D312E343433382020202D302E3335373220202020302E30303030204E202020302020302020302020302020302020302020302020302020302020302020302020300A2020312020322020312020302020202020200A2020322020332020322020302020202020200A2020342020352020332020302020202020200A2020312020342020312020302020202020200A4D2020454E44
Contributor: TAJIMA S, GUNMA COLLEGE OF TECHNOLOGY
InstType: EI
InstName: HITACHI RMU-7M
IoniMethod: _ENERGY 70 eV
IonPolarity: pos
Date: 2010-10-09 19:48:36+02:00
Num Peaks: 20
26 45 27 204 28 42 325 12 37 87 38 123 39 375 40 237 41 999 42 28 
50 12 51 23 52 74 62 11 63 27 64 71 65 21 66 152 67 506 68 104 
