Name: GAMMA-CAPROLACTONE
MW: 114
Formula: C6H10O2
Synonym: MassBank: JP008306
Synonym: GAMMA-CAPROLACTONE
Structure: 310A32310A47414D4D412D434150524F4C4143544F4E452E6D6F6C0A20204368656D447261773038313131303139343132440A2020382020382020302020302020302020302020302020302020302020303939392056323030300A2020202D302E3933323820202020302E3131353020202020302E303030302043202020302020302020302020302020302020302020302020302020302020302020302020300A2020202D302E3434373920202020302E3738323420202020302E303030302043202020302020302020302020302020302020302020302020302020302020302020302020300A20202020302E3333363720202020302E3532373520202020302E303030302043202020302020302020302020302020302020302020302020302020302020302020302020300A20202020302E333336372020202D302E3239373520202020302E303030302043202020302020302020302020302020302020302020302020302020302020302020302020300A20202020312E303034322020202D302E3738323420202020302E303030302043202020302020302020302020302020302020302020302020302020302020302020302020300A20202020312E373537382020202D302E3434363920202020302E303030302043202020302020302020302020302020302020302020302020302020302020302020302020300A2020202D312E3735373820202020302E3131353020202020302E30303030204F202020302020302020302020302020302020302020302020302020302020302020302020300A2020202D302E343437392020202D302E3535323420202020302E30303030204F202020302020302020302020302020302020302020302020302020302020302020302020300A2020312020322020312020302020202020200A2020322020332020312020302020202020200A2020332020342020312020302020202020200A2020342020352020312020302020202020200A2020352020362020312020302020202020200A2020312020372020322020302020202020200A2020312020382020312020302020202020200A2020342020382020312020302020202020200A4D2020454E44
Contributor: UBE SCIENTIFIC ANALYSIS LABORATORY
InstType: EI
InstName: HITACHI M-60
IoniMethod: _ENERGY 70 eV
IonPolarity: pos
Date: 2010-10-09 19:48:36+02:00
Num Peaks: 51
14 9 15 29 25 2 26 50 27 214 28 313 29 964 30 38 31 27 37 6 
38 27 39 93 40 22 41 109 42 239 43 38 44 5 45 5 49 1 50 5 
51 7 52 2 53 15 54 8 55 151 56 399 57 389 58 38 59 41 60 7 
61 1 62 1 63 2 65 1 67 4 68 3 69 5 70 168 71 13 72 11 
73 3 83 1 84 11 85 999 86 109 87 17 95 5 97 4 113 20 114 26 
115 13 
