Name: ACENAPHTHENE
CAS: 83-32-9
MW: 154
Formula: C12H10
Synonym: MassBank: JP001589
Synonym: ACENAPHTHENE
Synonym: 1,2-DIHYDROACENAPHTHYLENE
Structure: 4143454E4150485448454E452E6D6F6C0A20204368656D447261773131303530393132353832440A2031322031342020302020302020302020302020302020302020302020303939392056323030300A2020202D302E3431313220202020312E3230393120202020302E303030302043202020302020302020302020302020302020302020302020302020302020302020302020300A20202020302E3431333820202020312E3230393120202020302E303030302043202020302020302020302020302020302020302020302020302020302020302020302020300A20202020302E3731343520202020302E3434303920202020302E303030302043202020302020302020302020302020302020302020302020302020302020302020302020300A20202020312E3432383920202020302E3032383420202020302E303030302043202020302020302020302020302020302020302020302020302020302020302020302020300A20202020312E343238392020202D302E3739363620202020302E303030302043202020302020302020302020302020302020302020302020302020302020302020302020300A20202020302E373134352020202D312E3230393120202020302E303030302043202020302020302020302020302020302020302020302020302020302020302020302020300A2020202D302E303030302020202D302E3739363620202020302E303030302043202020302020302020302020302020302020302020302020302020302020302020302020300A2020202D302E373134352020202D312E3230393120202020302E303030302043202020302020302020302020302020302020302020302020302020302020302020302020300A2020202D312E343238392020202D302E3739363620202020302E303030302043202020302020302020302020302020302020302020302020302020302020302020302020300A2020202D312E3432383920202020302E3032383420202020302E303030302043202020302020302020302020302020302020302020302020302020302020302020302020300A2020202D302E3731343520202020302E3434303920202020302E303030302043202020302020302020302020302020302020302020302020302020302020302020302020300A20202020302E3030303020202020302E3032383420202020302E303030302043202020302020302020302020302020302020302020302020302020302020302020302020300A2020312020322020312020302020202020200A2020322020332020312020302020202020200A2020332020342020312020302020202020200A2020342020352020322020302020202020200A2020352020362020312020302020202020200A2020362020372020322020302020202020200A2020372020382020312020302020202020200A2020382020392020322020302020202020200A2020392031302020312020302020202020200A2031302031312020322020302020202020200A2020312031312020312020302020202020200A2031312031322020312020302020202020200A2020332031322020322020302020202020200A2020372031322020312020302020202020200A4D2020454E44
Contributor: KOGA M, UNIV. OF OCCUPATIONAL AND ENVIRONMENTAL HEALTH
InstType: EI
InstName: VARIAN MAT-44
IoniMethod: _ENERGY 70 eV
IonPolarity: pos
Date: 2010-10-09 19:48:36+02:00
Num Peaks: 33
50 83 51 106 52 17 61 22 62 72 63 173 64 72 73 15 74 82 75 198 
76 462 77 165 78 13 86 26 87 34 89 13 98 28 99 20 100 12 101 19 
102 21 115 12 125 21 126 52 127 33 128 14 149 27 150 114 151 273 152 657 
153 923 154 999 155 103 
