Name: FURFURYL HEXANOATE
MW: 196
Formula: C11H16O3
Synonym: MassBank: JP007752
Synonym: FURFURYL HEXANOATE
Structure: 465552465552594C20484558414E4F4154452E6D6F6C0A20204368656D447261773038313131303139333832440A2031342031342020302020302020302020302020302020302020302020303939392056323030300A20202020302E323232332020202D302E3333333720202020302E303030302043202020302020302020302020302020302020302020302020302020302020302020302020300A20202020302E3633343820202020302E3338303820202020302E303030302043202020302020302020302020302020302020302020302020302020302020302020302020300A20202020312E3435393820202020302E3338303820202020302E303030302043202020302020302020302020302020302020302020302020302020302020302020302020300A20202020312E383732332020202D302E3333333720202020302E303030302043202020302020302020302020302020302020302020302020302020302020302020302020300A20202020322E363937332020202D302E3333333720202020302E303030302043202020302020302020302020302020302020302020302020302020302020302020302020300A20202020332E313039382020202D312E3034383220202020302E303030302043202020302020302020302020302020302020302020302020302020302020302020302020300A20202020302E363334382020202D312E3034383220202020302E30303030204F202020302020302020302020302020302020302020302020302020302020302020302020300A2020202D302E363032372020202D302E3333333720202020302E30303030204F202020302020302020302020302020302020302020302020302020302020302020302020300A2020202D312E3031353220202020302E3338303820202020302E303030302043202020302020302020302020302020302020302020302020302020302020302020302020300A2020202D312E3834303220202020302E3338303820202020302E303030302043202020302020302020302020302020302020302020302020302020302020302020302020300A2020202D322E333235322020202D302E3238363720202020302E303030302043202020302020302020302020302020302020302020302020302020302020302020302020300A2020202D332E313039382020202D302E3033313720202020302E303030302043202020302020302020302020302020302020302020302020302020302020302020302020300A2020202D332E3130393820202020302E3739333320202020302E303030302043202020302020302020302020302020302020302020302020302020302020302020302020300A2020202D322E3332353220202020312E3034383220202020302E30303030204F202020302020302020302020302020302020302020302020302020302020302020302020300A2020312020322020312020302020202020200A2020322020332020312020302020202020200A2020332020342020312020302020202020200A2020342020352020312020302020202020200A2020352020362020312020302020202020200A2020312020372020322020302020202020200A2020312020382020312020302020202020200A2020392031302020312020302020202020200A2031302031312020322020302020202020200A2031312031322020312020302020202020200A2031322031332020322020302020202020200A2031332031342020312020302020202020200A2031302031342020312020302020202020200A2020382020392020312020302020202020200A4D2020454E44
Contributor: HASHIMOTO K, KYOTO COLLEGE OF PHARMACY
InstType: EI
InstName: HITACHI M-80
IoniMethod: _ENERGY 20 eV
IonPolarity: pos
Date: 2010-10-09 19:48:36+02:00
Num Peaks: 33
26 11 27 30 29 40 41 50 42 21 43 257 44 11 45 11 51 10 52 200 
53 119 55 40 56 10 57 20 59 20 60 10 61 10 69 68 70 40 71 118 
80 178 81 999 82 215 83 10 97 79 98 408 99 180 100 10 101 48 115 22 
167 10 196 112 197 10 
