Name: TRIETHYLENE GLYCOL MONOBUTYL ETHER
MW: 206
Formula: C10H22O4
Synonym: MassBank: JP006043
Synonym: TRIETHYLENE GLYCOL MONOBUTYL ETHER
Structure: 545249455448594C454E4520474C59434F4C204D4F4E4F425554594C2045544845522E6D6F6C0A20204368656D447261773038313231303038333432440A2031342031332020302020302020302020302020302020302020302020303939392056323030300A2020202D312E3037313720202020302E3230363320202020302E303030302043202020302020302020302020302020302020302020302020302020302020302020302020300A2020202D302E333537322020202D302E3230363320202020302E303030302043202020302020302020302020302020302020302020302020302020302020302020302020300A2020202D312E373836322020202D302E3230363320202020302E30303030204F202020302020302020302020302020302020302020302020302020302020302020302020300A20202020302E3335373220202020302E3230363320202020302E30303030204F202020302020302020302020302020302020302020302020302020302020302020302020300A20202020312E303731372020202D302E3230363220202020302E303030302043202020302020302020302020302020302020302020302020302020302020302020302020300A20202020312E3738363220202020302E3230363320202020302E303030302043202020302020302020302020302020302020302020302020302020302020302020302020300A20202020322E353030362020202D302E3230363220202020302E30303030204F202020302020302020302020302020302020302020302020302020302020302020302020300A20202020332E3231353120202020302E3230363320202020302E303030302043202020302020302020302020302020302020302020302020302020302020302020302020300A20202020332E393239362020202D302E3230363220202020302E303030302043202020302020302020302020302020302020302020302020302020302020302020302020300A20202020342E3634343120202020302E3230363320202020302E30303030204F202020302020302020302020302020302020302020302020302020302020302020302020300A2020202D322E3530303620202020302E3230363220202020302E303030302043202020302020302020302020302020302020302020302020302020302020302020302020300A2020202D332E323135312020202D302E3230363320202020302E303030302043202020302020302020302020302020302020302020302020302020302020302020302020300A2020202D332E3932393620202020302E3230363220202020302E303030302043202020302020302020302020302020302020302020302020302020302020302020302020300A2020202D342E363434312020202D302E3230363320202020302E303030302043202020302020302020302020302020302020302020302020302020302020302020302020300A2020312020322020312020302020202020200A2020312020332020312020302020202020200A2020322020342020312020302020202020200A2020352020362020312020302020202020200A2020362020372020312020302020202020200A2020342020352020312020302020202020200A2020382020392020312020302020202020200A2020392031302020312020302020202020200A2020372020382020312020302020202020200A2031312031322020312020302020202020200A2031322031332020312020302020202020200A2031332031342020312020302020202020200A2020332031312020312020302020202020200A4D2020454E44
Contributor: HASHIMOTO K, KYOTO COLLEGE OF PHARMACY
InstType: EI
InstName: HITACHI M-80
IoniMethod: _ENERGY 20 eV
IonPolarity: pos
Date: 2010-10-09 19:48:36+02:00
Num Peaks: 45
29 35 41 74 43 27 44 207 45 999 46 22 55 36 56 278 57 623 58 86 
59 244 60 20 61 11 63 11 69 22 70 10 71 42 72 143 73 79 75 314 
76 63 77 14 83 17 85 262 86 17 87 197 88 184 89 515 90 36 98 13 
99 14 100 290 101 234 102 31 103 77 115 15 116 11 117 73 119 82 131 78 
133 15 144 48 145 12 206 11 207 1 
