Name: MassBank: JP008946
MW: 112
Formula: C7H12O
Synonym: MassBank: JP008946
Synonym: 2,4-DIMETHYLCYCLOPENTANONE (2,5,5-D3)
Structure: 322C342D44494D455448594C4359434C4F50454E54414E4F4E452028322C352C352D4433292E6D6F6C0A20204368656D447261773132323030393139323632440A2031312031312020302020302020302020302020302020302020302020303939392056323030300A20202020302E333431322020202D302E3334373820202020302E303030302043202020302020302020302020302020302020302020302020302020302020302020302020300A2020202D302E343132352020202D302E3638333420202020302E303030302043202020302020302020302020302020302020302020302020302020302020302020302020300A2020202D302E393634352020202D302E3037303320202020302E303030302043202020302020302020302020302020302020302020302020302020302020302020302020300A2020202D302E3535323020202020302E3634343220202020302E303030302043202020302020302020302020302020302020302020302020302020302020302020302020300A20202020302E3235343920202020302E3437323720202020302E303030302043202020302020302020302020302020302020302020302020302020302020302020302020300A2020202D302E3838373620202020312E3339373920202020302E303030302043202020302020302020302020302020302020302020302020302020302020302020302020300A20202020302E303030302020202D312E3339373920202020302E303030302043202020302020302020302020302020302020302020302020302020302020302020302020300A20202020312E303535362020202D302E3736303320202020302E30303030204F202020302020302020302020302020302020302020302020302020302020302020302020300A20202020302E3334313220202020312E3239333120202020302E303030302048202020312020302020302020302020302020302020302020302020302020302020302020300A20202020312E3037393920202020302E3437323720202020302E303030302048202020312020302020302020302020302020302020302020302020302020302020302020300A2020202D312E303739392020202D312E3136383320202020302E303030302048202020312020302020302020302020302020302020302020302020302020302020302020300A2020312020322020312020302020202020200A2020322020332020312020302020202020200A2020332020342020312020302020202020200A2020342020352020312020302020202020200A2020312020352020312020302020202020200A2020342020362020312020302020202020200A2020322020372020312020302020202020200A2020312020382020322020302020202020200A2020352020392020312020312020202020200A2020352031302020312020362020202020200A2020322031312020312020302020202020200A4D202049534F2020332020203920202032202031302020203220203131202020320A4D2020454E44
Contributor: YAMAMOTO M, DEP. CHEMISTRY, FAC. SCIENCE, NARA WOMEN'S UNIV.
InstType: EI
InstName: HITACHI RMU-6M
IoniMethod: _ENERGY 70 eV
IonPolarity: pos
Date: 2010-10-09 19:48:36+02:00
Num Peaks: 53
26 21 27 156 28 230 29 15 30 93 31 41 37 12 38 3 39 200 40 289 
41 336 42 52 43 999 44 804 45 112 46 1 50 12 51 25 52 26 53 3 
54 48 55 97 56 401 57 30 58 187 59 36 66 15 67 2 68 29 69 283 
70 881 71 28 72 179 73 26 80 10 81 2 82 20 83 10 84 15 85 7 
86 134 87 37 95 10 96 4 97 22 98 17 99 42 100 31 101 26 113 15 
114 70 115 50 116 50 
