Name: 3-CHLORO-2-METHYLPROPENE
CAS: 563-47-3
MW: 90
Formula: C4H7Cl
Synonym: MassBank: JP004913
Synonym: 3-CHLORO-2-METHYLPROPENE
Structure: 310A31340A332D43484C4F524F2D322D4D455448594C50524F50454E452E6D6F6C0A20204368656D447261773032323231303134353232440A2020352020342020302020302020302020302020302020302020302020303939392056323030300A20202020312E303731372020202D302E3631383820202020302E303030302043202020302020302020302020302020302020302020302020302020302020302020302020300A20202020302E333537322020202D302E3230363220202020302E303030302043202020302020302020302020302020302020302020302020302020302020302020302020300A2020202D302E333537322020202D302E3631383820202020302E303030302043202020302020302020302020302020302020302020302020302020302020302020302020300A20202020302E3335373220202020302E3631383820202020302E303030302043202020302020302020302020302020302020302020302020302020302020302020302020300A2020202D312E303731372020202D302E3230363320202020302E3030303020436C2020302020302020302020302020302020302020302020302020302020302020302020300A2020312020322020322020302020202020200A2020322020332020312020302020202020200A2020322020342020312020302020202020200A2020332020352020312020302020202020200A4D2020454E44
Contributor: MASS SPECTROSCOPY SOC. OF JAPAN (MSSJ)
InstType: EI
InstName: JEOL JMS-D-3000
IoniMethod: _ENERGY 70 eV
IonPolarity: pos
Date: 2010-10-09 19:48:36+02:00
Num Peaks: 23
42 13 43 101 44 10 45 92 49 34 50 38 51 40 52 14 53 152 54 250 
55 999 56 47 58 44 59 122 62 57 64 20 74 78 75 129 77 42 89 13 
90 475 91 27 92 157 
