Name: MassBank: JP004852
MW: 404
Formula: C25H44O2Si
Synonym: MassBank: JP004852
Synonym: 14-(2-(TERT-BUTYLDIMETHYLSILOXY)ETHYL)-6,10,14-TRIMETHYLCYCLOTETRADECA-2(E),6(E),10(E)-TRIENONE
Structure: 31342D28322D28544552542D425554594C44494D455448594C53494C4F585929455448594C292D362C31302C31342D5452494D455448594C4359434C4F5445545241444543412D322845292C362845292C31302845292D545249454E4F4E452E6D6F6C0A20204368656D447261773132313030393232303032440A2033322033322020302020302020302020302020302020302020302020303939392056323030300A2020202D302E383838362020202D302E3732323020202020302E303030302043202020302020302020302020302020302020302020302020302020302020302020302020300A2020202D302E383838362020202D312E3534373020202020302E303030302043202020302020302020302020302020302020302020302020302020302020302020302020300A2020202D302E333035322020202D322E3133303420202020302E303030302043202020302020302020302020302020302020302020302020302020302020302020302020300A20202020302E353139382020202D322E3133303420202020302E303030302043202020302020302020302020302020302020302020302020302020302020302020302020300A20202020312E313033312020202D312E3534373020202020302E303030302043202020302020302020302020302020302020302020302020302020302020302020302020300A20202020312E313033312020202D302E3732323020202020302E303030302043202020302020302020302020302020302020302020302020302020302020302020302020300A20202020302E353139382020202D302E3133383720202020302E303030302043202020302020302020302020302020302020302020302020302020302020302020302020300A2020202D302E333035322020202D302E3133383720202020302E303030302043202020302020302020302020302020302020302020302020302020302020302020302020300A20202020312E363836352020202D322E3133303420202020302E303030302043202020302020302020302020302020302020302020302020302020302020302020302020300A20202020322E353131352020202D322E3133303420202020302E303030302043202020302020302020302020302020302020302020302020302020302020302020302020300A20202020332E303934382020202D312E3534373020202020302E303030302043202020302020302020302020302020302020302020302020302020302020302020302020300A20202020332E303934382020202D302E3732323020202020302E303030302043202020302020302020302020302020302020302020302020302020302020302020302020300A20202020322E353131352020202D302E3133383720202020302E303030302043202020302020302020302020302020302020302020302020302020302020302020302020300A20202020312E363836352020202D302E3133383720202020302E303030302043202020302020302020302020302020302020302020302020302020302020302020302020300A20202020312E3130333120202020302E3130333020202020302E30303030204F202020302020302020302020302020302020302020302020302020302020302020302020300A20202020322E383237322020202D322E3839323620202020302E303030302043202020302020302020302020302020302020302020302020302020302020302020302020300A20202020312E393030302020202D312E3333333520202020302E303030302048202020302020302020302020302020302020302020302020302020302020302020302020300A20202020322E323938302020202D302E3933353520202020302E303030302048202020302020302020302020302020302020302020302020302020302020302020302020300A20202020312E3337303820202020302E3632333520202020302E303030302048202020302020302020302020302020302020302020302020302020302020302020302020300A20202020302E333036322020202D302E3933353520202020302E303030302043202020302020302020302020302020302020302020302020302020302020302020302020300A20202020302E3330363220202020302E3635383220202020302E303030302043202020302020302020302020302020302020302020302020302020302020302020302020300A20202020302E313037332020202D312E3431353920202020302E303030302043202020302020302020302020302020302020302020302020302020302020302020302020300A2020202D312E363530382020202D312E3836323720202020302E303030302048202020302020302020302020302020302020302020302020302020302020302020302020300A2020202D302E3439303720202020302E3837313820202020302E303030302043202020302020302020302020302020302020302020302020302020302020302020302020300A2020202D302E3730343220202020312E3636383620202020302E30303030204F202020302020302020302020302020302020302020302020302020302020302020302020300A2020202D312E3530313120202020312E3838323220202020302E303030302053692020302020302020302020302020302020302020302020302020302020302020302020300A2020202D322E3239383020202020322E3039353720202020302E303030302043202020302020302020302020302020302020302020302020302020302020302020302020300A2020202D312E3238373520202020322E3637393120202020302E303030302043202020302020302020302020302020302020302020302020302020302020302020302020300A2020202D312E3731343620202020312E3038353320202020302E303030302043202020302020302020302020302020302020302020302020302020302020302020302020300A2020202D332E3039343820202020322E3330393220202020302E303030302043202020302020302020302020302020302020302020302020302020302020302020302020300A2020202D322E3038343420202020322E3839323620202020302E303030302043202020302020302020302020302020302020302020302020302020302020302020302020300A2020202D322E3531313520202020312E3239383820202020302E303030302043202020302020302020302020302020302020302020302020302020302020302020302020300A2020312020322020312020302020202020200A2020322020332020322020302020202020200A2020332020342020312020302020202020200A2020342020352020312020302020202020200A2020362020372020312020302020202020200A2020372020382020312020302020202020200A2020382020312020312020302020202020200A2020352020392020312020302020202020200A2020392031302020322020302020202020200A2031302031312020312020302020202020200A2031312031322020312020302020202020200A2031322031332020312020302020202020200A2031332031342020322020302020202020200A2031342020362020312020302020202020200A2020362031352020322020302020202020200A2031302031362020312020302020202020200A2020392031372020312020302020202020200A2031332031382020312020302020202020200A2031342031392020312020302020202020200A2020372032302020312020302020202020200A2020372032312020312020302020202020200A2020332032322020312020302020202020200A2020322032332020312020302020202020200A2032312032342020312020302020202020200A2032342032352020312020302020202020200A2032352032362020312020302020202020200A2032362032372020312020302020202020200A2032362032382020312020312020202020200A2032362032392020312020312020202020200A2032372033302020312020302020202020200A2032372033312020312020312020202020200A2032372033322020312020312020202020200A4D2020454E44
Contributor: KATO T, DEPT. OF CHEM., FAC. OF SCI., TOHOKU UNIV.
InstType: EI
InstName: Unknown
IoniMethod: _ENERGY 25 eV
IonPolarity: pos
Date: 2010-10-09 19:48:36+02:00
Num Peaks: 143
28 36 32 25 43 27 55 5 56 11 57 22 67 43 68 4 69 50 70 12 
71 13 73 8 75 207 76 12 79 42 81 27 82 18 83 31 85 14 89 7 
91 16 92 13 93 212 94 4 95 181 96 28 97 16 99 1 100 22 103 15 
105 144 106 3 107 132 108 37 109 111 110 5 111 39 115 35 119 128 120 2 
121 137 122 63 123 106 124 6 125 23 129 21 131 66 132 3 133 118 134 24 
135 68 136 5 137 53 143 52 144 11 145 15 146 32 147 111 148 67 149 999 
150 132 151 29 152 15 153 1 155 12 157 42 158 20 159 15 160 27 161 67 
162 27 163 10 164 25 165 13 167 18 169 2 171 90 172 19 173 72 174 7 
175 126 176 34 177 124 178 9 179 23 181 18 183 29 184 1 185 61 186 18 
187 60 188 5 189 63 190 52 191 71 192 1 195 12 197 136 198 27 199 7 
200 22 201 41 202 22 204 6 205 14 209 14 211 50 212 1 213 39 214 22 
215 46 216 1 217 16 223 14 225 25 226 1 227 75 228 23 229 146 230 3 
231 19 237 70 238 21 239 2 241 14 243 21 244 21 245 1 246 29 251 68 
252 23 253 1 254 11 255 41 256 37 257 4 259 18 272 136 273 42 348 10 
349 23 404 99 405 19 
