Name: MassBank: JP009783
MW: 170
Formula: C10H18O2
Synonym: MassBank: JP009783
Synonym: 1-(1-ETHOXY)ETHOXY-3-METHYL-2,4-PENTADIENE
Structure: 312D28312D4554484F5859294554484F58592D332D4D455448594C2D322C342D50454E54414449454E452E6D6F6C0A20204368656D447261773131313730393135313832440A2031322031312020302020302020302020302020302020302020302020303939392056323030300A20202020332E323135312020202D302E3230363320202020302E303030302043202020302020302020302020302020302020302020302020302020302020302020302020300A20202020322E353030362020202D302E3631383820202020302E303030302043202020302020302020302020302020302020302020302020302020302020302020302020300A20202020312E373836322020202D302E3230363320202020302E303030302043202020302020302020302020302020302020302020302020302020302020302020302020300A20202020312E303731372020202D302E3631383820202020302E303030302043202020302020302020302020302020302020302020302020302020302020302020302020300A20202020302E333537322020202D302E3230363320202020302E303030302043202020302020302020302020302020302020302020302020302020302020302020302020300A20202020312E3738363220202020302E3631383820202020302E303030302043202020302020302020302020302020302020302020302020302020302020302020302020300A2020202D302E333537322020202D302E3631383820202020302E30303030204F202020302020302020302020302020302020302020302020302020302020302020302020300A2020202D312E303731372020202D302E3230363320202020302E303030302043202020302020302020302020302020302020302020302020302020302020302020302020300A2020202D312E3037313720202020302E3631383720202020302E303030302043202020302020302020302020302020302020302020302020302020302020302020302020300A2020202D312E373836322020202D302E3631383820202020302E30303030204F202020302020302020302020302020302020302020302020302020302020302020302020300A2020202D322E353030362020202D302E3230363320202020302E303030302043202020302020302020302020302020302020302020302020302020302020302020302020300A2020202D332E323135312020202D302E3631383820202020302E303030302043202020302020302020302020302020302020302020302020302020302020302020302020300A2020312020322020322020302020202020200A2020322020332020312020302020202020200A2020332020342020322020302020202020200A2020342020352020312020302020202020200A2020332020362020312020302020202020200A2020382020392020312020302020202020200A2020372020382020312020302020202020200A2031312031322020312020302020202020200A2031302031312020312020302020202020200A2020382031302020312020302020202020200A2020352020372020312020302020202020200A4D2020454E44
Contributor: KURARAY CO., LTD.
InstType: EI
InstName: JEOL JMS-D-300
IoniMethod: _ENERGY 70 eV
IonPolarity: pos
Date: 2010-10-09 19:48:36+02:00
Num Peaks: 36
27 99 28 21 29 50 31 2 39 106 40 25 41 182 42 3 43 143 44 16 
45 865 46 2 50 13 51 33 52 18 53 12 54 74 55 88 65 42 66 3 
67 999 68 63 73 185 77 6 79 110 80 28 81 240 82 89 83 83 91 25 
93 44 97 2 111 32 115 14 125 13 126 81 
