Name: MassBank: JP009338
MW: 164
Formula: C11H16O
Synonym: MassBank: JP009338
Synonym: 4,4A,5,6,7,8-HEXAHYDRO-4A-METHYL-2(3H)-NAPHTHALENONE
Structure: 342C34412C352C362C372C382D48455841485944524F2D34412D4D455448594C2D32283348292D4E4150485448414C454E4F4E452E6D6F6C0A20204368656D447261773130313831303137303832440A2031322031332020302020302020302020302020302020302020302020303939392056323030300A2020202D302E333537322020202D312E3033313220202020302E303030302043202020302020302020302020302020302020302020302020302020302020302020302020300A2020202D312E303731372020202D302E3631383720202020302E303030302043202020302020302020302020302020302020302020302020302020302020302020302020300A2020202D312E3037313720202020302E3230363320202020302E303030302043202020302020302020302020302020302020302020302020302020302020302020302020300A2020202D302E3335373220202020302E3631383820202020302E303030302043202020302020302020302020302020302020302020302020302020302020302020302020300A20202020302E3335373220202020302E3230363320202020302E303030302043202020302020302020302020302020302020302020302020302020302020302020302020300A20202020312E3037313720202020302E3631383820202020302E303030302043202020302020302020302020302020302020302020302020302020302020302020302020300A20202020312E3738363220202020302E3230363320202020302E303030302043202020302020302020302020302020302020302020302020302020302020302020302020300A20202020312E373836322020202D302E3631383720202020302E303030302043202020302020302020302020302020302020302020302020302020302020302020302020300A20202020312E303731372020202D312E3033313320202020302E303030302043202020302020302020302020302020302020302020302020302020302020302020302020300A20202020302E333537322020202D302E3631383720202020302E303030302043202020302020302020302020302020302020302020302020302020302020302020302020300A2020202D312E373836322020202D312E3033313220202020302E30303030204F202020302020302020302020302020302020302020302020302020302020302020302020300A20202020302E3335373220202020312E3033313320202020302E303030302043202020302020302020302020302020302020302020302020302020302020302020302020300A2020312020322020312020302020202020200A2020322020332020312020302020202020200A2020332020342020312020302020202020200A2020342020352020312020302020202020200A2020352020362020312020302020202020200A2020362020372020312020302020202020200A2020372020382020312020302020202020200A2020382020392020312020302020202020200A2020392031302020312020302020202020200A2020312031302020322020302020202020200A2020352031302020312020302020202020200A2020322031312020322020302020202020200A2020352031322020312020302020202020200A4D2020454E44
Contributor: YAMAMOTO M, DEP. CHEMISTRY, FAC. SCIENCE, NARA WOMEN'S UNIV.
InstType: EI
InstName: HITACHI RMU-6M
IoniMethod: _ENERGY 70 eV
IonPolarity: pos
Date: 2010-10-09 19:48:36+02:00
Num Peaks: 62
26 33 27 391 28 344 29 20 31 24 38 39 39 648 40 12 41 503 42 38 
43 40 50 7 51 232 52 141 53 297 55 5 56 172 62 23 63 93 64 3 
65 234 66 103 67 226 68 6 69 19 77 412 78 128 79 71 80 242 81 118 
82 44 89 2 91 449 92 86 93 491 94 24 95 82 96 22 97 22 103 3 
105 109 106 39 107 636 108 33 109 68 115 27 117 28 119 2 120 30 121 616 
122 999 123 14 128 19 131 55 135 140 136 98 137 114 146 28 149 137 150 2 
164 859 165 124 
