Name: 3-METHYLPYROCATECHOL
MW: 124
Formula: C7H8O2
Synonym: MassBank: JP004056
Synonym: 3-METHYLPYROCATECHOL
Structure: 310A32330A332D4D455448594C5059524F4341544543484F4C2E6D6F6C0A20204368656D447261773033323031303137323932440A2020392020392020302020302020302020302020302020302020302020303939392056323030300A2020202D302E3431323520202020312E3432383920202020302E30303030204F202020302020302020302020302020302020302020302020302020302020302020302020300A2020202D302E3030303020202020302E3731343520202020302E303030302043202020302020302020302020302020302020302020302020302020302020302020302020300A2020202D302E343132352020202D302E3030303020202020302E303030302043202020302020302020302020302020302020302020302020302020302020302020302020300A2020202D312E323337352020202D302E3030303020202020302E30303030204F202020302020302020302020302020302020302020302020302020302020302020302020300A2020202D302E303030302020202D302E3731343520202020302E303030302043202020302020302020302020302020302020302020302020302020302020302020302020300A20202020302E383235302020202D302E3731343520202020302E303030302043202020302020302020302020302020302020302020302020302020302020302020302020300A20202020312E3233373520202020302E3030303020202020302E303030302043202020302020302020302020302020302020302020302020302020302020302020302020300A20202020302E3832353020202020302E3731343520202020302E303030302043202020302020302020302020302020302020302020302020302020302020302020302020300A2020202D302E343132352020202D312E3432383920202020302E303030302043202020302020302020302020302020302020302020302020302020302020302020302020300A2020312020322020312020302020202020200A2020322020332020312020302020202020200A2020332020342020312020302020202020200A2020332020352020322020302020202020200A2020352020362020312020302020202020200A2020362020372020322020302020202020200A2020372020382020312020302020202020200A2020322020382020322020302020202020200A2020352020392020312020302020202020200A4D2020454E44
Contributor: MASS SPECTROSCOPY SOC. OF JAPAN (MSSJ)
InstType: EI
InstName: HITACHI RMU-6L
IoniMethod: _ENERGY 70 eV
IonPolarity: pos
Date: 2010-10-09 19:48:36+02:00
Num Peaks: 43
18 12 26 15 27 40 28 3 29 15 31 12 37 18 38 4 39 135 40 20 
41 55 43 2 47 22 47.5 15 48 20 50 4 51 125 52 69 53 41 55 4 
60 10 61 10 62 51 63 4 64 10 65 41 66 41 67 5 76 19 77 189 
78 469 79 6 81 20 94 15 95 73 96 2 105 109 106 128 107 92 109 1 
123 403 124 999 125 81 
