Name: MassBank: JP003512
MW: 307
Formula: C15H11Cl2NO2
Synonym: MassBank: JP003512
Synonym: 2',5-DICHLORO-2-(N-METHYLFORMAMIDO)BENZOPHENONE
Structure: 32272C352D444943484C4F524F2D322D284E2D4D455448594C464F524D414D49444F2942454E5A4F5048454E4F4E452E6D6F6C0A20204368656D447261773132313930393032343532440A2032302032312020302020302020302020302020302020302020302020303939392056323030300A20202020302E303030302020202D302E3230363220202020302E303030302043202020302020302020302020302020302020302020302020302020302020302020302020300A2020202D302E3731343520202020302E3230363320202020302E303030302043202020302020302020302020302020302020302020302020302020302020302020302020300A2020202D312E343238392020202D302E3230363220202020302E303030302043202020302020302020302020302020302020302020302020302020302020302020302020300A2020202D322E3134333420202020302E3230363220202020302E303030302043202020302020302020302020302020302020302020302020302020302020302020302020300A2020202D322E3134333420202020312E3033313320202020302E303030302043202020302020302020302020302020302020302020302020302020302020302020302020300A2020202D312E3432383920202020312E3434333820202020302E303030302043202020302020302020302020302020302020302020302020302020302020302020302020300A2020202D302E3731343520202020312E3033313320202020302E303030302043202020302020302020302020302020302020302020302020302020302020302020302020300A20202020302E303030302020202D312E3033313220202020302E30303030204F202020302020302020302020302020302020302020302020302020302020302020302020300A20202020302E3731343520202020302E3230363320202020302E303030302043202020302020302020302020302020302020302020302020302020302020302020302020300A20202020302E3731343520202020312E3033313320202020302E303030302043202020302020302020302020302020302020302020302020302020302020302020302020300A20202020312E3432383920202020312E3434333820202020302E303030302043202020302020302020302020302020302020302020302020302020302020302020302020300A20202020322E3134333420202020312E3033313320202020302E303030302043202020302020302020302020302020302020302020302020302020302020302020302020300A20202020322E3134333420202020302E3230363320202020302E303030302043202020302020302020302020302020302020302020302020302020302020302020302020300A20202020312E343238392020202D302E3230363220202020302E303030302043202020302020302020302020302020302020302020302020302020302020302020302020300A2020202D302E373134352020202D312E3434333820202020302E303030302043202020302020302020302020302020302020302020302020302020302020302020302020300A2020202D302E373134352020202D322E3236383720202020302E30303030204F202020302020302020302020302020302020302020302020302020302020302020302020300A2020202D312E343238392020202D312E3033313320202020302E30303030204E202020302020302020302020302020302020302020302020302020302020302020302020300A2020202D322E313433342020202D312E3434333820202020302E303030302043202020302020302020302020302020302020302020302020302020302020302020302020300A2020202D312E3432383920202020322E3236383720202020302E3030303020436C2020302020302020302020302020302020302020302020302020302020302020302020300A2020202D302E3030303020202020312E3434333820202020302E3030303020436C2020302020302020302020302020302020302020302020302020302020302020302020300A2020312020322020312020302020202020200A2020322020332020312020302020202020200A2020332020342020322020302020202020200A2020342020352020312020302020202020200A2020352020362020322020302020202020200A2020362020372020312020302020202020200A2020322020372020322020302020202020200A2020392031302020312020302020202020200A2031302031312020322020302020202020200A2031312031322020312020302020202020200A2031322031332020322020302020202020200A2031332031342020312020302020202020200A2020392031342020322020302020202020200A2020312020382020322020302020202020200A2020312020392020312020302020202020200A2031352031362020322020302020202020200A2031352031372020312020302020202020200A2031372031382020312020302020202020200A2020332031372020312020302020202020200A2020362031392020312020302020202020200A2031302032302020312020302020202020200A4D2020454E44
Contributor: YAMAMOTO M, DEP. CHEMISTRY, FAC. SCIENCE, NARA WOMEN'S UNIV.
InstType: EI
InstName: HITACHI RMU-6E
IoniMethod: _ENERGY 70 eV
IonPolarity: pos
Date: 2010-10-09 19:48:36+02:00
Num Peaks: 106
30 38 39 36 41 132 42 30 43 183 44 29 45 32 50 5 51 143 55 158 
56 68 57 24 58 18 60 17 63 24 67 4 68 32 69 142 70 77 71 14 
73 18 74 34 75 96 76 5 77 408 78 41 79 23 81 5 82 48 83 116 
84 57 85 9 91 27 93 20 95 38 96 3 97 100 98 35 99 49 102 2 
104 38 105 999 106 87 107 2 109 25 110 21 111 116 112 4 113 43 115 16 
117 17 119 2 122 21 123 24 124.5 14 125 7 126 22 127 27 129 18 130 1 
133 36 134 300 135 36 137 2 138 20 139 67 140 29 141 4 145 16 149 159 
150 35 151 2 152 23 153.5 16 154.5 14 155.5 2 161 73 162 41 165 15 166 6 
167 23 168 109 180 17 207 105 208 37 209 3 214 16 226 19 227 39 228 2 
229 93 230 16 231 27 244 16 245 28 246 57 262 28 264 2 272 15 278 25 
279 88 280 3 281 59 282 13 307 40 309 26 
