Name: HYDROXYCITRONELLAL DIETHYL ACETAL
MW: 246
Formula: C14H30O3
Synonym: MassBank: JP009147
Synonym: HYDROXYCITRONELLAL DIETHYL ACETAL
Structure: 303635355F485944524F5859434954524F4E454C4C414C204449455448594C2041434554414C2E6D6F6C0A20204368656D447261773130313931303232323032440A2031372031362020302020302020302020302020302020302020302020303939392056323030300A2020202D332E353732342020202D302E3633313420202020302E30303030204F202020302020302020302020302020302020302020302020302020302020302020302020300A2020202D322E383537392020202D302E3231383920202020302E303030302043202020302020302020302020302020302020302020302020302020302020302020302020300A2020202D322E313433342020202D302E3633313420202020302E303030302043202020302020302020302020302020302020302020302020302020302020302020302020300A2020202D312E343238392020202D302E3231383920202020302E303030302043202020302020302020302020302020302020302020302020302020302020302020302020300A2020202D302E373134352020202D302E3633313420202020302E303030302043202020302020302020302020302020302020302020302020302020302020302020302020300A20202020302E303030302020202D302E3231383920202020302E303030302043202020302020302020302020302020302020302020302020302020302020302020302020300A20202020302E373134352020202D302E3633313420202020302E303030302043202020302020302020302020302020302020302020302020302020302020302020302020300A20202020312E343238392020202D302E3231383920202020302E303030302043202020302020302020302020302020302020302020302020302020302020302020302020300A20202020322E313433342020202D302E3633313420202020302E30303030204F202020302020302020302020302020302020302020302020302020302020302020302020300A20202020322E383537392020202D302E3231383920202020302E303030302043202020302020302020302020302020302020302020302020302020302020302020302020300A20202020332E353732342020202D302E3633313420202020302E303030302043202020302020302020302020302020302020302020302020302020302020302020302020300A2020202D322E3835373920202020302E3630363120202020302E303030302043202020302020302020302020302020302020302020302020302020302020302020302020300A2020202D322E363535302020202D312E3031383620202020302E303030302043202020302020302020302020302020302020302020302020302020302020302020302020300A20202020312E3432383920202020302E3630363120202020302E30303030204F202020302020302020302020302020302020302020302020302020302020302020302020300A20202020322E3134333420202020312E3031383620202020302E303030302043202020302020302020302020302020302020302020302020302020302020302020302020300A20202020322E3835373920202020302E3630363120202020302E303030302043202020302020302020302020302020302020302020302020302020302020302020302020300A20202020302E3030303020202020302E3630363120202020302E303030302043202020302020302020302020302020302020302020302020302020302020302020302020300A2020312020322020312020302020202020200A2020322020332020312020302020202020200A2020332020342020312020302020202020200A2020342020352020312020302020202020200A2020352020362020312020302020202020200A2020362020372020312020302020202020200A2020372020382020312020302020202020200A2020382020392020312020302020202020200A2020392031302020312020302020202020200A2031302031312020312020302020202020200A2020322031322020312020302020202020200A2020322031332020312020302020202020200A2020382031342020312020302020202020200A2031342031352020312020302020202020200A2031352031362020312020302020202020200A2020362031372020312020302020202020200A4D2020454E44
Contributor: SODA AROMATIC CO., LTD.
InstType: EI
InstName: HITACHI M-80B
IoniMethod: _ENERGY 70 eV
IonPolarity: pos
Date: 2010-10-09 19:48:36+02:00
Num Peaks: 48
16 10 27 37 29 98 31 43 39 19 41 64 42 19 43 258 44 35 45 36 
47 264 53 13 55 62 56 17 57 50 58 18 59 245 67 15 69 79 70 13 
71 132 72 25 73 23 75 335 76 12 79 13 81 161 82 16 83 34 85 30 
95 61 96 60 97 30 99 213 100 11 103 999 104 47 109 12 110 10 111 54 
112 12 113 17 121 22 137 76 138 12 139 60 183 49 185 19 
