Name: 2-SEC-BUTYLPHENYL N-METHYLCARBAMATE
MW: 207
Formula: C12H17NO2
Synonym: MassBank: JP007531
Synonym: 2-SEC-BUTYLPHENYL N-METHYLCARBAMATE
Structure: 322D5345432D425554594C5048454E594C204E2D4D455448594C43415242414D4154452E6D6F6C0A20204368656D447261773032323131303136303432440A2031352031352020302020302020302020302020302020302020302020303939392056323030300A20202020302E3230363220202020312E3037313720202020302E303030302043202020302020302020302020302020302020302020302020302020302020302020302020300A20202020312E3033313220202020312E3037313720202020302E30303030204E202020302020302020302020302020302020302020302020302020302020302020302020300A2020202D302E3230363320202020312E3738363220202020302E30303030204F202020302020302020302020302020302020302020302020302020302020302020302020300A2020202D302E3230363320202020302E3335373220202020302E30303030204F202020302020302020302020302020302020302020302020302020302020302020302020300A20202020312E3434333820202020302E3335373220202020302E303030302043202020302020302020302020302020302020302020302020302020302020302020302020300A20202020302E323036322020202D302E3335373220202020302E303030302043202020302020302020302020302020302020302020302020302020302020302020302020300A2020202D302E323036332020202D312E3037313720202020302E303030302043202020302020302020302020302020302020302020302020302020302020302020302020300A20202020302E323036322020202D312E3738363220202020302E303030302043202020302020302020302020302020302020302020302020302020302020302020302020300A20202020312E303331322020202D312E3738363220202020302E303030302043202020302020302020302020302020302020302020302020302020302020302020302020300A20202020312E343433382020202D312E3037313720202020302E303030302043202020302020302020302020302020302020302020302020302020302020302020302020300A20202020312E303331332020202D302E3335373220202020302E303030302043202020302020302020302020302020302020302020302020302020302020302020302020300A2020202D312E303331332020202D312E3037313720202020302E303030302043202020302020302020302020302020302020302020302020302020302020302020302020300A2020202D312E343433382020202D302E3335373220202020302E303030302043202020302020302020302020302020302020302020302020302020302020302020302020300A2020202D312E3033313320202020302E3335373220202020302E303030302043202020302020302020302020302020302020302020302020302020302020302020302020300A2020202D312E343433382020202D312E3738363220202020302E303030302043202020302020302020302020302020302020302020302020302020302020302020302020300A2020312020322020312020302020202020200A2020312020332020322020302020202020200A2020312020342020312020302020202020200A2020322020352020312020302020202020200A2020362020372020312020302020202020200A2020372020382020322020302020202020200A2020382020392020312020302020202020200A2020392031302020322020302020202020200A2031302031312020312020302020202020200A2020362031312020322020302020202020200A2031322031332020312020302020202020200A2031332031342020312020302020202020200A2031322031352020312020302020202020200A2020372031322020312020302020202020200A2020342020362020312020302020202020200A4D2020454E44
Contributor: KOGA M, UNIV. OF OCCUPATIONAL AND ENVIRONMENTAL HEALTH
InstType: EI
InstName: JEOL JMS-01-SG
IoniMethod: _ENERGY 70 eV
IonPolarity: pos
Date: 2010-10-09 19:48:36+02:00
Num Peaks: 60
43 28 51 159 52 28 53 12 55 181 56 108 57 246 58 37 63 79 64 65 
65 260 66 7 67 28 68 28 71 43 74 1 75 28 76 36 77 840 79 12 
85 14 86 36 89 65 90 2 91 840 92 123 93 347 94 10 95 72 102 72 
103 760 104 8 105 115 107 891 108 65 115 13 116 50 117 65 119 123 120 13 
121 934 122 999 123 57 128 6 131 36 132 21 133 72 134 5 135 253 141 28 
149 28 150 84 151 384 152 14 173 14 174 5 176 21 207 94 208 14 209 21 
