Name: TRIFLUOPERAZINE
CAS: 117-89-5
MW: 407
Formula: C21H24F3N3S
Synonym: MassBank: JP005771
Synonym: TRIFLUOPERAZINE
Synonym: 10-(3-(4-METHYLPIPERAZIN-1-YL)PROPYL)-2-(TRIFLUOROMETHYL)-10H-PHENOTHIAZINE
Structure: 545249464C554F504552415A494E452E6D6F6C0A20204368656D447261773131323230393233323732440A2032382033312020302020302020302020302020302020302020302020303939392056323030300A2020202D322E3134343020202020312E3033313520202020302E303030302043202020302020302020302020302020302020302020302020302020302020302020302020300A2020202D302E3731333820202020312E3033313220202020302E303030302043202020302020302020302020302020302020302020302020302020302020302020302020300A2020202D312E3432383220202020312E3434333720202020302E303030302043202020302020302020302020302020302020302020302020302020302020302020302020300A2020202D312E3432383220202020322E3236383620202020302E303030302043202020302020302020302020302020302020302020302020302020302020302020302020300A2020202D302E3731333820202020322E3638313120202020302E303030302043202020302020302020302020302020302020302020302020302020302020302020302020300A20202020302E3030303620202020322E3236383620202020302E303030302043202020302020302020302020302020302020302020302020302020302020302020302020300A20202020302E3731353120202020322E3638313220202020302E303030302053202020302020302020302020302020302020302020302020302020302020302020302020300A20202020312E3432393520202020322E3236383720202020302E303030302043202020302020302020302020302020302020302020302020302020302020302020302020300A20202020322E3134343020202020322E3638313220202020302E303030302043202020302020302020302020302020302020302020302020302020302020302020302020300A20202020322E3835383520202020322E3236383720202020302E303030302043202020302020302020302020302020302020302020302020302020302020302020302020300A20202020322E3835383520202020312E3434333720202020302E303030302043202020302020302020302020302020302020302020302020302020302020302020302020300A20202020322E3134343020202020312E3033313220202020302E303030302043202020302020302020302020302020302020302020302020302020302020302020302020300A20202020312E3432393520202020312E3434333720202020302E303030302043202020302020302020302020302020302020302020302020302020302020302020302020300A20202020302E3731353120202020312E3033313220202020302E30303030204E202020302020302020302020302020302020302020302020302020302020302020302020300A20202020302E3030303620202020312E3434333720202020302E303030302043202020302020302020302020302020302020302020302020302020302020302020302020300A20202020302E3731353120202020302E3230363220202020302E303030302043202020302020302020302020302020302020302020302020302020302020302020302020300A20202020302E303030362020202D302E3230363320202020302E303030302043202020302020302020302020302020302020302020302020302020302020302020302020300A20202020302E303030362020202D312E3033313320202020302E303030302043202020302020302020302020302020302020302020302020302020302020302020302020300A2020202D302E373133382020202D312E3434333820202020302E30303030204E202020302020302020302020302020302020302020302020302020302020302020302020300A2020202D302E373133382020202D322E3236383720202020302E303030302043202020302020302020302020302020302020302020302020302020302020302020302020300A2020202D312E343238322020202D322E3638313220202020302E303030302043202020302020302020302020302020302020302020302020302020302020302020302020300A2020202D322E313432372020202D322E3236383720202020302E30303030204E202020302020302020302020302020302020302020302020302020302020302020302020300A2020202D322E313432372020202D312E3434333720202020302E303030302043202020302020302020302020302020302020302020302020302020302020302020302020300A2020202D312E343238322020202D312E3033313220202020302E303030302043202020302020302020302020302020302020302020302020302020302020302020302020300A2020202D322E383537322020202D322E3638313220202020302E303030302043202020302020302020302020302020302020302020302020302020302020302020302020300A2020202D322E3835383520202020302E3631393020202020302E303030302046202020302020302020302020302020302020302020302020302020302020302020302020300A2020202D322E3535363120202020312E3734363220202020302E303030302046202020302020302020302020302020302020302020302020302020302020302020302020300A2020202D312E3733313920202020302E3331363820202020302E303030302046202020302020302020302020302020302020302020302020302020302020302020302020300A2020322020332020322020302020202020200A2020332020342020312020302020202020200A2020342020352020322020302020202020200A2020352020362020312020302020202020200A2020362020372020312020302020202020200A2020372020382020312020302020202020200A2020382020392020312020302020202020200A2020392031302020322020302020202020200A2031302031312020312020302020202020200A2031312031322020322020302020202020200A2031322031332020312020302020202020200A2020382031332020322020302020202020200A2031332031342020312020302020202020200A2031342031352020312020302020202020200A2020362031352020322020302020202020200A2020322031352020312020302020202020200A2031362031372020312020302020202020200A2031372031382020312020302020202020200A2031392032302020312020302020202020200A2032302032312020312020302020202020200A2032312032322020312020302020202020200A2032322032332020312020302020202020200A2032332032342020312020302020202020200A2031392032342020312020302020202020200A2032322032352020312020302020202020200A2031382031392020312020302020202020200A2031342031362020312020302020202020200A2020332020312020312020302020202020200A2020312032362020312020302020202020200A2020312032372020312020312020202020200A2020312032382020312020312020202020200A4D2020454E44
Contributor: HAMAMATSU UNIV. SCHOOL OF MEDICINE
InstType: EI
InstName: JEOL JMS-D-300
IoniMethod: _ENERGY 70 eV
IonPolarity: pos
Date: 2010-10-09 19:48:36+02:00
Num Peaks: 33
55 99 56 94 57 65 58 136 69 15 70 760 71 210 72 34 82 11 83 34 
84 65 85 71 97 35 98 5 99 53 111 54 113 999 114 99 127 220 141 344 
247 13 248 111 266 136 267 121 280 93 281 35 293 17 294 27 306 119 307 75 
350 13 407 455 408 87 
