Name: MassBank: JP006627
MW: 293
Formula: C19H19NO2
Synonym: MassBank: JP006627
Synonym: 3,6-DIACETYL-9-ISOPROPYLCARBAZOLE
Structure: 332C362D444941434554594C2D392D49534F50524F50594C43415242415A4F4C452E6D6F6C0A20204368656D447261773032323231303031353432440A2032322032342020302020302020302020302020302020302020302020303939392056323030300A2020202D302E363635322020202D312E3131343020202020302E30303030204E202020302020302020302020302020302020302020302020302020302020302020302020300A2020202D312E313530312020202D302E3434363520202020302E303030302043202020302020302020302020302020302020302020302020302020302020302020302020300A2020202D312E393730362020202D302E3336303320202020302E303030302043202020302020302020302020302020302020302020302020302020302020302020302020300A2020202D322E3330363220202020302E3339333420202020302E303030302043202020302020302020302020302020302020302020302020302020302020302020302020300A2020202D312E3832313320202020312E3036303820202020302E303030302043202020302020302020302020302020302020302020302020302020302020302020302020300A2020202D312E3030303820202020302E3937343620202020302E303030302043202020302020302020302020302020302020302020302020302020302020302020302020300A2020202D302E3636353220202020302E3232303920202020302E303030302043202020302020302020302020302020302020302020302020302020302020302020302020300A20202020302E313139342020202D302E3033343020202020302E303030302043202020302020302020302020302020302020302020302020302020302020302020302020300A20202020302E3833333920202020302E3337383520202020302E303030302043202020302020302020302020302020302020302020302020302020302020302020302020300A20202020312E353438332020202D302E3033343020202020302E303030302043202020302020302020302020302020302020302020302020302020302020302020302020300A20202020312E353438332020202D302E3835393020202020302E303030302043202020302020302020302020302020302020302020302020302020302020302020302020300A20202020302E383333392020202D312E3237313520202020302E303030302043202020302020302020302020302020302020302020302020302020302020302020302020300A20202020302E313139342020202D302E3835393020202020302E303030302043202020302020302020302020302020302020302020302020302020302020302020302020300A2020202D302E393230322020202D312E3839383620202020302E303030302043202020302020302020302020302020302020302020302020302020302020302020302020300A2020202D302E333336382020202D322E3438313920202020302E303030302043202020302020302020302020302020302020302020302020302020302020302020302020300A2020202D312E373237312020202D322E3037303120202020302E303030302043202020302020302020302020302020302020302020302020302020302020302020302020300A20202020322E3236323820202020302E3337383520202020302E303030302043202020302020302020302020302020302020302020302020302020302020302020302020300A20202020322E3236323820202020312E3230333520202020302E30303030204F202020302020302020302020302020302020302020302020302020302020302020302020300A20202020322E393737332020202D302E3033343020202020302E303030302043202020302020302020302020302020302020302020302020302020302020302020302020300A2020202D322E3135363820202020312E3831343520202020302E303030302043202020302020302020302020302020302020302020302020302020302020302020302020300A2020202D322E3937373320202020312E3930303720202020302E30303030204F202020302020302020302020302020302020302020302020302020302020302020302020300A2020202D312E3637313920202020322E3438313920202020302E303030302043202020302020302020302020302020302020302020302020302020302020302020302020300A2020312020322020312020302020202020200A2020322020332020312020302020202020200A2020332020342020322020302020202020200A2020342020352020312020302020202020200A2020352020362020322020302020202020200A2020362020372020312020302020202020200A2020322020372020322020302020202020200A2020372020382020312020302020202020200A2020382020392020312020302020202020200A2020392031302020322020302020202020200A2031302031312020312020302020202020200A2031312031322020322020302020202020200A2031322031332020312020302020202020200A2020382031332020322020302020202020200A2020312031332020312020302020202020200A2031342031352020312020302020202020200A2031342031362020312020302020202020200A2020312031342020312020302020202020200A2031372031382020322020302020202020200A2031372031392020312020302020202020200A2031302031372020312020302020202020200A2032302032312020322020302020202020200A2032302032322020312020302020202020200A2020352032302020312020302020202020200A4D2020454E44
Contributor: SASAKI S, TOYOHASHI UNIV. OF TECH.
InstType: EI
InstName: MX-1303
IoniMethod: _ENERGY 50 eV
IonPolarity: pos
Date: 2010-10-09 19:48:36+02:00
Num Peaks: 75
41 284 42 50 44 141 45 3 54 22 55 356 56 118 57 79 58 16 60 25 
67 99 68 5 69 402 70 95 71 433 73 3 79 11 80 10 81 170 82 7 
83 217 84 58 85 242 93 2 94 11 95 130 96 48 97 18 98 37 99 54 
107 17 109 7 110 17 111 90 112 14 113 14 121 15 123 50 124 10 125 4 
127 19 131.5 13 135 16 136 1 137 41 138 19 139 26 141 1 149 18 151 17 
163 10 164 6 165 60 166 19 167 10 177 1 178 10 179 17 191 25 192 4 
193 144 194 100 207 12 219 3 235 110 236 260 237 140 250 12 251 270 252 170 
274 44 278 999 279 108 293 455 294 170 
