Name: MassBank: JP006592
MW: 152
Formula: C10H16O
Synonym: MassBank: JP006592
Synonym: TRANS-LIMONENE-1,2-OXIDE
Structure: 5452414E532D4C494D4F4E454E452D312C322D4F584944452E6D6F6C0A20204368656D447261773038313231303038313132440A2031322031332020302020302020302020302020302020302020302020303939392056323030300A2020202D312E383031302020202D302E3832353020202020302E303030302043202020302020302020302020302020302020302020302020302020302020302020302020300A2020202D312E303836352020202D302E3431323520202020302E303030302043202020302020302020302020302020302020302020302020302020302020302020302020300A2020202D302E3637343020202020302E3330323020202020302E303030302043202020302020302020302020302020302020302020302020302020302020302020302020300A20202020302E3135313020202020302E3330323020202020302E303030302043202020302020302020302020302020302020302020302020302020302020302020302020300A20202020302E353633352020202D302E3431323520202020302E303030302043202020302020302020302020302020302020302020302020302020302020302020302020300A20202020312E333838352020202D302E3431323520202020302E303030302043202020302020302020302020302020302020302020302020302020302020302020302020300A20202020312E3830313020202020302E3330323020202020302E303030302043202020302020302020302020302020302020302020302020302020302020302020302020300A20202020312E383031302020202D312E3132373020202020302E303030302043202020302020302020302020302020302020302020302020302020302020302020302020300A20202020302E313531302020202D312E3132373020202020302E303030302043202020302020302020302020302020302020302020302020302020302020302020302020300A2020202D302E363734302020202D312E3132373020202020302E303030302043202020302020302020302020302020302020302020302020302020302020302020302020300A2020202D312E3439393020202020302E3330323020202020302E30303030204F202020302020302020302020302020302020302020302020302020302020302020302020300A2020202D302E3637343020202020312E3132373020202020302E303030302048202020302020302020302020302020302020302020302020302020302020302020302020300A2020322020312020312020312020202020200A2020332020342020312020302020202020200A2020342020352020312020302020202020200A2020352020362020312020302020202020200A2020362020372020322020302020202020200A2020362020382020312020302020202020200A2020352020392020312020302020202020200A2020392031302020312020302020202020200A2020322031302020312020302020202020200A2020322020332020312020302020202020200A2020322031312020312020302020202020200A2020332031312020312020302020202020200A2020332031322020312020362020202020200A4D2020454E44
Contributor: HISAHIRO HAGIWARA, CHEMICAL RESEARCH INSTITUTE OF NON-AQUEOUSSOLUTIONS TOHOKU UNIV.
InstType: EI
InstName: HITACHI M-80B
IoniMethod: _ENERGY 70 eV
IonPolarity: pos
Date: 2010-10-09 19:48:36+02:00
Num Peaks: 60
15 30 26 10 27 229 29 105 38 13 39 322 40 51 41 447 42 37 43 999 
44 154 45 26 50 13 51 39 52 20 53 168 54 47 55 198 56 30 57 17 
58 17 63 12 65 36 66 23 67 515 68 94 69 71 70 13 71 242 72 11 
77 63 78 15 79 236 80 31 81 230 82 226 83 62 84 76 91 68 92 22 
93 271 94 89 95 128 96 25 97 26 105 27 106 12 107 41 108 189 109 281 
110 61 111 20 119 68 121 36 123 85 124 33 134 27 137 212 138 17 152 32 
