Name: MassBank: JP003137
MW: 344
Formula: C19H20O6
Synonym: MassBank: JP003137
Synonym: 3,4,8,9-TETRAMETHOXYPTEROCARPAN
Structure: 332C342C382C392D54455452414D4554484F5859505445524F43415250414E2E6D6F6C0A20204368656D447261773032323131303232303132440A2032372033302020302020302020302020302020302020302020302020303939392056323030300A2020202D322E3235313720202020312E3234313520202020302E303030302043202020302020302020302020302020302020302020302020302020302020302020302020300A2020202D322E3235313720202020302E3431363520202020302E303030302043202020302020302020302020302020302020302020302020302020302020302020302020300A2020202D312E3533373320202020302E3030343020202020302E303030302043202020302020302020302020302020302020302020302020302020302020302020302020300A2020202D302E3832323820202020302E3431363520202020302E303030302043202020302020302020302020302020302020302020302020302020302020302020302020300A2020202D302E3832323820202020312E3234313520202020302E303030302043202020302020302020302020302020302020302020302020302020302020302020302020300A2020202D312E3533373320202020312E3635343020202020302E303030302043202020302020302020302020302020302020302020302020302020302020302020302020300A2020202D302E3130383320202020302E3030343020202020302E303030302043202020302020302020302020302020302020302020302020302020302020302020302020300A20202020302E3630363120202020302E3431363520202020302E303030302043202020302020302020302020302020302020302020302020302020302020302020302020300A20202020302E3630363120202020312E3234313520202020302E303030302043202020302020302020302020302020302020302020302020302020302020302020302020300A2020202D302E3130383320202020312E3635343020202020302E30303030204F202020302020302020302020302020302020302020302020302020302020302020302020300A20202020302E303633322020202D302E3830333020202020302E30303030204F202020302020302020302020302020302020302020302020302020302020302020302020300A20202020302E383833372020202D302E3838393220202020302E303030302043202020302020302020302020302020302020302020302020302020302020302020302020300A20202020312E323139322020202D302E3133353520202020302E303030302043202020302020302020302020302020302020302020302020302020302020302020302020300A20202020312E333638362020202D312E3535363620202020302E303030302043202020302020302020302020302020302020302020302020302020302020302020302020300A20202020322E313839312020202D312E3437303420202020302E303030302043202020302020302020302020302020302020302020302020302020302020302020302020300A20202020322E353234362020202D302E3731363720202020302E303030302043202020302020302020302020302020302020302020302020302020302020302020302020300A20202020322E303339372020202D302E3034393320202020302E303030302043202020302020302020302020302020302020302020302020302020302020302020302020300A2020202D312E3533373320202020322E3437393020202020302E30303030204F202020302020302020302020302020302020302020302020302020302020302020302020300A2020202D322E3235313720202020322E3839313520202020302E303030302043202020302020302020302020302020302020302020302020302020302020302020302020300A2020202D322E3936363220202020312E3635343020202020302E30303030204F202020302020302020302020302020302020302020302020302020302020302020302020300A2020202D332E3638303720202020312E3234313520202020302E303030302043202020302020302020302020302020302020302020302020302020302020302020302020300A20202020322E363734302020202D322E3133373820202020302E30303030204F202020302020302020302020302020302020302020302020302020302020302020302020300A20202020322E333338352020202D322E3839313520202020302E303030302043202020302020302020302020302020302020302020302020302020302020302020302020300A20202020332E333435312020202D302E3633303520202020302E30303030204F202020302020302020302020302020302020302020302020302020302020302020302020300A20202020332E3638303720202020302E3132333220202020302E303030302043202020302020302020302020302020302020302020302020302020302020302020302020300A20202020312E3138393520202020302E3939393920202020302E303030302048202020302020302020302020302020302020302020302020302020302020302020302020300A2020202D302E383232382020202D302E3430383520202020302E303030302048202020302020302020302020302020302020302020302020302020302020302020302020300A2020312020322020322020302020202020200A2020322020332020312020302020202020200A2020332020342020322020302020202020200A2020342020352020312020302020202020200A2020352020362020322020302020202020200A2020362020312020312020302020202020200A2020342020372020312020302020202020200A2020372020382020312020302020202020200A2020382020392020312020302020202020200A2020392031302020312020302020202020200A2031302020352020312020302020202020200A2020372031312020312020302020202020200A2031312031322020312020302020202020200A2031322031332020322020302020202020200A2031332020382020312020302020202020200A2031322031342020312020302020202020200A2031342031352020322020302020202020200A2031352031362020312020302020202020200A2031362031372020322020302020202020200A2031372031332020312020302020202020200A2020362031382020312020302020202020200A2031382031392020312020302020202020200A2020312032302020312020302020202020200A2032302032312020312020302020202020200A2031352032322020312020302020202020200A2032322032332020312020302020202020200A2031362032342020312020302020202020200A2032342032352020312020302020202020200A2020382032362020312020362020202020200A2020372032372020312020362020202020200A4D2020454E44
Contributor: NAKAYAMA M, MASS SPECTROSCOPY SOC. OF JAPAN (MSSJ)
InstType: EI
InstName: HITACHI RMU-7L
IoniMethod: _ENERGY 70 eV
IonPolarity: pos
Date: 2010-10-09 19:48:36+02:00
Num Peaks: 14
106 30 115 40 135 30 163 60 178 160 191 40 297 60 298 30 299 30 329 290 
330 60 343 40 344 999 345 190 
