Name: MassBank: JP000463
MW: 96
Formula: C5H8N2
Synonym: MassBank: JP000463
Synonym: 1,3-DIMETHYLPYRAZOLE
Structure: 310A32330A312C332D44494D455448594C505952415A4F4C452E6D6F6C0A20204368656D447261773131313230393131353832440A2020392020392020302020302020302020302020302020302020302020303939392056323030300A20202020302E3731333620202020302E3638393820202020302E30303030204E202020302020302020302020302020302020302020302020302020302020302020302020300A2020202D302E3037313120202020302E3934343820202020302E30303030204E202020302020302020302020302020302020302020302020302020302020302020302020300A2020202D302E3535363020202020302E3237373320202020302E303030302043202020302020302020302020302020302020302020302020302020302020302020302020300A2020202D302E303731312020202D302E3339303120202020302E303030302043202020302020302020302020302020302020302020302020302020302020302020302020300A20202020302E373133362020202D302E3133353220202020302E303030302043202020302020302020302020302020302020302020302020302020302020302020302020300A2020202D312E3338313020202020302E3237373320202020302E303030302043202020302020302020302020302020302020302020302020302020302020302020302020300A20202020312E3338313020202020312E3137343720202020302E303030302043202020302020302020302020302020302020302020302020302020302020302020302020300A2020202D302E333236302020202D312E3137343720202020302E303030302048202020302020302020302020302020302020302020302020302020302020302020302020300A20202020312E333831302020202D302E3632303120202020302E303030302048202020302020302020302020302020302020302020302020302020302020302020302020300A2020312020322020312020302020202020200A2020322020332020322020302020202020200A2020332020342020312020302020202020200A2020342020352020322020302020202020200A2020312020352020312020302020202020200A2020332020362020312020302020202020200A2020312020372020312020302020202020200A2020342020382020312020302020202020200A2020352020392020312020302020202020200A4D2020454E44
Contributor: SASAKI S, TOYOHASHI UNIV. OF TECH.
InstType: EI
InstName: MX-1303
IoniMethod: _ENERGY 50 eV
IonPolarity: pos
Date: 2010-10-09 19:48:36+02:00
Num Peaks: 31
26 37 27 87 28 110 29 1 30 13 38 18 39 51 40 4 41 92 42 141 
43 60 50 3 51 57 52 66 53 94 54 13 55 69 56 38 66 30 67 3 
68 121 69 16 80 11 81 17 82 11 93 7 94 14 95 70 96 999 97 64 
98 3 
