Name: ACETIC ACID 3-METHOXY-3-METHYLBUTYL ESTER
MW: 160
Formula: C8H16O3
Synonym: MassBank: JP008047
Synonym: ACETIC ACID 3-METHOXY-3-METHYLBUTYL ESTER
Structure: 414345544943204143494420332D4D4554484F58592D332D4D455448594C425554594C2045535445522E6D6F6C0A20204368656D447261773036323431303133343432440A2031312031302020302020302020302020302020302020302020302020303939392056323030300A20202020312E363930352020202D302E3035353320202020302E303030302043202020302020302020302020302020302020302020302020302020302020302020302020300A20202020322E343034392020202D302E3436373820202020302E303030302043202020302020302020302020302020302020302020302020302020302020302020302020300A20202020312E3639303520202020302E3736393720202020302E30303030204F202020302020302020302020302020302020302020302020302020302020302020302020300A20202020302E393736302020202D302E3436373820202020302E30303030204F202020302020302020302020302020302020302020302020302020302020302020302020300A20202020302E323631352020202D302E3035353320202020302E303030302043202020302020302020302020302020302020302020302020302020302020302020302020300A2020202D302E343533302020202D302E3436373820202020302E303030302043202020302020302020302020302020302020302020302020302020302020302020302020300A2020202D312E313637342020202D302E3035353320202020302E303030302043202020302020302020302020302020302020302020302020302020302020302020302020300A2020202D302E3735343920202020302E3635393220202020302E303030302043202020302020302020302020302020302020302020302020302020302020302020302020300A2020202D312E3838313920202020302E3335373220202020302E303030302043202020302020302020302020302020302020302020302020302020302020302020302020300A2020202D312E353739392020202D302E3736393720202020302E30303030204F202020302020302020302020302020302020302020302020302020302020302020302020300A2020202D322E343034392020202D302E3736393720202020302E303030302043202020302020302020302020302020302020302020302020302020302020302020302020300A2020312020322020312020302020202020200A2020312020332020322020302020202020200A2020312020342020312020302020202020200A2020352020362020312020302020202020200A2020362020372020312020302020202020200A2020372020382020312020302020202020200A2020372020392020312020302020202020200A2031302031312020312020302020202020200A2020372031302020312020302020202020200A2020342020352020312020302020202020200A4D2020454E44
Contributor: YAMAMOTO M, DEP. CHEMISTRY, FAC. SCIENCE, NARA WOMEN'S UNIV.
InstType: EI
InstName: HITACHI RMU-6M
IoniMethod: _ENERGY 20 eV
IonPolarity: pos
Date: 2010-10-09 19:48:36+02:00
Num Peaks: 12
41 31 43 91 45 16 55 50 68 19 69 149 70 23 71 11 73 999 74 48 
85 339 86 29 
