Name: 3-METHYLTETRAHYDROFURAN
MW: 86
Formula: C5H10O
Synonym: MassBank: JP009977
Synonym: 3-METHYLTETRAHYDROFURAN
Structure: 310A31370A332D4D455448594C5445545241485944524F465552414E2E6D6F6C0A20204368656D447261773033323031303137333032440A2020362020362020302020302020302020302020302020302020302020303939392056323030300A20202020312E3034373320202020302E3431323520202020302E30303030204F202020302020302020302020302020302020302020302020302020302020302020302020300A20202020302E3236323720202020302E3636373420202020302E303030302043202020302020302020302020302020302020302020302020302020302020302020302020300A2020202D302E3232323320202020302E3030303020202020302E303030302043202020302020302020302020302020302020302020302020302020302020302020302020300A20202020302E323632372020202D302E3636373420202020302E303030302043202020302020302020302020302020302020302020302020302020302020302020302020300A20202020312E303437332020202D302E3431323520202020302E303030302043202020302020302020302020302020302020302020302020302020302020302020302020300A2020202D312E3034373320202020302E3030303020202020302E303030302043202020302020302020302020302020302020302020302020302020302020302020302020300A2020312020322020312020302020202020200A2020322020332020312020302020202020200A2020332020342020312020302020202020200A2020342020352020312020302020202020200A2020312020352020312020302020202020200A2020332020362020312020302020202020200A4D2020454E44
Contributor: KURARAY CO., LTD.
InstType: EI
InstName: JEOL JMS-D-300
IoniMethod: _ENERGY 70 eV
IonPolarity: pos
Date: 2010-10-09 19:48:36+02:00
Num Peaks: 14
27 97 28 32 29 143 39 11 41 584 42 49 43 39 44 6 55 136 56 999 
57 101 71 7 85 56 86 251 
