Name: MassBank: JP004427
MW: 288
Formula: C15H16N2O4
Synonym: MassBank: JP004427
Synonym: ETHYL 2-METHYL-4-NITRO-1,7-TRIMETHYLENEINDOLE-3-CARBOXYLATE
Structure: 455448594C20322D4D455448594C2D342D4E4954524F2D312C372D5452494D455448594C454E45494E444F4C452D332D434152424F58594C4154452E6D6F6C0A20204368656D447261773038313131303138303832440A2032312032332020302020302020302020302020302020302020302020303939392056323030300A2020202D302E3030353320202020302E3736373920202020302E30303030204E202020302020302020302020302020302020302020302020302020302020302020302020300A20202020302E3437393620202020302E3130303520202020302E303030302043202020302020302020302020302020302020302020302020302020302020302020302020300A2020202D302E303137392020202D302E3537333920202020302E303030302043202020302020302020302020302020302020302020302020302020302020302020302020300A2020202D302E373839392020202D302E3331323020202020302E303030302043202020302020302020302020302020302020302020302020302020302020302020302020300A2020202D312E353034342020202D302E3732343520202020302E303030302043202020302020302020302020302020302020302020302020302020302020302020302020300A2020202D322E323138392020202D302E3331323020202020302E303030302043202020302020302020302020302020302020302020302020302020302020302020302020300A2020202D322E3231383920202020302E3531333020202020302E303030302043202020302020302020302020302020302020302020302020302020302020302020302020300A2020202D312E3530343420202020302E3932353520202020302E303030302043202020302020302020302020302020302020302020302020302020302020302020302020300A2020202D302E3738393920202020302E3531333020202020302E303030302043202020302020302020302020302020302020302020302020302020302020302020302020300A20202020302E333934362020202D312E3238383420202020302E303030302043202020302020302020302020302020302020302020302020302020302020302020302020300A2020202D302E303931322020202D312E3937313220202020302E30303030204F202020302020302020302020302020302020302020302020302020302020302020302020300A20202020312E323037302020202D312E3238383420202020302E30303030204F202020302020302020302020302020302020302020302020302020302020302020302020300A20202020302E3034383720202020312E3539313120202020302E303030302043202020302020302020302020302020302020302020302020302020302020302020302020300A2020202D302E3632353120202020322E3036373320202020302E303030302043202020302020302020302020302020302020302020302020302020302020302020302020300A2020202D312E3338333120202020312E3734313620202020302E303030302043202020302020302020302020302020302020302020302020302020302020302020302020300A2020202D312E363437362020202D312E3533373020202020302E30303030204E202020302020332020302020302020302020302020302020302020302020302020302020300A2020202D322E343434352020202D312E3735303520202020302E30303030204F202020302020302020302020302020302020302020302020302020302020302020302020300A2020202D312E303135372020202D322E3036373320202020302E30303030204F202020302020352020302020302020302020302020302020302020302020302020302020300A20202020312E3330343620202020302E3130303520202020302E303030302043202020302020302020302020302020302020302020302020302020302020302020302020300A20202020312E363232362020202D322E3030383120202020302E303030302043202020302020302020302020302020302020302020302020302020302020302020302020300A20202020322E343434352020202D322E3030383120202020302E303030302043202020302020302020302020302020302020302020302020302020302020302020302020300A2020312020322020312020302020202020200A2020322020332020322020302020202020200A2020332020342020312020302020202020200A2020342020352020312020302020202020200A2020352020362020322020302020202020200A2020362020372020312020302020202020200A2020372020382020322020302020202020200A2020382020392020312020302020202020200A2020312020392020312020302020202020200A2020342020392020322020302020202020200A2031302031312020322020302020202020200A2031302031322020312020302020202020200A2020332031302020312020302020202020200A2031332031342020312020302020202020200A2031342031352020312020302020202020200A2020312031332020312020302020202020200A2020382031352020312020302020202020200A2031362031372020322020302020202020200A2031362031382020312020302020202020200A2020352031362020312020302020202020200A2020322031392020312020302020202020200A2032302032312020312020302020202020200A2031322032302020312020302020202020200A4D202043484720203220203136202020312020313820202D310A4D2020454E44
Contributor: SASAKI S, TOYOHASHI UNIV. OF TECH.
InstType: EI
InstName: MX-1303
IoniMethod: _ENERGY 50 eV
IonPolarity: pos
Date: 2010-10-09 19:48:36+02:00
Num Peaks: 147
40 13 41 440 42 160 43 64 44 245 45 160 50 17 51 6 52 20 53 37 
54 55 55 45 56 120 57 63 58 15 60 9 61 20 62 10 63 48 64 1 
65 48 66 20 67 140 68 9 69 427 70 92 71 83 73 10 74 18 75 32 
76 28 77 14 78 37 79 45 80 25 81 3 82 100 83 215 835 12 84 10 
85 112 85.5 13 86 10 87 3 88 32 89 60 90 20 91 5 92 15 93 33 
94 17 95 10 96 85 97 135 98 78 99 3 100 12 101 42 102 83 103 14 
104 37 105 35 106 12 107 2 109 37 110 32 111 60 112 2 113 35 114 63 
115 255 116 10 117 62 118 20 119 15 121 2 123 33 124 17 125 28 126 2 
127 88 128 135 129 185 131 3 135 15 137 25 138 13 139 4 140 110 141 113 
142 345 143 18 144 47 145 20 147 10 149 2 151 10 152 23 153 33 154 21 
155 230 156 295 157 65 158 6 159 13 165 12 166 38 167 14 168 315 169 667 
170 840 171 28 172 43 181 15 182 27 183 6 184 215 185 357 186 180 187 2 
196 43 197 365 198 600 199 22 200 25 203 25 204 22 211 2 212 175 213 75 
214 305 215 8 216 395 217 26 226 20 227 1 236 13 241 23 242 960 243 89 
244 88 257 28 258 40 259 1 287 17 288 999 289 170 
