Name: ALLANTOIN
MW: 158
Formula: C4H6N4O3
Synonym: MassBank: JP008299
Synonym: ALLANTOIN
Structure: 414C4C414E544F494E2E6D6F6C0A20204368656D447261773036323431303139343732440A2031312031312020302020302020302020302020302020302020302020303939392056323030300A2020202D322E313334382020202D302E3238383720202020302E30303030204F202020302020302020302020302020302020302020302020302020302020302020302020300A2020202D312E333134332020202D302E3230323520202020302E303030302043202020302020302020302020302020302020302020302020302020302020302020302020300A2020202D302E3930313820202020302E3531323020202020302E30303030204E202020302020302020302020302020302020302020302020302020302020302020302020300A2020202D302E373632332020202D302E3831353620202020302E30303030204E202020302020302020302020302020302020302020302020302020302020302020302020300A2020202D302E303038362020202D302E3438303020202020302E303030302043202020302020302020302020302020302020302020302020302020302020302020302020300A20202020302E373035392020202D302E3839323520202020302E30303030204E202020302020302020302020302020302020302020302020302020302020302020302020300A20202020312E343230332020202D302E3438303020202020302E303030302043202020302020302020302020302020302020302020302020302020302020302020302020300A20202020322E313334382020202D302E3839323520202020302E30303030204E202020302020302020302020302020302020302020302020302020302020302020302020300A20202020312E3432303320202020302E3334353020202020302E30303030204F202020302020302020302020302020302020302020302020302020302020302020302020300A2020202D302E3039343820202020302E3334303520202020302E303030302043202020302020302020302020302020302020302020302020302020302020302020302020300A20202020302E3531383220202020302E3839323520202020302E30303030204F202020302020302020302020302020302020302020302020302020302020302020302020300A2020312020322020322020302020202020200A2020322020332020312020302020202020200A2020322020342020312020302020202020200A2020342020352020312020302020202020200A2020352020362020312020302020202020200A2020362020372020312020302020202020200A2020372020382020312020302020202020200A2020372020392020322020302020202020200A2020352031302020312020302020202020200A2020332031302020312020302020202020200A2031302031312020322020302020202020200A4D2020454E44
Contributor: UBE SCIENTIFIC ANALYSIS LABORATORY
InstType: EI
InstName: HITACHI M-60
IoniMethod: _ENERGY 70 eV
IonPolarity: pos
Date: 2010-10-09 19:48:36+02:00
Num Peaks: 32
16 132 17 470 27 41 29 135 30 45 41 12 42 78 43 358 44 999 45 72 
55 37 56 10 57 10 60 295 70 64 71 24 72 15 73 12 74 14 87 298 
88 14 98 17 99 14 100 30 113 13 114 47 115 99 130 260 131 9 140 10 
141 34 158 18 
