Name: ACRYLIC ACID 2-HYDROXYETHYL ESTER
CAS: 818-61-1
MW: 116
Formula: C5H8O3
Synonym: MassBank: JP007333
Synonym: ACRYLIC ACID 2-HYDROXYETHYL ESTER
Synonym: 2-PROPENOIC ACID 2-HYDROXYETHYL ESTER
Structure: 310A32300A414352594C4943204143494420322D485944524F5859455448594C2045535445522E6D6F6C0A20204368656D447261773032323131303134343932440A2020382020372020302020302020302020302020302020302020302020303939392056323030300A2020202D302E363138372020202D302E3030303020202020302E303030302043202020302020302020302020302020302020302020302020302020302020302020302020300A2020202D312E343433372020202D302E3030303020202020302E303030302043202020302020302020302020302020302020302020302020302020302020302020302020300A2020202D312E383536332020202D302E3731343520202020302E303030302043202020302020302020302020302020302020302020302020302020302020302020302020300A2020202D302E3230363220202020302E3731343520202020302E30303030204F202020302020302020302020302020302020302020302020302020302020302020302020300A2020202D302E323036322020202D302E3731343520202020302E30303030204F202020302020302020302020302020302020302020302020302020302020302020302020300A20202020302E363138382020202D302E3731343520202020302E303030302043202020302020302020302020302020302020302020302020302020302020302020302020300A20202020312E3033313320202020302E3030303020202020302E303030302043202020302020302020302020302020302020302020302020302020302020302020302020300A20202020312E3835363320202020302E3030303020202020302E30303030204F202020302020302020302020302020302020302020302020302020302020302020302020300A2020312020322020312020302020202020200A2020322020332020322020302020202020200A2020312020342020322020302020202020200A2020312020352020312020302020202020200A2020362020372020312020302020202020200A2020372020382020312020302020202020200A2020352020362020312020302020202020200A4D2020454E44
Contributor: YAMAMOTO M, DEP. CHEMISTRY, FAC. SCIENCE, NARA WOMEN'S UNIV.
InstType: EI
InstName: HITACHI RMU-6M
IoniMethod: _ENERGY 70 eV
IonPolarity: pos
Date: 2010-10-09 19:48:36+02:00
Num Peaks: 17
15 25 26 47 27 331 28 26 29 49 31 93 42 14 43 45 44 67 45 48 
55 999 56 42 57 11 58 46 73 170 85 77 86 149 
