Name: DODECANEDIOIC ACID BIS(TRIMETHYLSILYL) EST
MW: 374
Formula: C18H38O4Si2
Synonym: MassBank: JP001060
Synonym: DODECANEDIOIC ACID BIS(TRIMETHYLSILYL) EST
Synonym: ERDI(TRIMETHYLSILYL) DODECANEDIOATE
Structure: 303230345F444F444543414E4544494F4943204143494420424953285452494D455448594C53494C594C29204553542E6D6F6C0A20204368656D447261773039303631303134343332440A2032342032332020302020302020302020302020302020302020302020303939392056323030300A20202020322E333233392020202D312E3338313120202020302E303030302043202020302020302020302020302020302020302020302020302020302020302020302020300A20202020312E363039352020202D302E3936383620202020302E303030302043202020302020302020302020302020302020302020302020302020302020302020302020300A2020202D302E3836353420202020322E3631383520202020302E303030302043202020302020302020302020302020302020302020302020302020302020302020302020300A2020202D312E3639303420202020322E3631383520202020302E303030302043202020302020302020302020302020302020302020302020302020302020302020302020300A20202020332E303338342020202D302E3936383620202020302E30303030204F202020302020302020302020302020302020302020302020302020302020302020302020300A20202020322E333233392020202D322E3230363120202020302E30303030204F202020302020302020302020302020302020302020302020302020302020302020302020300A2020202D322E3130323920202020332E3333323920202020302E30303030204F202020302020302020302020302020302020302020302020302020302020302020302020300A2020202D322E3130323920202020312E3930343020202020302E30303030204F202020302020302020302020302020302020302020302020302020302020302020302020300A20202020332E303338342020202D322E3631383620202020302E303030302053692020302020302020302020302020302020302020302020302020302020302020302020300A20202020322E363235392020202D332E3333333020202020302E303030302043202020302020302020302020302020302020302020302020302020302020302020302020300A20202020332E343530392020202D312E3930343120202020302E303030302043202020302020302020302020302020302020302020302020302020302020302020302020300A20202020332E373532392020202D332E3033313120202020302E303030302043202020302020302020302020302020302020302020302020302020302020302020302020300A2020202D322E3932373920202020312E3930343020202020302E303030302053692020302020302020302020302020302020302020302020302020302020302020302020300A2020202D322E3932373920202020312E3037393020202020302E303030302043202020302020302020302020302020302020302020302020302020302020302020302020300A2020202D332E3735323920202020312E3930343020202020302E303030302043202020302020302020302020302020302020302020302020302020302020302020302020300A2020202D322E3932373920202020322E3732393020202020302E303030302043202020302020302020302020302020302020302020302020302020302020302020302020300A2020202D302E3435323920202020332E3333333020202020302E303030302043202020302020302020302020302020302020302020302020302020302020302020302020300A20202020302E3337323120202020332E3333333020202020302E303030302043202020302020302020302020302020302020302020302020302020302020302020302020300A20202020302E3738343620202020322E3631383520202020302E303030302043202020302020302020302020302020302020302020302020302020302020302020302020300A20202020302E3337323120202020312E3930343120202020302E303030302043202020302020302020302020302020302020302020302020302020302020302020302020300A20202020302E3738343620202020312E3138393620202020302E303030302043202020302020302020302020302020302020302020302020302020302020302020302020300A20202020312E3630393620202020312E3138393620202020302E303030302043202020302020302020302020302020302020302020302020302020302020302020302020300A20202020322E3032323120202020302E3437353120202020302E303030302043202020302020302020302020302020302020302020302020302020302020302020302020300A20202020312E363039362020202D302E3233393320202020302E303030302043202020302020302020302020302020302020302020302020302020302020302020302020300A2020312020322020312020302020202020200A2020332020342020312020302020202020200A2020312020352020322020302020202020200A2020312020362020312020302020202020200A2020342020372020322020302020202020200A2020342020382020312020302020202020200A2020392031302020312020302020202020200A2020392031312020312020302020202020200A2020392031322020312020302020202020200A2020362020392020312020302020202020200A2031332031342020312020302020202020200A2031332031352020312020302020202020200A2031332031362020312020302020202020200A2020382031332020312020302020202020200A2020332031372020312020302020202020200A2031372031382020312020302020202020200A2031382031392020312020302020202020200A2031392032302020312020302020202020200A2032302032312020312020302020202020200A2032312032322020312020302020202020200A2032322032332020312020302020202020200A2032332032342020312020302020202020200A2032342020322020312020302020202020200A4D2020454E44
Contributor: KOGA M, UNIV. OF OCCUPATIONAL AND ENVIRONMENTAL HEALTH
InstType: EI
InstName: JEOL JMS-01-SG
IoniMethod: _ENERGY 70 eV
IonPolarity: pos
Date: 2010-10-09 19:48:36+02:00
Num Peaks: 17
45 125 55 311 67 109 73 999 74 105 75 853 81 132 83 16 117 267 129 233 
147 146 149 19 204 107 217 160 243 135 359 26 360 70 
