Name: 6-METHYL-5-OCTEN-2-ONE
MW: 140
Formula: C9H16O
Synonym: MassBank: JP008404
Synonym: 6-METHYL-5-OCTEN-2-ONE
Structure: 362D4D455448594C2D352D4F4354454E2D322D4F4E452E6D6F6C0A20204368656D447261773035313931303132343332440A2031302020392020302020302020302020302020302020302020302020303939392056323030300A20202020322E313433342020202D302E3230363220202020302E303030302043202020302020302020302020302020302020302020302020302020302020302020302020300A20202020312E3432383920202020302E3230363320202020302E303030302043202020302020302020302020302020302020302020302020302020302020302020302020300A20202020302E373134352020202D302E3230363220202020302E303030302043202020302020302020302020302020302020302020302020302020302020302020302020300A2020202D302E3030303020202020302E3230363320202020302E303030302043202020302020302020302020302020302020302020302020302020302020302020302020300A2020202D302E373134352020202D302E3230363220202020302E303030302043202020302020302020302020302020302020302020302020302020302020302020302020300A2020202D312E3432383920202020302E3230363320202020302E303030302043202020302020302020302020302020302020302020302020302020302020302020302020300A2020202D322E313433342020202D302E3230363320202020302E303030302043202020302020302020302020302020302020302020302020302020302020302020302020300A2020202D322E313433342020202D312E3033313320202020302E303030302043202020302020302020302020302020302020302020302020302020302020302020302020300A20202020312E3432383920202020312E3033313320202020302E30303030204F202020302020302020302020302020302020302020302020302020302020302020302020300A2020202D312E3432383920202020312E3033313220202020302E303030302043202020302020302020302020302020302020302020302020302020302020302020302020300A2020312020322020312020302020202020200A2020322020332020312020302020202020200A2020332020342020312020302020202020200A2020342020352020312020302020202020200A2020352020362020322020302020202020200A2020362020372020312020302020202020200A2020372020382020312020302020202020200A2020322020392020322020302020202020200A2020362031302020312020302020202020200A4D2020454E44
Contributor: SODA AROMATIC CO., LTD.
InstType: EI
InstName: HITACHI M-80B
IoniMethod: _ENERGY 70 eV
IonPolarity: pos
Date: 2010-10-09 19:48:36+02:00
Num Peaks: 37
15 59 26 10 27 160 29 111 39 187 40 19 41 332 42 42 43 999 44 20 
45 12 51 23 52 13 53 83 54 27 55 599 56 34 57 17 58 53 65 18 
67 340 68 23 69 46 70 69 71 82 77 16 79 21 81 68 82 385 83 89 
93 21 97 21 107 24 111 88 122 107 125 14 140 17 
