Name: MassBank: JP005343
MW: 294
Formula: C19H34O2
Synonym: MassBank: JP005343
Synonym: (Z,Z)-9,12-OCTADECADIENOIC ACID METHYL ESTER
Synonym: METHYL LINOLEATE
Structure: 285A2C5A292D392C31322D4F435441444543414449454E4F49432041434944204D455448594C2045535445522E6D6F6C0A20204368656D447261773130323230393232303832440A2032352032342020302020302020302020302020302020302020302020303939392056323030300A20202020302E333537322020202D322E3838373520202020302E303030302043202020302020302020302020302020302020302020302020302020302020302020302020300A2020202D302E333537322020202D322E3437353020202020302E303030302043202020302020302020302020302020302020302020302020302020302020302020302020300A2020202D302E333537322020202D312E3635303020202020302E303030302043202020302020302020302020302020302020302020302020302020302020302020302020300A2020202D312E303731362020202D322E3838373520202020302E303030302048202020302020302020302020302020302020302020302020302020302020302020302020300A20202020302E333537322020202D332E3731323520202020302E303030302048202020302020302020302020302020302020302020302020302020302020302020302020300A20202020312E303731372020202D322E3437353020202020302E303030302043202020302020302020302020302020302020302020302020302020302020302020302020300A20202020312E373836322020202D322E3838373520202020302E303030302043202020302020302020302020302020302020302020302020302020302020302020302020300A20202020312E373836322020202D332E3731323520202020302E303030302048202020302020302020302020302020302020302020302020302020302020302020302020300A20202020322E353030362020202D322E3437353020202020302E303030302043202020302020302020302020302020302020302020302020302020302020302020302020300A20202020332E323135302020202D322E3838373520202020302E303030302048202020302020302020302020302020302020302020302020302020302020302020302020300A20202020322E353030362020202D312E3635303020202020302E303030302043202020302020302020302020302020302020302020302020302020302020302020302020300A2020202D312E303731362020202D312E3233373520202020302E303030302043202020302020302020302020302020302020302020302020302020302020302020302020300A20202020332E323135302020202D312E3233373520202020302E303030302043202020302020302020302020302020302020302020302020302020302020302020302020300A20202020332E323135302020202D302E3431323520202020302E303030302043202020302020302020302020302020302020302020302020302020302020302020302020300A20202020332E3932393520202020302E3030303020202020302E303030302043202020302020302020302020302020302020302020302020302020302020302020302020300A20202020332E3932393520202020302E3832353020202020302E303030302043202020302020302020302020302020302020302020302020302020302020302020302020300A2020202D312E303731362020202D302E3431323520202020302E303030302043202020302020302020302020302020302020302020302020302020302020302020302020300A2020202D312E3738363120202020302E3030303020202020302E303030302043202020302020302020302020302020302020302020302020302020302020302020302020300A2020202D312E3738363120202020302E3832353020202020302E303030302043202020302020302020302020302020302020302020302020302020302020302020302020300A2020202D322E3530303520202020312E3233373520202020302E303030302043202020302020302020302020302020302020302020302020302020302020302020302020300A2020202D322E3530303520202020322E3036323520202020302E303030302043202020302020302020302020302020302020302020302020302020302020302020302020300A2020202D332E3231353020202020322E3437353020202020302E303030302043202020302020302020302020302020302020302020302020302020302020302020302020300A2020202D332E3231353020202020332E3330303020202020302E30303030204F202020302020302020302020302020302020302020302020302020302020302020302020300A2020202D332E3932393520202020322E3036323520202020302E30303030204F202020302020302020302020302020302020302020302020302020302020302020302020300A2020202D332E3932393520202020332E3731323520202020302E303030302043202020302020302020302020302020302020302020302020302020302020302020302020300A2020312020322020322020302020202020200A2020322020332020312020302020202020200A2020322020342020312020302020202020200A2020312020352020312020302020202020200A2020312020362020312020302020202020200A2020362020372020312020302020202020200A2020372020382020312020302020202020200A2020372020392020322020302020202020200A2020392031302020312020302020202020200A2020392031312020312020302020202020200A2020332031322020312020302020202020200A2031312031332020312020302020202020200A2031332031342020312020302020202020200A2031342031352020312020302020202020200A2031352031362020312020302020202020200A2031372031322020312020302020202020200A2031382031372020312020302020202020200A2031392031382020312020302020202020200A2032302031392020312020302020202020200A2032312032302020312020302020202020200A2032322032312020312020302020202020200A2032322032332020312020302020202020200A2032322032342020322020302020202020200A2032332032352020312020302020202020200A4D2020454E44
Contributor: YAMAOKA R, KYOTO INSTITUTE OF TECHNOLOGY
InstType: EI
InstName: HITACHI M-80B
IoniMethod: _ENERGY 20 eV
IonPolarity: pos
Date: 2010-10-09 19:48:36+02:00
Num Peaks: 59
40 28 41 50 54 249 55 296 57 63 59 22 67 809 68 492 69 219 71 43 
74 38 79 169 80 173 81 999 82 508 83 237 85 26 87 33 93 70 94 112 
95 468 96 306 97 100 98 18 99 14 107 99 108 113 109 262 110 201 111 25 
115 30 121 46 122 87 123 146 124 78 125 23 131 39 133 40 134 11 135 48 
136 88 138 62 139 12 140 10 141 29 149 89 150 122 151 70 152 38 163 18 
164 59 165 28 177 21 178 44 179 14 262 72 263 46 294 131 295 16 
