Name: MassBank: JP008914
MW: 144
Formula: C8H20N2
Synonym: MassBank: JP008914
Synonym: N,N,N',N'-TETRAMETHYL-1,3-DIAMINOBUTANE
Structure: 4E2C4E2C4E272C4E272D54455452414D455448594C2D312C332D4449414D494E4F425554414E452E6D6F6C0A20204368656D447261773038313231303032343232440A2031302020392020302020302020302020302020302020302020302020303939392056323030300A2020202D302E3731343520202020302E3230363320202020302E303030302043202020302020302020302020302020302020302020302020302020302020302020302020300A20202020302E303030302020202D302E3230363320202020302E303030302043202020302020302020302020302020302020302020302020302020302020302020302020300A20202020302E3731343520202020302E3230363320202020302E303030302043202020302020302020302020302020302020302020302020302020302020302020302020300A20202020302E3731343520202020312E3033313320202020302E303030302043202020302020302020302020302020302020302020302020302020302020302020302020300A20202020312E343238392020202D302E3230363220202020302E30303030204E202020302020302020302020302020302020302020302020302020302020302020302020300A2020202D312E343238392020202D302E3230363320202020302E30303030204E202020302020302020302020302020302020302020302020302020302020302020302020300A2020202D312E343238392020202D312E3033313320202020302E303030302043202020302020302020302020302020302020302020302020302020302020302020302020300A2020202D322E3134333420202020302E3230363220202020302E303030302043202020302020302020302020302020302020302020302020302020302020302020302020300A20202020322E3134333420202020302E3230363320202020302E303030302043202020302020302020302020302020302020302020302020302020302020302020302020300A20202020312E343238392020202D312E3033313220202020302E303030302043202020302020302020302020302020302020302020302020302020302020302020302020300A2020312020322020312020302020202020200A2020322020332020312020302020202020200A2020332020342020312020302020202020200A2020332020352020312020302020202020200A2020312020362020312020302020202020200A2020362020372020312020302020202020200A2020362020382020312020302020202020200A2020352020392020312020302020202020200A2020352031302020312020302020202020200A4D2020454E44
Contributor: YAMAMOTO M, DEP. CHEMISTRY, FAC. SCIENCE, NARA WOMEN'S UNIV.
InstType: EI
InstName: HITACHI RMU-6M
IoniMethod: _ENERGY 70 eV
IonPolarity: pos
Date: 2010-10-09 19:48:36+02:00
Num Peaks: 28
15 61 27 36 28 43 29 5 30 68 39 25 41 36 42 27 43 65 44 140 
45 31 55 4 56 128 57 86 58 898 59 4 68 16 70 83 71 104 72 999 
73 54 84 518 85 41 86 4 98 72 99 423 100 32 144 58 
