Name: 5-BETA-ANDROSTANE
CAS: 438-23-3
MW: 260
Formula: C19H32
Synonym: MassBank: JP004645
Synonym: 5-BETA-ANDROSTANE
Structure: 352D424554412D414E44524F5354414E452E6D6F6C0A20204368656D447261773034323331303034323332440A2032332032362020302020302020302020302020302020302020302020303939392056323030300A2020202D322E343230392020202D312E3033313320202020302E303030302043202020302020302020302020302020302020302020302020302020302020302020302020300A2020202D322E343230392020202D302E3230363220202020302E303030302043202020302020302020302020302020302020302020302020302020302020302020302020300A2020202D312E3730363520202020302E3230363320202020302E303030302043202020302020302020302020302020302020302020302020302020302020302020302020300A2020202D312E373036352020202D312E3434333820202020302E303030302043202020302020302020302020302020302020302020302020302020302020302020302020300A2020202D302E393932302020202D312E3033313320202020302E303030302043202020302020302020302020302020302020302020302020302020302020302020302020300A2020202D302E323737352020202D312E3434333820202020302E303030302043202020302020302020302020302020302020302020302020302020302020302020302020300A20202020302E343336392020202D312E3033313320202020302E303030302043202020302020302020302020302020302020302020302020302020302020302020302020300A20202020302E343336392020202D302E3230363220202020302E303030302043202020302020302020302020302020302020302020302020302020302020302020302020300A20202020312E3135313420202020302E3230363320202020302E303030302043202020302020302020302020302020302020302020302020302020302020302020302020300A20202020312E393336302020202D302E3034383720202020302E303030302043202020302020302020302020302020302020302020302020302020302020302020302020300A20202020322E3432303920202020302E3631383820202020302E303030302043202020302020302020302020302020302020302020302020302020302020302020302020300A20202020312E3933363020202020312E3238363220202020302E303030302043202020302020302020302020302020302020302020302020302020302020302020302020300A20202020312E3135313420202020312E3033313320202020302E303030302043202020302020302020302020302020302020302020302020302020302020302020302020300A20202020312E3135313420202020312E3835363320202020302E303030302043202020302020302020302020302020302020302020302020302020302020302020302020300A20202020302E3433363920202020312E3434333820202020302E303030302043202020302020302020302020302020302020302020302020302020302020302020302020300A2020202D302E3237373520202020312E3033313320202020302E303030302043202020302020302020302020302020302020302020302020302020302020302020302020300A2020202D302E3237373520202020302E3230363220202020302E303030302043202020302020302020302020302020302020302020302020302020302020302020302020300A2020202D302E393932302020202D302E3230363220202020302E303030302043202020302020302020302020302020302020302020302020302020302020302020302020300A2020202D302E3939323020202020302E3631383820202020302E303030302043202020302020302020302020302020302020302020302020302020302020302020302020300A2020202D302E393932302020202D312E3835363320202020302E303030302048202020302020302020302020302020302020302020302020302020302020302020302020300A2020202D302E323737352020202D302E3631383820202020302E303030302048202020302020302020302020302020302020302020302020302020302020302020302020300A20202020302E3433363920202020302E3631383820202020302E303030302048202020302020302020302020302020302020302020302020302020302020302020302020300A20202020312E313531342020202D302E3631383720202020302E303030302048202020302020302020302020302020302020302020302020302020302020302020302020300A2020312020322020312020302020202020200A2020322020332020312020302020202020200A2020312020342020312020302020202020200A2020342020352020312020302020202020200A2020352020362020312020302020202020200A2020362020372020312020302020202020200A2020372020382020312020302020202020200A2020382020392020312020302020202020200A2020392031302020312020302020202020200A2031302031312020312020302020202020200A2031312031322020312020302020202020200A2031322031332020312020302020202020200A2020392031332020312020302020202020200A2031332031342020312020312020202020200A2031332031352020312020302020202020200A2031352031362020312020302020202020200A2031362031372020312020302020202020200A2020382031372020312020302020202020200A2031372031382020312020302020202020200A2020332031382020312020302020202020200A2020352031382020312020302020202020200A2031382031392020312020312020202020200A2020352032302020312020312020202020200A2031372032312020312020362020202020200A2020382032322020312020312020202020200A2020392032332020312020362020202020200A4D2020454E44
Contributor: YAMAMOTO M, DEP. CHEMISTRY, FAC. SCIENCE, NARA WOMEN'S UNIV.
InstType: EI
InstName: HITACHI RMU-6M
IoniMethod: _ENERGY 70 eV
IonPolarity: pos
Date: 2010-10-09 19:48:36+02:00
Num Peaks: 81
27 26 29 90 39 61 40 12 41 282 42 21 43 59 53 85 54 38 55 307 
56 25 57 20 65 37 66 20 67 374 68 70 69 101 77 88 78 20 79 212 
80 57 81 433 82 67 83 78 91 108 92 23 93 205 94 147 95 516 96 176 
97 45 105 65 106 26 107 232 108 156 109 242 110 52 111 28 117 15 119 38 
120 25 121 212 122 82 123 86 124 15 133 57 134 35 135 401 136 98 137 58 
147 65 148 121 149 258 150 127 151 62 161 81 162 45 163 125 164 71 165 33 
175 136 176 55 177 31 178 22 189 101 190 45 203 403 204 236 205 39 217 110 
218 85 219 20 231 35 232 35 244 13 245 999 246 206 247 20 260 817 261 174 
262 16 
