Name: MassBank: JP004742
MW: 159
Formula: C6H17NSi2
Synonym: MassBank: JP004742
Synonym: 2,2,5,5-TETRAMETHYL-2,5-DISILAPYRROLIDINE
Structure: 310A32330A322C322C352C352D54455452414D455448594C2D322C352D444953494C41505952524F4C4944494E452E6D6F6C0A20204368656D447261773132313930393134343932440A2020392020392020302020302020302020302020302020302020302020303939392056323030300A20202020302E3030303020202020302E3532303020202020302E30303030204E202020302020302020302020302020302020302020302020302020302020302020302020300A20202020302E3636373420202020302E3033353120202020302E303030302053692020302020302020302020302020302020302020302020302020302020302020302020300A20202020302E343132352020202D302E3734393520202020302E303030302043202020302020302020302020302020302020302020302020302020302020302020302020300A2020202D302E343132352020202D302E3734393520202020302E303030302043202020302020302020302020302020302020302020302020302020302020302020302020300A2020202D302E3636373420202020302E3033353120202020302E303030302053692020302020302020302020302020302020302020302020302020302020302020302020300A2020202D312E343231312020202D302E3330303520202020302E303030302043202020302020302020302020302020302020302020302020302020302020302020302020300A2020202D312E3037393920202020302E3734393520202020302E303030302043202020302020302020302020302020302020302020302020302020302020302020302020300A20202020312E3037393920202020302E3734393520202020302E303030302043202020302020302020302020302020302020302020302020302020302020302020302020300A20202020312E343231312020202D302E3330303520202020302E303030302043202020302020302020302020302020302020302020302020302020302020302020302020300A2020312020322020312020302020202020200A2020322020332020312020302020202020200A2020332020342020312020302020202020200A2020342020352020312020302020202020200A2020312020352020312020302020202020200A2020352020362020312020362020202020200A2020352020372020312020312020202020200A2020322020382020312020362020202020200A2020322020392020312020312020202020200A4D2020454E44
Contributor: MASS SPECTROSCOPY SOC. OF JAPAN (MSSJ)
InstType: EI
InstName: JEOL JMS-D-3000
IoniMethod: _ENERGY 70 eV
IonPolarity: pos
Date: 2010-10-09 19:48:36+02:00
Num Peaks: 24
45 36 51 26 52 29 57 35 59 70 64 73 66 32 70 30 72 24 73 131 
74 23 86 25 100 98 102 24 116 268 117 131 118 42 130 36 132 22 144 999 
145 258 146 96 159 63 160 27 
