Name: 2-METHYL-1-PENTANOL
MW: 102
Formula: C6H14O
Synonym: MassBank: JP005677
Synonym: 2-METHYL-1-PENTANOL
Structure: 310A31380A322D4D455448594C2D312D50454E54414E4F4C2E6D6F6C0A20204368656D447261773031323231303032353632440A2020372020362020302020302020302020302020302020302020302020303939392056323030300A2020202D312E303331332020202D302E3030303020202020302E303030302043202020302020302020302020302020302020302020302020302020302020302020302020300A2020202D302E323036322020202D302E3030303020202020302E303030302043202020302020302020302020302020302020302020302020302020302020302020302020300A20202020302E323036332020202D302E3731343520202020302E303030302043202020302020302020302020302020302020302020302020302020302020302020302020300A20202020312E303331332020202D302E3731343520202020302E303030302043202020302020302020302020302020302020302020302020302020302020302020302020300A20202020312E3434333820202020302E3030303020202020302E303030302043202020302020302020302020302020302020302020302020302020302020302020302020300A2020202D312E343433382020202D302E3731343520202020302E30303030204F202020302020302020302020302020302020302020302020302020302020302020302020300A20202020302E3230363220202020302E3731343520202020302E303030302043202020302020302020302020302020302020302020302020302020302020302020302020300A2020312020322020312020302020202020200A2020322020332020312020302020202020200A2020332020342020312020302020202020200A2020342020352020312020302020202020200A2020312020362020312020302020202020200A2020322020372020312020302020202020200A4D2020454E44
Contributor: HASHIMOTO K, KYOTO COLLEGE OF PHARMACY
InstType: EI
InstName: HITACHI M-80
IoniMethod: _ENERGY 20 eV
IonPolarity: pos
Date: 2010-10-09 19:48:36+02:00
Num Peaks: 20
27 50 29 132 31 109 39 28 41 260 42 192 43 999 44 40 45 35 54 10 
55 297 56 225 57 45 59 25 69 262 70 356 71 371 72 21 84 115 85 23 
