Name: CYCLOHEXANEACETIC ACID
MW: 142
Formula: C8H14O2
Synonym: MassBank: JP009207
Synonym: CYCLOHEXANEACETIC ACID
Structure: 4359434C4F484558414E4541434554494320414349442E6D6F6C0A20204368656D447261773039313531303035333632440A2031302031302020302020302020302020302020302020302020302020303939392056323030300A20202020302E333537322020202D302E3431323520202020302E303030302043202020302020302020302020302020302020302020302020302020302020302020302020300A20202020302E3335373220202020302E3431323520202020302E303030302043202020302020302020302020302020302020302020302020302020302020302020302020300A20202020312E3037313720202020302E3832353020202020302E303030302043202020302020302020302020302020302020302020302020302020302020302020302020300A20202020312E3738363220202020302E3431323520202020302E303030302043202020302020302020302020302020302020302020302020302020302020302020302020300A20202020312E373836322020202D302E3431323520202020302E303030302043202020302020302020302020302020302020302020302020302020302020302020302020300A20202020312E303731372020202D302E3832353020202020302E303030302043202020302020302020302020302020302020302020302020302020302020302020302020300A2020202D312E303731372020202D302E3431323520202020302E303030302043202020302020302020302020302020302020302020302020302020302020302020302020300A2020202D302E333537322020202D302E3832353020202020302E303030302043202020302020302020302020302020302020302020302020302020302020302020302020300A2020202D312E3037313720202020302E3431323520202020302E30303030204F202020302020302020302020302020302020302020302020302020302020302020302020300A2020202D312E373836322020202D302E3832353020202020302E30303030204F202020302020302020302020302020302020302020302020302020302020302020302020300A2020312020322020312020302020202020200A2020322020332020312020302020202020200A2020332020342020312020302020202020200A2020342020352020312020302020202020200A2020352020362020312020302020202020200A2020312020362020312020302020202020200A2020372020382020312020302020202020200A2020372020392020322020302020202020200A2020372031302020312020302020202020200A2020312020382020312020302020202020200A4D2020454E44
Contributor: SODA AROMATIC CO., LTD.
InstType: EI
InstName: HITACHI M-80B
IoniMethod: _ENERGY 70 eV
IonPolarity: pos
Date: 2010-10-09 19:48:36+02:00
Num Peaks: 47
15 17 26 14 27 263 28 60 29 178 31 24 38 13 39 335 40 40 41 540 
42 80 43 109 44 12 45 143 50 11 51 28 52 14 53 109 54 219 55 646 
56 40 57 25 58 10 59 10 60 999 61 581 62 14 65 19 66 13 67 406 
68 40 69 17 70 10 71 15 73 24 77 19 79 28 80 16 81 120 82 647 
83 634 84 33 87 12 89 13 95 12 99 29 142 33 
