Name: MassBank: JP003949
MW: 135
Formula: C9H13N
Synonym: MassBank: JP003949
Synonym: 2,4-DIMETHYL-6-ETHYLPYRIDINE
Structure: 322C342D44494D455448594C2D362D455448594C5059524944494E452E6D6F6C0A20204368656D447261773132323030393139323032440A2031302031302020302020302020302020302020302020302020302020303939392056323030300A20202020312E3033313220202020302E3731343520202020302E303030302043202020302020302020302020302020302020302020302020302020302020302020302020300A20202020312E343433382020202D302E3030303020202020302E303030302043202020302020302020302020302020302020302020302020302020302020302020302020300A20202020312E303331332020202D302E3731343520202020302E303030302043202020302020302020302020302020302020302020302020302020302020302020302020300A20202020302E323036332020202D302E3731343520202020302E303030302043202020302020302020302020302020302020302020302020302020302020302020302020300A2020202D302E3230363320202020302E3030303020202020302E303030302043202020302020302020302020302020302020302020302020302020302020302020302020300A20202020302E3230363220202020302E3731343520202020302E30303030204E202020302020302020302020302020302020302020302020302020302020302020302020300A2020202D312E3033313220202020302E3030303020202020302E303030302043202020302020302020302020302020302020302020302020302020302020302020302020300A2020202D312E343433382020202D302E3731343520202020302E303030302043202020302020302020302020302020302020302020302020302020302020302020302020300A20202020312E343433382020202D312E3432383920202020302E303030302043202020302020302020302020302020302020302020302020302020302020302020302020300A20202020312E3434333820202020312E3432383920202020302E303030302043202020302020302020302020302020302020302020302020302020302020302020302020300A2020312020322020312020302020202020200A2020322020332020322020302020202020200A2020332020342020312020302020202020200A2020342020352020322020302020202020200A2020352020362020312020302020202020200A2020312020362020322020302020202020200A2020372020382020312020302020202020200A2020352020372020312020302020202020200A2020332020392020312020302020202020200A2020312031302020312020302020202020200A4D2020454E44
Contributor: MASS SPECTROSCOPY SOC. OF JAPAN (MSSJ)
InstType: EI
InstName: Unknown
IoniMethod: EI
IonPolarity: pos
Date: 2010-10-09 19:48:36+02:00
Num Peaks: 44
26 38 27 136 28 77 29 5 31 21 38 35 39 172 40 3 41 69 42 36 
50 42 51 8 52 49 53 66 54 30 60 3 62 32 63 43 64 32 65 6 
66 28 67 30 77 127 78 4 79 59 80 35 91 40 92 3 93 28 104 29 
105 28 106 8 107 278 108 40 117 39 118 3 119 32 120 28 121 28 132 3 
133 32 134 999 135 486 136 57 
