Name: MassBank: JP000774
MW: 306
Formula: C16H18O6
Synonym: MassBank: JP000774
Synonym: ETHYL 4,8-BIS(METHOXYMETHYL)-1-OXA-2-OXO-1,2-DIHYDROAZULENE-3-CARBOXYLATE
Structure: 303136385F455448594C20342C382D424953284D4554484F58594D455448594C292D312D4F58412D322D4F584F2D312C322D4449485944524F415A554C454E452D332D434152424F58594C4154452E6D6F6C0A20204368656D447261773039303331303138333232440A2032352032362020302020302020302020302020302020302020302020303939392056323030300A20202020302E373339342020202D302E3933333420202020302E303030302043202020302020302020302020302020302020302020302020302020302020302020302020300A20202020312E353339312020202D302E3733303520202020302E303030302043202020302020302020302020302020302020302020302020302020302020302020302020300A20202020312E3837393020202020302E3032313220202020302E303030302043202020302020302020302020302020302020302020302020302020302020302020302020300A20202020312E3530333320202020302E3735353720202020302E303030302043202020302020302020302020302020302020302020302020302020302020302020302020300A20202020302E3639343820202020302E3931393820202020302E303030302043202020302020302020302020302020302020302020302020302020302020302020302020300A20202020302E3036323320202020302E3339303120202020302E303030302043202020302020302020302020302020302020302020302020302020302020302020302020300A20202020302E303632332020202D302E3433343720202020302E303030302043202020302020302020302020302020302020302020302020302020302020302020302020300A2020202D302E3632303920202020302E3835323420202020302E303030302043202020302020302020302020302020302020302020302020302020302020302020302020300A2020202D312E3334343620202020302E3435363320202020302E303030302043202020302020302020302020302020302020302020302020302020302020302020302020300A2020202D312E333434362020202D302E3336383720202020302E30303030204F202020302020302020302020302020302020302020302020302020302020302020302020300A2020202D322E3035343320202020302E3837363920202020302E30303030204F202020302020302020302020302020302020302020302020302020302020302020302020300A2020202D302E3538323120202020312E3637363520202020302E303030302043202020302020302020302020302020302020302020302020302020302020302020302020300A2020202D312E3237363420202020322E3132323220202020302E30303030204F202020302020302020302020302020302020302020302020302020302020302020302020300A20202020302E3135303920202020322E3035353020202020302E30303030204F202020302020302020302020302020302020302020302020302020302020302020302020300A2020202D322E3030393520202020312E3734333720202020302E303030302043202020302020302020302020302020302020302020302020302020302020302020302020300A2020202D322E3730333820202020322E3138393420202020302E303030302043202020302020302020302020302020302020302020302020302020302020302020302020300A20202020302E353831302020202D312E3734333120202020302E303030302043202020302020302020302020302020302020302020302020302020302020302020302020300A20202020312E323033302020202D322E3238353020202020302E30303030204F202020302020302020302020302020302020302020302020302020302020302020302020300A20202020312E303434372020202D332E3039343720202020302E303030302043202020302020302020302020302020302020302020302020302020302020302020302020300A20202020322E303638382020202D312E3336323920202020302E303030302048202020302020302020302020302020302020302020302020302020302020302020302020300A20202020322E3730333820202020302E3034313120202020302E303030302048202020302020302020302020302020302020302020302020302020302020302020302020300A20202020322E3030323020202020312E3431323920202020302E303030302048202020302020302020302020302020302020302020302020302020302020302020302020300A20202020302E3439313920202020312E3731393520202020302E303030302043202020302020302020302020302020302020302020302020302020302020302020302020300A20202020312E3038323920202020322E3239353020202020302E30303030204F202020302020302020302020302020302020302020302020302020302020302020302020300A20202020302E3838303020202020332E3039343720202020302E303030302043202020302020302020302020302020302020302020302020302020302020302020302020300A2020312020322020312020302020202020200A2020322020332020322020302020202020200A2020332020342020312020302020202020200A2020342020352020322020302020202020200A2020352020362020312020302020202020200A2020362020372020312020302020202020200A2020372020312020322020302020202020200A2020362020382020312020302020202020200A2020382020392020312020302020202020200A2020392031302020312020302020202020200A2031302020372020312020302020202020200A2020392031312020322020302020202020200A2020382031322020312020302020202020200A2031322031332020312020302020202020200A2031322031342020322020302020202020200A2031332031352020312020302020202020200A2031352031362020312020302020202020200A2020312031372020312020302020202020200A2031372031382020312020302020202020200A2031382031392020312020302020202020200A2020322032302020312020302020202020200A2020332032312020312020302020202020200A2020342032322020312020302020202020200A2020352032332020312020302020202020200A2032332032342020312020302020202020200A2032342032352020312020302020202020200A4D2020454E44
Contributor: ITO S, DEPT. OF CHEM., TOHOKU UNIV.
InstType: EI
InstName: Unknown
IoniMethod: _ENERGY 25 eV
IonPolarity: pos
Date: 2010-10-09 19:48:36+02:00
Num Peaks: 48
45 120 77 50 89 30 91 7 102 65 103 75 105 55 115 12 116 40 117 30 
118 55 119 3 129 40 130 55 131 70 132 3 133 55 145 75 146 35 147 5 
157 40 158 30 159 55 161 9 173 55 175 35 185 55 186 5 187 30 188 90 
201 70 202 3 213 45 214 85 215 130 217 11 218 30 229 30 230 35 231 4 
245 900 246 110 247 55 260 999 261 220 262 30 306 95 307 40 
