Name: 3-METHYL-1-TRIMETHYLSILYLMETHYLSPIRO(3.5)NONAN-5-ONE
MW: 238
Formula: C14H26OSi
Synonym: MassBank: JP002276
Synonym: 3-METHYL-1-TRIMETHYLSILYLMETHYLSPIRO(3.5)NONAN-5-ONE
Structure: 332D4D455448594C2D312D5452494D455448594C53494C594C4D455448594C535049524F28332E35294E4F4E414E2D352D4F4E452E6D6F6C0A20204368656D447261773033313931303232333532440A2031362031372020302020302020302020302020302020302020302020303939392056323030300A20202020302E333233332020202D302E3035343520202020302E303030302043202020302020302020302020302020302020302020302020302020302020302020302020300A20202020312E313230322020202D302E3236383020202020302E303030302043202020302020302020302020302020302020302020302020302020302020302020302020300A20202020302E393036372020202D312E3036343920202020302E303030302043202020302020302020302020302020302020302020302020302020302020302020302020300A20202020302E313039382020202D302E3835313420202020302E303030302043202020302020302020302020302020302020302020302020302020302020302020302020300A20202020302E313039382020202D312E3637363420202020302E303030302043202020302020302020302020302020302020302020302020302020302020302020302020300A2020202D302E363034372020202D322E3038383920202020302E303030302043202020302020302020302020302020302020302020302020302020302020302020302020300A2020202D312E333139322020202D312E3637363420202020302E303030302043202020302020302020302020302020302020302020302020302020302020302020302020300A2020202D312E333139322020202D302E3835313420202020302E303030302043202020302020302020302020302020302020302020302020302020302020302020302020300A2020202D302E363034372020202D302E3433383920202020302E303030302043202020302020302020302020302020302020302020302020302020302020302020302020300A20202020302E383234322020202D322E3038383920202020302E30303030204F202020302020302020302020302020302020302020302020302020302020302020302020300A20202020312E333139322020202D312E3737393420202020302E303030302043202020302020302020302020302020302020302020302020302020302020302020302020300A2020202D302E3038393220202020302E3636303020202020302E303030302043202020302020302020302020302020302020302020302020302020302020302020302020300A20202020302E3332333320202020312E3337343420202020302E303030302053692020302020302020302020302020302020302020302020302020302020302020302020300A2020202D302E3339313220202020312E3738363920202020302E303030302043202020302020302020302020302020302020302020302020302020302020302020302020300A20202020302E3733353820202020322E3038383920202020302E303030302043202020302020302020302020302020302020302020302020302020302020302020302020300A20202020312E3033373820202020302E3936313920202020302E303030302043202020302020302020302020302020302020302020302020302020302020302020302020300A2020312020322020312020302020202020200A2020322020332020312020302020202020200A2020332020342020312020302020202020200A2020342020352020312020302020202020200A2020352020362020312020302020202020200A2020362020372020312020302020202020200A2020372020382020312020302020202020200A2020382020392020312020302020202020200A2020312020342020312020302020202020200A2020342020392020312020302020202020200A2020352031302020322020302020202020200A2020332031312020312020302020202020200A2031332031342020312020312020202020200A2031332031352020312020302020202020200A2031332031362020312020312020202020200A2031322031332020312020302020202020200A2020312031322020312020302020202020200A4D2020454E44
Contributor: MASS SPECTROSCOPY SOC. OF JAPAN (MSSJ)
InstType: EI
InstName: JEOL JMS-D-3000
IoniMethod: _ENERGY 70 eV
IonPolarity: pos
Date: 2010-10-09 19:48:36+02:00
Num Peaks: 32
42 54 43 35 45 84 55 51 59 103 67 48 73 824 74 72 75 202 77 37 
79 65 81 50 91 71 93 42 105 73 106 32 107 37 111 54 119 30 125 999 
126 96 133 50 146 31 147 55 148 52 170 43 183 222 184 35 197 319 198 59 
223 69 238 96 
