Name: MassBank: JP003029
MW: 415
Formula: C21H37NO3S2
Synonym: MassBank: JP003029
Synonym: 2-ACETOXY-1-ACETYL-4-TERT-BUTYL-3,6-DI-TERT-BUTYLMERCAPTO-1,2,3,6-TETRAHYDROPYRIDINE
Structure: 322D414345544F58592D312D41434554594C2D342D544552542D425554594C2D332C362D44492D544552542D425554594C4D4552434150544F2D312C322C332C362D5445545241485944524F5059524944494E452E6D6F6C0A20204368656D447261773132323130393231343432440A2032372032372020302020302020302020302020302020302020302020303939392056323030300A2020202D302E3431323520202020302E3136383920202020302E303030302043202020302020302020302020302020302020302020302020302020302020302020302020300A2020202D302E383235302020202D302E3534353520202020302E303030302043202020302020302020302020302020302020302020302020302020302020302020302020300A2020202D302E343132352020202D312E3236303020202020302E303030302043202020302020302020302020302020302020302020302020302020302020302020302020300A20202020302E343132352020202D312E3236303020202020302E303030302043202020302020302020302020302020302020302020302020302020302020302020302020300A20202020302E383235302020202D302E3534353520202020302E303030302043202020302020302020302020302020302020302020302020302020302020302020302020300A20202020302E3431323520202020302E3136383920202020302E30303030204E202020302020302020302020302020302020302020302020302020302020302020302020300A20202020312E363530302020202D302E3534353520202020302E303030302053202020302020302020302020302020302020302020302020302020302020302020302020300A20202020322E303632352020202D312E3236303020202020302E303030302043202020302020302020302020302020302020302020302020302020302020302020302020300A20202020322E343735302020202D312E3937343520202020302E303030302043202020302020302020302020302020302020302020302020302020302020302020302020300A20202020322E373737302020202D302E3834373520202020302E303030302043202020302020302020302020302020302020302020302020302020302020302020302020300A20202020312E333438302020202D312E3637323520202020302E303030302043202020302020302020302020302020302020302020302020302020302020302020302020300A2020202D312E363530302020202D302E3534353520202020302E303030302053202020302020302020302020302020302020302020302020302020302020302020302020300A2020202D322E3036323520202020302E3136383920202020302E303030302043202020302020302020302020302020302020302020302020302020302020302020302020300A2020202D312E3334383020202020302E3538313420202020302E303030302043202020302020302020302020302020302020302020302020302020302020302020302020300A2020202D322E3437353020202020302E3838333420202020302E303030302043202020302020302020302020302020302020302020302020302020302020302020302020300A2020202D322E373737302020202D302E3234333620202020302E303030302043202020302020302020302020302020302020302020302020302020302020302020302020300A2020202D302E383235302020202D312E3937343520202020302E303030302043202020302020302020302020302020302020302020302020302020302020302020302020300A2020202D312E353339352020202D312E3536323020202020302E303030302043202020302020302020302020302020302020302020302020302020302020302020302020300A2020202D312E323337352020202D322E3638383920202020302E303030302043202020302020302020302020302020302020302020302020302020302020302020302020300A2020202D302E313130352020202D322E3338373020202020302E303030302043202020302020302020302020302020302020302020302020302020302020302020302020300A20202020302E3832353020202020302E3838333420202020302E303030302043202020302020302020302020302020302020302020302020302020302020302020302020300A20202020312E3634363920202020302E3831313520202020302E30303030204F202020302020302020302020302020302020302020302020302020302020302020302020300A20202020302E3534323820202020312E3635383720202020302E303030302043202020302020302020302020302020302020302020302020302020302020302020302020300A2020202D302E3934383820202020312E3039373820202020302E30303030204F202020302020302020302020302020302020302020302020302020302020302020302020300A2020202D302E3538313920202020322E3130353620202020302E303030302043202020302020302020302020302020302020302020302020302020302020302020302020300A20202020302E3139333320202020322E3338373720202020302E30303030204F202020302020302020302020302020302020302020302020302020302020302020302020300A2020202D312E3136353320202020322E3638383920202020302E303030302043202020302020302020302020302020302020302020302020302020302020302020302020300A2020312020322020312020302020202020200A2020322020332020312020302020202020200A2020332020342020322020302020202020200A2020342020352020312020302020202020200A2020352020362020312020302020202020200A2020312020362020312020302020202020200A2020382020392020312020302020202020200A2020382031312020312020312020202020200A2020382031302020312020312020202020200A2020372020382020312020302020202020200A2020352020372020312020302020202020200A2031332031342020312020312020202020200A2031332031362020312020312020202020200A2031332031352020312020302020202020200A2031322031332020312020302020202020200A2020322031322020312020302020202020200A2031372031382020312020302020202020200A2031372032302020312020302020202020200A2031372031392020312020302020202020200A2020332031372020312020302020202020200A2032312032322020322020302020202020200A2032312032332020312020302020202020200A2020362032312020312020302020202020200A2032352032362020322020302020202020200A2032352032372020312020302020202020200A2032342032352020312020302020202020200A2020312032342020312020302020202020200A4D2020454E44
Contributor: SASAKI S, TOYOHASHI UNIV. OF TECH.
InstType: EI
InstName: Unknown
IoniMethod: EI
IonPolarity: pos
Date: 2010-10-09 19:48:36+02:00
Num Peaks: 44
29 220 32 100 39 150 41 45 43 580 45 90 55 80 56 1 57 999 58 50 
59 50 60 1 65 40 75 50 77 50 90 1 92 140 106 100 120 520 121 2 
125 270 132 80 134 60 135 2 136 500 137 60 152 250 153 1 167 250 168 950 
169 130 178 1 194 100 210 540 211 70 223 1 224 170 225 40 228 50 266 1 
284 30 326 930 327 200 328 70 
