Name: PENTAMETHYLPHENYLDISILANE
MW: 208
Formula: C11H20Si2
Synonym: MassBank: JP001347
Synonym: PENTAMETHYLPHENYLDISILANE
Structure: 50454E54414D455448594C5048454E594C444953494C414E452E6D6F6C0A20204368656D447261773038313231303034353432440A2031332031332020302020302020302020302020302020302020302020303939392056323030300A2020202D312E343433372020202D302E3030303020202020302E303030302053692020302020302020302020302020302020302020302020302020302020302020302020300A2020202D312E3835363320202020302E3731343520202020302E303030302053692020302020302020302020302020302020302020302020302020302020302020302020300A2020202D302E363138372020202D302E3030303020202020302E303030302043202020302020302020302020302020302020302020302020302020302020302020302020300A2020202D302E3230363220202020302E3731343520202020302E303030302043202020302020302020302020302020302020302020302020302020302020302020302020300A20202020302E3631383720202020302E3731343520202020302E303030302043202020302020302020302020302020302020302020302020302020302020302020302020300A20202020312E303331332020202D302E3030303020202020302E303030302043202020302020302020302020302020302020302020302020302020302020302020302020300A20202020302E363138382020202D302E3731343520202020302E303030302043202020302020302020302020302020302020302020302020302020302020302020302020300A2020202D302E323036322020202D302E3731343520202020302E303030302043202020302020302020302020302020302020302020302020302020302020302020302020300A2020202D302E3631383720202020312E3432383920202020302E303030302043202020302020302020302020302020302020302020302020302020302020302020302020300A20202020312E3033313320202020312E3432383920202020302E303030302043202020302020302020302020302020302020302020302020302020302020302020302020300A20202020312E383536332020202D302E3030303020202020302E303030302043202020302020302020302020302020302020302020302020302020302020302020302020300A20202020312E303331332020202D312E3432383920202020302E303030302043202020302020302020302020302020302020302020302020302020302020302020302020300A2020202D302E363138372020202D312E3432383920202020302E303030302043202020302020302020302020302020302020302020302020302020302020302020302020300A2020312020322020312020302020202020200A2020332020342020312020302020202020200A2020342020352020322020302020202020200A2020352020362020312020302020202020200A2020362020372020322020302020202020200A2020372020382020312020302020202020200A2020332020382020322020302020202020200A2020342020392020312020302020202020200A2020352031302020312020302020202020200A2020362031312020312020302020202020200A2020372031322020312020302020202020200A2020382031332020312020302020202020200A2020312020332020312020302020202020200A4D2020454E44
Contributor: MASS SPECTROSCOPY SOC. OF JAPAN (MSSJ)
InstType: EI
InstName: JEOL JMS-D-3000
IoniMethod: _ENERGY 70 eV
IonPolarity: pos
Date: 2010-10-09 19:48:36+02:00
Num Peaks: 20
43 22 45 15 73 190 74 16 105 28 107 24 119 12 120 18 134 12 135 999 
136 142 137 42 177 16 179 14 191 12 193 96 194 22 208 195 209 44 210 20 
