Name: MassBank: JP003030
MW: 435
Formula: C23H33NO3S2
Synonym: MassBank: JP003030
Synonym: 2-ACETOXY-1-ACETYL-3,6-DI-TERT-BUTYLMERCAPTO-4-PHENYL-1,2,3,6-TETRAHYDROPYRIDINE
Structure: 322D414345544F58592D312D41434554594C2D332C362D44492D544552542D425554594C4D4552434150544F2D342D5048454E594C2D312C322C332C362D5445545241485944524F5059524944494E452E6D6F6C0A20204368656D447261773132323130393231343332440A2032392033302020302020302020302020302020302020302020302020303939392056323030300A2020202D302E353236322020202D302E3431323520202020302E303030302043202020302020302020302020302020302020302020302020302020302020302020302020300A20202020302E313838332020202D302E3832353020202020302E303030302043202020302020302020302020302020302020302020302020302020302020302020302020300A20202020302E393032382020202D302E3431323520202020302E303030302043202020302020302020302020302020302020302020302020302020302020302020302020300A20202020302E3930323820202020302E3431323520202020302E303030302043202020302020302020302020302020302020302020302020302020302020302020302020300A20202020302E3138383320202020302E3832353020202020302E303030302043202020302020302020302020302020302020302020302020302020302020302020302020300A2020202D302E3532363220202020302E3431323520202020302E30303030204E202020302020302020302020302020302020302020302020302020302020302020302020300A20202020312E363137322020202D302E3832353020202020302E303030302043202020302020302020302020302020302020302020302020302020302020302020302020300A20202020312E363137322020202D312E3635303020202020302E303030302043202020302020302020302020302020302020302020302020302020302020302020302020300A20202020322E333331372020202D322E3036323520202020302E303030302043202020302020302020302020302020302020302020302020302020302020302020302020300A20202020332E303436322020202D312E3635303020202020302E303030302043202020302020302020302020302020302020302020302020302020302020302020302020300A20202020332E303436322020202D302E3832353020202020302E303030302043202020302020302020302020302020302020302020302020302020302020302020302020300A20202020322E333331372020202D302E3431323520202020302E303030302043202020302020302020302020302020302020302020302020302020302020302020302020300A20202020302E3138383320202020312E3635303020202020302E303030302053202020302020302020302020302020302020302020302020302020302020302020302020300A20202020302E3930323820202020322E3036323520202020302E303030302043202020302020302020302020302020302020302020302020302020302020302020302020300A20202020302E3439303320202020322E3737373020202020302E303030302043202020302020302020302020302020302020302020302020302020302020302020302020300A20202020312E3331353320202020312E3334383020202020302E303030302043202020302020302020302020302020302020302020302020302020302020302020302020300A20202020312E3631373220202020322E3437353020202020302E303030302043202020302020302020302020302020302020302020302020302020302020302020302020300A20202020302E313838332020202D312E3635303020202020302E303030302053202020302020302020302020302020302020302020302020302020302020302020302020300A2020202D302E353236322020202D322E3036323520202020302E303030302043202020302020302020302020302020302020302020302020302020302020302020302020300A2020202D312E323430372020202D322E3437353020202020302E303030302043202020302020302020302020302020302020302020302020302020302020302020302020300A2020202D302E313133372020202D322E3737373020202020302E303030302043202020302020302020302020302020302020302020302020302020302020302020302020300A2020202D302E393338372020202D312E3334383020202020302E303030302043202020302020302020302020302020302020302020302020302020302020302020302020300A2020202D312E3234303720202020302E3832353020202020302E303030302043202020302020302020302020302020302020302020302020302020302020302020302020300A2020202D312E3136383720202020312E3634363920202020302E30303030204F202020302020302020302020302020302020302020302020302020302020302020302020300A2020202D322E3031353920202020302E3534323820202020302E303030302043202020302020302020302020302020302020302020302020302020302020302020302020300A2020202D312E343535302020202D302E3934383820202020302E30303030204F202020302020302020302020302020302020302020302020302020302020302020302020300A2020202D322E343632382020202D302E3538313920202020302E303030302043202020302020302020302020302020302020302020302020302020302020302020302020300A2020202D322E3734353020202020302E3139333320202020302E30303030204F202020302020302020302020302020302020302020302020302020302020302020302020300A2020202D332E303436322020202D312E3136353320202020302E303030302043202020302020302020302020302020302020302020302020302020302020302020302020300A2020312020322020312020302020202020200A2020322020332020312020302020202020200A2020332020342020322020302020202020200A2020342020352020312020302020202020200A2020352020362020312020302020202020200A2020312020362020312020302020202020200A2020372020382020312020302020202020200A2020382020392020322020302020202020200A2020392031302020312020302020202020200A2031302031312020322020302020202020200A2031312031322020312020302020202020200A2020372031322020322020302020202020200A2020332020372020312020302020202020200A2031342031352020312020312020202020200A2031342031372020312020302020202020200A2031342031362020312020312020202020200A2031332031342020312020302020202020200A2020352031332020312020302020202020200A2031392032302020312020302020202020200A2031392032322020312020302020202020200A2031392032312020312020302020202020200A2031382031392020312020302020202020200A2020322031382020312020302020202020200A2032332032342020322020302020202020200A2032332032352020312020302020202020200A2020362032332020312020302020202020200A2032372032382020322020302020202020200A2032372032392020312020302020202020200A2032362032372020312020302020202020200A2020312032362020312020302020202020200A4D2020454E44
Contributor: SASAKI S, TOYOHASHI UNIV. OF TECH.
InstType: EI
InstName: Unknown
IoniMethod: EI
IonPolarity: pos
Date: 2010-10-09 19:48:36+02:00
Num Peaks: 36
29 200 32 90 39 130 41 40 43 420 45 90 50 60 51 1 55 50 56 60 
57 999 60 1 75 60 77 60 90 60 102 1 115 180 127 100 128 90 132 1 
154 200 155 520 156 430 157 1 172 200 186 460 187 630 188 4 189 110 214 80 
243 90 244 2 286 70 346 380 347 80 376 8 
