Name: PHENYLHYDRAZINE
MW: 108
Formula: C6H8N2
Synonym: MassBank: JP000374
Synonym: PHENYLHYDRAZINE
Structure: 310A32310A5048454E594C48594452415A494E452E6D6F6C0A20204368656D447261773038313231303035333232440A2020382020382020302020302020302020302020302020302020302020303939392056323030300A2020202D312E303331332020202D302E3030303020202020302E30303030204E202020302020302020302020302020302020302020302020302020302020302020302020300A2020202D312E3434333820202020302E3731343520202020302E30303030204E202020302020302020302020302020302020302020302020302020302020302020302020300A2020202D302E323036332020202D302E3030303020202020302E303030302043202020302020302020302020302020302020302020302020302020302020302020302020300A20202020302E3230363320202020302E3731343520202020302E303030302043202020302020302020302020302020302020302020302020302020302020302020302020300A20202020312E3033313220202020302E3731343520202020302E303030302043202020302020302020302020302020302020302020302020302020302020302020302020300A20202020312E343433382020202D302E3030303020202020302E303030302043202020302020302020302020302020302020302020302020302020302020302020302020300A20202020312E303331322020202D302E3731343520202020302E303030302043202020302020302020302020302020302020302020302020302020302020302020302020300A20202020302E323036322020202D302E3731343520202020302E303030302043202020302020302020302020302020302020302020302020302020302020302020302020300A2020312020322020312020302020202020200A2020332020342020312020302020202020200A2020342020352020322020302020202020200A2020352020362020312020302020202020200A2020362020372020322020302020202020200A2020372020382020312020302020202020200A2020332020382020322020302020202020200A2020312020332020312020302020202020200A4D2020454E44
Contributor: SASAKI S, TOYOHASHI UNIV. OF TECH.
InstType: EI
InstName: SHIMADZU LKB-2091
IoniMethod: _ENERGY 70 eV
IonPolarity: pos
Date: 2010-10-09 19:48:36+02:00
Num Peaks: 40
27 25 28 22 29 24 30 1 31 16 37 15 38 32 39 10 40 14 41 17 
43 13 50 4 51 113 52 46 53 22 54 4 61 7 62 14 63 49 64 7 
65 317 66 36 73 6 74 2 75 9 76 10 77 197 78 14 79 84 80 32 
81 14 90 1 91 149 92 349 93 98 105 1 106 19 107 49 108 999 109 79 
