Name: 1-PHENYL-3-PYRAZOLIDONE
MW: 162
Formula: C9H10N2O
Synonym: MassBank: JP009588
Synonym: 1-PHENYL-3-PYRAZOLIDONE
Structure: 312D5048454E594C2D332D505952415A4F4C49444F4E452E6D6F6C0A20204368656D447261773131323230393232313932440A2031322031332020302020302020302020302020302020302020302020303939392056323030300A20202020302E323639302020202D302E3039313520202020302E30303030204E202020302020302020302020302020302020302020302020302020302020302020302020300A20202020302E3735333920202020302E3537363020202020302E30303030204E202020302020302020302020302020302020302020302020302020302020302020302020300A20202020312E3533383620202020302E3332313020202020302E303030302043202020302020302020302020302020302020302020302020302020302020302020302020300A20202020312E353338362020202D302E3530343020202020302E303030302043202020302020302020302020302020302020302020302020302020302020302020302020300A20202020302E373533392020202D302E3735383920202020302E303030302043202020302020302020302020302020302020302020302020302020302020302020302020300A20202020322E3230363020202020302E3830353920202020302E30303030204F202020302020302020302020302020302020302020302020302020302020302020302020300A2020202D302E353536302020202D302E3039313520202020302E303030302043202020302020302020302020302020302020302020302020302020302020302020302020300A2020202D302E393638352020202D302E3830353920202020302E303030302043202020302020302020302020302020302020302020302020302020302020302020302020300A2020202D312E373933352020202D302E3830353920202020302E303030302043202020302020302020302020302020302020302020302020302020302020302020302020300A2020202D322E323036302020202D302E3039313520202020302E303030302043202020302020302020302020302020302020302020302020302020302020302020302020300A2020202D312E3739333520202020302E3632333020202020302E303030302043202020302020302020302020302020302020302020302020302020302020302020302020300A2020202D302E3936383520202020302E3632333020202020302E303030302043202020302020302020302020302020302020302020302020302020302020302020302020300A2020312020322020312020302020202020200A2020322020332020312020302020202020200A2020332020342020312020302020202020200A2020342020352020312020302020202020200A2020312020352020312020302020202020200A2020332020362020322020302020202020200A2020372020382020312020302020202020200A2020382020392020322020302020202020200A2020392031302020312020302020202020200A2031302031312020322020302020202020200A2031312031322020312020302020202020200A2020372031322020322020302020202020200A2020312020372020312020302020202020200A4D2020454E44
Contributor: HAMAMATSU UNIV. SCHOOL OF MEDICINE
InstType: EI
InstName: JEOL JMS-AX-505-H
IoniMethod: _ENERGY 70 eV
IonPolarity: pos
Date: 2010-10-09 19:48:36+02:00
Num Peaks: 37
26 11 27 48 28 35 29 20 38 18 39 43 50 59 51 193 52 33 55 68 
63 32 64 32 65 45 66 11 74 19 75 14 76 21 77 626 78 81 79 33 
91 106 92 146 93 32 104 48 105 206 106 165 107 304 108 16 117 109 118 91 
119 12 120 49 133 12 160 34 161 48 162 999 163 119 
