Name: LINALYL PROPIONATE
MW: 210
Formula: C13H22O2
Synonym: MassBank: JP006912
Synonym: LINALYL PROPIONATE
Synonym: 3,7-DIMETHYL-1,6-OCTADIEN-3-YL PROPIONATE
Structure: 4C494E414C594C2050524F50494F4E4154452E6D6F6C0A20204368656D447261773032323231303033343932440A2031352031342020302020302020302020302020302020302020302020303939392056323030300A2020202D302E3031343820202020302E3736393720202020302E303030302043202020302020302020302020302020302020302020302020302020302020302020302020300A2020202D302E3732393320202020312E3138323220202020302E303030302043202020302020302020302020302020302020302020302020302020302020302020302020300A2020202D312E3434333820202020302E3736393720202020302E303030302043202020302020302020302020302020302020302020302020302020302020302020302020300A20202020302E3639393720202020312E3138323220202020302E30303030204F202020302020302020302020302020302020302020302020302020302020302020302020300A2020202D302E303134382020202D302E3035353320202020302E30303030204F202020302020302020302020302020302020302020302020302020302020302020302020300A2020202D302E373239332020202D302E3436373820202020302E303030302043202020302020302020302020302020302020302020302020302020302020302020302020300A2020202D302E333136382020202D312E3138323220202020302E303030302043202020302020302020302020302020302020302020302020302020302020302020302020300A20202020302E353038322020202D312E3138323220202020302E303030302043202020302020302020302020302020302020302020302020302020302020302020302020300A20202020302E393230372020202D302E3436373820202020302E303030302043202020302020302020302020302020302020302020302020302020302020302020302020300A20202020312E373435372020202D302E3436373820202020302E303030302043202020302020302020302020302020302020302020302020302020302020302020302020300A20202020322E3135383220202020302E3234363720202020302E303030302043202020302020302020302020302020302020302020302020302020302020302020302020300A20202020322E313538322020202D312E3138323220202020302E303030302043202020302020302020302020302020302020302020302020302020302020302020302020300A2020202D312E343433382020202D302E3838303320202020302E303030302043202020302020302020302020302020302020302020302020302020302020302020302020300A2020202D322E313538322020202D302E3436373820202020302E303030302043202020302020302020302020302020302020302020302020302020302020302020302020300A2020202D312E3134313820202020302E3234363720202020302E303030302043202020302020302020302020302020302020302020302020302020302020302020302020300A2020312020322020312020302020202020200A2020322020332020312020302020202020200A2020312020342020322020302020202020200A2020312020352020312020302020202020200A2020362020372020312020302020202020200A2020372020382020312020302020202020200A2020382020392020312020302020202020200A2020392031302020322020302020202020200A2031302031312020312020302020202020200A2031302031322020312020302020202020200A2020362031332020312020302020202020200A2031332031342020322020302020202020200A2020362031352020312020302020202020200A2020352020362020312020302020202020200A4D2020454E44
Contributor: TAJIMA S, GUNMA COLLEGE OF TECHNOLOGY
InstType: EI
InstName: HITACHI M-80B
IoniMethod: _ENERGY 70 eV
IonPolarity: pos
Date: 2010-10-09 19:48:36+02:00
Num Peaks: 42
27 103 29 270 39 91 40 24 41 343 42 22 43 117 51 11 53 91 54 11 
55 136 56 12 57 588 58 18 65 15 66 11 67 110 68 116 69 302 70 17 
71 42 72 12 77 42 79 88 80 416 81 150 82 31 83 41 91 56 92 154 
93 999 94 119 95 37 105 42 107 87 108 17 109 15 121 328 122 29 136 115 
137 32 139 10 
