Name: 4-DIMETHYLAMINOBENZALDEHYDE
CAS: 100-10-7
MW: 149
Formula: C9H11NO
Synonym: MassBank: JP005736
Synonym: 4-DIMETHYLAMINOBENZALDEHYDE
Structure: 342D44494D455448594C414D494E4F42454E5A414C4445485944452E6D6F6C0A20204368656D447261773033323531303132323432440A2031312031312020302020302020302020302020302020302020302020303939392056323030300A20202020312E3635303020202020302E3030303020202020302E303030302043202020302020302020302020302020302020302020302020302020302020302020302020300A20202020302E3832353020202020302E3030303020202020302E303030302043202020302020302020302020302020302020302020302020302020302020302020302020300A20202020302E343132352020202D302E3731343520202020302E303030302043202020302020302020302020302020302020302020302020302020302020302020302020300A2020202D302E343132352020202D302E3731343520202020302E303030302043202020302020302020302020302020302020302020302020302020302020302020302020300A2020202D302E3832353020202020302E3030303020202020302E303030302043202020302020302020302020302020302020302020302020302020302020302020302020300A2020202D302E3431323520202020302E3731343520202020302E303030302043202020302020302020302020302020302020302020302020302020302020302020302020300A20202020302E3431323520202020302E3731343520202020302E303030302043202020302020302020302020302020302020302020302020302020302020302020302020300A20202020322E3036323520202020302E3731343520202020302E30303030204F202020302020302020302020302020302020302020302020302020302020302020302020300A2020202D312E3635303020202020302E3030303020202020302E30303030204E202020302020302020302020302020302020302020302020302020302020302020302020300A2020202D322E303632352020202D302E3731343520202020302E303030302043202020302020302020302020302020302020302020302020302020302020302020302020300A2020202D322E3036323520202020302E3731343520202020302E303030302043202020302020302020302020302020302020302020302020302020302020302020302020300A2020312020322020312020302020202020200A2020322020332020312020302020202020200A2020332020342020322020302020202020200A2020342020352020312020302020202020200A2020352020362020322020302020202020200A2020362020372020312020302020202020200A2020322020372020322020302020202020200A2020312020382020322020302020202020200A2020392031302020312020302020202020200A2020392031312020312020302020202020200A2020352020392020312020302020202020200A4D2020454E44
Contributor: MASS SPECTROSCOPY SOC. OF JAPAN (MSSJ)
InstType: EI
InstName: HITACHI M-80
IoniMethod: _ENERGY 70 eV
IonPolarity: pos
Date: 2010-10-09 19:48:36+02:00
Num Peaks: 63
14 10 15 195 18 23 26 13 27 56 28 283 30 7 38 34 39 89 40 18 
41 235 43 34 44 32 50 133 51 211 52 42 53 19 54 8 55 9 59 8 
60 9 61 36 62 29 63 99 64 40 65 50 66 19 68 13 69 7 73 6 
74 55 75 47 76 72 77 274 78 117 79 72 80 12 88 6 89 15 90 35 
91 74 92 36 93 18 94 13 102 9 103 27 104 117 105 118 106 28 117 12 
118 54 119 47 120 60 121 9 132 135 133 45 134 20 135 7 146 10 148 999 
149 836 150 85 151 6 
