Name: ETHYLHYDRAZONE BUTYRALDEHYDE
MW: 114
Formula: C6H14N2
Synonym: MassBank: JP000527
Synonym: ETHYLHYDRAZONE BUTYRALDEHYDE
Synonym: BUTYRALDEHYDE ETHYLHYDRAZONE
Structure: 310A32300A455448594C48594452415A4F4E45204255545952414C4445485944452E6D6F6C0A20204368656D447261773039303631303035303032440A2020382020372020302020302020302020302020302020302020302020303939392056323030300A20202020302E3335373220202020302E3230363220202020302E303030302043202020302020302020302020302020302020302020302020302020302020302020302020300A20202020312E303731372020202D302E3230363220202020302E303030302043202020302020302020302020302020302020302020302020302020302020302020302020300A20202020312E3738363220202020302E3230363220202020302E303030302043202020302020302020302020302020302020302020302020302020302020302020302020300A20202020322E353030362020202D302E3230363220202020302E303030302043202020302020302020302020302020302020302020302020302020302020302020302020300A2020202D302E333537322020202D302E3230363220202020302E30303030204E202020302020302020302020302020302020302020302020302020302020302020302020300A2020202D312E3037313720202020302E3230363220202020302E30303030204E202020302020302020302020302020302020302020302020302020302020302020302020300A2020202D312E373836322020202D302E3230363220202020302E303030302043202020302020302020302020302020302020302020302020302020302020302020302020300A2020202D322E3530303620202020302E3230363220202020302E303030302043202020302020302020302020302020302020302020302020302020302020302020302020300A2020312020322020312020302020202020200A2020322020332020312020302020202020200A2020332020342020312020302020202020200A2020352020362020312020302020202020200A2020372020382020312020302020202020200A2020362020372020312020302020202020200A2020312020352020322020302020202020200A4D2020454E44
Contributor: SASAKI S, TOYOHASHI UNIV. OF TECH.
InstType: EI
InstName: SHIMADZU LKB-2091
IoniMethod: _ENERGY 70 eV
IonPolarity: pos
Date: 2010-10-09 19:48:36+02:00
Num Peaks: 33
27 433 28 400 29 433 30 999 31 73 40 40 41 333 42 26 43 500 44 831 
45 80 46 3 53 17 54 28 55 63 56 9 57 223 58 107 59 40 68 6 
69 40 70 173 71 147 72 6 85 466 86 260 87 13 97 5 99 731 100 53 
113 40 114 60 115 75 
