Name: INDOLE
MW: 117
Formula: C8H7N
Synonym: MassBank: JP003524
Synonym: INDOLE
Structure: 310A32340A494E444F4C452E6D6F6C0A20204368656D447261773038313131303230353132440A2020392031302020302020302020302020302020302020302020302020303939392056323030300A2020202D302E383634332020202D302E3636373420202020302E30303030204E202020302020302020302020302020302020302020302020302020302020302020302020300A2020202D312E333439322020202D302E3030303020202020302E303030302043202020302020302020302020302020302020302020302020302020302020302020302020300A2020202D302E3836343320202020302E3636373420202020302E303030302043202020302020302020302020302020302020302020302020302020302020302020302020300A2020202D302E3037393720202020302E3431323520202020302E303030302043202020302020302020302020302020302020302020302020302020302020302020302020300A20202020302E3633343820202020302E3832353020202020302E303030302043202020302020302020302020302020302020302020302020302020302020302020302020300A20202020312E3334393220202020302E3431323520202020302E303030302043202020302020302020302020302020302020302020302020302020302020302020302020300A20202020312E333439322020202D302E3431323520202020302E303030302043202020302020302020302020302020302020302020302020302020302020302020302020300A20202020302E363334382020202D302E3832353020202020302E303030302043202020302020302020302020302020302020302020302020302020302020302020302020300A2020202D302E303739372020202D302E3431323520202020302E303030302043202020302020302020302020302020302020302020302020302020302020302020302020300A2020312020322020312020302020202020200A2020322020332020322020302020202020200A2020332020342020312020302020202020200A2020342020352020312020302020202020200A2020352020362020322020302020202020200A2020362020372020312020302020202020200A2020372020382020322020302020202020200A2020382020392020312020302020202020200A2020312020392020312020302020202020200A2020342020392020322020302020202020200A4D2020454E44
Contributor: YAMAMOTO M, DEP. CHEMISTRY, FAC. SCIENCE, NARA WOMEN'S UNIV.
InstType: EI
InstName: HITACHI M-68
IoniMethod: _ENERGY 70 eV
IonPolarity: pos
Date: 2010-10-09 19:48:36+02:00
Num Peaks: 27
17 13 18 53 27 15 28 102 32 18 37 14 38 26 39 4 41 10 50 29 
51 26 52 2 58.5 67 62 52 63 105 64 4 65 13 74 10 86 14 87 2 
88 18 89 232 90 360 91 3 116 90 117 999 118 93 
