Name: MassBank: JP008814
MW: 462
Formula: C17H8F10N2O2
Synonym: MassBank: JP008814
Synonym: PYRUVALDEHYDE BIS(O-2,3,4,5,6-PENTAFLUOROBENZYLOXIME)
Structure: 303631395F5059525556414C44454859444520424953284F2D322C332C342C352C362D50454E5441464C554F524F42454E5A594C4F58494D45292E6D6F6C0A20204368656D447261773038323031303037303932440A2033312033322020302020302020302020302020302020302020302020303939392056323030300A2020202D342E393230342020202D302E3030303020202020302E303030302043202020302020302020302020302020302020302020302020302020302020302020302020300A2020202D342E393230342020202D302E3832353020202020302E303030302043202020302020302020302020302020302020302020302020302020302020302020302020300A2020202D342E323035392020202D312E3233373520202020302E303030302043202020302020302020302020302020302020302020302020302020302020302020302020300A2020202D332E343931342020202D302E3832353020202020302E303030302043202020302020302020302020302020302020302020302020302020302020302020302020300A2020202D332E343931342020202D302E3030303020202020302E303030302043202020302020302020302020302020302020302020302020302020302020302020302020300A2020202D342E3230353920202020302E3431323520202020302E303030302043202020302020302020302020302020302020302020302020302020302020302020302020300A2020202D352E3633343920202020302E3431323520202020302E303030302046202020302020302020302020302020302020302020302020302020302020302020302020300A2020202D342E3230353920202020312E3233373520202020302E303030302046202020302020302020302020302020302020302020302020302020302020302020302020300A2020202D352E363334392020202D312E3233373520202020302E303030302046202020302020302020302020302020302020302020302020302020302020302020302020300A2020202D342E323035392020202D322E3036323520202020302E303030302046202020302020302020302020302020302020302020302020302020302020302020302020300A2020202D322E373737302020202D312E3233373520202020302E303030302046202020302020302020302020302020302020302020302020302020302020302020302020300A2020202D322E3737373020202020302E3431323520202020302E303030302043202020302020302020302020302020302020302020302020302020302020302020302020300A2020202D322E3036323520202020302E3030303020202020302E30303030204F202020302020302020302020302020302020302020302020302020302020302020302020300A2020202D312E3233373520202020302E3030303020202020302E30303030204E202020302020302020302020302020302020302020302020302020302020302020302020300A2020202D302E3431323520202020302E3030303020202020302E303030302043202020302020302020302020302020302020302020302020302020302020302020302020300A2020202D302E3431323520202020302E3832353020202020302E303030302043202020302020302020302020302020302020302020302020302020302020302020302020300A20202020302E3431323520202020302E3030303020202020302E303030302043202020302020302020302020302020302020302020302020302020302020302020302020300A20202020312E3233373520202020302E3030303020202020302E30303030204E202020302020302020302020302020302020302020302020302020302020302020302020300A20202020322E3036323520202020302E3030303020202020302E30303030204F202020302020302020302020302020302020302020302020302020302020302020302020300A20202020322E373737302020202D302E3431323520202020302E303030302043202020302020302020302020302020302020302020302020302020302020302020302020300A20202020332E3439313420202020302E3030303020202020302E303030302043202020302020302020302020302020302020302020302020302020302020302020302020300A20202020342E323035392020202D302E3431323520202020302E303030302043202020302020302020302020302020302020302020302020302020302020302020302020300A20202020342E3932303420202020302E3030303020202020302E303030302043202020302020302020302020302020302020302020302020302020302020302020302020300A20202020342E3932303420202020302E3832353020202020302E303030302043202020302020302020302020302020302020302020302020302020302020302020302020300A20202020342E3230353920202020312E3233373520202020302E303030302043202020302020302020302020302020302020302020302020302020302020302020302020300A20202020332E3439313420202020302E3832353020202020302E303030302043202020302020302020302020302020302020302020302020302020302020302020302020300A20202020322E3737373020202020312E3233373520202020302E303030302046202020302020302020302020302020302020302020302020302020302020302020302020300A20202020342E323035392020202D312E3233373520202020302E303030302046202020302020302020302020302020302020302020302020302020302020302020302020300A20202020352E363334392020202D302E3431323520202020302E303030302046202020302020302020302020302020302020302020302020302020302020302020302020300A20202020352E3633343920202020312E3233373520202020302E303030302046202020302020302020302020302020302020302020302020302020302020302020302020300A20202020342E3230353920202020322E3036323520202020302E303030302046202020302020302020302020302020302020302020302020302020302020302020302020300A2020312020322020322020302020202020200A2020322020332020312020302020202020200A2020332020342020322020302020202020200A2020342020352020312020302020202020200A2020352020362020322020302020202020200A2020362020312020312020302020202020200A2020312020372020312020302020202020200A2020362020382020312020302020202020200A2020322020392020312020302020202020200A2020332031302020312020302020202020200A2020342031312020312020302020202020200A2020352031322020312020302020202020200A2031322031332020312020302020202020200A2031332031342020312020302020202020200A2031342031352020322020302020202020200A2031352031362020312020302020202020200A2031352031372020312020302020202020200A2031372031382020322020302020202020200A2031382031392020312020302020202020200A2031392032302020312020302020202020200A2032302032312020312020302020202020200A2032312032322020322020302020202020200A2032322032332020312020302020202020200A2032332032342020322020302020202020200A2032342032352020312020302020202020200A2032352032362020322020302020202020200A2032362032312020312020302020202020200A2032362032372020312020302020202020200A2032322032382020312020302020202020200A2032332032392020312020302020202020200A2032342033302020312020302020202020200A2032352033312020312020302020202020200A4D2020454E44
Contributor: UOEH
InstType: EI
InstName: HP 5970
IoniMethod: _ENERGY 70 eV
IonPolarity: pos
Date: 2010-10-09 19:48:36+02:00
Num Peaks: 59
42 23 43 11 44 30 51 8 53 2 54 11 55 6 56 1 57 8 62 2 
68 2 69 18 70 1 71 6 72 3 74 1 75 12 79 5 80 4 81 15 
84 9 86 3 93 16 98 7 99 27 100 1 105 1 111 3 112 8 117 27 
118 4 119 17 130 1 131 14 137 4 143 6 148 3 149 13 150 8 155 8 
161 38 162 10 163 1 167 22 168 11 169 2 177 3 181 999 182 72 195 24 
196 7 197 5 198 2 248 3 249 2 265 43 266 4 267 5 432 2 
