Name: VERBENONE
MW: 150
Formula: C10H14O
Synonym: MassBank: JP006602
Synonym: VERBENONE
Synonym: 4,6,6-TRIMETHYLBICYCLO(3.1.1)HEPT-3-EN-2-ONE
Structure: 342C362C362D5452494D455448594C42494359434C4F28332E312E3129484550542D332D454E2D322D4F4E452E6D6F6C0A20204368656D447261773038313131303135333032440A2031312031322020302020302020302020302020302020302020302020303939392056323030300A20202020302E313836352020202D302E3634323220202020302E303030302043202020302020302020302020302020302020302020302020302020302020302020302020300A20202020302E363637382020202D302E3136303920202020302E303030302043202020302020302020302020302020302020302020302020302020302020302020302020300A20202020302E3439353220202020302E3439353120202020302E303030302043202020302020302020302020302020302020302020302020302020302020302020302020300A2020202D302E3136303920202020302E3636373720202020302E303030302043202020302020302020302020302020302020302020302020302020302020302020302020300A2020202D302E3634323220202020302E3138363520202020302E303030302043202020302020302020302020302020302020302020302020302020302020302020302020300A2020202D302E363432322020202D302E3634303320202020302E303030302043202020302020302020302020302020302020302020302020302020302020302020302020300A20202020302E3138363520202020302E3138343720202020302E303030302043202020302020302020302020302020302020302020302020302020302020302020302020300A20202020312E343635342020202D302E3338303520202020302E30303030204F202020302020302020302020302020302020302020302020302020302020302020302020300A2020202D302E363432322020202D312E3436353320202020302E303030302043202020302020302020302020302020302020302020302020302020302020302020302020300A2020202D312E343635342020202D302E3634303320202020302E303030302043202020302020302020302020302020302020302020302020302020302020302020302020300A2020202D302E3338303220202020312E3436353320202020302E303030302043202020302020302020302020302020302020302020302020302020302020302020302020300A2020312020322020312020302020202020200A2020322020332020312020302020202020200A2020332020342020322020302020202020200A2020342020352020312020302020202020200A2020352020362020312020302020202020200A2020312020362020312020302020202020200A2020312020372020312020302020202020200A2020352020372020312020302020202020200A2020322020382020322020302020202020200A2020362020392020312020302020202020200A2020362031302020312020302020202020200A2020342031312020312020302020202020200A4D2020454E44
Contributor: HISAHIRO HAGIWARA, CHEMICAL RESEARCH INSTITUTE OF NON-AQUEOUSSOLUTIONS TOHOKU UNIV.
InstType: EI
InstName: HITACHI M-80B
IoniMethod: _ENERGY 70 eV
IonPolarity: pos
Date: 2010-10-09 19:48:36+02:00
Num Peaks: 59
14 14 15 28 26 27 27 428 29 144 38 52 39 636 40 75 41 509 42 45 
43 98 50 61 51 141 52 75 53 250 54 54 55 179 56 24 62 19 63 54 
64 16 65 145 66 66 67 184 68 20 69 54 70 96 77 240 78 55 79 416 
80 508 81 78 82 131 83 38 90 18 91 616 92 89 93 92 94 66 95 140 
96 39 103 22 105 144 106 29 107 999 108 311 109 132 110 12 115 27 117 34 
119 12 121 55 122 115 123 25 135 694 136 61 149 25 150 447 151 43 
