Name: CROTYLHYDRAZONE BUTYRALDEHYDE
MW: 140
Formula: C8H16N2
Synonym: MassBank: JP000865
Synonym: CROTYLHYDRAZONE BUTYRALDEHYDE
Synonym: BUTYRALDEHYDE 2-BUTENYLHYDRAZONE
Structure: 43524F54594C48594452415A4F4E45204255545952414C4445485944452E6D6F6C0A20204368656D447261773039303631303034353632440A2031302020392020302020302020302020302020302020302020302020303939392056323030300A2020202D302E3832353020202020302E3030303020202020302E303030302043202020302020302020302020302020302020302020302020302020302020302020302020300A2020202D312E3635303020202020302E3030303020202020302E303030302043202020302020302020302020302020302020302020302020302020302020302020302020300A2020202D322E303632352020202D302E3731343520202020302E303030302043202020302020302020302020302020302020302020302020302020302020302020302020300A2020202D322E383837352020202D302E3731343520202020302E303030302043202020302020302020302020302020302020302020302020302020302020302020302020300A2020202D302E3431323520202020302E3731343520202020302E30303030204E202020302020302020302020302020302020302020302020302020302020302020302020300A20202020302E3431323520202020302E3731343520202020302E30303030204E202020302020302020302020302020302020302020302020302020302020302020302020300A20202020302E383235302020202D302E3030303020202020302E303030302043202020302020302020302020302020302020302020302020302020302020302020302020300A20202020312E363530302020202D302E3030303020202020302E303030302043202020302020302020302020302020302020302020302020302020302020302020302020300A20202020322E303632352020202D302E3731343520202020302E303030302043202020302020302020302020302020302020302020302020302020302020302020302020300A20202020322E383837352020202D302E3731343520202020302E303030302043202020302020302020302020302020302020302020302020302020302020302020302020300A2020312020322020312020302020202020200A2020322020332020312020302020202020200A2020332020342020312020302020202020200A2020352020362020312020302020202020200A2020372020382020312020302020202020200A2020382020392020322020302020202020200A2020392031302020312020302020202020200A2020362020372020312020302020202020200A2020312020352020322020302020202020200A4D2020454E44
Contributor: SASAKI S, TOYOHASHI UNIV. OF TECH.
InstType: EI
InstName: SHIMADZU LKB-2091
IoniMethod: _ENERGY 70 eV
IonPolarity: pos
Date: 2010-10-09 19:48:36+02:00
Num Peaks: 45
27 590 28 433 29 668 30 38 31 34 39 322 40 53 41 86 42 200 43 656 
44 411 45 2 51 19 53 100 54 68 55 999 56 434 57 415 58 356 67 2 
68 266 69 211 70 266 71 16 72 61 80 14 81 17 82 4 83 54 84 41 
85 245 86 33 87 18 95 18 96 19 97 28 98 54 99 111 111 178 112 7 
113 18 125 156 139 43 140 57 141 63 
