Name: 3-INDOLEPROPIONIC ACID METHYL ESTER
MW: 203
Formula: C12H13NO2
Synonym: MassBank: JP002640
Synonym: 3-INDOLEPROPIONIC ACID METHYL ESTER
Structure: 332D494E444F4C4550524F50494F4E49432041434944204D455448594C2045535445522E6D6F6C0A20204368656D447261773032323231303231343432440A2031352031362020302020302020302020302020302020302020302020303939392056323030300A20202020302E393335352020202D312E3431373020202020302E30303030204E202020302020302020302020302020302020302020302020302020302020302020302020300A20202020302E313831302020202D312E3038303820202020302E303030302043202020302020302020302020302020302020302020302020302020302020302020302020300A20202020302E323637332020202D302E3236303420202020302E303030302043202020302020302020302020302020302020302020302020302020302020302020302020300A20202020312E303734322020202D302E3038383820202020302E303030302043202020302020302020302020302020302020302020302020302020302020302020302020300A20202020312E3438363720202020302E3632353620202020302E303030302043202020302020302020302020302020302020302020302020302020302020302020302020300A20202020322E3331313720202020302E3632353620202020302E303030302043202020302020302020302020302020302020302020302020302020302020302020302020300A20202020322E373234322020202D302E3038383820202020302E303030302043202020302020302020302020302020302020302020302020302020302020302020302020300A20202020322E333131372020202D302E3830333320202020302E303030302043202020302020302020302020302020302020302020302020302020302020302020302020300A20202020312E343836372020202D302E3830333320202020302E303030302043202020302020302020302020302020302020302020302020302020302020302020302020300A2020202D312E3731333820202020302E3632303120202020302E303030302043202020302020302020302020302020302020302020302020302020302020302020302020300A2020202D312E3133303520202020302E3033363720202020302E303030302043202020302020302020302020302020302020302020302020302020302020302020302020300A2020202D302E3334353820202020302E3239313720202020302E303030302043202020302020302020302020302020302020302020302020302020302020302020302020300A2020202D312E3530303320202020312E3431373020202020302E30303030204F202020302020302020302020302020302020302020302020302020302020302020302020300A2020202D322E3531303720202020302E3430363620202020302E30303030204F202020302020302020302020302020302020302020302020302020302020302020302020300A2020202D322E373234322020202D302E3339303320202020302E303030302043202020302020302020302020302020302020302020302020302020302020302020302020300A2020312020322020312020302020202020200A2020322020332020322020302020202020200A2020332020342020312020302020202020200A2020342020352020312020302020202020200A2020352020362020322020302020202020200A2020362020372020312020302020202020200A2020372020382020322020302020202020200A2020382020392020312020302020202020200A2020312020392020312020302020202020200A2020342020392020322020302020202020200A2031302031312020312020302020202020200A2031312031322020312020302020202020200A2031302031332020322020302020202020200A2031302031342020312020302020202020200A2020332031322020312020302020202020200A2031342031352020312020302020202020200A4D2020454E44
Contributor: KOGA M, UNIV. OF OCCUPATIONAL AND ENVIRONMENTAL HEALTH
InstType: EI
InstName: JEOL JMS-01-SG
IoniMethod: _ENERGY 70 eV
IonPolarity: pos
Date: 2010-10-09 19:48:36+02:00
Num Peaks: 18
39 25 41 35 42 30 51 7 56 25 65 25 89 25 103 3 115 75 129 30 
130 999 131 9 142 30 143 75 144 60 186 1 203 211 204 25 
