Name: ISOVALERALDEHYDE DIETHYL ACETAL
MW: 160
Formula: C9H20O2
Synonym: MassBank: JP008639
Synonym: ISOVALERALDEHYDE DIETHYL ACETAL
Synonym: 3-METHYLBUTANAL DIETHYL ACETAL
Structure: 49534F56414C4552414C444548594445204449455448594C2041434554414C2E6D6F6C0A20204368656D447261773033323031303135313432440A2031312031302020302020302020302020302020302020302020302020303939392056323030300A20202020302E3731343520202020302E3230363220202020302E303030302043202020302020302020302020302020302020302020302020302020302020302020302020300A2020202D302E3030303020202020302E3631383720202020302E303030302043202020302020302020302020302020302020302020302020302020302020302020302020300A2020202D302E3731343520202020302E3230363220202020302E303030302043202020302020302020302020302020302020302020302020302020302020302020302020300A2020202D312E3432383920202020302E3631383720202020302E303030302043202020302020302020302020302020302020302020302020302020302020302020302020300A2020202D302E373134352020202D302E3631383820202020302E303030302043202020302020302020302020302020302020302020302020302020302020302020302020300A20202020312E3432383920202020302E3631383720202020302E30303030204F202020302020302020302020302020302020302020302020302020302020302020302020300A20202020302E373134352020202D302E3631383820202020302E30303030204F202020302020302020302020302020302020302020302020302020302020302020302020300A20202020312E3432383920202020312E3434333720202020302E303030302043202020302020302020302020302020302020302020302020302020302020302020302020300A20202020302E3731343520202020312E3835363320202020302E303030302043202020302020302020302020302020302020302020302020302020302020302020302020300A2020202D302E303030302020202D312E3033313320202020302E303030302043202020302020302020302020302020302020302020302020302020302020302020302020300A2020202D302E303030302020202D312E3835363320202020302E303030302043202020302020302020302020302020302020302020302020302020302020302020302020300A2020312020322020312020302020202020200A2020322020332020312020302020202020200A2020332020342020312020302020202020200A2020332020352020312020302020202020200A2020382020392020312020302020202020200A2020362020382020312020302020202020200A2031302031312020312020302020202020200A2020372031302020312020302020202020200A2020312020362020312020302020202020200A2020312020372020312020302020202020200A4D2020454E44
Contributor: SODA AROMATIC CO., LTD.
InstType: EI
InstName: HITACHI M-80B
IoniMethod: _ENERGY 70 eV
IonPolarity: pos
Date: 2010-10-09 19:48:36+02:00
Num Peaks: 36
15 31 19 22 26 20 27 300 29 453 30 16 31 150 39 123 41 299 42 36 
43 386 44 128 45 341 46 17 47 889 53 28 55 27 57 75 59 211 61 18 
68 10 69 460 70 22 71 334 72 39 73 37 75 559 76 15 85 14 87 40 
99 140 103 999 104 44 114 37 115 451 116 27 
