Name: ETHYLENE-OXIDE
CAS: 75-21-8
MW: 44
Formula: C2H4O
Synonym: MassBank: JP001575
Synonym: ETHYLENE-OXIDE
Synonym: OXIRANE
Structure: 310A31310A455448594C454E452D4F584944452E6D6F6C0A20204368656D447261773038313131303139303632440A2020332020332020302020302020302020302020302020302020302020303939392056323030300A2020202D302E343132352020202D302E3335373220202020302E303030302043202020302020302020302020302020302020302020302020302020302020302020302020300A20202020302E3030303020202020302E3335373220202020302E303030302043202020302020302020302020302020302020302020302020302020302020302020302020300A20202020302E343132352020202D302E3335373220202020302E30303030204F202020302020302020302020302020302020302020302020302020302020302020302020300A2020312020322020312020302020202020200A2020312020332020312020302020202020200A2020322020332020312020302020202020200A4D2020454E44
Contributor: MASS SPECTROSCOPY SOC. OF JAPAN (MSSJ)
InstType: EI
InstName: HITACHI RMU-5B
IoniMethod: _ENERGY 80 eV
IonPolarity: pos
Date: 2010-10-09 19:48:36+02:00
Num Peaks: 14
12 27 14 218 15 542 16 72 26 59 27 42 28 58 29 999 30 23 41 13 
42 120 43 157 44 618 45 15 
