Name: METHYL 3-(4-HYDROXYPHENYL)-2-PROPENOATE
CAS: 3943-97-3
MW: 178
Formula: C10H10O3
Synonym: MassBank: JP004567
Synonym: METHYL 3-(4-HYDROXYPHENYL)-2-PROPENOATE
Synonym: METHYL COUMARATE
Structure: 4D455448594C20332D28342D485944524F58595048454E594C292D322D50524F50454E4F4154452E6D6F6C0A20204368656D447261773038313131303233343632440A2031332031332020302020302020302020302020302020302020302020303939392056323030300A2020202D322E3036323520202020302E3335373220202020302E303030302043202020302020302020302020302020302020302020302020302020302020302020302020300A2020202D312E3233373520202020302E3335373220202020302E303030302043202020302020302020302020302020302020302020302020302020302020302020302020300A2020202D302E383235302020202D302E3335373220202020302E303030302043202020302020302020302020302020302020302020302020302020302020302020302020300A2020202D322E3437353020202020312E3037313720202020302E30303030204F202020302020302020302020302020302020302020302020302020302020302020302020300A2020202D322E343735302020202D302E3335373220202020302E30303030204F202020302020302020302020302020302020302020302020302020302020302020302020300A20202020302E303030302020202D302E3335373220202020302E303030302043202020302020302020302020302020302020302020302020302020302020302020302020300A20202020302E3431323520202020302E3335373220202020302E303030302043202020302020302020302020302020302020302020302020302020302020302020302020300A20202020312E3233373520202020302E3335373220202020302E303030302043202020302020302020302020302020302020302020302020302020302020302020302020300A20202020312E363530302020202D302E3335373220202020302E303030302043202020302020302020302020302020302020302020302020302020302020302020302020300A20202020312E323337352020202D312E3037313720202020302E303030302043202020302020302020302020302020302020302020302020302020302020302020302020300A20202020302E343132352020202D312E3037313720202020302E303030302043202020302020302020302020302020302020302020302020302020302020302020302020300A20202020322E343735302020202D302E3335373220202020302E30303030204F202020302020302020302020302020302020302020302020302020302020302020302020300A2020202D322E303632352020202D312E3037313720202020302E303030302043202020302020302020302020302020302020302020302020302020302020302020302020300A2020312020322020312020302020202020200A2020322020332020322020302020202020200A2020312020342020322020302020202020200A2020312020352020312020302020202020200A2020362020372020312020302020202020200A2020372020382020322020302020202020200A2020382020392020312020302020202020200A2020392031302020322020302020202020200A2031302031312020312020302020202020200A2020362031312020322020302020202020200A2020392031322020312020302020202020200A2020332020362020312020302020202020200A2020352031332020312020302020202020200A4D2020454E44
Contributor: HAYASHI A, DEPT. OF CHEMISTRY, FAC. OF SCI. AND TECHNOLOGY, KINKI UNIV.
InstType: EI
InstName: SHIMADZU LKB-9000B
IoniMethod: _ENERGY 70 eV
IonPolarity: pos
Date: 2010-10-09 19:48:36+02:00
Num Peaks: 63
37 5 38 15 39 73 41 1 43 9 45 7 46 14 50 2 51 35 52 9 
53 21 59 5 60 21 61 8 62 28 63 8 64 35 65 150 66 17 74 2 
75 21 77 15 78 7 79 1 86 5 87 6 88 5 89 8 90 32 91 193 
92 25 94 1 101 17 102 7 103 7 105 1 106 8 107 25 108 5 117 1 
118 111 119 309 120 94 121 2 122 8 131 6 132 10 133 2 134 10 135 9 
137 12 145 1 146 22 147 999 148 91 149 1 150 5 160 5 161 6 177 3 
178 554 179 77 180 12 
