Name: 2-HEPTENOL
MW: 114
Formula: C7H14O
Synonym: MassBank: JP006851
Synonym: 2-HEPTENOL
Structure: 310A32300A322D48455054454E4F4C2E6D6F6C0A20204368656D447261773031303331303134303632440A2020382020372020302020302020302020302020302020302020302020303939392056323030300A2020202D312E3738363220202020302E3230363320202020302E303030302043202020302020302020302020302020302020302020302020302020302020302020302020300A2020202D312E303731372020202D302E3230363320202020302E303030302043202020302020302020302020302020302020302020302020302020302020302020302020300A2020202D302E3335373220202020302E3230363320202020302E303030302043202020302020302020302020302020302020302020302020302020302020302020302020300A20202020302E333537322020202D302E3230363220202020302E303030302043202020302020302020302020302020302020302020302020302020302020302020302020300A20202020312E3037313720202020302E3230363320202020302E303030302043202020302020302020302020302020302020302020302020302020302020302020302020300A20202020312E373836322020202D302E3230363220202020302E303030302043202020302020302020302020302020302020302020302020302020302020302020302020300A20202020322E3530303620202020302E3230363320202020302E303030302043202020302020302020302020302020302020302020302020302020302020302020302020300A2020202D322E353030362020202D302E3230363320202020302E30303030204F202020302020302020302020302020302020302020302020302020302020302020302020300A2020312020322020312020302020202020200A2020322020332020322020302020202020200A2020332020342020312020302020202020200A2020342020352020312020302020202020200A2020352020362020312020302020202020200A2020362020372020312020302020202020200A2020312020382020312020302020202020200A4D2020454E44
Contributor: TAJIMA S, GUNMA COLLEGE OF TECHNOLOGY
InstType: EI
InstName: HITACHI M-80B
IoniMethod: _ENERGY 70 eV
IonPolarity: pos
Date: 2010-10-09 19:48:36+02:00
Num Peaks: 39
15 16 26 20 27 327 28 23 29 283 30 12 31 125 38 15 39 244 40 31 
41 492 42 181 43 261 44 184 45 32 50 11 51 23 52 12 53 55 54 149 
55 315 56 72 57 999 58 63 65 12 67 80 68 154 69 39 70 89 71 106 
72 38 81 171 82 12 83 14 85 26 86 16 96 93 114 19 115 12 
