Name: MassBank: JP004372
MW: 172
Formula: C9H16O3
Synonym: MassBank: JP004372
Synonym: ENDO 1-ETHYL-5-METHYL-6,8-DIOXABICYCLO(3,2,1)OCTAN-3-OL
Structure: 454E444F20312D455448594C2D352D4D455448594C2D362C382D44494F584142494359434C4F28332C322C31294F4354414E2D332D4F4C2E6D6F6C0A20204368656D447261773038313131303137353332440A2031322031332020302020302020302020302020302020302020302020303939392056323030300A2020202D302E323036332020202D302E3030303020202020302E303030302043202020302020302020302020302020302020302020302020302020302020302020302020300A20202020302E3230363220202020302E3731343520202020302E303030302043202020302020302020302020302020302020302020302020302020302020302020302020300A20202020312E3033313220202020302E3731343520202020302E303030302043202020302020302020302020302020302020302020302020302020302020302020302020300A20202020312E343433382020202D302E3030303020202020302E303030302043202020302020302020302020302020302020302020302020302020302020302020302020300A20202020312E303331322020202D302E3731343520202020302E303030302043202020302020302020302020302020302020302020302020302020302020302020302020300A20202020302E393930312020202D302E3033353120202020302E30303030204F202020302020302020302020302020302020302020302020302020302020302020302020300A20202020302E3430303620202020302E3330353220202020302E303030302043202020302020302020302020302020302020302020302020302020302020302020302020300A20202020302E323036322020202D302E3731343520202020302E30303030204F202020302020302020302020302020302020302020302020302020302020302020302020300A20202020312E3434333720202020312E3432383920202020302E30303030204F202020302020302020302020302020302020302020302020302020302020302020302020300A20202020312E343433372020202D312E3432383920202020302E303030302043202020302020302020302020302020302020302020302020302020302020302020302020300A2020202D312E303331332020202D302E3030303020202020302E303030302043202020302020302020302020302020302020302020302020302020302020302020302020300A2020202D312E343433382020202D302E3731343520202020302E303030302043202020302020302020302020302020302020302020302020302020302020302020302020300A2020312020322020312020302020202020200A2020322020332020312020302020202020200A2020332020342020312020302020202020200A2020342020352020312020302020202020200A2020352020362020312020302020202020200A2020362020372020312020302020202020200A2020312020372020312020302020202020200A2020312020382020312020302020202020200A2020352020382020312020302020202020200A2020332020392020312020302020202020200A2020352031302020312020302020202020200A2031312031322020312020302020202020200A2020312031312020312020302020202020200A4D2020454E44
Contributor: HAGIWARA H, CHEM. RES. INST. OF NON-AQUEOUS SOLUTIONS, TOHOKU UNIV.
InstType: EI
InstName: JEOL JMS-DX-300
IoniMethod: _ENERGY 70 eV
IonPolarity: pos
Date: 2010-10-09 19:48:36+02:00
Num Peaks: 58
27 102 28 33 29 237 30 1 31 58 39 87 40 20 41 141 42 54 43 999 
44 36 45 38 53 33 55 71 56 18 57 462 58 90 59 25 67 37 68 21 
69 77 70 22 71 206 72 118 73 22 79 14 81 26 82 23 83 56 84 72 
85 384 86 33 87 17 88 46 89 39 95 67 96 266 97 89 98 21 99 4 
100 12 101 58 109 46 111 32 113 63 114 12 115 69 125 28 126 11 139 15 
140 34 141 15 142 24 143 42 154 36 155 13 157 34 172 6 
