Name: 3-METHYL-1-BUTANETHIOL
MW: 104
Formula: C5H12S
Synonym: MassBank: JP009157
Synonym: 3-METHYL-1-BUTANETHIOL
Structure: 310A31360A332D4D455448594C2D312D425554414E455448494F4C2E6D6F6C0A20204368656D447261773032323231303233323032440A2020362020352020302020302020302020302020302020302020302020303939392056323030300A2020202D302E373134352020202D302E3230363220202020302E303030302043202020302020302020302020302020302020302020302020302020302020302020302020300A20202020302E303030302020202D302E3631383820202020302E303030302043202020302020302020302020302020302020302020302020302020302020302020302020300A20202020302E373134352020202D302E3230363220202020302E303030302043202020302020302020302020302020302020302020302020302020302020302020302020300A20202020302E3731343520202020302E3631383820202020302E303030302043202020302020302020302020302020302020302020302020302020302020302020302020300A2020202D312E343238392020202D302E3631383820202020302E303030302053202020302020302020302020302020302020302020302020302020302020302020302020300A20202020312E343238392020202D302E3631383820202020302E303030302043202020302020302020302020302020302020302020302020302020302020302020302020300A2020312020322020312020302020202020200A2020322020332020312020302020202020200A2020332020342020312020302020202020200A2020312020352020312020302020202020200A2020332020362020312020302020202020200A4D2020454E44
Contributor: SODA AROMATIC CO., LTD.
InstType: EI
InstName: HITACHI M-80B
IoniMethod: _ENERGY 70 eV
IonPolarity: pos
Date: 2010-10-09 19:48:36+02:00
Num Peaks: 39
15 24 26 22 27 310 28 51 29 208 33 17 34 15 35 47 38 17 39 251 
40 32 41 469 42 363 43 373 44 12 45 121 46 50 47 341 48 15 49 15 
50 13 51 18 53 44 54 20 55 999 56 69 57 65 58 35 59 47 60 58 
61 312 62 22 63 14 69 34 70 902 71 66 104 392 105 27 106 16 
