Name: MassBank: JP000457
MW: 131
Formula: C5H6ClNO
Synonym: MassBank: JP000457
Synonym: 4-CHLORO-3,5-DIMETHYLISOXAZOLE
Structure: 310A32310A342D43484C4F524F2D332C352D44494D455448594C49534F58415A4F4C452E6D6F6C0A20204368656D447261773033323531303039323232440A2020382020382020302020302020302020302020302020302020302020303939392056323030300A20202020312E3034373320202020302E3431323520202020302E30303030204F202020302020302020302020302020302020302020302020302020302020302020302020300A20202020312E303437332020202D302E3431323520202020302E30303030204E202020302020302020302020302020302020302020302020302020302020302020302020300A20202020302E323632372020202D302E3636373420202020302E303030302043202020302020302020302020302020302020302020302020302020302020302020302020300A2020202D302E323232332020202D302E3030303020202020302E303030302043202020302020302020302020302020302020302020302020302020302020302020302020300A20202020302E3236323720202020302E3636373420202020302E303030302043202020302020302020302020302020302020302020302020302020302020302020302020300A20202020302E3030373720202020312E3435323120202020302E303030302043202020302020302020302020302020302020302020302020302020302020302020302020300A20202020302E303037372020202D312E3435323120202020302E303030302043202020302020302020302020302020302020302020302020302020302020302020302020300A2020202D312E303437332020202D302E3030303020202020302E3030303020436C2020302020302020302020302020302020302020302020302020302020302020302020300A2020312020322020312020302020202020200A2020322020332020322020302020202020200A2020332020342020312020302020202020200A2020342020352020322020302020202020200A2020312020352020312020302020202020200A2020352020362020312020302020202020200A2020332020372020312020302020202020200A2020342020382020312020302020202020200A4D2020454E44
Contributor: SASAKI S, TOYOHASHI UNIV. OF TECH.
InstType: EI
InstName: MX-1303
IoniMethod: _ENERGY 50 eV
IonPolarity: pos
Date: 2010-10-09 19:48:36+02:00
Num Peaks: 50
26 68 27 145 29 29 30 1 36 20 37 28 38 52 39 13 40 56 41 65 
42 224 43 999 45 13 47 55 48 20 49 3 50 24 51 51 52 58 53 2 
54 222 55 57 60 15 61 7 62 240 63 67 64 80 65 3 66 13 67 10 
68 19 74 1 75 15 76 13 86 15 87 1 88 203 89 340 90 95 91 14 
96 17 101 11 102 104 104 3 116 127 118 47 130 40 131 38 132 42 133 158 
