Name: PARA-FLUOROBENZALDEHYDE
MW: 124
Formula: C7H5FO
Synonym: MassBank: JP009402
Synonym: PARA-FLUOROBENZALDEHYDE
Structure: 310A32330A504152412D464C554F524F42454E5A414C4445485944452E6D6F6C0A20204368656D447261773038313231303034323232440A2020392020392020302020302020302020302020302020302020302020303939392056323030300A2020202D312E3434333720202020302E3030303020202020302E303030302043202020302020302020302020302020302020302020302020302020302020302020302020300A2020202D302E3631383720202020302E3030303020202020302E303030302043202020302020302020302020302020302020302020302020302020302020302020302020300A2020202D302E3230363220202020302E3731343520202020302E303030302043202020302020302020302020302020302020302020302020302020302020302020302020300A20202020302E3631383720202020302E3731343520202020302E303030302043202020302020302020302020302020302020302020302020302020302020302020302020300A20202020312E303331332020202D302E3030303020202020302E303030302043202020302020302020302020302020302020302020302020302020302020302020302020300A20202020302E363138382020202D302E3731343520202020302E303030302043202020302020302020302020302020302020302020302020302020302020302020302020300A2020202D302E323036322020202D302E3731343520202020302E303030302043202020302020302020302020302020302020302020302020302020302020302020302020300A2020202D312E3835363320202020302E3731343520202020302E30303030204F202020302020302020302020302020302020302020302020302020302020302020302020300A20202020312E383536332020202D302E3030303020202020302E303030302046202020302020302020302020302020302020302020302020302020302020302020302020300A2020312020322020312020302020202020200A2020322020332020312020302020202020200A2020332020342020322020302020202020200A2020342020352020312020302020202020200A2020352020362020322020302020202020200A2020362020372020312020302020202020200A2020322020372020322020302020202020200A2020312020382020322020302020202020200A2020352020392020312020302020202020200A4D2020454E44
Contributor: GUNMA COLLEGE OF TECHNOLOGY
InstType: EI
InstName: HITACHI M-80A
IoniMethod: _ENERGY 70 eV
IonPolarity: pos
Date: 2010-10-09 19:48:36+02:00
Num Peaks: 42
18 12 26 26 27 24 29 182 31 63 36 11 37 80 38 74 39 76 43 31 
44 13 45 20 48 20 49 52 50 297 51 148 52 21 53 12 56 20 57 68 
61 52 62 56 63 63 68 87 69 136 70 133 73 37 74 160 75 447 76 55 
77 18 81 20 92 20 93 23 94 69 95 917 96 201 97 13 109 22 123 999 
124 933 125 84 
