Name: MassBank: JP005534
MW: 292
Formula: C19H16OS
Synonym: MassBank: JP005534
Synonym: 2,6-DIMETHYL-3,5-DIPHENYL-4-PYRAN-4-THIONE
Structure: 322C362D44494D455448594C2D332C352D44495048454E594C2D342D505952414E2D342D5448494F4E452E6D6F6C0A20204368656D447261773132323130393034323432440A2032312032332020302020302020302020302020302020302020302020303939392056323030300A2020202D302E3731343520202020312E3033313320202020302E303030302043202020302020302020302020302020302020302020302020302020302020302020302020300A2020202D302E3731343520202020302E3230363220202020302E303030302043202020302020302020302020302020302020302020302020302020302020302020302020300A20202020302E303030302020202D302E3230363220202020302E303030302043202020302020302020302020302020302020302020302020302020302020302020302020300A20202020302E3731343520202020302E3230363220202020302E303030302043202020302020302020302020302020302020302020302020302020302020302020302020300A20202020302E3731343520202020312E3033313320202020302E303030302043202020302020302020302020302020302020302020302020302020302020302020302020300A20202020302E3030303020202020312E3434333820202020302E30303030204F202020302020302020302020302020302020302020302020302020302020302020302020300A2020202D312E3432383920202020312E3434333820202020302E303030302043202020302020302020302020302020302020302020302020302020302020302020302020300A20202020312E3432383920202020312E3434333820202020302E303030302043202020302020302020302020302020302020302020302020302020302020302020302020300A2020202D312E343238392020202D302E3230363220202020302E303030302043202020302020302020302020302020302020302020302020302020302020302020302020300A20202020312E343238392020202D302E3230363220202020302E303030302043202020302020302020302020302020302020302020302020302020302020302020302020300A20202020302E303030302020202D312E3033313320202020302E303030302053202020302020302020302020302020302020302020302020302020302020302020302020300A2020202D322E3134333420202020302E3230363220202020302E303030302043202020302020302020302020302020302020302020302020302020302020302020302020300A2020202D322E383537392020202D302E3230363220202020302E303030302043202020302020302020302020302020302020302020302020302020302020302020302020300A2020202D322E383537392020202D312E3033313320202020302E303030302043202020302020302020302020302020302020302020302020302020302020302020302020300A2020202D322E313433342020202D312E3434333820202020302E303030302043202020302020302020302020302020302020302020302020302020302020302020302020300A2020202D312E343238392020202D312E3033313320202020302E303030302043202020302020302020302020302020302020302020302020302020302020302020302020300A20202020312E343238392020202D312E3033313320202020302E303030302043202020302020302020302020302020302020302020302020302020302020302020302020300A20202020322E313433342020202D312E3434333820202020302E303030302043202020302020302020302020302020302020302020302020302020302020302020302020300A20202020322E383537392020202D312E3033313320202020302E303030302043202020302020302020302020302020302020302020302020302020302020302020302020300A20202020322E383537392020202D302E3230363220202020302E303030302043202020302020302020302020302020302020302020302020302020302020302020302020300A20202020322E3134333420202020302E3230363220202020302E303030302043202020302020302020302020302020302020302020302020302020302020302020302020300A2020312020322020322020302020202020200A2020322020332020312020302020202020200A2020332020342020312020302020202020200A2020342020352020322020302020202020200A2020352020362020312020302020202020200A2020362020312020312020302020202020200A2020312020372020312020302020202020200A2020352020382020312020302020202020200A2020322020392020312020302020202020200A2020342031302020312020302020202020200A2020332031312020322020302020202020200A2020392031322020322020302020202020200A2031322031332020312020302020202020200A2031332031342020322020302020202020200A2031342031352020312020302020202020200A2031352031362020322020302020202020200A2031362020392020312020302020202020200A2031302031372020322020302020202020200A2031372031382020312020302020202020200A2031382031392020322020302020202020200A2031392032302020312020302020202020200A2032302032312020322020302020202020200A2032312031302020312020302020202020200A4D2020454E44
Contributor: MASS SPECTROSCOPY SOC. OF JAPAN (MSSJ)
InstType: EI
InstName: HITACHI RMS-4
IoniMethod: _ENERGY 70 eV
IonPolarity: pos
Date: 2010-10-09 19:48:36+02:00
Num Peaks: 101
28 12 29 7 31 14 32 11 39 16 41 10 43 203 44 7 45 10 51 17 
55 12 57 16 63 17 65 12 69 10 71 9 75 7 77 33 78 7 81 7 
83 7 85 7 87 7 88 7 89 22 90 6 91 29 92 5 93 7 95 7 
97 7 101 11 102 7 103 12 105 18 113 7 114 7 115 59 116 9 117 11 
121 11 122.5 7 123 6 123.5 7 124 6 125 4 126 7 127 11 128 9 129 14 
129.5 9 132 11 134 7 135.5 6 136 7 137 7 138 6 138.5 6 139 11 145 10 
146 40 146.5 9 147 17 171 17 184 7 185 7 186 6 187 6 189 16 199 4 
200 6 201 4 202 20 203 9 213 12 214 6 215 43 216 14 221 12 232 7 
233 5 234 22 235 5 245 17 246 7 247 53 248 28 249 9 258 7 259 7 
261 7 275 9 276 7 277 7 289 4 290 12 291 999 292 485 293 138 294 36 
295 6 
