Name: CYCLODECYL FORMATE
MW: 184
Formula: C11H20O2
Synonym: MassBank: JP008448
Synonym: CYCLODECYL FORMATE
Structure: 4359434C4F444543594C20464F524D4154452E6D6F6C0A20204368656D447261773039313531303035323232440A2031332031332020302020302020302020302020302020302020302020303939392056323030300A20202020312E353431312020202D302E3731343520202020302E303030302043202020302020302020302020302020302020302020302020302020302020302020302020300A20202020322E333636312020202D302E3731343520202020302E30303030204F202020302020302020302020302020302020302020302020302020302020302020302020300A20202020312E3132383620202020302E3030303020202020302E30303030204F202020302020302020302020302020302020302020302020302020302020302020302020300A20202020302E3330333620202020302E3030303020202020302E303030302043202020302020302020302020302020302020302020302020302020302020302020302020300A20202020302E303438372020202D302E3738343620202020302E303030302043202020302020302020302020302020302020302020302020302020302020302020302020300A2020202D302E363138372020202D312E3236393520202020302E303030302043202020302020302020302020302020302020302020302020302020302020302020302020300A2020202D312E343433372020202D312E3236393520202020302E303030302043202020302020302020302020302020302020302020302020302020302020302020302020300A2020202D322E313131322020202D302E3738343620202020302E303030302043202020302020302020302020302020302020302020302020302020302020302020302020300A2020202D322E3336363120202020302E3030303020202020302E303030302043202020302020302020302020302020302020302020302020302020302020302020302020300A2020202D322E3131313220202020302E3738343620202020302E303030302043202020302020302020302020302020302020302020302020302020302020302020302020300A2020202D312E3434333820202020312E3236393520202020302E303030302043202020302020302020302020302020302020302020302020302020302020302020302020300A2020202D302E3631383820202020312E3236393520202020302E303030302043202020302020302020302020302020302020302020302020302020302020302020302020300A20202020302E3034383720202020302E3738343620202020302E303030302043202020302020302020302020302020302020302020302020302020302020302020302020300A2020312020322020322020302020202020200A2020312020332020312020302020202020200A2020342020352020312020302020202020200A2020352020362020312020302020202020200A2020362020372020312020302020202020200A2020372020382020312020302020202020200A2020382020392020312020302020202020200A2020392031302020312020302020202020200A2031302031312020312020302020202020200A2031312031322020312020302020202020200A2031322031332020312020302020202020200A2020342031332020312020302020202020200A2020332020342020312020302020202020200A4D2020454E44
Contributor: SODA AROMATIC CO., LTD.
InstType: EI
InstName: HITACHI M-80B
IoniMethod: _ENERGY 70 eV
IonPolarity: pos
Date: 2010-10-09 19:48:36+02:00
Num Peaks: 33
27 49 29 131 31 10 39 68 41 303 42 18 43 66 44 17 53 46 54 62 
55 122 56 321 57 999 58 46 65 10 67 327 68 24 69 55 77 14 79 49 
80 148 81 205 82 381 83 278 84 17 95 23 123 151 124 13 127 32 128 36 
129 96 138 51 139 15 
