Name: MassBank: JP000911
MW: 182
Formula: C11H18O2
Synonym: MassBank: JP000911
Synonym: 2,3-DIHYDRO-2-HEXYL-5-METHYLFURAN-3-ONE
Structure: 322C332D4449485944524F2D322D484558594C2D352D4D455448594C465552414E2D332D4F4E452E6D6F6C0A20204368656D447261773132323030393131323532440A2031332031332020302020302020302020302020302020302020302020303939392056323030300A2020202D312E3830333920202020302E3230393420202020302E30303030204F202020302020302020302020302020302020302020302020302020302020302020302020300A2020202D302E3938333420202020302E3239353620202020302E303030302043202020302020302020302020302020302020302020302020302020302020302020302020300A2020202D302E363437392020202D302E3435383120202020302E303030302043202020302020302020302020302020302020302020302020302020302020302020302020300A2020202D312E323630392020202D312E3031303120202020302E303030302043202020302020302020302020302020302020302020302020302020302020302020302020300A2020202D312E393735342020202D302E3539373620202020302E303030302043202020302020302020302020302020302020302020302020302020302020302020302020300A20202020302E313539312020202D302E3632393620202020302E30303030204F202020302020302020302020302020302020302020302020302020302020302020302020300A2020202D322E373239312020202D302E3933333120202020302E303030302043202020302020302020302020302020302020302020302020302020302020302020302020300A2020202D302E3537303920202020312E3031303120202020302E303030302043202020302020302020302020302020302020302020302020302020302020302020302020300A20202020302E3235343120202020312E3031303120202020302E303030302043202020302020302020302020302020302020302020302020302020302020302020302020300A20202020302E3636363620202020302E3239353620202020302E303030302043202020302020302020302020302020302020302020302020302020302020302020302020300A20202020312E3439313620202020302E3239353620202020302E303030302043202020302020302020302020302020302020302020302020302020302020302020302020300A20202020312E393034312020202D302E3431383920202020302E303030302043202020302020302020302020302020302020302020302020302020302020302020302020300A20202020322E373239312020202D302E3431383920202020302E303030302043202020302020302020302020302020302020302020302020302020302020302020302020300A2020312020322020312020302020202020200A2020322020332020312020302020202020200A2020332020342020312020302020202020200A2020342020352020322020302020202020200A2020312020352020312020302020202020200A2020332020362020322020302020202020200A2020352020372020312020302020202020200A2020382020392020312020302020202020200A2020392031302020312020302020202020200A2031302031312020312020302020202020200A2031312031322020312020302020202020200A2031322031332020312020302020202020200A2020322020382020312020302020202020200A4D2020454E44
Contributor: KAMEOKA H, DEPT. OF APPLIED CHEMISTRY, FAC. OF SCI. AND ENGINEERING, KINKI UNIV.
InstType: EI
InstName: SHIMADZU LKB-9000B
IoniMethod: _ENERGY 70 eV
IonPolarity: pos
Date: 2010-10-09 19:48:36+02:00
Num Peaks: 20
39 203 40 200 41 258 42 6 43 22 55 106 56 41 57 6 67 26 68 170 
69 76 70 2 71 46 85 64 97 54 98 999 99 58 111 522 112 40 182 40 
