Name: METHYLCYCLOPENTANE
MW: 84
Formula: C6H12
Synonym: MassBank: JP005995
Synonym: METHYLCYCLOPENTANE
Structure: 310A31370A4D455448594C4359434C4F50454E54414E452E6D6F6C0A20204368656D447261773038313231303030343932440A2020362020362020302020302020302020302020302020302020302020303939392056323030300A2020202D302E323232332020202D302E3030303020202020302E303030302043202020302020302020302020302020302020302020302020302020302020302020302020300A20202020302E3236323720202020302E3636373420202020302E303030302043202020302020302020302020302020302020302020302020302020302020302020302020300A20202020312E3034373320202020302E3431323520202020302E303030302043202020302020302020302020302020302020302020302020302020302020302020302020300A20202020312E303437332020202D302E3431323520202020302E303030302043202020302020302020302020302020302020302020302020302020302020302020302020300A20202020302E323632372020202D302E3636373420202020302E303030302043202020302020302020302020302020302020302020302020302020302020302020302020300A2020202D312E303437332020202D302E3030303020202020302E303030302043202020302020302020302020302020302020302020302020302020302020302020302020300A2020312020322020312020302020202020200A2020322020332020312020302020202020200A2020332020342020312020302020202020200A2020342020352020312020302020202020200A2020312020352020312020302020202020200A2020312020362020312020302020202020200A4D2020454E44
Contributor: YAMAMOTO M, DEP. CHEMISTRY, FAC. SCIENCE, NARA WOMEN'S UNIV.
InstType: EI
InstName: HITACHI RMU-6M
IoniMethod: _ENERGY 70 eV
IonPolarity: pos
Date: 2010-10-09 19:48:36+02:00
Num Peaks: 32
15 10 17 19 18 87 26 1 27 125 28 57 29 75 32 1 37 6 38 14 
39 156 40 4 41 514 42 240 43 105 50 1 51 18 52 7 53 34 54 3 
55 241 56 999 57 48 65 1 66 6 67 26 68 41 69 37 70 22 83 10 
84 255 85 18 
