Name: CYCLOHEPTATRIENE
MW: 92
Formula: C7H8
Synonym: MassBank: JP001554
Synonym: CYCLOHEPTATRIENE
Structure: 310A31390A4359434C4F4845505441545249454E452E6D6F6C0A20204368656D447261773039313531303035333332440A2020372020372020302020302020302020302020302020302020302020303939392056323030300A2020202D302E343132352020202D302E3930333620202020302E303030302043202020302020302020302020302020302020302020302020302020302020302020302020300A2020202D302E393236392020202D302E3235383620202020302E303030302043202020302020302020302020302020302020302020302020302020302020302020302020300A2020202D302E3734333320202020302E3534353720202020302E303030302043202020302020302020302020302020302020302020302020302020302020302020302020300A2020202D302E3030303020202020302E3930333620202020302E303030302043202020302020302020302020302020302020302020302020302020302020302020302020300A20202020302E3734333320202020302E3534353720202020302E303030302043202020302020302020302020302020302020302020302020302020302020302020302020300A20202020302E393236392020202D302E3235383620202020302E303030302043202020302020302020302020302020302020302020302020302020302020302020302020300A20202020302E343132352020202D302E3930333620202020302E303030302043202020302020302020302020302020302020302020302020302020302020302020302020300A2020312020322020322020302020202020200A2020322020332020312020302020202020200A2020332020342020322020302020202020200A2020342020352020312020302020202020200A2020352020362020322020302020202020200A2020362020372020312020302020202020200A2020312020372020312020302020202020200A4D2020454E44
Contributor: YAMAMOTO M, DEP. CHEMISTRY, FAC. SCIENCE, NARA WOMEN'S UNIV.
InstType: EI
InstName: HITACHI RMU-6M
IoniMethod: _ENERGY 70 eV
IonPolarity: pos
Date: 2010-10-09 19:48:36+02:00
Num Peaks: 28
26 12 27 43 37 20 38 45 39 192 40 29 41 19 43 12 45 25 455 12 
46 15 50 40 51 69 52 22 53 19 61 20 62 40 63 89 64 20 65 200 
66 36 77 20 79 13 89 38 90 16 91 999 92 494 93 38 
