Name: ISOPROPYLIODIDE
MW: 169
Formula: C3H7I
Synonym: MassBank: JP009385
Synonym: ISOPROPYLIODIDE
Synonym: 2-IODOPROPANE
Structure: 310A31320A49534F50524F50594C494F444944452E6D6F6C0A20204368656D447261773031323231303030303532440A2020342020332020302020302020302020302020302020302020302020303939392056323030300A20202020302E323036322020202D302E3030303020202020302E303030302043202020302020302020302020302020302020302020302020302020302020302020302020300A20202020302E3631383820202020302E3731343520202020302E303030302043202020302020302020302020302020302020302020302020302020302020302020302020300A20202020302E363138382020202D302E3731343520202020302E303030302043202020302020302020302020302020302020302020302020302020302020302020302020300A2020202D302E363138382020202D302E3030303020202020302E303030302049202020302020302020302020302020302020302020302020302020302020302020302020300A2020312020322020312020302020202020200A2020312020332020312020302020202020200A2020312020342020312020302020202020200A4D2020454E44
Contributor: GUNMA COLLEGE OF TECHNOLOGY
InstType: EI
InstName: HITACHI M-80A
IoniMethod: _ENERGY 70 eV
IonPolarity: pos
Date: 2010-10-09 19:48:36+02:00
Num Peaks: 15
15 30 26 38 27 404 37 22 38 42 39 228 40 35 41 473 42 43 43 999 
44 33 45 11 127 132 128 20 170 221 
