Name: 5-FLUOROURIDINE
MW: 262
Formula: C9H11FN2O6
Synonym: MassBank: JP005618
Synonym: 5-FLUOROURIDINE
Structure: 352D464C554F524F55524944494E452E6D6F6C0A20204368656D447261773034323331303035333132440A2031382031392020302020302020302020302020302020302020302020303939392056323030300A2020202D312E3734313020202020322E3431353120202020302E30303030204F202020302020302020302020302020302020302020302020302020302020302020302020300A2020202D312E3635343720202020312E3539343620202020302E303030302043202020302020302020302020302020302020302020302020302020302020302020302020300A2020202D302E3930313020202020312E3235393120202020302E303030302043202020302020302020302020302020302020302020302020302020302020302020302020300A2020202D302E3138363620202020312E3637313620202020302E303030302043202020302020302020302020302020302020302020302020302020302020302020302020300A2020202D302E3130303320202020322E3439323020202020302E30303030204F202020302020302020302020302020302020302020302020302020302020302020302020300A20202020302E3432363520202020312E3131393520202020302E303030302043202020302020302020302020302020302020302020302020302020302020302020302020300A20202020312E3233333520202020312E3239313120202020302E30303030204F202020302020302020302020302020302020302020302020302020302020302020302020300A20202020302E3039313020202020302E3336353820202020302E303030302043202020302020302020302020302020302020302020302020302020302020302020302020300A2020202D302E3732393520202020302E3435323120202020302E30303030204F202020302020302020302020302020302020302020302020302020302020302020302020300A20202020302E353033352020202D302E3334383620202020302E30303030204E202020302020302020302020302020302020302020302020302020302020302020302020300A20202020312E333238352020202D302E3334383620202020302E303030302043202020302020302020302020302020302020302020302020302020302020302020302020300A20202020312E3734313020202020302E3336353820202020302E30303030204F202020302020302020302020302020302020302020302020302020302020302020302020300A20202020312E373431302020202D312E3036333120202020302E30303030204E202020302020302020302020302020302020302020302020302020302020302020302020300A20202020312E333238352020202D312E3737373620202020302E303030302043202020302020302020302020302020302020302020302020302020302020302020302020300A20202020312E373431302020202D322E3439323020202020302E30303030204F202020302020302020302020302020302020302020302020302020302020302020302020300A20202020302E353033352020202D312E3737373620202020302E303030302043202020302020302020302020302020302020302020302020302020302020302020302020300A20202020302E303931302020202D312E3036333120202020302E303030302043202020302020302020302020302020302020302020302020302020302020302020302020300A20202020302E303931302020202D322E3439323020202020302E303030302046202020302020302020302020302020302020302020302020302020302020302020302020300A2020312020322020312020302020202020200A2020322020332020312020302020202020200A2020332020342020312020302020202020200A2020342020352020312020302020202020200A2020342020362020312020302020202020200A2020362020372020312020302020202020200A2020362020382020312020302020202020200A2020382020392020312020302020202020200A2020332020392020312020302020202020200A2020382031302020312020302020202020200A2031302031312020312020302020202020200A2031312031322020322020302020202020200A2031312031332020312020302020202020200A2031332031342020312020302020202020200A2031342031352020322020302020202020200A2031342031362020312020302020202020200A2031362031372020322020302020202020200A2031302031372020312020302020202020200A2031362031382020312020302020202020200A4D2020454E44
Contributor: MASS SPECTROSCOPY SOC. OF JAPAN (MSSJ)
InstType: EI
InstName: JEOL JMS-D-300
IoniMethod: _ENERGY 24 eV
IonPolarity: pos
Date: 2010-10-09 19:48:36+02:00
Num Peaks: 71
39 70 40 40 41 140 42 1 43 210 44 170 45 230 55 2 56 100 57 420 
58 130 59 1 60 230 61 210 68 60 69 2 70 80 71 270 72 100 73 5 
74 120 75 60 77 20 82 0 83 20 84 70 85 210 86 1 87 250 88 130 
89 30 97 1 98 20 100 90 101 100 102 1 103 100 112 20 113 80 114 2 
115 250 116 70 128 50 130 3 131 350 132 100 133 999 134 1 135 30 142 20 
143 40 156 0 157 20 158 10 159 40 171 0 172 10 173 100 174 10 185 0 
187 20 189 30 197 30 201 0 213 80 214 10 228 10 231 0 244 30 262 130 
263 40 
