Name: 2-TERT-BUTYLCYCLOHEXANOL
MW: 156
Formula: C10H20O
Synonym: MassBank: JP003596
Synonym: 2-TERT-BUTYLCYCLOHEXANOL
Structure: 322D544552542D425554594C4359434C4F484558414E4F4C2E6D6F6C0A20204368656D447261773032323131303136313432440A2031312031312020302020302020302020302020302020302020302020303939392056323030300A20202020302E343132352020202D302E3431323520202020302E303030302043202020302020302020302020302020302020302020302020302020302020302020302020300A2020202D302E3330323020202020302E3030303020202020302E303030302043202020302020302020302020302020302020302020302020302020302020302020302020300A2020202D312E303136342020202D302E3431323520202020302E303030302043202020302020302020302020302020302020302020302020302020302020302020302020300A2020202D312E303136342020202D312E3233373520202020302E303030302043202020302020302020302020302020302020302020302020302020302020302020302020300A2020202D302E333032302020202D312E3635303020202020302E303030302043202020302020302020302020302020302020302020302020302020302020302020302020300A20202020302E343132352020202D312E3233373520202020302E303030302043202020302020302020302020302020302020302020302020302020302020302020302020300A2020202D302E3330323020202020302E3832353020202020302E303030302043202020302020302020302020302020302020302020302020302020302020302020302020300A2020202D312E3132373020202020302E3832353020202020302E303030302043202020302020302020302020302020302020302020302020302020302020302020302020300A20202020302E3532333020202020302E3832353020202020302E303030302043202020302020302020302020302020302020302020302020302020302020302020302020300A2020202D302E3330323020202020312E3635303020202020302E303030302043202020302020302020302020302020302020302020302020302020302020302020302020300A20202020312E3132373020202020302E3030303020202020302E30303030204F202020302020302020302020302020302020302020302020302020302020302020302020300A2020312020322020312020302020202020200A2020322020332020312020302020202020200A2020332020342020312020302020202020200A2020342020352020312020302020202020200A2020352020362020312020302020202020200A2020312020362020312020302020202020200A2020372020382020312020302020202020200A2020372031302020312020302020202020200A2020372020392020312020302020202020200A2020322020372020312020302020202020200A2020312031312020312020302020202020200A4D2020454E44
Contributor: MASS SPECTROSCOPY SOC. OF JAPAN (MSSJ)
InstType: EI
InstName: Unknown
IoniMethod: EI
IonPolarity: pos
Date: 2010-10-09 19:48:36+02:00
Num Peaks: 45
27 56 28 30 29 130 31 3 39 60 40 25 41 260 42 4 43 115 44 40 
45 30 53 4 54 130 55 183 56 150 57 999 58 41 59 25 66 30 67 56 
68 50 69 80 70 80 71 3 77 40 79 20 80 180 81 31 82 870 83 225 
84 35 85 3 95 60 96 23 97 50 98 6 99 100 100 30 101 29 110 3 
123 125 124 42 138 20 139 2 141 30 
