Name: MassBank: JP008476
MW: 252
Formula: C16H28O2
Synonym: MassBank: JP008476
Synonym: (Z)-3,7-DIMETHYL-2,6-OCTADIENYL HEXANOATE
Synonym: NERYL HEXANOATE
Structure: 285A292D332C372D44494D455448594C2D322C362D4F4354414449454E594C20484558414E4F4154452E6D6F6C0A20204368656D447261773130323230393231313232440A2031392031382020302020302020302020302020302020302020302020303939392056323030300A2020202D302E323036322020202D302E3335373320202020302E303030302043202020302020302020302020302020302020302020302020302020302020302020302020300A2020202D332E393138372020202D312E3037313720202020302E303030302043202020302020302020302020302020302020302020302020302020302020302020302020300A2020202D332E303933382020202D312E3037313720202020302E303030302043202020302020302020302020302020302020302020302020302020302020302020302020300A2020202D342E333331332020202D312E3738363220202020302E303030302043202020302020302020302020302020302020302020302020302020302020302020302020300A2020202D342E333331332020202D302E3335373320202020302E303030302043202020302020302020302020302020302020302020302020302020302020302020302020300A2020202D322E363831332020202D302E3335373320202020302E303030302043202020302020302020302020302020302020302020302020302020302020302020302020300A2020202D312E383536332020202D302E3335373320202020302E303030302043202020302020302020302020302020302020302020302020302020302020302020302020300A2020202D312E343433372020202D312E3037313720202020302E303030302043202020302020302020302020302020302020302020302020302020302020302020302020300A2020202D302E363138372020202D312E3037313720202020302E303030302043202020302020302020302020302020302020302020302020302020302020302020302020300A2020202D312E383536332020202D312E3738363220202020302E303030302043202020302020302020302020302020302020302020302020302020302020302020302020300A2020202D302E323036322020202D312E3738363220202020302E303030302048202020302020302020302020302020302020302020302020302020302020302020302020300A20202020302E363138382020202D302E3335373320202020302E30303030204F202020302020302020302020302020302020302020302020302020302020302020302020300A20202020312E3033313220202020302E3335373220202020302E303030302043202020302020302020302020302020302020302020302020302020302020302020302020300A20202020312E3835363320202020302E3335373220202020302E303030302043202020302020302020302020302020302020302020302020302020302020302020302020300A20202020302E3631383720202020312E3037313720202020302E30303030204F202020302020302020302020302020302020302020302020302020302020302020302020300A20202020322E3236383820202020312E3037313720202020302E303030302043202020302020302020302020302020302020302020302020302020302020302020302020300A20202020332E3039333820202020312E3037313720202020302E303030302043202020302020302020302020302020302020302020302020302020302020302020302020300A20202020332E3530363320202020312E3738363220202020302E303030302043202020302020302020302020302020302020302020302020302020302020302020302020300A20202020342E3333313320202020312E3738363220202020302E303030302043202020302020302020302020302020302020302020302020302020302020302020302020300A2020322020332020322020302020202020200A2020322020342020312020302020202020200A2020322020352020312020302020202020200A2020332020362020312020302020202020200A2020362020372020312020302020202020200A2020372020382020312020302020202020200A2020382020392020322020302020202020200A2020382031302020312020302020202020200A2020392031312020312020302020202020200A2020392020312020312020302020202020200A2020312031322020312020302020202020200A2031322031332020312020302020202020200A2031332031342020312020302020202020200A2031332031352020322020302020202020200A2031342031362020312020302020202020200A2031362031372020312020302020202020200A2031372031382020312020302020202020200A2031382031392020312020302020202020200A4D2020454E44
Contributor: SODA AROMATIC CO., LTD.
InstType: EI
InstName: HITACHI M-80B
IoniMethod: _ENERGY 70 eV
IonPolarity: pos
Date: 2010-10-09 19:48:36+02:00
Num Peaks: 50
27 139 29 129 39 137 40 22 41 667 42 67 43 373 45 19 51 17 52 12 
53 133 54 14 55 119 56 20 57 17 60 104 65 23 66 16 67 170 68 604 
69 999 70 63 71 172 73 54 77 62 78 11 79 79 80 319 81 153 82 17 
83 12 84 22 85 10 87 12 91 66 92 161 93 755 94 122 95 44 99 260 
100 13 105 21 107 87 108 24 121 288 122 22 123 22 136 195 137 42 154 20 
