Name: TETRADECYL BROMIDE
CAS: 112-71-0
MW: 276
Formula: C14H29Br
Synonym: MassBank: JP007696
Synonym: TETRADECYL BROMIDE
Structure: 5445545241444543594C2042524F4D4944452E6D6F6C0A20204368656D447261773038313231303037313932440A2031352031342020302020302020302020302020302020302020302020303939392056323030300A2020202D342E3238363820202020302E3230363220202020302E303030302043202020302020302020302020302020302020302020302020302020302020302020302020300A2020202D332E353732342020202D302E3230363320202020302E303030302043202020302020302020302020302020302020302020302020302020302020302020302020300A2020202D322E3835373920202020302E3230363220202020302E303030302043202020302020302020302020302020302020302020302020302020302020302020302020300A2020202D322E313433342020202D302E3230363320202020302E303030302043202020302020302020302020302020302020302020302020302020302020302020302020300A2020202D312E3432383920202020302E3230363220202020302E303030302043202020302020302020302020302020302020302020302020302020302020302020302020300A2020202D302E373134352020202D302E3230363320202020302E303030302043202020302020302020302020302020302020302020302020302020302020302020302020300A20202020302E3030303020202020302E3230363220202020302E303030302043202020302020302020302020302020302020302020302020302020302020302020302020300A20202020302E373134352020202D302E3230363320202020302E303030302043202020302020302020302020302020302020302020302020302020302020302020302020300A20202020312E3432383920202020302E3230363320202020302E303030302043202020302020302020302020302020302020302020302020302020302020302020302020300A20202020322E313433342020202D302E3230363220202020302E303030302043202020302020302020302020302020302020302020302020302020302020302020302020300A20202020322E3835373920202020302E3230363320202020302E303030302043202020302020302020302020302020302020302020302020302020302020302020302020300A20202020332E353732342020202D302E3230363220202020302E303030302043202020302020302020302020302020302020302020302020302020302020302020302020300A20202020342E3238363820202020302E3230363320202020302E303030302043202020302020302020302020302020302020302020302020302020302020302020302020300A20202020352E303031332020202D302E3230363220202020302E303030302043202020302020302020302020302020302020302020302020302020302020302020302020300A2020202D352E303031332020202D302E3230363320202020302E303030302042722020302020302020302020302020302020302020302020302020302020302020302020300A2020312020322020312020302020202020200A2020322020332020312020302020202020200A2020332020342020312020302020202020200A2020342020352020312020302020202020200A2020352020362020312020302020202020200A2020362020372020312020302020202020200A2020372020382020312020302020202020200A2020382020392020312020302020202020200A2020392031302020312020302020202020200A2031302031312020312020302020202020200A2031312031322020312020302020202020200A2031322031332020312020302020202020200A2031332031342020312020302020202020200A2020312031352020312020302020202020200A4D2020454E44
Contributor: KYOTO INSTITUTE OF TECHNOLOGY
InstType: EI
InstName: SHIMADZU QP-1000
IoniMethod: _ENERGY 70 eV
IonPolarity: pos
Date: 2010-10-09 19:48:36+02:00
Num Peaks: 53
40 29 41 755 42 173 43 999 44 39 53 36 54 34 55 50 56 149 57 769 
58 34 67 3 68 20 69 262 70 71 71 31 72 17 81 11 82 15 83 10 
84 28 85 151 86 10 97 5 98 12 99 27 107 10 109 1 111 12 112 5 
113 12 121 1 123 5 125 3 127 9 134 2 135 246 136 20 137 240 138 1 
141 5 148 4 149 40 150 1 151 41 152 2 155 2 163 1 164 2 165 4 
177 1 179 0 191 1 
