Name: ALPHA-ACETYL-GAMMA-BUTYROLACTONE
MW: 128
Formula: C6H8O3
Synonym: MassBank: JP004296
Synonym: ALPHA-ACETYL-GAMMA-BUTYROLACTONE
Structure: 310A32330A414C5048412D41434554594C2D47414D4D412D42555459524F4C4143544F4E452E6D6F6C0A20204368656D447261773038303631303035353332440A2020392020392020302020302020302020302020302020302020302020303939392056323030300A2020202D302E3436383920202020302E3239383620202020302E303030302043202020302020302020302020302020302020302020302020302020302020302020302020300A20202020302E303136302020202D302E3336383820202020302E303030302043202020302020302020302020302020302020302020302020302020302020302020302020300A2020202D302E343638392020202D312E3033363220202020302E303030302043202020302020302020302020302020302020302020302020302020302020302020302020300A2020202D312E323533352020202D302E3738313320202020302E303030302043202020302020302020302020302020302020302020302020302020302020302020302020300A20202020302E383431302020202D302E3336383820202020302E303030302043202020302020302020302020302020302020302020302020302020302020302020302020300A20202020312E3235333520202020302E3334353720202020302E30303030204F202020302020302020302020302020302020302020302020302020302020302020302020300A20202020312E323533352020202D312E3038333320202020302E303030302043202020302020302020302020302020302020302020302020302020302020302020302020300A2020202D302E3231343020202020312E3038333320202020302E30303030204F202020302020302020302020302020302020302020302020302020302020302020302020300A2020202D312E3235333520202020302E3034333720202020302E30303030204F202020302020302020302020302020302020302020302020302020302020302020302020300A2020312020322020312020302020202020200A2020322020332020312020302020202020200A2020332020342020312020302020202020200A2020352020362020322020302020202020200A2020352020372020312020302020202020200A2020322020352020312020302020202020200A2020312020382020322020302020202020200A2020312020392020312020302020202020200A2020342020392020312020302020202020200A4D2020454E44
Contributor: TAJIMA S, GUNMA COLLEGE OF TECHNOLOGY
InstType: EI
InstName: HITACHI RMU-7M
IoniMethod: _ENERGY 70 eV
IonPolarity: pos
Date: 2010-10-09 19:48:36+02:00
Num Peaks: 33
15 86 26 34 27 115 28 42 29 56 31 13 38 17 39 110 40 25 41 269 
42 128 43 999 44 162 45 21 53 23 55 154 56 18 57 22 58 79 68 52 
69 159 70 26 71 34 84 26 85 115 86 485 87 30 95 18 110 18 111 16 
113 27 126 11 128 26 
