Name: L-MENTHOL
MW: 156
Formula: C10H20O
Synonym: MassBank: JP006346
Synonym: L-MENTHOL
Structure: 303432335F4C2D4D454E54484F4C2E6D6F6C0A20204368656D447261773039303631303136353032440A2031312031312020302020302020302020302020302020302020302020303939392056323030300A2020202D302E3335373220202020302E3832353020202020302E303030302043202020302020302020302020302020302020302020302020302020302020302020302020300A2020202D302E3335373220202020302E3030303020202020302E303030302043202020302020302020302020302020302020302020302020302020302020302020302020300A20202020302E333537332020202D302E3431323520202020302E303030302043202020302020302020302020302020302020302020302020302020302020302020302020300A20202020312E3037313720202020302E3030303020202020302E303030302043202020302020302020302020302020302020302020302020302020302020302020302020300A20202020312E3037313720202020302E3832353020202020302E303030302043202020302020302020302020302020302020302020302020302020302020302020302020300A20202020302E3335373320202020312E3233373520202020302E303030302043202020302020302020302020302020302020302020302020302020302020302020302020300A20202020312E3738363220202020312E3233373520202020302E303030302043202020302020302020302020302020302020302020302020302020302020302020302020300A2020202D312E303731372020202D302E3431323520202020302E303030302043202020302020302020302020302020302020302020302020302020302020302020302020300A2020202D312E303731382020202D312E3233373520202020302E303030302043202020302020302020302020302020302020302020302020302020302020302020302020300A2020202D312E373836322020202D302E3030303120202020302E303030302043202020302020302020302020302020302020302020302020302020302020302020302020300A2020202D312E3037313720202020312E3233373520202020302E30303030204F202020302020302020302020302020302020302020302020302020302020302020302020300A2020312020322020312020302020202020200A2020322020332020312020302020202020200A2020332020342020312020302020202020200A2020342020352020312020302020202020200A2020352020362020312020302020202020200A2020312020362020312020302020202020200A2020352020372020312020362020202020200A2020382020392020312020302020202020200A2020382031302020312020302020202020200A2020322020382020312020312020202020200A2020312031312020312020362020202020200A4D2020454E44
Contributor: HISAHIRO HAGIWARA, CHEMICAL RESEARCH INSTITUTE OF NON-AQUEOUSSOLUTIONS TOHOKU UNIV.
InstType: EI
InstName: JEOL JMS-DX-300
IoniMethod: _ENERGY 70 eV
IonPolarity: pos
Date: 2010-10-09 19:48:36+02:00
Num Peaks: 47
31 25 39 75 41 317 42 57 43 256 45 11 53 58 54 39 55 383 56 192 
57 255 58 25 65 12 67 247 68 133 69 305 70 116 71 999 72 56 73 14 
77 26 79 29 80 124 81 833 82 399 83 147 84 36 85 90 86 43 93 26 
94 52 95 685 96 317 97 56 99 42 105 15 109 118 110 59 111 17 112 2 
113 16 123 302 124 35 137 12 138 332 139 43 141 18 
