Name: MassBank: JP006026
MW: 118
Formula: C4H14Si2
Synonym: MassBank: JP006026
Synonym: 1,1,2,2-TETRAMETHYLDISILANE
Structure: 310A31360A312C312C322C322D54455452414D455448594C444953494C414E452E6D6F6C0A20204368656D447261773130323330393031323632440A2020362020352020302020302020302020302020302020302020302020303939392056323030300A20202020302E3431323520202020302E3030303020202020302E303030302053692020302020302020302020302020302020302020302020302020302020302020302020300A2020202D302E343132352020202D302E3030303020202020302E303030302053692020302020302020302020302020302020302020302020302020302020302020302020300A2020202D302E383235302020202D302E3731343520202020302E303030302043202020302020302020302020302020302020302020302020302020302020302020302020300A2020202D302E3832353020202020302E3731343520202020302E303030302043202020302020302020302020302020302020302020302020302020302020302020302020300A20202020302E3832353020202020302E3731343520202020302E303030302043202020302020302020302020302020302020302020302020302020302020302020302020300A20202020302E383235302020202D302E3731343520202020302E303030302043202020302020302020302020302020302020302020302020302020302020302020302020300A2020312020322020312020302020202020200A2020322020332020312020302020202020200A2020322020342020312020302020202020200A2020312020352020312020302020202020200A2020312020362020312020302020202020200A4D2020454E44
Contributor: YAMAMOTO M, DEP. CHEMISTRY, FAC. SCIENCE, NARA WOMEN'S UNIV.
InstType: EI
InstName: HITACHI RMU-6M
IoniMethod: _ENERGY 20 eV
IonPolarity: pos
Date: 2010-10-09 19:48:36+02:00
Num Peaks: 41
28 9 31 20 39 6 43 16 44 22 45 28 51 6 52 2 57 6 58 689 
59 999 60 9 61 36 69 6 72 17 73 97 74 88 75 33 76 7 77 2 
78 191 79 16 85 5 86 1 87 22 88 5 89 5 99 1 100 11 101 63 
102 166 103 30 104 52 105 22 115 7 116 2 117 98 118 474 119 79 120 4 
121 7 
