Name: TRIMETHYLSILYL 24-METHYLENECHOLESTEROL
MW: 470
Formula: C31H54OSi
Synonym: MassBank: JP002751
Synonym: TRIMETHYLSILYL 24-METHYLENECHOLESTEROL
Structure: 303134335F5452494D455448594C53494C594C2032342D4D455448594C454E4543484F4C45535445524F4C2E6D6F6C0A20204368656D447261773038323031303030313532440A2033362033392020302020302020302020302020302020302020302020303939392056323030300A2020202D322E363132392020202D322E3335353220202020302E303030302043202020302020302020302020302020302020302020302020302020302020302020302020300A2020202D322E363132392020202D312E3533303220202020302E303030302043202020302020302020302020302020302020302020302020302020302020302020302020300A2020202D312E383938342020202D312E3131373720202020302E303030302043202020302020302020302020302020302020302020302020302020302020302020302020300A2020202D312E383938342020202D322E3736373720202020302E303030302043202020302020302020302020302020302020302020302020302020302020302020302020300A2020202D312E313833392020202D322E3335353220202020302E303030302043202020302020302020302020302020302020302020302020302020302020302020302020300A2020202D302E343639352020202D322E3736373720202020302E303030302043202020302020302020302020302020302020302020302020302020302020302020302020300A20202020302E323435302020202D322E3335353220202020302E303030302043202020302020302020302020302020302020302020302020302020302020302020302020300A20202020302E323435302020202D312E3533303220202020302E303030302043202020302020302020302020302020302020302020302020302020302020302020302020300A20202020302E393539352020202D312E3131373720202020302E303030302043202020302020302020302020302020302020302020302020302020302020302020302020300A20202020312E373434312020202D312E3337323720202020302E303030302043202020302020302020302020302020302020302020302020302020302020302020302020300A20202020322E323239302020202D302E3730353220202020302E303030302043202020302020302020302020302020302020302020302020302020302020302020302020300A20202020312E373434312020202D302E3033373820202020302E303030302043202020302020302020302020302020302020302020302020302020302020302020302020300A20202020312E3939393020202020302E3734363820202020302E303030302043202020302020302020302020302020302020302020302020302020302020302020302020300A20202020322E3739353920202020302E3936303420202020302E303030302043202020302020302020302020302020302020302020302020302020302020302020302020300A20202020332E3030393520202020312E3735373320202020302E303030302043202020302020302020302020302020302020302020302020302020302020302020302020300A20202020332E3830363320202020312E3937303820202020302E303030302043202020302020302020302020302020302020302020302020302020302020302020302020300A20202020342E3338393720202020312E3338373420202020302E303030302043202020302020302020302020302020302020302020302020302020302020302020302020300A20202020342E3137363220202020302E3539303520202020302E303030302043202020302020302020302020302020302020302020302020302020302020302020302020300A20202020352E3138363620202020312E3630303920202020302E303030302043202020302020302020302020302020302020302020302020302020302020302020302020300A20202020312E3431353720202020312E3333303220202020302E303030302043202020302020302020302020302020302020302020302020302020302020302020302020300A20202020302E393539352020202D302E3239323720202020302E303030302043202020302020302020302020302020302020302020302020302020302020302020302020300A20202020302E3935393520202020302E3533323320202020302E303030302043202020302020302020302020302020302020302020302020302020302020302020302020300A20202020302E3234353020202020302E3131393820202020302E303030302043202020302020302020302020302020302020302020302020302020302020302020302020300A2020202D302E343639352020202D302E3239323720202020302E303030302043202020302020302020302020302020302020302020302020302020302020302020302020300A2020202D302E343639352020202D312E3131373720202020302E303030302043202020302020302020302020302020302020302020302020302020302020302020302020300A2020202D312E313833392020202D312E3533303220202020302E303030302043202020302020302020302020302020302020302020302020302020302020302020302020300A2020202D312E313833392020202D302E3730353220202020302E303030302043202020302020302020302020302020302020302020302020302020302020302020302020300A20202020342E3031393920202020322E3736373720202020302E303030302043202020302020302020302020302020302020302020302020302020302020302020302020300A2020202D332E343235332020202D322E3231323020202020302E30303030204F202020302020302020302020302020302020302020302020302020302020302020302020300A2020202D302E343639352020202D312E3934323720202020302E303030302048202020302020302020302020302020302020302020302020302020302020302020302020300A20202020302E323435302020202D302E3730353220202020302E303030302048202020302020302020302020302020302020302020302020302020302020302020302020300A20202020302E393539352020202D312E3934323720202020302E303030302048202020302020302020302020302020302020302020302020302020302020302020302020300A2020202D342E333734312020202D312E3832303120202020302E303030302053692020302020302020302020302020302020302020302020302020302020302020302020300A2020202D342E323330392020202D312E3030373620202020302E303030302043202020302020302020302020302020302020302020302020302020302020302020302020300A2020202D352E313836362020202D312E3637363820202020302E303030302043202020302020302020302020302020302020302020302020302020302020302020302020300A2020202D342E353137342020202D322E3633323520202020302E303030302043202020302020302020302020302020302020302020302020302020302020302020302020300A2020312020322020312020302020202020200A2020322020332020312020302020202020200A2020312020342020312020302020202020200A2020342020352020312020302020202020200A2020352020362020322020302020202020200A2020362020372020312020302020202020200A2020372020382020312020302020202020200A2020382020392020312020302020202020200A2020392031302020312020302020202020200A2031302031312020312020302020202020200A2031322031312020312020312020202020200A2031322031332020312020302020202020200A2031332031342020312020302020202020200A2031342031352020312020302020202020200A2031352031362020312020302020202020200A2031362031372020312020302020202020200A2031372031382020312020302020202020200A2031372031392020312020302020202020200A2031332032302020312020362020202020200A2031322032312020312020302020202020200A2020392032312020312020302020202020200A2032312032322020312020312020202020200A2032312032332020312020302020202020200A2032332032342020312020302020202020200A2032342032352020312020302020202020200A2020382032352020312020302020202020200A2032352032362020312020302020202020200A2020332032362020312020302020202020200A2020352032362020312020302020202020200A2032362032372020312020312020202020200A2031362032382020322020302020202020200A2020312032392020312020312020202020200A2032352033302020312020362020202020200A2020382033312020312020312020202020200A2020392033322020312020362020202020200A2033332033342020312020302020202020200A2033332033352020312020302020202020200A2033332033362020312020302020202020200A2033332032392020312020302020202020200A4D2020454E44
Contributor: HAYASHI A, DEPT. OF CHEMISTRY, FAC. OF SCI. AND TECHNOLOGY, KINKI UNIV.
InstType: EI
InstName: SHIMADZU LKB-9000B
IoniMethod: _ENERGY 70 eV
IonPolarity: pos
Date: 2010-10-09 19:48:36+02:00
Num Peaks: 232
55 48 57 11 67 47 68 1 69 118 71 14 73 182 74 2 75 188 76 15 
77 29 79 7 80 12 81 174 82 18 83 11 84 21 89 11 91 117 92 3 
93 154 94 40 95 256 96 3 97 147 98 15 101 18 103 2 104 16 105 196 
106 54 107 28 108 58 109 209 110 26 111 6 115 37 116 24 117 75 118 4 
119 339 120 136 121 289 122 5 123 147 124 41 125 76 126 1 127 17 128 23 
129 999 130 16 131 194 132 66 133 238 134 6 135 185 136 30 137 79 138 1 
139 10 141 30 142 34 143 19 144 66 145 305 146 99 147 24 148 61 149 129 
150 31 151 6 152 11 153 14 154 11 155 7 156 37 157 111 158 97 159 28 
160 143 161 256 162 50 163 15 164 27 165 33 166 10 167 1 168 16 169 50 
170 19 171 9 172 46 173 135 174 46 175 14 176 29 177 67 178 17 179 2 
180 11 181 29 182 19 183 4 184 16 185 75 186 31 187 9 188 32 189 115 
190 22 191 4 193 29 194 13 195 27 196 3 197 58 198 25 199 95 200 4 
201 82 202 29 203 82 204 2 205 28 207 13 209 17 210 1 211 92 212 40 
213 203 214 7 215 108 216 26 217 96 218 2 219 35 220 12 221 15 225 4 
226 22 227 82 228 76 229 7 230 13 231 38 232 11 233 2 235 14 239 44 
240 25 241 5 242 19 243 104 244 23 245 4 246 12 247 15 248 10 251 1 
252 15 253 213 254 80 255 16 256 60 257 281 258 68 259 13 260 32 267 36 
268 19 269 2 270 14 271 38 272 16 273 1 281 197 282 67 283 114 284 3 
285 21 286 22 287 34 288 1 295 22 296 293 297 88 298 2 299 10 301 13 
303 17 304 1 313 27 314 11 315 16 318 1 323 10 325 14 326 13 337 2 
338 31 339 48 340 102 341 43 342 140 343 148 344 64 345 3 351 16 352 24 
365 238 366 8 367 15 371 63 372 4 373 17 378 19 379 20 380 35 381 117 
382 21 386 244 387 9 388 24 455 115 456 42 458 2 468 11 469 11 470 105 
471 4 472 13 
