Name: MassBank: JP008426
MW: 162
Formula: C10H10O2
Synonym: MassBank: JP008426
Synonym: 1,2-METHYLENEDIOXY-4-(2-PROPENYL)BENZENE
Synonym: SAFROLE
Structure: 312C322D4D455448594C454E4544494F58592D342D28322D50524F50454E594C2942454E5A454E452E6D6F6C0A20204368656D447261773131313030393135343432440A2031322031332020302020302020302020302020302020302020302020303939392056323030300A2020202D312E313531342020202D302E3431323520202020302E303030302043202020302020302020302020302020302020302020302020302020302020302020302020300A2020202D312E3135313420202020302E3431323520202020302E303030302043202020302020302020302020302020302020302020302020302020302020302020302020300A2020202D302E3433363920202020302E3832353020202020302E303030302043202020302020302020302020302020302020302020302020302020302020302020302020300A20202020302E3237373520202020302E3431323520202020302E303030302043202020302020302020302020302020302020302020302020302020302020302020302020300A20202020302E323737352020202D302E3431323520202020302E303030302043202020302020302020302020302020302020302020302020302020302020302020302020300A2020202D302E343336392020202D302E3832353020202020302E303030302043202020302020302020302020302020302020302020302020302020302020302020302020300A20202020302E3939323020202020302E3832353020202020302E303030302043202020302020302020302020302020302020302020302020302020302020302020302020300A20202020312E3730363520202020302E3431323520202020302E303030302043202020302020302020302020302020302020302020302020302020302020302020302020300A20202020322E3432303920202020302E3832353020202020302E303030302043202020302020302020302020302020302020302020302020302020302020302020302020300A2020202D322E343230392020202D302E3030303020202020302E303030302043202020302020302020302020302020302020302020302020302020302020302020302020300A2020202D312E393336302020202D302E3636373420202020302E30303030204F202020302020302020302020302020302020302020302020302020302020302020302020300A2020202D312E3933363020202020302E3636373420202020302E30303030204F202020302020302020302020302020302020302020302020302020302020302020302020300A2020312020322020312020302020202020200A2020322020332020322020302020202020200A2020332020342020312020302020202020200A2020342020352020322020302020202020200A2020352020362020312020302020202020200A2020312020362020322020302020202020200A2020372020382020312020302020202020200A2020382020392020322020302020202020200A2020342020372020312020302020202020200A2031302031312020312020302020202020200A2031302031322020312020302020202020200A2020312031312020312020302020202020200A2020322031322020312020302020202020200A4D2020454E44
Contributor: SODA AROMATIC CO., LTD.
InstType: EI
InstName: HITACHI M-80B
IoniMethod: _ENERGY 70 eV
IonPolarity: pos
Date: 2010-10-09 19:48:36+02:00
Num Peaks: 53
26 19 27 79 28 10 29 47 30 16 31 15 37 11 38 36 39 181 40 15 
41 24 50 103 51 326 52 69 53 54 55 19 61 19 62 57 63 122 64 28 
65 55 66 18 73 10 74 38 75 39 76 57 77 396 78 221 79 61 80 14 
81 11 89 22 91 71 92 18 102 61 103 347 104 495 105 99 106 19 115 16 
119 23 121 14 131 373 132 103 133 25 134 16 135 299 136 23 147 10 161 249 
162 999 163 93 164 13 
