Name: DIMETHYL SULFOXIDE
CAS: 67-68-5
MW: 78
Formula: C2H6OS
Synonym: MassBank: JP008177
Synonym: DIMETHYL SULFOXIDE
Synonym: METHYL SULFOXIDE
Structure: 310A31320A44494D455448594C2053554C464F584944452E6D6F6C0A20204368656D447261773038313131303137343032440A2020342020332020302020302020302020302020302020302020302020303939392056323030300A20202020302E3230363220202020302E3030303020202020302E303030302053202020302020302020302020302020302020302020302020302020302020302020302020300A20202020302E3631383820202020302E3731343520202020302E30303030204F202020302020302020302020302020302020302020302020302020302020302020302020300A20202020302E363138382020202D302E3731343520202020302E303030302043202020302020302020302020302020302020302020302020302020302020302020302020300A2020202D302E3631383820202020302E3030303020202020302E303030302043202020302020302020302020302020302020302020302020302020302020302020302020300A2020312020322020322020302020202020200A2020312020332020312020302020202020200A2020312020342020312020302020202020200A4D2020454E44
Contributor: NARA WOMEN'S UNIVERSITY
InstType: EI
InstName: HITACHI M-80
IoniMethod: _ENERGY 70 eV
IonPolarity: pos
Date: 2010-10-09 19:48:36+02:00
Num Peaks: 28
13 25 14 88 15 338 26 10 27 55 28 23 29 93 31 64 32 36 33 42 
34 45 35 58 44 35 45 472 46 137 47 111 48 101 49 16 58 13 59 10 
61 170 62 68 63 999 64 27 65 45 78 791 79 108 80 43 
