Name: 2-ETHYL-1-BUTANOL
MW: 102
Formula: C6H14O
Synonym: MassBank: JP005681
Synonym: 2-ETHYL-1-BUTANOL
Structure: 310A31380A322D455448594C2D312D425554414E4F4C2E6D6F6C0A20204368656D447261773031303331303132343332440A2020372020362020302020302020302020302020302020302020302020303939392056323030300A20202020302E3431323520202020302E3335373220202020302E303030302043202020302020302020302020302020302020302020302020302020302020302020302020300A2020202D302E303030302020202D302E3335373220202020302E303030302043202020302020302020302020302020302020302020302020302020302020302020302020300A20202020302E343132352020202D312E3037313720202020302E303030302043202020302020302020302020302020302020302020302020302020302020302020302020300A20202020312E323337352020202D312E3037313720202020302E303030302043202020302020302020302020302020302020302020302020302020302020302020302020300A2020202D302E3030303020202020312E3037313720202020302E30303030204F202020302020302020302020302020302020302020302020302020302020302020302020300A2020202D302E383235302020202D302E3335373220202020302E303030302043202020302020302020302020302020302020302020302020302020302020302020302020300A2020202D312E323337352020202D312E3037313720202020302E303030302043202020302020302020302020302020302020302020302020302020302020302020302020300A2020312020322020312020302020202020200A2020322020332020312020302020202020200A2020332020342020312020302020202020200A2020312020352020312020302020202020200A2020362020372020312020302020202020200A2020322020362020312020302020202020200A4D2020454E44
Contributor: HASHIMOTO K, KYOTO COLLEGE OF PHARMACY
InstType: EI
InstName: HITACHI M-80
IoniMethod: _ENERGY 20 eV
IonPolarity: pos
Date: 2010-10-09 19:48:36+02:00
Num Peaks: 22
27 26 29 91 31 68 39 17 41 159 42 110 43 999 44 34 45 22 53 12 
55 369 56 177 57 38 59 18 69 177 70 735 71 577 72 34 84 308 85 99 
101 6 102 3 
