Name: MassBank: JP009779
MW: 168
Formula: C10H16O2
Synonym: MassBank: JP009779
Synonym: 2,6,6-TRIMETHYL-3-ACETYL-5,6-DIHYDRO-4H-PYRAN
Synonym: 5-ACETYL-2,2,6-TRIMETHYL-3,4-DIHYDRO-2H-PYRAN
Structure: 322C362C362D5452494D455448594C2D332D41434554594C2D352C362D4449485944524F2D34482D505952414E2E6D6F6C0A20204368656D447261773132323130393032313832440A2031322031322020302020302020302020302020302020302020302020303939392056323030300A20202020302E3130393720202020302E3335373220202020302E303030302043202020302020302020302020302020302020302020302020302020302020302020302020300A20202020302E353232322020202D302E3335373220202020302E303030302043202020302020302020302020302020302020302020302020302020302020302020302020300A20202020302E313039372020202D312E3037313720202020302E303030302043202020302020302020302020302020302020302020302020302020302020302020302020300A2020202D302E373135332020202D312E3037313720202020302E303030302043202020302020302020302020302020302020302020302020302020302020302020302020300A2020202D312E313237382020202D302E3335373220202020302E303030302043202020302020302020302020302020302020302020302020302020302020302020302020300A2020202D302E3731353320202020302E3335373220202020302E30303030204F202020302020302020302020302020302020302020302020302020302020302020302020300A20202020312E333437322020202D302E3335373220202020302E303030302043202020302020302020302020302020302020302020302020302020302020302020302020300A20202020312E373539372020202D312E3037313720202020302E30303030204F202020302020302020302020302020302020302020302020302020302020302020302020300A20202020312E3735393720202020302E3335373220202020302E303030302043202020302020302020302020302020302020302020302020302020302020302020302020300A2020202D312E373539372020202D302E3838373520202020302E303030302043202020302020302020302020302020302020302020302020302020302020302020302020300A2020202D312E3735393720202020302E3137333120202020302E303030302043202020302020302020302020302020302020302020302020302020302020302020302020300A20202020302E3532323220202020312E3037313720202020302E303030302043202020302020302020302020302020302020302020302020302020302020302020302020300A2020312020322020322020302020202020200A2020322020332020312020302020202020200A2020332020342020312020302020202020200A2020342020352020312020302020202020200A2020352020362020312020302020202020200A2020312020362020312020302020202020200A2020372020382020322020302020202020200A2020372020392020312020302020202020200A2020322020372020312020302020202020200A2020352031302020312020362020202020200A2020352031312020312020312020202020200A2020312031322020312020302020202020200A4D2020454E44
Contributor: KURARAY CO., LTD.
InstType: EI
InstName: JEOL JMS-D-300
IoniMethod: _ENERGY 70 eV
IonPolarity: pos
Date: 2010-10-09 19:48:36+02:00
Num Peaks: 45
27 78 29 51 39 113 40 3 41 268 42 31 43 999 44 5 51 16 53 84 
55 217 56 51 57 34 59 23 65 19 67 6 68 25 69 69 70 78 71 10 
77 16 79 27 81 24 83 6 85 31 91 46 93 54 95 12 97 219 107 131 
108 224 109 5 111 78 112 28 113 810 114 6 125 209 126 16 135 255 136 2 
150 52 153 181 154 16 168 59 169 105 
