Name: MassBank: JP002477
MW: 291
Formula: C16H21NO4
Synonym: MassBank: JP002477
Synonym: N-((1R)-PHENYLETHYL)-TRANS-3,4-DI(METHOXYCARBONYL)PYRROLIDINE
Structure: 4E2D28283152292D5048454E594C455448594C292D5452414E532D332C342D4449284D4554484F5859434152424F4E594C29505952524F4C4944494E452E6D6F6C0A20204368656D447261773038313231303031303232440A2032312032322020302020302020302020302020302020302020302020303939392056323030300A20202020302E313832312020202D302E3137303620202020302E30303030204E202020302020302020302020302020302020302020302020302020302020302020302020300A20202020302E3636373020202020302E3439363820202020302E303030302043202020302020302020302020302020302020302020302020302020302020302020302020300A20202020312E3435313620202020302E3234313920202020302E303030302043202020302020302020302020302020302020302020302020302020302020302020302020300A20202020312E343531362020202D302E3538333120202020302E303030302043202020302020302020302020302020302020302020302020302020302020302020302020300A20202020302E363637302020202D302E3833383020202020302E303030302043202020302020302020302020302020302020302020302020302020302020302020302020300A20202020322E313139312020202D312E3036383020202020302E303030302043202020302020302020302020302020302020302020302020302020302020302020302020300A20202020312E393930302020202D312E3838323920202020302E30303030204F202020302020302020302020302020302020302020302020302020302020302020302020300A20202020322E383839332020202D302E3737323420202020302E30303030204F202020302020302020302020302020302020302020302020302020302020302020302020300A20202020332E353330342020202D312E3239313620202020302E303030302043202020302020302020302020302020302020302020302020302020302020302020302020300A20202020322E3131393120202020302E3732363820202020302E303030302043202020302020302020302020302020302020302020302020302020302020302020302020300A20202020322E3837323720202020302E3339313320202020302E30303030204F202020302020302020302020302020302020302020302020302020302020302020302020300A20202020322E3033323820202020312E3534373320202020302E30303030204F202020302020302020302020302020302020302020302020302020302020302020302020300A20202020312E3237393220202020312E3838323920202020302E303030302043202020302020302020302020302020302020302020302020302020302020302020302020300A2020202D302E363432392020202D302E3137303620202020302E303030302043202020302020302020302020302020302020302020302020302020302020302020302020300A2020202D312E303535342020202D302E3838353120202020302E303030302043202020302020302020302020302020302020302020302020302020302020302020302020300A2020202D312E383830342020202D302E3838353120202020302E303030302043202020302020302020302020302020302020302020302020302020302020302020302020300A2020202D322E323932392020202D312E3539393520202020302E303030302043202020302020302020302020302020302020302020302020302020302020302020302020300A2020202D332E313137392020202D312E3539393520202020302E303030302043202020302020302020302020302020302020302020302020302020302020302020302020300A2020202D332E353330342020202D302E3838353120202020302E303030302043202020302020302020302020302020302020302020302020302020302020302020302020300A2020202D332E313137392020202D302E3137303620202020302E303030302043202020302020302020302020302020302020302020302020302020302020302020302020300A2020202D322E323932392020202D302E3137303620202020302E303030302043202020302020302020302020302020302020302020302020302020302020302020302020300A2020312020322020312020302020202020200A2020322020332020312020302020202020200A2020332020342020312020302020202020200A2020342020352020312020302020202020200A2020312020352020312020302020202020200A2020362020372020322020302020202020200A2020382020392020312020302020202020200A2020362020382020312020302020202020200A2020342020362020312020302020202020200A2031302031312020322020302020202020200A2031322031332020312020302020202020200A2031302031322020312020302020202020200A2020332031302020312020302020202020200A2031342031352020312020302020202020200A2031362031372020312020302020202020200A2031372031382020322020302020202020200A2031382031392020312020302020202020200A2031392032302020322020302020202020200A2032302032312020312020302020202020200A2031362032312020322020302020202020200A2031352031362020312020302020202020200A2020312031342020312020302020202020200A4D2020454E44
Contributor: MASS SPECTROSCOPY SOC. OF JAPAN (MSSJ)
InstType: EI
InstName: JEOL JMS-D-3000
IoniMethod: _ENERGY 70 eV
IonPolarity: pos
Date: 2010-10-09 19:48:36+02:00
Num Peaks: 40
42 45 43 24 45 11 51 21 53 21 55 18 56 51 59 31 67 12 68 53 
77 93 78 25 79 84 91 91 94 15 96 18 101 10 103 59 104 43 105 569 
106 66 118 33 121 22 126 28 127 22 128 15 154 75 156 45 158 26 186 23 
214 170 215 20 216 10 260 109 261 21 276 999 277 176 278 24 290 15 291 39 
