Name: MassBank: JP002003
MW: 264
Formula: C12H13BrN2
Synonym: MassBank: JP002003
Synonym: 6-BROMO-1,2,3,4-TETRAHYDRO-3-METHYL-GAMMA-CARBOLINE
Structure: 362D42524F4D4F2D312C322C332C342D5445545241485944524F2D332D4D455448594C2D47414D4D412D434152424F4C494E452E6D6F6C0A20204368656D447261773035313731303133313032440A2031352031372020302020302020302020302020302020302020302020303939392056323030300A2020202D322E3333373520202020302E3438333820202020302E303030302043202020302020302020302020302020302020302020302020302020302020302020302020300A2020202D322E333337352020202D302E3334313220202020302E303030302043202020302020302020302020302020302020302020302020302020302020302020302020300A2020202D312E363233302020202D302E3735333720202020302E303030302043202020302020302020302020302020302020302020302020302020302020302020302020300A2020202D302E393038362020202D302E3334313220202020302E303030302043202020302020302020302020302020302020302020302020302020302020302020302020300A2020202D302E3930383620202020302E3438333820202020302E303030302043202020302020302020302020302020302020302020302020302020302020302020302020300A2020202D312E3632333020202020302E3839363320202020302E303030302043202020302020302020302020302020302020302020302020302020302020302020302020300A2020202D302E313233392020202D302E3539363120202020302E30303030204E202020302020302020302020302020302020302020302020302020302020302020302020300A20202020302E3336313020202020302E3037313320202020302E303030302043202020302020302020302020302020302020302020302020302020302020302020302020300A2020202D302E3132333920202020302E3733383820202020302E303030302043202020302020302020302020302020302020302020302020302020302020302020302020300A20202020312E3138313520202020302E3135373620202020302E303030302043202020302020302020302020302020302020302020302020302020302020302020302020300A20202020312E3531373020202020302E3931313220202020302E303030302043202020302020302020302020302020302020302020302020302020302020302020302020300A20202020312E3033323120202020312E3537383720202020302E30303030204E202020302020302020302020302020302020302020302020302020302020302020302020300A20202020302E3231313620202020312E3439323420202020302E303030302043202020302020302020302020302020302020302020302020302020302020302020302020300A2020202D312E363233302020202D312E3537383720202020302E303030302042722020302020302020302020302020302020302020302020302020302020302020302020300A20202020322E3333373520202020302E3939373520202020302E303030302043202020302020302020302020302020302020302020302020302020302020302020302020300A2020312020322020322020302020202020200A2020322020332020312020302020202020200A2020332020342020322020302020202020200A2020342020352020312020302020202020200A2020352020362020322020302020202020200A2020362020312020312020302020202020200A2020342020372020312020302020202020200A2020372020382020312020302020202020200A2020382020392020322020302020202020200A2020392020352020312020302020202020200A2020382031302020312020302020202020200A2031302031312020312020302020202020200A2031312031322020312020302020202020200A2031322031332020312020302020202020200A2031332020392020312020302020202020200A2020332031342020312020302020202020200A2031312031352020312020302020202020200A4D2020454E44
Contributor: SASAKI S, TOYOHASHI UNIV. OF TECH.
InstType: EI
InstName: JEOL JMS-01-SG-2
IoniMethod: _ENERGY 75 eV
IonPolarity: pos
Date: 2010-10-09 19:48:36+02:00
Num Peaks: 13
42 61 71 10 85 102 142 13 143 50 221 999 222 98 223 97 224 83 263 63 
264 161 265 10 266 150 
