Name: PROPYL 2-FUROATE
CAS: 615-10-1
MW: 154
Formula: C8H10O3
Synonym: MassBank: JP009042
Synonym: PROPYL 2-FUROATE
Structure: 50524F50594C20322D4655524F4154452E6D6F6C0A20204368656D447261773038313231303036303932440A2031312031312020302020302020302020302020302020302020302020303939392056323030300A20202020312E323139362020202D302E3934333220202020302E30303030204F202020302020302020302020302020302020302020302020302020302020302020302020300A20202020312E313333332020202D302E3132323720202020302E303030302043202020302020302020302020302020302020302020302020302020302020302020302020300A20202020312E3838373020202020302E3231323820202020302E303030302043202020302020302020302020302020302020302020302020302020302020302020302020300A20202020322E343339302020202D302E3430303320202020302E303030302043202020302020302020302020302020302020302020302020302020302020302020302020300A20202020322E303236352020202D312E3131343820202020302E303030302043202020302020302020302020302020302020302020302020302020302020302020302020300A20202020302E3431383920202020302E3238393820202020302E303030302043202020302020302020302020302020302020302020302020302020302020302020302020300A20202020302E3431383920202020312E3131343820202020302E30303030204F202020302020302020302020302020302020302020302020302020302020302020302020300A2020202D302E323935362020202D302E3132323720202020302E30303030204F202020302020302020302020302020302020302020302020302020302020302020302020300A2020202D312E3031303120202020302E3238393820202020302E303030302043202020302020302020302020302020302020302020302020302020302020302020302020300A2020202D312E373234362020202D302E3132323720202020302E303030302043202020302020302020302020302020302020302020302020302020302020302020302020300A2020202D322E3433393020202020302E3238393820202020302E303030302043202020302020302020302020302020302020302020302020302020302020302020302020300A2020312020322020312020302020202020200A2020322020332020322020302020202020200A2020332020342020312020302020202020200A2020342020352020322020302020202020200A2020312020352020312020302020202020200A2020322020362020312020302020202020200A2020362020372020322020302020202020200A2020362020382020312020302020202020200A2020392031302020312020302020202020200A2031302031312020312020302020202020200A2020382020392020312020302020202020200A4D2020454E44
Contributor: SODA AROMATIC CO., LTD.
InstType: EI
InstName: HITACHI M-80B
IoniMethod: _ENERGY 70 eV
IonPolarity: pos
Date: 2010-10-09 19:48:36+02:00
Num Peaks: 22
26 12 27 84 29 32 37 20 38 70 39 265 41 85 42 21 43 46 53 11 
59 28 66 12 67 23 68 35 84 29 95 999 96 93 97 15 112 611 113 181 
114 11 154 104 
