Name: NERAL
MW: 152
Formula: C10H16O
Synonym: MassBank: JP008696
Synonym: NERAL
Synonym: CIS-3,7-DIMETHYL-2,6-OCTADIENAL
Structure: 4E4552414C2E6D6F6C0A20204368656D447261773032323231303034303232440A2031312031302020302020302020302020302020302020302020302020303939392056323030300A20202020312E3738363220202020302E3832353020202020302E303030302043202020302020302020302020302020302020302020302020302020302020302020302020300A20202020312E3738363220202020302E3030303020202020302E303030302043202020302020302020302020302020302020302020302020302020302020302020302020300A20202020312E303731372020202D302E3431323520202020302E303030302043202020302020302020302020302020302020302020302020302020302020302020302020300A20202020312E303731372020202D312E3233373520202020302E303030302043202020302020302020302020302020302020302020302020302020302020302020302020300A20202020302E3335373220202020302E3030303020202020302E303030302043202020302020302020302020302020302020302020302020302020302020302020302020300A2020202D302E333537322020202D302E3431323520202020302E303030302043202020302020302020302020302020302020302020302020302020302020302020302020300A2020202D312E303731372020202D302E3030303020202020302E303030302043202020302020302020302020302020302020302020302020302020302020302020302020300A2020202D312E373836322020202D302E3431323520202020302E303030302043202020302020302020302020302020302020302020302020302020302020302020302020300A2020202D322E353030362020202D302E3030303020202020302E303030302043202020302020302020302020302020302020302020302020302020302020302020302020300A2020202D312E373836322020202D312E3233373520202020302E303030302043202020302020302020302020302020302020302020302020302020302020302020302020300A20202020322E3530303620202020312E3233373520202020302E30303030204F202020302020302020302020302020302020302020302020302020302020302020302020300A2020312020322020312020302020202020200A2020322020332020322020302020202020200A2020332020342020312020302020202020200A2020332020352020312020302020202020200A2020352020362020312020302020202020200A2020362020372020312020302020202020200A2020372020382020322020302020202020200A2020382020392020312020302020202020200A2020382031302020312020302020202020200A2020312031312020322020302020202020200A4D2020454E44
Contributor: SODA AROMATIC CO., LTD.
InstType: EI
InstName: HITACHI M-80B
IoniMethod: _ENERGY 70 eV
IonPolarity: pos
Date: 2010-10-09 19:48:36+02:00
Num Peaks: 53
27 175 29 94 32 10 38 11 39 319 40 33 41 999 42 41 43 73 50 13 
51 37 52 19 53 129 54 44 55 93 56 40 57 13 59 119 63 11 65 34 
66 14 67 139 68 31 69 805 70 60 71 11 77 46 78 13 79 57 80 42 
81 110 82 114 83 102 84 153 85 11 91 53 92 17 93 27 94 164 95 115 
96 39 97 17 105 18 107 27 108 16 109 141 110 26 119 53 121 15 123 22 
134 28 137 32 152 11 
