Name: N-(METHYL)-N-TRIMETHYLSILYLBENZYLAMINE
MW: 193
Formula: C11H19NSi
Synonym: MassBank: JP004127
Synonym: N-(METHYL)-N-TRIMETHYLSILYLBENZYLAMINE
Structure: 4E2D284D455448594C292D4E2D5452494D455448594C53494C594C42454E5A594C414D494E452E6D6F6C0A20204368656D447261773038313231303031323332440A2031332031332020302020302020302020302020302020302020302020303939392056323030300A20202020302E363138382020202D302E3330323020202020302E30303030204E202020302020302020302020302020302020302020302020302020302020302020302020300A20202020302E3230363320202020302E3431323520202020302E303030302043202020302020302020302020302020302020302020302020302020302020302020302020300A2020202D302E3631383720202020302E3431323520202020302E303030302043202020302020302020302020302020302020302020302020302020302020302020302020300A2020202D312E303331332020202D302E3330323020202020302E303030302043202020302020302020302020302020302020302020302020302020302020302020302020300A2020202D312E383536322020202D302E3330323020202020302E303030302043202020302020302020302020302020302020302020302020302020302020302020302020300A2020202D322E3236383820202020302E3431323520202020302E303030302043202020302020302020302020302020302020302020302020302020302020302020302020300A2020202D312E3835363320202020312E3132373020202020302E303030302043202020302020302020302020302020302020302020302020302020302020302020302020300A2020202D312E3033313220202020312E3132373020202020302E303030302043202020302020302020302020302020302020302020302020302020302020302020302020300A20202020312E343433382020202D302E3330323020202020302E303030302053692020302020302020302020302020302020302020302020302020302020302020302020300A20202020312E343433382020202D312E3132373020202020302E303030302043202020302020302020302020302020302020302020302020302020302020302020302020300A20202020312E3434333820202020302E3532333020202020302E303030302043202020302020302020302020302020302020302020302020302020302020302020302020300A20202020322E323638382020202D302E3330323020202020302E303030302043202020302020302020302020302020302020302020302020302020302020302020302020300A20202020302E323036332020202D312E3031363420202020302E303030302043202020302020302020302020302020302020302020302020302020302020302020302020300A2020322020332020312020302020202020200A2020332020342020312020302020202020200A2020342020352020322020302020202020200A2020352020362020312020302020202020200A2020362020372020322020302020202020200A2020372020382020312020302020202020200A2020332020382020322020302020202020200A2020312020322020312020302020202020200A2020392031302020312020302020202020200A2020392031312020312020302020202020200A2020392031322020312020302020202020200A2020312020392020312020302020202020200A2020312031332020312020302020202020200A4D2020454E44
Contributor: YAMAMOTO M, DEP. CHEMISTRY, FAC. SCIENCE, NARA WOMEN'S UNIV.
InstType: EI
InstName: HITACHI M-68
IoniMethod: _ENERGY 70 eV
IonPolarity: pos
Date: 2010-10-09 19:48:36+02:00
Num Peaks: 60
15 30 27 23 28 93 35 34 36 169 38 60 41 22 42 11 43 158 44 100 
45 184 50 2 51 67 57 22 58 49 59 24 60 22 63 30 65 144 72 3 
73 759 74 72 75 75 77 8 78 30 81 37 82 23 86 6 89 59 91 442 
92 76 93 8 95 30 100 45 102 53 105 4 107 25 115 45 116 974 117 13 
118 88 119 39 120 137 121 10 135 810 136 116 137 35 147 3 149 324 150 49 
162 43 164 9 176 73 178 999 179 198 180 5 192 176 193 920 194 178 195 40 
