Name: ISOVALERALDEHYDE
MW: 86
Formula: C5H10O
Synonym: MassBank: JP009323
Synonym: ISOVALERALDEHYDE
Structure: 310A31360A49534F56414C4552414C4445485944452E6D6F6C0A20204368656D447261773038313131303231353532440A2020362020352020302020302020302020302020302020302020302020303939392056323030300A2020202D302E373134352020202D302E3230363220202020302E303030302043202020302020302020302020302020302020302020302020302020302020302020302020300A20202020302E303030302020202D302E3631383820202020302E303030302043202020302020302020302020302020302020302020302020302020302020302020302020300A20202020302E373134352020202D302E3230363220202020302E303030302043202020302020302020302020302020302020302020302020302020302020302020302020300A20202020302E3731343520202020302E3631383820202020302E303030302043202020302020302020302020302020302020302020302020302020302020302020302020300A20202020312E343238392020202D302E3631383820202020302E303030302043202020302020302020302020302020302020302020302020302020302020302020302020300A2020202D312E343238392020202D302E3631383820202020302E30303030204F202020302020302020302020302020302020302020302020302020302020302020302020300A2020312020322020312020302020202020200A2020322020332020312020302020202020200A2020332020342020312020302020202020200A2020332020352020312020302020202020200A2020312020362020322020302020202020200A4D2020454E44
Contributor: YAMAMOTO M, DEP. CHEMISTRY, FAC. SCIENCE, NARA WOMEN'S UNIV.
InstType: EI
InstName: HITACHI RMU-6M
IoniMethod: _ENERGY 20 eV
IonPolarity: pos
Date: 2010-10-09 19:48:36+02:00
Num Peaks: 23
27 117 28 14 29 206 39 2 41 460 42 110 43 572 44 999 45 137 53 14 
55 18 56 2 57 195 58 510 59 21 60 5 68 14 69 11 71 178 72 1 
85 18 86 71 87 11 
