Name: BIS(PENTAFLUOROPHENYL)-TRICHLOROPHOSPHORANE
MW: 469
Formula: C12Cl3F10P
Synonym: MassBank: JP003878
Synonym: BIS(PENTAFLUOROPHENYL)-TRICHLOROPHOSPHORANE
Structure: 4249532850454E5441464C554F524F5048454E594C292D54524943484C4F524F50484F5350484F52414E452E6D6F6C0A20204368656D447261773039303631303030343632440A2032362032372020302020302020302020302020302020302020302020303939392056323030300A20202020312E353137332020202D302E3835343020202020302E303030302050202020302020302020302020302020302020302020302020302020302020302020302020300A20202020322E323439312020202D302E3437333020202020302E3030303020436C2020302020302020302020302020302020302020302020302020302020302020302020300A20202020322E313030372020202D312E3433373320202020302E3030303020436C2020302020302020302020302020302020302020302020302020302020302020302020300A20202020312E313034382020202D312E3536383520202020302E3030303020436C2020302020302020302020302020302020302020302020302020302020302020302020300A2020202D302E323936362020202D302E3835343020202020302E303030302043202020302020302020302020302020302020302020302020302020302020302020302020300A2020202D302E363834322020202D312E3636393220202020302E303030302043202020302020302020302020302020302020302020302020302020302020302020302020300A2020202D312E353330342020202D312E3638343320202020302E303030302043202020302020302020302020302020302020302020302020302020302020302020302020300A2020202D312E393437322020202D302E3936373220202020302E303030302043202020302020302020302020302020302020302020302020302020302020302020302020300A2020202D312E353337392020202D302E3235333620202020302E303030302043202020302020302020302020302020302020302020302020302020302020302020302020300A2020202D302E373137312020202D302E3234323120202020302E303030302043202020302020302020302020302020302020302020302020302020302020302020302020300A2020202D302E323731372020202D322E3338333720202020302E303030302046202020302020302020302020302020302020302020302020302020302020302020302020300A2020202D312E393432392020202D322E3339383720202020302E303030302046202020302020302020302020302020302020302020302020302020302020302020302020300A2020202D322E373732322020202D302E3936373220202020302E303030302046202020302020302020302020302020302020302020302020302020302020302020302020300A2020202D312E3935303420202020302E3436303920202020302E303030302046202020302020302020302020302020302020302020302020302020302020302020302020300A2020202D302E3330343620202020302E3437323420202020302E303030302046202020302020302020302020302020302020302020302020302020302020302020302020300A20202020312E333734312020202D302E3034313520202020302E303030302043202020302020302020302020302020302020302020302020302020302020302020302020300A20202020312E3939373920202020302E3438333920202020302E303030302043202020302020302020302020302020302020302020302020302020302020302020302020300A20202020312E3836333020202020312E3239313820202020302E303030302043202020302020302020302020302020302020302020302020302020302020302020302020300A20202020312E3039323120202020312E3538343420202020302E303030302043202020302020302020302020302020302020302020302020302020302020302020302020300A20202020302E3435323520202020312E3036323920202020302E303030302043202020302020302020302020302020302020302020302020302020302020302020302020300A20202020302E3538353220202020302E3234373220202020302E303030302043202020302020302020302020302020302020302020302020302020302020302020302020300A20202020322E3530313020202020312E3831343920202020302E303030302046202020302020302020302020302020302020302020302020302020302020302020302020300A20202020302E3936303120202020322E3339383720202020302E303030302046202020302020302020302020302020302020302020302020302020302020302020302020300A2020202D302E3331383820202020312E3335353720202020302E303030302046202020302020302020302020302020302020302020302020302020302020302020302020300A2020202D302E303530382020202D302E3237383320202020302E303030302046202020302020302020302020302020302020302020302020302020302020302020302020300A20202020322E3737323220202020302E3139383920202020302E303030302046202020302020302020302020302020302020302020302020302020302020302020302020300A2020312020322020312020302020202020200A2020312020332020312020302020202020200A2020312020342020312020302020202020200A2020352020362020312020302020202020200A2020362020372020322020302020202020200A2020372020382020312020302020202020200A2020382020392020322020302020202020200A2020392031302020312020302020202020200A2020352031302020322020302020202020200A2020362031312020312020302020202020200A2020372031322020312020302020202020200A2020382031332020312020302020202020200A2020392031342020312020302020202020200A2031302031352020312020302020202020200A2020312020352020312020302020202020200A2031362031372020312020302020202020200A2031372031382020322020302020202020200A2031382031392020312020302020202020200A2031392032302020322020302020202020200A2032302032312020312020302020202020200A2031362032312020322020302020202020200A2031382032322020312020302020202020200A2031392032332020312020302020202020200A2032302032342020312020302020202020200A2032312032352020312020302020202020200A2020312031362020312020302020202020200A2031372032362020312020302020202020200A4D2020454E44
Contributor: SASAKI S, TOYOHASHI UNIV. OF TECH.
InstType: EI
InstName: Unknown
IoniMethod: _ENERGY 70 eV
IonPolarity: pos
Date: 2010-10-09 19:48:36+02:00
Num Peaks: 35
64 269 69 999 79 93 85 10 93 127 98 92 99 204 105 8 110 392 111 64 
117 211 129 28 137 83 145 130 147 64 148 9 149 60 167 46 168 585 198 66 
199 60 217 459 233 245 235 7 278 52 298 156 365 359 366 4 367 75 381 46 
384 46 400 52 401 75 402 130 403 21 
