Name: 6-CARBOXY-3'-NITROFLAVONOL
MW: 327
Formula: C16H9NO7
Synonym: MassBank: JP000691
Synonym: 6-CARBOXY-3'-NITROFLAVONOL
Synonym: 3-HYDROXY-2-(3-NITROPHENYL)-4-OXO-4H-CHROMEN-6-CARBOXYLIC ACID
Structure: 362D434152424F58592D33272D4E4954524F464C41564F4E4F4C2E6D6F6C0A20204368656D447261773032323231303138343632440A2032342032362020302020302020302020302020302020302020302020303939392056323030300A20202020312E303731372020202D302E3431323520202020302E303030302043202020302020302020302020302020302020302020302020302020302020302020302020300A20202020312E303731372020202D312E3233373520202020302E303030302043202020302020302020302020302020302020302020302020302020302020302020302020300A20202020302E333537322020202D312E3635303020202020302E303030302043202020302020302020302020302020302020302020302020302020302020302020302020300A20202020302E333537322020202D322E3437353020202020302E30303030204F202020302020302020302020302020302020302020302020302020302020302020302020300A2020202D302E333537322020202D312E3233373520202020302E303030302043202020302020302020302020302020302020302020302020302020302020302020302020300A2020202D312E303731372020202D312E3635303020202020302E303030302043202020302020302020302020302020302020302020302020302020302020302020302020300A2020202D312E373836322020202D312E3233373520202020302E303030302043202020302020302020302020302020302020302020302020302020302020302020302020300A2020202D312E373836322020202D302E3431323520202020302E303030302043202020302020302020302020302020302020302020302020302020302020302020302020300A2020202D312E3037313720202020302E3030303020202020302E303030302043202020302020302020302020302020302020302020302020302020302020302020302020300A2020202D302E333537322020202D302E3431323520202020302E303030302043202020302020302020302020302020302020302020302020302020302020302020302020300A20202020302E333537322020202D302E3030303020202020302E30303030204F202020302020302020302020302020302020302020302020302020302020302020302020300A20202020312E3738363220202020302E3030303020202020302E303030302043202020302020302020302020302020302020302020302020302020302020302020302020300A20202020312E3738363220202020302E3832353020202020302E303030302043202020302020302020302020302020302020302020302020302020302020302020302020300A20202020322E3530303620202020312E3233373520202020302E303030302043202020302020302020302020302020302020302020302020302020302020302020302020300A20202020332E3231353120202020302E3832353020202020302E303030302043202020302020302020302020302020302020302020302020302020302020302020302020300A20202020332E323135312020202D302E3030303020202020302E303030302043202020302020302020302020302020302020302020302020302020302020302020302020300A20202020322E353030362020202D302E3431323520202020302E303030302043202020302020302020302020302020302020302020302020302020302020302020302020300A20202020322E3530303620202020322E3036323520202020302E30303030204E202020302020332020302020302020302020302020302020302020302020302020302020300A20202020312E3738363220202020322E3437353020202020302E30303030204F202020302020302020302020302020302020302020302020302020302020302020302020300A20202020332E3231353120202020322E3437353020202020302E30303030204F202020302020352020302020302020302020302020302020302020302020302020302020300A2020202D322E353030362020202D312E3635303020202020302E303030302043202020302020302020302020302020302020302020302020302020302020302020302020300A2020202D332E323135312020202D312E3233373520202020302E30303030204F202020302020302020302020302020302020302020302020302020302020302020302020300A2020202D322E353030362020202D322E3437353020202020302E30303030204F202020302020302020302020302020302020302020302020302020302020302020302020300A20202020312E373836322020202D312E3635303020202020302E30303030204F202020302020302020302020302020302020302020302020302020302020302020302020300A2020312020322020322020302020202020200A2020322020332020312020302020202020200A2020332020342020322020302020202020200A2020332020352020312020302020202020200A2020352020362020312020302020202020200A2020362020372020322020302020202020200A2020372020382020312020302020202020200A2020382020392020322020302020202020200A2020392031302020312020302020202020200A2020352031302020322020302020202020200A2031302031312020312020302020202020200A2020312031312020312020302020202020200A2020312031322020312020302020202020200A2031322031332020312020302020202020200A2031332031342020322020302020202020200A2031342031352020312020302020202020200A2031352031362020322020302020202020200A2031362031372020312020302020202020200A2031322031372020322020302020202020200A2031382031392020322020302020202020200A2031382032302020312020302020202020200A2031342031382020312020302020202020200A2032312032322020322020302020202020200A2032312032332020312020302020202020200A2020372032312020312020302020202020200A2020322032342020312020302020202020200A4D202043484720203220203138202020312020323020202D310A4D2020454E44
Contributor: TAKATORI M, DEPT. OF CHEMISTRY, FAC. OF EDUC., FUKUSHIMA UNIV.
InstType: EI
InstName: JEOL JMS-06-H
IoniMethod: _ENERGY 75 eV
IonPolarity: pos
Date: 2010-10-09 19:48:36+02:00
Num Peaks: 60
30 56 39 125 44 98 45 5 50 113 51 146 52 62 53 12 55 33 62 67 
63 219 64 5 65 62 69 38 74 58 75 13 76 173 77 146 79 33 81 14 
89 58 91 69 92 54 101 4 102 288 103 85 104 56 109 6 118 37 119 181 
120 50 129 5 130 38 136 196 137 60 147 5 148 35 149 150 150 31 152 5 
164 577 165 635 166 75 176 8 191 999 192 108 238 42 252 6 266 69 268 33 
281 58 282 5 283 33 296 85 297 35 312 28 313 431 314 79 327 204 328 40 
