Name: 4-NITROANISOL
CAS: 100-17-4
MW: 153
Formula: C7H7NO3
Synonym: MassBank: JP005719
Synonym: 4-NITROANISOL
Structure: 342D4E4954524F414E49534F4C2E6D6F6C0A20204368656D447261773034323231303137303832440A2031312031312020302020302020302020302020302020302020302020303939392056323030300A20202020322E3036323520202020302E3731343520202020302E303030302043202020302020302020302020302020302020302020302020302020302020302020302020300A20202020312E363530302020202D302E3030303020202020302E30303030204F202020302020302020302020302020302020302020302020302020302020302020302020300A20202020302E383235302020202D302E3030303020202020302E303030302043202020302020302020302020302020302020302020302020302020302020302020302020300A20202020302E343132352020202D302E3731343520202020302E303030302043202020302020302020302020302020302020302020302020302020302020302020302020300A2020202D302E343132352020202D302E3731343520202020302E303030302043202020302020302020302020302020302020302020302020302020302020302020302020300A2020202D302E3832353020202020302E3030303020202020302E303030302043202020302020302020302020302020302020302020302020302020302020302020302020300A2020202D302E3431323520202020302E3731343520202020302E303030302043202020302020302020302020302020302020302020302020302020302020302020302020300A20202020302E3431323520202020302E3731343520202020302E303030302043202020302020302020302020302020302020302020302020302020302020302020302020300A2020202D312E3635303020202020302E3030303020202020302E30303030204E202020302020332020302020302020302020302020302020302020302020302020302020300A2020202D322E303632352020202D302E3731343520202020302E30303030204F202020302020302020302020302020302020302020302020302020302020302020302020300A2020202D322E3036323520202020302E3731343520202020302E30303030204F202020302020352020302020302020302020302020302020302020302020302020302020300A2020312020322020312020302020202020200A2020322020332020312020302020202020200A2020332020342020312020302020202020200A2020342020352020322020302020202020200A2020352020362020312020302020202020200A2020362020372020322020302020202020200A2020372020382020312020302020202020200A2020332020382020322020302020202020200A2020392031302020322020302020202020200A2020392031312020312020302020202020200A2020362020392020312020302020202020200A4D202043484720203220202039202020312020313120202D310A4D2020454E44
Contributor: MASS SPECTROSCOPY SOC. OF JAPAN (MSSJ)
InstType: EI
InstName: HITACHI M-80
IoniMethod: _ENERGY 70 eV
IonPolarity: pos
Date: 2010-10-09 19:48:36+02:00
Num Peaks: 65
15 25 16 11 17 47 18 213 37 21 38 77 39 38 40 8 41 67 42 7 
43 46 44 14 46 24 49 8 50 124 51 76 52 51 53 36 54 16 55 10 
56 4 57 8 58 15 61 23 62 60 63 240 64 271 65 42 66 12 67 11 
68 4 69 39 70 3 71 5 73 11 74 59 75 51 76 60 77 461 78 46 
79 26 80 58 81 7 82 6 91 7 92 506 93 35 94 4 95 164 96 12 
97 5 106 10 107 109 108 103 109 9 119 9 122 8 123 607 124 49 125 6 
137 70 138 6 153 999 154 85 155 10 
