Name: CARVOMENTHONE
CAS: 59471-80-6
MW: 154
Formula: C10H18O
Synonym: MassBank: JP007394
Synonym: CARVOMENTHONE
Synonym: 2-METHYL-5-(1-METHYLETHYL)CYCLOHEXANONE
Structure: 434152564F4D454E54484F4E452E6D6F6C0A20204368656D447261773031323231303037303632440A2031312031312020302020302020302020302020302020302020302020303939392056323030300A20202020302E333537322020202D302E3631383820202020302E303030302043202020302020302020302020302020302020302020302020302020302020302020302020300A2020202D302E333537322020202D312E3033313320202020302E303030302043202020302020302020302020302020302020302020302020302020302020302020302020300A2020202D312E303731372020202D302E3631383820202020302E303030302043202020302020302020302020302020302020302020302020302020302020302020302020300A2020202D312E3037313720202020302E3230363220202020302E303030302043202020302020302020302020302020302020302020302020302020302020302020302020300A2020202D302E3335373220202020302E3631383820202020302E303030302043202020302020302020302020302020302020302020302020302020302020302020302020300A20202020302E3335373220202020302E3230363320202020302E303030302043202020302020302020302020302020302020302020302020302020302020302020302020300A2020202D302E3335373220202020312E3434333720202020302E303030302043202020302020302020302020302020302020302020302020302020302020302020302020300A2020202D312E3037313720202020312E3835363320202020302E303030302043202020302020302020302020302020302020302020302020302020302020302020302020300A20202020302E3335373220202020312E3835363220202020302E303030302043202020302020302020302020302020302020302020302020302020302020302020302020300A2020202D302E333537322020202D312E3835363320202020302E303030302043202020302020302020302020302020302020302020302020302020302020302020302020300A20202020312E303731372020202D312E3033313320202020302E30303030204F202020302020302020302020302020302020302020302020302020302020302020302020300A2020312020322020312020302020202020200A2020322020332020312020302020202020200A2020332020342020312020302020202020200A2020342020352020312020302020202020200A2020352020362020312020302020202020200A2020312020362020312020302020202020200A2020372020382020312020302020202020200A2020372020392020312020302020202020200A2020352020372020312020302020202020200A2020322031302020312020302020202020200A2020312031312020322020302020202020200A4D2020454E44
Contributor: YAMAMOTO M, DEP. CHEMISTRY, FAC. SCIENCE, NARA WOMEN'S UNIV.
InstType: EI
InstName: HITACHI M-80
IoniMethod: _ENERGY 20 eV
IonPolarity: pos
Date: 2010-10-09 19:48:36+02:00
Num Peaks: 21
55 284 56 40 69 101 70 28 71 12 72 25 81 22 82 66 83 169 84 54 
95 88 96 64 97 114 98 17 110 119 111 999 112 104 125 29 126 25 154 267 
155 30 
