Name: ACETALDEHYDE DIMETHYL ACETAL
MW: 90
Formula: C4H10O2
Synonym: MassBank: JP008626
Synonym: ACETALDEHYDE DIMETHYL ACETAL
Structure: 310A31360A41434554414C4445485944452044494D455448594C2041434554414C2E6D6F6C0A20204368656D447261773130323330393130333132440A2020362020352020302020302020302020302020302020302020302020303939392056323030300A2020202D302E3030303020202020302E3030303020202020302E303030302043202020302020302020302020302020302020302020302020302020302020302020302020300A20202020302E3431323520202020302E3731343520202020302E303030302043202020302020302020302020302020302020302020302020302020302020302020302020300A20202020302E343132352020202D302E3731343520202020302E30303030204F202020302020302020302020302020302020302020302020302020302020302020302020300A2020202D302E3832353020202020302E3030303020202020302E30303030204F202020302020302020302020302020302020302020302020302020302020302020302020300A20202020312E323337352020202D302E3731343520202020302E303030302043202020302020302020302020302020302020302020302020302020302020302020302020300A2020202D312E323337352020202D302E3731343520202020302E303030302043202020302020302020302020302020302020302020302020302020302020302020302020300A2020312020322020312020302020202020200A2020332020352020312020302020202020200A2020342020362020312020302020202020200A2020312020332020312020302020202020200A2020312020342020312020302020202020200A4D2020454E44
Contributor: SODA AROMATIC CO., LTD.
InstType: EI
InstName: HITACHI M-80B
IoniMethod: _ENERGY 70 eV
IonPolarity: pos
Date: 2010-10-09 19:48:36+02:00
Num Peaks: 18
14 13 15 158 26 20 27 71 29 320 30 19 31 364 33 12 41 16 42 23 
43 252 45 14 47 111 58 24 59 999 60 27 75 344 89 12 
