Name: 2-HYDROXY-6-METHOXYACETOPHENONE
MW: 166
Formula: C9H10O3
Synonym: MassBank: JP000540
Synonym: 2-HYDROXY-6-METHOXYACETOPHENONE
Structure: 310A350A322D485944524F58592D362D4D4554484F5859414345544F5048454E4F4E452E6D6F6C0A20204368656D447261773130313831303136333232440A2020302020302020302020302020302020302020302020302020302020303939392056323030300A4D2020454E44
Contributor: HASHIMOTO K, KYOTO COLLEGE OF PHARMACY
InstType: EI
InstName: HITACHI M-80
IoniMethod: _ENERGY 20 eV
IonPolarity: pos
Date: 2010-10-09 19:48:36+02:00
Num Peaks: 19
43 28 65 31 77 17 81 11 93 36 95 12 105 15 108 72 121 22 123 12 
136 112 137 11 147 26 148 100 149 13 151 999 152 89 166 429 167 45 
