Name: 2-(4-TRIMETHYLSILYLMETHYL-3-CYCLOHEXENYL)-6-METHYL-5-HEPTEN-2-OL
MW: 294
Formula: C18H34OSi
Synonym: MassBank: JP004730
Synonym: 2-(4-TRIMETHYLSILYLMETHYL-3-CYCLOHEXENYL)-6-METHYL-5-HEPTEN-2-OL
Structure: 322D28342D5452494D455448594C53494C594C4D455448594C2D332D4359434C4F484558454E594C292D362D4D455448594C2D352D48455054454E2D322D4F4C2E6D6F6C0A20204368656D447261773132323130393230343532440A2032302032302020302020302020302020302020302020302020302020303939392056323030300A20202020312E3037313720202020322E3134333420202020302E303030302043202020302020302020302020302020302020302020302020302020302020302020302020300A20202020312E3438343220202020312E3432383920202020302E303030302043202020302020302020302020302020302020302020302020302020302020302020302020300A20202020312E3839363720202020302E3731343520202020302E303030302043202020302020302020302020302020302020302020302020302020302020302020302020300A20202020312E343834322020202D302E3030303020202020302E303030302043202020302020302020302020302020302020302020302020302020302020302020302020300A20202020312E383936372020202D302E3731343520202020302E303030302043202020302020302020302020302020302020302020302020302020302020302020302020300A20202020312E343834322020202D312E3432383920202020302E303030302043202020302020302020302020302020302020302020302020302020302020302020302020300A20202020312E383936372020202D322E3134333420202020302E303030302043202020302020302020302020302020302020302020302020302020302020302020302020300A20202020322E3139383720202020312E3834313420202020302E30303030204F202020302020302020302020302020302020302020302020302020302020302020302020300A20202020302E363539322020202D312E3432383920202020302E303030302043202020302020302020302020302020302020302020302020302020302020302020302020300A20202020302E3736393720202020312E3031363420202020302E303030302043202020302020302020302020302020302020302020302020302020302020302020302020300A20202020302E3736393720202020302E3139313420202020302E303030302043202020302020302020302020302020302020302020302020302020302020302020302020300A20202020302E303535332020202D302E3232313120202020302E303030302043202020302020302020302020302020302020302020302020302020302020302020302020300A2020202D302E3635393220202020302E3139313420202020302E303030302043202020302020302020302020302020302020302020302020302020302020302020302020300A2020202D302E3635393220202020312E3031363420202020302E303030302043202020302020302020302020302020302020302020302020302020302020302020302020300A20202020302E3035353320202020312E3432383920202020302E303030302043202020302020302020302020302020302020302020302020302020302020302020302020300A2020202D312E333733372020202D302E3232313120202020302E303030302043202020302020302020302020302020302020302020302020302020302020302020302020300A2020202D312E333733372020202D312E3034363120202020302E303030302053692020302020302020302020302020302020302020302020302020302020302020302020300A2020202D302E353438372020202D312E3034363120202020302E303030302043202020302020302020302020302020302020302020302020302020302020302020302020300A2020202D312E333733372020202D312E3837313120202020302E303030302043202020302020302020302020302020302020302020302020302020302020302020302020300A2020202D322E313938372020202D312E3034363120202020302E303030302043202020302020302020302020302020302020302020302020302020302020302020302020300A2020312020322020312020302020202020200A2020322020332020312020302020202020200A2020332020342020312020302020202020200A2020342020352020312020302020202020200A2020352020362020322020302020202020200A2020362020372020312020302020202020200A2020322020382020312020302020202020200A2020362020392020312020302020202020200A2031302031312020312020302020202020200A2031312031322020312020302020202020200A2031322031332020322020302020202020200A2031332031342020312020302020202020200A2031342031352020312020302020202020200A2031302031352020312020302020202020200A2031372031382020312020312020202020200A2031372031392020312020302020202020200A2031372032302020312020312020202020200A2031362031372020312020302020202020200A2031332031362020312020302020202020200A2020322031302020312020302020202020200A4D2020454E44
Contributor: MASS SPECTROSCOPY SOC. OF JAPAN (MSSJ)
InstType: EI
InstName: JEOL JMS-D-3000
IoniMethod: _ENERGY 70 eV
IonPolarity: pos
Date: 2010-10-09 19:48:36+02:00
Num Peaks: 29
41 100 45 51 55 31 59 47 67 28 69 123 73 999 74 83 75 80 79 30 
80 46 91 40 92 47 93 175 94 26 98 29 105 30 107 28 109 56 121 38 
133 40 191 58 193 27 206 27 207 26 261 16 276 146 277 40 294 5 
