Name: MassBank: JP007299
MW: 366
Formula: C20H34O4Si
Synonym: MassBank: JP007299
Synonym: (2S,3S)-3-BENZYLOXY-4-(TERT-BUTYLDIMETHYLSILYLOXY)BUTAN-1,2-DIOL ISOPROPYLIDENE ACETAL
Structure: 2832532C3353292D332D42454E5A594C4F58592D342D28544552542D425554594C44494D455448594C53494C594C4F585929425554414E2D312C322D44494F4C2049534F50524F50594C4944454E452041434554414C2E6D6F6C0A20204368656D447261773130323030393135343532440A2032372032382020302020302020302020302020302020302020302020303939392056323030300A2020202D302E3832353420202020312E3432323520202020302E303030302043202020302020302020302020302020302020302020302020302020302020302020302020300A2020202D302E3030313620202020312E3436363720202020302E303030302043202020302020302020302020302020302020302020302020302020302020302020302020300A20202020302E3431303920202020302E3735323320202020302E30303030204F202020302020302020302020302020302020302020302020302020302020302020302020300A20202020312E3233353920202020302E3735323320202020302E303030302053692020302020302020302020302020302020302020302020302020302020302020302020300A20202020322E3031313120202020312E3033343420202020302E303030302043202020302020302020302020302020302020302020302020302020302020302020302020300A20202020322E3833363120202020312E3033343420202020302E303030302043202020302020302020302020302020302020302020302020302020302020302020302020300A2020202D302E3738313220202020302E3539383720202020302E30303030204F202020302020302020302020302020302020302020302020302020302020302020302020300A2020202D302E3836393620202020322E3234363320202020302E303030302048202020302020302020302020302020302020302020302020302020302020302020302020300A20202020312E3539383620202020312E3734383920202020302E303030302043202020302020302020302020302020302020302020302020302020302020302020302020300A20202020322E3135343420202020302E3232323020202020302E303030302043202020302020302020302020302020302020302020302020302020302020302020302020300A2020202D312E3634393220202020312E3337383320202020302E303030302043202020302020302020302020302020302020302020302020302020302020302020302020300A2020202D322E3436343120202020312E3530373420202020302E303030302043202020302020302020302020302020302020302020302020302020302020302020302020300A2020202D322E3833363120202020302E3737333520202020302E30303030204F202020302020302020302020302020302020302020302020302020302020302020302020300A2020202D322E3235353220202020302E3138383920202020302E303030302043202020302020302020302020302020302020302020302020302020302020302020302020300A2020202D312E3531393220202020302E3536373120202020302E30303030204F202020302020302020302020302020302020302020302020302020302020302020302020300A2020202D312E3630363620202020322E3230323220202020302E303030302048202020302020302020302020302020302020302020302020302020302020302020302020300A2020202D302E3034353720202020302E3232353120202020302E303030302043202020302020302020302020302020302020302020302020302020302020302020302020300A2020202D302E303031352020202D302E3539383720202020302E303030302043202020302020302020302020302020302020302020302020302020302020302020302020300A2020202D302E363932382020202D312E3034383920202020302E303030302043202020302020302020302020302020302020302020302020302020302020302020302020300A2020202D302E363438362020202D312E3837323720202020302E303030302043202020302020302020302020302020302020302020302020302020302020302020302020300A20202020302E303837302020202D322E3234363320202020302E303030302043202020302020302020302020302020302020302020302020302020302020302020302020300A20202020302E373738332020202D312E3739363220202020302E303030302043202020302020302020302020302020302020302020302020302020302020302020302020300A20202020302E373334312020202D302E3937323320202020302E303030302043202020302020302020302020302020302020302020302020302020302020302020302020300A20202020302E383938322020202D302E3036303220202020302E303030302043202020302020302020302020302020302020302020302020302020302020302020302020300A2020202D322E373034372020202D302E3332383520202020302E303030302043202020302020302020302020302020302020302020302020302020302020302020302020300A2020202D312E363132332020202D302E3530313420202020302E303030302043202020302020302020302020302020302020302020302020302020302020302020302020300A20202020312E3039313620202020312E3536363120202020302E303030302043202020302020302020302020302020302020302020302020302020302020302020302020300A2020312020322020312020302020202020200A2020322020332020312020302020202020200A2020332020342020312020302020202020200A2020342020352020312020302020202020200A2020352020362020312020302020202020200A2020312020372020312020312020202020200A2020312020382020312020312020202020200A2020352020392020312020312020202020200A2020352031302020312020312020202020200A2020312031312020312020302020202020200A2031312031322020312020302020202020200A2031322031332020312020302020202020200A2031332031342020312020302020202020200A2031342031352020312020302020202020200A2031352031312020312020302020202020200A2031312031362020312020362020202020200A2020372031372020312020302020202020200A2031372031382020312020302020202020200A2031382031392020322020302020202020200A2031392032302020312020302020202020200A2032302032312020322020302020202020200A2032312032322020312020302020202020200A2032322032332020322020302020202020200A2032332031382020312020302020202020200A2020342032342020312020302020202020200A2031342032352020312020312020202020200A2031342032362020312020362020202020200A2020342032372020312020302020202020200A4D202053545920203120202031205355500A4D2020534C4220203120202031202020310A4D202053414C20202031202031202032340A4D202053424C20202031202031202032350A4D2020534D5420202031204D650A4D2020534256202020312032352020202D372E3836373620202020362E353836360A4D202053545920203120202032205355500A4D2020534C4220203120202032202020320A4D202053414C20202032202031202032350A4D202053424C20202032202031202032360A4D2020534D5420202032204D650A4D2020534256202020322032362020202D372E3937393320202020362E383831360A4D202053545920203120202033205355500A4D2020534C4220203120202033202020330A4D202053414C20202033202031202032360A4D202053424C20202033202031202032370A4D2020534D5420202033204D650A4D2020534256202020332032372020202D362E3838363920202020362E373038370A4D202053545920203120202034205355500A4D2020534C4220203120202034202020340A4D202053414C20202034202031202032370A4D202053424C20202034202031202032380A4D2020534D5420202034204D650A4D2020534256202020342032382020202D372E3637343220202020382E323132390A4D2020454E44
Contributor: ITO S, DEPT. OF CHEM., TOHOKU UNIV.
InstType: EI
InstName: HITACHI M-52
IoniMethod: _ENERGY 14 eV
IonPolarity: pos
Date: 2010-10-09 19:48:36+02:00
Num Peaks: 24
43 22 56 18 58 20 59 3 69 20 72 26 75 136 89 2 101 42 103 34 
105 26 117 25 131 682 132 32 133 24 143 5 145 36 161 999 162 113 163 3 
175 24 182 53 219 148 261 205 
