Name: DIMETHOXYDIMETHYLSILANE
CAS: 1112-39-6
MW: 120
Formula: C4H12O2Si
Synonym: MassBank: JP004712
Synonym: DIMETHOXYDIMETHYLSILANE
Structure: 310A31380A44494D4554484F585944494D455448594C53494C414E452E6D6F6C0A20204368656D447261773039323231303030353632440A2020372020362020302020302020302020302020302020302020302020303939392056323030300A20202020302E3039353720202020302E3030303020202020302E303030302053692020302020302020302020302020302020302020302020302020302020302020302020300A2020202D302E3331363820202020302E3731343520202020302E303030302043202020302020302020302020302020302020302020302020302020302020302020302020300A20202020302E3831303220202020302E3431323520202020302E303030302043202020302020302020302020302020302020302020302020302020302020302020302020300A20202020302E353038322020202D302E3731343520202020302E30303030204F202020302020302020302020302020302020302020302020302020302020302020302020300A20202020312E333333322020202D302E3731343520202020302E303030302043202020302020302020302020302020302020302020302020302020302020302020302020300A2020202D302E363138372020202D302E3431323520202020302E30303030204F202020302020302020302020302020302020302020302020302020302020302020302020300A2020202D312E3333333220202020302E3030303020202020302E303030302043202020302020302020302020302020302020302020302020302020302020302020302020300A2020312020322020312020302020202020200A2020312020332020312020302020202020200A2020342020352020312020302020202020200A2020312020342020312020312020202020200A2020362020372020312020302020202020200A2020312020362020312020312020202020200A4D2020454E44
Contributor: MASS SPECTROSCOPY SOC. OF JAPAN (MSSJ)
InstType: EI
InstName: JEOL JMS-D-3000
IoniMethod: _ENERGY 70 eV
IonPolarity: pos
Date: 2010-10-09 19:48:36+02:00
Num Peaks: 14
43 29 52 14 59 25 61 33 73 27 75 494 76 39 77 23 78 38 89 51 
105 999 106 88 107 42 120 5 
