Name: MassBank: JP004653
MW: 366
Formula: C21H30Si3
Synonym: MassBank: JP004653
Synonym: 2-ETHYL-1,1,2,3,3-PENTAMETHYL-4,5-DIPHENYL-1,2,3-TRISILACYCLOPENT-4-ENE
Structure: 322D455448594C2D312C312C322C332C332D50454E54414D455448594C2D342C352D44495048454E594C2D312C322C332D54524953494C414359434C4F50454E542D342D454E452E6D6F6C0A20204368656D447261773031303331303132343132440A2032342032362020302020302020302020302020302020302020302020303939392056323030300A20202020312E323139362020202D302E3338373620202020302E303030302053692020302020302020302020302020302020302020302020302020302020302020302020300A20202020312E323139362020202D312E3231323620202020302E303030302053692020302020302020302020302020302020302020302020302020302020302020302020300A20202020302E343334392020202D312E3436373520202020302E303030302053692020302020302020302020302020302020302020302020302020302020302020302020300A2020202D302E303530302020202D302E3830303120202020302E303030302043202020302020302020302020302020302020302020302020302020302020302020302020300A20202020302E343334392020202D302E3133323720202020302E303030302043202020302020302020302020302020302020302020302020302020302020302020302020300A20202020302E3138303020202020302E3635323020202020302E303030302043202020302020302020302020302020302020302020302020302020302020302020302020300A2020202D302E3632373020202020302E3832333520202020302E303030302043202020302020302020302020302020302020302020302020302020302020302020302020300A2020202D302E3838313920202020312E3630383120202020302E303030302043202020302020302020302020302020302020302020302020302020302020302020302020300A2020202D302E3332393920202020322E3232313220202020302E303030302043202020302020302020302020302020302020302020302020302020302020302020302020300A20202020302E3437373120202020322E3034393720202020302E303030302043202020302020302020302020302020302020302020302020302020302020302020302020300A20202020302E3733323020202020312E3236353120202020302E303030302043202020302020302020302020302020302020302020302020302020302020302020302020300A2020202D302E383735302020202D302E3830303120202020302E303030302043202020302020302020302020302020302020302020302020302020302020302020302020300A2020202D312E323837352020202D312E3531343620202020302E303030302043202020302020302020302020302020302020302020302020302020302020302020302020300A2020202D322E313132352020202D312E3531343620202020302E303030302043202020302020302020302020302020302020302020302020302020302020302020302020300A2020202D322E353235302020202D302E3830303120202020302E303030302043202020302020302020302020302020302020302020302020302020302020302020302020300A2020202D322E313132352020202D302E3038353620202020302E303030302043202020302020302020302020302020302020302020302020302020302020302020302020300A2020202D312E323837352020202D302E3038353620202020302E303030302043202020302020302020302020302020302020302020302020302020302020302020302020300A2020202D302E323739352020202D312E3838303020202020302E303030302043202020302020302020302020302020302020302020302020302020302020302020302020300A20202020302E373730352020202D322E3232313220202020302E303030302043202020302020302020302020302020302020302020302020302020302020302020302020300A20202020312E333931312020202D322E3031393620202020302E303030302043202020302020302020302020302020302020302020302020302020302020302020302020300A20202020312E3339313120202020302E3431393420202020302E303030302043202020302020302020302020302020302020302020302020302020302020302020302020300A20202020322E303430312020202D302E3437333820202020302E303030302043202020302020302020302020302020302020302020302020302020302020302020302020300A20202020322E303430312020202D312E3132363420202020302E303030302043202020302020302020302020302020302020302020302020302020302020302020302020300A20202020322E353235302020202D312E3739333820202020302E303030302043202020302020302020302020302020302020302020302020302020302020302020302020300A2020312020322020312020302020202020200A2020322020332020312020302020202020200A2020332020342020312020302020202020200A2020342020352020322020302020202020200A2020312020352020312020302020202020200A2020362020372020312020302020202020200A2020372020382020322020302020202020200A2020382020392020312020302020202020200A2020392031302020322020302020202020200A2031302031312020312020302020202020200A2020362031312020322020302020202020200A2020352020362020312020302020202020200A2031322031332020312020302020202020200A2031332031342020322020302020202020200A2031342031352020312020302020202020200A2031352031362020322020302020202020200A2031362031372020312020302020202020200A2031322031372020322020302020202020200A2020342031322020312020302020202020200A2020332031382020312020312020202020200A2020332031392020312020362020202020200A2020322032302020312020302020202020200A2020312032312020312020362020202020200A2020312032322020312020312020202020200A2032332032342020312020302020202020200A2020322032332020312020302020202020200A4D2020454E44
Contributor: MASS SPECTROSCOPY SOC. OF JAPAN (MSSJ)
InstType: EI
InstName: JEOL JMS-D-3000
IoniMethod: _ENERGY 70 eV
IonPolarity: pos
Date: 2010-10-09 19:48:36+02:00
Num Peaks: 191
43 141 45 82 50 11 51 20 53 22 58 26 59 464 60 38 61 22 63 17 
71 11 72 19 73 999 74 104 75 55 76 36 77 24 83 13 85 60 86 40 
87 97 88 27 89 44 93 16 95 11 99 77 100 36 101 79 102 201 103 65 
104 23 105 151 106 24 107 29 109 11 111 11 113 51 114 24 115 119 116 140 
117 179 118 31 119 40 120 14 121 81 122 14 125 13 126 20 127 22 128 13 
129 112 130 257 131 117 132 37 133 39 135 378 136 58 137 22 139 16 140 13 
141 16 143 46 144 14 145 133 146 27 147 49 148 27 149 66 150 22 151 26 
152 31 154 19 155 21 157 22 158 13 159 117 160 117 161 59 162 25 163 123 
164 105 165 41 166 12 169 11 171 15 173 25 175 43 176 61 177 132 178 439 
179 123 180 34 181 21 183 12 187 38 188 94 189 35 190 18 191 60 192 141 
193 95 194 29 195 33 197 101 198 20 199 13 201 18 202 47 203 79 204 27 
205 27 206 11 207 26 208 17 209 21 211 16 215 13 216 48 217 79 218 31 
219 38 220 12 221 94 222 22 223 12 231 86 232 23 233 39 234 11 235 19 
237 16 239 19 245 19 247 27 248 12 249 41 250 17 251 14 253 18 259 30 
260 11 261 18 262 12 263 83 264 73 265 117 266 37 267 18 273 12 275 30 
276 13 277 71 278 60 279 238 280 70 281 39 282 13 291 18 292 24 293 175 
294 67 295 247 296 76 297 30 307 50 308 21 309 41 310 98 311 34 312 14 
321 39 322 18 323 88 324 33 325 17 335 26 336 13 337 230 338 87 339 46 
340 13 351 71 352 26 353 51 354 27 355 13 366 952 367 384 368 384 369 45 
370 11 
