Name: MassBank: JP002133
MW: 102
Formula: C5H10O2
Synonym: MassBank: JP002133
Synonym: ISOPROPYL ACETATE (1,1,1,3,3,3-D6)
Synonym: ACETIC ACID ISOPROPYL ESTER (1,1,1,3,3,3-D6)
Structure: 49534F50524F50594C20414345544154452028312C312C312C332C332C332D4436292E6D6F6C0A20204368656D447261773036323431303136353432440A2031332031322020302020302020302020302020302020302020302020303939392056323030300A20202020312E303731372020202D302E3236313520202020302E303030302043202020302020302020302020302020302020302020302020302020302020302020302020300A20202020312E373836322020202D302E3637343020202020302E303030302043202020302020302020302020302020302020302020302020302020302020302020302020300A20202020312E3037313720202020302E3536333520202020302E30303030204F202020302020302020302020302020302020302020302020302020302020302020302020300A20202020302E333537322020202D302E3637343020202020302E30303030204F202020302020302020302020302020302020302020302020302020302020302020302020300A2020202D302E333537322020202D302E3236313520202020302E303030302043202020302020302020302020302020302020302020302020302020302020302020302020300A2020202D312E303731372020202D302E3637343020202020302E303030302043202020302020302020302020302020302020302020302020302020302020302020302020300A2020202D302E3335373220202020302E3536333520202020302E303030302043202020302020302020302020302020302020302020302020302020302020302020302020300A2020202D312E373836322020202D312E3038363520202020302E303030302048202020312020302020302020302020302020302020302020302020302020302020302020300A2020202D312E3438343220202020302E3034303520202020302E303030302048202020312020302020302020302020302020302020302020302020302020302020302020300A2020202D302E363539322020202D312E3338383520202020302E303030302048202020312020302020302020302020302020302020302020302020302020302020302020300A2020202D302E3335373220202020312E3338383520202020302E303030302048202020312020302020302020302020302020302020302020302020302020302020302020300A20202020302E3436373820202020302E3536333520202020302E303030302048202020312020302020302020302020302020302020302020302020302020302020302020300A2020202D312E3138323220202020302E3536333520202020302E303030302048202020312020302020302020302020302020302020302020302020302020302020302020300A2020312020322020312020302020202020200A2020312020332020322020302020202020200A2020312020342020312020302020202020200A2020352020362020312020302020202020200A2020352020372020312020302020202020200A2020342020352020312020302020202020200A2020362020382020312020302020202020200A2020362020392020312020302020202020200A2020362031302020312020302020202020200A2020372031312020312020302020202020200A2020372031322020312020302020202020200A2020372031332020312020302020202020200A4D202049534F2020362020203820202032202020392020203220203130202020322020313120202032202031322020203220203133202020320A4D2020454E44
Contributor: TAJIMA S, GUNMA COLLEGE OF TECHNOLOGY
InstType: EI
InstName: HITACHI RMU-7M
IoniMethod: _ENERGY 70 eV
IonPolarity: pos
Date: 2010-10-09 19:48:36+02:00
Num Peaks: 18
15 44 18 10 29 56 30 45 31 20 41 14 42 45 43 999 44 39 45 90 
46 93 47 41 48 89 49 215 62 30 63 153 65 125 90 98 
