Name: ETHYL TERT-BUTYL ETHER
MW: 102
Formula: C6H14O
Synonym: MassBank: JP003911
Synonym: ETHYL TERT-BUTYL ETHER
Structure: 310A31380A455448594C20544552542D425554594C2045544845522E6D6F6C0A20204368656D447261773038313131303139303232440A2020372020362020302020302020302020302020302020302020302020303939392056323030300A2020202D302E303030302020202D302E3431323520202020302E30303030204F202020302020302020302020302020302020302020302020302020302020302020302020300A20202020302E3731343520202020302E3030303020202020302E303030302043202020302020302020302020302020302020302020302020302020302020302020302020300A20202020312E313237302020202D302E3731343520202020302E303030302043202020302020302020302020302020302020302020302020302020302020302020302020300A20202020302E3330323020202020302E3731343520202020302E303030302043202020302020302020302020302020302020302020302020302020302020302020302020300A20202020312E3432383920202020302E3431323520202020302E303030302043202020302020302020302020302020302020302020302020302020302020302020302020300A2020202D302E373134352020202D302E3030303020202020302E303030302043202020302020302020302020302020302020302020302020302020302020302020302020300A2020202D312E343238392020202D302E3431323520202020302E303030302043202020302020302020302020302020302020302020302020302020302020302020302020300A2020322020332020312020302020202020200A2020322020352020312020302020202020200A2020322020342020312020302020202020200A2020312020322020312020302020202020200A2020362020372020312020302020202020200A2020312020362020312020302020202020200A4D2020454E44
Contributor: MASS SPECTROSCOPY SOC. OF JAPAN (MSSJ)
InstType: EI
InstName: Unknown
IoniMethod: EI
IonPolarity: pos
Date: 2010-10-09 19:48:36+02:00
Num Peaks: 8
15 79 27 116 29 204 41 20 43 116 57 365 59 999 87 385 
