Name: MassBank: JP009643
MW: 212
Formula: C11H13ClO2
Synonym: MassBank: JP009643
Synonym: ETHYL 4-CHLORO-3,5-DIMETHYLBENZOATE
Structure: 455448594C20342D43484C4F524F2D332C352D44494D455448594C42454E5A4F4154452E6D6F6C0A20204368656D447261773038313131303138313732440A2031342031342020302020302020302020302020302020302020302020303939392056323030300A2020202D302E383235302020202D302E3030303020202020302E303030302043202020302020302020302020302020302020302020302020302020302020302020302020300A20202020302E303030302020202D302E3030303020202020302E303030302043202020302020302020302020302020302020302020302020302020302020302020302020300A20202020302E3431323520202020302E3731343520202020302E303030302043202020302020302020302020302020302020302020302020302020302020302020302020300A20202020312E3233373520202020302E3731343520202020302E303030302043202020302020302020302020302020302020302020302020302020302020302020302020300A20202020312E363530302020202D302E3030303020202020302E303030302043202020302020302020302020302020302020302020302020302020302020302020302020300A20202020312E323337352020202D302E3731343520202020302E303030302043202020302020302020302020302020302020302020302020302020302020302020302020300A20202020302E343132352020202D302E3731343520202020302E303030302043202020302020302020302020302020302020302020302020302020302020302020302020300A2020202D312E3233373520202020302E3731343520202020302E30303030204F202020302020302020302020302020302020302020302020302020302020302020302020300A2020202D312E323337352020202D302E3731343520202020302E30303030204F202020302020302020302020302020302020302020302020302020302020302020302020300A20202020312E363530302020202D312E3432383920202020302E303030302043202020302020302020302020302020302020302020302020302020302020302020302020300A20202020312E3635303020202020312E3432383920202020302E303030302043202020302020302020302020302020302020302020302020302020302020302020302020300A20202020322E343735302020202D302E3030303020202020302E3030303020436C2020302020302020302020302020302020302020302020302020302020302020302020300A2020202D322E303632352020202D302E3731343520202020302E303030302043202020302020302020302020302020302020302020302020302020302020302020302020300A2020202D322E343735302020202D312E3432383920202020302E303030302043202020302020302020302020302020302020302020302020302020302020302020302020300A2020312020322020312020302020202020200A2020322020332020312020302020202020200A2020332020342020322020302020202020200A2020342020352020312020302020202020200A2020352020362020322020302020202020200A2020362020372020312020302020202020200A2020322020372020322020302020202020200A2020312020382020322020302020202020200A2020312020392020312020302020202020200A2020362031302020312020302020202020200A2020342031312020312020302020202020200A2020352031322020312020302020202020200A2031332031342020312020302020202020200A2020392031332020312020302020202020200A4D2020454E44
Contributor: THE INSTITUTE OF SCIENTIFIC AND INDUSTRIALRESEARCH
InstType: EI
InstName: JEOL JMS-DX-300
IoniMethod: _ENERGY 70 eV
IonPolarity: pos
Date: 2010-10-09 19:48:36+02:00
Num Peaks: 42
27 45 29 40 39 31 45 1 50 15 51 64 52 12 53 2 62 10 63 37 
65 16 75 2 76 10 77 188 78 39 91 2 101 15 102 34 103 187 104 6 
105 23 138 12 139 154 140 2 141 50 149 44 153 10 167 999 168 141 169 333 
170 45 177 3 184 320 185 35 186 106 197 6 199 17 211 12 212 382 213 5 
214 129 215 15 
