Name: 2-ETHOXYETHYL ACETATE
MW: 132
Formula: C6H12O3
Synonym: MassBank: JP005923
Synonym: 2-ETHOXYETHYL ACETATE
Structure: 310A32320A322D4554484F5859455448594C20414345544154452E6D6F6C0A20204368656D447261773031303331303132333832440A2020392020382020302020302020302020302020302020302020302020303939392056323030300A2020202D312E343433382020202D302E3030303020202020302E303030302043202020302020302020302020302020302020302020302020302020302020302020302020300A2020202D312E303331322020202D302E3731343520202020302E303030302043202020302020302020302020302020302020302020302020302020302020302020302020300A2020202D322E323638372020202D302E3030303020202020302E30303030204F202020302020302020302020302020302020302020302020302020302020302020302020300A2020202D312E3033313320202020302E3731343520202020302E30303030204F202020302020302020302020302020302020302020302020302020302020302020302020300A2020202D302E3230363220202020302E3731343520202020302E303030302043202020302020302020302020302020302020302020302020302020302020302020302020300A20202020302E323036332020202D302E3030303020202020302E303030302043202020302020302020302020302020302020302020302020302020302020302020302020300A20202020312E303331332020202D302E3030303020202020302E30303030204F202020302020302020302020302020302020302020302020302020302020302020302020300A20202020312E343433382020202D302E3731343520202020302E303030302043202020302020302020302020302020302020302020302020302020302020302020302020300A20202020322E323638372020202D302E3731343520202020302E303030302043202020302020302020302020302020302020302020302020302020302020302020302020300A2020312020322020312020302020202020200A2020312020332020322020302020202020200A2020312020342020312020302020202020200A2020352020362020312020302020202020200A2020382020392020312020302020202020200A2020372020382020312020302020202020200A2020362020372020312020302020202020200A2020342020352020312020302020202020200A4D2020454E44
Contributor: YAMAMOTO M, DEP. CHEMISTRY, FAC. SCIENCE, NARA WOMEN'S UNIV.
InstType: EI
InstName: HITACHI RMU-6M
IoniMethod: _ENERGY 20 eV
IonPolarity: pos
Date: 2010-10-09 19:48:36+02:00
Num Peaks: 18
28 11 29 105 31 521 41 32 43 999 44 320 45 101 58 49 59 749 60 26 
61 60 70 23 72 719 73 52 74 34 87 120 88 142 89 26 
