Name: PROPYL BROMIDE
MW: 121
Formula: C3H7Br
Synonym: MassBank: JP005876
Synonym: PROPYL BROMIDE
Structure: 310A31320A50524F50594C2042524F4D4944452E6D6F6C0A20204368656D447261773038313231303036313132440A2020342020332020302020302020302020302020302020302020302020303939392056323030300A2020202D302E333537322020202D302E3230363220202020302E303030302043202020302020302020302020302020302020302020302020302020302020302020302020300A20202020302E3335373220202020302E3230363220202020302E303030302043202020302020302020302020302020302020302020302020302020302020302020302020300A20202020312E303731372020202D302E3230363220202020302E303030302043202020302020302020302020302020302020302020302020302020302020302020302020300A2020202D312E3037313720202020302E3230363220202020302E303030302042722020302020302020302020302020302020302020302020302020302020302020302020300A2020312020322020312020302020202020200A2020322020332020312020302020202020200A2020312020342020312020302020202020200A4D2020454E44
Contributor: YAMAMOTO M, DEP. CHEMISTRY, FAC. SCIENCE, NARA WOMEN'S UNIV.
InstType: EI
InstName: HITACHI RMU-6M
IoniMethod: _ENERGY 70 eV
IonPolarity: pos
Date: 2010-10-09 19:48:36+02:00
Num Peaks: 20
15 25 26 43 27 372 28 46 29 52 37 20 38 31 39 134 40 23 41 369 
42 98 43 999 44 35 93 13 95 13 107 17 109 15 122 146 123 9 124 143 
