Name: 3-NITROPHENYLACETIC ACID METHYL ESTER
MW: 195
Formula: C9H9NO4
Synonym: MassBank: JP004252
Synonym: 3-NITROPHENYLACETIC ACID METHYL ESTER
Structure: 332D4E4954524F5048454E594C4143455449432041434944204D455448594C2045535445522E6D6F6C0A20204368656D447261773033323031303138313532440A2031342031342020302020302020302020302020302020302020302020303939392056323030300A20202020302E303030302020202D312E3738363220202020302E303030302043202020302020302020302020302020302020302020302020302020302020302020302020300A20202020302E343132352020202D312E3037313720202020302E303030302043202020302020302020302020302020302020302020302020302020302020302020302020300A2020202D302E383235302020202D312E3738363220202020302E30303030204F202020302020302020302020302020302020302020302020302020302020302020302020300A20202020302E343132352020202D322E3530303620202020302E30303030204F202020302020302020302020302020302020302020302020302020302020302020302020300A20202020302E303030302020202D302E3335373220202020302E303030302043202020302020302020302020302020302020302020302020302020302020302020302020300A20202020302E3431323520202020302E3335373220202020302E303030302043202020302020302020302020302020302020302020302020302020302020302020302020300A20202020302E3030303020202020312E3037313720202020302E303030302043202020302020302020302020302020302020302020302020302020302020302020302020300A2020202D302E3832353020202020312E3037313720202020302E303030302043202020302020302020302020302020302020302020302020302020302020302020302020300A2020202D312E3233373520202020302E3335373220202020302E303030302043202020302020302020302020302020302020302020302020302020302020302020302020300A2020202D302E383235302020202D302E3335373220202020302E303030302043202020302020302020302020302020302020302020302020302020302020302020302020300A20202020302E3431323520202020312E3738363220202020302E30303030204E202020302020332020302020302020302020302020302020302020302020302020302020300A20202020312E3233373520202020312E3738363220202020302E30303030204F202020302020302020302020302020302020302020302020302020302020302020302020300A20202020302E3030303020202020322E3530303620202020302E30303030204F202020302020352020302020302020302020302020302020302020302020302020302020300A20202020312E323337352020202D322E3530303620202020302E303030302043202020302020302020302020302020302020302020302020302020302020302020302020300A2020312020322020312020302020202020200A2020312020332020322020302020202020200A2020312020342020312020302020202020200A2020352020362020312020302020202020200A2020362020372020322020302020202020200A2020372020382020312020302020202020200A2020382020392020322020302020202020200A2020392031302020312020302020202020200A2020352031302020322020302020202020200A2020322020352020312020302020202020200A2031312031322020322020302020202020200A2031312031332020312020302020202020200A2020372031312020312020302020202020200A2020342031342020312020302020202020200A4D202043484720203220203131202020312020313320202D310A4D2020454E44
Contributor: KOGA M, UNIV. OF OCCUPATIONAL AND ENVIRONMENTAL HEALTH
InstType: EI
InstName: JEOL JMS-01-SG
IoniMethod: _ENERGY 70 eV
IonPolarity: pos
Date: 2010-10-09 19:48:36+02:00
Num Peaks: 38
37 30 35 10 38 20 39 9 44 50 50 50 51 80 52 1 53 10 60 10 
62 50 63 21 64 60 65 101 71 10 75 1 77 70 78 110 79 30 89 53 
90 999 91 181 104 20 105 7 106 111 117 10 120 878 121 34 122 20 134 20 
136 696 137 5 149 111 164 30 165 40 186 1 195 595 196 40 
