Name: MassBank: JP000810
MW: 485
Formula: C26H55NO3Si2
Synonym: MassBank: JP000810
Synonym: 2-ACETAMIDO-1,3-BIS(TRIMETHYLSILYLOXY)-4-OCTADECENE
Structure: 322D41434554414D49444F2D312C332D424953285452494D455448594C53494C594C4F5859292D342D4F435441444543454E452E6D6F6C0A20204368656D447261773132323130393231333932440A2033322033312020302020302020302020302020302020302020302020303939392056323030300A20202020302E3030303020202020332E3537323420202020302E303030302043202020302020302020302020302020302020302020302020302020302020302020302020300A20202020302E3431323520202020342E3238363820202020302E303030302043202020302020302020302020302020302020302020302020302020302020302020302020300A20202020312E3233373520202020342E3238363820202020302E303030302043202020302020302020302020302020302020302020302020302020302020302020302020300A20202020312E3635303020202020332E3537323420202020302E303030302043202020302020302020302020302020302020302020302020302020302020302020302020300A20202020312E3233373520202020322E3835373920202020302E303030302043202020302020302020302020302020302020302020302020302020302020302020302020300A20202020312E3635303020202020322E3134333420202020302E303030302043202020302020302020302020302020302020302020302020302020302020302020302020300A20202020312E3233373520202020312E3432383920202020302E303030302043202020302020302020302020302020302020302020302020302020302020302020302020300A20202020312E3635303020202020302E3731343520202020302E303030302043202020302020302020302020302020302020302020302020302020302020302020302020300A20202020312E323337352020202D302E3030303020202020302E303030302043202020302020302020302020302020302020302020302020302020302020302020302020300A20202020312E363530302020202D302E3731343520202020302E303030302043202020302020302020302020302020302020302020302020302020302020302020302020300A20202020312E323337352020202D312E3432383920202020302E303030302043202020302020302020302020302020302020302020302020302020302020302020302020300A20202020312E363530302020202D322E3134333420202020302E303030302043202020302020302020302020302020302020302020302020302020302020302020302020300A20202020312E323337352020202D322E3835373920202020302E303030302043202020302020302020302020302020302020302020302020302020302020302020302020300A20202020312E363530302020202D332E3537323420202020302E303030302043202020302020302020302020302020302020302020302020302020302020302020302020300A20202020312E323337352020202D342E3238363820202020302E303030302043202020302020302020302020302020302020302020302020302020302020302020302020300A20202020312E363530302020202D352E3030313320202020302E303030302043202020302020302020302020302020302020302020302020302020302020302020302020300A20202020312E323337352020202D352E3731353820202020302E303030302043202020302020302020302020302020302020302020302020302020302020302020302020300A20202020312E363530302020202D362E3433303220202020302E303030302043202020302020302020302020302020302020302020302020302020302020302020302020300A20202020312E3635303020202020352E3030313320202020302E30303030204F202020302020302020302020302020302020302020302020302020302020302020302020300A20202020312E3233373520202020352E3731353820202020302E303030302053692020302020302020302020302020302020302020302020302020302020302020302020300A20202020312E3935323020202020362E3132383320202020302E303030302043202020302020302020302020302020302020302020302020302020302020302020302020300A20202020302E3532333020202020352E3330333320202020302E303030302043202020302020302020302020302020302020302020302020302020302020302020302020300A20202020302E3832353020202020362E3433303220202020302E303030302043202020302020302020302020302020302020302020302020302020302020302020302020300A2020202D302E3832353020202020332E3537323420202020302E30303030204F202020302020302020302020302020302020302020302020302020302020302020302020300A2020202D312E3233373520202020322E3835373920202020302E303030302053692020302020302020302020302020302020302020302020302020302020302020302020300A2020202D312E3635303020202020322E3134333420202020302E303030302043202020302020302020302020302020302020302020302020302020302020302020302020300A2020202D312E3935323020202020332E3237303420202020302E303030302043202020302020302020302020302020302020302020302020302020302020302020302020300A2020202D302E3532333020202020322E3434353420202020302E303030302043202020302020302020302020302020302020302020302020302020302020302020302020300A2020202D302E3832353020202020352E3030313320202020302E303030302043202020302020302020302020302020302020302020302020302020302020302020302020300A2020202D312E3233373520202020352E3731353820202020302E303030302043202020302020302020302020302020302020302020302020302020302020302020302020300A2020202D312E3233373520202020342E3238363820202020302E30303030204F202020302020302020302020302020302020302020302020302020302020302020302020300A20202020302E3030303020202020352E3030313320202020302E30303030204E202020302020302020302020302020302020302020302020302020302020302020302020300A2020312020322020312020302020202020200A2020322020332020312020302020202020200A2020332020342020312020302020202020200A2020342020352020322020302020202020200A2020352020362020312020302020202020200A2020362020372020312020302020202020200A2020372020382020312020302020202020200A2020382020392020312020302020202020200A2020392031302020312020302020202020200A2031302031312020312020302020202020200A2031312031322020312020302020202020200A2031322031332020312020302020202020200A2031332031342020312020302020202020200A2031342031352020312020302020202020200A2031352031362020312020302020202020200A2031362031372020312020302020202020200A2031372031382020312020302020202020200A2032302032312020312020302020202020200A2032302032322020312020302020202020200A2032302032332020312020302020202020200A2031392032302020312020302020202020200A2020332031392020312020302020202020200A2032352032362020312020302020202020200A2032352032372020312020312020202020200A2032352032382020312020312020202020200A2032342032352020312020302020202020200A2020312032342020312020302020202020200A2032392033302020312020302020202020200A2032392033312020322020302020202020200A2032392033322020312020302020202020200A2020322033322020312020302020202020200A4D2020454E44
Contributor: HAYASHI A, DEPT. OF CHEMISTRY, FAC. OF SCI. AND TECHNOLOGY, KINKI UNIV.
InstType: EI
InstName: SHIMADZU LKB-9000B
IoniMethod: _ENERGY 23 eV
IonPolarity: pos
Date: 2010-10-09 19:48:36+02:00
Num Peaks: 167
40 9 41 6 42 5 43 17 47 17 55 11 56 6 57 27 60 19 67 37 
68 11 69 41 70 12 71 20 72 5 73 81 74 8 75 215 76 15 77 9 
79 11 80 18 81 87 82 26 83 37 84 23 85 21 86 13 91 10 92 5 
93 16 94 21 95 123 96 26 97 49 98 15 100 19 101 5 103 103 104 11 
105 9 106 5 107 12 108 15 109 69 110 18 111 37 112 18 113 5 115 6 
116 254 117 32 118 13 119 5 120 5 121 25 122 17 123 37 124 14 125 10 
128 10 129 580 130 73 131 39 132 115 133 18 134 16 135 20 136 27 137 23 
138 8 142 54 143 16 144 9 145 7 147 15 148 6 149 11 150 12 151 9 
152 5 154 24 155 21 156 35 157 672 158 106 159 34 160 7 164 5 165 7 
167 8 168 13 169 7 170 6 173 35 174 604 175 81 176 26 177 5 178 5 
181 15 182 32 183 10 184 7 185 19 186 10 196 10 197 5 204 5 212 9 
217 5 221 7 233 12 234 9 243 191 244 45 245 18 246 9 247 120 248 33 
249 13 250 62 251 24 252 7 253 6 258 36 259 9 260 5 262 10 263 7 
264 16 265 11 290 7 291 5 292 111 293 32 294 8 295 5 305 7 306 20 
307 6 309 36 310 23 311 999 312 264 313 69 314 11 324 15 336 31 337 12 
338 12 339 6 340 5 350 10 352 5 380 72 381 21 382 23 383 5 395 8 
396 6 425 8 426 62 427 23 428 9 470 30 471 12 
