Name: AMINOGLUTETHIMIDE
MW: 232
Formula: C13H16N2O2
Synonym: MassBank: JP002788
Synonym: AMINOGLUTETHIMIDE
Structure: 414D494E4F474C5554455448494D4944452E6D6F6C0A20204368656D447261773038303731303033353632440A2031372031382020302020302020302020302020302020302020302020303939392056323030300A20202020302E3333313220202020322E3136393220202020302E30303030204E202020302020302020302020302020302020302020302020302020302020302020302020300A2020202D302E3338333320202020312E3735363720202020302E303030302043202020302020302020302020302020302020302020302020302020302020302020302020300A2020202D302E3338333320202020302E3933313720202020302E303030302043202020302020302020302020302020302020302020302020302020302020302020302020300A20202020302E3333313220202020302E3531393220202020302E303030302043202020302020302020302020302020302020302020302020302020302020302020302020300A20202020312E3034353620202020302E3933313720202020302E303030302043202020302020302020302020302020302020302020302020302020302020302020302020300A20202020312E3034353620202020312E3735363720202020302E303030302043202020302020302020302020302020302020302020302020302020302020302020302020300A2020202D312E3039373820202020322E3136393220202020302E30303030204F202020302020302020302020302020302020302020302020302020302020302020302020300A20202020312E3736303120202020322E3136393220202020302E30303030204F202020302020302020302020302020302020302020302020302020302020302020302020300A2020202D312E3139353820202020312E3037353020202020302E303030302043202020302020302020302020302020302020302020302020302020302020302020302020300A2020202D312E3732363120202020302E3434333020202020302E303030302043202020302020302020302020302020302020302020302020302020302020302020302020300A2020202D302E3636353520202020302E3135363520202020302E303030302043202020302020302020302020302020302020302020302020302020302020302020302020300A2020202D312E3437373920202020302E3031333220202020302E303030302043202020302020302020302020302020302020302020302020302020302020302020302020300A2020202D312E373630312020202D302E3736323020202020302E303030302043202020302020302020302020302020302020302020302020302020302020302020302020300A2020202D312E323239382020202D312E3339343020202020302E303030302043202020302020302020302020302020302020302020302020302020302020302020302020300A2020202D302E343137332020202D312E3235303720202020302E303030302043202020302020302020302020302020302020302020302020302020302020302020302020300A2020202D302E313335322020202D302E3437353520202020302E303030302043202020302020302020302020302020302020302020302020302020302020302020302020300A2020202D312E353132302020202D322E3136393220202020302E30303030204E202020302020302020302020302020302020302020302020302020302020302020302020300A2020312020322020312020302020202020200A2020322020332020312020302020202020200A2020332020342020312020302020202020200A2020342020352020312020302020202020200A2020352020362020312020302020202020200A2020312020362020312020302020202020200A2020322020372020322020302020202020200A2020362020382020322020302020202020200A2020392031302020312020302020202020200A2020332020392020312020302020202020200A2031312031322020312020302020202020200A2031322031332020322020302020202020200A2031332031342020312020302020202020200A2031342031352020322020302020202020200A2031352031362020312020302020202020200A2031312031362020322020302020202020200A2031342031372020312020302020202020200A2020332031312020312020302020202020200A4D2020454E44
Contributor: SASAKI S, TOYOHASHI UNIV. OF TECH.
InstType: EI
InstName: Unknown
IoniMethod: EI
IonPolarity: pos
Date: 2010-10-09 19:48:36+02:00
Num Peaks: 102
39 60 40 33 41 59 42 3 43 31 44 39 45 9 50 2 51 40 52 31 
53 30 54 4 55 48 56 27 57 34 58 0 63 31 64 19 65 78 66 4 
67 31 68 13 69 25 70 0 71 27 72 1 73 9 74 1 75 19 76 20 
77 79 78 4 79 29 80 19 81 19 82 3 83 20 84 9 88 23 89 0 
90 20 91 59 92 29 93 7 94 57 95 19 101 10 102 0 103 39 104 38 
105 28 106 1 107 23 108 9 114 9 115 1 116 36 117 99 118 109 119 4 
120 27 121 14 122 2 127 2 128 18 129 19 130 110 131 7 132 367 133 64 
134 17 142 1 143 23 144 30 145 39 146 7 147 73 148 31 149 19 150 0 
151 3 158 38 159 26 160 10 161 37 162 19 172 30 173 0 174 17 175 325 
176 51 177 3 186 9 187 69 188 23 203 999 204 169 205 26 231 2 232 7 
233 114 234 19 
