Name: 3-(2-AMINOETHYL)-7-METHYLINDOLE
MW: 174
Formula: C11H14N2
Synonym: MassBank: JP004309
Synonym: 3-(2-AMINOETHYL)-7-METHYLINDOLE
Structure: 332D28322D414D494E4F455448594C292D372D4D455448594C494E444F4C452E6D6F6C0A20204368656D447261773032323231303039343232440A2031332031342020302020302020302020302020302020302020302020303939392056323030300A20202020302E343434342020202D302E3937303320202020302E30303030204E202020302020302020302020302020302020302020302020302020302020302020302020300A2020202D302E333039332020202D302E3633343820202020302E303030302043202020302020302020302020302020302020302020302020302020302020302020302020300A2020202D302E3232333120202020302E3138353720202020302E303030302043202020302020302020302020302020302020302020302020302020302020302020302020300A20202020302E3538333920202020302E3335373220202020302E303030302043202020302020302020302020302020302020302020302020302020302020302020302020300A20202020302E3939363420202020312E3037313720202020302E303030302043202020302020302020302020302020302020302020302020302020302020302020302020300A20202020312E3832313420202020312E3037313720202020302E303030302043202020302020302020302020302020302020302020302020302020302020302020302020300A20202020322E3233333920202020302E3335373220202020302E303030302043202020302020302020302020302020302020302020302020302020302020302020302020300A20202020312E383231342020202D302E3335373220202020302E303030302043202020302020302020302020302020302020302020302020302020302020302020302020300A20202020302E393936342020202D302E3335373220202020302E303030302043202020302020302020302020302020302020302020302020302020302020302020302020300A20202020322E323333392020202D312E3037313720202020302E303030302043202020302020302020302020302020302020302020302020302020302020302020302020300A2020202D302E3833363220202020302E3733373720202020302E303030302043202020302020302020302020302020302020302020302020302020302020302020302020300A2020202D312E3632303820202020302E3438323820202020302E303030302043202020302020302020302020302020302020302020302020302020302020302020302020300A2020202D322E3233333920202020312E3033343820202020302E30303030204E202020302020302020302020302020302020302020302020302020302020302020302020300A2020312020322020312020302020202020200A2020322020332020322020302020202020200A2020332020342020312020302020202020200A2020342020352020312020302020202020200A2020352020362020322020302020202020200A2020362020372020312020302020202020200A2020372020382020322020302020202020200A2020382020392020312020302020202020200A2020312020392020312020302020202020200A2020342020392020322020302020202020200A2020382031302020312020302020202020200A2031312031322020312020302020202020200A2031322031332020312020302020202020200A2020332031312020312020302020202020200A4D2020454E44
Contributor: SASAKI S, TOYOHASHI UNIV. OF TECH.
InstType: EI
InstName: MX-1303
IoniMethod: _ENERGY 50 eV
IonPolarity: pos
Date: 2010-10-09 19:48:36+02:00
Num Peaks: 28
39 22 51 18 63 18 65 2 71.5 10 77 25 89 19 91 4 102 16 103 14 
115 99 116 3 117 23 127 10 128 23 129 3 130 50 131 23 141 11 142 7 
143 92 144 999 145 537 146 6 156 11 157 12 174 132 175 18 
