Name: PYRILAMINE
MW: 285
Formula: C17H23N3O
Synonym: MassBank: JP003065
Synonym: PYRILAMINE
Structure: 303632345F505952494C414D494E452E6D6F6C0A20204368656D447261773038323031303037313332440A2032322032332020302020302020302020302020302020302020302020303939392056323030300A2020202D312E373836322020202D302E3832353020202020302E303030302043202020302020302020302020302020302020302020302020302020302020302020302020300A2020202D312E373836322020202D312E3635303020202020302E303030302043202020302020302020302020302020302020302020302020302020302020302020302020300A2020202D312E303731372020202D322E3036323520202020302E303030302043202020302020302020302020302020302020302020302020302020302020302020302020300A2020202D302E333537322020202D312E3635303020202020302E303030302043202020302020302020302020302020302020302020302020302020302020302020302020300A2020202D302E333537322020202D302E3832353020202020302E303030302043202020302020302020302020302020302020302020302020302020302020302020302020300A2020202D312E303731372020202D302E3431323520202020302E303030302043202020302020302020302020302020302020302020302020302020302020302020302020300A2020202D322E353030362020202D322E3036323520202020302E30303030204F202020302020302020302020302020302020302020302020302020302020302020302020300A2020202D332E323135312020202D312E3635303020202020302E303030302043202020302020302020302020302020302020302020302020302020302020302020302020300A20202020302E333537322020202D302E3431323520202020302E303030302043202020302020302020302020302020302020302020302020302020302020302020302020300A20202020312E303731372020202D302E3832353020202020302E30303030204E202020302020302020302020302020302020302020302020302020302020302020302020300A20202020312E373836322020202D302E3431323520202020302E303030302043202020302020302020302020302020302020302020302020302020302020302020302020300A20202020312E303731372020202D312E3635303020202020302E303030302043202020302020302020302020302020302020302020302020302020302020302020302020300A20202020312E373836322020202D322E3036323520202020302E303030302043202020302020302020302020302020302020302020302020302020302020302020302020300A20202020322E353030362020202D312E3635303020202020302E30303030204E202020302020302020302020302020302020302020302020302020302020302020302020300A20202020322E353030362020202D302E3832353020202020302E303030302043202020302020302020302020302020302020302020302020302020302020302020302020300A20202020332E323135312020202D322E3036323520202020302E303030302043202020302020302020302020302020302020302020302020302020302020302020302020300A20202020312E3738363220202020302E3431323520202020302E303030302043202020302020302020302020302020302020302020302020302020302020302020302020300A20202020322E3530303620202020302E3832353020202020302E303030302043202020302020302020302020302020302020302020302020302020302020302020302020300A20202020322E3530303620202020312E3635303020202020302E303030302043202020302020302020302020302020302020302020302020302020302020302020302020300A20202020312E3738363220202020322E3036323520202020302E303030302043202020302020302020302020302020302020302020302020302020302020302020302020300A20202020312E3037313720202020312E3635303020202020302E303030302043202020302020302020302020302020302020302020302020302020302020302020302020300A20202020312E3037313720202020302E3832353020202020302E30303030204E202020302020302020302020302020302020302020302020302020302020302020302020300A2020312020322020322020302020202020200A2020322020332020312020302020202020200A2020332020342020322020302020202020200A2020342020352020312020302020202020200A2020352020362020322020302020202020200A2020362020312020312020302020202020200A2020322020372020312020302020202020200A2020372020382020312020302020202020200A2020352020392020312020302020202020200A2020392031302020312020302020202020200A2031302031312020312020302020202020200A2031302031322020312020302020202020200A2031322031332020312020302020202020200A2031332031342020312020302020202020200A2031342031352020312020302020202020200A2031342031362020312020302020202020200A2031312031372020312020302020202020200A2031372031382020322020302020202020200A2031382031392020312020302020202020200A2031392032302020322020302020202020200A2032302032312020312020302020202020200A2032312032322020322020302020202020200A2032322031372020312020302020202020200A4D2020454E44
Contributor: SASAKI S, TOYOHASHI UNIV. OF TECH.
InstType: EI
InstName: Unknown
IoniMethod: EI
IonPolarity: pos
Date: 2010-10-09 19:48:36+02:00
Num Peaks: 140
25 9 26 32 27 84 28 15 29 28 30 79 31 9 32 0 36 10 37 14 
38 18 39 4 40 21 41 46 42 119 43 5 44 44 45 22 49 9 50 3 
51 82 52 82 53 26 54 1 55 16 56 34 57 29 58 89 59 44 60 2 
61 4 62 1 63 16 64 14 65 32 66 1 67 16 68 8 69 8 70 2 
71 172 72 246 73 20 74 0 75 12 76 14 77 94 78 1 79 174 80 20 
81 4 82 0 83 1 84 2 85 2 89 2 90 17 91 62 92 17 93 0 
94 12 95 10 96 4 97 0 101 2 102 10 103 10 104 2 105 49 106 46 
107 20 108 0 109 2 115 4 116 4 117 0 118 14 119 31 120 13 121 999 
122 108 123 14 124 2 131 2 132 4 133 9 134 9 135 1 136 19 137 4 
145 4 146 0 147 8 148 10 149 2 162 2 163 10 164 8 165 2 166 0 
167 4 168 7 169 11 170 1 180 10 181 8 182 8 183 2 184 6 185 2 
190 2 191 0 192 2 193 1 194 1 195 0 196 6 197 6 198 9 199 0 
200 2 211 8 212 6 213 7 214 102 215 109 216 21 217 0 225 10 226 8 
227 24 228 1 229 2 239 4 240 2 241 0 242 2 285 30 286 14 287 3 
