Name: MassBank: JP002664
MW: 292
Formula: C19H32O2
Synonym: MassBank: JP002664
Synonym: METHYL-9,12,15-OCTADECATRIENOATE
Structure: 303437335F4D455448594C2D392C31322C31352D4F43544144454341545249454E4F4154452E6D6F6C0A20204368656D447261773039303631303137333732440A2032312032302020302020302020302020302020302020302020302020303939392056323030300A20202020352E3335383320202020302E3431323520202020302E303030302043202020302020302020302020302020302020302020302020302020302020302020302020300A20202020342E363434302020202D302E3030303020202020302E303030302043202020302020302020302020302020302020302020302020302020302020302020302020300A20202020342E363434302020202D302E3832353020202020302E303030302043202020302020302020302020302020302020302020302020302020302020302020302020300A20202020332E393239352020202D312E3233373520202020302E303030302043202020302020302020302020302020302020302020302020302020302020302020302020300A20202020332E323135302020202D302E3832353020202020302E303030302043202020302020302020302020302020302020302020302020302020302020302020302020300A20202020322E353030352020202D312E3233373520202020302E303030302043202020302020302020302020302020302020302020302020302020302020302020302020300A20202020312E373836312020202D302E3832353020202020302E303030302043202020302020302020302020302020302020302020302020302020302020302020302020300A20202020312E303731372020202D312E3233373520202020302E303030302043202020302020302020302020302020302020302020302020302020302020302020302020300A20202020302E333537322020202D302E3832353020202020302E303030302043202020302020302020302020302020302020302020302020302020302020302020302020300A2020202D302E333537322020202D312E3233373520202020302E303030302043202020302020302020302020302020302020302020302020302020302020302020302020300A2020202D312E303731372020202D302E3832353020202020302E303030302043202020302020302020302020302020302020302020302020302020302020302020302020300A2020202D312E373836322020202D312E3233373520202020302E303030302043202020302020302020302020302020302020302020302020302020302020302020302020300A2020202D322E353030352020202D302E3832353020202020302E303030302043202020302020302020302020302020302020302020302020302020302020302020302020300A2020202D332E323135302020202D312E3233373520202020302E303030302043202020302020302020302020302020302020302020302020302020302020302020302020300A2020202D332E393239352020202D302E3832353020202020302E303030302043202020302020302020302020302020302020302020302020302020302020302020302020300A2020202D342E363434302020202D312E3233373520202020302E303030302043202020302020302020302020302020302020302020302020302020302020302020302020300A2020202D352E333538332020202D302E3832353020202020302E303030302043202020302020302020302020302020302020302020302020302020302020302020302020300A2020202D362E303732382020202D312E3233373520202020302E303030302043202020302020302020302020302020302020302020302020302020302020302020302020300A20202020352E3335383320202020312E3233373520202020302E30303030204F202020302020302020302020302020302020302020302020302020302020302020302020300A20202020362E303732382020202D302E3030303020202020302E30303030204F202020302020302020302020302020302020302020302020302020302020302020302020300A20202020362E303732382020202D302E3832353020202020302E303030302043202020302020302020302020302020302020302020302020302020302020302020302020300A2020312020322020312020302020202020200A2020322020332020312020302020202020200A2020332020342020312020302020202020200A2020342020352020312020302020202020200A2020352020362020312020302020202020200A2020362020372020312020302020202020200A2020372020382020312020302020202020200A2020382020392020312020302020202020200A2020392031302020322020302020202020200A2031302031312020312020302020202020200A2031312031322020312020302020202020200A2031322031332020322020302020202020200A2031332031342020312020302020202020200A2031342031352020312020302020202020200A2031352031362020322020302020202020200A2031362031372020312020302020202020200A2031372031382020312020302020202020200A2020312031392020322020302020202020200A2020312032302020312020302020202020200A2032302032312020312020302020202020200A4D2020454E44
Contributor: HAYASHI A, DEPT. OF CHEMISTRY, FAC. OF SCI. AND TECHNOLOGY, KINKI UNIV.
InstType: EI
InstName: SHIMADZU LKB-9000B
IoniMethod: _ENERGY 70 eV
IonPolarity: pos
Date: 2010-10-09 19:48:36+02:00
Num Peaks: 129
53 17 54 26 55 51 59 22 65 32 66 48 67 395 68 10 69 111 74 77 
77 150 78 14 79 999 80 483 81 489 82 13 83 91 85 41 87 158 90 2 
91 310 92 83 93 756 94 39 95 944 96 176 97 106 98 2 104 13 105 173 
106 77 107 46 108 881 109 314 110 68 111 6 113 10 115 22 116 17 117 5 
118 14 119 115 120 64 121 45 122 298 123 132 124 29 125 4 129 48 131 77 
133 94 134 5 135 370 136 277 137 81 138 2 139 18 141 34 143 35 144 1 
146 201 147 75 148 31 149 32 150 158 151 41 154 13 155 2 157 25 158 177 
159 24 161 6 162 35 163 146 164 93 165 2 167 17 168 16 170 12 171 2 
173 111 174 28 175 60 176 2 177 47 178 51 179 20 181 3 182 15 185 22 
186 12 191 12 192 35 193 14 202 15 203 2 204 26 205 19 206 16 207 2 
208 13 210 15 213 12 217 3 218 16 221 18 222 18 223 6 224 25 231 17 
232 12 236 19 237 39 238 18 243 13 249 4 250 22 259 21 261 153 262 3 
263 64 264 16 270 19 280 15 288 128 290 23 292 262 293 6 235 20 
