Name: MassBank: JP008021
MW: 210
Formula: C12H18O3
Synonym: MassBank: JP008021
Synonym: METHYL 3,4,4ABETA,5,6,7,8,8ABETA-OCTAHYDRONAPHTHALEN-1(2H)-OXO-4ALPHA-CARBOXYLATE
Structure: 303436375F4D455448594C20332C342C3441424554412C352C362C372C382C3841424554412D4F435441485944524F4E4150485448414C454E2D31283248292D4F584F2D34414C5048412D434152424F58594C4154452E6D6F6C0A20204368656D447261773130313931303231323332440A2031382031392020302020302020302020302020302020302020302020303939392056323030300A2020202D312E3432383920202020302E3731303820202020302E303030302043202020302020302020302020302020302020302020302020302020302020302020302020300A2020202D312E343238392020202D302E3131343220202020302E303030302043202020302020302020302020302020302020302020302020302020302020302020302020300A2020202D302E373134352020202D302E3532363720202020302E303030302043202020302020302020302020302020302020302020302020302020302020302020302020300A20202020302E303030302020202D302E3131343220202020302E303030302043202020302020302020302020302020302020302020302020302020302020302020302020300A20202020302E3030303020202020302E3731303820202020302E303030302043202020302020302020302020302020302020302020302020302020302020302020302020300A2020202D302E3731343520202020312E3132333320202020302E303030302043202020302020302020302020302020302020302020302020302020302020302020302020300A20202020302E373134352020202D302E3532363720202020302E303030302043202020302020302020302020302020302020302020302020302020302020302020302020300A20202020312E343238392020202D302E3131343220202020302E303030302043202020302020302020302020302020302020302020302020302020302020302020302020300A20202020312E3432383920202020302E3731303820202020302E303030302043202020302020302020302020302020302020302020302020302020302020302020302020300A20202020302E3731343520202020312E3132333320202020302E303030302043202020302020302020302020302020302020302020302020302020302020302020302020300A2020202D302E3731343520202020312E3934383320202020302E30303030204F202020302020302020302020302020302020302020302020302020302020302020302020300A20202020302E3030303020202020312E3533353820202020302E303030302048202020302020302020302020302020302020302020302020302020302020302020302020300A20202020302E313531372020202D302E3932353120202020302E303030302048202020302020302020302020302020302020302020302020302020302020302020302020300A2020202D312E333339382020202D312E3036343820202020302E303030302048202020302020302020302020302020302020302020302020302020302020302020302020300A2020202D302E323338372020202D312E3230303720202020302E303030302043202020302020302020302020302020302020302020302020302020302020302020302020300A2020202D302E373530322020202D312E3834383020202020302E30303030204F202020302020302020302020302020302020302020302020302020302020302020302020300A20202020302E353836302020202D312E3232333020202020302E30303030204F202020302020302020302020302020302020302020302020302020302020302020302020300A20202020302E393739312020202D312E3934383320202020302E303030302043202020302020302020302020302020302020302020302020302020302020302020302020300A2020312020322020312020302020202020200A2020322020332020312020302020202020200A2020332020342020312020302020202020200A2020342020352020312020302020202020200A2020352020362020312020302020202020200A2020362020312020312020302020202020200A2020342020372020312020302020202020200A2020372020382020312020302020202020200A2020382020392020312020302020202020200A2020392031302020312020302020202020200A2031302020352020312020302020202020200A2020362031312020322020302020202020200A2020352031322020312020362020202020200A2020342031332020312020362020202020200A2020332031342020312020362020202020200A2020332031352020312020312020202020200A2031352031362020322020302020202020200A2031352031372020312020302020202020200A2031372031382020312020302020202020200A4D2020454E44
Contributor: HISAHIRO HAGIWARA, CHEMICAL RESEARCH INSTITUTE OF NON-AQUEOUSSOLUTIONS TOHOKU UNIV.
InstType: EI
InstName: JEOL JMS-DX-300
IoniMethod: _ENERGY 70 eV
IonPolarity: pos
Date: 2010-10-09 19:48:36+02:00
Num Peaks: 41
39 250 40 433 41 456 42 101 43 154 44 134 53 182 55 442 59 142 67 345 
68 104 77 123 79 237 80 213 81 449 83 136 87 133 91 175 93 107 94 131 
95 307 96 138 100 905 101 138 108 114 109 376 122 102 124 228 128 999 129 100 
132 125 133 37 150 270 151 235 154 165 155 415 168 101 178 190 179 172 192 125 
210 618 
