Name: LINALYL ACETATE
MW: 196
Formula: C12H20O2
Synonym: MassBank: JP007165
Synonym: LINALYL ACETATE
Structure: 4C494E414C594C20414345544154452E6D6F6C0A20204368656D447261773036323431303035353432440A2031342031332020302020302020302020302020302020302020302020303939392056323030300A2020202D302E3031343820202020302E3736393720202020302E303030302043202020302020302020302020302020302020302020302020302020302020302020302020300A2020202D302E3732393320202020312E3138323220202020302E303030302043202020302020302020302020302020302020302020302020302020302020302020302020300A20202020302E3639393720202020312E3138323220202020302E30303030204F202020302020302020302020302020302020302020302020302020302020302020302020300A2020202D302E303134382020202D302E3035353320202020302E30303030204F202020302020302020302020302020302020302020302020302020302020302020302020300A2020202D302E373239332020202D302E3436373820202020302E303030302043202020302020302020302020302020302020302020302020302020302020302020302020300A2020202D302E333136382020202D312E3138323220202020302E303030302043202020302020302020302020302020302020302020302020302020302020302020302020300A20202020302E353038322020202D312E3138323220202020302E303030302043202020302020302020302020302020302020302020302020302020302020302020302020300A20202020302E393230372020202D302E3436373820202020302E303030302043202020302020302020302020302020302020302020302020302020302020302020302020300A20202020312E373435372020202D302E3436373820202020302E303030302043202020302020302020302020302020302020302020302020302020302020302020302020300A20202020322E3135383220202020302E3234363720202020302E303030302043202020302020302020302020302020302020302020302020302020302020302020302020300A20202020322E313538322020202D312E3138323220202020302E303030302043202020302020302020302020302020302020302020302020302020302020302020302020300A2020202D312E343433382020202D302E3838303320202020302E303030302043202020302020302020302020302020302020302020302020302020302020302020302020300A2020202D322E313538322020202D302E3436373820202020302E303030302043202020302020302020302020302020302020302020302020302020302020302020302020300A2020202D312E3134313820202020302E3234363720202020302E303030302043202020302020302020302020302020302020302020302020302020302020302020302020300A2020312020322020312020302020202020200A2020312020332020322020302020202020200A2020312020342020312020302020202020200A2020352020362020312020302020202020200A2020362020372020312020302020202020200A2020372020382020312020302020202020200A2020382020392020322020302020202020200A2020392031302020312020302020202020200A2020392031312020312020302020202020200A2020352031322020312020302020202020200A2031322031332020322020302020202020200A2020352031342020312020302020202020200A2020342020352020312020302020202020200A4D2020454E44
Contributor: SODA AROMATIC CO., LTD.
InstType: EI
InstName: HITACHI M-80B
IoniMethod: _ENERGY 70 eV
IonPolarity: pos
Date: 2010-10-09 19:48:36+02:00
Num Peaks: 51
15 22 27 125 28 21 29 77 39 150 40 41 41 492 42 43 43 897 44 22 
51 24 52 14 53 128 54 16 55 220 56 19 57 11 65 25 66 15 67 152 
68 145 69 348 70 23 71 239 72 32 77 60 78 11 79 129 80 427 81 127 
82 41 83 50 84 12 85 15 91 77 92 160 93 999 94 115 95 35 105 57 
106 12 107 83 108 17 109 21 111 11 113 12 119 11 121 305 122 24 136 88 
137 16 
