Name: MassBank: JP000946
CAS: 78-59-1
MW: 138
Formula: C9H14O
Synonym: MassBank: JP000946
Synonym: 3,5,5-TRIMETHYL-2-CYCLOHEXEN-1-ONE
Synonym: ISOPHORONE
Structure: 332C352C352D5452494D455448594C2D322D4359434C4F484558454E2D312D4F4E452E6D6F6C0A20204368656D447261773032323231303030323432440A2031302031302020302020302020302020302020302020302020302020303939392056323030300A20202020302E3034393020202020302E3539333920202020302E303030302043202020302020302020302020302020302020302020302020302020302020302020302020300A20202020302E3736333520202020302E3138313420202020302E303030302043202020302020302020302020302020302020302020302020302020302020302020302020300A20202020302E373633352020202D302E3634333620202020302E303030302043202020302020302020302020302020302020302020302020302020302020302020302020300A20202020302E303439302020202D312E3035363120202020302E303030302043202020302020302020302020302020302020302020302020302020302020302020302020300A2020202D302E363635352020202D302E3634333620202020302E303030302043202020302020302020302020302020302020302020302020302020302020302020302020300A2020202D302E3636353520202020302E3138313420202020302E303030302043202020302020302020302020302020302020302020302020302020302020302020302020300A20202020302E3034393020202020312E3431383920202020302E30303030204F202020302020302020302020302020302020302020302020302020302020302020302020300A2020202D302E393437362020202D312E3431383920202020302E303030302043202020302020302020302020302020302020302020302020302020302020302020302020300A2020202D312E343737392020202D302E3530303420202020302E303030302043202020302020302020302020302020302020302020302020302020302020302020302020300A20202020312E343737392020202D312E3035363120202020302E303030302043202020302020302020302020302020302020302020302020302020302020302020302020300A2020312020322020312020302020202020200A2020322020332020322020302020202020200A2020332020342020312020302020202020200A2020342020352020312020302020202020200A2020352020362020312020302020202020200A2020312020362020312020302020202020200A2020312020372020322020302020202020200A2020352020382020312020362020202020200A2020352020392020312020312020202020200A2020332031302020312020302020202020200A4D2020454E44
Contributor: KOGA M, UNIV. OF OCCUPATIONAL AND ENVIRONMENTAL HEALTH
InstType: EI
InstName: JEOL JMS-01-SG
IoniMethod: _ENERGY 70 eV
IonPolarity: pos
Date: 2010-10-09 19:48:36+02:00
Num Peaks: 11
51 29 53 69 54 148 55 5 67 53 77 29 79 27 82 999 83 53 95 48 
138 122 
