Name: ETHYL PELARGONATE
MW: 186
Formula: C11H22O2
Synonym: MassBank: JP008310
Synonym: ETHYL PELARGONATE
Structure: 455448594C2050454C4152474F4E4154452E6D6F6C0A20204368656D447261773038313131303138353832440A2031332031322020302020302020302020302020302020302020302020303939392056323030300A2020202D312E373836322020202D302E3230363220202020302E303030302043202020302020302020302020302020302020302020302020302020302020302020302020300A2020202D312E303731372020202D302E3631383820202020302E303030302043202020302020302020302020302020302020302020302020302020302020302020302020300A2020202D302E333537322020202D302E3230363220202020302E303030302043202020302020302020302020302020302020302020302020302020302020302020302020300A20202020302E333537322020202D302E3631383820202020302E303030302043202020302020302020302020302020302020302020302020302020302020302020302020300A20202020312E303731372020202D302E3230363220202020302E303030302043202020302020302020302020302020302020302020302020302020302020302020302020300A20202020312E373836322020202D302E3631383820202020302E303030302043202020302020302020302020302020302020302020302020302020302020302020302020300A20202020322E353030362020202D302E3230363220202020302E303030302043202020302020302020302020302020302020302020302020302020302020302020302020300A20202020332E323135312020202D302E3631383720202020302E303030302043202020302020302020302020302020302020302020302020302020302020302020302020300A20202020332E393239362020202D302E3230363220202020302E303030302043202020302020302020302020302020302020302020302020302020302020302020302020300A2020202D312E3738363220202020302E3631383820202020302E30303030204F202020302020302020302020302020302020302020302020302020302020302020302020300A2020202D322E353030362020202D302E3631383820202020302E30303030204F202020302020302020302020302020302020302020302020302020302020302020302020300A2020202D332E323135312020202D302E3230363220202020302E303030302043202020302020302020302020302020302020302020302020302020302020302020302020300A2020202D332E393239362020202D302E3631383820202020302E303030302043202020302020302020302020302020302020302020302020302020302020302020302020300A2020312020322020312020302020202020200A2020322020332020312020302020202020200A2020332020342020312020302020202020200A2020342020352020312020302020202020200A2020352020362020312020302020202020200A2020362020372020312020302020202020200A2020372020382020312020302020202020200A2020382020392020312020302020202020200A2020312031302020322020302020202020200A2020312031312020312020302020202020200A2031322031332020312020302020202020200A2031312031322020312020302020202020200A4D2020454E44
Contributor: UBE SCIENTIFIC ANALYSIS LABORATORY
InstType: EI
InstName: HITACHI M-60
IoniMethod: _ENERGY 70 eV
IonPolarity: pos
Date: 2010-10-09 19:48:36+02:00
Num Peaks: 77
15 6 18 5 26 5 27 119 28 40 29 323 30 8 31 6 39 54 40 14 
41 247 42 90 43 304 44 14 45 111 46 3 53 17 54 13 55 217 56 75 
57 217 58 13 59 19 60 255 61 211 62 6 67 21 68 17 69 92 70 236 
71 141 72 8 73 234 74 34 75 6 79 4 81 28 82 4 83 51 84 45 
85 8 87 32 88 999 89 82 90 6 93 2 94 3 95 5 96 7 97 39 
98 18 99 3 101 378 102 35 103 4 111 10 112 11 113 1 115 68 116 7 
121 2 122 2 123 10 125 2 129 29 130 5 139 9 140 2 141 203 142 20 
143 79 144 10 157 64 158 9 159 11 186 28 187 6 
