Name: MassBank: JP001096
MW: 462
Formula: C19H42O5Si4
Synonym: MassBank: JP001096
Synonym: 3ALPHA,4ALPHA,5BETA-TRI(TRIMETHYLSILYLOXY)-1-CYCLOHEXENE-1-CARBOXYLIC ACID TRIMETHYLSILYL ESTER
Synonym: TRIMETHYLSILYL 3ALPHA,4ALPHA,5BETA-TRI(TRIMETHYLSILOXY)-1-CYCLOHEXENE-1-CARBOXYLATE
Structure: 33414C5048412C34414C5048412C35424554412D545249285452494D455448594C53494C594C4F5859292D312D4359434C4F484558454E452D312D434152424F58594C49432041434944205452494D455448594C53494C594C2045535445522E6D6F6C0A20204368656D447261773038313131303135313532440A2032382032382020302020302020302020302020302020302020302020303939392056323030300A20202020302E3335373220202020302E3030303020202020302E303030302043202020302020302020302020302020302020302020302020302020302020302020302020300A2020202D302E303535332020202D302E3731343520202020302E303030302043202020302020302020302020302020302020302020302020302020302020302020302020300A2020202D302E383830332020202D302E3731343520202020302E303030302043202020302020302020302020302020302020302020302020302020302020302020302020300A2020202D312E3239323820202020302E3030303020202020302E303030302043202020302020302020302020302020302020302020302020302020302020302020302020300A2020202D302E3838303320202020302E3731343520202020302E303030302043202020302020302020302020302020302020302020302020302020302020302020302020300A2020202D302E3035353320202020302E3731343520202020302E303030302043202020302020302020302020302020302020302020302020302020302020302020302020300A20202020312E3138323220202020302E3030303020202020302E303030302043202020302020302020302020302020302020302020302020302020302020302020302020300A20202020312E353934372020202D302E3731343520202020302E30303030204F202020302020302020302020302020302020302020302020302020302020302020302020300A20202020312E3539343720202020302E3731343520202020302E30303030204F202020302020302020302020302020302020302020302020302020302020302020302020300A2020202D312E3239323820202020312E3432383920202020302E30303030204F202020302020302020302020302020302020302020302020302020302020302020302020300A2020202D302E3838303320202020322E3134333420202020302E303030302053692020302020302020302020302020302020302020302020302020302020302020302020300A2020202D302E3436373820202020322E3835373920202020302E303030302043202020302020302020302020302020302020302020302020302020302020302020302020300A2020202D302E3136353820202020312E3733303920202020302E303030302043202020302020302020302020302020302020302020302020302020302020302020302020300A2020202D312E3539343720202020322E3535353920202020302E303030302043202020302020302020302020302020302020302020302020302020302020302020302020300A2020202D322E3131373820202020302E3030303020202020302E30303030204F202020302020302020302020302020302020302020302020302020302020302020302020300A2020202D322E353330332020202D302E3731343520202020302E303030302053692020302020302020302020302020302020302020302020302020302020302020302020300A2020202D312E383135382020202D312E3132373020202020302E303030302043202020302020302020302020302020302020302020302020302020302020302020302020300A2020202D322E393432382020202D312E3432383920202020302E303030302043202020302020302020302020302020302020302020302020302020302020302020302020300A2020202D332E323434372020202D302E3330323020202020302E303030302043202020302020302020302020302020302020302020302020302020302020302020302020300A2020202D312E323932382020202D312E3432383920202020302E30303030204F202020302020302020302020302020302020302020302020302020302020302020302020300A2020202D302E383830332020202D322E3134333420202020302E303030302053692020302020302020302020302020302020302020302020302020302020302020302020300A2020202D302E313635382020202D312E3733303920202020302E303030302043202020302020302020302020302020302020302020302020302020302020302020302020300A2020202D302E343637382020202D322E3835373920202020302E303030302043202020302020302020302020302020302020302020302020302020302020302020302020300A2020202D312E353934372020202D322E3535353920202020302E303030302043202020302020302020302020302020302020302020302020302020302020302020302020300A20202020322E3431393720202020302E3731343520202020302E303030302053692020302020302020302020302020302020302020302020302020302020302020302020300A20202020322E3431393720202020312E3533393520202020302E303030302043202020302020302020302020302020302020302020302020302020302020302020302020300A20202020332E3234343720202020302E3731343520202020302E303030302043202020302020302020302020302020302020302020302020302020302020302020302020300A20202020322E343139372020202D302E3131303520202020302E303030302043202020302020302020302020302020302020302020302020302020302020302020302020300A2020312020322020322020302020202020200A2020322020332020312020302020202020200A2020332020342020312020302020202020200A2020342020352020312020302020202020200A2020352020362020312020302020202020200A2020312020362020312020302020202020200A2020372020382020322020302020202020200A2020372020392020312020302020202020200A2020312020372020312020302020202020200A2031312031322020312020302020202020200A2031312031332020312020302020202020200A2031312031342020312020302020202020200A2031302031312020312020302020202020200A2020352031302020312020312020202020200A2031362031372020312020302020202020200A2031362031382020312020302020202020200A2031362031392020312020302020202020200A2031352031362020312020302020202020200A2020342031352020312020362020202020200A2032312032322020312020302020202020200A2032312032332020312020302020202020200A2032312032342020312020302020202020200A2032302032312020312020302020202020200A2020332032302020312020362020202020200A2032352032362020312020302020202020200A2032352032372020312020302020202020200A2032352032382020312020302020202020200A2020392032352020312020302020202020200A4D2020454E44
Contributor: KOGA M, UNIV. OF OCCUPATIONAL AND ENVIRONMENTAL HEALTH
InstType: EI
InstName: JEOL JMS-01-SG
IoniMethod: _ENERGY 70 eV
IonPolarity: pos
Date: 2010-10-09 19:48:36+02:00
Num Peaks: 22
45 383 73 150 74 335 75 32 103 68 133 171 147 999 148 15 149 95 189 246 
191 109 193 8 204 75 205 739 206 321 254 14 255 226 282 95 283 61 357 13 
372 116 373 47 
