Name: 4-METHYL-4-VINYLBUTYROLACTONE
MW: 126
Formula: C7H10O2
Synonym: MassBank: JP005650
Synonym: 4-METHYL-4-VINYLBUTYROLACTONE
Structure: 310A32330A342D4D455448594C2D342D56494E594C42555459524F4C4143544F4E452E6D6F6C0A20204368656D447261773034323131303032343032440A2020392020392020302020302020302020302020302020302020302020303939392056323030300A2020202D302E3732353620202020302E3638393820202020302E303030302043202020302020302020302020302020302020302020302020302020302020302020302020300A2020202D302E373235362020202D302E3133353220202020302E303030302043202020302020302020302020302020302020302020302020302020302020302020302020300A20202020302E303539302020202D302E3339303120202020302E303030302043202020302020302020302020302020302020302020302020302020302020302020302020300A20202020302E3534333920202020302E3237373320202020302E303030302043202020302020302020302020302020302020302020302020302020302020302020302020300A20202020302E3035393020202020302E3934343820202020302E30303030204F202020302020302020302020302020302020302020302020302020302020302020302020300A2020202D312E3339333020202020312E3137343720202020302E30303030204F202020302020302020302020302020302020302020302020302020302020302020302020300A20202020302E333134302020202D312E3137343720202020302E303030302043202020302020302020302020302020302020302020302020302020302020302020302020300A20202020302E383733392020202D302E3531393220202020302E303030302043202020302020302020302020302020302020302020302020302020302020302020302020300A20202020312E3339333020202020302E3132323020202020302E303030302043202020302020302020302020302020302020302020302020302020302020302020302020300A2020312020322020312020302020202020200A2020322020332020312020302020202020200A2020332020342020312020302020202020200A2020342020352020312020302020202020200A2020352020312020312020302020202020200A2020312020362020322020302020202020200A2020332020372020312020302020202020200A2020332020382020312020302020202020200A2020382020392020322020302020202020200A4D2020454E44
Contributor: HASHIMOTO K, KYOTO COLLEGE OF PHARMACY
InstType: EI
InstName: HITACHI M-80
IoniMethod: _ENERGY 20 eV
IonPolarity: pos
Date: 2010-10-09 19:48:36+02:00
Num Peaks: 33
26 38 27 274 28 361 29 48 39 145 40 21 41 173 42 76 43 524 44 31 
53 58 54 44 55 648 56 313 57 19 65 32 66 10 67 324 68 10 69 10 
70 10 71 419 72 11 81 35 82 13 83 246 98 229 99 294 100 12 111 999 
112 67 113 10 126 111 
