Name: 4'-BROMO-6-CARBOXYFLAVONOL
MW: 359
Formula: C16H9BrO5
Synonym: MassBank: JP000696
Synonym: 4'-BROMO-6-CARBOXYFLAVONOL
Synonym: 2-(4-BROMOPHENYL)-3-HYDROXY-4-OXO-4H-CHROMEN-6-CARBOXYLIC ACID
Structure: 34272D42524F4D4F2D362D434152424F5859464C41564F4E4F4C2E6D6F6C0A20204368656D447261773132323130393230313432440A2032322032342020302020302020302020302020302020302020302020303939392056323030300A20202020302E3731343520202020302E3230363320202020302E303030302043202020302020302020302020302020302020302020302020302020302020302020302020300A20202020302E373134352020202D302E3631383820202020302E303030302043202020302020302020302020302020302020302020302020302020302020302020302020300A20202020302E303030302020202D312E3033313320202020302E303030302043202020302020302020302020302020302020302020302020302020302020302020302020300A20202020302E303030302020202D312E3835363320202020302E30303030204F202020302020302020302020302020302020302020302020302020302020302020302020300A2020202D302E373134352020202D302E3631383720202020302E303030302043202020302020302020302020302020302020302020302020302020302020302020302020300A2020202D312E343238392020202D312E3033313220202020302E303030302043202020302020302020302020302020302020302020302020302020302020302020302020300A2020202D322E313433342020202D302E3631383720202020302E303030302043202020302020302020302020302020302020302020302020302020302020302020302020300A2020202D322E3134333420202020302E3230363220202020302E303030302043202020302020302020302020302020302020302020302020302020302020302020302020300A2020202D312E3432383920202020302E3631383820202020302E303030302043202020302020302020302020302020302020302020302020302020302020302020302020300A2020202D302E3731343520202020302E3230363220202020302E303030302043202020302020302020302020302020302020302020302020302020302020302020302020300A20202020302E3030303020202020302E3631383720202020302E30303030204F202020302020302020302020302020302020302020302020302020302020302020302020300A20202020312E3432383920202020302E3631383820202020302E303030302043202020302020302020302020302020302020302020302020302020302020302020302020300A20202020312E3432383920202020312E3434333820202020302E303030302043202020302020302020302020302020302020302020302020302020302020302020302020300A20202020322E3134333420202020312E3835363320202020302E303030302043202020302020302020302020302020302020302020302020302020302020302020302020300A20202020322E3835373920202020312E3434333820202020302E303030302043202020302020302020302020302020302020302020302020302020302020302020302020300A20202020322E3835373920202020302E3631383820202020302E303030302043202020302020302020302020302020302020302020302020302020302020302020302020300A20202020322E3134333420202020302E3230363320202020302E303030302043202020302020302020302020302020302020302020302020302020302020302020302020300A2020202D322E383537392020202D312E3033313220202020302E303030302043202020302020302020302020302020302020302020302020302020302020302020302020300A2020202D322E383537392020202D312E3835363320202020302E30303030204F202020302020302020302020302020302020302020302020302020302020302020302020300A2020202D332E353732342020202D302E3631383820202020302E30303030204F202020302020302020302020302020302020302020302020302020302020302020302020300A20202020332E3537323420202020312E3835363320202020302E303030302042722020302020302020302020302020302020302020302020302020302020302020302020300A20202020312E343238392020202D312E3033313320202020302E30303030204F202020302020302020302020302020302020302020302020302020302020302020302020300A2020312020322020322020302020202020200A2020322020332020312020302020202020200A2020332020342020322020302020202020200A2020332020352020312020302020202020200A2020352020362020312020302020202020200A2020362020372020322020302020202020200A2020372020382020312020302020202020200A2020382020392020322020302020202020200A2020392031302020312020302020202020200A2020352031302020322020302020202020200A2031302031312020312020302020202020200A2020312031312020312020302020202020200A2020312031322020312020302020202020200A2031322031332020312020302020202020200A2031332031342020322020302020202020200A2031342031352020312020302020202020200A2031352031362020322020302020202020200A2031362031372020312020302020202020200A2031322031372020322020302020202020200A2031382031392020322020302020202020200A2031382032302020312020302020202020200A2020372031382020312020302020202020200A2031352032312020312020302020202020200A2020322032322020312020302020202020200A4D2020454E44
Contributor: TAKATORI M, DEPT. OF CHEMISTRY, FAC. OF EDUC., FUKUSHIMA UNIV.
InstType: EI
InstName: JEOL JMS-06-H
IoniMethod: _ENERGY 75 eV
IonPolarity: pos
Date: 2010-10-09 19:48:36+02:00
Num Peaks: 87
32 373 38 157 39 309 41 10 43 116 44 398 45 345 50 86 51 554 52 108 
53 369 55 8 57 88 61 80 62 462 63 87 64 149 65 181 66 76 69 53 
74 466 75 999 75.5 64 76 97 77 526 79 104 80 165 81 13 82 157 86 141 
87 185 88 36 89 815 90 133 91 165 92 11 100 68 102 100 103 237 104 70 
104.5 84 105 430 117 88 117.5 10 118 88 119 378 120 137 121 7 126 68 131 153 
131.5 137 132 98 132.5 153 136 100 140.5 337 141 11 148 84 149 313 150 153 151 25 
152 687 153 153 155 450 157 43 165 265 167 145 169 185 179 12 180 137 181 161 
183 265 185 25 196 245 197 88 198 205 207 11 208 133 225 317 252 112 253 31 
281 241 282 64 359 329 360 92 361 486 362 900 363 161 
