Name: CHOLESTEROL
MW: 386
Formula: C27H46O
Synonym: MassBank: JP003431
Synonym: CHOLESTEROL
Structure: 43484F4C45535445524F4C2E6D6F6C0A20204368656D447261773039303731303131323932440A2033342033372020302020302020302020302020302020302020302020303939392056323030300A2020202D332E363932352020202D322E3037393420202020302E303030302043202020302020302020302020302020302020302020302020302020302020302020302020300A2020202D332E363932352020202D312E3235343420202020302E303030302043202020302020302020302020302020302020302020302020302020302020302020302020300A2020202D322E393738302020202D302E3834313920202020302E303030302043202020302020302020302020302020302020302020302020302020302020302020302020300A2020202D322E393738302020202D322E3439313920202020302E303030302043202020302020302020302020302020302020302020302020302020302020302020302020300A2020202D322E323633352020202D322E3037393420202020302E303030302043202020302020302020302020302020302020302020302020302020302020302020302020300A2020202D312E353439312020202D322E3439313920202020302E303030302043202020302020302020302020302020302020302020302020302020302020302020302020300A2020202D302E383334362020202D322E3037393420202020302E303030302043202020302020302020302020302020302020302020302020302020302020302020302020300A2020202D302E383334362020202D312E3235343420202020302E303030302043202020302020302020302020302020302020302020302020302020302020302020302020300A2020202D302E313230312020202D302E3834313920202020302E303030302043202020302020302020302020302020302020302020302020302020302020302020302020300A20202020302E363634352020202D312E3039363920202020302E303030302043202020302020302020302020302020302020302020302020302020302020302020302020300A20202020312E313439342020202D302E3432393420202020302E303030302043202020302020302020302020302020302020302020302020302020302020302020302020300A20202020302E3636343520202020302E3233373920202020302E303030302043202020302020302020302020302020302020302020302020302020302020302020302020300A20202020302E3931393420202020312E3032323620202020302E303030302043202020302020302020302020302020302020302020302020302020302020302020302020300A2020202D302E313230312020202D302E3031363920202020302E303030302043202020302020302020302020302020302020302020302020302020302020302020302020300A2020202D302E3132303120202020302E3830383120202020302E303030302043202020302020302020302020302020302020302020302020302020302020302020302020300A2020202D302E3833343620202020302E3339353620202020302E303030302043202020302020302020302020302020302020302020302020302020302020302020302020300A2020202D312E353439312020202D302E3031363920202020302E303030302043202020302020302020302020302020302020302020302020302020302020302020302020300A2020202D312E353439312020202D302E3834313920202020302E303030302043202020302020302020302020302020302020302020302020302020302020302020302020300A2020202D322E323633352020202D312E3235343420202020302E303030302043202020302020302020302020302020302020302020302020302020302020302020302020300A2020202D312E353439312020202D312E3636363920202020302E303030302043202020302020302020302020302020302020302020302020302020302020302020302020300A2020202D342E343037302020202D322E3439313920202020302E30303030204F202020302020302020302020302020302020302020302020302020302020302020302020300A2020202D322E323633352020202D302E3432393420202020302E303030302048202020302020302020302020302020302020302020302020302020302020302020302020300A2020202D302E313230312020202D312E3636363920202020302E303030302048202020302020302020302020302020302020302020302020302020302020302020302020300A20202020302E323932342020202D312E3535363420202020302E303030302048202020302020302020302020302020302020302020302020302020302020302020302020300A2020202D342E343839342020202D312E3836353920202020302E303030302048202020302020302020302020302020302020302020302020302020302020302020302020300A20202020312E3438393520202020302E3233373920202020302E303030302048202020302020302020302020302020302020302020302020302020302020302020302020300A20202020312E3133333020202020312E3831393520202020302E303030302048202020302020302020302020302020302020302020302020302020302020302020302020300A20202020312E3731303520202020302E3738383320202020302E303030302043202020302020302020302020302020302020302020302020302020302020302020302020300A20202020302E3132383420202020312E3235373020202020302E303030302043202020302020302020302020302020302020302020302020302020302020302020302020300A20202020322E3330383920202020312E3335363220202020302E303030302043202020302020302020302020302020302020302020302020302020302020302020302020300A20202020332E3039393920202020312E3132313920202020302E303030302043202020302020302020302020302020302020302020302020302020302020302020302020300A20202020332E3639383320202020312E3638393820202020302E303030302043202020302020302020302020302020302020302020302020302020302020302020302020300A20202020342E3438393420202020312E3435353520202020302E303030302043202020302020302020302020302020302020302020302020302020302020302020302020300A20202020332E3530353820202020322E3439313920202020302E303030302043202020302020302020302020302020302020302020302020302020302020302020302020300A2020312020322020312020302020202020200A2020322020332020312020302020202020200A2020312020342020312020302020202020200A2020342020352020312020302020202020200A2020352020362020322020302020202020200A2020362020372020312020302020202020200A2020372020382020312020302020202020200A2020382020392020312020302020202020200A2020392031302020312020302020202020200A2031302031312020312020302020202020200A2031312031322020312020302020202020200A2031322031332020312020302020202020200A2031322031342020312020302020202020200A2020392031342020312020302020202020200A2031342031352020312020312020202020200A2031342031362020312020302020202020200A2031362031372020312020302020202020200A2031372031382020312020302020202020200A2020382031382020312020302020202020200A2031382031392020312020302020202020200A2020332031392020312020302020202020200A2020352031392020312020302020202020200A2031392032302020312020312020202020200A2020312032312020312020312020202020200A2031382032322020312020362020202020200A2020382032332020312020312020202020200A2020392032342020312020362020202020200A2020312032352020312020362020202020200A2031322032362020312020362020202020200A2031332032372020312020312020202020200A2031332032382020312020302020202020200A2031332032392020312020302020202020200A2032382033302020312020302020202020200A2033302033312020312020302020202020200A2033312033322020312020302020202020200A2033322033332020312020302020202020200A2033322033342020312020302020202020200A4D2020454E44
Contributor: KOGA M, UNIV. OF OCCUPATIONAL AND ENVIRONMENTAL HEALTH
InstType: EI
InstName: JEOL JMS-01-SG-2
IoniMethod: _ENERGY 75 eV
IonPolarity: pos
Date: 2010-10-09 19:48:36+02:00
Num Peaks: 47
43 374 44 472 55 377 57 284 67 228 69 237 71 131 79 22 81 330 83 142 
91 198 93 24 95 312 97 100 105 220 107 28 108 142 109 180 119 162 120 11 
121 169 131 104 133 145 135 14 145 180 147 151 149 153 159 13 161 153 163 114 
213 133 215 15 231 111 233 175 234 136 255 13 273 131 275 246 301 250 353 16 
368 281 371 198 373 109 386 999 387 297 388 377 389 105 
