Name: MassBank: JP001086
MW: 534
Formula: C21H42O8Si4
Synonym: MassBank: JP001086
Synonym: 1,2,3,4-CYCLOPENTANETETRACARBOXYLIC ACID TETRA(TRIMETHYLSILYL) ESTER
Synonym: TETRA(TRIMETHYLSILYL) 1,2,3,4-CYCLOPENTANETETRACARBOXYLATE
Structure: 312C322C332C342D4359434C4F50454E54414E455445545241434152424F58594C49432041434944205445545241285452494D455448594C53494C594C292045535445522E6D6F6C0A20204368656D447261773130323330393132343332440A2033332033332020302020302020302020302020302020302020302020303939392056323030300A2020202D302E343832352020202D302E3333353920202020302E303030302043202020302020302020302020302020302020302020302020302020302020302020302020300A20202020302E3138343920202020302E3134393120202020302E303030302043202020302020302020302020302020302020302020302020302020302020302020302020300A20202020302E383532342020202D302E3333353920202020302E303030302043202020302020302020302020302020302020302020302020302020302020302020302020300A20202020302E353937342020202D312E3132303520202020302E303030302043202020302020302020302020302020302020302020302020302020302020302020302020300A2020202D302E323237362020202D312E3132303520202020302E303030302043202020302020302020302020302020302020302020302020302020302020302020302020300A2020202D312E323637312020202D302E3038303920202020302E303030302043202020302020302020302020302020302020302020302020302020302020302020302020300A2020202D312E3433383720202020302E3732363120202020302E30303030204F202020302020302020302020302020302020302020302020302020302020302020302020300A2020202D312E383530352020202D302E3636343320202020302E30303030204F202020302020302020302020302020302020302020302020302020302020302020302020300A20202020302E3138343920202020302E3937343120202020302E303030302043202020302020302020302020302020302020302020302020302020302020302020302020300A20202020302E3839393420202020312E3338363620202020302E30303030204F202020302020302020302020302020302020302020302020302020302020302020302020300A2020202D302E3532393620202020312E3338363620202020302E30303030204F202020302020302020302020302020302020302020302020302020302020302020302020300A20202020312E363337302020202D302E3038303920202020302E303030302043202020302020302020302020302020302020302020302020302020302020302020302020300A20202020322E323230332020202D302E3636343320202020302E30303030204F202020302020302020302020302020302020302020302020302020302020302020302020300A20202020312E3835303520202020302E3731363020202020302E30303030204F202020302020302020302020302020302020302020302020302020302020302020302020300A20202020312E303832332020202D312E3738373920202020302E303030302043202020302020302020302020302020302020302020302020302020302020302020302020300A20202020302E373436382020202D322E3534313620202020302E30303030204F202020302020302020302020302020302020302020302020302020302020302020302020300A20202020312E393032382020202D312E3730313720202020302E30303030204F202020302020302020302020302020302020302020302020302020302020302020302020300A2020202D322E363437342020202D302E3435303820202020302E303030302053692020302020302020302020302020302020302020302020302020302020302020302020300A2020202D322E383630392020202D312E3234373620202020302E303030302043202020302020302020302020302020302020302020302020302020302020302020302020300A2020202D332E343434332020202D302E3233373220202020302E303030302043202020302020302020302020302020302020302020302020302020302020302020302020300A2020202D322E3433333920202020302E3334363120202020302E303030302043202020302020302020302020302020302020302020302020302020302020302020302020300A2020202D302E3532393620202020322E3231313620202020302E303030302053692020302020302020302020302020302020302020302020302020302020302020302020300A2020202D302E3532393620202020332E3033363620202020302E303030302043202020302020302020302020302020302020302020302020302020302020302020302020300A20202020302E3239353420202020322E3231313620202020302E303030302043202020302020302020302020302020302020302020302020302020302020302020302020300A2020202D312E3335343620202020322E3231313620202020302E303030302043202020302020302020302020302020302020302020302020302020302020302020302020300A20202020322E3634373420202020302E3932393520202020302E303030302053692020302020302020302020302020302020302020302020302020302020302020302020300A20202020322E3433333920202020312E3732363420202020302E303030302043202020302020302020302020302020302020302020302020302020302020302020302020300A20202020332E3434343320202020312E3134333020202020302E303030302043202020302020302020302020302020302020302020302020302020302020302020302020300A20202020322E3836303920202020302E3133323620202020302E303030302043202020302020302020302020302020302020302020302020302020302020302020302020300A20202020322E333837372020202D322E3336393120202020302E303030302053692020302020302020302020302020302020302020302020302020302020302020302020300A20202020332E303535322020202D312E3838343220202020302E303030302043202020302020302020302020302020302020302020302020302020302020302020302020300A20202020322E383732372020202D332E3033363620202020302E303030302043202020302020302020302020302020302020302020302020302020302020302020302020300A20202020312E373230332020202D322E3835343020202020302E303030302043202020302020302020302020302020302020302020302020302020302020302020302020300A2020312020322020312020302020202020200A2020322020332020312020302020202020200A2020332020342020312020302020202020200A2020342020352020312020302020202020200A2020312020352020312020302020202020200A2020362020372020322020302020202020200A2020362020382020312020302020202020200A2020312020362020312020302020202020200A2020392031302020322020302020202020200A2020392031312020312020302020202020200A2020322020392020312020302020202020200A2031322031332020322020302020202020200A2031322031342020312020302020202020200A2020332031322020312020302020202020200A2031352031362020322020302020202020200A2031352031372020312020302020202020200A2020342031352020312020302020202020200A2031382031392020312020312020202020200A2031382032302020312020302020202020200A2031382032312020312020312020202020200A2020382031382020312020302020202020200A2032322032332020312020302020202020200A2032322032342020312020302020202020200A2032322032352020312020302020202020200A2031312032322020312020302020202020200A2032362032372020312020312020202020200A2032362032382020312020302020202020200A2032362032392020312020312020202020200A2031342032362020312020302020202020200A2033302033312020312020312020202020200A2033302033322020312020302020202020200A2033302033332020312020312020202020200A2031372033302020312020302020202020200A4D2020454E44
Contributor: KOGA M, UNIV. OF OCCUPATIONAL AND ENVIRONMENTAL HEALTH
InstType: EI
InstName: JEOL JMS-01-SG
IoniMethod: _ENERGY 70 eV
IonPolarity: pos
Date: 2010-10-09 19:48:36+02:00
Num Peaks: 26
43 68 44 666 45 416 47 10 55 83 57 75 73 999 74 10 75 659 76 83 
77 310 78 9 93 386 95 83 147 871 148 8 149 75 217 75 221 90 255 11 
283 121 327 83 333 83 357 11 373 280 374 83 
