Name: MassBank: JP003046
MW: 140
Formula: C5H10Cl2
Synonym: MassBank: JP003046
Synonym: 1,4-DICHLOROPENTANE
Structure: 310A31380A312C342D444943484C4F524F50454E54414E452E6D6F6C0A20204368656D447261773131313430393232353832440A2020372020362020302020302020302020302020302020302020302020303939392056323030300A20202020312E303731372020202D302E3631383820202020302E303030302043202020302020302020302020302020302020302020302020302020302020302020302020300A20202020302E333537322020202D302E3230363220202020302E303030302043202020302020302020302020302020302020302020302020302020302020302020302020300A2020202D302E333537322020202D302E3631383820202020302E303030302043202020302020302020302020302020302020302020302020302020302020302020302020300A2020202D312E303731372020202D302E3230363220202020302E303030302043202020302020302020302020302020302020302020302020302020302020302020302020300A2020202D312E3037313720202020302E3631383820202020302E303030302043202020302020302020302020302020302020302020302020302020302020302020302020300A2020202D312E373836322020202D302E3631383720202020302E3030303020436C2020302020302020302020302020302020302020302020302020302020302020302020300A20202020312E373836322020202D302E3230363220202020302E3030303020436C2020302020302020302020302020302020302020302020302020302020302020302020300A2020312020322020312020302020202020200A2020322020332020312020302020202020200A2020332020342020312020302020202020200A2020342020352020312020302020202020200A2020342020362020312020302020202020200A2020312020372020312020302020202020200A4D2020454E44
Contributor: SASAKI S, TOYOHASHI UNIV. OF TECH.
InstType: EI
InstName: Unknown
IoniMethod: EI
IonPolarity: pos
Date: 2010-10-09 19:48:36+02:00
Num Peaks: 56
25 5 26 87 27 614 28 31 29 220 30 9 35 17 36 5 37 34 38 74 
39 445 40 11 41 999 42 862 43 387 44 4 47 5 48 7 49 119 50 0 
51 81 52 13 53 178 54 3 55 61 56 91 57 19 58 0 60 7 61 30 
62 75 63 33 64 29 65 119 66 10 67 1 68 513 69 665 70 44 71 25 
72 13 73 9 75 57 76 28 77 59 78 94 79 14 85 2 86 39 87 6 
89 74 91 3 104 193 105 63 106 63 107 22 
