Name: (Z)-15-OCTADECENOIC ACID METHYL ESTER
MW: 296
Formula: C19H36O2
Synonym: MassBank: JP005351
Synonym: (Z)-15-OCTADECENOIC ACID METHYL ESTER
Structure: 285A292D31352D4F435441444543454E4F49432041434944204D455448594C2045535445522E6D6F6C0A20204368656D447261773130323230393230303432440A2032332032322020302020302020302020302020302020302020302020303939392056323030300A20202020342E323836382020202D302E3431323520202020302E303030302043202020302020302020302020302020302020302020302020302020302020302020302020300A20202020352E303031332020202D302E3832343920202020302E303030302043202020302020302020302020302020302020302020302020302020302020302020302020300A20202020332E353732332020202D302E3832343920202020302E303030302048202020302020302020302020302020302020302020302020302020302020302020302020300A20202020352E303031332020202D312E3635303020202020302E303030302048202020302020302020302020302020302020302020302020302020302020302020302020300A20202020342E3238363820202020302E3431323620202020302E303030302043202020302020302020302020302020302020302020302020302020302020302020302020300A20202020352E373135382020202D302E3431323520202020302E303030302043202020302020302020302020302020302020302020302020302020302020302020302020300A20202020362E343330312020202D302E3832343920202020302E303030302043202020302020302020302020302020302020302020302020302020302020302020302020300A20202020332E3537323320202020302E3832353120202020302E303030302043202020302020302020302020302020302020302020302020302020302020302020302020300A20202020322E3835373920202020302E3431323620202020302E303030302043202020302020302020302020302020302020302020302020302020302020302020302020300A20202020322E3134333520202020302E3832353120202020302E303030302043202020302020302020302020302020302020302020302020302020302020302020302020300A20202020312E3432393020202020302E3431323620202020302E303030302043202020302020302020302020302020302020302020302020302020302020302020302020300A20202020302E3731343620202020302E3832353120202020302E303030302043202020302020302020302020302020302020302020302020302020302020302020302020300A20202020302E3030303120202020302E3431323620202020302E303030302043202020302020302020302020302020302020302020302020302020302020302020302020300A2020202D302E3731343420202020302E3832353020202020302E303030302043202020302020302020302020302020302020302020302020302020302020302020302020300A2020202D312E3432383820202020302E3431323520202020302E303030302043202020302020302020302020302020302020302020302020302020302020302020302020300A2020202D322E3134333220202020302E3832353020202020302E303030302043202020302020302020302020302020302020302020302020302020302020302020302020300A2020202D322E3835373720202020302E3431323520202020302E303030302043202020302020302020302020302020302020302020302020302020302020302020302020300A2020202D332E3537323120202020302E3832353020202020302E303030302043202020302020302020302020302020302020302020302020302020302020302020302020300A2020202D342E3238363620202020302E3431323520202020302E303030302043202020302020302020302020302020302020302020302020302020302020302020302020300A2020202D352E3030313120202020302E3832353020202020302E303030302043202020302020302020302020302020302020302020302020302020302020302020302020300A2020202D352E3731353620202020302E3431323520202020302E30303030204F202020302020302020302020302020302020302020302020302020302020302020302020300A2020202D362E3433303120202020302E3832353020202020302E303030302043202020302020302020302020302020302020302020302020302020302020302020302020300A2020202D352E3030313120202020312E3635303020202020302E30303030204F202020302020302020302020302020302020302020302020302020302020302020302020300A2020312020322020322020302020202020200A2020312020332020312020302020202020200A2020322020342020312020302020202020200A2020312020352020312020302020202020200A2020322020362020312020302020202020200A2020362020372020312020302020202020200A2020352020382020312020302020202020200A2020382020392020312020302020202020200A2020392031302020312020302020202020200A2031302031312020312020302020202020200A2031312031322020312020302020202020200A2031322031332020312020302020202020200A2031332031342020312020302020202020200A2031342031352020312020302020202020200A2031352031362020312020302020202020200A2031362031372020312020302020202020200A2031372031382020312020302020202020200A2031382031392020312020302020202020200A2031392032302020312020302020202020200A2032302032312020312020302020202020200A2032312032322020312020302020202020200A2032302032332020322020302020202020200A4D2020454E44
Contributor: YAMAOKA R, KYOTO INSTITUTE OF TECHNOLOGY
InstType: EI
InstName: HITACHI M-80B
IoniMethod: _ENERGY 20 eV
IonPolarity: pos
Date: 2010-10-09 19:48:36+02:00
Num Peaks: 65
41 342 42 35 43 161 44 104 54 28 55 671 56 361 57 255 59 87 60 69 
67 114 68 199 69 905 70 153 74 999 75 186 80 54 81 236 82 269 83 840 
84 557 85 41 87 707 93 25 94 89 95 223 96 488 97 771 98 353 99 31 
101 88 108 12 109 125 110 271 111 244 112 47 114 25 115 53 119 19 121 67 
124 102 125 138 128 122 133 46 134 30 137 63 138 124 141 51 143 64 147 31 
151 22 152 106 162 23 163 31 165 40 166 60 167 31 180 60 185 21 207 28 
220 14 222 108 264 351 265 199 296 26 
