Name: FENCHONE
MW: 152
Formula: C10H16O
Synonym: MassBank: JP006604
Synonym: FENCHONE
Synonym: 1,3,3-TRIMETHYLBICYCLO(2.2.1)HEPTAN-2-ONE
Structure: 46454E43484F4E452E6D6F6C0A20204368656D447261773131313130393137313832440A2031312031322020302020302020302020302020302020302020302020303939392056323030300A2020202D302E3736393720202020302E3030303020202020302E303030302043202020302020302020302020302020302020302020302020302020302020302020302020300A2020202D302E373639372020202D302E3832353020202020302E303030302043202020302020302020302020302020302020302020302020302020302020302020302020300A2020202D302E303535332020202D312E3233373520202020302E303030302043202020302020302020302020302020302020302020302020302020302020302020302020300A20202020302E363539322020202D302E3832353020202020302E303030302043202020302020302020302020302020302020302020302020302020302020302020302020300A20202020302E3635393220202020302E3030303020202020302E303030302043202020302020302020302020302020302020302020302020302020302020302020302020300A2020202D302E3035353320202020302E3431323520202020302E303030302043202020302020302020302020302020302020302020302020302020302020302020302020300A2020202D302E3035353320202020312E3233373520202020302E30303030204F202020302020302020302020302020302020302020302020302020302020302020302020300A20202020302E3035353320202020302E3030303020202020302E303030302043202020302020302020302020302020302020302020302020302020302020302020302020300A2020202D312E3438343220202020302E3431323520202020302E303030302043202020302020302020302020302020302020302020302020302020302020302020302020300A20202020312E3438343220202020302E3030303020202020302E303030302043202020302020302020302020302020302020302020302020302020302020302020302020300A20202020302E3837323720202020302E3739363920202020302E303030302043202020302020302020302020302020302020302020302020302020302020302020302020300A2020312020322020312020302020202020200A2020322020332020312020302020202020200A2020332020342020312020302020202020200A2020342020352020312020302020202020200A2020352020362020312020302020202020200A2020362020312020312020302020202020200A2020362020372020322020302020202020200A2020312020382020312020302020202020200A2020382020342020312020302020202020200A2020312020392020312020302020202020200A2020352031302020312020312020202020200A2020352031312020312020362020202020200A4D2020454E44
Contributor: HISAHIRO HAGIWARA, CHEMICAL RESEARCH INSTITUTE OF NON-AQUEOUSSOLUTIONS TOHOKU UNIV.
InstType: EI
InstName: HITACHI M-80B
IoniMethod: _ENERGY 70 eV
IonPolarity: pos
Date: 2010-10-09 19:48:36+02:00
Num Peaks: 29
27 92 29 44 39 144 40 19 41 307 42 36 43 28 51 21 52 11 53 76 
54 13 55 44 65 21 67 81 68 39 69 515 70 35 72 15 77 27 79 39 
80 127 81 999 82 87 91 16 95 12 109 61 137 13 152 122 153 13 
