Name: MassBank: JP008014
MW: 366
Formula: C22H38O4
Synonym: MassBank: JP008014
Synonym: (4AS,5S,8AS)-(-)-8ABETA-METHOXYMETHOXYMETHYL-5BETA-METHYL-5ALPHA-(4-METHYL-3-PENTENYL)-3,4,4A,5,6,7,8,8A-OCTAHYDRONAPHTHALEN-1(2H)-ONE 1-ETHYLENE ACETAL
Structure: 283441532C35532C384153292D282D292D3841424554412D4D4554484F58594D4554484F58594D455448594C2D35424554412D4D455448594C2D35414C5048412D28342D4D455448594C2D332D50454E54454E594C292D332C342C34412C352C362C372C382C38412D4F435441485944524F4E4150485448414C454E2D31283248292D4F4E4520312D455448594C454E452041434554414C2E6D6F6C0A20204368656D447261773130323130393137333332440A2032372032392020302020302020302020302020302020302020302020303939392056323030300A2020202D322E313538302020202D302E3530383320202020302E303030302043202020302020302020302020302020302020302020302020302020302020302020302020300A2020202D322E313538302020202D312E3333333220202020302E303030302043202020302020302020302020302020302020302020302020302020302020302020302020300A2020202D312E343433362020202D312E3734353720202020302E303030302043202020302020302020302020302020302020302020302020302020302020302020302020300A2020202D302E373239312020202D312E3333333220202020302E303030302043202020302020302020302020302020302020302020302020302020302020302020302020300A2020202D302E373239312020202D302E3530383320202020302E303030302043202020302020302020302020302020302020302020302020302020302020302020302020300A2020202D312E343433362020202D302E3039353820202020302E303030302043202020302020302020302020302020302020302020302020302020302020302020302020300A2020202D302E303134362020202D312E3734353720202020302E303030302043202020302020302020302020302020302020302020302020302020302020302020302020300A20202020302E363939382020202D312E3333333220202020302E303030302043202020302020302020302020302020302020302020302020302020302020302020302020300A20202020302E363939382020202D302E3530383320202020302E303030302043202020302020302020302020302020302020302020302020302020302020302020302020300A2020202D302E303134362020202D302E3039353820202020302E303030302043202020302020302020302020302020302020302020302020302020302020302020302020300A2020202D302E3732393120202020302E3331363720202020302E303030302048202020302020302020302020302020302020302020302020302020302020302020302020300A2020202D302E3432373120202020302E3631383720202020302E303030302043202020302020302020302020302020302020302020302020302020302020302020302020300A2020202D302E3031343620202020312E3333333220202020302E303030302043202020302020302020302020302020302020302020302020302020302020302020302020300A2020202D302E3432373120202020322E3034373620202020302E303030302043202020302020302020302020302020302020302020302020302020302020302020302020300A2020202D302E3031343620202020322E3736323020202020302E303030302043202020302020302020302020302020302020302020302020302020302020302020302020300A2020202D302E3432373120202020332E3437363520202020302E303030302043202020302020302020302020302020302020302020302020302020302020302020302020300A20202020302E3831303420202020322E3736323020202020302E303030302043202020302020302020302020302020302020302020302020302020302020302020302020300A2020202D302E333136362020202D322E3034373720202020302E303030302043202020302020302020302020302020302020302020302020302020302020302020302020300A2020202D322E313131302020202D322E3233303720202020302E30303030204F202020302020302020302020302020302020302020302020302020302020302020302020300A2020202D312E383536302020202D332E3031353320202020302E303030302043202020302020302020302020302020302020302020302020302020302020302020302020300A2020202D312E303331302020202D332E3031353320202020302E303030302043202020302020302020302020302020302020302020302020302020302020302020302020300A2020202D302E373736312020202D322E3233303720202020302E30303030204F202020302020302020302020302020302020302020302020302020302020302020302020300A20202020302E353038342020202D322E3034373720202020302E30303030204F202020302020302020302020302020302020302020302020302020302020302020302020300A20202020302E393230392020202D322E3736323220202020302E303030302043202020302020302020302020302020302020302020302020302020302020302020302020300A20202020312E373435392020202D322E3736323220202020302E30303030204F202020302020302020302020302020302020302020302020302020302020302020302020300A20202020302E3339363620202020302E3631393620202020302E303030302043202020302020302020302020302020302020302020302020302020302020302020302020300A20202020322E313538302020202D332E3437363520202020302E303030302043202020302020302020302020302020302020302020302020302020302020302020302020300A2020312020322020312020302020202020200A2020322020332020312020302020202020200A2020332020342020312020302020202020200A2020342020352020312020302020202020200A2020352020362020312020302020202020200A2020362020312020312020302020202020200A2020342020372020312020302020202020200A2020372020382020312020302020202020200A2020382020392020312020302020202020200A2020392031302020312020302020202020200A2031302020352020312020302020202020200A2020352031312020312020362020202020200A2031302031322020312020362020202020200A2031322031332020312020302020202020200A2031332031342020312020302020202020200A2031342031352020322020302020202020200A2031352031362020312020302020202020200A2031352031372020312020302020202020200A2020342031382020312020312020202020200A2020332031392020312020302020202020200A2031392032302020312020302020202020200A2032302032312020312020302020202020200A2032312032322020312020302020202020200A2032322020332020312020302020202020200A2031382032332020312020302020202020200A2032332032342020312020302020202020200A2032342032352020312020302020202020200A2031302032362020312020312020202020200A2032352032372020312020302020202020200A4D202053545920203120202031205355500A4D2020534C4220203120202031202020310A4D202053414C20202031202031202032360A4D202053424C20202031202031202032380A4D2020534D5420202031204D650A4D2020534256202020312032382020202D372E3032353620202020382E343234360A4D202053545920203120202032205355500A4D2020534C4220203120202032202020320A4D202053414C20202032202031202032370A4D202053424C20202032202031202032390A4D2020534D5420202032204D650A4D2020534256202020322032392020202D372E3032343820202020362E393934380A4D2020454E44
Contributor: HISAHIRO HAGIWARA, CHEMICAL RESEARCH INSTITUTE OF NON-AQUEOUSSOLUTIONS TOHOKU UNIV.
InstType: EI
InstName: JEOL JMS-DX-300
IoniMethod: _ENERGY 70 eV
IonPolarity: pos
Date: 2010-10-09 19:48:36+02:00
Num Peaks: 38
40 88 41 174 44 85 45 440 55 211 67 89 69 238 71 50 73 144 79 71 
81 107 83 59 86 277 87 187 91 51 93 1 95 99 99 999 100 106 107 67 
109 69 112 66 113 101 114 83 121 57 128 55 133 57 135 7 147 54 149 78 
161 66 162 82 221 59 223 67 305 77 321 96 366 580 367 241 
