Name: MassBank: JP006370
MW: 178
Formula: C12H18O
Synonym: MassBank: JP006370
Synonym: 4,4A,5,6,7,8-HEXAHYDRO-1,4A-DIMETHYL-2(3H)-NAPHTHALENONE
Structure: 342C34412C352C362C372C382D48455841485944524F2D312C34412D44494D455448594C2D32283348292D4E4150485448414C454E4F4E452E6D6F6C0A20204368656D447261773130313831303136353832440A2031332031342020302020302020302020302020302020302020302020303939392056323030300A20202020302E3631383720202020302E3335373220202020302E303030302043202020302020302020302020302020302020302020302020302020302020302020302020300A20202020312E303331332020202D302E3335373220202020302E303030302043202020302020302020302020302020302020302020302020302020302020302020302020300A20202020302E363138382020202D312E3037313720202020302E303030302043202020302020302020302020302020302020302020302020302020302020302020302020300A2020202D302E323036322020202D312E3037313720202020302E303030302043202020302020302020302020302020302020302020302020302020302020302020302020300A2020202D302E363138382020202D302E3335373220202020302E303030302043202020302020302020302020302020302020302020302020302020302020302020302020300A2020202D312E343433372020202D302E3335373220202020302E303030302043202020302020302020302020302020302020302020302020302020302020302020302020300A2020202D312E3835363320202020302E3335373220202020302E303030302043202020302020302020302020302020302020302020302020302020302020302020302020300A2020202D312E3434333820202020312E3037313720202020302E303030302043202020302020302020302020302020302020302020302020302020302020302020302020300A2020202D302E3631383820202020312E3037313720202020302E303030302043202020302020302020302020302020302020302020302020302020302020302020302020300A2020202D302E3230363220202020302E3335373220202020302E303030302043202020302020302020302020302020302020302020302020302020302020302020302020300A20202020312E383536332020202D302E3335373220202020302E30303030204F202020302020302020302020302020302020302020302020302020302020302020302020300A2020202D312E303331332020202D312E3037313720202020302E303030302043202020302020302020302020302020302020302020302020302020302020302020302020300A20202020312E3033313320202020312E3037313720202020302E303030302043202020302020302020302020302020302020302020302020302020302020302020302020300A2020312020322020312020302020202020200A2020322020332020312020302020202020200A2020332020342020312020302020202020200A2020342020352020312020302020202020200A2020352020362020312020302020202020200A2020362020372020312020302020202020200A2020372020382020312020302020202020200A2020382020392020312020302020202020200A2020392031302020312020302020202020200A2020312031302020322020302020202020200A2020352031302020312020302020202020200A2020322031312020322020302020202020200A2020352031322020312020302020202020200A2020312031332020312020302020202020200A4D2020454E44
Contributor: HISAHIRO HAGIWARA, CHEMICAL RESEARCH INSTITUTE OF NON-AQUEOUSSOLUTIONS TOHOKU UNIV.
InstType: EI
InstName: JEOL JMS-DX-300
IoniMethod: _ENERGY 70 eV
IonPolarity: pos
Date: 2010-10-09 19:48:36+02:00
Num Peaks: 53
39 173 41 280 42 59 43 999 53 125 55 357 57 146 58 272 65 83 67 278 
68 55 69 120 77 163 79 276 80 55 81 201 83 70 91 223 93 340 94 83 
95 196 97 65 105 146 107 319 108 96 109 357 110 145 111 147 112 140 119 91 
121 328 122 114 123 184 124 77 133 137 135 324 136 322 137 219 138 82 139 51 
147 66 149 165 150 92 151 117 161 62 163 234 164 54 165 73 166 69 176 64 
177 256 178 35 179 93 
