Name: MassBank: JP000481
MW: 113
Formula: C7H15N
Synonym: MassBank: JP000481
Synonym: 1,4-DIMETHYLPIPERIDINE
Structure: 310A32310A312C342D44494D455448594C50495045524944494E452E6D6F6C0A20204368656D447261773131313430393233303932440A2020382020382020302020302020302020302020302020302020302020303939392056323030300A2020202D302E3832353020202020302E3030303020202020302E30303030204E202020302020302020302020302020302020302020302020302020302020302020302020300A2020202D302E3431323520202020302E3731343520202020302E303030302043202020302020302020302020302020302020302020302020302020302020302020302020300A20202020302E3431323520202020302E3731343520202020302E303030302043202020302020302020302020302020302020302020302020302020302020302020302020300A20202020302E383235302020202D302E3030303020202020302E303030302043202020302020302020302020302020302020302020302020302020302020302020302020300A20202020302E343132352020202D302E3731343520202020302E303030302043202020302020302020302020302020302020302020302020302020302020302020302020300A2020202D302E343132352020202D302E3731343520202020302E303030302043202020302020302020302020302020302020302020302020302020302020302020302020300A20202020312E363530302020202D302E3030303020202020302E303030302043202020302020302020302020302020302020302020302020302020302020302020302020300A2020202D312E3635303020202020302E3030303020202020302E303030302043202020302020302020302020302020302020302020302020302020302020302020302020300A2020312020322020312020302020202020200A2020322020332020312020302020202020200A2020332020342020312020302020202020200A2020342020352020312020302020202020200A2020352020362020312020302020202020200A2020312020362020312020302020202020200A2020342020372020312020302020202020200A2020312020382020312020302020202020200A4D2020454E44
Contributor: SASAKI S, TOYOHASHI UNIV. OF TECH.
InstType: EI
InstName: MX-1303
IoniMethod: _ENERGY 50 eV
IonPolarity: pos
Date: 2010-10-09 19:48:36+02:00
Num Peaks: 49
18 93 26 23 27 144 29 8 30 39 38 11 39 127 40 2 41 224 42 510 
43 571 45 2 50 10 51 19 52 17 53 5 54 40 55 148 56 63 57 14 
58 178 59 12 65 13 66 1 68 33 69 46 70 400 71 14 72 13 77 10 
78 12 79 1 80 18 81 22 82 35 83 1 84 33 85 14 94 22 96 6 
97 13 98 141 99 16 110 2 111 20 112 999 113 450 114 3 127 14 
