Name: N-ACETYLSERINE METHYL ESTER
MW: 161
Formula: C6H11NO4
Synonym: MassBank: JP005520
Synonym: N-ACETYLSERINE METHYL ESTER
Structure: 313031365F4E2D41434554594C534552494E45204D455448594C2045535445522E6D6F6C0A20204368656D447261773039303631303231353832440A2031312031302020302020302020302020302020302020302020302020303939392056323030300A20202020302E3230363220202020302E3731343520202020302E303030302043202020302020302020302020302020302020302020302020302020302020302020302020300A20202020302E323036322020202D302E3731343520202020302E30303030204E202020302020302020302020302020302020302020302020302020302020302020302020300A2020202D302E3230363220202020302E3030303020202020302E303030302043202020302020302020302020302020302020302020302020302020302020302020302020300A2020202D312E3033313320202020302E3030303020202020302E303030302043202020302020302020302020302020302020302020302020302020302020302020302020300A2020202D312E343433382020202D302E3731343520202020302E30303030204F202020302020302020302020302020302020302020302020302020302020302020302020300A20202020312E3033313320202020302E3731343520202020302E30303030204F202020302020302020302020302020302020302020302020302020302020302020302020300A2020202D302E3230363220202020312E3432383920202020302E30303030204F202020302020302020302020302020302020302020302020302020302020302020302020300A20202020312E303331332020202D302E3731343520202020302E303030302043202020302020302020302020302020302020302020302020302020302020302020302020300A20202020312E3434333820202020302E3030303020202020302E30303030204F202020302020302020302020302020302020302020302020302020302020302020302020300A20202020312E343433382020202D312E3432383920202020302E303030302043202020302020302020302020302020302020302020302020302020302020302020302020300A2020202D312E3033313320202020312E3432383920202020302E303030302043202020302020302020302020302020302020302020302020302020302020302020302020300A2020332020322020312020302020202020200A2020312020332020312020302020202020200A2020332020342020312020302020202020200A2020342020352020312020302020202020200A2020312020362020322020302020202020200A2020312020372020312020302020202020200A2020382020392020322020302020202020200A2020382031302020312020302020202020200A2020322020382020312020302020202020200A2020372031312020312020302020202020200A4D2020454E44
Contributor: YAMAMOTO M, DEP. CHEMISTRY, FAC. SCIENCE, NARA WOMEN'S UNIV.
InstType: EI
InstName: HITACHI RMU-6M
IoniMethod: _ENERGY 20 eV
IonPolarity: pos
Date: 2010-10-09 19:48:36+02:00
Num Peaks: 45
27 11 28 88 29 20 30 22 31 38 32 28 33 44 40 21 41 183 42 690 
43 772 54 15 55 28 56 36 57 18 58 56 59 65 60 17 65 16 68 14 
71 269 72 17 80 55 83 56 84 95 85 12 86 26 87 10 100 38 101 999 
102 103 103 13 105 38 106 36 109 51 110 10 111 322 112 88 113 10 114 13 
115 43 116 34 143 489 144 60 145 17 
