Name: 1-BUTYL-1-ETHYLHYDRAZINE
MW: 116
Formula: C6H16N2
Synonym: MassBank: JP000383
Synonym: 1-BUTYL-1-ETHYLHYDRAZINE
Structure: 310A32300A312D425554594C2D312D455448594C48594452415A494E452E6D6F6C0A20204368656D447261773131313730393233343332440A2020382020372020302020302020302020302020302020302020302020303939392056323030300A2020202D302E3631383820202020302E3030303020202020302E30303030204E202020302020302020302020302020302020302020302020302020302020302020302020300A2020202D302E3230363220202020302E3731343520202020302E30303030204E202020302020302020302020302020302020302020302020302020302020302020302020300A2020202D312E3434333720202020302E3030303020202020302E303030302043202020302020302020302020302020302020302020302020302020302020302020302020300A2020202D312E383536332020202D302E3731343520202020302E303030302043202020302020302020302020302020302020302020302020302020302020302020302020300A2020202D302E323036322020202D302E3731343520202020302E303030302043202020302020302020302020302020302020302020302020302020302020302020302020300A20202020302E363138382020202D302E3731343520202020302E303030302043202020302020302020302020302020302020302020302020302020302020302020302020300A20202020312E3033313320202020302E3030303020202020302E303030302043202020302020302020302020302020302020302020302020302020302020302020302020300A20202020312E3835363320202020302E3030303020202020302E303030302043202020302020302020302020302020302020302020302020302020302020302020302020300A2020312020322020312020302020202020200A2020332020342020312020302020202020200A2020312020332020312020302020202020200A2020352020362020312020302020202020200A2020362020372020312020302020202020200A2020372020382020312020302020202020200A2020312020352020312020302020202020200A4D2020454E44
Contributor: SASAKI S, TOYOHASHI UNIV. OF TECH.
InstType: EI
InstName: SHIMADZU LKB-2091
IoniMethod: _ENERGY 70 eV
IonPolarity: pos
Date: 2010-10-09 19:48:36+02:00
Num Peaks: 24
27 47 28 33 29 84 30 4 31 22 39 16 41 45 42 4 43 29 44 60 
45 226 46 1 55 7 56 35 57 25 58 2 59 33 71 7 73 999 74 3 
101 35 115 48 116 133 117 12 
