Name: CIS-3-HEXENOL
MW: 100
Formula: C6H12O
Synonym: MassBank: JP006846
Synonym: CIS-3-HEXENOL
Structure: 310A31380A4349532D332D484558454E4F4C2E6D6F6C0A20204368656D447261773039303831303134313432440A2020372020362020302020302020302020302020302020302020302020303939392056323030300A20202020312E343433382020202D302E3030303020202020302E303030302043202020302020302020302020302020302020302020302020302020302020302020302020300A20202020302E363138382020202D302E3030303020202020302E303030302043202020302020302020302020302020302020302020302020302020302020302020302020300A20202020302E323036322020202D302E3731343520202020302E303030302043202020302020302020302020302020302020302020302020302020302020302020302020300A2020202D302E363138382020202D302E3731343520202020302E303030302043202020302020302020302020302020302020302020302020302020302020302020302020300A2020202D312E3033313320202020302E3030303020202020302E303030302043202020302020302020302020302020302020302020302020302020302020302020302020300A2020202D312E3835363320202020302E3030303020202020302E303030302043202020302020302020302020302020302020302020302020302020302020302020302020300A20202020312E3835363320202020302E3731343520202020302E30303030204F202020302020302020302020302020302020302020302020302020302020302020302020300A2020312020322020312020302020202020200A2020322020332020312020302020202020200A2020332020342020322020302020202020200A2020342020352020312020302020202020200A2020352020362020312020302020202020200A2020312020372020312020302020202020200A4D2020454E44
Contributor: TAJIMA S, GUNMA COLLEGE OF TECHNOLOGY
InstType: EI
InstName: HITACHI M-80B
IoniMethod: _ENERGY 70 eV
IonPolarity: pos
Date: 2010-10-09 19:48:36+02:00
Num Peaks: 37
15 21 26 23 27 241 28 28 29 187 30 11 31 282 38 25 39 319 40 44 
41 999 42 226 43 86 44 68 45 21 50 23 51 37 52 14 53 115 54 115 
55 386 56 52 57 132 58 10 63 10 65 22 66 13 67 726 68 56 69 232 
70 105 71 15 72 23 81 46 82 377 83 23 100 20 
