Name: ETHYLCYLOPENTANE
MW: 98
Formula: C7H14
Synonym: MassBank: JP005994
Synonym: ETHYLCYLOPENTANE
Structure: 310A31390A313035395F455448594C43594C4F50454E54414E452E6D6F6C0A20204368656D447261773039303631303232303932440A2020372020372020302020302020302020302020302020302020302020303939392056323030300A2020202D312E3235333520202020302E3433363020202020302E303030302043202020302020302020302020302020302020302020302020302020302020302020302020300A2020202D312E323533352020202D302E3338393020202020302E303030302043202020302020302020302020302020302020302020302020302020302020302020302020300A2020202D302E343638392020202D302E3634333920202020302E303030302043202020302020302020302020302020302020302020302020302020302020302020302020300A20202020302E3031363020202020302E3032333520202020302E303030302043202020302020302020302020302020302020302020302020302020302020302020302020300A2020202D302E3436383920202020302E3639313020202020302E303030302043202020302020302020302020302020302020302020302020302020302020302020302020300A20202020302E3834313020202020302E3032333520202020302E303030302043202020302020302020302020302020302020302020302020302020302020302020302020300A20202020312E323533352020202D302E3639313020202020302E303030302043202020302020302020302020302020302020302020302020302020302020302020302020300A2020312020322020312020302020202020200A2020322020332020312020302020202020200A2020332020342020312020302020202020200A2020342020352020312020302020202020200A2020352020312020312020302020202020200A2020342020362020312020302020202020200A2020362020372020312020302020202020200A4D2020454E44
Contributor: YAMAMOTO M, DEP. CHEMISTRY, FAC. SCIENCE, NARA WOMEN'S UNIV.
InstType: EI
InstName: HITACHI RMU-6M
IoniMethod: _ENERGY 70 eV
IonPolarity: pos
Date: 2010-10-09 19:48:36+02:00
Num Peaks: 40
15 12 17 20 18 94 26 2 27 206 28 49 29 164 32 1 37 6 38 14 
39 268 40 5 41 760 42 447 43 83 50 2 51 25 52 13 53 63 54 6 
55 522 56 492 57 78 63 1 65 17 66 11 67 115 68 80 69 999 70 614 
71 33 77 1 79 7 81 7 82 10 83 9 84 9 97 11 98 330 99 28 
