Name: MassBank: JP004535
MW: 222
Formula: C9H18O6
Synonym: MassBank: JP004535
Synonym: METHYL 4,6-DI-O-METHYLMANNOPYRANOSIDE
Structure: 303836365F4D455448594C20342C362D44492D4F2D4D455448594C4D414E4E4F505952414E4F534944452E6D6F6C0A20204368656D447261773039303631303230323932440A2031352031352020302020302020302020302020302020302020302020303939392056323030300A20202020312E3738363120202020302E3631383820202020302E30303030204F202020302020302020302020302020302020302020302020302020302020302020302020300A20202020312E3037313720202020302E3230363320202020302E303030302043202020302020302020302020302020302020302020302020302020302020302020302020300A20202020312E303731372020202D302E3631383820202020302E303030302043202020302020302020302020302020302020302020302020302020302020302020302020300A20202020312E373836312020202D312E3033313320202020302E30303030204F202020302020302020302020302020302020302020302020302020302020302020302020300A20202020302E333537322020202D312E3033313320202020302E303030302043202020302020302020302020302020302020302020302020302020302020302020302020300A20202020302E333537322020202D312E3835363220202020302E30303030204F202020302020302020302020302020302020302020302020302020302020302020302020300A2020202D302E333537322020202D302E3631383720202020302E303030302043202020302020302020302020302020302020302020302020302020302020302020302020300A2020202D312E303731372020202D312E3033313220202020302E30303030204F202020302020302020302020302020302020302020302020302020302020302020302020300A2020202D302E3335373220202020302E3230363320202020302E303030302043202020302020302020302020302020302020302020302020302020302020302020302020300A20202020302E3335373220202020302E3631383820202020302E30303030204F202020302020302020302020302020302020302020302020302020302020302020302020300A2020202D312E3037313720202020302E3631383820202020302E303030302043202020302020302020302020302020302020302020302020302020302020302020302020300A2020202D312E3037313720202020312E3434333820202020302E30303030204F202020302020302020302020302020302020302020302020302020302020302020302020300A2020202D312E3738363120202020312E3835363220202020302E303030302043202020302020302020302020302020302020302020302020302020302020302020302020300A2020202D312E373836312020202D302E3631383720202020302E303030302043202020302020302020302020302020302020302020302020302020302020302020302020300A20202020312E3738363120202020312E3434333820202020302E303030302043202020302020302020302020302020302020302020302020302020302020302020302020300A2020322020312020312020362020202020200A2020322020332020312020302020202020200A2020332020342020312020312020202020200A2020332020352020312020302020202020200A2020352020362020312020312020202020200A2020352020372020312020302020202020200A2020372020382020312020362020202020200A2020372020392020312020302020202020200A2020392031302020312020302020202020200A2020392031312020312020312020202020200A2031312031322020312020302020202020200A2020322031302020312020302020202020200A2031322031332020312020302020202020200A2020382031342020312020302020202020200A2020312031352020312020302020202020200A4D2020454E44
Contributor: HAYASHI A, DEPT. OF CHEMISTRY, FAC. OF SCI. AND TECHNOLOGY, KINKI UNIV.
InstType: EI
InstName: SHIMADZU LKB-9000B
IoniMethod: _ENERGY 70 eV
IonPolarity: pos
Date: 2010-10-09 19:48:36+02:00
Num Peaks: 63
40 29 41 212 42 76 43 14 44 37 45 973 46 11 53 2 54 7 55 71 
56 50 57 10 58 120 59 212 60 151 61 9 68 14 69 109 70 61 71 999 
72 130 73 137 74 955 75 40 76 15 77 12 81 20 83 2 84 6 85 101 
86 23 87 75 88 163 89 58 97 15 98 1 99 98 100 32 101 195 102 26 
103 61 104 7 105 16 111 3 112 20 113 22 114 9 115 2 116 19 117 39 
118 33 119 2 127 33 129 9 130 24 131 2 135 5 145 20 147 13 149 16 
159 29 187 5 191 7 
