Name: MassBank: JP004842
MW: 272
Formula: C20H32
Synonym: MassBank: JP004842
Synonym: 4,8,14,15,15-PENTAMETHYLBICYCLO(9.3.1)PENTADECA-4(E),8(E),14-TRIENE
Structure: 303232305F342C382C31342C31352C31352D50454E54414D455448594C42494359434C4F28392E332E312950454E5441444543412D342845292C382845292C31342D545249454E452E6D6F6C0A20204368656D447261773130313931303137343732440A2032322032332020302020302020302020302020302020302020302020303939392056323030300A2020202D322E343030382020202D302E3032383420202020302E303030302043202020302020302020302020302020302020302020302020302020302020302020302020300A2020202D322E343030382020202D302E3835333420202020302E303030302043202020302020302020302020302020302020302020302020302020302020302020302020300A2020202D312E383137342020202D312E3433363820202020302E303030302043202020302020302020302020302020302020302020302020302020302020302020302020300A2020202D302E393932342020202D312E3433363820202020302E303030302043202020302020302020302020302020302020302020302020302020302020302020302020300A2020202D302E343039312020202D302E3835333420202020302E303030302043202020302020302020302020302020302020302020302020302020302020302020302020300A2020202D302E343039312020202D302E3032383420202020302E303030302043202020302020302020302020302020302020302020302020302020302020302020302020300A2020202D302E3939323420202020302E3535343920202020302E303030302043202020302020302020302020302020302020302020302020302020302020302020302020300A2020202D312E3831373420202020302E3535343920202020302E303030302043202020302020302020302020302020302020302020302020302020302020302020302020300A20202020302E313734332020202D312E3433363820202020302E303030302043202020302020302020302020302020302020302020302020302020302020302020302020300A20202020302E393939332020202D312E3433363820202020302E303030302043202020302020302020302020302020302020302020302020302020302020302020302020300A20202020312E353832362020202D302E3835333420202020302E303030302043202020302020302020302020302020302020302020302020302020302020302020302020300A20202020312E353832362020202D302E3032383420202020302E303030302043202020302020302020302020302020302020302020302020302020302020302020302020300A20202020302E3939393320202020302E3535343920202020302E303030302043202020302020302020302020302020302020302020302020302020302020302020302020300A20202020302E3137343320202020302E3535343920202020302E303030302043202020302020302020302020302020302020302020302020302020302020302020302020300A20202020302E343531342020202D302E3832303020202020302E303030302043202020302020302020302020302020302020302020302020302020302020302020302020300A20202020322E343030382020202D302E3734373420202020302E303030302048202020302020302020302020302020302020302020302020302020302020302020302020300A2020202D302E3337333720202020312E3337343120202020302E303030302043202020302020302020302020302020302020302020302020302020302020302020302020300A2020202D302E3336343720202020322E3139393020202020302E303030302043202020302020302020302020302020302020302020302020302020302020302020302020300A20202020302E3334353920202020312E3737373520202020302E303030302043202020302020302020302020302020302020302020302020302020302020302020302020300A2020202D302E3239323420202020302E3939313420202020302E303030302043202020302020302020302020302020302020302020302020302020302020302020302020300A2020202D322E313333322020202D322E3139393020202020302E303030302043202020302020302020302020302020302020302020302020302020302020302020302020300A2020202D302E383731362020202D302E3632303720202020302E303030302048202020302020302020302020302020302020302020302020302020302020302020302020300A2020312020322020312020302020202020200A2020322020332020312020302020202020200A2020332020342020322020302020202020200A2020342020352020312020302020202020200A2020362020372020312020302020202020200A2020372020382020322020302020202020200A2020382020312020312020302020202020200A2020352020392020312020302020202020200A2020392031302020312020302020202020200A2031302031312020322020302020202020200A2031312031322020312020302020202020200A2031322031332020312020302020202020200A2031332031342020312020302020202020200A2031342020362020312020302020202020200A2031302031352020312020302020202020200A2031312031362020312020302020202020200A2031372031332020312020302020202020200A2031372020382020312020302020202020200A2031372031382020312020302020202020200A2031372031392020312020302020202020200A2020372032302020312020302020202020200A2020332032312020312020302020202020200A2020342032322020312020302020202020200A4D2020454E44
Contributor: KATO T, DEPT. OF CHEM., FAC. OF SCI., TOHOKU UNIV.
InstType: EI
InstName: Unknown
IoniMethod: _ENERGY 25 eV
IonPolarity: pos
Date: 2010-10-09 19:48:36+02:00
Num Peaks: 42
55 12 68 20 69 170 79 17 81 232 83 13 91 101 93 42 94 144 95 297 
97 116 105 17 106 127 107 571 108 270 109 32 119 580 120 219 121 772 122 12 
123 147 131 29 133 761 134 999 135 709 136 285 137 34 145 11 146 87 147 218 
148 257 149 9 159 60 161 379 162 232 173 6 187 54 189 609 190 14 257 51 
258 29 272 279 
