Name: BETA-METHYLSTYRENE
MW: 118
Formula: C9H10
Synonym: MassBank: JP009450
Synonym: BETA-METHYLSTYRENE
Structure: 310A32330A424554412D4D455448594C53545952454E452E6D6F6C0A20204368656D447261773039303531303137333532440A2020392020392020302020302020302020302020302020302020302020303939392056323030300A2020202D312E3033313320202020302E3731343520202020302E303030302043202020302020302020302020302020302020302020302020302020302020302020302020300A2020202D302E363138372020202D302E3030303020202020302E303030302043202020302020302020302020302020302020302020302020302020302020302020302020300A20202020302E323036322020202D302E3030303020202020302E303030302043202020302020302020302020302020302020302020302020302020302020302020302020300A20202020302E3631383820202020302E3731343520202020302E303030302043202020302020302020302020302020302020302020302020302020302020302020302020300A20202020312E3434333720202020302E3731343520202020302E303030302043202020302020302020302020302020302020302020302020302020302020302020302020300A20202020312E383536332020202D302E3030303020202020302E303030302043202020302020302020302020302020302020302020302020302020302020302020302020300A20202020312E343433382020202D302E3731343520202020302E303030302043202020302020302020302020302020302020302020302020302020302020302020302020300A20202020302E363138372020202D302E3731343520202020302E303030302043202020302020302020302020302020302020302020302020302020302020302020302020300A2020202D312E3835363320202020302E3731343520202020302E303030302043202020302020302020302020302020302020302020302020302020302020302020302020300A2020312020322020322020302020202020200A2020322020332020312020302020202020200A2020332020342020312020302020202020200A2020342020352020322020302020202020200A2020352020362020312020302020202020200A2020362020372020322020302020202020200A2020372020382020312020302020202020200A2020332020382020322020302020202020200A2020312020392020312020302020202020200A4D2020454E44
Contributor: EGUCHI S, FAC. OF SCIENCE, HIROSHIMA UNIV.
InstType: EI
InstName: HITACHI RMS-4
IoniMethod: _ENERGY 80 eV
IonPolarity: pos
Date: 2010-10-09 19:48:36+02:00
Num Peaks: 34
40 10 41 20 43 10 50 50 51 70 52 20 53 15 55 10 62 25 63 85 
64 10 65 60 66 10 70 10 74 25 75 15 76 15 77 85 78 95 79 15 
87 10 89 45 90 15 91 270 92 10 102 10 103 80 104 10 114 10 115 315 
116 55 117 999 118 675 119 55 
