Name: ALLYL ALCOHOL
CAS: 107-18-6
MW: 58
Formula: C3H6O
Synonym: MassBank: JP007106
Synonym: ALLYL ALCOHOL
Synonym: 2-PROPEN-1-OL
Structure: 310A31320A414C4C594C20414C434F484F4C2E6D6F6C0A20204368656D447261773032323131303134343532440A2020342020332020302020302020302020302020302020302020302020303939392056323030300A2020202D302E333537322020202D302E3230363220202020302E303030302043202020302020302020302020302020302020302020302020302020302020302020302020300A20202020302E3335373220202020302E3230363220202020302E303030302043202020302020302020302020302020302020302020302020302020302020302020302020300A20202020312E303731372020202D302E3230363220202020302E303030302043202020302020302020302020302020302020302020302020302020302020302020302020300A2020202D312E3037313720202020302E3230363220202020302E30303030204F202020302020302020302020302020302020302020302020302020302020302020302020300A2020312020322020312020302020202020200A2020322020332020322020302020202020200A2020312020342020312020302020202020200A4D2020454E44
Contributor: SODA AROMATIC CO., LTD.
InstType: EI
InstName: HITACHI M-80B
IoniMethod: _ENERGY 70 eV
IonPolarity: pos
Date: 2010-10-09 19:48:36+02:00
Num Peaks: 21
14 11 15 17 25 20 26 126 27 270 28 126 29 452 30 141 31 382 37 52 
38 71 39 317 40 81 41 60 42 17 43 49 53 15 55 55 56 13 57 999 
58 246 
