Name: COBALT TRIACETYLATONATE
MW: 356
Formula: C15H21CoO6
Synonym: MassBank: JP000332
Synonym: COBALT TRIACETYLATONATE
Structure: 434F42414C542054524941434554594C41544F4E4154452E6D6F6C0A20204368656D447261773039313531303034323032440A2032322032312020302020302020302020302020302020302020302020303939392056323030300A2020202D302E3335373220202020302E3832353020202020302E3030303020436F2020302020302020302020302020302020302020302020302020302020302020302020300A20202020302E3335373220202020312E3233373520202020302E30303030204F202020302020302020302020302020302020302020302020302020302020302020302020300A2020202D302E3335373220202020302E3030303020202020302E30303030204F202020302020302020302020302020302020302020302020302020302020302020302020300A2020202D312E3037313720202020312E3233373520202020302E30303030204F202020302020302020302020302020302020302020302020302020302020302020302020300A2020202D312E3037313720202020322E3036323520202020302E303030302043202020302020302020302020302020302020302020302020302020302020302020302020300A2020202D302E3335373220202020322E3437353020202020302E303030302043202020302020302020302020302020302020302020302020302020302020302020302020300A2020202D312E3738363220202020322E3437353020202020302E303030302043202020302020302020302020302020302020302020302020302020302020302020302020300A2020202D322E3530303620202020322E3036323520202020302E303030302043202020302020302020302020302020302020302020302020302020302020302020302020300A2020202D332E3231353120202020322E3437353020202020302E303030302043202020302020302020302020302020302020302020302020302020302020302020302020300A2020202D322E3530303620202020312E3233373520202020302E30303030204F202020302020302020302020302020302020302020302020302020302020302020302020300A20202020312E3037313720202020302E3832353020202020302E303030302043202020302020302020302020302020302020302020302020302020302020302020302020300A20202020312E3738363220202020312E3233373520202020302E303030302043202020302020302020302020302020302020302020302020302020302020302020302020300A20202020312E3037313720202020302E3030303020202020302E303030302043202020302020302020302020302020302020302020302020302020302020302020302020300A20202020322E3530303620202020302E3832353020202020302E303030302043202020302020302020302020302020302020302020302020302020302020302020302020300A20202020332E3231353120202020312E3233373520202020302E30303030204F202020302020302020302020302020302020302020302020302020302020302020302020300A20202020322E3530303620202020302E3030303020202020302E303030302043202020302020302020302020302020302020302020302020302020302020302020302020300A2020202D312E303731372020202D302E3431323520202020302E303030302043202020302020302020302020302020302020302020302020302020302020302020302020300A2020202D312E3738363220202020302E3030303020202020302E303030302043202020302020302020302020302020302020302020302020302020302020302020302020300A2020202D312E303731372020202D312E3233373520202020302E303030302043202020302020302020302020302020302020302020302020302020302020302020302020300A2020202D312E373836322020202D312E3635303020202020302E303030302043202020302020302020302020302020302020302020302020302020302020302020302020300A2020202D322E353030362020202D312E3233373520202020302E303030302043202020302020302020302020302020302020302020302020302020302020302020302020300A2020202D312E373836322020202D322E3437353020202020302E30303030204F202020302020302020302020302020302020302020302020302020302020302020302020300A2020312020322020312020302020202020200A2020312020332020312020302020202020200A2020312020342020312020302020202020200A2020342020352020312020302020202020200A2020352020362020312020302020202020200A2020352020372020322020302020202020200A2020372020382020312020302020202020200A2020382020392020312020302020202020200A2020382031302020322020302020202020200A2020322031312020312020302020202020200A2031312031322020322020302020202020200A2031312031332020312020302020202020200A2031322031342020312020302020202020200A2031342031352020322020302020202020200A2031342031362020312020302020202020200A2020332031372020312020302020202020200A2031372031382020312020302020202020200A2031372031392020322020302020202020200A2031392032302020312020302020202020200A2032302032312020312020302020202020200A2032302032322020322020302020202020200A4D2020454E44
Contributor: SASAKI S, TOYOHASHI UNIV. OF TECH.
InstType: EI
InstName: HITACHI RMU-6D
IoniMethod: _ENERGY 70 eV
IonPolarity: pos
Date: 2010-10-09 19:48:36+02:00
Num Peaks: 64
14 15 15 90 17 5 18 4 26 20 27 70 28 100 29 5 31 35 37 5 
38 13 39 1 40 7 41 63 42 65 43 999 44 55 45 7 50 5 51 1 
52 2 53 10 55 25 57 1 58 35 59 53 60 5 67 1 69 10 72 40 
73 5 74 1 76 5 78 15 85 403 86 2 87 30 98 5 99 3 100 3 
101 15 113 5 115 25 129 0 131 5 140 5 141 5 142 2 143 50 151 18 
155 20 158 4 159 40 200 5 215 5 225 4 240 5 242 290 243 25 250 4 
251 7 253 7 257 245 258 30 
