Name: MassBank: JP005555
MW: 174
Formula: C11H10O2
Synonym: MassBank: JP005555
Synonym: 2-METHYL-3-METHYLBENZOPYRAN-4-ONE (2,2,2-D3)
Synonym: 2-METHYL-3-METHYLCHROMONE (2,2,2-D3)
Structure: 322D4D455448594C2D332D4D455448594C42454E5A4F505952414E2D342D4F4E452028322C322C322D4433292E6D6F6C0A20204368656D447261773031323231303033333732440A2031362031372020302020302020302020302020302020302020302020303939392056323030300A20202020302E3631383820202020302E3335373220202020302E303030302043202020302020302020302020302020302020302020302020302020302020302020302020300A20202020312E303331332020202D302E3335373220202020302E303030302043202020302020302020302020302020302020302020302020302020302020302020302020300A20202020302E363138382020202D312E3037313720202020302E303030302043202020302020302020302020302020302020302020302020302020302020302020302020300A20202020312E303331332020202D312E3738363220202020302E30303030204F202020302020302020302020302020302020302020302020302020302020302020302020300A2020202D302E323036322020202D312E3037313720202020302E303030302043202020302020302020302020302020302020302020302020302020302020302020302020300A2020202D302E363138372020202D312E3738363220202020302E303030302043202020302020302020302020302020302020302020302020302020302020302020302020300A2020202D312E343433372020202D312E3738363220202020302E303030302043202020302020302020302020302020302020302020302020302020302020302020302020300A2020202D312E383536332020202D312E3037313720202020302E303030302043202020302020302020302020302020302020302020302020302020302020302020302020300A2020202D312E343433372020202D302E3335373220202020302E303030302043202020302020302020302020302020302020302020302020302020302020302020302020300A2020202D302E363138372020202D302E3335373220202020302E303030302043202020302020302020302020302020302020302020302020302020302020302020302020300A2020202D302E3230363220202020302E3335373220202020302E30303030204F202020302020302020302020302020302020302020302020302020302020302020302020300A20202020312E383536332020202D302E3335373220202020302E303030302043202020302020302020302020302020302020302020302020302020302020302020302020300A20202020312E3033313320202020312E3037313720202020302E303030302043202020302020302020302020302020302020302020302020302020302020302020302020300A20202020312E3434333820202020312E3738363220202020302E303030302048202020312020302020302020302020302020302020302020302020302020302020302020300A20202020302E3331363820202020312E3438343220202020302E303030302048202020312020302020302020302020302020302020302020302020302020302020302020300A20202020312E3734353720202020302E3635393220202020302E303030302048202020312020302020302020302020302020302020302020302020302020302020302020300A2020312020322020322020302020202020200A2020322020332020312020302020202020200A2020332020342020322020302020202020200A2020332020352020312020302020202020200A2020352020362020312020302020202020200A2020362020372020322020302020202020200A2020372020382020312020302020202020200A2020382020392020322020302020202020200A2020392031302020312020302020202020200A2020352031302020322020302020202020200A2031302031312020312020302020202020200A2020312031312020312020302020202020200A2020322031322020312020302020202020200A2020312031332020312020302020202020200A2031332031342020312020302020202020200A2031332031352020312020302020202020200A2031332031362020312020302020202020200A4D202049534F2020332020313420202032202031352020203220203136202020320A4D2020454E44
Contributor: MASS SPECTROSCOPY SOC. OF JAPAN (MSSJ)
InstType: EI
InstName: HITACHI RMU-7L
IoniMethod: _ENERGY 70 eV
IonPolarity: pos
Date: 2010-10-09 19:48:36+02:00
Num Peaks: 61
50 130 51 80 52 20 53 50 54 20 55 60 56 60 57 10 61 20 62 40 
63 70 64 150 65 150 74 30 75 50 76 100 77 110 78 40 79 10 83 20 
84 20 89 10 90 20 91 20 92 370 93 110 94 30 95 20 101 10 102 20 
103 50 104 60 105 50 106 20 107 10 117 20 118 10 119 10 120 200 121 650 
122 320 123 10 130 60 131 130 132 80 133 30 146 10 147 20 148 130 149 130 
158 10 159 120 160 60 161 10 174 10 175 80 176 350 177 999 178 250 179 30 
180 10 
