Name: PRENYL ACETATE
MW: 128
Formula: C7H12O2
Synonym: MassBank: JP006824
Synonym: PRENYL ACETATE
Synonym: 3-METHYL-2-BUTENYL ACETATE
Structure: 310A32320A5052454E594C20414345544154452E6D6F6C0A20204368656D447261773033323031303030303932440A2020392020382020302020302020302020302020302020302020302020303939392056323030300A2020202D312E3432383920202020302E3230363220202020302E303030302043202020302020302020302020302020302020302020302020302020302020302020302020300A2020202D322E3134333420202020302E3631383720202020302E303030302043202020302020302020302020302020302020302020302020302020302020302020302020300A2020202D312E343238392020202D302E3631383820202020302E30303030204F202020302020302020302020302020302020302020302020302020302020302020302020300A2020202D302E3731343520202020302E3631383720202020302E30303030204F202020302020302020302020302020302020302020302020302020302020302020302020300A20202020302E3030303020202020302E3230363220202020302E303030302043202020302020302020302020302020302020302020302020302020302020302020302020300A20202020302E3731343520202020302E3631383720202020302E303030302043202020302020302020302020302020302020302020302020302020302020302020302020300A20202020312E3432383920202020302E3230363320202020302E303030302043202020302020302020302020302020302020302020302020302020302020302020302020300A20202020322E3134333420202020302E3631383820202020302E303030302043202020302020302020302020302020302020302020302020302020302020302020302020300A20202020312E343238392020202D302E3631383720202020302E303030302043202020302020302020302020302020302020302020302020302020302020302020302020300A2020312020322020312020302020202020200A2020312020332020322020302020202020200A2020312020342020312020302020202020200A2020352020362020312020302020202020200A2020362020372020322020302020202020200A2020372020382020312020302020202020200A2020372020392020312020302020202020200A2020342020352020312020302020202020200A4D2020454E44
Contributor: TAJIMA S, GUNMA COLLEGE OF TECHNOLOGY
InstType: EI
InstName: HITACHI M-80B
IoniMethod: _ENERGY 70 eV
IonPolarity: pos
Date: 2010-10-09 19:48:36+02:00
Num Peaks: 33
15 71 27 152 29 133 31 11 38 16 39 221 40 96 41 565 42 81 43 999 
44 24 45 12 50 16 51 29 52 18 53 270 54 26 55 37 56 15 57 84 
61 12 65 14 66 20 67 535 68 873 69 354 70 18 71 252 72 10 83 20 
85 112 86 181 128 33 
