Name: MEVINOLINE
CAS: 75330-75-5
MW: 404
Formula: C24H36O5
Synonym: MassBank: JP009511
Synonym: MEVINOLINE
Structure: 303731335F4D4556494E4F4C494E452E6D6F6C0A20204368656D447261773130313931303232333732440A2033312033332020302020302020302020302020302020302020302020303939392056323030300A2020202D322E3238393920202020322E3136333420202020302E303030302043202020302020302020302020302020302020302020302020302020302020302020302020300A2020202D322E3238393920202020312E3333383420202020302E303030302043202020302020302020302020302020302020302020302020302020302020302020302020300A2020202D312E3537353420202020302E3932353920202020302E303030302043202020302020302020302020302020302020302020302020302020302020302020302020300A2020202D302E3836313020202020312E3333383420202020302E303030302043202020302020302020302020302020302020302020302020302020302020302020302020300A2020202D302E3836313020202020322E3136333420202020302E303030302043202020302020302020302020302020302020302020302020302020302020302020302020300A2020202D312E3537353420202020322E3537353920202020302E303030302043202020302020302020302020302020302020302020302020302020302020302020302020300A2020202D302E3134363520202020302E3932353920202020302E303030302043202020302020302020302020302020302020302020302020302020302020302020302020300A20202020302E3536383020202020312E3333383420202020302E303030302043202020302020302020302020302020302020302020302020302020302020302020302020300A20202020302E3536383020202020322E3136333420202020302E303030302043202020302020302020302020302020302020302020302020302020302020302020302020300A2020202D302E3134363520202020322E3537353920202020302E303030302043202020302020302020302020302020302020302020302020302020302020302020302020300A2020202D312E3537353420202020302E3130303920202020302E303030302043202020302020302020302020302020302020302020302020302020302020302020302020300A2020202D302E383631302020202D302E3331313620202020302E303030302043202020302020302020302020302020302020302020302020302020302020302020302020300A2020202D302E383631302020202D312E3133363620202020302E303030302043202020302020302020302020302020302020302020302020302020302020302020302020300A2020202D312E353735342020202D312E3534393120202020302E303030302043202020302020302020302020302020302020302020302020302020302020302020302020300A2020202D312E353735342020202D322E3337343120202020302E303030302043202020302020302020302020302020302020302020302020302020302020302020302020300A2020202D302E383631302020202D322E3738363620202020302E303030302043202020302020302020302020302020302020302020302020302020302020302020302020300A2020202D302E313436352020202D322E3337343120202020302E303030302043202020302020302020302020302020302020302020302020302020302020302020302020300A2020202D302E313436352020202D312E3534393120202020302E30303030204F202020302020302020302020302020302020302020302020302020302020302020302020300A20202020312E3130383520202020322E3738363620202020302E303030302043202020302020302020302020302020302020302020302020302020302020302020302020300A20202020302E3533303520202020302E3435323720202020302E30303030204F202020302020302020302020302020302020302020302020302020302020302020302020300A20202020312E3335343420202020302E3435323820202020302E303030302043202020302020302020302020302020302020302020302020302020302020302020302020300A20202020312E3736383020202020312E3136363620202020302E30303030204F202020302020302020302020302020302020302020302020302020302020302020302020300A20202020312E373636392020202D302E3236313720202020302E303030302043202020302020302020302020302020302020302020302020302020302020302020302020300A20202020322E3438313420202020302E3135303820202020302E303030302048202020302020302020302020302020302020302020302020302020302020302020302020300A20202020322E313739342020202D302E3937363220202020302E303030302043202020302020302020302020302020302020302020302020302020302020302020302020300A20202020312E303532342020202D302E3637343220202020302E303030302043202020302020302020302020302020302020302020302020302020302020302020302020300A20202020332E303034342020202D302E3937363220202020302E303030302043202020302020302020302020302020302020302020302020302020302020302020302020300A2020202D302E3836313020202020302E3531333420202020302E303030302048202020302020302020302020302020302020302020302020302020302020302020302020300A2020202D332E3030343420202020302E3932353920202020302E303030302043202020302020302020302020302020302020302020302020302020302020302020302020300A20202020302E353638302020202D322E3738363620202020302E30303030204F202020302020302020302020302020302020302020302020302020302020302020302020300A2020202D322E323839392020202D322E3738363620202020302E30303030204F202020302020302020302020302020302020302020302020302020302020302020302020300A2020312020322020312020302020202020200A2020322020332020312020302020202020200A2020332020342020312020302020202020200A2020342020352020312020302020202020200A2020352020362020312020302020202020200A2020362020312020322020302020202020200A2020342020372020312020302020202020200A2020372020382020312020302020202020200A2020382020392020312020302020202020200A2020392031302020312020302020202020200A2031302020352020322020302020202020200A2020332031312020312020312020202020200A2031312031322020312020302020202020200A2031332031322020312020312020202020200A2031332031342020312020302020202020200A2031342031352020312020302020202020200A2031352031362020312020302020202020200A2031362031372020312020302020202020200A2031372031382020312020302020202020200A2031382031332020312020302020202020200A2020392031392020312020362020202020200A2020372032302020312020362020202020200A2032302032312020312020302020202020200A2032312032332020312020302020202020200A2032312032322020322020302020202020200A2032332032342020312020312020202020200A2032332032352020312020302020202020200A2032332032362020312020312020202020200A2032352032372020312020302020202020200A2020342032382020312020312020202020200A2020322032392020312020312020202020200A2031372033302020322020302020202020200A2031352033312020312020362020202020200A4D2020454E44
Contributor: NARA WOMEN'S UNIVERSITY
InstType: EI
InstName: HITACHI M-80
IoniMethod: _ENERGY 70 eV
IonPolarity: pos
Date: 2010-10-09 19:48:36+02:00
Num Peaks: 116
18 12 27 21 28 21 29 66 39 21 41 89 42 24 43 27 44 39 45 29 
55 46 56 19 57 199 58 23 67 19 69 17 71 25 73 32 74 47 77 15 
79 23 80 20 81 41 83 11 84 15 85 44 87 17 89 40 91 50 92 11 
93 23 95 12 97 19 103 15 105 102 106 22 107 18 108 13 115 32 116 12 
117 42 118 44 119 41 120 12 126 28 127 16 128 42 129 61 130 27 131 74 
132 43 133 22 141 31 142 47 143 162 144 74 145 86 146 24 147 13 155 69 
156 109 157 722 158 269 159 951 160 165 161 47 169 165 170 117 171 96 172 566 
173 175 174 77 175 19 181 15 182 12 183 131 184 33 185 48 186 15 195 17 
196 23 197 178 198 999 199 245 200 160 201 39 202 21 209 31 211 39 212 14 
213 16 214 12 223 17 224 251 225 72 226 13 227 11 233 31 238 35 239 10 
242 23 243 14 251 23 256 14 269 55 270 12 284 158 285 44 286 21 287 40 
300 11 302 197 303 50 304 44 404 59 405 20 
