Name: 4-(4-NITROBENZYL)PYRIDINE
CAS: 1083-48-3
MW: 214
Formula: C12H10N2O2
Synonym: MassBank: JP006255
Synonym: 4-(4-NITROBENZYL)PYRIDINE
Structure: 342D28342D4E4954524F42454E5A594C295059524944494E452E6D6F6C0A20204368656D447261773033323531303033333432440A2031362031372020302020302020302020302020302020302020302020303939392056323030300A20202020322E383537392020202D302E3832353020202020302E303030302043202020302020302020302020302020302020302020302020302020302020302020302020300A20202020322E313433342020202D312E3233373520202020302E303030302043202020302020302020302020302020302020302020302020302020302020302020302020300A20202020312E343238392020202D302E3832353020202020302E303030302043202020302020302020302020302020302020302020302020302020302020302020302020300A20202020312E3432383920202020302E3030303020202020302E303030302043202020302020302020302020302020302020302020302020302020302020302020302020300A20202020322E3134333420202020302E3431323520202020302E303030302043202020302020302020302020302020302020302020302020302020302020302020302020300A20202020322E3835373920202020302E3030303020202020302E30303030204E202020302020302020302020302020302020302020302020302020302020302020302020300A20202020302E373134352020202D312E3233373520202020302E303030302043202020302020302020302020302020302020302020302020302020302020302020302020300A2020202D302E303030302020202D302E3832353020202020302E303030302043202020302020302020302020302020302020302020302020302020302020302020302020300A2020202D302E373134352020202D312E3233373520202020302E303030302043202020302020302020302020302020302020302020302020302020302020302020302020300A2020202D312E343238392020202D302E3832353020202020302E303030302043202020302020302020302020302020302020302020302020302020302020302020302020300A2020202D312E3432383920202020302E3030303020202020302E303030302043202020302020302020302020302020302020302020302020302020302020302020302020300A2020202D302E3731343520202020302E3431323520202020302E303030302043202020302020302020302020302020302020302020302020302020302020302020302020300A20202020302E3030303020202020302E3030303020202020302E303030302043202020302020302020302020302020302020302020302020302020302020302020302020300A2020202D322E3134333420202020302E3431323520202020302E30303030204E202020302020332020302020302020302020302020302020302020302020302020302020300A2020202D322E3134333420202020312E3233373520202020302E30303030204F202020302020302020302020302020302020302020302020302020302020302020302020300A2020202D322E3835373920202020302E3030303020202020302E30303030204F202020302020352020302020302020302020302020302020302020302020302020302020300A2020312020322020322020302020202020200A2020322020332020312020302020202020200A2020332020342020322020302020202020200A2020342020352020312020302020202020200A2020352020362020322020302020202020200A2020312020362020312020302020202020200A2020372020382020312020302020202020200A2020382020392020312020302020202020200A2020392031302020322020302020202020200A2031302031312020312020302020202020200A2031312031322020322020302020202020200A2031322031332020312020302020202020200A2020382031332020322020302020202020200A2031342031352020322020302020202020200A2031342031362020312020302020202020200A2031312031342020312020302020202020200A2020332020372020312020302020202020200A4D202043484720203220203134202020312020313620202D310A4D2020454E44
Contributor: MASS SPECTROSCOPY SOC. OF JAPAN (MSSJ)
InstType: EI
InstName: HITACHI M-80
IoniMethod: _ENERGY 70 eV
IonPolarity: pos
Date: 2010-10-09 19:48:36+02:00
Num Peaks: 72
30 70 32 16 38 14 39 98 40 9 41 11 50 59 51 113 52 29 53 7 
54 17 55 5 57 12 61 5 62 32 63 104 64 31 65 70 66 7 74 19 
75 23 76 22 77 58 78 60 79 10 84 30 86 10 87 18 88 14 91 19 
92 26 93 5 101 8 102 23 103 11 106 15 107 36 113 20 114 23 115 157 
116 31 117 18 126 11 127 26 128 46 129 22 130 11 138 8 139 161 140 90 
141 86 142 17 153 10 154 35 155 19 156 105 157 15 164 5 165 11 166 133 
167 753 168 477 169 62 183 13 184 77 185 11 197 43 198 14 213 23 214 999 
215 142 216 14 
