Name: 5-CHLORO-4-CYANO-3-PHENYLISOTHIAZOLE
MW: 219
Formula: C10H5ClN2S
Synonym: MassBank: JP002967
Synonym: 5-CHLORO-4-CYANO-3-PHENYLISOTHIAZOLE
Structure: 352D43484C4F524F2D342D4359414E4F2D332D5048454E594C49534F544849415A4F4C452E6D6F6C0A20204368656D447261773034323331303034343332440A2031342031352020302020302020302020302020302020302020302020303939392056323030300A2020202D312E313733362020202D312E3533383620202020302E303030302053202020302020302020302020302020302020302020302020302020302020302020302020300A2020202D312E343238352020202D302E3735333920202020302E30303030204E202020302020302020302020302020302020302020302020302020302020302020302020300A2020202D302E373631312020202D302E3236393020202020302E303030302043202020302020302020302020302020302020302020302020302020302020302020302020300A2020202D302E303933372020202D302E3735333920202020302E303030302043202020302020302020302020302020302020302020302020302020302020302020302020300A2020202D302E333438362020202D312E3533383620202020302E303030302043202020302020302020302020302020302020302020302020302020302020302020302020300A2020202D302E3736313120202020302E3535363020202020302E303030302043202020302020302020302020302020302020302020302020302020302020302020302020300A2020202D312E3437353620202020302E3936383520202020302E303030302043202020302020302020302020302020302020302020302020302020302020302020302020300A2020202D312E3437353620202020312E3739333520202020302E303030302043202020302020302020302020302020302020302020302020302020302020302020302020300A2020202D302E3736313120202020322E3230363020202020302E303030302043202020302020302020302020302020302020302020302020302020302020302020302020300A2020202D302E3034363620202020312E3739333520202020302E303030302043202020302020302020302020302020302020302020302020302020302020302020302020300A2020202D302E3034363620202020302E3936383520202020302E303030302043202020302020302020302020302020302020302020302020302020302020302020302020300A20202020302E363931302020202D302E3439393020202020302E303030302043202020302020302020302020302020302020302020302020302020302020302020302020300A20202020312E343735362020202D302E3234343120202020302E30303030204E202020302020302020302020302020302020302020302020302020302020302020302020300A20202020302E313336332020202D322E3230363020202020302E3030303020436C2020302020302020302020302020302020302020302020302020302020302020302020300A2020312020322020312020302020202020200A2020322020332020322020302020202020200A2020332020342020312020302020202020200A2020342020352020322020302020202020200A2020312020352020312020302020202020200A2020362020372020312020302020202020200A2020372020382020322020302020202020200A2020382020392020312020302020202020200A2020392031302020322020302020202020200A2031302031312020312020302020202020200A2020362031312020322020302020202020200A2020332020362020312020302020202020200A2031322031332020332020302020202020200A2020342031322020312020302020202020200A2020352031342020312020302020202020200A4D2020454E44
Contributor: SASAKI S, TOYOHASHI UNIV. OF TECH.
InstType: EI
InstName: Unknown
IoniMethod: EI
IonPolarity: pos
Date: 2010-10-09 19:48:36+02:00
Num Peaks: 49
37 20 38 50 39 80 41 4 42 30 43 40 45 20 50 2 51 270 52 40 
56 20 57 0 61 20 62 30 63 50 64 0 75 70 76 140 77 310 78 0 
79 50 81 20 82 120 83 0 87 20 88 20 91 20 92 1 93 20 94 30 
102 50 103 1 108 30 110 40 114 30 117 1 119 40 129 30 135 120 141 0 
158 30 160 40 184 120 185 5 186 70 220 999 221 130 222 4 223 50 
