Name: ETHYL 4-METHYLSULFONYLBENZOATE
MW: 228
Formula: C10H12O4S
Synonym: MassBank: JP009664
Synonym: ETHYL 4-METHYLSULFONYLBENZOATE
Structure: 455448594C20342D4D455448594C53554C464F4E594C42454E5A4F4154452E6D6F6C0A20204368656D447261773038313131303138313932440A2031352031352020302020302020302020302020302020302020302020303939392056323030300A20202020312E323337352020202D302E3330323020202020302E303030302043202020302020302020302020302020302020302020302020302020302020302020302020300A20202020302E343132352020202D302E3330323020202020302E303030302043202020302020302020302020302020302020302020302020302020302020302020302020300A2020202D302E303030302020202D312E3031363420202020302E303030302043202020302020302020302020302020302020302020302020302020302020302020302020300A2020202D302E383235302020202D312E3031363420202020302E303030302043202020302020302020302020302020302020302020302020302020302020302020302020300A2020202D312E323337352020202D302E3330323020202020302E303030302043202020302020302020302020302020302020302020302020302020302020302020302020300A2020202D302E3832353020202020302E3431323520202020302E303030302043202020302020302020302020302020302020302020302020302020302020302020302020300A2020202D302E3030303020202020302E3431323520202020302E303030302043202020302020302020302020302020302020302020302020302020302020302020302020300A20202020312E363530302020202D312E3031363420202020302E30303030204F202020302020302020302020302020302020302020302020302020302020302020302020300A20202020312E3635303020202020302E3431323520202020302E30303030204F202020302020302020302020302020302020302020302020302020302020302020302020300A2020202D322E303632352020202D302E3330323020202020302E303030302053202020302020302020302020302020302020302020302020302020302020302020302020300A2020202D322E303632352020202D312E3132373020202020302E30303030204F202020302020302020302020302020302020302020302020302020302020302020302020300A2020202D322E3036323520202020302E3532333020202020302E30303030204F202020302020302020302020302020302020302020302020302020302020302020302020300A2020202D322E383837352020202D302E3330323020202020302E303030302043202020302020302020302020302020302020302020302020302020302020302020302020300A20202020322E3437353020202020302E3431323520202020302E303030302043202020302020302020302020302020302020302020302020302020302020302020302020300A20202020322E3838373520202020312E3132373020202020302E303030302043202020302020302020302020302020302020302020302020302020302020302020302020300A2020312020322020312020302020202020200A2020322020332020312020302020202020200A2020332020342020322020302020202020200A2020342020352020312020302020202020200A2020352020362020322020302020202020200A2020362020372020312020302020202020200A2020322020372020322020302020202020200A2020312020382020322020302020202020200A2020312020392020312020302020202020200A2031302031312020322020302020202020200A2031302031322020322020302020202020200A2031302031332020312020302020202020200A2020352031302020312020302020202020200A2031342031352020312020302020202020200A2020392031342020312020302020202020200A4D2020454E44
Contributor: THE INSTITUTE OF SCIENTIFIC AND INDUSTRIALRESEARCH
InstType: EI
InstName: JEOL JMS-DX-300
IoniMethod: _ENERGY 70 eV
IonPolarity: pos
Date: 2010-10-09 19:48:36+02:00
Num Peaks: 63
26 13 27 79 29 133 39 4 43 13 44 42 45 108 47 1 50 169 51 50 
52 10 53 2 63 46 64 33 65 171 66 1 70 10 74 50 75 118 76 27 
77 73 78 22 79 37 81 2 91 13 92 32 93 62 103 17 104 165 105 36 
107 13 109 5 120 40 121 501 122 47 124 1 131 10 137 27 138 501 139 4 
148 210 149 497 150 50 151 1 152 17 155 21 156 123 157 1 165 10 169 23 
183 999 184 20 185 158 186 18 197 16 200 31 201 49 202 18 213 72 227 1 
228 340 229 49 230 21 
