Name: MassBank: JP003555
MW: 424
Formula: C29H44O2
Synonym: MassBank: JP003555
Synonym: 4,4'-METHYLENE BIS(2,6-DI-TERT-BUTYLPHENOL)
Structure: 342C34272D4D455448594C454E452042495328322C362D44492D544552542D425554594C5048454E4F4C292E6D6F6C0A20204368656D447261773130313831303136343932440A2033312033322020302020302020302020302020302020302020302020303939392056323030300A2020202D302E303030302020202D312E3239323820202020302E303030302043202020302020302020302020302020302020302020302020302020302020302020302020300A20202020322E313433342020202D302E3035353320202020302E303030302043202020302020302020302020302020302020302020302020302020302020302020302020300A20202020322E313433342020202D302E3838303320202020302E303030302043202020302020302020302020302020302020302020302020302020302020302020302020300A20202020312E343238392020202D312E3239323820202020302E303030302043202020302020302020302020302020302020302020302020302020302020302020302020300A20202020302E373134352020202D302E3838303320202020302E303030302043202020302020302020302020302020302020302020302020302020302020302020302020300A20202020302E373134352020202D302E3035353320202020302E303030302043202020302020302020302020302020302020302020302020302020302020302020302020300A20202020312E3432383920202020302E3335373220202020302E303030302043202020302020302020302020302020302020302020302020302020302020302020302020300A20202020312E3432383920202020312E3138323220202020302E303030302043202020302020302020302020302020302020302020302020302020302020302020302020300A20202020322E3235333920202020312E3138323220202020302E303030302043202020302020302020302020302020302020302020302020302020302020302020302020300A20202020302E3630333920202020312E3138323220202020302E303030302043202020302020302020302020302020302020302020302020302020302020302020302020300A20202020312E3432383920202020322E3030373220202020302E303030302043202020302020302020302020302020302020302020302020302020302020302020302020300A20202020322E383537392020202D312E3239323820202020302E303030302043202020302020302020302020302020302020302020302020302020302020302020302020300A20202020322E343435342020202D322E3030373220202020302E303030302043202020302020302020302020302020302020302020302020302020302020302020302020300A20202020332E323730342020202D302E3537383320202020302E303030302043202020302020302020302020302020302020302020302020302020302020302020302020300A20202020332E353732342020202D312E3730353320202020302E303030302043202020302020302020302020302020302020302020302020302020302020302020302020300A20202020322E3835373920202020302E3335373220202020302E30303030204F202020302020302020302020302020302020302020302020302020302020302020302020300A2020202D322E313433342020202D302E3035353320202020302E303030302043202020302020302020302020302020302020302020302020302020302020302020302020300A2020202D312E3432383920202020302E3335373220202020302E303030302043202020302020302020302020302020302020302020302020302020302020302020302020300A2020202D302E373134352020202D302E3035353320202020302E303030302043202020302020302020302020302020302020302020302020302020302020302020302020300A2020202D302E373134352020202D302E3838303320202020302E303030302043202020302020302020302020302020302020302020302020302020302020302020302020300A2020202D312E343238392020202D312E3239323820202020302E303030302043202020302020302020302020302020302020302020302020302020302020302020302020300A2020202D322E313433342020202D302E3838303320202020302E303030302043202020302020302020302020302020302020302020302020302020302020302020302020300A2020202D322E383537392020202D312E3239323820202020302E303030302043202020302020302020302020302020302020302020302020302020302020302020302020300A2020202D322E343435342020202D322E3030373220202020302E303030302043202020302020302020302020302020302020302020302020302020302020302020302020300A2020202D332E353732342020202D312E3730353320202020302E303030302043202020302020302020302020302020302020302020302020302020302020302020302020300A2020202D332E323730342020202D302E3537383320202020302E303030302043202020302020302020302020302020302020302020302020302020302020302020302020300A2020202D312E3432383920202020312E3138323220202020302E303030302043202020302020302020302020302020302020302020302020302020302020302020302020300A2020202D322E3235333920202020312E3138323220202020302E303030302043202020302020302020302020302020302020302020302020302020302020302020302020300A2020202D312E3432383920202020322E3030373220202020302E303030302043202020302020302020302020302020302020302020302020302020302020302020302020300A2020202D302E3630333920202020312E3138323220202020302E303030302043202020302020302020302020302020302020302020302020302020302020302020302020300A2020202D322E3835373920202020302E3335373220202020302E30303030204F202020302020302020302020302020302020302020302020302020302020302020302020300A2020322020332020312020302020202020200A2020332020342020322020302020202020200A2020342020352020312020302020202020200A2020352020362020322020302020202020200A2020362020372020312020302020202020200A2020322020372020322020302020202020200A2020382020392020312020302020202020200A2020382031312020312020302020202020200A2020382031302020312020302020202020200A2020372020382020312020302020202020200A2031322031332020312020302020202020200A2031322031352020312020302020202020200A2031322031342020312020302020202020200A2020332031322020312020302020202020200A2020322031362020312020302020202020200A2020312020352020312020302020202020200A2031372031382020312020302020202020200A2031382031392020322020302020202020200A2031392032302020312020302020202020200A2032302032312020322020302020202020200A2032312032322020312020302020202020200A2031372032322020322020302020202020200A2032332032342020312020302020202020200A2032332032362020312020302020202020200A2032332032352020312020302020202020200A2032322032332020312020302020202020200A2032372032382020312020302020202020200A2032372033302020312020302020202020200A2032372032392020312020302020202020200A2031382032372020312020302020202020200A2031372033312020312020302020202020200A2020312032302020312020302020202020200A4D2020454E44
Contributor: MASS SPECTROSCOPY SOC. OF JAPAN (MSSJ)
InstType: EI
InstName: Unknown
IoniMethod: EI
IonPolarity: pos
Date: 2010-10-09 19:48:36+02:00
Num Peaks: 47
29 74 41 182 43 49 55 45 57 516 91 46 105 28 119 33 121 28 128 35 
129 48 131 43 133 32 143 29 145 61 147 68 153 41 159 24 161 71 163 27 
169 94 170 36 175 42 183 108 185 30 189 33 197 194 203 75 216 25 219 259 
220 48 365 93 366 31 367 211 368 66 393 23 395 30 407 106 408 51 409 863 
410 261 411 48 422 73 423 52 424 999 425 292 426 59 
