Name: 4-METHYLCYCLOHEXENE
MW: 96
Formula: C7H12
Synonym: MassBank: JP005338
Synonym: 4-METHYLCYCLOHEXENE
Structure: 310A31390A342D4D455448594C4359434C4F484558454E452E6D6F6C0A20204368656D447261773034323231303135313532440A2020372020372020302020302020302020302020302020302020302020303939392056323030300A20202020312E3233373520202020302E3030303020202020302E303030302043202020302020302020302020302020302020302020302020302020302020302020302020300A20202020302E383235302020202D302E3731343520202020302E303030302043202020302020302020302020302020302020302020302020302020302020302020302020300A2020202D302E303030302020202D302E3731343520202020302E303030302043202020302020302020302020302020302020302020302020302020302020302020302020300A2020202D302E3431323520202020302E3030303020202020302E303030302043202020302020302020302020302020302020302020302020302020302020302020302020300A2020202D302E3030303020202020302E3731343520202020302E303030302043202020302020302020302020302020302020302020302020302020302020302020302020300A20202020302E3832353020202020302E3731343520202020302E303030302043202020302020302020302020302020302020302020302020302020302020302020302020300A2020202D312E3233373520202020302E3030303020202020302E303030302043202020302020302020302020302020302020302020302020302020302020302020302020300A2020312020322020322020302020202020200A2020322020332020312020302020202020200A2020332020342020312020302020202020200A2020342020352020312020302020202020200A2020352020362020312020302020202020200A2020312020362020312020302020202020200A2020342020372020312020302020202020200A4D2020454E44
Contributor: YAMAMOTO M, DEP. CHEMISTRY, FAC. SCIENCE, NARA WOMEN'S UNIV.
InstType: EI
InstName: HITACHI RMU-6M
IoniMethod: _ENERGY 70 eV
IonPolarity: pos
Date: 2010-10-09 19:48:36+02:00
Num Peaks: 43
15 9 17 18 18 82 27 15 28 162 29 40 30 79 33 5 38 6 39 22 
40 330 41 39 42 190 43 36 44 5 45 6 46 5 47 6 51 29 52 59 
53 29 54 148 55 746 56 407 57 23 62 7 63 17 65 40 66 34 67 311 
68 265 69 17 77 58 78 15 79 94 80 19 81 999 82 70 91 18 93 8 
95 64 96 385 97 30 
