Name: 1-PENTAMETHYLDISILANYLOXY-4-PENTAMETHYLDISILANYLBENZENE
MW: 354
Formula: C16H34OSi4
Synonym: MassBank: JP004815
Synonym: 1-PENTAMETHYLDISILANYLOXY-4-PENTAMETHYLDISILANYLBENZENE
Structure: 312D50454E54414D455448594C444953494C414E594C4F58592D342D50454E54414D455448594C444953494C414E594C42454E5A454E452E6D6F6C0A20204368656D447261773131323230393232303032440A2032312032312020302020302020302020302020302020302020302020303939392056323030300A2020202D302E323436372020202D302E3539313520202020302E303030302043202020302020302020302020302020302020302020302020302020302020302020302020300A2020202D302E393631322020202D302E3137393020202020302E303030302043202020302020302020302020302020302020302020302020302020302020302020302020300A2020202D302E3936313220202020302E3634363020202020302E303030302043202020302020302020302020302020302020302020302020302020302020302020302020300A2020202D302E3234363720202020312E3035383520202020302E303030302043202020302020302020302020302020302020302020302020302020302020302020302020300A20202020302E3436373820202020302E3634363020202020302E303030302043202020302020302020302020302020302020302020302020302020302020302020302020300A20202020302E343637382020202D302E3137393020202020302E303030302043202020302020302020302020302020302020302020302020302020302020302020302020300A2020202D302E3234363720202020322E3133313020202020302E303030302053692020302020302020302020302020302020302020302020302020302020302020302020300A2020202D312E3037313720202020322E3133313020202020302E303030302053692020302020302020302020302020302020302020302020302020302020302020302020300A20202020302E3537383320202020322E3133313020202020302E303030302043202020302020302020302020302020302020302020302020302020302020302020302020300A2020202D302E3234363720202020322E3935363020202020302E303030302043202020302020302020302020302020302020302020302020302020302020302020302020300A2020202D312E3839363720202020322E3133313020202020302E303030302043202020302020302020302020302020302020302020302020302020302020302020302020300A2020202D312E3037313720202020322E3935363020202020302E303030302043202020302020302020302020302020302020302020302020302020302020302020302020300A2020202D312E3037313720202020312E3330363020202020302E303030302043202020302020302020302020302020302020302020302020302020302020302020302020300A2020202D302E323436372020202D312E3431363520202020302E30303030204F202020302020302020302020302020302020302020302020302020302020302020302020300A20202020302E343637382020202D312E3832393020202020302E303030302053692020302020302020302020302020302020302020302020302020302020302020302020300A20202020312E313832322020202D322E3234313520202020302E303030302053692020302020302020302020302020302020302020302020302020302020302020302020300A20202020302E303535332020202D322E3534333520202020302E303030302043202020302020302020302020302020302020302020302020302020302020302020302020300A20202020302E383830332020202D312E3131343520202020302E303030302043202020302020302020302020302020302020302020302020302020302020302020302020300A20202020312E353934372020202D312E3532373020202020302E303030302043202020302020302020302020302020302020302020302020302020302020302020302020300A20202020312E383936372020202D322E3635343020202020302E303030302043202020302020302020302020302020302020302020302020302020302020302020302020300A20202020302E373639372020202D322E3935363020202020302E303030302043202020302020302020302020302020302020302020302020302020302020302020302020300A2020312020322020312020302020202020200A2020322020332020322020302020202020200A2020332020342020312020302020202020200A2020342020352020322020302020202020200A2020352020362020312020302020202020200A2020312020362020322020302020202020200A2020372020382020312020302020202020200A2020372020392020312020302020202020200A2020372031302020312020302020202020200A2020382031312020312020302020202020200A2020382031322020312020302020202020200A2020382031332020312020302020202020200A2020342020372020312020302020202020200A2031352031362020312020302020202020200A2031342031352020312020302020202020200A2031352031372020312020302020202020200A2031352031382020312020302020202020200A2031362031392020312020302020202020200A2031362032302020312020302020202020200A2031362032312020312020302020202020200A2020312031342020312020302020202020200A4D2020454E44
Contributor: MASS SPECTROSCOPY SOC. OF JAPAN (MSSJ)
InstType: EI
InstName: JEOL JMS-D-3000
IoniMethod: _ENERGY 70 eV
IonPolarity: pos
Date: 2010-10-09 19:48:36+02:00
Num Peaks: 34
43 27 45 66 59 28 73 999 74 85 75 47 83 12 116 30 117 17 119 27 
121 14 131 222 132 36 133 30 134 19 135 14 145 11 147 82 148 18 149 30 
151 12 192 30 193 329 194 69 195 31 205 11 207 34 223 54 224 12 251 12 
281 119 282 35 283 17 354 19 
