Name: PARA-TOLYLACETIC ACID METHYL ESTER
MW: 164
Formula: C10H12O2
Synonym: MassBank: JP002223
Synonym: PARA-TOLYLACETIC ACID METHYL ESTER
Structure: 504152412D544F4C594C4143455449432041434944204D455448594C2045535445522E6D6F6C0A20204368656D447261773038313231303034333832440A2031322031322020302020302020302020302020302020302020302020303939392056323030300A2020202D312E3233373520202020302E3335373220202020302E303030302043202020302020302020302020302020302020302020302020302020302020302020302020300A2020202D302E383235302020202D302E3335373220202020302E303030302043202020302020302020302020302020302020302020302020302020302020302020302020300A2020202D302E3832353020202020312E3037313720202020302E30303030204F202020302020302020302020302020302020302020302020302020302020302020302020300A2020202D322E3036323520202020302E3335373220202020302E30303030204F202020302020302020302020302020302020302020302020302020302020302020302020300A20202020302E303030302020202D302E3335373220202020302E303030302043202020302020302020302020302020302020302020302020302020302020302020302020300A20202020302E3431323520202020302E3335373220202020302E303030302043202020302020302020302020302020302020302020302020302020302020302020302020300A20202020312E363530302020202D302E3335373220202020302E303030302043202020302020302020302020302020302020302020302020302020302020302020302020300A20202020302E343132352020202D312E3037313720202020302E303030302043202020302020302020302020302020302020302020302020302020302020302020302020300A20202020312E3233373520202020302E3335373220202020302E303030302043202020302020302020302020302020302020302020302020302020302020302020302020300A20202020312E323337352020202D312E3037313720202020302E303030302043202020302020302020302020302020302020302020302020302020302020302020302020300A20202020322E343735302020202D302E3335373220202020302E303030302043202020302020302020302020302020302020302020302020302020302020302020302020300A2020202D322E343735302020202D302E3335373220202020302E303030302043202020302020302020302020302020302020302020302020302020302020302020302020300A2020312020322020312020302020202020200A2020312020332020322020302020202020200A2020312020342020312020302020202020200A2020352020362020312020302020202020200A2020352020382020322020302020202020200A2020362020392020322020302020202020200A2020372020392020312020302020202020200A2020372031302020322020302020202020200A2020382031302020312020302020202020200A2020372031312020312020302020202020200A2020322020352020312020302020202020200A2020342031322020312020302020202020200A4D2020454E44
Contributor: KOGA M, UNIV. OF OCCUPATIONAL AND ENVIRONMENTAL HEALTH
InstType: EI
InstName: JEOL JMS-01-SG
IoniMethod: _ENERGY 70 eV
IonPolarity: pos
Date: 2010-10-09 19:48:36+02:00
Num Peaks: 32
38 18 39 57 50 42 51 11 52 45 53 24 62 21 63 4 65 33 66 12 
76 18 77 22 78 91 79 179 80 18 89 2 91 33 102 21 103 155 104 9 
105 999 106 212 107 18 115 2 119 18 121 12 132 30 133 3 149 15 164 647 
165 72 166 12 
