Name: MassBank: JP006366
MW: 262
Formula: C17H26O2
Synonym: MassBank: JP006366
Synonym: (1R,2S,5R)-5-METHYL-2-(1-METHYL-1-(4-METHOXYPHENYL)ETHYL)-CYCLOHEXANOL
Structure: 2831522C32532C3552292D352D4D455448594C2D322D28312D4D455448594C2D312D28342D4D4554484F58595048454E594C29455448594C292D4359434C4F484558414E4F4C2E6D6F6C0A20204368656D447261773130313930393133343132440A2032322032332020302020302020302020302020302020302020302020303939392056323030300A2020202D322E3735303120202020302E3637333120202020302E303030302043202020302020302020302020302020302020302020302020302020302020302020302020300A2020202D322E383933342020202D302E3133393120202020302E303030302043202020302020302020302020302020302020302020302020302020302020302020302020300A2020202D322E323631352020202D302E3636393520202020302E303030302043202020302020302020302020302020302020302020302020302020302020302020302020300A2020202D312E343836332020202D302E3338373620202020302E303030302043202020302020302020302020302020302020302020302020302020302020302020302020300A2020202D312E3334323920202020302E3432343920202020302E303030302043202020302020302020302020302020302020302020302020302020302020302020302020300A2020202D312E3937343820202020302E3935353320202020302E303030302043202020302020302020302020302020302020302020302020302020302020302020302020300A2020202D332E3636383620202020302E3134333120202020302E303030302048202020302020302020302020302020302020302020302020302020302020302020302020300A2020202D302E3034333020202020302E3139323920202020302E303030302043202020302020302020302020302020302020302020302020302020302020302020302020300A2020202D312E333433312020202D312E3230303120202020302E303030302048202020302020302020302020302020302020302020302020302020302020302020302020300A2020202D302E303030302020202D302E3632383420202020302E303030302043202020302020302020302020302020302020302020302020302020302020302020302020300A20202020302E3738323020202020302E3139323920202020302E303030302043202020302020302020302020302020302020302020302020302020302020302020302020300A20202020302E3031303020202020312E3031383820202020302E303030302043202020302020302020302020302020302020302020302020302020302020302020302020300A2020202D302E363631332020202D302E3338373620202020302E30303030204F202020302020302020302020302020302020302020302020302020302020302020302020300A2020202D312E3036303620202020312E3230303120202020302E303030302048202020302020302020302020302020302020302020302020302020302020302020302020300A2020202D332E333035392020202D302E3835333620202020302E303030302043202020302020302020302020302020302020302020302020302020302020302020302020300A20202020312E313937372020202D302E3533393520202020302E303030302043202020302020302020302020302020302020302020302020302020302020302020302020300A20202020322E303232372020202D302E3533353920202020302E303030302043202020302020302020302020302020302020302020302020302020302020302020302020300A20202020322E3433323220202020302E3136303520202020302E303030302043202020302020302020302020302020302020302020302020302020302020302020302020300A20202020322E3031363420202020302E3839333020202020302E303030302043202020302020302020302020302020302020302020302020302020302020302020302020300A20202020312E3139313420202020302E3838393420202020302E303030302043202020302020302020302020302020302020302020302020302020302020302020302020300A20202020332E3235373220202020302E3136303520202020302E30303030204F202020302020302020302020302020302020302020302020302020302020302020302020300A20202020332E3636383620202020302E3837333120202020302E303030302043202020302020302020302020302020302020302020302020302020302020302020302020300A2020312020322020312020302020202020200A2020322020332020312020302020202020200A2020332020342020312020302020202020200A2020342020352020312020302020202020200A2020352020362020312020302020202020200A2020362020312020312020302020202020200A2020322020372020312020312020202020200A2020352020382020312020312020202020200A2020342020392020312020312020202020200A2020382031302020312020302020202020200A2020382031312020312020302020202020200A2020382031322020312020302020202020200A2020342031332020312020362020202020200A2020352031342020312020362020202020200A2020322031352020312020362020202020200A2031312031362020322020302020202020200A2031362031372020312020302020202020200A2031372031382020322020302020202020200A2031382031392020312020302020202020200A2031392032302020322020302020202020200A2032302031312020312020302020202020200A2031382032312020312020302020202020200A2032312032322020312020302020202020200A4D2020454E44
Contributor: HISAHIRO HAGIWARA, CHEMICAL RESEARCH INSTITUTE OF NON-AQUEOUSSOLUTIONS TOHOKU UNIV.
InstType: EI
InstName: JEOL JMS-DX-300
IoniMethod: _ENERGY 70 eV
IonPolarity: pos
Date: 2010-10-09 19:48:36+02:00
Num Peaks: 59
32 374 40 26 41 268 53 28 55 131 57 41 59 26 65 58 67 56 69 87 
70 25 71 8 77 125 78 52 79 68 81 114 82 22 90 24 91 123 92 34 
93 24 94 54 95 103 103 46 105 38 106 25 107 26 108 35 109 296 110 24 
115 47 117 42 119 54 121 495 122 55 123 27 127 24 128 75 129 49 131 37 
133 68 134 50 135 166 136 20 138 23 141 45 147 31 148 221 150 999 151 88 
159 26 161 84 169 253 170 80 173 28 200 22 229 27 262 268 263 52 
