Name: 2-ISOBUTYL-1-METHOXY-4-METHYLBICYCLO(3.2.2)NON-6-EN-2-OL
MW: 238
Formula: C15H26O2
Synonym: MassBank: JP004869
Synonym: 2-ISOBUTYL-1-METHOXY-4-METHYLBICYCLO(3.2.2)NON-6-EN-2-OL
Structure: 322D49534F425554594C2D312D4D4554484F58592D342D4D455448594C42494359434C4F28332E322E32294E4F4E2D362D454E2D322D4F4C2E6D6F6C0A20204368656D447261773031323231303030303732440A2031372031382020302020302020302020302020302020302020302020303939392056323030300A2020202D302E333231362020202D302E3732313320202020302E303030302043202020302020302020302020302020302020302020302020302020302020302020302020300A2020202D302E3135303920202020302E3139333320202020302E303030302043202020302020302020302020302020302020302020302020302020302020302020302020300A20202020302E3731393920202020302E3531323220202020302E303030302043202020302020302020302020302020302020302020302020302020302020302020302020300A20202020312E343430382020202D302E3037323520202020302E303030302043202020302020302020302020302020302020302020302020302020302020302020302020300A20202020312E333036332020202D302E3939303820202020302E303030302043202020302020302020302020302020302020302020302020302020302020302020302020300A20202020312E303136302020202D302E3231383620202020302E303030302043202020302020302020302020302020302020302020302020302020302020302020302020300A20202020302E323032312020202D302E3038333820202020302E303030302043202020302020302020302020302020302020302020302020302020302020302020302020300A2020202D302E303331332020202D312E3439333520202020302E303030302043202020302020302020302020302020302020302020302020302020302020302020302020300A20202020302E373832362020202D312E3632383320202020302E303030302043202020302020302020302020302020302020302020302020302020302020302020302020300A2020202D302E3239333620202020312E3030333620202020302E30303030204F202020302020302020302020302020302020302020302020302020302020302020302020300A20202020322E3230393420202020302E3232373320202020302E303030302043202020302020302020302020302020302020302020302020302020302020302020302020300A2020202D312E313433342020202D302E3739333220202020302E30303030204F202020302020302020302020302020302020302020302020302020302020302020302020300A2020202D312E343932312020202D312E3534303920202020302E303030302043202020302020302020302020302020302020302020302020302020302020302020302020300A2020202D302E3937353820202020302E3139333320202020302E303030302043202020302020302020302020302020302020302020302020302020302020302020302020300A2020202D312E3338393320202020302E3930393520202020302E303030302043202020302020302020302020302020302020302020302020302020302020302020302020300A2020202D322E3230393420202020302E3930393520202020302E303030302043202020302020302020302020302020302020302020302020302020302020302020302020300A2020202D302E3937343420202020312E3632383320202020302E303030302043202020302020302020302020302020302020302020302020302020302020302020302020300A2020312020322020312020302020202020200A2020322020332020312020302020202020200A2020332020342020312020302020202020200A2020342020352020312020302020202020200A2020352020362020312020302020202020200A2020362020372020322020302020202020200A2020382020392020312020302020202020200A2020312020372020312020302020202020200A2020312020382020312020302020202020200A2020352020392020312020302020202020200A2020322031302020312020302020202020200A2020342031312020312020302020202020200A2031322031332020312020302020202020200A2020312031322020312020302020202020200A2031342031352020312020302020202020200A2031352031362020312020302020202020200A2031352031372020312020302020202020200A2020322031342020312020302020202020200A4D2020454E44
Contributor: KATO T, DEPT. OF CHEM., FAC. OF SCI., TOHOKU UNIV.
InstType: EI
InstName: Unknown
IoniMethod: _ENERGY 25 eV
IonPolarity: pos
Date: 2010-10-09 19:48:36+02:00
Num Peaks: 42
43 491 55 146 57 464 67 18 69 164 79 118 81 164 84 15 85 306 91 137 
93 164 95 61 97 212 105 264 107 227 108 24 109 212 110 264 111 999 112 14 
121 464 122 137 123 321 127 24 131 244 132 123 135 573 136 20 137 793 138 691 
139 201 145 16 149 246 150 137 153 111 163 18 164 282 177 282 181 291 205 21 
220 213 238 343 
