Name: TRANS-ROSE OXIDE
MW: 154
Formula: C10H18O
Synonym: MassBank: JP008362
Synonym: TRANS-ROSE OXIDE
Synonym: 4-METHYL-TRANS-2-(2-METHYL-1-PROPENYL)PERHYDROPYRAN
Structure: 5452414E532D524F5345204F584944452E6D6F6C0A20204368656D447261773034323131303032353132440A2031332031332020302020302020302020302020302020302020302020303939392056323030300A20202020302E333038322020202D302E3135363520202020302E303030302043202020302020302020302020302020302020302020302020302020302020302020302020300A20202020302E333038322020202D302E3938313520202020302E303030302043202020302020302020302020302020302020302020302020302020302020302020302020300A2020202D302E343036332020202D312E3339343020202020302E303030302043202020302020302020302020302020302020302020302020302020302020302020302020300A2020202D312E313230372020202D302E3938313520202020302E303030302043202020302020302020302020302020302020302020302020302020302020302020302020300A2020202D312E313230372020202D302E3135363520202020302E303030302043202020302020302020302020302020302020302020302020302020302020302020302020300A2020202D302E3430363220202020302E3235353320202020302E30303030204F202020302020302020302020302020302020302020302020302020302020302020302020300A20202020302E3539303020202020302E3631383920202020302E303030302043202020302020302020302020302020302020302020302020302020302020302020302020300A20202020302E3035393420202020312E3235303620202020302E303030302043202020302020302020302020302020302020302020302020302020302020302020302020300A20202020302E3334313220202020322E3032363020202020302E303030302043202020302020302020302020302020302020302020302020302020302020302020302020300A2020202D302E3735333020202020312E3130373020202020302E303030302043202020302020302020302020302020302020302020302020302020302020302020302020300A2020202D302E393336362020202D322E3032363020202020302E303030302048202020302020302020302020302020302020302020302020302020302020302020302020300A20202020302E313234302020202D322E3032363020202020302E303030302043202020302020302020302020302020302020302020302020302020302020302020302020300A20202020312E313230372020202D302E3239393620202020302E303030302048202020302020302020302020302020302020302020302020302020302020302020302020300A2020312020322020312020302020202020200A2020322020332020312020302020202020200A2020332020342020312020302020202020200A2020342020352020312020302020202020200A2020352020362020312020302020202020200A2020312020362020312020302020202020200A2020372020382020322020302020202020200A2020382020392020312020302020202020200A2020382031302020312020302020202020200A2020312020372020312020312020202020200A2020332031312020312020312020202020200A2020332031322020312020362020202020200A2020312031332020312020362020202020200A4D2020454E44
Contributor: SODA AROMATIC CO., LTD.
InstType: EI
InstName: HITACHI M-80B
IoniMethod: _ENERGY 70 eV
IonPolarity: pos
Date: 2010-10-09 19:48:36+02:00
Num Peaks: 40
15 11 27 137 29 152 31 12 32 11 39 189 40 24 41 346 42 140 43 73 
51 21 53 70 54 23 55 292 56 83 57 18 65 19 66 14 67 118 68 19 
69 604 70 33 71 10 77 24 79 24 81 29 82 46 83 277 84 132 85 124 
93 11 97 31 99 12 109 14 112 21 139 999 140 92 153 14 154 102 155 10 
