Name: CYCLOPENTANECARBOXYLIC ACID METHYL ESTER
MW: 128
Formula: C7H12O2
Synonym: MassBank: JP002214
Synonym: CYCLOPENTANECARBOXYLIC ACID METHYL ESTER
Structure: 310A32330A4359434C4F50454E54414E45434152424F58594C49432041434944204D455448594C2045535445522E6D6F6C0A20204368656D447261773039323031303039303232440A2020392020392020302020302020302020302020302020302020302020303939392056323030300A20202020302E303136302020202D302E3335373220202020302E303030302043202020302020302020302020302020302020302020302020302020302020302020302020300A2020202D302E343638392020202D312E3032343720202020302E303030302043202020302020302020302020302020302020302020302020302020302020302020302020300A2020202D312E323533352020202D302E3736393720202020302E303030302043202020302020302020302020302020302020302020302020302020302020302020302020300A2020202D312E3235333520202020302E3035353320202020302E303030302043202020302020302020302020302020302020302020302020302020302020302020302020300A2020202D302E3436383920202020302E3331303220202020302E303030302043202020302020302020302020302020302020302020302020302020302020302020302020300A20202020302E383431302020202D302E3335373220202020302E303030302043202020302020302020302020302020302020302020302020302020302020302020302020300A20202020312E323533352020202D312E3037313720202020302E30303030204F202020302020302020302020302020302020302020302020302020302020302020302020300A20202020312E3235333520202020302E3335373220202020302E30303030204F202020302020302020302020302020302020302020302020302020302020302020302020300A20202020302E3834313020202020312E3037313720202020302E303030302043202020302020302020302020302020302020302020302020302020302020302020302020300A2020312020322020312020302020202020200A2020322020332020312020302020202020200A2020332020342020312020302020202020200A2020342020352020312020302020202020200A2020312020352020312020302020202020200A2020362020372020322020302020202020200A2020362020382020312020302020202020200A2020312020362020312020302020202020200A2020382020392020312020302020202020200A4D2020454E44
Contributor: KOGA M, UNIV. OF OCCUPATIONAL AND ENVIRONMENTAL HEALTH
InstType: EI
InstName: JEOL JMS-01-SG
IoniMethod: _ENERGY 70 eV
IonPolarity: pos
Date: 2010-10-09 19:48:36+02:00
Num Peaks: 24
42 12 53 30 55 145 56 1 65 9 66 18 67 124 68 10 69 430 70 24 
85 21 87 999 88 48 95 24 96 21 97 16 98 15 99 9 100 139 101 2 
113 15 127 24 128 87 129 18 
