Name: MassBank: JP002002
MW: 216
Formula: C12H12N2O2
Synonym: MassBank: JP002002
Synonym: 2,3-DIMETHYL-5-NITRO-1,7-ETHANOINDOLE
Synonym: 1,2-DIHYDRO-4,5-DIMETHYL-7-NITROPYRROLO(3,2,1-H,I)INDOLE
Structure: 322C332D44494D455448594C2D352D4E4954524F2D312C372D455448414E4F494E444F4C452E6D6F6C0A20204368656D447261773131303330393233323332440A2031362031382020302020302020302020302020302020302020302020303939392056323030300A20202020312E3136363320202020302E3732323920202020302E30303030204E202020302020302020302020302020302020302020302020302020302020302020302020300A20202020312E3635313220202020302E3035353520202020302E303030302043202020302020302020302020302020302020302020302020302020302020302020302020300A20202020312E313636332020202D302E3631323020202020302E303030302043202020302020302020302020302020302020302020302020302020302020302020302020300A20202020302E333831372020202D302E3335373020202020302E303030302043202020302020302020302020302020302020302020302020302020302020302020302020300A2020202D302E333332382020202D302E3736393520202020302E303030302043202020302020302020302020302020302020302020302020302020302020302020302020300A2020202D312E303437332020202D302E3335373020202020302E303030302043202020302020302020302020302020302020302020302020302020302020302020302020300A2020202D312E3034373320202020302E3436383020202020302E303030302043202020302020302020302020302020302020302020302020302020302020302020302020300A2020202D302E3333323820202020302E3838303520202020302E303030302043202020302020302020302020302020302020302020302020302020302020302020302020300A20202020302E3338313720202020302E3436383020202020302E303030302043202020302020302020302020302020302020302020302020302020302020302020302020300A20202020302E3930343920202020312E3530353420202020302E303030302043202020302020302020302020302020302020302020302020302020302020302020302020300A20202020302E3037393520202020312E3539343520202020302E303030302043202020302020302020302020302020302020302020302020302020302020302020302020300A2020202D312E373631372020202D302E3736393520202020302E30303030204E202020302020332020302020302020302020302020302020302020302020302020302020300A2020202D312E373631372020202D312E3539343520202020302E30303030204F202020302020302020302020302020302020302020302020302020302020302020302020300A2020202D322E343736322020202D302E3335373020202020302E30303030204F202020302020352020302020302020302020302020302020302020302020302020302020300A20202020312E343231322020202D312E3339363620202020302E303030302043202020302020302020302020302020302020302020302020302020302020302020302020300A20202020322E3437363220202020302E3035353520202020302E303030302043202020302020302020302020302020302020302020302020302020302020302020302020300A2020312020322020312020302020202020200A2020322020332020322020302020202020200A2020332020342020312020302020202020200A2020342020352020312020302020202020200A2020352020362020322020302020202020200A2020362020372020312020302020202020200A2020372020382020322020302020202020200A2020382020392020312020302020202020200A2020312020392020312020302020202020200A2020342020392020322020302020202020200A2031302031312020312020302020202020200A2020312031302020312020302020202020200A2020382031312020312020302020202020200A2031322031332020322020302020202020200A2031322031342020312020302020202020200A2020362031322020312020302020202020200A2020332031352020312020302020202020200A2020322031362020312020302020202020200A4D202043484720203220203132202020312020313420202D310A4D2020454E44
Contributor: SASAKI S, TOYOHASHI UNIV. OF TECH.
InstType: EI
InstName: MX-1303
IoniMethod: _ENERGY 50 eV
IonPolarity: pos
Date: 2010-10-09 19:48:36+02:00
Num Peaks: 55
45 283 51 39 53 44 54 4 55 519 56 133 57 667 60 23 61 31 63 30 
67 139 68 13 69 333 70 144 71 361 72 26 77 85 79 35 81 637 82 11 
83 244 84 93 85 189 87 3 91 39 93 81 95 118 96 6 97 167 98 78 
99 41 107 4 111 63 113 30 115 81 135 3 136 61 137 135 141 30 143 4 
149 87 154 141 155 167 158 3 167 68 168 185 169 489 170 93 171 141 185 107 
186 228 201 4 215 233 216 999 217 120 
