Name: MassBank: JP005349
MW: 294
Formula: C19H34O2
Synonym: MassBank: JP005349
Synonym: (Z,Z)-9,12-OCTADECADIENOIC ACID METHYL ESTER
Structure: 285A2C5A292D392C31322D4F435441444543414449454E4F49432041434944204D455448594C2045535445522E6D6F6C0A20204368656D447261773130323230393232303832440A2032352032342020302020302020302020302020302020302020302020303939392056323030300A20202020302E333537322020202D322E3838373520202020302E303030302043202020302020302020302020302020302020302020302020302020302020302020302020300A2020202D302E333537322020202D322E3437353020202020302E303030302043202020302020302020302020302020302020302020302020302020302020302020302020300A2020202D302E333537322020202D312E3635303020202020302E303030302043202020302020302020302020302020302020302020302020302020302020302020302020300A2020202D312E303731362020202D322E3838373520202020302E303030302048202020302020302020302020302020302020302020302020302020302020302020302020300A20202020302E333537322020202D332E3731323520202020302E303030302048202020302020302020302020302020302020302020302020302020302020302020302020300A20202020312E303731372020202D322E3437353020202020302E303030302043202020302020302020302020302020302020302020302020302020302020302020302020300A20202020312E373836322020202D322E3838373520202020302E303030302043202020302020302020302020302020302020302020302020302020302020302020302020300A20202020312E373836322020202D332E3731323520202020302E303030302048202020302020302020302020302020302020302020302020302020302020302020302020300A20202020322E353030362020202D322E3437353020202020302E303030302043202020302020302020302020302020302020302020302020302020302020302020302020300A20202020332E323135302020202D322E3838373520202020302E303030302048202020302020302020302020302020302020302020302020302020302020302020302020300A20202020322E353030362020202D312E3635303020202020302E303030302043202020302020302020302020302020302020302020302020302020302020302020302020300A2020202D312E303731362020202D312E3233373520202020302E303030302043202020302020302020302020302020302020302020302020302020302020302020302020300A20202020332E323135302020202D312E3233373520202020302E303030302043202020302020302020302020302020302020302020302020302020302020302020302020300A20202020332E323135302020202D302E3431323520202020302E303030302043202020302020302020302020302020302020302020302020302020302020302020302020300A20202020332E3932393520202020302E3030303020202020302E303030302043202020302020302020302020302020302020302020302020302020302020302020302020300A20202020332E3932393520202020302E3832353020202020302E303030302043202020302020302020302020302020302020302020302020302020302020302020302020300A2020202D312E303731362020202D302E3431323520202020302E303030302043202020302020302020302020302020302020302020302020302020302020302020302020300A2020202D312E3738363120202020302E3030303020202020302E303030302043202020302020302020302020302020302020302020302020302020302020302020302020300A2020202D312E3738363120202020302E3832353020202020302E303030302043202020302020302020302020302020302020302020302020302020302020302020302020300A2020202D322E3530303520202020312E3233373520202020302E303030302043202020302020302020302020302020302020302020302020302020302020302020302020300A2020202D322E3530303520202020322E3036323520202020302E303030302043202020302020302020302020302020302020302020302020302020302020302020302020300A2020202D332E3231353020202020322E3437353020202020302E303030302043202020302020302020302020302020302020302020302020302020302020302020302020300A2020202D332E3231353020202020332E3330303020202020302E30303030204F202020302020302020302020302020302020302020302020302020302020302020302020300A2020202D332E3932393520202020322E3036323520202020302E30303030204F202020302020302020302020302020302020302020302020302020302020302020302020300A2020202D332E3932393520202020332E3731323520202020302E303030302043202020302020302020302020302020302020302020302020302020302020302020302020300A2020312020322020322020302020202020200A2020322020332020312020302020202020200A2020322020342020312020302020202020200A2020312020352020312020302020202020200A2020312020362020312020302020202020200A2020362020372020312020302020202020200A2020372020382020312020302020202020200A2020372020392020322020302020202020200A2020392031302020312020302020202020200A2020392031312020312020302020202020200A2020332031322020312020302020202020200A2031312031332020312020302020202020200A2031332031342020312020302020202020200A2031342031352020312020302020202020200A2031352031362020312020302020202020200A2031372031322020312020302020202020200A2031382031372020312020302020202020200A2031392031382020312020302020202020200A2032302031392020312020302020202020200A2032312032302020312020302020202020200A2032322032312020312020302020202020200A2032322032332020312020302020202020200A2032322032342020322020302020202020200A2032332032352020312020302020202020200A4D2020454E44
Contributor: YAMAOKA R, KYOTO INSTITUTE OF TECHNOLOGY
InstType: EI
InstName: HITACHI M-80B
IoniMethod: _ENERGY 70 eV
IonPolarity: pos
Date: 2010-10-09 19:48:36+02:00
Num Peaks: 62
40 38 41 725 42 183 43 297 45 107 53 129 54 400 55 688 56 86 57 47 
59 216 65 48 66 101 67 999 68 395 69 339 71 19 73 90 74 73 77 140 
78 40 79 286 80 256 81 960 82 479 83 124 84 35 87 119 91 133 93 75 
94 66 95 509 96 330 97 159 98 47 105 11 107 100 108 82 109 218 110 107 
119 24 120 17 121 86 123 105 124 69 129 25 135 35 136 95 137 26 138 34 
150 69 151 28 154 15 163 24 164 55 177 29 206 11 262 42 263 35 264 23 
294 73 295 9 
