Name: TRANS-CROTONYL ALCOHOL
MW: 72
Formula: C4H8O
Synonym: MassBank: JP008896
Synonym: TRANS-CROTONYL ALCOHOL
Synonym: TRANS-BUT-2-EN-1-OL
Structure: 310A31340A5452414E532D43524F544F4E594C20414C434F484F4C2E6D6F6C0A20204368656D447261773038313231303038303832440A2020352020342020302020302020302020302020302020302020302020303939392056323030300A2020202D302E3731343520202020302E3230363320202020302E303030302043202020302020302020302020302020302020302020302020302020302020302020302020300A2020202D312E343238392020202D302E3230363320202020302E30303030204F202020302020302020302020302020302020302020302020302020302020302020302020300A20202020302E303030302020202D302E3230363320202020302E303030302043202020302020302020302020302020302020302020302020302020302020302020302020300A20202020302E3731343520202020302E3230363320202020302E303030302043202020302020302020302020302020302020302020302020302020302020302020302020300A20202020312E343238392020202D302E3230363220202020302E303030302043202020302020302020302020302020302020302020302020302020302020302020302020300A2020312020322020312020302020202020200A2020312020332020312020302020202020200A2020332020342020322020302020202020200A2020342020352020312020302020202020200A4D2020454E44
Contributor: TAJIMA S, GUNMA COLLEGE OF TECHNOLOGY
InstType: EI
InstName: HITACHI RMU-7M
IoniMethod: _ENERGY 70 eV
IonPolarity: pos
Date: 2010-10-09 19:48:36+02:00
Num Peaks: 27
15 37 26 77 27 355 28 47 29 490 30 18 31 261 37 41 38 79 39 442 
40 53 41 299 42 68 43 313 44 98 45 41 50 54 51 47 53 148 54 84 
55 97 57 999 58 36 69 28 71 70 72 302 73 14 
