Name: METHYLHYDRAZONE ACETALDEHYDE
MW: 72
Formula: C3H8N2
Synonym: MassBank: JP000518
Synonym: METHYLHYDRAZONE ACETALDEHYDE
Synonym: ACETALDEHYDE METHYLHYDRAZONE
Structure: 310A31340A4D455448594C48594452415A4F4E452041434554414C4445485944452E6D6F6C0A20204368656D447261773036323431303035343332440A2020352020342020302020302020302020302020302020302020302020303939392056323030300A20202020302E343132352020202D302E3335373220202020302E303030302043202020302020302020302020302020302020302020302020302020302020302020302020300A20202020312E323337352020202D302E3335373220202020302E303030302043202020302020302020302020302020302020302020302020302020302020302020302020300A2020202D302E3030303020202020302E3335373220202020302E30303030204E202020302020302020302020302020302020302020302020302020302020302020302020300A2020202D302E3832353020202020302E3335373220202020302E30303030204E202020302020302020302020302020302020302020302020302020302020302020302020300A2020202D312E323337352020202D302E3335373220202020302E303030302043202020302020302020302020302020302020302020302020302020302020302020302020300A2020312020322020312020302020202020200A2020332020342020312020302020202020200A2020342020352020312020302020202020200A2020312020332020322020302020202020200A4D2020454E44
Contributor: SASAKI S, TOYOHASHI UNIV. OF TECH.
InstType: EI
InstName: SHIMADZU LKB-2091
IoniMethod: _ENERGY 70 eV
IonPolarity: pos
Date: 2010-10-09 19:48:36+02:00
Num Peaks: 20
27 167 28 386 29 200 30 86 31 131 39 34 40 54 41 14 42 363 43 195 
44 95 45 1 55 50 56 65 57 368 58 2 69 15 71 181 72 999 73 50 
