Name: 3-METHYL-3-OCTYL ACETATE
MW: 186
Formula: C11H22O2
Synonym: MassBank: JP006818
Synonym: 3-METHYL-3-OCTYL ACETATE
Synonym: 1-ETHYL-1-METHYLHEXYL ACETATE
Structure: 332D4D455448594C2D332D4F4354594C20414345544154452E6D6F6C0A20204368656D447261773131313830393033313232440A2031332031322020302020302020302020302020302020302020302020303939392056323030300A2020202D312E3136373420202020302E3731343520202020302E303030302043202020302020302020302020302020302020302020302020302020302020302020302020300A2020202D312E3939323420202020302E3731343520202020302E303030302043202020302020302020302020302020302020302020302020302020302020302020302020300A2020202D302E3735343920202020312E3432383920202020302E30303030204F202020302020302020302020302020302020302020302020302020302020302020302020300A2020202D302E373534392020202D302E3030303020202020302E30303030204F202020302020302020302020302020302020302020302020302020302020302020302020300A2020202D322E343034392020202D312E3432383920202020302E303030302043202020302020302020302020302020302020302020302020302020302020302020302020300A2020202D312E353739392020202D312E3432383920202020302E303030302043202020302020302020302020302020302020302020302020302020302020302020302020300A2020202D312E313637342020202D302E3731343520202020302E303030302043202020302020302020302020302020302020302020302020302020302020302020302020300A2020202D302E343533302020202D312E3132373020202020302E303030302043202020302020302020302020302020302020302020302020302020302020302020302020300A20202020302E323631352020202D302E3731343520202020302E303030302043202020302020302020302020302020302020302020302020302020302020302020302020300A20202020302E393736302020202D312E3132373020202020302E303030302043202020302020302020302020302020302020302020302020302020302020302020302020300A20202020312E363930352020202D302E3731343520202020302E303030302043202020302020302020302020302020302020302020302020302020302020302020302020300A20202020322E343034392020202D312E3132373020202020302E303030302043202020302020302020302020302020302020302020302020302020302020302020302020300A2020202D312E383831392020202D302E3330323020202020302E303030302043202020302020302020302020302020302020302020302020302020302020302020302020300A2020312020322020312020302020202020200A2020312020332020322020302020202020200A2020312020342020312020302020202020200A2020352020362020312020302020202020200A2020362020372020312020302020202020200A2020372020382020312020302020202020200A2020382020392020312020302020202020200A2020392031302020312020302020202020200A2031302031312020312020302020202020200A2031312031322020312020302020202020200A2020372031332020312020302020202020200A2020342020372020312020302020202020200A4D2020454E44
Contributor: TAJIMA S, GUNMA COLLEGE OF TECHNOLOGY
InstType: EI
InstName: HITACHI M-80B
IoniMethod: _ENERGY 70 eV
IonPolarity: pos
Date: 2010-10-09 19:48:36+02:00
Num Peaks: 37
15 27 27 94 28 20 29 172 39 70 41 211 42 40 43 999 44 23 45 41 
53 23 54 12 55 315 56 37 57 97 58 35 59 23 67 14 69 78 70 216 
71 134 72 16 73 501 74 20 83 62 84 12 85 36 96 12 97 98 98 15 
115 604 116 34 126 71 127 24 129 73 130 17 157 38 
