Name: ACETAMIDE
MW: 59
Formula: C2H5NO
Synonym: MassBank: JP001848
Synonym: ACETAMIDE
Structure: 310A31320A41434554414D4944452E6D6F6C0A20204368656D447261773036323431303035343732440A2020342020332020302020302020302020302020302020302020302020303939392056323030300A20202020302E3230363220202020302E3030303020202020302E303030302043202020302020302020302020302020302020302020302020302020302020302020302020300A20202020302E3631383820202020302E3731343520202020302E303030302043202020302020302020302020302020302020302020302020302020302020302020302020300A20202020302E363138382020202D302E3731343520202020302E30303030204F202020302020302020302020302020302020302020302020302020302020302020302020300A2020202D302E3631383820202020302E3030303020202020302E30303030204E202020302020302020302020302020302020302020302020302020302020302020302020300A2020312020322020312020302020202020200A2020312020332020322020302020202020200A2020312020342020312020302020202020200A4D2020454E44
Contributor: TAJIMA S, GUNMA COLLEGE OF TECHNOLOGY
InstType: EI
InstName: HITACHI RMU-7M
IoniMethod: _ENERGY 70 eV
IonPolarity: pos
Date: 2010-10-09 19:48:36+02:00
Num Peaks: 20
12 13 13 17 14 56 15 207 16 35 27 31 28 162 29 24 30 21 31 38 
38 61 39 109 40 323 41 625 42 294 43 562 44 746 45 20 59 999 60 61 
