Name: BETA-SITOSTEROL-METHYL ETHER
MW: 428
Formula: C30H52O
Synonym: MassBank: JP002706
Synonym: BETA-SITOSTEROL-METHYL ETHER
Structure: 424554412D5349544F535445524F4C2D4D455448594C2045544845522E6D6F6C0A20204368656D447261773039303531303138343732440A2033392034322020302020302020302020302020302020302020302020303939392056323030300A2020202D332E373239312020202D312E3337383920202020302E303030302043202020302020302020302020302020302020302020302020302020302020302020302020300A2020202D332E373239312020202D302E3535333920202020302E303030302043202020302020302020302020302020302020302020302020302020302020302020302020300A2020202D332E303134362020202D302E3134313420202020302E303030302043202020302020302020302020302020302020302020302020302020302020302020302020300A2020202D332E303134362020202D312E3739313420202020302E303030302043202020302020302020302020302020302020302020302020302020302020302020302020300A2020202D322E333030312020202D312E3337383920202020302E303030302043202020302020302020302020302020302020302020302020302020302020302020302020300A2020202D312E353835372020202D312E3739313420202020302E303030302043202020302020302020302020302020302020302020302020302020302020302020302020300A2020202D302E383731322020202D312E3337383920202020302E303030302043202020302020302020302020302020302020302020302020302020302020302020302020300A2020202D302E383731322020202D302E3535333920202020302E303030302043202020302020302020302020302020302020302020302020302020302020302020302020300A2020202D302E313536372020202D302E3134313420202020302E303030302043202020302020302020302020302020302020302020302020302020302020302020302020300A20202020302E363237392020202D302E3339363420202020302E303030302043202020302020302020302020302020302020302020302020302020302020302020302020300A20202020312E3131323820202020302E3237313120202020302E303030302043202020302020302020302020302020302020302020302020302020302020302020302020300A20202020302E3632373920202020302E3933383520202020302E303030302043202020302020302020302020302020302020302020302020302020302020302020302020300A20202020302E3838323820202020312E3732333120202020302E303030302043202020302020302020302020302020302020302020302020302020302020302020302020300A2020202D302E3135363720202020302E3638333620202020302E303030302043202020302020302020302020302020302020302020302020302020302020302020302020300A2020202D302E3135363720202020312E3530383620202020302E303030302043202020302020302020302020302020302020302020302020302020302020302020302020300A2020202D302E3837313220202020312E3039363120202020302E303030302043202020302020302020302020302020302020302020302020302020302020302020302020300A2020202D312E3538353720202020302E3638333620202020302E303030302043202020302020302020302020302020302020302020302020302020302020302020302020300A2020202D312E353835372020202D302E3134313420202020302E303030302043202020302020302020302020302020302020302020302020302020302020302020302020300A2020202D322E333030312020202D302E3535333920202020302E303030302043202020302020302020302020302020302020302020302020302020302020302020302020300A2020202D312E353835372020202D302E3936363420202020302E303030302043202020302020302020302020302020302020302020302020302020302020302020302020300A2020202D342E343433362020202D312E3739313420202020302E30303030204F202020302020302020302020302020302020302020302020302020302020302020302020300A2020202D322E3330303120202020302E3237313120202020302E303030302048202020302020302020302020302020302020302020302020302020302020302020302020300A2020202D302E313536372020202D302E3936363420202020302E303030302048202020302020302020302020302020302020302020302020302020302020302020302020300A20202020302E323535382020202D302E3835353920202020302E303030302048202020302020302020302020302020302020302020302020302020302020302020302020300A2020202D342E343433362020202D302E3936363420202020302E303030302048202020302020302020302020302020302020302020302020302020302020302020302020300A2020202D312E353835372020202D322E3631363420202020302E303030302048202020302020302020302020302020302020302020302020302020302020302020302020300A20202020312E3434323720202020312E3036373620202020302E303030302048202020302020302020302020302020302020302020302020302020302020302020302020300A20202020312E3039363320202020322E3532303020202020302E303030302048202020302020302020302020302020302020302020302020302020302020302020302020300A20202020312E3637333920202020312E3438383820202020302E303030302043202020302020302020302020302020302020302020302020302020302020302020302020300A20202020302E3039313820202020312E3935373420202020302E303030302043202020302020302020302020302020302020302020302020302020302020302020302020300A20202020322E3237323320202020322E3035363720202020302E303030302043202020302020302020302020302020302020302020302020302020302020302020302020300A20202020332E3036333320202020312E3832323420202020302E303030302043202020302020302020302020302020302020302020302020302020302020302020302020300A20202020332E3836303220202020312E3630383920202020302E303030302043202020302020302020302020302020302020302020302020302020302020302020302020300A20202020332E3238373220202020322E3631363420202020302E303030302048202020302020302020302020302020302020302020302020302020302020302020302020300A20202020322E3833393420202020312E3032383420202020302E303030302043202020302020302020302020302020302020302020302020302020302020302020302020300A20202020332E3431353020202020302E3433373420202020302E303030302043202020302020302020302020302020302020302020302020302020302020302020302020300A20202020342E3434333620202020322E3139323220202020302E303030302043202020302020302020302020302020302020302020302020302020302020302020302020300A20202020342E3037333720202020302E3831323020202020302E303030302043202020302020302020302020302020302020302020302020302020302020302020302020300A2020202D342E343433362020202D322E3631363420202020302E303030302043202020302020302020302020302020302020302020302020302020302020302020302020300A2020312020322020312020302020202020200A2020322020332020312020302020202020200A2020312020342020312020302020202020200A2020342020352020312020302020202020200A2020352020362020322020302020202020200A2020362020372020312020302020202020200A2020372020382020312020302020202020200A2020382020392020312020302020202020200A2020392031302020312020302020202020200A2031302031312020312020302020202020200A2031312031322020312020302020202020200A2031322031332020312020302020202020200A2031322031342020312020302020202020200A2020392031342020312020302020202020200A2031342031352020312020312020202020200A2031342031362020312020302020202020200A2031362031372020312020302020202020200A2031372031382020312020302020202020200A2020382031382020312020302020202020200A2031382031392020312020302020202020200A2020332031392020312020302020202020200A2020352031392020312020302020202020200A2031392032302020312020312020202020200A2020312032312020312020312020202020200A2031382032322020312020362020202020200A2020382032332020312020312020202020200A2020392032342020312020362020202020200A2020312032352020312020362020202020200A2020362032362020312020302020202020200A2031322032372020312020362020202020200A2031332032382020312020312020202020200A2031332032392020312020302020202020200A2031332033302020312020302020202020200A2032392033312020312020302020202020200A2033312033322020312020302020202020200A2033322033332020312020302020202020200A2033322033342020312020312020202020200A2033322033352020312020312020202020200A2033352033362020312020302020202020200A2033332033372020312020302020202020200A2033332033382020312020302020202020200A2032312033392020312020302020202020200A4D2020454E44
Contributor: HAYASHI A, DEPT. OF CHEMISTRY, FAC. OF SCI. AND TECHNOLOGY, KINKI UNIV.
InstType: EI
InstName: SHIMADZU LKB-9000B
IoniMethod: _ENERGY 70 eV
IonPolarity: pos
Date: 2010-10-09 19:48:36+02:00
Num Peaks: 262
39 24 41 265 42 43 43 527 44 23 45 44 52 22 53 5 55 440 56 33 
57 369 58 4 59 17 63 17 65 32 66 2 67 282 68 41 69 318 70 4 
71 491 72 37 73 62 75 2 77 108 78 39 79 322 80 6 81 534 82 77 
83 162 84 5 85 278 86 31 91 394 92 11 93 446 94 110 95 545 96 7 
97 243 98 44 99 68 103 4 104 45 105 519 106 184 107 69 108 207 109 350 
110 64 111 21 112 28 113 28 115 61 116 4 117 178 118 100 119 464 120 34 
121 476 122 121 123 205 124 5 125 77 127 27 128 55 129 12 130 66 131 312 
132 134 133 43 134 141 135 331 136 109 137 12 138 104 139 102 140 16 141 6 
142 48 143 217 144 104 145 61 146 205 147 421 148 145 149 21 150 49 151 74 
152 34 153 3 154 21 155 54 156 39 157 16 158 164 159 485 160 335 161 44 
162 120 163 267 164 51 165 6 166 22 167 20 169 32 170 2 171 137 172 75 
173 294 174 11 175 133 176 40 177 143 178 4 179 101 180 36 181 23 183 4 
184 18 185 143 186 75 187 151 188 50 189 111 190 59 191 11 192 79 193 51 
194 19 195 2 197 54 198 26 199 207 200 8 201 146 202 48 203 65 204 2 
205 80 206 24 209 16 210 2 211 31 212 28 213 487 214 15 215 344 216 118 
217 124 218 3 219 43 220 18 221 44 225 2 226 14 227 109 228 144 229 13 
230 56 231 47 232 17 233 5 234 45 235 39 239 28 240 2 241 76 242 30 
243 20 244 2 245 95 246 36 247 154 248 9 249 26 253 45 254 29 255 48 
256 122 257 52 258 20 259 3 260 34 261 55 262 34 269 3 271 26 273 49 
274 55 275 27 276 66 277 16 281 18 283 6 284 25 285 38 286 26 287 12 
288 76 289 33 290 41 297 2 299 17 301 28 302 100 303 33 304 95 305 13 
313 19 314 2 316 12 317 14 327 26 328 4 329 272 330 74 331 18 339 4 
340 10 341 43 342 39 343 3 351 14 352 15 353 43 354 24 355 130 356 68 
357 297 358 10 359 19 366 24 367 59 368 6 369 24 371 17 373 46 374 2 
379 18 381 685 382 223 383 89 384 24 385 17 386 27 394 3 395 33 398 77 
399 34 400 30 413 22 414 75 415 51 417 14 426 3 427 22 428 270 429 88 
430 7 431 25 
