Name: MassBank: JP006345
MW: 124
Formula: C8H12O
Synonym: MassBank: JP006345
Synonym: 2,6-DIMETHYL-2-CYCLOHEXENONE
Structure: 310A32330A322C362D44494D455448594C2D322D4359434C4F484558454E4F4E452E6D6F6C0A20204368656D447261773132323130393034323332440A2020392020392020302020302020302020302020302020302020302020303939392056323030300A2020202D302E343132352020202D302E3030303020202020302E303030302043202020302020302020302020302020302020302020302020302020302020302020302020300A20202020302E3030303020202020302E3731343520202020302E303030302043202020302020302020302020302020302020302020302020302020302020302020302020300A20202020302E3832353020202020302E3731343520202020302E303030302043202020302020302020302020302020302020302020302020302020302020302020302020300A20202020312E323337352020202D302E3030303020202020302E303030302043202020302020302020302020302020302020302020302020302020302020302020302020300A20202020302E383235302020202D302E3731343520202020302E303030302043202020302020302020302020302020302020302020302020302020302020302020302020300A20202020302E303030302020202D302E3731343520202020302E303030302043202020302020302020302020302020302020302020302020302020302020302020302020300A2020202D302E343132352020202D312E3432383920202020302E303030302043202020302020302020302020302020302020302020302020302020302020302020302020300A2020202D302E3431323520202020312E3432383920202020302E303030302043202020302020302020302020302020302020302020302020302020302020302020302020300A2020202D312E323337352020202D302E3030303020202020302E30303030204F202020302020302020302020302020302020302020302020302020302020302020302020300A2020312020322020312020302020202020200A2020322020332020322020302020202020200A2020332020342020312020302020202020200A2020342020352020312020302020202020200A2020352020362020312020302020202020200A2020312020362020312020302020202020200A2020362020372020312020302020202020200A2020322020382020312020302020202020200A2020312020392020322020302020202020200A4D2020454E44
Contributor: HISAHIRO HAGIWARA, CHEMICAL RESEARCH INSTITUTE OF NON-AQUEOUSSOLUTIONS TOHOKU UNIV.
InstType: EI
InstName: JEOL JMS-DX-300
IoniMethod: _ENERGY 70 eV
IonPolarity: pos
Date: 2010-10-09 19:48:36+02:00
Num Peaks: 41
31 15 32 164 37 18 38 15 39 148 41 112 42 16 43 1 44 11 45 23 
50 14 51 26 52 22 53 64 54 276 55 86 56 30 57 19 58 21 59 26 
63 10 65 26 67 42 68 26 69 88 70 17 73 52 77 17 79 32 81 36 
82 999 83 64 85 17 87 26 91 21 95 22 96 31 101 24 109 20 124 469 
125 51 
