Name: MassBank: JP004232
CAS: 5464-63-1
MW: 246
Formula: C11H18O6
Synonym: MassBank: JP004232
Synonym: 1,3,5-PENTANETRICARBOXYLIC ACID TRIMETHYLESTER
Structure: 312C332C352D50454E54414E45545249434152424F58594C49432041434944205452494D455448594C45535445522E6D6F6C0A20204368656D447261773131313130393137353932440A2031372031362020302020302020302020302020302020302020302020303939392056323030300A20202020312E3432383920202020302E3030303020202020302E303030302043202020302020302020302020302020302020302020302020302020302020302020302020300A20202020302E3731343520202020302E3431323520202020302E303030302043202020302020302020302020302020302020302020302020302020302020302020302020300A2020202D302E3030303020202020302E3030303020202020302E303030302043202020302020302020302020302020302020302020302020302020302020302020302020300A2020202D302E3731343520202020302E3431323520202020302E303030302043202020302020302020302020302020302020302020302020302020302020302020302020300A2020202D312E3432383920202020302E3030303020202020302E303030302043202020302020302020302020302020302020302020302020302020302020302020302020300A20202020322E3134333420202020302E3431323520202020302E303030302043202020302020302020302020302020302020302020302020302020302020302020302020300A20202020322E3134333420202020312E3233373520202020302E30303030204F202020302020302020302020302020302020302020302020302020302020302020302020300A20202020322E3835373920202020302E3030303020202020302E30303030204F202020302020302020302020302020302020302020302020302020302020302020302020300A2020202D302E303030302020202D302E3832353020202020302E303030302043202020302020302020302020302020302020302020302020302020302020302020302020300A2020202D302E373134352020202D312E3233373520202020302E30303030204F202020302020302020302020302020302020302020302020302020302020302020302020300A20202020302E373134352020202D312E3233373520202020302E30303030204F202020302020302020302020302020302020302020302020302020302020302020302020300A2020202D322E3134333420202020302E3431323520202020302E303030302043202020302020302020302020302020302020302020302020302020302020302020302020300A2020202D322E3134333420202020312E3233373520202020302E30303030204F202020302020302020302020302020302020302020302020302020302020302020302020300A2020202D322E3835373920202020302E3030303020202020302E30303030204F202020302020302020302020302020302020302020302020302020302020302020302020300A20202020322E383537392020202D302E3832353020202020302E303030302043202020302020302020302020302020302020302020302020302020302020302020302020300A20202020312E343238392020202D302E3832353020202020302E303030302043202020302020302020302020302020302020302020302020302020302020302020302020300A2020202D322E383537392020202D302E3832353020202020302E303030302043202020302020302020302020302020302020302020302020302020302020302020302020300A2020312020322020312020302020202020200A2020322020332020312020302020202020200A2020332020342020312020302020202020200A2020342020352020312020302020202020200A2020362020372020322020302020202020200A2020362020382020312020302020202020200A2020312020362020312020302020202020200A2020392031302020322020302020202020200A2020392031312020312020302020202020200A2020332020392020312020302020202020200A2031322031332020322020302020202020200A2031322031342020312020302020202020200A2020352031322020312020302020202020200A2020382031352020312020302020202020200A2031312031362020312020302020202020200A2031342031372020312020302020202020200A4D2020454E44
Contributor: KOGA M, UNIV. OF OCCUPATIONAL AND ENVIRONMENTAL HEALTH
InstType: EI
InstName: JEOL JMS-01-SG
IoniMethod: _ENERGY 70 eV
IonPolarity: pos
Date: 2010-10-09 19:48:36+02:00
Num Peaks: 47
42 107 43 190 53 95 54 6 55 642 57 35 58 83 67 35 68 59 69 71 
71 285 72 4 78 83 81 202 82 35 84 21 85 845 87 130 88 59 95 35 
99 71 100 702 101 47 109 5 111 95 112 47 113 928 114 5 122 250 123 607 
126 464 127 57 128 404 141 309 143 83 154 25 155 761 160 166 171 107 173 7 
182 71 183 35 186 999 187 39 214 166 215 761 216 47 
