Name: GENIPIN
CAS: 6902-77-8
MW: 226
Formula: C11H14O5
Synonym: MassBank: JP008182
Synonym: GENIPIN
Structure: 303438375F47454E4950494E2E6D6F6C0A20204368656D447261773130313931303231343332440A2031382031392020302020302020302020302020302020302020302020303939392056323030300A2020202D302E3939323020202020302E3431313220202020302E30303030204F202020302020302020302020302020302020302020302020302020302020302020302020300A2020202D302E393932302020202D302E3431333820202020302E303030302043202020302020302020302020302020302020302020302020302020302020302020302020300A2020202D302E323737352020202D302E3832363320202020302E303030302043202020302020302020302020302020302020302020302020302020302020302020302020300A20202020302E343336392020202D302E3431333820202020302E303030302043202020302020302020302020302020302020302020302020302020302020302020302020300A20202020302E3433363920202020302E3431313220202020302E303030302043202020302020302020302020302020302020302020302020302020302020302020302020300A2020202D302E3237373520202020302E3832333720202020302E303030302043202020302020302020302020302020302020302020302020302020302020302020302020300A20202020312E323231362020202D302E3636383820202020302E303030302043202020302020302020302020302020302020302020302020302020302020302020302020300A20202020312E373036352020202D302E3030313320202020302E303030302043202020302020302020302020302020302020302020302020302020302020302020302020300A20202020312E3232313620202020302E3636363120202020302E303030302043202020302020302020302020302020302020302020302020302020302020302020302020300A20202020312E3437363520202020312E3435303720202020302E303030302043202020302020302020302020302020302020302020302020302020302020302020302020300A20202020302E3932343520202020322E3036333820202020302E30303030204F202020302020302020302020302020302020302020302020302020302020302020302020300A2020202D302E323737352020202D312E3635313320202020302E303030302043202020302020302020302020302020302020302020302020302020302020302020302020300A20202020302E343336392020202D322E3036333820202020302E30303030204F202020302020302020302020302020302020302020302020302020302020302020302020300A2020202D302E393932302020202D322E3036333820202020302E30303030204F202020302020302020302020302020302020302020302020302020302020302020302020300A2020202D312E373036352020202D312E3635313320202020302E303030302043202020302020302020302020302020302020302020302020302020302020302020302020300A20202020302E353233322020202D312E3233343320202020302E303030302048202020302020302020302020302020302020302020302020302020302020302020302020300A20202020302E3532333220202020312E3233313720202020302E303030302048202020302020302020302020302020302020302020302020302020302020302020302020300A2020202D302E3237373520202020312E3634383720202020302E30303030204F202020302020302020302020302020302020302020302020302020302020302020302020300A2020312020322020312020302020202020200A2020322020332020322020302020202020200A2020332020342020312020302020202020200A2020342020352020312020302020202020200A2020352020362020312020302020202020200A2020362020312020312020302020202020200A2020342020372020312020302020202020200A2020372020382020312020302020202020200A2020382020392020322020302020202020200A2020392020352020312020302020202020200A2020392031302020312020302020202020200A2031302031312020312020302020202020200A2020332031322020312020302020202020200A2031322031332020322020302020202020200A2031322031342020312020302020202020200A2031342031352020312020302020202020200A2020342031362020312020312020202020200A2020352031372020312020312020202020200A2020362031382020312020312020202020200A4D2020454E44
Contributor: NARA WOMEN'S UNIVERSITY
InstType: EI
InstName: HITACHI M-80
IoniMethod: _ENERGY 70 eV
IonPolarity: pos
Date: 2010-10-09 19:48:36+02:00
Num Peaks: 132
14 36 15 418 18 22 19 22 26 44 27 304 29 512 30 37 31 336 33 61 
37 20 38 72 39 614 40 128 41 498 42 158 43 275 44 35 45 79 46 18 
47 24 50 122 51 363 52 147 53 384 54 85 55 255 56 19 57 53 59 204 
60 25 61 55 62 45 63 145 64 44 65 343 66 209 67 364 68 146 69 132 
70 44 71 195 72 13 73 13 74 90 75 39 76 29 77 578 78 777 79 473 
80 120 81 327 82 94 83 64 84 13 85 27 86 15 87 11 89 66 90 69 
91 999 92 204 93 106 94 76 95 302 96 400 97 80 98 37 99 39 100 14 
101 18 102 68 103 145 104 73 105 205 106 195 107 193 108 60 109 58 110 24 
111 36 117 24 118 58 119 456 120 632 121 213 123 38 124 124 125 29 127 21 
128 30 129 14 130 55 131 110 132 23 133 28 134 23 135 111 136 38 137 51 
138 21 139 74 140 12 146 26 147 431 148 798 149 173 150 24 151 58 152 31 
158 27 159 22 161 15 162 219 163 43 164 17 165 65 166 22 175 73 176 349 
177 98 178 16 179 69 180 266 181 32 190 166 191 26 194 37 195 63 208 75 
209 13 226 40 
