Name: MassBank: JP005151
MW: 650
Formula: C30H54O6Si5
Synonym: MassBank: JP005151
Synonym: 2(R)-(3,4-DI(TRIMETHYLSILYLOXY)PHENYL)-3,5,7-TRI(TRIMETHYLSILYLOXY)-3(S),4-DIHYDRO-2H-1-BENZOPYRAN
Synonym: PENTA-TMS-CATECHIN
Structure: 322852292D28332C342D4449285452494D455448594C53494C594C4F5859295048454E594C292D332C352C372D545249285452494D455448594C53494C594C4F5859292D332853292C342D4449485944524F2D32482D312D42454E5A4F505952414E2E6D6F6C0A20204368656D447261773132313930393033303432440A2034332034352020302020302020302020302020302020302020302020303939392056323030300A2020202D302E3032313520202020302E3337303820202020302E303030302043202020302020302020302020302020302020302020302020302020302020302020302020300A2020202D302E303231352020202D302E3435343220202020302E303030302043202020302020302020302020302020302020302020302020302020302020302020302020300A20202020302E363932392020202D302E3836363720202020302E303030302043202020302020302020302020302020302020302020302020302020302020302020302020300A20202020312E343037342020202D302E3435343220202020302E303030302043202020302020302020302020302020302020302020302020302020302020302020302020300A20202020312E3430373420202020302E3337303820202020302E303030302043202020302020302020302020302020302020302020302020302020302020302020302020300A20202020302E3639323920202020302E3738333320202020302E30303030204F202020302020302020302020302020302020302020302020302020302020302020302020300A20202020322E313231392020202D302E3836363720202020302E303030302043202020302020302020302020302020302020302020302020302020302020302020302020300A20202020322E383336332020202D302E3435343220202020302E303030302043202020302020302020302020302020302020302020302020302020302020302020302020300A20202020322E3833363320202020302E3337303820202020302E303030302043202020302020302020302020302020302020302020302020302020302020302020302020300A20202020322E3132313920202020302E3738333320202020302E303030302043202020302020302020302020302020302020302020302020302020302020302020302020300A2020202D302E3831383420202020302E3538343320202020302E303030302043202020302020302020302020302020302020302020302020302020302020302020302020300A2020202D312E3033323020202020312E3338313220202020302E303030302043202020302020302020302020302020302020302020302020302020302020302020302020300A2020202D312E3832383820202020312E3539343720202020302E303030302043202020302020302020302020302020302020302020302020302020302020302020302020300A2020202D322E3431323220202020312E3031313420202020302E303030302043202020302020302020302020302020302020302020302020302020302020302020302020300A2020202D322E3139383720202020302E3231343520202020302E303030302043202020302020302020302020302020302020302020302020302020302020302020302020300A2020202D312E3430313820202020302E3030313020202020302E303030302043202020302020302020302020302020302020302020302020302020302020302020302020300A2020202D332E3230393120202020312E3232343920202020302E30303030204F202020302020302020302020302020302020302020302020302020302020302020302020300A2020202D332E3432323620202020322E3032313820202020302E303030302043202020302020302020302020302020302020302020302020302020302020302020302020300A2020202D332E3633363120202020322E3831383720202020302E303030302043202020302020302020302020302020302020302020302020302020302020302020302020300A2020202D322E3632353720202020322E3233353320202020302E303030302043202020302020302020302020302020302020302020302020302020302020302020302020300A2020202D342E3231393520202020312E3830383320202020302E303030302043202020302020302020302020302020302020302020302020302020302020302020302020300A2020202D322E373832302020202D302E3336383920202020302E30303030204F202020302020302020302020302020302020302020302020302020302020302020302020300A2020202D332E353738392020202D302E3135353420202020302E303030302043202020302020302020302020302020302020302020302020302020302020302020302020300A2020202D342E3337353820202020302E3035383220202020302E303030302043202020302020302020302020302020302020302020302020302020302020302020302020300A2020202D332E3336353420202020302E3634313520202020302E303030302043202020302020302020302020302020302020302020302020302020302020302020302020300A2020202D332E373932352020202D302E3935323220202020302E303030302043202020302020302020302020302020302020302020302020302020302020302020302020300A2020202D302E383436352020202D302E3435343220202020302E303030302048202020302020302020302020302020302020302020302020302020302020302020302020300A2020202D302E323335312020202D312E3235313120202020302E30303030204F202020302020302020302020302020302020302020302020302020302020302020302020300A2020202D312E303332302020202D312E3436343620202020302E303030302043202020302020302020302020302020302020302020302020302020302020302020302020300A2020202D312E383238382020202D312E3637383120202020302E303030302043202020302020302020302020302020302020302020302020302020302020302020302020300A2020202D312E323435352020202D302E3636373720202020302E303030302043202020302020302020302020302020302020302020302020302020302020302020302020300A2020202D302E383138342020202D322E3236313520202020302E303030302043202020302020302020302020302020302020302020302020302020302020302020302020300A20202020322E313231392020202D312E3639313720202020302E30303030204F202020302020302020302020302020302020302020302020302020302020302020302020300A20202020312E343037342020202D322E3130343220202020302E303030302043202020302020302020302020302020302020302020302020302020302020302020302020300A20202020302E363932392020202D322E3531363720202020302E303030302043202020302020302020302020302020302020302020302020302020302020302020302020300A20202020302E393934392020202D312E3338393720202020302E303030302043202020302020302020302020302020302020302020302020302020302020302020302020300A20202020312E383139392020202D322E3831383720202020302E303030302043202020302020302020302020302020302020302020302020302020302020302020302020300A20202020332E3535303820202020302E3738333320202020302E30303030204F202020302020302020302020302020302020302020302020302020302020302020302020300A20202020332E3535303820202020312E3630383320202020302E303030302043202020302020302020302020302020302020302020302020302020302020302020302020300A20202020332E3535303820202020322E3433333320202020302E303030302043202020302020302020302020302020302020302020302020302020302020302020302020300A20202020342E3337353820202020312E3630383320202020302E303030302043202020302020302020302020302020302020302020302020302020302020302020302020300A20202020322E3732353820202020312E3630383320202020302E303030302043202020302020302020302020302020302020302020302020302020302020302020302020300A2020202D302E3233353120202020312E3136373720202020302E303030302048202020302020302020302020302020302020302020302020302020302020302020302020300A2020312020322020312020302020202020200A2020322020332020312020302020202020200A2020332020342020312020302020202020200A2020342020352020322020302020202020200A2020352020362020312020302020202020200A2020362020312020312020302020202020200A2020342020372020312020302020202020200A2020372020382020322020302020202020200A2020382020392020312020302020202020200A2020392031302020322020302020202020200A2031302020352020312020302020202020200A2020312031312020312020312020202020200A2031312031322020322020302020202020200A2031322031332020312020302020202020200A2031332031342020322020302020202020200A2031342031352020312020302020202020200A2031352031362020322020302020202020200A2031362031312020312020302020202020200A2031342031372020312020302020202020200A2031372031382020312020302020202020200A2031382031392020312020302020202020200A2031382032302020312020312020202020200A2031382032312020312020312020202020200A2031352032322020312020302020202020200A2032322032332020312020302020202020200A2032332032342020312020302020202020200A2032332032352020312020312020202020200A2032332032362020312020312020202020200A2020322032372020312020312020202020200A2020322032382020312020362020202020200A2032382032392020312020302020202020200A2032392033302020312020302020202020200A2032392033312020312020312020202020200A2032392033322020312020312020202020200A2020372033332020312020302020202020200A2033332033342020312020302020202020200A2033342033352020312020302020202020200A2033342033362020312020312020202020200A2033342033372020312020312020202020200A2020392033382020312020302020202020200A2033382033392020312020302020202020200A2033392034302020312020302020202020200A2033392034312020312020312020202020200A2033392034322020312020312020202020200A2020312034332020312020362020202020200A4D2020454E44
Contributor: HAYASHI A, FAC. OF SCIENCE AND TECHNOLOGY, KINKI UNIV.
InstType: EI
InstName: JEOL JMS-HX-100
IoniMethod: _ENERGY 70 eV
IonPolarity: pos
Date: 2010-10-09 19:48:36+02:00
Num Peaks: 80
75 14 103 3 105 4 133 10 135 4 147 31 148 6 149 6 177 4 179 64 
180 11 181 5 191 12 192 4 193 8 205 5 206 4 207 4 209 3 221 9 
223 4 235 3 237 5 239 5 249 16 250 5 251 7 252 4 253 6 254 5 
263 3 265 17 266 6 267 80 268 20 269 8 279 5 280 49 281 38 282 16 
283 20 284 6 291 3 293 6 294 8 295 7 296 7 307 5 317 5 325 6 
339 6 352 5 353 14 354 7 355 293 356 99 357 46 358 12 359 4 368 999 
369 362 370 178 371 43 372 11 383 54 384 18 385 9 461 12 560 17 561 11 
562 6 577 9 635 26 636 16 637 9 650 182 651 104 652 60 653 25 654 8 
