Name: MassBank: JP004577
MW: 351
Formula: C21H21NO2S
Synonym: MassBank: JP004577
Synonym: 2-(2,2-DIMETHYL-4,6-DIOXO-6-PHENYLHEXYL)BENZOTHIAZOLE
Structure: 322D28322C322D44494D455448594C2D342C362D44494F584F2D362D5048454E594C484558594C2942454E5A4F544849415A4F4C452E6D6F6C0A20204368656D447261773132323130393036303032440A2032352032372020302020302020302020302020302020302020302020303939392056323030300A2020202D312E383136392020202D312E3036333520202020302E303030302053202020302020302020302020302020302020302020302020302020302020302020302020300A2020202D312E333332302020202D312E3733303920202020302E303030302043202020302020302020302020302020302020302020302020302020302020302020302020300A2020202D312E383136392020202D322E3339383420202020302E30303030204E202020302020302020302020302020302020302020302020302020302020302020302020300A2020202D322E363031362020202D322E3134333420202020302E303030302043202020302020302020302020302020302020302020302020302020302020302020302020300A2020202D322E363031362020202D312E3331383420202020302E303030302043202020302020302020302020302020302020302020302020302020302020302020302020300A2020202D332E333136302020202D322E3535353920202020302E303030302043202020302020302020302020302020302020302020302020302020302020302020302020300A2020202D342E303330352020202D322E3134333420202020302E303030302043202020302020302020302020302020302020302020302020302020302020302020302020300A2020202D342E303330352020202D312E3331383420202020302E303030302043202020302020302020302020302020302020302020302020302020302020302020302020300A2020202D332E333136302020202D302E3930353920202020302E303030302043202020302020302020302020302020302020302020302020302020302020302020302020300A2020202D302E353037302020202D312E3733303920202020302E303030302043202020302020302020302020302020302020302020302020302020302020302020302020300A2020202D302E303934352020202D312E3031363420202020302E303030302043202020302020302020302020302020302020302020302020302020302020302020302020300A20202020302E333138302020202D302E3330323020202020302E303030302043202020302020302020302020302020302020302020302020302020302020302020302020300A20202020312E313433302020202D302E3330323020202020302E303030302043202020302020302020302020302020302020302020302020302020302020302020302020300A20202020312E3535353520202020302E3431323520202020302E303030302043202020302020302020302020302020302020302020302020302020302020302020302020300A20202020322E3338303520202020302E3431323520202020302E303030302043202020302020302020302020302020302020302020302020302020302020302020302020300A20202020322E3739333020202020312E3132373020202020302E303030302043202020302020302020302020302020302020302020302020302020302020302020302020300A20202020322E3338303520202020312E3834313420202020302E303030302043202020302020302020302020302020302020302020302020302020302020302020302020300A20202020322E3739333020202020322E3535353920202020302E303030302043202020302020302020302020302020302020302020302020302020302020302020302020300A20202020332E3631383020202020322E3535353920202020302E303030302043202020302020302020302020302020302020302020302020302020302020302020302020300A20202020342E3033303520202020312E3834313420202020302E303030302043202020302020302020302020302020302020302020302020302020302020302020302020300A20202020332E3631383020202020312E3132373020202020302E303030302043202020302020302020302020302020302020302020302020302020302020302020302020300A20202020322E373933302020202D302E3330323020202020302E30303030204F202020302020302020302020302020302020302020302020302020302020302020302020300A20202020312E353535352020202D312E3031363420202020302E30303030204F202020302020302020302020302020302020302020302020302020302020302020302020300A20202020302E363230302020202D312E3432383920202020302E303030302043202020302020302020302020302020302020302020302020302020302020302020302020300A2020202D302E383039302020202D302E3630333920202020302E303030302043202020302020302020302020302020302020302020302020302020302020302020302020300A2020312020322020312020302020202020200A2020322020332020322020302020202020200A2020332020342020312020302020202020200A2020342020352020312020302020202020200A2020312020352020312020302020202020200A2020362020372020312020302020202020200A2020372020382020322020302020202020200A2020382020392020312020302020202020200A2020352020392020322020302020202020200A2020342020362020322020302020202020200A2031302031312020312020302020202020200A2031312031322020312020302020202020200A2031322031332020312020302020202020200A2031332031342020312020302020202020200A2031342031352020312020302020202020200A2031362031372020312020302020202020200A2031372031382020322020302020202020200A2031382031392020312020302020202020200A2031392032302020322020302020202020200A2032302032312020312020302020202020200A2031362032312020322020302020202020200A2031352031362020312020302020202020200A2031352032322020322020302020202020200A2031332032332020322020302020202020200A2031312032342020312020312020202020200A2031312032352020312020312020202020200A2020322031302020312020302020202020200A4D2020454E44
Contributor: HAYASHI A, DEPT. OF CHEMISTRY, FAC. OF SCI. AND TECHNOLOGY, KINKI UNIV.
InstType: EI
InstName: JEOL JMS-HX-100
IoniMethod: _ENERGY 70 eV
IonPolarity: pos
Date: 2010-10-09 19:48:36+02:00
Num Peaks: 38
39 42 41 50 43 23 45 73 51 48 55 68 63 22 65 44 69 314 77 243 
78 28 83 82 91 31 104 27 105 307 106 26 108 56 109 46 147 117 148 78 
149 871 150 108 151 50 161 30 162 23 172 20 174 37 175 22 188 26 189 52 
190 999 191 150 192 59 204 21 216 29 278 23 351 95 352 24 
