Name: ISOVALERALDEHYDE ISOBUTYL ISOPENTYL ACETAL
MW: 230
Formula: C14H30O2
Synonym: MassBank: JP009258
Synonym: ISOVALERALDEHYDE ISOBUTYL ISOPENTYL ACETAL
Synonym: ISOVALERALDEHYDE ISOAMYL ISOBUTYL ACETAL
Structure: 49534F56414C4552414C4445485944452049534F425554594C2049534F50454E54594C2041434554414C2E6D6F6C0A20204368656D447261773038313131303231353732440A2031362031352020302020302020302020302020302020302020302020303939392056323030300A20202020302E333537322020202D302E3431323520202020302E303030302043202020302020302020302020302020302020302020302020302020302020302020302020300A20202020302E3335373220202020302E3431323520202020302E303030302043202020302020302020302020302020302020302020302020302020302020302020302020300A20202020312E3037313720202020302E3832353020202020302E303030302043202020302020302020302020302020302020302020302020302020302020302020302020300A20202020312E3037313720202020312E3635303020202020302E303030302043202020302020302020302020302020302020302020302020302020302020302020302020300A20202020312E3738363220202020302E3431323520202020302E303030302043202020302020302020302020302020302020302020302020302020302020302020302020300A2020202D302E333537322020202D302E3832353020202020302E30303030204F202020302020302020302020302020302020302020302020302020302020302020302020300A20202020312E303731372020202D302E3832353020202020302E30303030204F202020302020302020302020302020302020302020302020302020302020302020302020300A2020202D312E303731372020202D302E3431323520202020302E303030302043202020302020302020302020302020302020302020302020302020302020302020302020300A2020202D312E373836322020202D302E3832353020202020302E303030302043202020302020302020302020302020302020302020302020302020302020302020302020300A2020202D322E353030362020202D302E3431323520202020302E303030302043202020302020302020302020302020302020302020302020302020302020302020302020300A2020202D332E323135312020202D302E3832353020202020302E303030302043202020302020302020302020302020302020302020302020302020302020302020302020300A2020202D322E3530303620202020302E3431323520202020302E303030302043202020302020302020302020302020302020302020302020302020302020302020302020300A20202020312E373836322020202D302E3431323520202020302E303030302043202020302020302020302020302020302020302020302020302020302020302020302020300A20202020322E353030362020202D302E3832353020202020302E303030302043202020302020302020302020302020302020302020302020302020302020302020302020300A20202020332E323135312020202D302E3431323520202020302E303030302043202020302020302020302020302020302020302020302020302020302020302020302020300A20202020322E353030362020202D312E3635303020202020302E303030302043202020302020302020302020302020302020302020302020302020302020302020302020300A2020312020322020312020302020202020200A2020322020332020312020302020202020200A2020332020342020312020302020202020200A2020332020352020312020302020202020200A2020382020392020312020302020202020200A2020392031302020312020302020202020200A2031302031312020312020302020202020200A2031302031322020312020302020202020200A2020362020382020312020302020202020200A2031332031342020312020302020202020200A2031342031352020312020302020202020200A2031342031362020312020302020202020200A2020372031332020312020302020202020200A2020312020362020312020302020202020200A2020312020372020312020302020202020200A4D2020454E44
Contributor: SODA AROMATIC CO., LTD.
InstType: EI
InstName: HITACHI M-80B
IoniMethod: _ENERGY 70 eV
IonPolarity: pos
Date: 2010-10-09 19:48:36+02:00
Num Peaks: 30
27 105 28 11 29 213 31 2 39 69 40 12 41 349 42 5 43 656 44 36 
45 54 53 1 55 107 56 53 57 879 58 4 69 153 70 28 71 999 72 6 
85 26 87 126 103 12 117 9 143 150 144 15 157 197 158 2 173 122 174 12 
