Name: DIHYDROCARVEOL
MW: 154
Formula: C10H18O
Synonym: MassBank: JP008374
Synonym: DIHYDROCARVEOL
Synonym: 2-METHYL-5-(1-METHYLETHENYL)CYCLOHEXANOL
Structure: 4449485944524F43415256454F4C2E6D6F6C0A20204368656D447261773031323231303037303132440A2031312031312020302020302020302020302020302020302020302020303939392056323030300A20202020302E333537322020202D302E3631383820202020302E303030302043202020302020302020302020302020302020302020302020302020302020302020302020300A20202020302E3335373220202020302E3230363220202020302E303030302043202020302020302020302020302020302020302020302020302020302020302020302020300A2020202D302E3335373220202020302E3631383820202020302E303030302043202020302020302020302020302020302020302020302020302020302020302020302020300A2020202D302E3335373220202020312E3434333720202020302E303030302043202020302020302020302020302020302020302020302020302020302020302020302020300A2020202D312E3037313720202020312E3835363220202020302E303030302043202020302020302020302020302020302020302020302020302020302020302020302020300A20202020302E3335373220202020312E3835363320202020302E303030302043202020302020302020302020302020302020302020302020302020302020302020302020300A2020202D312E3037313720202020302E3230363220202020302E303030302043202020302020302020302020302020302020302020302020302020302020302020302020300A2020202D312E303731372020202D302E3631383820202020302E303030302043202020302020302020302020302020302020302020302020302020302020302020302020300A2020202D302E333537322020202D312E3033313320202020302E303030302043202020302020302020302020302020302020302020302020302020302020302020302020300A2020202D302E333537322020202D312E3835363320202020302E303030302043202020302020302020302020302020302020302020302020302020302020302020302020300A20202020312E303731372020202D312E3033313320202020302E30303030204F202020302020302020302020302020302020302020302020302020302020302020302020300A2020312020322020312020302020202020200A2020322020332020312020302020202020200A2020332020342020312020302020202020200A2020342020352020322020302020202020200A2020342020362020312020302020202020200A2020332020372020312020302020202020200A2020372020382020312020302020202020200A2020382020392020312020302020202020200A2020392031302020312020302020202020200A2020312020392020312020302020202020200A2020312031312020312020302020202020200A4D2020454E44
Contributor: SODA AROMATIC CO., LTD.
InstType: EI
InstName: HITACHI M-80B
IoniMethod: _ENERGY 70 eV
IonPolarity: pos
Date: 2010-10-09 19:48:36+02:00
Num Peaks: 69
15 26 26 13 27 361 28 46 29 348 30 19 31 77 38 16 39 588 40 126 
41 999 42 132 43 610 44 76 45 58 50 20 51 68 52 43 53 374 54 71 
55 652 56 195 57 231 58 235 59 67 63 24 65 77 66 56 67 575 68 585 
69 556 70 256 71 253 72 115 77 139 78 29 79 567 80 196 81 751 82 250 
83 237 84 168 85 35 91 115 92 291 93 895 94 455 95 305 96 196 97 373 
98 57 99 15 105 35 106 13 107 780 108 179 109 35 110 41 111 191 112 29 
121 783 122 68 123 28 125 12 135 13 136 677 137 70 139 39 154 27 
