Name: PHENSUXIMIDE
MW: 189
Formula: C11H11NO2
Synonym: MassBank: JP003824
Synonym: PHENSUXIMIDE
Structure: 5048454E535558494D4944452E6D6F6C0A20204368656D447261773131313930393136333632440A2031342031352020302020302020302020302020302020302020302020303939392056323030300A20202020312E3533383620202020302E3133353220202020302E30303030204E202020302020302020302020302020302020302020302020302020302020302020302020300A20202020302E3735333920202020302E3339303120202020302E303030302043202020302020302020302020302020302020302020302020302020302020302020302020300A20202020302E323639302020202D302E3237373320202020302E303030302043202020302020302020302020302020302020302020302020302020302020302020302020300A20202020302E373533392020202D302E3934343820202020302E303030302043202020302020302020302020302020302020302020302020302020302020302020302020300A20202020312E353338362020202D302E3638393820202020302E303030302043202020302020302020302020302020302020302020302020302020302020302020302020300A20202020302E3439393020202020312E3137343720202020302E30303030204F202020302020302020302020302020302020302020302020302020302020302020302020300A20202020322E323036302020202D312E3137343720202020302E30303030204F202020302020302020302020302020302020302020302020302020302020302020302020300A2020202D302E353536302020202D302E3237373320202020302E303030302043202020302020302020302020302020302020302020302020302020302020302020302020300A2020202D302E3936383520202020302E3433373220202020302E303030302043202020302020302020302020302020302020302020302020302020302020302020302020300A2020202D312E3739333520202020302E3433373220202020302E303030302043202020302020302020302020302020302020302020302020302020302020302020302020300A2020202D322E323036302020202D302E3237373320202020302E303030302043202020302020302020302020302020302020302020302020302020302020302020302020300A2020202D312E373933352020202D302E3939313820202020302E303030302043202020302020302020302020302020302020302020302020302020302020302020302020300A2020202D302E393638352020202D302E3939313820202020302E303030302043202020302020302020302020302020302020302020302020302020302020302020302020300A20202020322E3230363020202020302E3632303120202020302E303030302043202020302020302020302020302020302020302020302020302020302020302020302020300A2020312020322020312020302020202020200A2020322020332020312020302020202020200A2020332020342020312020302020202020200A2020342020352020312020302020202020200A2020312020352020312020302020202020200A2020322020362020322020302020202020200A2020352020372020322020302020202020200A2020382020392020312020302020202020200A2020392031302020322020302020202020200A2031302031312020312020302020202020200A2031312031322020322020302020202020200A2031322031332020312020302020202020200A2020382031332020322020302020202020200A2020332020382020312020302020202020200A2020312031342020312020302020202020200A4D2020454E44
Contributor: SASAKI S, TOYOHASHI UNIV. OF TECH.
InstType: EI
InstName: Unknown
IoniMethod: _ENERGY 70 eV
IonPolarity: pos
Date: 2010-10-09 19:48:36+02:00
Num Peaks: 31
26 19 27 49 28 49 29 2 39 59 42 14 50 59 51 14 52 49 56 24 
57 9 58 1 62 24 63 44 64 14 65 0 74 29 75 24 76 34 77 13 
78 134 79 14 89 24 90 1 91 14 102 44 103 174 104 999 105 124 189 259 
190 29 
