Name: MassBank: JP001152
MW: 222
Formula: C13H18O3
Synonym: MassBank: JP001152
Synonym: METHYL 3-ETHYL-4-OXOTRICYCLO(4.3.0.0(1,5))NONANE-5-CARBOXYLATE
Structure: 303231345F4D455448594C20332D455448594C2D342D4F584F5452494359434C4F28342E332E302E3028312C3529294E4F4E414E452D352D434152424F58594C4154452E6D6F6C0A20204368656D447261773039303631303135323532440A2031362031382020302020302020302020302020302020302020302020303939392056323030300A2020202D302E3230313220202020302E3433323520202020302E303030302043202020302020302020302020302020302020302020302020302020302020302020302020300A20202020302E3630353820202020302E3236313020202020302E303030302043202020302020302020302020302020302020302020302020302020302020302020302020300A20202020302E363932312020202D302E3535393520202020302E303030302043202020302020302020302020302020302020302020302020302020302020302020302020300A2020202D302E303631362020202D302E3839353120202020302E303030302043202020302020302020302020302020302020302020302020302020302020302020302020300A2020202D302E363133372020202D302E3238323020202020302E303030302043202020302020302020302020302020302020302020302020302020302020302020302020300A2020202D312E3032363220202020302E3433323520202020302E303030302043202020302020302020302020302020302020302020302020302020302020302020302020300A2020202D312E3238313120202020312E3231373120202020302E303030302043202020302020302020302020302020302020302020302020302020302020302020302020300A2020202D302E3631333720202020312E3730323020202020302E303030302043202020302020302020302020302020302020302020302020302020302020302020302020300A20202020302E3035333820202020312E3231373120202020302E303030302043202020302020302020302020302020302020302020302020302020302020302020302020300A2020202D312E323831312020202D302E3736363920202020302E303030302043202020302020302020302020302020302020302020302020302020302020302020302020300A2020202D312E313934392020202D312E3538373420202020302E30303030204F202020302020302020302020302020302020302020302020302020302020302020302020300A2020202D322E303334382020202D302E3433313320202020302E30303030204F202020302020302020302020302020302020302020302020302020302020302020302020300A2020202D302E323333312020202D312E3730323020202020302E30303030204F202020302020302020302020302020302020302020302020302020302020302020302020300A20202020312E343036352020202D302E3937323020202020302E303030302043202020302020302020302020302020302020302020302020302020302020302020302020300A20202020322E313231302020202D302E3535393520202020302E303030302043202020302020302020302020302020302020302020302020302020302020302020302020300A2020202D322E3132313020202020302E3338393120202020302E303030302043202020302020302020302020302020302020302020302020302020302020302020302020300A2020312020322020312020302020202020200A2020322020332020312020302020202020200A2020332020342020312020302020202020200A2020342020352020312020302020202020200A2020352020362020312020302020202020200A2020362020372020312020302020202020200A2020372020382020312020302020202020200A2020382020392020312020302020202020200A2020312020392020312020302020202020200A2020312020362020312020302020202020200A2020312020352020312020302020202020200A2031302031312020322020302020202020200A2031302031322020312020302020202020200A2020352031302020312020302020202020200A2020342031332020322020302020202020200A2031342031352020312020302020202020200A2020332031342020312020302020202020200A2031322031362020312020302020202020200A4D2020454E44
Contributor: NAKAYAMA M, MASS SPECTROSCOPY SOC. OF JAPAN (MSSJ)
InstType: EI
InstName: HITACHI RMU-6L
IoniMethod: _ENERGY 70 eV
IonPolarity: pos
Date: 2010-10-09 19:48:36+02:00
Num Peaks: 57
40 60 41 280 42 60 43 80 45 60 51 120 52 100 53 160 54 60 55 240 
59 130 65 140 66 120 67 180 68 70 69 100 77 320 78 160 79 380 80 100 
81 120 83 100 91 300 92 160 93 700 94 120 105 160 106 170 107 150 108 80 
119 90 120 120 121 110 122 60 123 80 133 120 134 360 135 150 137 100 138 110 
151 90 152 540 153 100 161 110 162 400 163 180 165 130 166 999 167 130 190 390 
191 390 194 800 195 150 196 50 221 50 222 120 223 40 
