Name: MassBank: JP007934
MW: 216
Formula: C12H12N2O2
Synonym: MassBank: JP007934
Synonym: 1,2,3,4-TETRAHYDRO-1H-PIRIDO(3,4-B)INDOLE-3-CARBOXILIC ACID
Structure: 312C322C332C342D5445545241485944524F2D31482D50495249444F28332C342D4229494E444F4C452D332D434152424F58494C494320414349442E6D6F6C0A20204368656D447261773130323330393132343732440A2031372031392020302020302020302020302020302020302020302020303939392056323030300A2020202D312E3637323820202020302E3037313320202020302E303030302043202020302020302020302020302020302020302020302020302020302020302020302020300A2020202D312E363732382020202D302E3735333720202020302E30303030204E202020302020302020302020302020302020302020302020302020302020302020302020300A2020202D302E393538342020202D312E3136363220202020302E303030302043202020302020302020302020302020302020302020302020302020302020302020302020300A2020202D302E323433392020202D302E3735333720202020302E303030302043202020302020302020302020302020302020302020302020302020302020302020302020300A2020202D302E3234333920202020302E3037313320202020302E303030302043202020302020302020302020302020302020302020302020302020302020302020302020300A2020202D302E3935383420202020302E3438333820202020302E303030302043202020302020302020302020302020302020302020302020302020302020302020302020300A20202020302E353430372020202D312E3030383620202020302E30303030204E202020302020302020302020302020302020302020302020302020302020302020302020300A20202020312E303235372020202D302E3334313220202020302E303030302043202020302020302020302020302020302020302020302020302020302020302020302020300A20202020302E3534303720202020302E3332363320202020302E303030302043202020302020302020302020302020302020302020302020302020302020302020302020300A20202020312E383436312020202D302E3235343920202020302E303030302043202020302020302020302020302020302020302020302020302020302020302020302020300A20202020322E3138313720202020302E3439383720202020302E303030302043202020302020302020302020302020302020302020302020302020302020302020302020300A20202020312E3639363820202020312E3136363220202020302E303030302043202020302020302020302020302020302020302020302020302020302020302020302020300A20202020302E3837363320202020312E3037393920202020302E303030302043202020302020302020302020302020302020302020302020302020302020302020302020300A2020202D312E3838363420202020302E3836383220202020302E303030302048202020302020302020302020302020302020302020302020302020302020302020302020300A2020202D322E313831372020202D302E3136363920202020302E303030302043202020302020302020302020302020302020302020302020302020302020302020302020300A2020202D312E3736393220202020302E3534373620202020302E30303030204F202020302020302020302020302020302020302020302020302020302020302020302020300A2020202D312E373730372020202D302E3837383620202020302E30303030204F202020302020302020302020302020302020302020302020302020302020302020302020300A2020312020322020312020302020202020200A2020322020332020312020302020202020200A2020332020342020312020302020202020200A2020342020352020322020302020202020200A2020352020362020312020302020202020200A2020362020312020312020302020202020200A2020342020372020312020302020202020200A2020372020382020312020302020202020200A2020382020392020322020302020202020200A2020392020352020312020302020202020200A2020382031302020312020302020202020200A2031302031312020322020302020202020200A2031312031322020312020302020202020200A2031322031332020322020302020202020200A2031332020392020312020302020202020200A2020312031342020312020312020202020200A2020312031352020312020362020202020200A2031352031362020322020302020202020200A2031352031372020312020302020202020200A4D202053545920203120202031205355500A4D2020534C4220203120202031202020310A4D202053414C202020312020332020313520203136202031370A4D202053424C20202031202031202031370A4D2020534D542020203120434F4F480A4D2020534256202020312031372020202D372E3934333520202020342E393638380A4D2020454E44
Contributor: FUJISE Y, HAMAMATSU UNIV. SCHOOL OF MEDICINE
InstType: EI
InstName: JEOL JMS-D-300
IoniMethod: _ENERGY 70 eV
IonPolarity: pos
Date: 2010-10-09 19:48:36+02:00
Num Peaks: 50
51 26 52 10 58 17 69 11 71 16 72 21 75 21 76 19 77 34 83 10 
84 35 85 133 86 79 87 10 88 10 89 27 90 20 91 12 101 18 102 31 
103 15 113 16 114 21 115 125 116 50 117 38 118 12 127 10 128 39 129 12 
130 24 140 41 141 28 142 73 143 999 144 316 145 30 154 37 155 29 156 20 
167 13 168 102 169 191 170 61 171 197 172 35 199 27 215 31 216 463 217 62 
