Name: MassBank: JP004430
MW: 228
Formula: C15H20N2
Synonym: MassBank: JP004430
Synonym: 2,2,4,4-TETRAMETHYL-1,2,3,4-TETRAHYDRO-GAMMA-CARBOLINE
Structure: 322C322C342C342D54455452414D455448594C2D312C322C332C342D5445545241485944524F2D47414D4D412D434152424F4C494E452E6D6F6C0A20204368656D447261773132313930393034353532440A2031372031392020302020302020302020302020302020302020302020303939392056323030300A2020202D312E3531343820202020302E3230363220202020302E30303030204E202020302020302020302020302020302020302020302020302020302020302020302020300A2020202D312E353134382020202D302E3631383820202020302E303030302043202020302020302020302020302020302020302020302020302020302020302020302020300A2020202D302E383030332020202D312E3033313320202020302E303030302043202020302020302020302020302020302020302020302020302020302020302020302020300A2020202D302E303835382020202D302E3631383820202020302E303030302043202020302020302020302020302020302020302020302020302020302020302020302020300A2020202D302E3038353820202020302E3230363220202020302E303030302043202020302020302020302020302020302020302020302020302020302020302020302020300A2020202D302E3830303320202020302E3631383720202020302E303030302043202020302020302020302020302020302020302020302020302020302020302020302020300A20202020302E363938382020202D302E3837333720202020302E30303030204E202020302020302020302020302020302020302020302020302020302020302020302020300A20202020312E313833372020202D302E3230363320202020302E303030302043202020302020302020302020302020302020302020302020302020302020302020302020300A20202020302E3639383820202020302E3436313220202020302E303030302043202020302020302020302020302020302020302020302020302020302020302020302020300A20202020322E303034322020202D302E3132303020202020302E303030302043202020302020302020302020302020302020302020302020302020302020302020302020300A20202020322E3333393820202020302E3633333720202020302E303030302043202020302020302020302020302020302020302020302020302020302020302020302020300A20202020312E3835343820202020312E3330313120202020302E303030302043202020302020302020302020302020302020302020302020302020302020302020302020300A20202020312E3033343420202020312E3231343920202020302E303030302043202020302020302020302020302020302020302020302020302020302020302020302020300A2020202D302E3538363820202020312E3431353620202020302E303030302043202020302020302020302020302020302020302020302020302020302020302020302020300A2020202D322E333339382020202D302E3631383820202020302E303030302043202020302020302020302020302020302020302020302020302020302020302020302020300A2020202D312E373238332020202D312E3431353620202020302E303030302043202020302020302020302020302020302020302020302020302020302020302020302020300A2020202D312E3435343820202020312E3132313020202020302E303030302043202020302020302020302020302020302020302020302020302020302020302020302020300A2020312020322020312020302020202020200A2020322020332020312020302020202020200A2020332020342020312020302020202020200A2020342020352020322020302020202020200A2020352020362020312020302020202020200A2020362020312020312020302020202020200A2020342020372020312020302020202020200A2020372020382020312020302020202020200A2020382020392020322020302020202020200A2020392020352020312020302020202020200A2020382031302020312020302020202020200A2031302031312020322020302020202020200A2031312031322020312020302020202020200A2031322031332020322020302020202020200A2031332020392020312020302020202020200A2020362031342020312020312020202020200A2020322031352020312020312020202020200A2020322031362020312020362020202020200A2020362031372020312020362020202020200A4D2020454E44
Contributor: SASAKI S, TOYOHASHI UNIV. OF TECH.
InstType: EI
InstName: JEOL JMS-01-SG-2
IoniMethod: _ENERGY 75 eV
IonPolarity: pos
Date: 2010-10-09 19:48:36+02:00
Num Peaks: 11
41 99 42 145 43 98 55 6 115 10 156 98 171 310 186 5 213 999 214 155 
228 51 
