Name: 7-ETHYL-2-FLUORENYL METHYL KETONE
MW: 236
Formula: C17H16O
Synonym: MassBank: JP009611
Synonym: 7-ETHYL-2-FLUORENYL METHYL KETONE
Structure: 372D455448594C2D322D464C554F52454E594C204D455448594C204B45544F4E452E6D6F6C0A20204368656D447261773035323131303033353132440A2031382032302020302020302020302020302020302020302020302020303939392056323030300A2020202D322E3830393520202020302E3439383720202020302E303030302043202020302020302020302020302020302020302020302020302020302020302020302020300A2020202D332E323934342020202D302E3136383720202020302E30303030204F202020302020302020302020302020302020302020302020302020302020302020302020300A2020202D332E3134353120202020312E3235323420202020302E303030302043202020302020302020302020302020302020302020302020302020302020302020302020300A2020202D302E333438312020202D312E3039343820202020302E303030302043202020302020302020302020302020302020302020302020302020302020302020302020300A2020202D302E383333302020202D302E3432373420202020302E303030302043202020302020302020302020302020302020302020302020302020302020302020302020300A2020202D312E363533352020202D302E3334313220202020302E303030302043202020302020302020302020302020302020302020302020302020302020302020302020300A2020202D312E3938393020202020302E3431323520202020302E303030302043202020302020302020302020302020302020302020302020302020302020302020302020300A2020202D312E3530343120202020312E3037393920202020302E303030302043202020302020302020302020302020302020302020302020302020302020302020302020300A2020202D302E3638333620202020302E3939333720202020302E303030302043202020302020302020302020302020302020302020302020302020302020302020302020300A2020202D302E3334383120202020302E3234303020202020302E303030302043202020302020302020302020302020302020302020302020302020302020302020302020300A20202020302E343336362020202D302E3031343920202020302E303030302043202020302020302020302020302020302020302020302020302020302020302020302020300A20202020312E3135313020202020302E3339373620202020302E303030302043202020302020302020302020302020302020302020302020302020302020302020302020300A20202020312E383635352020202D302E3031343920202020302E303030302043202020302020302020302020302020302020302020302020302020302020302020302020300A20202020312E383635352020202D302E3833393920202020302E303030302043202020302020302020302020302020302020302020302020302020302020302020302020300A20202020312E313531302020202D312E3235323420202020302E303030302043202020302020302020302020302020302020302020302020302020302020302020302020300A20202020302E343336352020202D302E3833393920202020302E303030302043202020302020302020302020302020302020302020302020302020302020302020302020300A20202020322E353830302020202D312E3235323420202020302E303030302043202020302020302020302020302020302020302020302020302020302020302020302020300A20202020332E323934342020202D302E3833393920202020302E303030302043202020302020302020302020302020302020302020302020302020302020302020302020300A2020312020322020322020302020202020200A2020312020332020312020302020202020200A2020342020352020312020302020202020200A2020352020362020312020302020202020200A2020362020372020322020302020202020200A2020372020382020312020302020202020200A2020382020392020322020302020202020200A2020392031302020312020302020202020200A2020352031302020322020302020202020200A2031302031312020312020302020202020200A2031312031322020312020302020202020200A2031322031332020322020302020202020200A2031332031342020312020302020202020200A2031342031352020322020302020202020200A2031352031362020312020302020202020200A2031312031362020322020302020202020200A2020342031362020312020302020202020200A2031372031382020312020302020202020200A2031342031372020312020302020202020200A2020312020372020312020302020202020200A4D2020454E44
Contributor: THE INSTITUTE OF SCIENTIFIC AND INDUSTRIALRESEARCH
InstType: EI
InstName: JEOL JMS-DX-300
IoniMethod: _ENERGY 70 eV
IonPolarity: pos
Date: 2010-10-09 19:48:36+02:00
Num Peaks: 47
27 20 29 20 39 11 41 2 43 299 44 78 57 12 63 2 76 35 83 10 
88 17 89 6 90 12 95 10 103 71 104 2 115 18 139 24 150 22 151 5 
152 84 153 17 163 75 164 10 165 118 166 17 175 12 176 11 177 97 178 442 
179 87 187 1 189 77 190 30 191 67 192 8 193 400 194 76 207 56 220 2 
221 999 222 183 223 18 235 2 236 949 237 180 238 18 
