Name: 5-HYDROXY-1-(4-HYDROXY-3-METHOXYPHENYL)DECAN-3-ONE
CAS: 23513-14-6
MW: 294
Formula: C17H26O4
Synonym: MassBank: JP007243
Synonym: 5-HYDROXY-1-(4-HYDROXY-3-METHOXYPHENYL)DECAN-3-ONE
Synonym: 6-GINGEROL
Structure: 352D485944524F58592D312D28342D485944524F58592D332D4D4554484F58595048454E594C29444543414E2D332D4F4E452E6D6F6C0A20204368656D447261773034323331303035353932440A2032312032312020302020302020302020302020302020302020302020303939392056323030300A20202020312E303731372020202D302E3230363220202020302E303030302043202020302020302020302020302020302020302020302020302020302020302020302020300A20202020302E333537322020202D302E3631383720202020302E303030302043202020302020302020302020302020302020302020302020302020302020302020302020300A2020202D302E333537322020202D302E3230363220202020302E303030302043202020302020302020302020302020302020302020302020302020302020302020302020300A2020202D312E303731372020202D302E3631383720202020302E303030302043202020302020302020302020302020302020302020302020302020302020302020302020300A2020202D312E373836322020202D302E3230363220202020302E303030302043202020302020302020302020302020302020302020302020302020302020302020302020300A2020202D322E353030362020202D302E3631383720202020302E303030302043202020302020302020302020302020302020302020302020302020302020302020302020300A2020202D332E323135312020202D302E3230363220202020302E303030302043202020302020302020302020302020302020302020302020302020302020302020302020300A2020202D332E3231353120202020302E3631383820202020302E303030302043202020302020302020302020302020302020302020302020302020302020302020302020300A2020202D332E3932393620202020312E3033313320202020302E303030302043202020302020302020302020302020302020302020302020302020302020302020302020300A2020202D332E3932393620202020312E3835363320202020302E303030302043202020302020302020302020302020302020302020302020302020302020302020302020300A2020202D302E3335373220202020302E3631383820202020302E30303030204F202020302020302020302020302020302020302020302020302020302020302020302020300A20202020312E373836322020202D302E3631383720202020302E303030302043202020302020302020302020302020302020302020302020302020302020302020302020300A20202020322E353030362020202D302E3230363220202020302E303030302043202020302020302020302020302020302020302020302020302020302020302020302020300A20202020332E323135312020202D302E3631383720202020302E303030302043202020302020302020302020302020302020302020302020302020302020302020302020300A20202020332E323135312020202D312E3434333720202020302E303030302043202020302020302020302020302020302020302020302020302020302020302020302020300A20202020322E353030362020202D312E3835363320202020302E303030302043202020302020302020302020302020302020302020302020302020302020302020302020300A20202020312E373836322020202D312E3434333820202020302E303030302043202020302020302020302020302020302020302020302020302020302020302020302020300A20202020332E393239362020202D302E3230363220202020302E30303030204F202020302020302020302020302020302020302020302020302020302020302020302020300A20202020332E3932393620202020302E3631383820202020302E303030302043202020302020302020302020302020302020302020302020302020302020302020302020300A20202020332E393239362020202D312E3835363220202020302E30303030204F202020302020302020302020302020302020302020302020302020302020302020302020300A2020202D312E3738363220202020302E3631383820202020302E30303030204F202020302020302020302020302020302020302020302020302020302020302020302020300A2020312020322020312020302020202020200A2020322020332020312020302020202020200A2020332020342020312020302020202020200A2020342020352020312020302020202020200A2020352020362020312020302020202020200A2020362020372020312020302020202020200A2020372020382020312020302020202020200A2020382020392020312020302020202020200A2020392031302020312020302020202020200A2020332031312020322020302020202020200A2031322031332020312020302020202020200A2031332031342020322020302020202020200A2031342031352020312020302020202020200A2031352031362020322020302020202020200A2031362031372020312020302020202020200A2031322031372020322020302020202020200A2031382031392020312020302020202020200A2031342031382020312020302020202020200A2031352032302020312020302020202020200A2020312031322020312020302020202020200A2020352032312020312020302020202020200A4D2020454E44
Contributor: ENDO K, PHARMACEUTICAL INST., TOHOKU UNIV.
InstType: EI
InstName: HITACHI M-52
IoniMethod: _ENERGY 25 eV
IonPolarity: pos
Date: 2010-10-09 19:48:36+02:00
Num Peaks: 96
39 32 40 11 41 117 43 14 44 96 45 21 51 11 52 1 53 32 55 85 
56 85 57 7 65 11 66 21 67 32 69 2 70 11 71 43 72 21 76 1 
77 21 79 32 80 21 81 1 82 32 83 32 84 11 85 1 89 11 91 85 
92 32 94 2 95 11 97 11 99 11 101 1 102 11 103 11 104 11 105 2 
106 21 107 53 108 32 109 4 111 11 115 11 117 11 118 1 119 85 121 11 
122 96 123 2 124 64 125 11 126 11 133 1 135 53 136 64 137 999 138 14 
139 32 140 21 143 21 145 2 147 11 148 11 149 11 150 37 151 148 152 32 
159 11 160 1 161 21 163 43 175 21 176 1 177 43 178 32 179 53 180 1 
190 11 191 21 192 32 193 1 194 138 195 43 205 64 206 2 207 11 211 11 
234 21 276 6 277 32 293 11 294 191 295 53 
