Name: MassBank: JP008759
MW: 293
Formula: C16H23NO4
Synonym: MassBank: JP008759
Synonym: ETHYL 2,2-DIMETHYL-3-(1-PHENYLETHYLAMINOCARBONYLOXY)PROPIONATE
Structure: 455448594C20322C322D44494D455448594C2D332D28312D5048454E594C455448594C414D494E4F434152424F4E594C4F58592950524F50494F4E4154452E6D6F6C0A20204368656D447261773038313131303138303932440A2032312032312020302020302020302020302020302020302020302020303939392056323030300A20202020322E3038383120202020302E3631383720202020302E303030302043202020302020302020302020302020302020302020302020302020302020302020302020300A20202020322E353030362020202D302E3039353720202020302E303030302043202020302020302020302020302020302020302020302020302020302020302020302020300A20202020312E373836322020202D302E3530383220202020302E303030302043202020302020302020302020302020302020302020302020302020302020302020302020300A20202020322E3530303620202020312E3333333220202020302E30303030204F202020302020302020302020302020302020302020302020302020302020302020302020300A20202020312E3236333120202020302E3631383720202020302E30303030204F202020302020302020302020302020302020302020302020302020302020302020302020300A20202020312E303731372020202D302E3039353720202020302E30303030204F202020302020302020302020302020302020302020302020302020302020302020302020300A20202020302E333537322020202D302E3530383220202020302E303030302043202020302020302020302020302020302020302020302020302020302020302020302020300A20202020302E333537322020202D312E3333333220202020302E30303030204F202020302020302020302020302020302020302020302020302020302020302020302020300A2020202D302E333537322020202D302E3039353720202020302E30303030204E202020302020302020302020302020302020302020302020302020302020302020302020300A2020202D312E303731372020202D302E3530383220202020302E303030302043202020302020302020302020302020302020302020302020302020302020302020302020300A2020202D312E303731372020202D312E3333333220202020302E303030302043202020302020302020302020302020302020302020302020302020302020302020302020300A2020202D312E373836322020202D302E3039353720202020302E303030302043202020302020302020302020302020302020302020302020302020302020302020302020300A2020202D322E353030362020202D302E3530383220202020302E303030302043202020302020302020302020302020302020302020302020302020302020302020302020300A2020202D332E323135312020202D302E3039353720202020302E303030302043202020302020302020302020302020302020302020302020302020302020302020302020300A2020202D332E3231353120202020302E3732393320202020302E303030302043202020302020302020302020302020302020302020302020302020302020302020302020300A2020202D322E3530303620202020312E3134313820202020302E303030302043202020302020302020302020302020302020302020302020302020302020302020302020300A2020202D312E3738363220202020302E3732393320202020302E303030302043202020302020302020302020302020302020302020302020302020302020302020302020300A20202020332E3231353120202020302E3331363820202020302E303030302043202020302020302020302020302020302020302020302020302020302020302020302020300A20202020322E393133312020202D302E3831303220202020302E303030302043202020302020302020302020302020302020302020302020302020302020302020302020300A20202020302E3835303620202020312E3333333220202020302E303030302043202020302020302020302020302020302020302020302020302020302020302020302020300A20202020302E3032353620202020312E3333333220202020302E303030302043202020302020302020302020302020302020302020302020302020302020302020302020300A2020312020322020312020302020202020200A2020322020332020312020302020202020200A2020312020342020322020302020202020200A2020312020352020312020302020202020200A2020372020382020322020302020202020200A2031302031312020312020302020202020200A2020392031302020312020302020202020200A2031322031332020312020302020202020200A2031332031342020322020302020202020200A2031342031352020312020302020202020200A2031352031362020322020302020202020200A2031362031372020312020302020202020200A2031322031372020322020302020202020200A2031302031322020312020302020202020200A2020372020392020312020302020202020200A2020362020372020312020302020202020200A2020332020362020312020302020202020200A2020322031382020312020302020202020200A2020322031392020312020302020202020200A2032302032312020312020302020202020200A2020352032302020312020302020202020200A4D2020454E44
Contributor: TSUNODA T, FACULTY OF PHARMACEUTICAL SCIENCES, TOKUSHIMA BUNRI UNIV.
InstType: EI
InstName: SHIMADZU LKB-9000B
IoniMethod: _ENERGY 70 eV
IonPolarity: pos
Date: 2010-10-09 19:48:36+02:00
Num Peaks: 37
27 151 29 649 39 106 41 247 42 183 43 156 44 54 45 85 51 83 55 228 
56 214 57 99 59 81 73 354 77 253 78 100 79 178 88 58 101 280 103 99 
104 229 105 999 106 383 116 99 119 75 120 480 121 53 129 115 132 900 133 77 
147 264 150 75 164 266 248 64 278 62 293 41 294 11 
