Name: P-(1-PROPENYL)-TOLUENE
MW: 132
Formula: C10H12
Synonym: MassBank: JP007207
Synonym: P-(1-PROPENYL)-TOLUENE
Synonym: ALPHA,PARA-DIMETHYLSTYRENE
Structure: 502D28312D50524F50454E594C292D544F4C55454E452E6D6F6C0A20204368656D447261773038303631303034353732440A2031302031302020302020302020302020302020302020302020302020303939392056323030300A20202020312E3434333820202020302E3030303020202020302E303030302043202020302020302020302020302020302020302020302020302020302020302020302020300A20202020312E303331322020202D302E3731343520202020302E303030302043202020302020302020302020302020302020302020302020302020302020302020302020300A2020202D302E3230363320202020302E3030303020202020302E303030302043202020302020302020302020302020302020302020302020302020302020302020302020300A20202020312E3033313220202020302E3731343520202020302E303030302043202020302020302020302020302020302020302020302020302020302020302020302020300A20202020302E323036332020202D302E3731343520202020302E303030302043202020302020302020302020302020302020302020302020302020302020302020302020300A20202020302E3230363220202020302E3731343520202020302E303030302043202020302020302020302020302020302020302020302020302020302020302020302020300A20202020322E3236383820202020302E3030303020202020302E303030302043202020302020302020302020302020302020302020302020302020302020302020302020300A2020202D312E3033313220202020302E3030303020202020302E303030302043202020302020302020302020302020302020302020302020302020302020302020302020300A2020202D312E3434333820202020302E3731343520202020302E303030302043202020302020302020302020302020302020302020302020302020302020302020302020300A2020202D322E3236383820202020302E3731343520202020302E303030302043202020302020302020302020302020302020302020302020302020302020302020302020300A2020312020322020312020302020202020200A2020312020342020322020302020202020200A2020322020352020322020302020202020200A2020332020352020312020302020202020200A2020332020362020322020302020202020200A2020342020362020312020302020202020200A2020312020372020312020302020202020200A2020382020392020322020302020202020200A2020392031302020312020302020202020200A2020332020382020312020302020202020200A4D2020454E44
Contributor: SODA AROMATIC CO., LTD.
InstType: EI
InstName: HITACHI M-80B
IoniMethod: _ENERGY 70 eV
IonPolarity: pos
Date: 2010-10-09 19:48:36+02:00
Num Peaks: 42
15 14 27 62 38 18 39 174 40 14 41 44 50 54 51 114 52 33 53 36 
57 15 62 38 63 107 64 60 65 154 66 12 74 23 75 29 76 16 77 81 
78 36 79 16 87 12 89 61 90 14 91 369 92 184 93 11 102 42 103 30 
104 28 105 43 115 361 116 122 117 816 118 80 127 17 128 43 129 32 131 164 
132 999 133 106 
