Name: MassBank: JP001986
MW: 204
Formula: C11H12N2O2
Synonym: MassBank: JP001986
Synonym: 2,3,5-TRIMETHYL-6-NITROINDOLE
Structure: 322C332C352D5452494D455448594C2D362D4E4954524F494E444F4C452E6D6F6C0A20204368656D447261773132323030393038313032440A2031352031362020302020302020302020302020302020302020302020303939392056323030300A2020202D312E313636332020202D302E3536383520202020302E30303030204E202020302020302020302020302020302020302020302020302020302020302020302020300A2020202D312E3635313220202020302E3039393020202020302E303030302043202020302020302020302020302020302020302020302020302020302020302020302020300A2020202D312E3136363320202020302E3736363420202020302E303030302043202020302020302020302020302020302020302020302020302020302020302020302020300A2020202D302E3338313720202020302E3531313520202020302E303030302043202020302020302020302020302020302020302020302020302020302020302020302020300A20202020302E3333323820202020302E3932343020202020302E303030302043202020302020302020302020302020302020302020302020302020302020302020302020300A20202020312E3034373320202020302E3531313520202020302E303030302043202020302020302020302020302020302020302020302020302020302020302020302020300A20202020312E303437332020202D302E3331333520202020302E303030302043202020302020302020302020302020302020302020302020302020302020302020302020300A20202020302E333332382020202D302E3732363020202020302E303030302043202020302020302020302020302020302020302020302020302020302020302020302020300A2020202D302E333831372020202D302E3331333520202020302E303030302043202020302020302020302020302020302020302020302020302020302020302020302020300A20202020312E373631372020202D302E3732363020202020302E30303030204E202020302020332020302020302020302020302020302020302020302020302020302020300A20202020312E373631372020202D312E3535313020202020302E30303030204F202020302020302020302020302020302020302020302020302020302020302020302020300A20202020322E343736322020202D302E3331333520202020302E30303030204F202020302020352020302020302020302020302020302020302020302020302020302020300A20202020312E3736313720202020302E3932343020202020302E303030302043202020302020302020302020302020302020302020302020302020302020302020302020300A2020202D312E3432313220202020312E3535313020202020302E303030302043202020302020302020302020302020302020302020302020302020302020302020302020300A2020202D322E3437363220202020302E3039393020202020302E303030302043202020302020302020302020302020302020302020302020302020302020302020302020300A2020312020322020312020302020202020200A2020322020332020322020302020202020200A2020332020342020312020302020202020200A2020342020352020312020302020202020200A2020352020362020322020302020202020200A2020362020372020312020302020202020200A2020372020382020322020302020202020200A2020382020392020312020302020202020200A2020312020392020312020302020202020200A2020342020392020322020302020202020200A2031302031312020322020302020202020200A2031302031322020312020302020202020200A2020372031302020312020302020202020200A2020362031332020312020302020202020200A2020332031342020312020302020202020200A2020322031352020312020302020202020200A4D202043484720203220203130202020312020313220202D310A4D2020454E44
Contributor: SASAKI S, TOYOHASHI UNIV. OF TECH.
InstType: EI
InstName: MX-1303
IoniMethod: _ENERGY 50 eV
IonPolarity: pos
Date: 2010-10-09 19:48:36+02:00
Num Peaks: 87
39 164 41 355 42 173 43 25 44 35 45 100 51 133 52 6 53 84 54 31 
55 187 56 4 57 157 60 68 63 98 64 3 65 108 66 21 67 65 68 9 
70 56 71 68 73 68 75 3 76 23 77 160 78 46 79 4 80 21 81 33 
82 41 83 7 84 25 85 29 87 21 89 8 91 115 93 46 95 63 97 4 
101 21 102 32 103 42 107 2 109 35 114 25 115 355 116 9 117 42 119 23 
121 27 123 3 126 63 127 42 128 81 130 11 131 73 132 133 133 21 136 3 
137 63 140 21 141 42 142 13 143 315 144 135 145 36 146 3 149 23 154 38 
155 36 156 40 157 480 158 610 159 360 160 3 171 27 172 90 173 32 174 15 
175 20 185 25 187 920 188 7 203 31 204 999 205 95 
