Name: 4-ETHYL-2-ISOPROPYL-5-METHYLOXAZOLE
MW: 153
Formula: C9H15NO
Synonym: MassBank: JP007763
Synonym: 4-ETHYL-2-ISOPROPYL-5-METHYLOXAZOLE
Structure: 342D455448594C2D322D49534F50524F50594C2D352D4D455448594C4F58415A4F4C452E6D6F6C0A20204368656D447261773033323531303231353232440A2031312031312020302020302020302020302020302020302020302020303939392056323030300A20202020302E3234313720202020302E3636373420202020302E30303030204F202020302020302020302020302020302020302020302020302020302020302020302020300A20202020302E3732363620202020302E3030303020202020302E303030302043202020302020302020302020302020302020302020302020302020302020302020302020300A20202020302E323431372020202D302E3636373420202020302E30303030204E202020302020302020302020302020302020302020302020302020302020302020302020300A2020202D302E353433302020202D302E3431323520202020302E303030302043202020302020302020302020302020302020302020302020302020302020302020302020300A2020202D302E3534333020202020302E3431323520202020302E303030302043202020302020302020302020302020302020302020302020302020302020302020302020300A2020202D312E3231303420202020302E3839373420202020302E303030302043202020302020302020302020302020302020302020302020302020302020302020302020300A20202020312E3535313620202020302E3030303020202020302E303030302043202020302020302020302020302020302020302020302020302020302020302020302020300A20202020312E393634312020202D302E3731343520202020302E303030302043202020302020302020302020302020302020302020302020302020302020302020302020300A20202020312E3936343120202020302E3731343520202020302E303030302043202020302020302020302020302020302020302020302020302020302020302020302020300A2020202D312E323130342020202D302E3839373420202020302E303030302043202020302020302020302020302020302020302020302020302020302020302020302020300A2020202D312E393634312020202D302E3536313920202020302E303030302043202020302020302020302020302020302020302020302020302020302020302020302020300A2020312020322020312020302020202020200A2020322020332020322020302020202020200A2020332020342020312020302020202020200A2020342020352020322020302020202020200A2020312020352020312020302020202020200A2020352020362020312020302020202020200A2020372020382020312020302020202020200A2020372020392020312020302020202020200A2020322020372020312020302020202020200A2031302031312020312020302020202020200A2020342031302020312020302020202020200A4D2020454E44
Contributor: HASHIMOTO K, KYOTO COLLEGE OF PHARMACY
InstType: EI
InstName: HITACHI M-80
IoniMethod: _ENERGY 20 eV
IonPolarity: pos
Date: 2010-10-09 19:48:36+02:00
Num Peaks: 33
27 15 29 17 39 15 41 142 42 32 43 716 44 15 54 24 55 307 56 450 
67 68 68 105 69 623 70 279 82 44 83 34 84 246 85 21 96 736 97 66 
110 774 111 71 123 23 124 24 125 41 136 10 137 22 138 999 139 395 140 27 
152 271 153 743 154 280 
