Name: MassBank: JP004861
MW: 240
Formula: C16H16O2
Synonym: MassBank: JP004861
Synonym: 1-PHENYL-5-METHOXYBICYCLO(3.2.2)NONA-3,6-DIEN-2-ONE
Structure: 312D5048454E594C2D352D4D4554484F585942494359434C4F28332E322E32294E4F4E412D332C362D4449454E2D322D4F4E452E6D6F6C0A20204368656D447261773131323230393232323132440A2031382032302020302020302020302020302020302020302020302020303939392056323030300A2020202D302E333034392020202D302E3039373120202020302E303030302043202020302020302020302020302020302020302020302020302020302020302020302020300A2020202D302E3330343920202020302E3833303820202020302E303030302043202020302020302020302020302020302020302020302020302020302020302020302020300A20202020302E3530363220202020312E3239393120202020302E303030302043202020302020302020302020302020302020302020302020302020302020302020302020300A20202020312E3331373920202020302E3833303520202020302E303030302043202020302020302020302020302020302020302020302020302020302020302020302020300A20202020312E333137392020202D302E3039373120202020302E303030302043202020302020302020302020302020302020302020302020302020302020302020302020300A20202020302E3930393720202020302E3630393920202020302E303030302043202020302020302020302020302020302020302020302020302020302020302020302020300A20202020302E3039373920202020302E3630393920202020302E303030302043202020302020302020302020302020302020302020302020302020302020302020302020300A20202020302E313035322020202D302E3830373520202020302E303030302043202020302020302020302020302020302020302020302020302020302020302020302020300A20202020302E393232392020202D302E3830373520202020302E303030302043202020302020302020302020302020302020302020302020302020302020302020302020300A2020202D312E3031323220202020312E3233393220202020302E30303030204F202020302020302020302020302020302020302020302020302020302020302020302020300A20202020322E313331352020202D302E3330303520202020302E30303030204F202020302020302020302020302020302020302020302020302020302020302020302020300A20202020322E3731343920202020302E3238323820202020302E303030302043202020302020302020302020302020302020302020302020302020302020302020302020300A2020202D312E313130362020202D302E3239393320202020302E303030302043202020302020302020302020302020302020302020302020302020302020302020302020300A2020202D312E333335352020202D312E3039363920202020302E303030302043202020302020302020302020302020302020302020302020302020302020302020302020300A2020202D322E313331352020202D312E3239393120202020302E303030302043202020302020302020302020302020302020302020302020302020302020302020302020300A2020202D322E373134392020202D302E3731353720202020302E303030302043202020302020302020302020302020302020302020302020302020302020302020302020300A2020202D322E3439303020202020302E3038313920202020302E303030302043202020302020302020302020302020302020302020302020302020302020302020302020300A2020202D312E3639343020202020302E3238343120202020302E303030302043202020302020302020302020302020302020302020302020302020302020302020302020300A2020312020322020312020302020202020200A2020322020332020312020302020202020200A2020332020342020322020302020202020200A2020342020352020312020302020202020200A2020352020362020312020302020202020200A2020362020372020322020302020202020200A2020382020392020312020302020202020200A2020312020372020312020302020202020200A2020312020382020312020302020202020200A2020352020392020312020302020202020200A2020322031302020322020302020202020200A2031312031322020312020302020202020200A2020352031312020312020302020202020200A2031332031342020312020302020202020200A2031342031352020322020302020202020200A2031352031362020312020302020202020200A2031362031372020322020302020202020200A2031372031382020312020302020202020200A2031332031382020322020302020202020200A2020312031332020312020302020202020200A4D2020454E44
Contributor: KATO T, DEPT. OF CHEM., FAC. OF SCI., TOHOKU UNIV.
InstType: EI
InstName: Unknown
IoniMethod: _ENERGY 14 eV
IonPolarity: pos
Date: 2010-10-09 19:48:36+02:00
Num Peaks: 60
91 21 98 21 108 34 109 2 120 11 121 21 130 21 131 9 132 26 133 6 
134 11 135 2 136 21 137 11 140 6 141 1 142 34 143 17 144 11 148 2 
149 21 154 999 155 206 156 2 162 26 163 150 164 21 165 4 166 77 167 129 
168 21 178 2 179 210 180 564 181 339 182 8 183 30 184 77 185 26 186 2 
190 11 191 21 197 21 198 2 199 11 200 21 207 414 208 85 209 200 210 39 
211 34 212 33 213 38 222 34 225 133 226 3 239 159 240 708 241 133 242 34 
