Name: (Z)-9-HEXADECEN-1-OL
MW: 240
Formula: C16H32O
Synonym: MassBank: JP005369
Synonym: (Z)-9-HEXADECEN-1-OL
Structure: 285A292D392D48455841444543454E2D312D4F4C2E6D6F6C0A20204368656D447261773130323230393231333632440A2031392031382020302020302020302020302020302020302020302020303939392056323030300A20202020302E343132352020202D312E3432383920202020302E303030302043202020302020302020302020302020302020302020302020302020302020302020302020300A20202020312E323337352020202D312E3432383920202020302E303030302043202020302020302020302020302020302020302020302020302020302020302020302020300A20202020302E303030302020202D322E3134333420202020302E303030302048202020302020302020302020302020302020302020302020302020302020302020302020300A20202020312E363530302020202D302E3731343520202020302E303030302043202020302020302020302020302020302020302020302020302020302020302020302020300A20202020312E363530302020202D322E3134333420202020302E303030302048202020302020302020302020302020302020302020302020302020302020302020302020300A20202020302E303030302020202D302E3731343520202020302E303030302043202020302020302020302020302020302020302020302020302020302020302020302020300A2020202D302E383235302020202D302E3731343520202020302E303030302043202020302020302020302020302020302020302020302020302020302020302020302020300A2020202D312E3233373520202020302E3030303020202020302E303030302043202020302020302020302020302020302020302020302020302020302020302020302020300A2020202D322E3036323520202020302E3030303020202020302E303030302043202020302020302020302020302020302020302020302020302020302020302020302020300A2020202D322E3437353020202020302E3731343520202020302E303030302043202020302020302020302020302020302020302020302020302020302020302020302020300A2020202D332E3330303020202020302E3731343520202020302E303030302043202020302020302020302020302020302020302020302020302020302020302020302020300A2020202D332E3731323520202020312E3432383920202020302E303030302043202020302020302020302020302020302020302020302020302020302020302020302020300A2020202D342E3533373520202020312E3432383920202020302E303030302043202020302020302020302020302020302020302020302020302020302020302020302020300A2020202D342E3935303020202020322E3134333420202020302E30303030204F202020302020302020302020302020302020302020302020302020302020302020302020300A20202020322E343735302020202D302E3731343520202020302E303030302043202020302020302020302020302020302020302020302020302020302020302020302020300A20202020322E3838373520202020302E3030303020202020302E303030302043202020302020302020302020302020302020302020302020302020302020302020302020300A20202020332E3731323520202020302E3030303020202020302E303030302043202020302020302020302020302020302020302020302020302020302020302020302020300A20202020342E3132353020202020302E3731343520202020302E303030302043202020302020302020302020302020302020302020302020302020302020302020302020300A20202020342E3935303020202020302E3731343520202020302E303030302043202020302020302020302020302020302020302020302020302020302020302020302020300A2020312020322020322020302020202020200A2020312020332020312020302020202020200A2020322020342020312020302020202020200A2020322020352020312020302020202020200A2020312020362020312020302020202020200A2020372020362020312020302020202020200A2020382020372020312020302020202020200A2020392020382020312020302020202020200A2031302020392020312020302020202020200A2031312031302020312020302020202020200A2031322031312020312020302020202020200A2031332031322020312020302020202020200A2031342031332020312020302020202020200A2031352020342020312020302020202020200A2031362031352020312020302020202020200A2031372031362020312020302020202020200A2031382031372020312020302020202020200A2031392031382020312020302020202020200A4D2020454E44
Contributor: YAMAOKA R, KYOTO INSTITUTE OF TECHNOLOGY
InstType: EI
InstName: SHIMADZU QP-1000
IoniMethod: _ENERGY 20 eV
IonPolarity: pos
Date: 2010-10-09 19:48:36+02:00
Num Peaks: 101
43 57 44 226 45 233 46 86 47 24 54 279 55 402 56 17 57 197 58 141 
59 164 60 2 61 13 66 86 67 537 68 55 69 397 70 169 71 124 72 12 
73 386 74 19 75 30 77 1 79 11 80 36 81 626 82 999 83 337 84 68 
85 62 87 20 88 92 89 370 90 19 95 56 96 779 97 249 98 45 99 3 
100 17 101 66 102 58 103 15 104 14 105 11 107 10 108 9 109 369 110 365 
111 103 112 3 113 14 114 12 115 20 116 3 117 73 119 25 121 28 122 5 
123 228 124 230 125 39 126 1 130 17 131 79 132 53 133 24 134 17 136 27 
137 122 138 13 139 18 140 15 145 14 146 2 147 51 150 10 151 49 152 6 
153 11 159 11 161 28 163 2 165 45 166 62 167 10 175 5 176 13 177 55 
179 22 180 2 191 16 193 20 194 61 195 2 205 20 206 32 221 43 222 21 
223 39 
