Name: 2-PROPYLCYCLOHEXANOL
MW: 142
Formula: C9H18O
Synonym: MassBank: JP005759
Synonym: 2-PROPYLCYCLOHEXANOL
Structure: 322D50524F50594C4359434C4F484558414E4F4C2E6D6F6C0A20204368656D447261773032323131303135303332440A2031302031302020302020302020302020302020302020302020302020303939392056323030300A2020202D302E3631383720202020302E3335373220202020302E303030302043202020302020302020302020302020302020302020302020302020302020302020302020300A2020202D302E323036322020202D302E3335373220202020302E303030302043202020302020302020302020302020302020302020302020302020302020302020302020300A2020202D302E363138372020202D312E3037313720202020302E303030302043202020302020302020302020302020302020302020302020302020302020302020302020300A2020202D312E343433372020202D312E3037313720202020302E303030302043202020302020302020302020302020302020302020302020302020302020302020302020300A2020202D312E383536332020202D302E3335373220202020302E303030302043202020302020302020302020302020302020302020302020302020302020302020302020300A2020202D312E3434333820202020302E3335373220202020302E303030302043202020302020302020302020302020302020302020302020302020302020302020302020300A20202020302E363138382020202D302E3335373220202020302E303030302043202020302020302020302020302020302020302020302020302020302020302020302020300A20202020312E303331332020202D312E3037313720202020302E303030302043202020302020302020302020302020302020302020302020302020302020302020302020300A20202020312E383536332020202D312E3037313720202020302E303030302043202020302020302020302020302020302020302020302020302020302020302020302020300A2020202D302E3230363220202020312E3037313720202020302E30303030204F202020302020302020302020302020302020302020302020302020302020302020302020300A2020312020322020312020302020202020200A2020322020332020312020302020202020200A2020332020342020312020302020202020200A2020342020352020312020302020202020200A2020352020362020312020302020202020200A2020312020362020312020302020202020200A2020372020382020312020302020202020200A2020382020392020312020302020202020200A2020322020372020312020302020202020200A2020312031302020312020302020202020200A4D2020454E44
Contributor: MASS SPECTROSCOPY SOC. OF JAPAN (MSSJ)
InstType: EI
InstName: HITACHI M-80
IoniMethod: _ENERGY 70 eV
IonPolarity: pos
Date: 2010-10-09 19:48:36+02:00
Num Peaks: 56
38 8 39 296 40 43 41 620 42 116 43 301 44 258 45 66 50 7 51 27 
52 16 53 121 54 245 55 506 56 132 57 733 58 96 59 15 65 24 66 101 
67 463 68 464 69 243 70 103 71 217 72 36 73 12 77 25 78 6 79 54 
80 35 81 472 82 999 83 133 84 13 85 52 86 7 91 5 93 9 94 15 
95 405 96 341 97 30 98 34 99 138 100 18 109 50 110 5 111 8 113 28 
114 8 123 6 124 306 125 45 141 7 142 10 
