Name: MassBank: JP004357
MW: 220
Formula: C15H12N2
Synonym: MassBank: JP004357
Synonym: 1,5-DIPHENYLPYRAZOLE
Structure: 312C352D44495048454E594C505952415A4F4C452E6D6F6C0A20204368656D447261773131313630393133303332440A2031392032312020302020302020302020302020302020302020302020303939392056323030300A20202020312E303631392020202D302E3236393020202020302E30303030204E202020302020302020302020302020302020302020302020302020302020302020302020300A20202020312E373239342020202D302E3735333920202020302E30303030204E202020302020302020302020302020302020302020302020302020302020302020302020300A20202020312E343734342020202D312E3533383620202020302E303030302043202020302020302020302020302020302020302020302020302020302020302020302020300A20202020302E363439342020202D312E3533383620202020302E303030302043202020302020302020302020302020302020302020302020302020302020302020302020300A20202020302E333934352020202D302E3735333920202020302E303030302043202020302020302020302020302020302020302020302020302020302020302020302020300A2020202D302E333930312020202D302E3439393020202020302E303030302043202020302020302020302020302020302020302020302020302020302020302020302020300A2020202D312E303033322020202D312E3035313020202020302E303030302043202020302020302020302020302020302020302020302020302020302020302020302020300A2020202D312E373837382020202D302E3739363120202020302E303030302043202020302020302020302020302020302020302020302020302020302020302020302020300A2020202D312E3935393420202020302E3031303920202020302E303030302043202020302020302020302020302020302020302020302020302020302020302020302020300A2020202D312E3334363320202020302E3536323920202020302E303030302043202020302020302020302020302020302020302020302020302020302020302020302020300A2020202D302E3536313620202020302E3330383020202020302E303030302043202020302020302020302020302020302020302020302020302020302020302020302020300A20202020312E3036313920202020302E3535363020202020302E303030302043202020302020302020302020302020302020302020302020302020302020302020302020300A20202020302E3334373520202020302E3936383520202020302E303030302043202020302020302020302020302020302020302020302020302020302020302020302020300A20202020302E3334373520202020312E3739333520202020302E303030302043202020302020302020302020302020302020302020302020302020302020302020302020300A20202020312E3036313920202020322E3230363020202020302E303030302043202020302020302020302020302020302020302020302020302020302020302020302020300A20202020312E3737363420202020312E3739333520202020302E303030302043202020302020302020302020302020302020302020302020302020302020302020302020300A20202020312E3737363420202020302E3936383520202020302E303030302043202020302020302020302020302020302020302020302020302020302020302020302020300A20202020302E313634352020202D322E3230363020202020302E303030302048202020302020302020302020302020302020302020302020302020302020302020302020300A20202020312E393539342020202D322E3230363020202020302E303030302048202020302020302020302020302020302020302020302020302020302020302020302020300A2020312020322020312020302020202020200A2020322020332020322020302020202020200A2020332020342020312020302020202020200A2020342020352020322020302020202020200A2020312020352020312020302020202020200A2020362020372020312020302020202020200A2020372020382020322020302020202020200A2020382020392020312020302020202020200A2020392031302020322020302020202020200A2031302031312020312020302020202020200A2020362031312020322020302020202020200A2020352020362020312020302020202020200A2031322031332020312020302020202020200A2031332031342020322020302020202020200A2031342031352020312020302020202020200A2031352031362020322020302020202020200A2031362031372020312020302020202020200A2031322031372020322020302020202020200A2020312031322020312020302020202020200A2020342031382020312020302020202020200A2020332031392020312020302020202020200A4D2020454E44
Contributor: SASAKI S, TOYOHASHI UNIV. OF TECH.
InstType: EI
InstName: MX-1303
IoniMethod: _ENERGY 50 eV
IonPolarity: pos
Date: 2010-10-09 19:48:36+02:00
Num Peaks: 52
27 15 28 33 39 28 40 1 41 10 50 18 51 114 52 2 53 54 64 29 
65 24 75 2 76 26 77 208 78 19 89 7 90 49 91 28 95.5 22 96 1 
96.5 16 102 20 103 14 104 2 109 15 109.5 26 110 17 115 3 116 32 117 30 
151 14 152 2 163 12 164 16 165 97 166 2 177 13 178 19 179 9 180 3 
190 42 191 47 192 137 193 5 194 11 205 18 217 14 218 8 219 760 220 999 
221 173 222 14 
