Name: MassBank: JP000395
MW: 140
Formula: C8H16N2
Synonym: MassBank: JP000395
Synonym: 1,1-DICROTYLHYDRAZINE
Synonym: 1,1-DI(2-BUTENYL)HYDRAZINE
Structure: 312C312D444928322D425554454E594C2948594452415A494E452E6D6F6C0A20204368656D447261773130323330393033343032440A2031302020392020302020302020302020302020302020302020302020303939392056323030300A20202020302E333537322020202D302E3431323520202020302E30303030204E202020302020302020302020302020302020302020302020302020302020302020302020300A20202020302E3335373220202020302E3431323520202020302E30303030204E202020302020302020302020302020302020302020302020302020302020302020302020300A20202020312E303731372020202D302E3832353020202020302E303030302043202020302020302020302020302020302020302020302020302020302020302020302020300A20202020312E373836322020202D302E3431323520202020302E303030302043202020302020302020302020302020302020302020302020302020302020302020302020300A20202020312E3738363220202020302E3431323520202020302E303030302043202020302020302020302020302020302020302020302020302020302020302020302020300A20202020322E3530303620202020302E3832353020202020302E303030302043202020302020302020302020302020302020302020302020302020302020302020302020300A2020202D302E333537322020202D302E3832353020202020302E303030302043202020302020302020302020302020302020302020302020302020302020302020302020300A2020202D312E303731372020202D302E3431323520202020302E303030302043202020302020302020302020302020302020302020302020302020302020302020302020300A2020202D312E373836322020202D302E3832353020202020302E303030302043202020302020302020302020302020302020302020302020302020302020302020302020300A2020202D322E353030362020202D302E3431323520202020302E303030302043202020302020302020302020302020302020302020302020302020302020302020302020300A2020312020322020312020302020202020200A2020332020342020312020302020202020200A2020342020352020322020302020202020200A2020352020362020312020302020202020200A2020312020332020312020302020202020200A2020372020382020312020302020202020200A2020382020392020322020302020202020200A2020392031302020312020302020202020200A2020312020372020312020302020202020200A4D2020454E44
Contributor: SASAKI S, TOYOHASHI UNIV. OF TECH.
InstType: EI
InstName: SHIMADZU LKB-2091
IoniMethod: _ENERGY 70 eV
IonPolarity: pos
Date: 2010-10-09 19:48:36+02:00
Num Peaks: 41
28 157 29 540 30 88 31 6 32 42 38 11 39 232 40 2 41 621 42 194 
43 338 44 33 45 168 50 11 51 24 52 2 53 95 54 43 55 811 56 15 
57 34 58 88 59 8 67 3 68 432 69 102 70 23 71 3 80 8 81 8 
82 10 83 3 84 23 85 999 86 105 97 1 99 19 108 8 125 23 140 46 
141 65 
