Name: MassBank: JP002113
MW: 132
Formula: C5H8O4
Synonym: MassBank: JP002113
Synonym: MALONIC ACID DIMETHYL ESTER (1,1,1,7,7,7-D6)
Synonym: PROPANEDIOIC ACID DIMETHYL ESTER (1,1,1,7,7,7-D6)
Structure: 303731375F50524F50414E4544494F494320414349442044494D455448594C2045535445522028312C312C312C372C372C372D4436292E6D6F6C0A20204368656D447261773038323031303039333432440A2031352031342020302020302020302020302020302020302020302020303939392056323030300A2020202D312E3432393420202020302E3436373820202020302E30303030204F202020302020302020302020302020302020302020302020302020302020302020302020300A2020202D302E3731343920202020302E3035353320202020302E303030302043202020302020302020302020302020302020302020302020302020302020302020302020300A2020202D302E3030303520202020302E3436373820202020302E303030302043202020302020302020302020302020302020302020302020302020302020302020302020300A20202020302E3731343020202020302E3035353320202020302E303030302043202020302020302020302020302020302020302020302020302020302020302020302020300A20202020312E3432383520202020302E3436373820202020302E30303030204F202020302020302020302020302020302020302020302020302020302020302020302020300A20202020322E3134323920202020302E3035353320202020302E303030302043202020302020302020302020302020302020302020302020302020302020302020302020300A20202020322E3535363420202020302E3736393720202020302E303030302048202020312020302020302020302020302020302020302020302020302020302020302020300A20202020322E383538342020202D302E3335373220202020302E303030302048202020312020302020302020302020302020302020302020302020302020302020302020300A20202020312E373331342020202D302E3635393220202020302E303030302048202020312020302020302020302020302020302020302020302020302020302020302020300A2020202D322E3134333920202020302E3035353320202020302E303030302043202020302020302020302020302020302020302020302020302020302020302020302020300A2020202D312E373331342020202D302E3635393220202020302E303030302048202020312020302020302020302020302020302020302020302020302020302020302020300A2020202D322E383538342020202D302E3335373220202020302E303030302048202020312020302020302020302020302020302020302020302020302020302020302020300A2020202D322E3535363420202020302E3736393720202020302E303030302048202020312020302020302020302020302020302020302020302020302020302020302020300A2020202D302E373134392020202D302E3736393720202020302E30303030204F202020302020302020302020302020302020302020302020302020302020302020302020300A20202020302E373134302020202D302E3736393720202020302E30303030204F202020302020302020302020302020302020302020302020302020302020302020302020300A2031302020312020312020302020202020200A2020312020322020312020302020202020200A2020322020332020312020302020202020200A2020332020342020312020302020202020200A2020342020352020312020302020202020200A2020352020362020312020302020202020200A2020362020372020312020302020202020200A2020362020382020312020302020202020200A2020362020392020312020302020202020200A2031302031312020312020302020202020200A2031302031322020312020302020202020200A2031302031332020312020302020202020200A2020322031342020322020302020202020200A2020342031352020322020302020202020200A4D202049534F2020362020203720202032202020382020203220202039202020322020313120202032202031322020203220203133202020320A4D2020454E44
Contributor: TAJIMA S, GUNMA COLLEGE OF TECHNOLOGY
InstType: EI
InstName: HITACHI RMU-7M
IoniMethod: _ENERGY 70 eV
IonPolarity: pos
Date: 2010-10-09 19:48:36+02:00
Num Peaks: 27
18 471 28 46 29 33 30 58 32 127 33 27 41 28 42 177 43 22 44 166 
45 16 48 17 50 50 60 272 61 27 62 999 63 29 69 96 78 344 79 13 
102 19 103 31 104 778 105 39 110 10 120 14 138 31 
