Name: N-ACETYL-ALANYL-PHENYLALANYL-GLYCINE METHYLESTER
MW: 349
Formula: C17H23N3O5
Synonym: MassBank: JP000110
Synonym: N-ACETYL-ALANYL-PHENYLALANYL-GLYCINE METHYLESTER
Structure: 303035325F4E2D41434554594C2D414C414E594C2D5048454E594C414C414E594C2D474C5943494E45204D455448594C45535445522E6D6F6C0A20204368656D447261773039303331303137313432440A2032372032372020302020302020302020302020302020302020302020303939392056323030300A2020202D322E323638382020202D322E3530303620202020302E303030302043202020302020302020302020302020302020302020302020302020302020302020302020300A2020202D312E303331332020202D312E3738363120202020302E30303030204E202020302020302020302020302020302020302020302020302020302020302020302020300A2020202D312E383536332020202D312E3738363120202020302E303030302043202020302020302020302020302020302020302020302020302020302020302020302020300A2020202D332E303933382020202D322E3530303620202020302E30303030204F202020302020302020302020302020302020302020302020302020302020302020302020300A2020202D312E383536332020202D332E3231353120202020302E30303030204F202020302020302020302020302020302020302020302020302020302020302020302020300A2020202D302E363138382020202D312E3037313720202020302E303030302043202020302020302020302020302020302020302020302020302020302020302020302020300A20202020302E363138382020202D302E3335373220202020302E30303030204E202020302020302020302020302020302020302020302020302020302020302020302020300A20202020302E323036322020202D312E3037313720202020302E303030302043202020302020302020302020302020302020302020302020302020302020302020302020300A20202020302E363138382020202D312E3738363120202020302E303030302043202020302020302020302020302020302020302020302020302020302020302020302020300A20202020312E343433382020202D312E3738363120202020302E303030302043202020302020302020302020302020302020302020302020302020302020302020302020300A20202020312E383536332020202D312E3037313720202020302E303030302043202020302020302020302020302020302020302020302020302020302020302020302020300A20202020322E363831322020202D312E3037313720202020302E303030302043202020302020302020302020302020302020302020302020302020302020302020302020300A20202020332E303933382020202D312E3738363120202020302E303030302043202020302020302020302020302020302020302020302020302020302020302020302020300A20202020322E363831322020202D322E3530303620202020302E303030302043202020302020302020302020302020302020302020302020302020302020302020302020300A20202020312E383536332020202D322E3530303620202020302E303030302043202020302020302020302020302020302020302020302020302020302020302020302020300A2020202D312E303331332020202D302E3335373220202020302E30303030204F202020302020302020302020302020302020302020302020302020302020302020302020300A20202020302E3230363220202020302E3335373320202020302E303030302043202020302020302020302020302020302020302020302020302020302020302020302020300A20202020312E3434333720202020312E3037313720202020302E303030302043202020302020302020302020302020302020302020302020302020302020302020302020300A20202020302E3631383720202020312E3037313720202020302E303030302043202020302020302020302020302020302020302020302020302020302020302020302020300A20202020302E3230363220202020312E3738363220202020302E30303030204E202020302020302020302020302020302020302020302020302020302020302020302020300A2020202D302E3631383820202020302E3335373320202020302E30303030204F202020302020302020302020302020302020302020302020302020302020302020302020300A2020202D312E303331332020202D332E3231353120202020302E303030302043202020302020302020302020302020302020302020302020302020302020302020302020300A2020202D302E323036322020202D312E3738363220202020302E303030302048202020302020302020302020302020302020302020302020302020302020302020302020300A20202020312E3033313220202020302E3335373220202020302E303030302048202020302020302020302020302020302020302020302020302020302020302020302020300A20202020302E3631383720202020322E3530303620202020302E303030302043202020302020302020302020302020302020302020302020302020302020302020302020300A20202020312E3434333720202020322E3530303620202020302E30303030204F202020302020302020302020302020302020302020302020302020302020302020302020300A20202020302E3230363220202020332E3231353120202020302E303030302043202020302020302020302020302020302020302020302020302020302020302020302020300A2020322020332020312020302020202020200A2020312020332020312020302020202020200A2020312020342020322020302020202020200A2020312020352020312020302020202020200A2020382020372020312020312020202020200A2020362020382020312020302020202020200A2020382020392020312020302020202020200A2020392031302020312020302020202020200A2031302031312020312020302020202020200A2031312031322020322020302020202020200A2031322031332020312020302020202020200A2031332031342020322020302020202020200A2031342031352020312020302020202020200A2031302031352020322020302020202020200A2020362031362020322020302020202020200A2031382031392020312020302020202020200A2031372031392020312020302020202020200A2031392032302020312020312020202020200A2031372032312020322020302020202020200A2020372031372020312020302020202020200A2020322020362020312020302020202020200A2020352032322020312020302020202020200A2020382032332020312020312020202020200A2031392032342020312020312020202020200A2032302032352020312020302020202020200A2032352032362020322020302020202020200A2032352032372020312020302020202020200A4D2020454E44
Contributor: YAMAMOTO M, DEP. CHEMISTRY, FAC. SCIENCE, NARA WOMEN'S UNIV.
InstType: EI
InstName: HITACHI RMU-6M
IoniMethod: _ENERGY 70 eV
IonPolarity: pos
Date: 2010-10-09 19:48:36+02:00
Num Peaks: 87
15 50 27 29 28 70 29 4 30 107 31 13 39 25 41 3 42 72 43 222 
44 965 45 4 51 25 55 39 56 69 57 4 58 12 59 31 60 12 63 1 
65 39 68 13 69 27 70 3 71 19 72 49 74 18 77 5 78 33 83 21 
84 15 85 3 86 359 87 149 88 43 89 2 90 46 91 166 92 47 93 2 
97 13 99 13 102 18 103 8 104 47 105 35 112 14 113 4 114 297 115 37 
116 11 117 3 118 42 119 72 120 999 121 11 128 42 130 16 131 169 132 4 
145 53 146 134 147 34 149 1 159 10 160 32 175 32 187 2 189 10 203 23 
218 76 219 19 220 112 221 34 232 11 233 4 234 15 236 28 260 19 261 6 
262 10 263 25 305 34 306 1 318 25 349 63 350 23 
