Name: TETRACOSANE
MW: 338
Formula: C24H50
Synonym: MassBank: JP002658
Synonym: TETRACOSANE
Structure: 5445545241434F53414E452E6D6F6C0A20204368656D447261773038313231303037313632440A2032342032332020302020302020302020302020302020302020302020303939392056323030300A2020202D382E323136342020202D302E3230363320202020302E303030302043202020302020302020302020302020302020302020302020302020302020302020302020300A2020202D372E3530313920202020302E3230363220202020302E303030302043202020302020302020302020302020302020302020302020302020302020302020302020300A2020202D362E373837352020202D302E3230363320202020302E303030302043202020302020302020302020302020302020302020302020302020302020302020302020300A2020202D362E3037333020202020302E3230363220202020302E303030302043202020302020302020302020302020302020302020302020302020302020302020302020300A2020202D352E333538352020202D302E3230363320202020302E303030302043202020302020302020302020302020302020302020302020302020302020302020302020300A2020202D342E3634343120202020302E3230363220202020302E303030302043202020302020302020302020302020302020302020302020302020302020302020302020300A2020202D332E393239362020202D302E3230363320202020302E303030302043202020302020302020302020302020302020302020302020302020302020302020302020300A2020202D332E3231353120202020302E3230363220202020302E303030302043202020302020302020302020302020302020302020302020302020302020302020302020300A2020202D322E353030362020202D302E3230363320202020302E303030302043202020302020302020302020302020302020302020302020302020302020302020302020300A2020202D312E3738363220202020302E3230363220202020302E303030302043202020302020302020302020302020302020302020302020302020302020302020302020300A2020202D312E303731372020202D302E3230363320202020302E303030302043202020302020302020302020302020302020302020302020302020302020302020302020300A2020202D302E3335373220202020302E3230363320202020302E303030302043202020302020302020302020302020302020302020302020302020302020302020302020300A20202020302E333537322020202D302E3230363220202020302E303030302043202020302020302020302020302020302020302020302020302020302020302020302020300A20202020312E3037313720202020302E3230363320202020302E303030302043202020302020302020302020302020302020302020302020302020302020302020302020300A20202020312E373836322020202D302E3230363220202020302E303030302043202020302020302020302020302020302020302020302020302020302020302020302020300A20202020322E3530303620202020302E3230363320202020302E303030302043202020302020302020302020302020302020302020302020302020302020302020302020300A20202020332E323135312020202D302E3230363220202020302E303030302043202020302020302020302020302020302020302020302020302020302020302020302020300A20202020332E3932393620202020302E3230363320202020302E303030302043202020302020302020302020302020302020302020302020302020302020302020302020300A20202020342E363434312020202D302E3230363220202020302E303030302043202020302020302020302020302020302020302020302020302020302020302020302020300A20202020352E3335383520202020302E3230363320202020302E303030302043202020302020302020302020302020302020302020302020302020302020302020302020300A20202020362E303733302020202D302E3230363220202020302E303030302043202020302020302020302020302020302020302020302020302020302020302020302020300A20202020362E3738373520202020302E3230363320202020302E303030302043202020302020302020302020302020302020302020302020302020302020302020302020300A20202020372E353031392020202D302E3230363220202020302E303030302043202020302020302020302020302020302020302020302020302020302020302020302020300A20202020382E3231363420202020302E3230363320202020302E303030302043202020302020302020302020302020302020302020302020302020302020302020302020300A2020312020322020312020302020202020200A2020322020332020312020302020202020200A2020332020342020312020302020202020200A2020342020352020312020302020202020200A2020352020362020312020302020202020200A2020362020372020312020302020202020200A2020372020382020312020302020202020200A2020382020392020312020302020202020200A2020392031302020312020302020202020200A2031302031312020312020302020202020200A2031312031322020312020302020202020200A2031322031332020312020302020202020200A2031332031342020312020302020202020200A2031342031352020312020302020202020200A2031352031362020312020302020202020200A2031362031372020312020302020202020200A2031372031382020312020302020202020200A2031382031392020312020302020202020200A2031392032302020312020302020202020200A2032302032312020312020302020202020200A2032312032322020312020302020202020200A2032322032332020312020302020202020200A2032332032342020312020302020202020200A4D2020454E44
Contributor: HAYASHI A, DEPT. OF CHEMISTRY, FAC. OF SCI. AND TECHNOLOGY, KINKI UNIV.
InstType: EI
InstName: SHIMADZU LKB-9000B
IoniMethod: _ENERGY 70 eV
IonPolarity: pos
Date: 2010-10-09 19:48:36+02:00
Num Peaks: 150
41 285 42 71 43 708 44 19 45 10 47 5 49 6 50 1 51 4 52 2 
53 6 54 2 55 244 56 145 57 999 58 5 59 16 60 10 64 5 66 0 
67 43 68 36 69 155 70 10 71 692 72 25 73 7 75 3 76 6 77 8 
78 6 79 1 80 6 81 6 82 44 83 11 84 66 85 452 86 33 87 1 
90 7 91 8 92 3 93 1 94 10 95 20 96 33 97 9 98 4 99 133 
100 8 102 0 103 2 104 3 105 7 108 1 109 4 110 4 111 45 112 2 
113 93 114 9 115 10 116 1 117 6 121 2 123 11 124 1 125 27 126 19 
127 55 128 0 129 3 130 5 132 6 134 0 135 20 137 1 138 1 141 5 
142 7 143 5 145 9 146 1 147 24 148 6 149 72 150 2 151 9 152 8 
153 10 154 2 155 40 156 10 158 5 161 1 162 4 165 13 167 1 168 1 
169 20 177 2 178 2 180 0 181 3 182 9 183 18 184 1 187 2 188 4 
191 4 193 1 194 7 196 6 197 28 198 1 205 1 206 1 207 20 208 1 
209 13 210 6 211 13 212 7 215 4 219 1 221 3 222 1 224 7 225 14 
226 5 238 1 239 4 251 5 252 2 254 0 255 2 259 4 266 4 267 0 
270 5 271 7 272 4 281 1 282 6 295 6 316 4 327 1 333 5 338 4 
