Name: DIHYDROCARVYL ACETATE
MW: 196
Formula: C12H20O2
Synonym: MassBank: JP007161
Synonym: DIHYDROCARVYL ACETATE
Structure: 4449485944524F43415256594C20414345544154452E6D6F6C0A20204368656D447261773039323131303232353132440A2031372031372020302020302020302020302020302020302020302020303939392056323030300A2020202D302E3835363620202020312E3033373120202020302E303030302043202020302020302020302020302020302020302020302020302020302020302020302020300A2020202D302E3835363620202020302E3231323120202020302E303030302043202020302020302020302020302020302020302020302020302020302020302020302020300A2020202D302E313432312020202D302E3230303420202020302E303030302043202020302020302020302020302020302020302020302020302020302020302020302020300A20202020302E3537323320202020302E3231323120202020302E303030302043202020302020302020302020302020302020302020302020302020302020302020302020300A20202020302E3537323320202020312E3033373120202020302E303030302043202020302020302020302020302020302020302020302020302020302020302020302020300A2020202D302E3134323120202020312E3434393620202020302E303030302043202020302020302020302020302020302020302020302020302020302020302020302020300A2020202D312E3236393120202020312E3735313520202020302E303030302048202020302020302020302020302020302020302020302020302020302020302020302020300A2020202D312E343430302020202D302E3337313320202020302E30303030204F202020302020302020302020302020302020302020302020302020302020302020302020300A20202020312E3339373320202020302E3231323120202020302E303030302043202020302020302020302020302020302020302020302020302020302020302020302020300A20202020312E3830393820202020302E3932363520202020302E303030302043202020302020302020302020302020302020302020302020302020302020302020302020300A20202020312E383039382020202D302E3530323420202020302E303030302043202020302020302020302020302020302020302020302020302020302020302020302020300A2020202D312E3638313620202020312E3033373120202020302E303030302043202020302020302020302020302020302020302020302020302020302020302020302020300A2020202D312E3638313620202020302E3231323120202020302E303030302048202020302020302020302020302020302020302020302020302020302020302020302020300A20202020302E393834382020202D302E3530323420202020302E303030302048202020302020302020302020302020302020302020302020302020302020302020302020300A2020202D312E323236352020202D312E3136383220202020302E303030302043202020302020302020302020302020302020302020302020302020302020302020302020300A2020202D302E343239362020202D312E3338313720202020302E30303030204F202020302020302020302020302020302020302020302020302020302020302020302020300A2020202D312E383039382020202D312E3735313520202020302E303030302043202020302020302020302020302020302020302020302020302020302020302020302020300A2020312020322020312020302020202020200A2020322020332020312020302020202020200A2020332020342020312020302020202020200A2020342020352020312020302020202020200A2020352020362020312020302020202020200A2020362020312020312020302020202020200A2020312020372020312020312020202020200A2020322020382020312020312020202020200A2020342020392020312020312020202020200A2020392031302020312020302020202020200A2020392031312020322020302020202020200A2020312031322020312020362020202020200A2020322031332020312020362020202020200A2020342031342020312020362020202020200A2020382031352020312020302020202020200A2031352031362020322020302020202020200A2031352031372020312020302020202020200A4D2020454E44
Contributor: SODA AROMATIC CO., LTD.
InstType: EI
InstName: HITACHI M-80B
IoniMethod: _ENERGY 70 eV
IonPolarity: pos
Date: 2010-10-09 19:48:36+02:00
Num Peaks: 55
15 26 27 80 29 95 39 134 40 28 41 317 42 38 43 999 44 21 45 10 
51 16 53 107 54 22 55 175 56 20 57 19 65 27 66 18 67 184 68 225 
69 107 70 15 71 20 72 23 77 48 78 16 79 289 80 118 81 215 82 81 
83 34 84 21 85 11 91 57 92 114 93 575 94 277 95 143 96 22 97 70 
105 26 106 11 107 582 108 138 109 30 110 13 111 32 121 537 122 47 123 11 
135 16 136 584 137 77 154 44 196 19 
