Name: 1-AMINO-2-PROPANOL
MW: 75
Formula: C3H9NO
Synonym: MassBank: JP005425
Synonym: 1-AMINO-2-PROPANOL
Synonym: 2-HYDROXYPROPYLAMINE
Structure: 310A31340A312D414D494E4F2D322D50524F50414E4F4C2E6D6F6C0A20204368656D447261773131313730393231333732440A2020352020342020302020302020302020302020302020302020302020303939392056323030300A20202020302E333537322020202D302E3631383820202020302E303030302043202020302020302020302020302020302020302020302020302020302020302020302020300A2020202D302E333537322020202D302E3230363220202020302E303030302043202020302020302020302020302020302020302020302020302020302020302020302020300A2020202D302E3335373220202020302E3631383820202020302E303030302043202020302020302020302020302020302020302020302020302020302020302020302020300A2020202D312E303731372020202D302E3631383820202020302E30303030204F202020302020302020302020302020302020302020302020302020302020302020302020300A20202020312E303731372020202D302E3230363220202020302E30303030204E202020302020302020302020302020302020302020302020302020302020302020302020300A2020312020322020312020302020202020200A2020322020332020312020302020202020200A2020322020342020312020302020202020200A2020312020352020312020302020202020200A4D2020454E44
Contributor: TAJIMA S, GUNMA COLLEGE OF TECHNOLOGY
InstType: EI
InstName: HITACHI RMU-7M
IoniMethod: _ENERGY 70 eV
IonPolarity: pos
Date: 2010-10-09 19:48:36+02:00
Num Peaks: 18
15 24 18 31 19 14 27 35 28 61 29 31 30 999 31 209 32 68 41 23 
42 50 43 30 44 68 45 118 46 19 56 20 60 32 75 10 
