Name: METHYL TERT-BUTYL ETHER
MW: 88
Formula: C5H12O
Synonym: MassBank: JP003905
Synonym: METHYL TERT-BUTYL ETHER
Structure: 310A31360A4D455448594C20544552542D425554594C2045544845522E6D6F6C0A20204368656D447261773038313231303030343032440A2020362020352020302020302020302020302020302020302020302020303939392056323030300A20202020302E3335373220202020302E3431323520202020302E30303030204F202020302020302020302020302020302020302020302020302020302020302020302020300A2020202D302E3335373220202020302E3030303020202020302E303030302043202020302020302020302020302020302020302020302020302020302020302020302020300A20202020302E303535332020202D302E3731343520202020302E303030302043202020302020302020302020302020302020302020302020302020302020302020302020300A2020202D312E303731372020202D302E3431323520202020302E303030302043202020302020302020302020302020302020302020302020302020302020302020302020300A2020202D302E3736393720202020302E3731343520202020302E303030302043202020302020302020302020302020302020302020302020302020302020302020302020300A20202020312E3037313720202020302E3030303020202020302E303030302043202020302020302020302020302020302020302020302020302020302020302020302020300A2020322020332020312020302020202020200A2020322020352020312020302020202020200A2020322020342020312020302020202020200A2020312020322020312020302020202020200A2020312020362020312020302020202020200A4D2020454E44
Contributor: MASS SPECTROSCOPY SOC. OF JAPAN (MSSJ)
InstType: EI
InstName: Unknown
IoniMethod: EI
IonPolarity: pos
Date: 2010-10-09 19:48:36+02:00
Num Peaks: 22
14 28 15 184 26 30 27 13 28 33 29 228 30 24 31 3 33 22 38 30 
39 133 40 3 41 270 42 60 43 270 45 6 55 32 56 40 57 263 58 3 
73 999 79 46 
