Name: TRIMETHYLSILYL BETA-SITOSTEROL
MW: 486
Formula: C32H58OSi
Synonym: MassBank: JP002754
Synonym: TRIMETHYLSILYL BETA-SITOSTEROL
Structure: 303132345F5452494D455448594C53494C594C20424554412D5349544F535445524F4C2E6D6F6C0A20204368656D447261773038313931303233343732440A2033382034312020302020302020302020302020302020302020302020303939392056323030300A2020202D332E353733382020202D312E3736313920202020302E303030302043202020302020302020302020302020302020302020302020302020302020302020302020300A2020202D332E353733382020202D302E3933363920202020302E303030302043202020302020302020302020302020302020302020302020302020302020302020302020300A2020202D322E383539332020202D302E3532343420202020302E303030302043202020302020302020302020302020302020302020302020302020302020302020302020300A2020202D322E383539332020202D322E3137343420202020302E303030302043202020302020302020302020302020302020302020302020302020302020302020302020300A2020202D322E313434382020202D312E3736313920202020302E303030302043202020302020302020302020302020302020302020302020302020302020302020302020300A2020202D312E343330332020202D322E3137343420202020302E303030302043202020302020302020302020302020302020302020302020302020302020302020302020300A2020202D302E373135392020202D312E3736313920202020302E303030302043202020302020302020302020302020302020302020302020302020302020302020302020300A2020202D302E373135392020202D302E3933363920202020302E303030302043202020302020302020302020302020302020302020302020302020302020302020302020300A2020202D302E303031342020202D302E3532343420202020302E303030302043202020302020302020302020302020302020302020302020302020302020302020302020300A20202020302E373833322020202D302E3737393320202020302E303030302043202020302020302020302020302020302020302020302020302020302020302020302020300A20202020312E323638312020202D302E3131313920202020302E303030302043202020302020302020302020302020302020302020302020302020302020302020302020300A20202020302E3738333220202020302E3535353520202020302E303030302043202020302020302020302020302020302020302020302020302020302020302020302020300A20202020312E3033383220202020312E3334303220202020302E303030302043202020302020302020302020302020302020302020302020302020302020302020302020300A20202020312E3833353120202020312E3535333720202020302E303030302043202020302020302020302020302020302020302020302020302020302020302020302020300A20202020322E3034383620202020322E3335303620202020302E303030302043202020302020302020302020302020302020302020302020302020302020302020302020300A20202020322E3834353520202020322E3536343120202020302E303030302043202020302020302020302020302020302020302020302020302020302020302020302020300A20202020332E3035393020202020332E3336313020202020302E303030302043202020302020302020302020302020302020302020302020302020302020302020302020300A20202020332E3835353920202020332E3537343520202020302E303030302043202020302020302020302020302020302020302020302020302020302020302020302020300A20202020322E3437353620202020332E3934343320202020302E303030302043202020302020302020302020302020302020302020302020302020302020302020302020300A20202020302E3435343820202020312E3932333520202020302E303030302043202020302020302020302020302020302020302020302020302020302020302020302020300A2020202D302E3030313420202020302E3330303620202020302E303030302043202020302020302020302020302020302020302020302020302020302020302020302020300A2020202D302E3030313420202020312E3132353620202020302E303030302043202020302020302020302020302020302020302020302020302020302020302020302020300A2020202D302E3731353920202020302E3731333120202020302E303030302043202020302020302020302020302020302020302020302020302020302020302020302020300A2020202D312E3433303320202020302E3330303620202020302E303030302043202020302020302020302020302020302020302020302020302020302020302020302020300A2020202D312E343330332020202D302E3532343420202020302E303030302043202020302020302020302020302020302020302020302020302020302020302020302020300A2020202D322E313434382020202D302E3933363920202020302E303030302043202020302020302020302020302020302020302020302020302020302020302020302020300A2020202D322E313434382020202D302E3131313920202020302E303030302043202020302020302020302020302020302020302020302020302020302020302020302020300A2020202D332E383535392020202D322E3533373120202020302E30303030204F202020302020302020302020302020302020302020302020302020302020302020302020300A2020202D312E343330332020202D312E3334393420202020302E303030302048202020302020302020302020302020302020302020302020302020302020302020302020300A2020202D302E373135392020202D302E3131313920202020302E303030302048202020302020302020302020302020302020302020302020302020302020302020302020300A2020202D302E303031342020202D312E3334393420202020302E303030302048202020302020302020302020302020302020302020302020302020302020302020302020300A2020202D332E333235362020202D332E3136393020202020302E303030302053692020302020302020302020302020302020302020302020302020302020302020302020300A2020202D332E363037372020202D332E3934343320202020302E303030302043202020302020302020302020302020302020302020302020302020302020302020302020300A2020202D322E353133312020202D332E3032353720202020302E303030302043202020302020302020302020302020302020302020302020302020302020302020302020300A2020202D332E303433342020202D322E3339333820202020302E303030302043202020302020302020302020302020302020302020302020302020302020302020302020300A20202020332E3432383920202020312E3938303720202020302E303030302043202020302020302020302020302020302020302020302020302020302020302020302020300A20202020332E3231353320202020312E3138333820202020302E303030302043202020302020302020302020302020302020302020302020302020302020302020302020300A20202020322E3133313020202020322E3937363620202020302E303030302048202020302020302020302020302020302020302020302020302020302020302020302020300A2020312020322020312020302020202020200A2020322020332020312020302020202020200A2020312020342020312020302020202020200A2020342020352020312020302020202020200A2020352020362020322020302020202020200A2020362020372020312020302020202020200A2020372020382020312020302020202020200A2020382020392020312020302020202020200A2020392031302020312020302020202020200A2031302031312020312020302020202020200A2031322031312020312020312020202020200A2031322031332020312020302020202020200A2031332031342020312020302020202020200A2031342031352020312020302020202020200A2031352031362020312020302020202020200A2031362031372020312020302020202020200A2031372031382020312020302020202020200A2031372031392020312020302020202020200A2031332032302020312020362020202020200A2031322032312020312020302020202020200A2020392032312020312020302020202020200A2032312032322020312020312020202020200A2032312032332020312020302020202020200A2032332032342020312020302020202020200A2032342032352020312020302020202020200A2020382032352020312020302020202020200A2032352032362020312020302020202020200A2020332032362020312020302020202020200A2020352032362020312020302020202020200A2032362032372020312020312020202020200A2020312032382020312020302020202020200A2032352032392020312020362020202020200A2020382033302020312020312020202020200A2020392033312020312020362020202020200A2032382033322020312020302020202020200A2033322033332020312020302020202020200A2033322033342020312020302020202020200A2033322033352020312020302020202020200A2031362033362020312020312020202020200A2033362033372020312020302020202020200A2031362033382020312020312020202020200A4D2020454E44
Contributor: HAYASHI A, DEPT. OF CHEMISTRY, FAC. OF SCI. AND TECHNOLOGY, KINKI UNIV.
InstType: EI
InstName: SHIMADZU LKB-9000B
IoniMethod: _ENERGY 70 eV
IonPolarity: pos
Date: 2010-10-09 19:48:36+02:00
Num Peaks: 267
55 28 57 35 67 35 69 7 71 47 73 114 74 13 75 20 76 21 77 26 
79 53 80 1 81 152 82 15 83 62 84 1 85 97 89 11 91 96 92 3 
93 120 94 36 95 215 96 2 97 79 98 10 99 31 101 2 103 20 104 18 
105 179 106 8 107 272 108 70 109 177 110 3 111 91 112 11 113 12 115 3 
116 20 117 72 118 43 119 21 120 146 121 293 122 58 123 11 124 17 125 46 
127 17 128 3 129 774 130 132 131 187 132 6 133 218 134 71 135 189 136 5 
137 74 138 13 139 28 141 4 142 68 143 173 144 66 145 34 146 111 147 267 
148 96 149 13 150 26 151 44 152 12 153 2 154 11 155 97 156 42 157 9 
158 73 159 260 160 170 161 24 162 61 163 165 164 29 165 4 166 16 167 19 
168 19 169 4 170 18 171 70 172 35 173 13 174 54 175 107 176 29 177 9 
178 25 179 34 180 14 181 4 182 21 183 37 184 14 185 7 186 28 187 62 
188 26 189 9 190 29 191 54 192 15 193 3 194 13 195 31 196 40 197 5 
198 19 199 85 200 35 201 10 202 32 203 89 204 22 205 3 206 11 207 17 
208 14 209 3 210 13 211 32 212 18 213 19 214 68 215 231 216 114 217 16 
218 36 219 29 220 13 221 4 222 14 223 10 224 11 225 1 227 46 228 56 
229 64 230 5 231 43 232 12 233 33 234 3 235 41 236 11 237 24 238 1 
239 21 241 36 242 13 243 2 244 10 245 34 246 13 247 5 248 15 249 17 
250 12 251 2 252 10 253 45 254 22 255 29 256 64 257 47 258 13 259 4 
260 13 261 45 262 12 263 1 269 15 271 15 273 37 274 4 275 228 276 51 
277 12 281 1 283 41 284 14 285 18 287 4 288 50 289 30 290 24 291 2 
301 23 302 33 303 84 304 3 305 59 306 34 307 13 313 1 315 18 316 10 
317 14 320 2 327 14 328 12 329 56 330 2 331 11 339 20 340 11 341 2 
342 31 343 23 344 21 345 2 353 28 354 45 355 64 356 16 357 999 358 276 
359 49 366 1 367 32 368 38 369 19 370 1 378 10 379 22 380 15 381 40 
382 133 383 96 384 28 388 1 390 16 392 22 394 39 395 4 396 718 397 240 
398 87 399 2 431 28 432 10 457 10 458 2 471 108 472 47 473 103 474 4 
476 14 484 16 485 17 486 18 487 77 488 56 489 16 
