Name: MassBank: JP005471
MW: 140
Formula: C8H16N2
Synonym: MassBank: JP005471
Synonym: 2,2'-BIPYRROLIDINE
Structure: 322C32272D4249505952524F4C4944494E452E6D6F6C0A20204368656D447261773132313930393033333732440A2031302031312020302020302020302020302020302020302020302020303939392056323030300A2020202D312E303539372020202D302E3335373520202020302E30303030204E202020302020302020302020302020302020302020302020302020302020302020302020300A2020202D302E3339323320202020302E3132373520202020302E303030302043202020302020302020302020302020302020302020302020302020302020302020302020300A2020202D302E3634373220202020302E3931323120202020302E303030302043202020302020302020302020302020302020302020302020302020302020302020302020300A2020202D312E3437323220202020302E3931323120202020302E303030302043202020302020302020302020302020302020302020302020302020302020302020302020300A2020202D312E3732373220202020302E3132373520202020302E303030302043202020302020302020302020302020302020302020302020302020302020302020302020300A20202020312E3035393720202020302E3335373520202020302E30303030204E202020302020302020302020302020302020302020302020302020302020302020302020300A20202020302E333932332020202D302E3132373520202020302E303030302043202020302020302020302020302020302020302020302020302020302020302020302020300A20202020302E363437322020202D302E3931323120202020302E303030302043202020302020302020302020302020302020302020302020302020302020302020302020300A20202020312E343732322020202D302E3931323120202020302E303030302043202020302020302020302020302020302020302020302020302020302020302020302020300A20202020312E373237322020202D302E3132373520202020302E303030302043202020302020302020302020302020302020302020302020302020302020302020302020300A2020312020322020312020302020202020200A2020322020332020312020302020202020200A2020332020342020312020302020202020200A2020342020352020312020302020202020200A2020312020352020312020302020202020200A2020362020372020312020302020202020200A2020372020382020312020302020202020200A2020382020392020312020302020202020200A2020392031302020312020302020202020200A2020362031302020312020302020202020200A2020322020372020312020302020202020200A4D2020454E44
Contributor: HIRAMA M, TOHOKU UNIV. FACULTY OF SCIENCE DEPT. OF CHEMISTRY YUKIBUNSEKI
InstType: EI
InstName: HITACHI M-52
IoniMethod: _ENERGY 14 eV
IonPolarity: pos
Date: 2010-10-09 19:48:36+02:00
Num Peaks: 1
70 999 
