Name: 4-HYDROXYBENZALDEHYDE
MW: 122
Formula: C7H6O2
Synonym: MassBank: JP002063
Synonym: 4-HYDROXYBENZALDEHYDE
Structure: 310A32330A342D485944524F585942454E5A414C4445485944452E6D6F6C0A20204368656D447261773034323031303130343732440A2020392020392020302020302020302020302020302020302020302020303939392056323030300A2020202D312E3434333720202020302E3030303020202020302E303030302043202020302020302020302020302020302020302020302020302020302020302020302020300A2020202D302E3631383720202020302E3030303020202020302E303030302043202020302020302020302020302020302020302020302020302020302020302020302020300A2020202D302E3230363220202020302E3731343520202020302E303030302043202020302020302020302020302020302020302020302020302020302020302020302020300A20202020302E3631383720202020302E3731343520202020302E303030302043202020302020302020302020302020302020302020302020302020302020302020302020300A20202020312E303331332020202D302E3030303020202020302E303030302043202020302020302020302020302020302020302020302020302020302020302020302020300A20202020302E363138382020202D302E3731343520202020302E303030302043202020302020302020302020302020302020302020302020302020302020302020302020300A2020202D302E323036322020202D302E3731343520202020302E303030302043202020302020302020302020302020302020302020302020302020302020302020302020300A2020202D312E3835363320202020302E3731343520202020302E30303030204F202020302020302020302020302020302020302020302020302020302020302020302020300A20202020312E383536332020202D302E3030303020202020302E30303030204F202020302020302020302020302020302020302020302020302020302020302020302020300A2020312020322020312020302020202020200A2020322020332020312020302020202020200A2020332020342020322020302020202020200A2020342020352020312020302020202020200A2020352020362020322020302020202020200A2020362020372020312020302020202020200A2020322020372020322020302020202020200A2020312020382020322020302020202020200A2020352020392020312020302020202020200A4D2020454E44
Contributor: ENDO K, PHARMACEUTICAL INST., TOHOKU UNIV.
InstType: EI
InstName: HITACHI M-52
IoniMethod: _ENERGY 25 eV
IonPolarity: pos
Date: 2010-10-09 19:48:36+02:00
Num Peaks: 35
18 185 28 76 38 22 39 28 40 54 41 33 43 65 50 2 51 44 53 44 
55 44 57 7 65 446 66 65 69 44 71 7 73 44 77 33 81 22 83 3 
85 22 92 22 93 424 94 7 97 33 107 33 111 22 113 1 120 22 121 999 
122 902 123 9 60 22 63 65 64 44 
