Name: MassBank: JP002037
MW: 140
Formula: C5H4N2O3
Synonym: MassBank: JP002037
Synonym: 5-FORMYL-4,6-DIHYDROXYPYRIMIDINE
Synonym: 4,6-DIHYDROXYPYRIMIDINE-5-CARBALDEHYDE
Structure: 352D464F524D594C2D342C362D4449485944524F5859505952494D4944494E452E6D6F6C0A20204368656D447261773034323331303035333232440A2031302031302020302020302020302020302020302020302020302020303939392056323030300A20202020312E3434333820202020302E3030303020202020302E303030302043202020302020302020302020302020302020302020302020302020302020302020302020300A20202020312E303331332020202D302E3731343520202020302E30303030204E202020302020302020302020302020302020302020302020302020302020302020302020300A20202020302E323036322020202D302E3731343520202020302E303030302043202020302020302020302020302020302020302020302020302020302020302020302020300A2020202D302E3230363320202020302E3030303020202020302E303030302043202020302020302020302020302020302020302020302020302020302020302020302020300A20202020302E3230363220202020302E3731343520202020302E303030302043202020302020302020302020302020302020302020302020302020302020302020302020300A20202020312E3033313320202020302E3731343520202020302E30303030204E202020302020302020302020302020302020302020302020302020302020302020302020300A2020202D302E3230363220202020312E3432383920202020302E30303030204F202020302020302020302020302020302020302020302020302020302020302020302020300A2020202D302E323036322020202D312E3432383920202020302E30303030204F202020302020302020302020302020302020302020302020302020302020302020302020300A2020202D312E3033313320202020302E3030303020202020302E303030302043202020302020302020302020302020302020302020302020302020302020302020302020300A2020202D312E343433382020202D302E3731343520202020302E30303030204F202020302020302020302020302020302020302020302020302020302020302020302020300A2020312020322020322020302020202020200A2020322020332020312020302020202020200A2020332020342020322020302020202020200A2020342020352020312020302020202020200A2020352020362020322020302020202020200A2020312020362020312020302020202020200A2020352020372020312020302020202020200A2020332020382020312020302020202020200A2020392031302020322020302020202020200A2020342020392020312020302020202020200A4D2020454E44
Contributor: SASAKI S, TOYOHASHI UNIV. OF TECH.
InstType: EI
InstName: MS-902
IoniMethod: _ENERGY 70 eV
IonPolarity: pos
Date: 2010-10-09 19:48:36+02:00
Num Peaks: 24
36 38 38 15 39 16 40 2 41 75 42 108 43 98 44 9 47 15 53 36 
56 46 57 19 58 29 67 25 68 46 69 17 70 63 71 73 84 82 112 999 
113 58 139 17 140 102 141 10 
