Name: MassBank: JP003053
MW: 213
Formula: C4HCl2F5
Synonym: MassBank: JP003053
Synonym: 3,4-DICHLORO-1,1,1,4,4-PENTAFLUORO-2-BUTENE
Structure: 332C342D444943484C4F524F2D312C312C312C342C342D50454E5441464C554F524F2D322D425554454E452E6D6F6C0A20204368656D447261773032323131303232323032440A2031312031302020302020302020302020302020302020302020302020303939392056323030300A20202020312E303731372020202D302E3135313020202020302E303030302043202020302020302020302020302020302020302020302020302020302020302020302020300A20202020302E3335373220202020302E3236313520202020302E303030302043202020302020302020302020302020302020302020302020302020302020302020302020300A2020202D302E333537322020202D302E3135313020202020302E303030302043202020302020302020302020302020302020302020302020302020302020302020302020300A2020202D312E3037313720202020302E3236313520202020302E303030302043202020302020302020302020302020302020302020302020302020302020302020302020300A2020202D312E343834322020202D302E3435333020202020302E303030302046202020302020302020302020302020302020302020302020302020302020302020302020300A2020202D302E3635393220202020302E3937363020202020302E303030302046202020302020302020302020302020302020302020302020302020302020302020302020300A20202020312E373836322020202D302E3536333520202020302E303030302046202020302020302020302020302020302020302020302020302020302020302020302020300A20202020302E363539322020202D302E3836353520202020302E303030302046202020302020302020302020302020302020302020302020302020302020302020302020300A20202020312E3438343220202020302E3536333520202020302E303030302046202020302020302020302020302020302020302020302020302020302020302020302020300A2020202D312E3738363220202020302E3637343020202020302E3030303020436C2020302020302020302020302020302020302020302020302020302020302020302020300A2020202D302E333537322020202D302E3937363020202020302E3030303020436C2020302020302020302020302020302020302020302020302020302020302020302020300A2020312020322020312020302020202020200A2020322020332020322020302020202020200A2020332020342020312020302020202020200A2020342020352020312020302020202020200A2020342020362020312020302020202020200A2020312020372020312020302020202020200A2020312020382020312020312020202020200A2020312020392020312020312020202020200A2020342031302020312020302020202020200A2020332031312020312020302020202020200A4D2020454E44
Contributor: SASAKI S, TOYOHASHI UNIV. OF TECH.
InstType: EI
InstName: Unknown
IoniMethod: EI
IonPolarity: pos
Date: 2010-10-09 19:48:36+02:00
Num Peaks: 32
31 4 36 51 38 16 51 0 69 54 75 23 85 65 87 2 109 42 111 10 
113 59 125 0 129 365 131 119 145 263 147 16 149 28 159 5 160 4 161 0 
163 17 165 11 167 3 179 999 181 325 194 20 195 22 196 1 197 17 214 204 
216 136 218 20 
