Name: MassBank: JP005358
MW: 292
Formula: C19H32O2
Synonym: MassBank: JP005358
Synonym: (Z,Z,Z)-9,12,15-OCTADECATRIENOIC ACID METHYL ESTER
Synonym: METHYL ALPHA-LINOLENATE
Structure: 285A2C5A2C5A292D392C31322C31352D4F43544144454341545249454E4F49432041434944204D455448594C2045535445522E6D6F6C0A20204368656D447261773130323230393232323332440A2032372032362020302020302020302020302020302020302020302020303939392056323030300A2020202D332E3931383720202020312E3037313720202020302E303030302043202020302020302020302020302020302020302020302020302020302020302020302020300A2020202D332E3039333720202020312E3037313720202020302E303030302043202020302020302020302020302020302020302020302020302020302020302020302020300A2020202D322E3638313220202020302E3335373220202020302E303030302043202020302020302020302020302020302020302020302020302020302020302020302020300A2020202D312E3835363220202020302E3335373220202020302E303030302043202020302020302020302020302020302020302020302020302020302020302020302020300A2020202D312E343433372020202D302E3335373220202020302E303030302043202020302020302020302020302020302020302020302020302020302020302020302020300A2020202D302E363138372020202D302E3335373220202020302E303030302043202020302020302020302020302020302020302020302020302020302020302020302020300A2020202D302E323036322020202D312E3037313720202020302E303030302043202020302020302020302020302020302020302020302020302020302020302020302020300A20202020302E363138372020202D312E3037313720202020302E303030302043202020302020302020302020302020302020302020302020302020302020302020302020300A20202020312E303331332020202D312E3738363220202020302E303030302043202020302020302020302020302020302020302020302020302020302020302020302020300A20202020312E383536322020202D312E3738363220202020302E303030302043202020302020302020302020302020302020302020302020302020302020302020302020300A20202020322E323638382020202D312E3037313720202020302E303030302043202020302020302020302020302020302020302020302020302020302020302020302020300A20202020332E303933372020202D312E3037313720202020302E303030302043202020302020302020302020302020302020302020302020302020302020302020302020300A20202020332E353036332020202D302E3335373220202020302E303030302043202020302020302020302020302020302020302020302020302020302020302020302020300A20202020332E3039333820202020302E3335373220202020302E303030302043202020302020302020302020302020302020302020302020302020302020302020302020300A20202020332E3530363320202020312E3037313720202020302E303030302043202020302020302020302020302020302020302020302020302020302020302020302020300A20202020332E3039333820202020312E3738363220202020302E303030302043202020302020302020302020302020302020302020302020302020302020302020302020300A20202020322E3236383820202020312E3738363220202020302E303030302043202020302020302020302020302020302020302020302020302020302020302020302020300A20202020312E3835363320202020322E3530303620202020302E303030302043202020302020302020302020302020302020302020302020302020302020302020302020300A2020202D342E3333313320202020302E3335373220202020302E30303030204F202020302020302020302020302020302020302020302020302020302020302020302020300A2020202D342E3333313320202020312E3738363220202020302E30303030204F202020302020302020302020302020302020302020302020302020302020302020302020300A2020202D332E3931383720202020322E3530303620202020302E303030302043202020302020302020302020302020302020302020302020302020302020302020302020300A20202020302E363138372020202D322E3530303620202020302E303030302048202020302020302020302020302020302020302020302020302020302020302020302020300A20202020322E323638372020202D322E3530303620202020302E303030302048202020302020302020302020302020302020302020302020302020302020302020302020300A20202020332E353036322020202D312E3738363220202020302E303030302048202020302020302020302020302020302020302020302020302020302020302020302020300A20202020342E333331332020202D302E3335373220202020302E303030302048202020302020302020302020302020302020302020302020302020302020302020302020300A20202020342E3333313320202020312E3037313720202020302E303030302048202020302020302020302020302020302020302020302020302020302020302020302020300A20202020332E3530363320202020322E3530303620202020302E303030302048202020302020302020302020302020302020302020302020302020302020302020302020300A2020312020322020312020302020202020200A2020322020332020312020302020202020200A2020332020342020312020302020202020200A2020342020352020312020302020202020200A2020352020362020312020302020202020200A2020362020372020312020302020202020200A2020372020382020312020302020202020200A2020382020392020312020302020202020200A2020392031302020322020302020202020200A2031302031312020312020302020202020200A2031312031322020312020302020202020200A2031322031332020322020302020202020200A2031332031342020312020302020202020200A2031342031352020312020302020202020200A2031352031362020322020302020202020200A2031362031372020312020302020202020200A2031372031382020312020302020202020200A2020312031392020322020302020202020200A2020312032302020312020302020202020200A2032302032312020312020302020202020200A2020392032322020312020302020202020200A2031302032332020312020302020202020200A2031322032342020312020302020202020200A2031332032352020312020302020202020200A2031352032362020312020302020202020200A2031362032372020312020302020202020200A4D2020454E44
Contributor: YAMAOKA R, KYOTO INSTITUTE OF TECHNOLOGY
InstType: EI
InstName: HITACHI M-80B
IoniMethod: _ENERGY 70 eV
IonPolarity: pos
Date: 2010-10-09 19:48:36+02:00
Num Peaks: 77
40 34 41 639 42 60 43 243 45 34 51 27 53 175 54 119 55 520 56 38 
57 56 59 165 60 15 63 12 65 90 66 111 67 647 68 191 69 189 71 25 
73 21 74 128 77 237 78 110 79 999 80 427 81 503 82 109 83 70 84 15 
85 30 87 125 88 15 91 274 92 62 93 465 94 206 95 547 96 67 97 33 
101 18 105 70 106 45 107 177 108 384 109 117 110 19 111 30 115 23 117 28 
119 39 120 31 121 143 122 44 123 44 129 20 131 18 133 29 135 94 136 67 
137 19 147 16 149 78 150 40 151 12 163 27 164 20 173 27 175 13 189 10 
191 24 236 37 237 14 261 30 263 15 292 65 293 27 
