Name: ORTHO-SEC-BUTYLPHENOL
MW: 150
Formula: C10H14O
Synonym: MassBank: JP004063
Synonym: ORTHO-SEC-BUTYLPHENOL
Structure: 4F5254484F2D5345432D425554594C5048454E4F4C2E6D6F6C0A20204368656D447261773038313231303033343332440A2031312031312020302020302020302020302020302020302020302020303939392056323030300A2020202D302E3230363320202020302E3335373220202020302E303030302043202020302020302020302020302020302020302020302020302020302020302020302020300A20202020302E323036332020202D302E3335373220202020302E303030302043202020302020302020302020302020302020302020302020302020302020302020302020300A2020202D302E323036322020202D312E3037313720202020302E303030302043202020302020302020302020302020302020302020302020302020302020302020302020300A2020202D312E303331322020202D312E3037313720202020302E303030302043202020302020302020302020302020302020302020302020302020302020302020302020300A2020202D312E343433382020202D302E3335373220202020302E303030302043202020302020302020302020302020302020302020302020302020302020302020302020300A2020202D312E3033313320202020302E3335373220202020302E303030302043202020302020302020302020302020302020302020302020302020302020302020302020300A20202020312E303331332020202D302E3335373220202020302E303030302043202020302020302020302020302020302020302020302020302020302020302020302020300A20202020312E3434333820202020302E3335373220202020302E303030302043202020302020302020302020302020302020302020302020302020302020302020302020300A20202020312E3033313320202020312E3037313720202020302E303030302043202020302020302020302020302020302020302020302020302020302020302020302020300A20202020312E343433382020202D312E3037313720202020302E303030302043202020302020302020302020302020302020302020302020302020302020302020302020300A20202020302E3230363320202020312E3037313720202020302E30303030204F202020302020302020302020302020302020302020302020302020302020302020302020300A2020312020322020312020302020202020200A2020322020332020322020302020202020200A2020332020342020312020302020202020200A2020342020352020322020302020202020200A2020352020362020312020302020202020200A2020312020362020322020302020202020200A2020372020382020312020302020202020200A2020382020392020312020302020202020200A2020372031302020312020302020202020200A2020322020372020312020302020202020200A2020312031312020312020302020202020200A4D2020454E44
Contributor: MASS SPECTROSCOPY SOC. OF JAPAN (MSSJ)
InstType: EI
InstName: HITACHI RMU-6L
IoniMethod: _ENERGY 70 eV
IonPolarity: pos
Date: 2010-10-09 19:48:36+02:00
Num Peaks: 32
26 11 27 112 29 62 38 2 39 120 40 17 41 50 42 2 50 29 51 69 
52 23 53 3 55 29 62 21 63 32 64 2 65 50 66 21 77 185 78 3 
79 18 91 127 103 182 104 2 108 15 115 20 117 109 121 999 122 100 135 23 
150 167 151 15 
