Name: N-(4-ETHOXYPHENYL)-2-PYRROLIDONE
MW: 205
Formula: C12H15NO2
Synonym: MassBank: JP004176
Synonym: N-(4-ETHOXYPHENYL)-2-PYRROLIDONE
Structure: 4E2D28342D4554484F58595048454E594C292D322D505952524F4C49444F4E452E6D6F6C0A20204368656D447261773038313231303031313932440A2031352031362020302020302020302020302020302020302020302020303939392056323030300A20202020312E363334302020202D302E3336383820202020302E30303030204E202020302020302020302020302020302020302020302020302020302020302020302020300A20202020322E3131383920202020302E3239383620202020302E303030302043202020302020302020302020302020302020302020302020302020302020302020302020300A20202020322E3930333520202020302E3034333720202020302E303030302043202020302020302020302020302020302020302020302020302020302020302020302020300A20202020322E393033352020202D302E3738313320202020302E303030302043202020302020302020302020302020302020302020302020302020302020302020302020300A20202020322E313138392020202D312E3033363220202020302E303030302043202020302020302020302020302020302020302020302020302020302020302020302020300A20202020312E3836343020202020312E3038333320202020302E30303030204F202020302020302020302020302020302020302020302020302020302020302020302020300A20202020302E383039302020202D302E3336383820202020302E303030302043202020302020302020302020302020302020302020302020302020302020302020302020300A20202020302E333936352020202D312E3038333320202020302E303030302043202020302020302020302020302020302020302020302020302020302020302020302020300A2020202D302E343238352020202D312E3038333320202020302E303030302043202020302020302020302020302020302020302020302020302020302020302020302020300A2020202D302E383431302020202D302E3336383820202020302E303030302043202020302020302020302020302020302020302020302020302020302020302020302020300A2020202D302E3432383520202020302E3334353720202020302E303030302043202020302020302020302020302020302020302020302020302020302020302020302020300A20202020302E3339363520202020302E3334353720202020302E303030302043202020302020302020302020302020302020302020302020302020302020302020302020300A2020202D312E363636302020202D302E3336383820202020302E30303030204F202020302020302020302020302020302020302020302020302020302020302020302020300A2020202D322E303738352020202D312E3038333320202020302E303030302043202020302020302020302020302020302020302020302020302020302020302020302020300A2020202D322E393033352020202D312E3038333320202020302E303030302043202020302020302020302020302020302020302020302020302020302020302020302020300A2020312020322020312020302020202020200A2020322020332020312020302020202020200A2020332020342020312020302020202020200A2020342020352020312020302020202020200A2020312020352020312020302020202020200A2020322020362020322020302020202020200A2020372020382020312020302020202020200A2020382020392020322020302020202020200A2020392031302020312020302020202020200A2031302031312020322020302020202020200A2031312031322020312020302020202020200A2020372031322020322020302020202020200A2031342031352020312020302020202020200A2031332031342020312020302020202020200A2031302031332020312020302020202020200A2020312020372020312020302020202020200A4D2020454E44
Contributor: MASS SPECTROSCOPY SOC. OF JAPAN (MSSJ)
InstType: EI
InstName: HITACHI RMU-6E
IoniMethod: _ENERGY 70 eV
IonPolarity: pos
Date: 2010-10-09 19:48:36+02:00
Num Peaks: 129
26 15 27 78 28 70 29 7 30 11 31 3 32 4 37 0 38 19 39 120 
40 18 41 20 42 45 43 14 44 2 45 0 50 23 51 41 52 50 53 3 
54 13 55 54 56 7 57 1 59 2 60 4 61 2 62 1 63 56 64 60 
65 130 66 4 67 20 68 9 69 344 70 2 71 4 72 1 73 2 74 1 
75 10 76 20 77 54 78 3 79 22 80 21 81 14 82 0 83 3 84 7 
85 2 86 0 87 3 88 2 89 6 90 2 91 37 92 52 93 68 94 4 
95 8 97 2 98 3 99 0 102 6 103 9 104 21 105 5 106 21 107 28 
108 42 109 1 110 3 115 5 116 5 117 1 118 16 119 23 120 120 121 7 
122 770 123 74 124 4 125 0 126 1 130 7 131 6 132 1 133 19 134 17 
135 34 136 1 137 4 141 13 142 3 145 0 146 14 147 6 148 66 149 4 
150 390 151 38 152 7 155 1 156 2 159 2 160 8 161 0 162 4 163 7 
165 2 166 0 167 2 168 2 169 4 170 0 174 4 175 4 176 676 177 25 
178 28 179 2 180 1 203 0 204 14 205 999 206 140 207 1 208 2 
