Name: METHYL CHLOROFORMATE
MW: 93
Formula: C2H3ClO2
Synonym: MassBank: JP009388
Synonym: METHYL CHLOROFORMATE
Structure: 310A31340A4D455448594C2043484C4F524F464F524D4154452E6D6F6C0A20204368656D447261773038313231303030313632440A2020352020342020302020302020302020302020302020302020302020303939392056323030300A2020202D302E333537322020202D302E3230363220202020302E303030302043202020302020302020302020302020302020302020302020302020302020302020302020300A2020202D302E3335373220202020302E3631383820202020302E30303030204F202020302020302020302020302020302020302020302020302020302020302020302020300A20202020302E333537322020202D302E3631383820202020302E30303030204F202020302020302020302020302020302020302020302020302020302020302020302020300A2020202D312E303731372020202D302E3631383820202020302E3030303020436C2020302020302020302020302020302020302020302020302020302020302020302020300A20202020312E303731372020202D302E3230363220202020302E303030302043202020302020302020302020302020302020302020302020302020302020302020302020300A2020312020322020322020302020202020200A2020312020332020312020302020202020200A2020312020342020312020302020202020200A2020332020352020312020302020202020200A4D2020454E44
Contributor: GUNMA COLLEGE OF TECHNOLOGY
InstType: EI
InstName: HITACHI M-80A
IoniMethod: _ENERGY 70 eV
IonPolarity: pos
Date: 2010-10-09 19:48:36+02:00
Num Peaks: 23
12 14 13 21 14 61 15 758 16 22 18 24 28 63 29 238 30 44 31 48 
35 100 36 22 37 33 44 104 47 11 49 10 50 40 52 12 59 999 60 23 
63 252 65 83 94 21 
