Name: MassBank: JP009981
MW: 90
Formula: C4H10O2
Synonym: MassBank: JP009981
Synonym: 2-METHYLPROPANE-1,3-DIOL
Structure: 310A31360A322D4D455448594C50524F50414E452D312C332D44494F4C2E6D6F6C0A20204368656D447261773032313831303136333632440A2020362020352020302020302020302020302020302020302020302020303939392056323030300A20202020302E343132352020202D302E3731343520202020302E303030302043202020302020302020302020302020302020302020302020302020302020302020302020300A20202020302E3030303020202020302E3030303020202020302E303030302043202020302020302020302020302020302020302020302020302020302020302020302020300A2020202D302E3832353020202020302E3030303020202020302E303030302043202020302020302020302020302020302020302020302020302020302020302020302020300A20202020312E323337352020202D302E3731343520202020302E30303030204F202020302020302020302020302020302020302020302020302020302020302020302020300A2020202D312E323337352020202D302E3731343520202020302E30303030204F202020302020302020302020302020302020302020302020302020302020302020302020300A20202020302E3431323520202020302E3731343520202020302E303030302043202020302020302020302020302020302020302020302020302020302020302020302020300A2020312020322020312020302020202020200A2020322020332020312020302020202020200A2020312020342020312020302020202020200A2020332020352020312020302020202020200A2020322020362020312020302020202020200A4D2020454E44
Contributor: KURARAY CO., LTD.
InstType: EI
InstName: JEOL JMS-D-300
IoniMethod: _ENERGY 70 eV
IonPolarity: pos
Date: 2010-10-09 19:48:36+02:00
Num Peaks: 31
26 26 27 174 28 114 29 32 30 34 31 792 32 18 39 16 40 71 41 611 
42 999 43 34 44 75 45 54 47 23 49 22 54 39 55 82 56 17 57 78 
58 59 59 180 60 65 70 2 71 73 72 226 73 23 75 21 87 18 89 30 
117 14 
