Name: 2-HYDROXY-4-METHOXYACETOPHENONE
MW: 166
Formula: C9H10O3
Synonym: MassBank: JP000542
Synonym: 2-HYDROXY-4-METHOXYACETOPHENONE
Structure: 310A350A322D485944524F58592D342D4D4554484F5859414345544F5048454E4F4E452E6D6F6C0A20204368656D447261773130313831303136333232440A2020302020302020302020302020302020302020302020302020302020303939392056323030300A4D2020454E44
Contributor: HASHIMOTO K, KYOTO COLLEGE OF PHARMACY
InstType: EI
InstName: HITACHI M-80
IoniMethod: _ENERGY 20 eV
IonPolarity: pos
Date: 2010-10-09 19:48:36+02:00
Num Peaks: 13
41 10 43 17 65 15 80 12 81 13 93 12 95 64 108 51 123 11 151 999 
152 84 166 446 167 44 
