Name: LINALYL FORMATE
MW: 182
Formula: C11H18O2
Synonym: MassBank: JP006474
Synonym: LINALYL FORMATE
Synonym: 1,5-DIMETHYL-1-VINYL-4-HEXENYL FORMATE
Structure: 4C494E414C594C20464F524D4154452E6D6F6C0A20204368656D447261773131313630393132353332440A2031332031322020302020302020302020302020302020302020302020303939392056323030300A20202020302E303935372020202D312E3233373520202020302E303030302043202020302020302020302020302020302020302020302020302020302020302020302020300A20202020302E303935372020202D322E3036323520202020302E30303030204F202020302020302020302020302020302020302020302020302020302020302020302020300A20202020302E383130322020202D302E3832353020202020302E30303030204F202020302020302020302020302020302020302020302020302020302020302020302020300A20202020302E383130322020202D302E3030303020202020302E303030302043202020302020302020302020302020302020302020302020302020302020302020302020300A20202020302E3831303220202020302E3832353020202020302E303030302043202020302020302020302020302020302020302020302020302020302020302020302020300A20202020302E3039353720202020312E3233373520202020302E303030302043202020302020302020302020302020302020302020302020302020302020302020302020300A2020202D302E3631383820202020302E3832353020202020302E303030302043202020302020302020302020302020302020302020302020302020302020302020302020300A2020202D312E3333333220202020312E3233373520202020302E303030302043202020302020302020302020302020302020302020302020302020302020302020302020300A2020202D322E3034373720202020302E3832353020202020302E303030302043202020302020302020302020302020302020302020302020302020302020302020302020300A2020202D312E3333333220202020322E3036323520202020302E303030302043202020302020302020302020302020302020302020302020302020302020302020302020300A20202020312E363335322020202D302E3030303020202020302E303030302043202020302020302020302020302020302020302020302020302020302020302020302020300A20202020322E303437372020202D302E3731343520202020302E303030302043202020302020302020302020302020302020302020302020302020302020302020302020300A2020202D302E303134382020202D302E3030303020202020302E303030302043202020302020302020302020302020302020302020302020302020302020302020302020300A2020312020322020322020302020202020200A2020312020332020312020302020202020200A2020342020352020312020302020202020200A2020352020362020312020302020202020200A2020362020372020312020302020202020200A2020372020382020322020302020202020200A2020382020392020312020302020202020200A2020382031302020312020302020202020200A2020342031312020312020302020202020200A2031312031322020322020302020202020200A2020342031332020312020302020202020200A2020332020342020312020302020202020200A4D2020454E44
Contributor: HISAHIRO HAGIWARA, CHEMICAL RESEARCH INSTITUTE OF NON-AQUEOUSSOLUTIONS TOHOKU UNIV.
InstType: EI
InstName: HITACHI M-80B
IoniMethod: _ENERGY 70 eV
IonPolarity: pos
Date: 2010-10-09 19:48:36+02:00
Num Peaks: 48
15 15 27 207 29 140 31 11 39 251 40 61 41 742 42 55 43 347 44 14 
45 12 51 47 52 22 53 195 54 22 55 286 56 25 57 17 65 43 66 20 
67 215 68 194 69 472 70 34 71 175 72 11 77 87 78 15 79 153 80 394 
81 143 82 47 83 43 91 102 92 152 93 999 94 115 95 42 105 61 106 14 
107 83 108 16 109 13 119 11 121 305 122 24 136 89 137 19 
