Name: ISOSAFROLE
MW: 162
Formula: C10H10O2
Synonym: MassBank: JP009329
Synonym: ISOSAFROLE
Structure: 49534F534146524F4C452E6D6F6C0A20204368656D447261773038313131303231353532440A2031322031332020302020302020302020302020302020302020302020303939392056323030300A20202020322E343230392020202D302E3832353020202020302E303030302043202020302020302020302020302020302020302020302020302020302020302020302020300A20202020312E373036352020202D302E3431323520202020302E303030302043202020302020302020302020302020302020302020302020302020302020302020302020300A20202020302E393932302020202D302E3832353020202020302E303030302043202020302020302020302020302020302020302020302020302020302020302020302020300A20202020302E323737352020202D302E3431323520202020302E303030302043202020302020302020302020302020302020302020302020302020302020302020302020300A2020202D302E343336392020202D302E3832353020202020302E303030302043202020302020302020302020302020302020302020302020302020302020302020302020300A2020202D312E313531342020202D302E3431323520202020302E303030302043202020302020302020302020302020302020302020302020302020302020302020302020300A2020202D312E393336302020202D302E3636373420202020302E30303030204F202020302020302020302020302020302020302020302020302020302020302020302020300A2020202D322E343230392020202D302E3030303020202020302E303030302043202020302020302020302020302020302020302020302020302020302020302020302020300A2020202D312E3933363020202020302E3636373420202020302E30303030204F202020302020302020302020302020302020302020302020302020302020302020302020300A2020202D312E3135313420202020302E3431323520202020302E303030302043202020302020302020302020302020302020302020302020302020302020302020302020300A2020202D302E3433363920202020302E3832353020202020302E303030302043202020302020302020302020302020302020302020302020302020302020302020302020300A20202020302E3237373520202020302E3431323520202020302E303030302043202020302020302020302020302020302020302020302020302020302020302020302020300A2020312020322020312020302020202020200A2020322020332020322020302020202020200A2020332020342020312020302020202020200A2020342020352020312020302020202020200A2020352020362020322020302020202020200A2020362020372020312020302020202020200A2020372020382020312020302020202020200A2020382020392020312020302020202020200A2020362031302020312020302020202020200A2020392031302020312020302020202020200A2031302031312020322020302020202020200A2031312031322020312020302020202020200A2020342031322020322020302020202020200A4D2020454E44
Contributor: YAMAMOTO M, DEP. CHEMISTRY, FAC. SCIENCE, NARA WOMEN'S UNIV.
InstType: EI
InstName: HITACHI RMU-6M
IoniMethod: _ENERGY 70 eV
IonPolarity: pos
Date: 2010-10-09 19:48:36+02:00
Num Peaks: 39
27 42 28 18 29 10 38 3 39 107 41 20 50 69 51 15 52 48 53 21 
55 11 62 3 63 89 64 12 65 39 66 1 74 21 75 27 76 40 77 19 
78 132 79 37 80 12 81 5 89 21 91 59 102 43 103 25 104 305 105 59 
119 14 131 27 132 96 133 16 135 122 161 24 162 999 163 101 164 14 
