Name: MassBank: JP006611
MW: 166
Formula: C10H14O2
Synonym: MassBank: JP006611
Synonym: CARVONE-1,6-OXIDE
Structure: 434152564F4E452D312C362D4F584944452E6D6F6C0A20204368656D447261773039303631303231333632440A2031332031342020302020302020302020302020302020302020302020303939392056323030300A2020202D302E3338313620202020302E3532363020202020302E303030302043202020302020302020302020302020302020302020302020302020302020302020302020300A2020202D302E333831362020202D302E3239393020202020302E303030302043202020302020302020302020302020302020302020302020302020302020302020302020300A20202020302E333332392020202D302E3731313520202020302E303030302043202020302020302020302020302020302020302020302020302020302020302020302020300A20202020312E303437342020202D302E3239393020202020302E303030302043202020302020302020302020302020302020302020302020302020302020302020302020300A20202020312E3034373420202020302E3532363020202020302E303030302043202020302020302020302020302020302020302020302020302020302020302020302020300A20202020302E3333323920202020302E3933383520202020302E303030302043202020302020302020302020302020302020302020302020302020302020302020302020300A20202020312E3736313820202020302E3131333520202020302E30303030204F202020302020302020302020302020302020302020302020302020302020302020302020300A20202020312E343539392020202D312E3031333420202020302E303030302043202020302020302020302020302020302020302020302020302020302020302020302020300A20202020302E333332392020202D312E3533363520202020302E30303030204F202020302020302020302020302020302020302020302020302020302020302020302020300A2020202D312E3137383520202020302E3733393620202020302E303030302043202020302020302020302020302020302020302020302020302020302020302020302020300A2020202D302E3438393320202020312E3334343020202020302E303030302048202020302020302020302020302020302020302020302020302020302020302020302020300A2020202D312E3339323020202020312E3533363520202020302E303030302043202020302020302020302020302020302020302020302020302020302020302020302020300A2020202D312E3736313820202020302E3135363220202020302E303030302043202020302020302020302020302020302020302020302020302020302020302020302020300A2020312020322020312020302020202020200A2020322020332020312020302020202020200A2020332020342020312020302020202020200A2020342020352020312020302020202020200A2020352020362020312020302020202020200A2020362020312020312020302020202020200A2020342020372020312020302020202020200A2020372020352020312020302020202020200A2020342020382020312020302020202020200A2020332020392020322020302020202020200A2020312031302020312020312020202020200A2020312031312020312020362020202020200A2031302031322020312020302020202020200A2031302031332020322020302020202020200A4D2020454E44
Contributor: HISAHIRO HAGIWARA, CHEMICAL RESEARCH INSTITUTE OF NON-AQUEOUSSOLUTIONS TOHOKU UNIV.
InstType: EI
InstName: HITACHI M-80B
IoniMethod: _ENERGY 70 eV
IonPolarity: pos
Date: 2010-10-09 19:48:36+02:00
Num Peaks: 56
15 44 26 18 27 234 29 57 38 15 39 300 40 50 41 288 42 43 43 999 
44 22 45 14 50 17 51 43 52 26 53 204 54 32 55 224 56 19 57 12 
63 13 65 37 66 26 67 388 68 215 69 52 70 36 71 127 77 42 78 12 
79 128 80 35 81 185 82 114 83 23 85 456 86 17 91 30 93 34 94 35 
95 280 96 97 97 67 105 35 107 24 108 19 109 157 110 30 120 39 121 75 
122 19 123 296 124 30 137 46 138 59 151 15 
