Name: METHYL ISOTHIOCYANATE
CAS: 556-61-6
MW: 72
Formula: C2H3NS
Synonym: MassBank: JP008195
Synonym: METHYL ISOTHIOCYANATE
Structure: 310A31320A4D455448594C2049534F5448494F4359414E4154452E6D6F6C0A20204368656D447261773038313231303030323432440A2020342020332020302020302020302020302020302020302020302020303939392056323030300A20202020312E3033313320202020302E3335373220202020302E303030302043202020302020302020302020302020302020302020302020302020302020302020302020300A20202020302E363138382020202D302E3335373220202020302E30303030204E202020302020302020302020302020302020302020302020302020302020302020302020300A2020202D302E323036322020202D302E3335373220202020302E303030302043202020302020302020302020302020302020302020302020302020302020302020302020300A2020202D312E303331332020202D302E3335373220202020302E303030302053202020302020302020302020302020302020302020302020302020302020302020302020300A2020322020332020322020302020202020200A2020332020342020322020302020202020200A2020312020322020312020302020202020200A4D2020454E44
Contributor: NARA WOMEN'S UNIVERSITY
InstType: EI
InstName: HITACHI M-80
IoniMethod: _ENERGY 70 eV
IonPolarity: pos
Date: 2010-10-09 19:48:36+02:00
Num Peaks: 25
12 12 14 19 15 92 26 10 27 28 28 107 29 11 32 104 35 45 38 37 
39 45 40 48 41 16 44 133 45 233 46 53 47 18 57 67 58 12 70 80 
71 45 72 434 73 999 74 55 75 46 
