Name: 4-(ACETYLAMINO)ANTIPYRINE
MW: 245
Formula: C13H15N3O2
Synonym: MassBank: JP003819
Synonym: 4-(ACETYLAMINO)ANTIPYRINE
Structure: 342D2841434554594C414D494E4F29414E5449505952494E452E6D6F6C0A20204368656D447261773033323531303033333532440A2031382031392020302020302020302020302020302020302020302020303939392056323030300A20202020302E383238302020202D302E3431323520202020302E303030302043202020302020302020302020302020302020302020302020302020302020302020302020300A20202020302E303433342020202D302E3636373420202020302E303030302043202020302020302020302020302020302020302020302020302020302020302020302020300A2020202D302E323131362020202D312E3435323120202020302E30303030204F202020302020302020302020302020302020302020302020302020302020302020302020300A2020202D302E3434313520202020302E3030303020202020302E30303030204E202020302020302020302020302020302020302020302020302020302020302020302020300A20202020302E3034333420202020302E3636373420202020302E30303030204E202020302020302020302020302020302020302020302020302020302020302020302020300A2020202D302E3231313620202020312E3435323120202020302E303030302043202020302020302020302020302020302020302020302020302020302020302020302020300A20202020302E3832383020202020302E3431323520202020302E303030302043202020302020302020302020302020302020302020302020302020302020302020302020300A20202020312E3439353420202020302E3839373420202020302E303030302043202020302020302020302020302020302020302020302020302020302020302020302020300A2020202D312E3236363520202020302E3030303020202020302E303030302043202020302020302020302020302020302020302020302020302020302020302020302020300A2020202D312E363739302020202D302E3731343520202020302E303030302043202020302020302020302020302020302020302020302020302020302020302020302020300A2020202D322E353034302020202D302E3731343520202020302E303030302043202020302020302020302020302020302020302020302020302020302020302020302020300A2020202D322E3931363520202020302E3030303020202020302E303030302043202020302020302020302020302020302020302020302020302020302020302020302020300A2020202D322E3530343020202020302E3731343520202020302E303030302043202020302020302020302020302020302020302020302020302020302020302020302020300A2020202D312E3637393020202020302E3731343520202020302E303030302043202020302020302020302020302020302020302020302020302020302020302020302020300A20202020312E343935342020202D302E3839373420202020302E30303030204E202020302020302020302020302020302020302020302020302020302020302020302020300A20202020322E323439312020202D302E3536313920202020302E303030302043202020302020302020302020302020302020302020302020302020302020302020302020300A20202020322E3333353320202020302E3235383620202020302E30303030204F202020302020302020302020302020302020302020302020302020302020302020302020300A20202020322E393136352020202D312E3034363820202020302E303030302043202020302020302020302020302020302020302020302020302020302020302020302020300A2020312020322020312020302020202020200A2020322020332020322020302020202020200A2020322020342020312020302020202020200A2020342020352020312020302020202020200A2020352020362020312020302020202020200A2020352020372020312020302020202020200A2020372020382020312020302020202020200A2020312020372020322020302020202020200A2020342020392020312020302020202020200A2020392031302020312020302020202020200A2031302031312020322020302020202020200A2031312031322020312020302020202020200A2031322031332020322020302020202020200A2031332031342020312020302020202020200A2020392031342020322020302020202020200A2031362031372020322020302020202020200A2031362031382020312020302020202020200A2031352031362020312020302020202020200A2020312031352020312020302020202020200A4D2020454E44
Contributor: SASAKI S, TOYOHASHI UNIV. OF TECH.
InstType: EI
InstName: Unknown
IoniMethod: _ENERGY 70 eV
IonPolarity: pos
Date: 2010-10-09 19:48:36+02:00
Num Peaks: 25
39 29 41 29 42 109 43 20 44 29 52 19 53 19 54 4 55 49 56 999 
57 269 58 4 77 79 83 259 84 509 91 5 92 29 93 39 119 24 202 8 
203 269 204 59 245 489 246 9 247 9 
