Name: MassBank: JP002447
MW: 280
Formula: C16H24O4
Synonym: MassBank: JP002447
Synonym: METHYL (3R,6S)-7-BENZYLOXY-3-HYDROXY-6-METHYLHEPTANOATE
Structure: 303431385F4D455448594C202833522C3653292D372D42454E5A594C4F58592D332D485944524F58592D362D4D455448594C48455054414E4F4154452E6D6F6C0A20204368656D447261773039303631303136343832440A2032322032322020302020302020302020302020302020302020302020303939392056323030300A20202020322E3835373820202020302E3832353020202020302E303030302043202020302020302020302020302020302020302020302020302020302020302020302020300A20202020322E3134333320202020302E3431323520202020302E303030302043202020302020302020302020302020302020302020302020302020302020302020302020300A20202020322E313433332020202D302E3431323520202020302E303030302043202020302020302020302020302020302020302020302020302020302020302020302020300A20202020312E343238392020202D302E3832353020202020302E303030302043202020302020302020302020302020302020302020302020302020302020302020302020300A20202020302E373134352020202D302E3431323520202020302E303030302043202020302020302020302020302020302020302020302020302020302020302020302020300A2020202D302E303030302020202D302E3832353020202020302E303030302043202020302020302020302020302020302020302020302020302020302020302020302020300A2020202D302E373134352020202D302E3431323520202020302E303030302043202020302020302020302020302020302020302020302020302020302020302020302020300A20202020322E3835373820202020312E3635303020202020302E30303030204F202020302020302020302020302020302020302020302020302020302020302020302020300A20202020332E3537323320202020302E3431323520202020302E30303030204F202020302020302020302020302020302020302020302020302020302020302020302020300A2020202D302E303030302020202D312E3635303020202020302E303030302043202020302020302020302020302020302020302020302020302020302020302020302020300A20202020322E383537382020202D302E3832353020202020302E30303030204F202020302020302020302020302020302020302020302020302020302020302020302020300A2020202D302E3731343520202020302E3431323520202020302E30303030204F202020302020302020302020302020302020302020302020302020302020302020302020300A2020202D312E3432383920202020302E3832353020202020302E303030302043202020302020302020302020302020302020302020302020302020302020302020302020300A2020202D322E3134333320202020302E3431323520202020302E303030302043202020302020302020302020302020302020302020302020302020302020302020302020300A2020202D322E313433332020202D302E3431323520202020302E303030302043202020302020302020302020302020302020302020302020302020302020302020302020300A2020202D322E383537382020202D302E3832353020202020302E303030302043202020302020302020302020302020302020302020302020302020302020302020302020300A2020202D332E353732332020202D302E3431323520202020302E303030302043202020302020302020302020302020302020302020302020302020302020302020302020300A2020202D332E3537323320202020302E3431323520202020302E303030302043202020302020302020302020302020302020302020302020302020302020302020302020300A2020202D322E3835373820202020302E3832353020202020302E303030302043202020302020302020302020302020302020302020302020302020302020302020302020300A20202020332E353732332020202D302E3431323520202020302E303030302043202020302020302020302020302020302020302020302020302020302020302020302020300A20202020302E303237352020202D302E3030303420202020302E303030302048202020302020302020302020302020302020302020302020302020302020302020302020300A20202020312E3435303920202020302E3033363120202020302E303030302048202020302020302020302020302020302020302020302020302020302020302020302020300A2020312020322020312020302020202020200A2020322020332020312020302020202020200A2020332020342020312020302020202020200A2020342020352020312020302020202020200A2020352020362020312020302020202020200A2020362020372020312020302020202020200A2020312020382020322020302020202020200A2020312020392020312020302020202020200A2020362031302020312020312020202020200A2020332031312020312020312020202020200A2031332031342020312020302020202020200A2031342031352020312020302020202020200A2031352031362020322020302020202020200A2031362031372020312020302020202020200A2031372031382020322020302020202020200A2031382031392020312020302020202020200A2031342031392020322020302020202020200A2031322031332020312020302020202020200A2020372031322020312020302020202020200A2020392032302020312020302020202020200A2020362032312020312020312020202020200A2020332032322020312020312020202020200A4D2020454E44
Contributor: ITO S, DEPT. OF CHEM., TOHOKU UNIV.
InstType: EI
InstName: HITACHI M-52
IoniMethod: _ENERGY 13.5 eV
IonPolarity: pos
Date: 2010-10-09 19:48:36+02:00
Num Peaks: 73
42 16 43 22 56 27 57 1 59 12 69 27 70 51 71 2 74 80 80 11 
82 72 83 6 85 65 87 21 91 325 92 20 95 45 96 19 97 87 98 3 
99 108 100 23 101 473 102 2 103 58 104 51 105 21 106 1 107 267 108 145 
109 11 111 10 113 62 114 69 115 25 116 1 117 16 118 14 121 37 124 28 
125 32 129 12 132 19 139 41 140 44 141 45 142 16 143 3 147 253 148 27 
153 16 154 2 155 41 156 999 157 88 158 4 159 16 166 10 170 33 171 95 
172 32 173 62 174 421 175 6 187 15 188 154 189 22 202 2 204 13 205 27 
230 14 280 2 281 12 
