Name: PIPERIDINE
CAS: 110-89-4
MW: 85
Formula: C5H11N
Synonym: MassBank: JP009031
Synonym: PIPERIDINE
Structure: 310A31370A50495045524944494E452E6D6F6C0A20204368656D447261773038313231303035353032440A2020362020362020302020302020302020302020302020302020302020303939392056323030300A20202020302E373134352020202D302E3431323520202020302E30303030204E202020302020302020302020302020302020302020302020302020302020302020302020300A20202020302E303030302020202D302E3832353020202020302E303030302043202020302020302020302020302020302020302020302020302020302020302020302020300A2020202D302E373134352020202D302E3431323520202020302E303030302043202020302020302020302020302020302020302020302020302020302020302020302020300A2020202D302E3731343520202020302E3431323520202020302E303030302043202020302020302020302020302020302020302020302020302020302020302020302020300A20202020302E3030303020202020302E3832353020202020302E303030302043202020302020302020302020302020302020302020302020302020302020302020302020300A20202020302E3731343520202020302E3431323520202020302E303030302043202020302020302020302020302020302020302020302020302020302020302020302020300A2020312020322020312020302020202020200A2020322020332020312020302020202020200A2020332020342020312020302020202020200A2020342020352020312020302020202020200A2020352020362020312020302020202020200A2020312020362020312020302020202020200A4D2020454E44
Contributor: SODA AROMATIC CO., LTD.
InstType: EI
InstName: HITACHI M-80B
IoniMethod: _ENERGY 70 eV
IonPolarity: pos
Date: 2010-10-09 19:48:36+02:00
Num Peaks: 31
15 59 26 57 27 297 28 636 29 494 30 418 38 18 39 203 40 28 41 217 
42 368 43 329 44 450 45 11 50 16 51 23 52 22 53 34 54 46 55 95 
56 580 57 505 58 17 67 22 68 23 70 97 80 12 82 19 84 999 85 531 
86 25 
