Name: ETHYL 6-NITROINDOLE-2-CARBOXYLATE
MW: 234
Formula: C11H10N2O4
Synonym: MassBank: JP001981
Synonym: ETHYL 6-NITROINDOLE-2-CARBOXYLATE
Structure: 455448594C20362D4E4954524F494E444F4C452D322D434152424F58594C4154452E6D6F6C0A20204368656D447261773038313131303138323232440A2031372031382020302020302020302020302020302020302020302020303939392056323030300A20202020302E3334313320202020302E3235343920202020302E30303030204E202020302020302020302020302020302020302020302020302020302020302020302020300A20202020302E383236322020202D302E3431323520202020302E303030302043202020302020302020302020302020302020302020302020302020302020302020302020300A20202020302E333431332020202D312E3037393920202020302E303030302043202020302020302020302020302020302020302020302020302020302020302020302020300A2020202D302E343433332020202D302E3832353020202020302E303030302043202020302020302020302020302020302020302020302020302020302020302020302020300A2020202D312E313537382020202D312E3233373520202020302E303030302043202020302020302020302020302020302020302020302020302020302020302020302020300A2020202D312E383732332020202D302E3832353020202020302E303030302043202020302020302020302020302020302020302020302020302020302020302020302020300A2020202D312E3837323320202020302E3030303020202020302E303030302043202020302020302020302020302020302020302020302020302020302020302020302020300A2020202D312E3135373820202020302E3431323520202020302E303030302043202020302020302020302020302020302020302020302020302020302020302020302020300A2020202D302E3434333320202020302E3030303020202020302E303030302043202020302020302020302020302020302020302020302020302020302020302020302020300A20202020312E363531322020202D302E3431323520202020302E303030302043202020302020302020302020302020302020302020302020302020302020302020302020300A20202020322E303633372020202D312E3132373020202020302E30303030204F202020302020302020302020302020302020302020302020302020302020302020302020300A20202020322E3036333720202020302E3330323020202020302E30303030204F202020302020302020302020302020302020302020302020302020302020302020302020300A2020202D322E3538363720202020302E3431323520202020302E30303030204E202020302020332020302020302020302020302020302020302020302020302020302020300A2020202D322E3538363720202020312E3233373520202020302E30303030204F202020302020302020302020302020302020302020302020302020302020302020302020300A2020202D332E3330313220202020302E3030303020202020302E30303030204F202020302020352020302020302020302020302020302020302020302020302020302020300A20202020322E3838383720202020302E3330323020202020302E303030302043202020302020302020302020302020302020302020302020302020302020302020302020300A20202020332E3330313220202020312E3031363420202020302E303030302043202020302020302020302020302020302020302020302020302020302020302020302020300A2020312020322020312020302020202020200A2020322020332020322020302020202020200A2020332020342020312020302020202020200A2020342020352020312020302020202020200A2020352020362020322020302020202020200A2020362020372020312020302020202020200A2020372020382020322020302020202020200A2020382020392020312020302020202020200A2020312020392020312020302020202020200A2020342020392020322020302020202020200A2031302031312020322020302020202020200A2031302031322020312020302020202020200A2020322031302020312020302020202020200A2031332031342020322020302020202020200A2031332031352020312020302020202020200A2020372031332020312020302020202020200A2031362031372020312020302020202020200A2031322031362020312020302020202020200A4D202043484720203220203133202020312020313520202D310A4D2020454E44
Contributor: SASAKI S, TOYOHASHI UNIV. OF TECH.
InstType: EI
InstName: MX-1303
IoniMethod: _ENERGY 50 eV
IonPolarity: pos
Date: 2010-10-09 19:48:36+02:00
Num Peaks: 65
39 35 41 63 42 14 43 15 44 21 45 81 51 11 52 2 55 10 56 87 
57 24 58 11 61 30 62 11 63 48 64 4 65 13 66 10 68 21 69 1 
70 78 71 19 72 49 74 3 76 16 77 35 78 22 82 2 83 19 84 44 
85 22 86 3 88 40 89 82 90 24 96 2 97 16 98 35 99 14 103 3 
104 13 105 14 112 14 114 1 115 487 116 98 117 21 130 1 131 62 132 14 
135 10 143 38 144 95 159 71 160 10 161 2 162 10 163 10 173 10 174 1 
189 999 190 148 204 13 234 91 235 84 
