Name: 3-(TETRAHYDRO-2-PYRANYL)-5-FLUOROURACIL
MW: 214
Formula: C9H11FN2O3
Synonym: MassBank: JP005581
Synonym: 3-(TETRAHYDRO-2-PYRANYL)-5-FLUOROURACIL
Structure: 332D285445545241485944524F2D322D505952414E594C292D352D464C554F524F55524143494C2E6D6F6C0A20204368656D447261773032323231303133323432440A2031352031362020302020302020302020302020302020302020302020303939392056323030300A2020202D312E3738363220202020302E3230363220202020302E30303030204E202020302020302020302020302020302020302020302020302020302020302020302020300A2020202D312E3037313720202020302E3631383820202020302E303030302043202020302020302020302020302020302020302020302020302020302020302020302020300A2020202D312E3037313720202020312E3434333820202020302E30303030204F202020302020302020302020302020302020302020302020302020302020302020302020300A2020202D302E3335373220202020302E3230363220202020302E30303030204E202020302020302020302020302020302020302020302020302020302020302020302020300A2020202D302E333537322020202D302E3631383820202020302E303030302043202020302020302020302020302020302020302020302020302020302020302020302020300A20202020302E333537322020202D312E3033313320202020302E30303030204F202020302020302020302020302020302020302020302020302020302020302020302020300A2020202D312E303731372020202D312E3033313320202020302E303030302043202020302020302020302020302020302020302020302020302020302020302020302020300A2020202D312E373836322020202D302E3631383820202020302E303030302043202020302020302020302020302020302020302020302020302020302020302020302020300A2020202D312E303731372020202D312E3835363320202020302E303030302046202020302020302020302020302020302020302020302020302020302020302020302020300A20202020302E3335373220202020302E3631383820202020302E303030302043202020302020302020302020302020302020302020302020302020302020302020302020300A20202020302E3335373220202020312E3434333820202020302E303030302043202020302020302020302020302020302020302020302020302020302020302020302020300A20202020312E3037313720202020312E3835363320202020302E303030302043202020302020302020302020302020302020302020302020302020302020302020302020300A20202020312E3738363220202020312E3434333820202020302E303030302043202020302020302020302020302020302020302020302020302020302020302020302020300A20202020312E3738363220202020302E3631383820202020302E303030302043202020302020302020302020302020302020302020302020302020302020302020302020300A20202020312E3037313720202020302E3230363220202020302E30303030204F202020302020302020302020302020302020302020302020302020302020302020302020300A2020312020322020312020302020202020200A2020322020332020322020302020202020200A2020322020342020312020302020202020200A2020342020352020312020302020202020200A2020352020362020322020302020202020200A2020352020372020312020302020202020200A2020372020382020322020302020202020200A2020312020382020312020302020202020200A2020372020392020312020302020202020200A2031302031312020312020302020202020200A2031312031322020312020302020202020200A2031322031332020312020302020202020200A2031332031342020312020302020202020200A2031342031352020312020302020202020200A2031302031352020312020302020202020200A2020342031302020312020302020202020200A4D2020454E44
Contributor: MASS SPECTROSCOPY SOC. OF JAPAN (MSSJ)
InstType: EI
InstName: JEOL JMS-01-SG-2
IoniMethod: _ENERGY 75 eV
IonPolarity: pos
Date: 2010-10-09 19:48:36+02:00
Num Peaks: 42
41 250 42 50 43 130 44 1 53 60 54 70 55 240 56 1 57 160 58 130 
59 60 60 1 62 60 67 170 69 80 82 1 83 140 84 40 85 730 86 2 
87 300 88 180 100 30 101 3 102 140 103 60 114 390 115 1 126 140 128 80 
130 500 131 999 132 140 156 60 157 70 158 0 159 40 169 50 175 40 176 1 
214 490 215 110 
