Name: FURFURYL ISOPROPYL SULFIDE
MW: 156
Formula: C8H12OS
Synonym: MassBank: JP009134
Synonym: FURFURYL ISOPROPYL SULFIDE
Structure: 465552465552594C2049534F50524F50594C2053554C464944452E6D6F6C0A20204368656D447261773038313131303139333832440A2031302031302020302020302020302020302020302020302020302020303939392056323030300A20202020302E363532392020202D302E3132323720202020302E303030302053202020302020302020302020302020302020302020302020302020302020302020302020300A20202020312E3336373320202020302E3238393820202020302E303030302043202020302020302020302020302020302020302020302020302020302020302020302020300A20202020312E3336373320202020312E3131343820202020302E303030302043202020302020302020302020302020302020302020302020302020302020302020302020300A20202020322E303831382020202D302E3132323720202020302E303030302043202020302020302020302020302020302020302020302020302020302020302020302020300A2020202D302E3036313620202020302E3238393820202020302E303030302043202020302020302020302020302020302020302020302020302020302020302020302020300A2020202D302E373736312020202D302E3132323720202020302E303030302043202020302020302020302020302020302020302020302020302020302020302020302020300A2020202D302E383632332020202D302E3934333220202020302E303030302043202020302020302020302020302020302020302020302020302020302020302020302020300A2020202D312E363639332020202D312E3131343820202020302E303030302043202020302020302020302020302020302020302020302020302020302020302020302020300A2020202D322E303831382020202D302E3430303320202020302E303030302043202020302020302020302020302020302020302020302020302020302020302020302020300A2020202D312E3532393820202020302E3231323820202020302E30303030204F202020302020302020302020302020302020302020302020302020302020302020302020300A2020322020332020312020302020202020200A2020322020342020312020302020202020200A2020312020322020312020302020202020200A2020352020362020312020302020202020200A2020362020372020322020302020202020200A2020372020382020312020302020202020200A2020382020392020322020302020202020200A2020392031302020312020302020202020200A2020362031302020312020302020202020200A2020312020352020312020302020202020200A4D2020454E44
Contributor: SODA AROMATIC CO., LTD.
InstType: EI
InstName: HITACHI M-80B
IoniMethod: _ENERGY 70 eV
IonPolarity: pos
Date: 2010-10-09 19:48:36+02:00
Num Peaks: 21
26 11 27 111 29 13 38 12 39 76 41 83 43 55 45 75 47 18 50 16 
51 38 52 24 53 143 58 17 59 39 81 999 82 64 85 22 113 16 156 189 
157 18 
