Name: MassBank: JP009949
MW: 292
Formula: C18H28O3
Synonym: MassBank: JP009949
Synonym: 3,4-DIHYDRO-7-HYDROXY-2-(2-HYDROXYETHYL)-6-HEXYL-2-METHYL-2H-1-BENZOPYRAN
Structure: 332C342D4449485944524F2D372D485944524F58592D322D28322D485944524F5859455448594C292D362D484558594C2D322D4D455448594C2D32482D312D42454E5A4F505952414E2E6D6F6C0A20204368656D447261773032323131303232333232440A2032312032322020302020302020302020302020302020302020302020303939392056323030300A20202020322E3439343720202020302E3233313120202020302E303030302043202020302020302020302020302020302020302020302020302020302020302020302020300A20202020322E343934372020202D302E3539333920202020302E303030302043202020302020302020302020302020302020302020302020302020302020302020302020300A20202020312E373830332020202D312E3030363420202020302E303030302043202020302020302020302020302020302020302020302020302020302020302020302020300A20202020312E303635382020202D302E3539333920202020302E303030302043202020302020302020302020302020302020302020302020302020302020302020302020300A20202020312E3036353820202020302E3233313120202020302E303030302043202020302020302020302020302020302020302020302020302020302020302020302020300A20202020312E3738303320202020302E3634333620202020302E30303030204F202020302020302020302020302020302020302020302020302020302020302020302020300A20202020302E3335313320202020302E3634333620202020302E303030302043202020302020302020302020302020302020302020302020302020302020302020302020300A2020202D302E3336333120202020302E3233313120202020302E303030302043202020302020302020302020302020302020302020302020302020302020302020302020300A2020202D302E333633312020202D302E3539333920202020302E303030302043202020302020302020302020302020302020302020302020302020302020302020302020300A20202020302E333531332020202D312E3030363420202020302E303030302043202020302020302020302020302020302020302020302020302020302020302020302020300A20202020322E3737363920202020312E3030363420202020302E303030302043202020302020302020302020302020302020302020302020302020302020302020302020300A2020202D312E303737362020202D312E3030363420202020302E303030302043202020302020302020302020302020302020302020302020302020302020302020302020300A2020202D312E373932312020202D302E3539333920202020302E303030302043202020302020302020302020302020302020302020302020302020302020302020302020300A2020202D322E353036362020202D312E3030363420202020302E303030302043202020302020302020302020302020302020302020302020302020302020302020302020300A2020202D332E323231302020202D302E3539333920202020302E303030302043202020302020302020302020302020302020302020302020302020302020302020302020300A2020202D332E393335352020202D312E3030363420202020302E303030302043202020302020302020302020302020302020302020302020302020302020302020302020300A2020202D342E363530302020202D302E3539333920202020302E303030302043202020302020302020302020302020302020302020302020302020302020302020302020300A20202020332E3330373220202020302E3038373920202020302E303030302043202020302020302020302020302020302020302020302020302020302020302020302020300A20202020332E3833373520202020302E3731393920202020302E303030302043202020302020302020302020302020302020302020302020302020302020302020302020300A20202020342E3635303020202020302E3537363620202020302E30303030204F202020302020302020302020302020302020302020302020302020302020302020302020300A2020202D312E3037373620202020302E3634333620202020302E30303030204F202020302020302020302020302020302020302020302020302020302020302020302020300A2020312020322020312020302020202020200A2020322020332020312020302020202020200A2020332020342020312020302020202020200A2020342020352020312020302020202020200A2020352020362020312020302020202020200A2020312020362020312020302020202020200A2020372020382020312020302020202020200A2020382020392020322020302020202020200A2020392031302020312020302020202020200A2020342031302020322020302020202020200A2020352020372020322020302020202020200A2020312031312020312020302020202020200A2031322031332020312020302020202020200A2031332031342020312020302020202020200A2031342031352020312020302020202020200A2031352031362020312020302020202020200A2031362031372020312020302020202020200A2020392031322020312020302020202020200A2031382031392020312020302020202020200A2031392032302020312020302020202020200A2020312031382020312020302020202020200A2020382032312020312020302020202020200A4D2020454E44
Contributor: KURARAY CO., LTD.
InstType: EI
InstName: JEOL JMS-D-300
IoniMethod: _ENERGY 70 eV
IonPolarity: pos
Date: 2010-10-09 19:48:36+02:00
Num Peaks: 126
27 19 29 31 31 5 39 2 41 97 43 173 51 5 53 2 55 78 57 16 
65 13 66 1 67 28 68 16 69 122 71 1 77 45 78 16 79 45 80 1 
81 44 83 8 85 50 91 3 93 16 94 8 95 16 97 1 103 16 105 16 
107 31 108 2 109 13 111 6 115 6 117 1 119 8 121 13 122 13 123 7 
124 2 128 3 129 6 131 1 132 3 133 8 135 200 136 10 137 91 138 6 
143 6 144 1 145 8 146 6 147 34 149 6 150 16 151 92 152 70 157 1 
159 23 160 16 161 50 162 2 163 81 164 16 165 8 173 2 174 23 175 47 
177 19 178 1 185 19 187 16 188 16 189 6 191 63 192 13 193 8 194 2 
201 23 202 31 203 578 204 8 205 39 206 31 207 999 208 14 209 16 218 8 
219 47 220 1 221 195 222 47 223 8 227 1 231 8 232 8 241 5 245 13 
246 31 247 86 248 13 249 1 255 8 257 16 258 8 259 7 260 16 263 59 
264 6 270 1 271 6 273 16 274 47 275 23 286 1 288 28 289 16 290 63 
291 2 292 3 293 91 304 5 334 6 335 13 
