Name: MassBank: JP005544
MW: 220
Formula: C13H16OS
Synonym: MassBank: JP005544
Synonym: 2,3-BENZO-1-THIASPIRO(4.5)DEC-2-EN-7-OL
Structure: 322C332D42454E5A4F2D312D54484941535049524F28342E35294445432D322D454E2D372D4F4C2E6D6F6C0A20204368656D447261773132323030393131303032440A2031352031372020302020302020302020302020302020302020302020303939392056323030300A2020202D322E3137343220202020302E3731343520202020302E303030302043202020302020302020302020302020302020302020302020302020302020302020302020300A2020202D322E313734322020202D302E3131303520202020302E303030302043202020302020302020302020302020302020302020302020302020302020302020302020300A2020202D312E343539382020202D302E3532333020202020302E303030302043202020302020302020302020302020302020302020302020302020302020302020302020300A2020202D302E373435332020202D302E3131303520202020302E303030302043202020302020302020302020302020302020302020302020302020302020302020302020300A2020202D302E3734353320202020302E3731343520202020302E303030302043202020302020302020302020302020302020302020302020302020302020302020302020300A2020202D312E3435393820202020312E3132373020202020302E303030302043202020302020302020302020302020302020302020302020302020302020302020302020300A20202020302E303339332020202D302E3336353520202020302E303030302043202020302020302020302020302020302020302020302020302020302020302020302020300A20202020302E3532343220202020302E3330323020202020302E303030302043202020302020302020302020302020302020302020302020302020302020302020302020300A20202020302E3033393320202020302E3936393420202020302E303030302053202020302020302020302020302020302020302020302020302020302020302020302020300A20202020302E393336372020202D302E3431323520202020302E303030302043202020302020302020302020302020302020302020302020302020302020302020302020300A20202020312E373631372020202D302E3431323520202020302E303030302043202020302020302020302020302020302020302020302020302020302020302020302020300A20202020322E3137343220202020302E3330323020202020302E303030302043202020302020302020302020302020302020302020302020302020302020302020302020300A20202020312E3736313720202020312E3031363420202020302E303030302043202020302020302020302020302020302020302020302020302020302020302020302020300A20202020302E3933363720202020312E3031363420202020302E303030302043202020302020302020302020302020302020302020302020302020302020302020302020300A20202020322E313734322020202D312E3132373020202020302E30303030204F202020302020302020302020302020302020302020302020302020302020302020302020300A2020312020322020322020302020202020200A2020322020332020312020302020202020200A2020332020342020322020302020202020200A2020342020352020312020302020202020200A2020352020362020322020302020202020200A2020362020312020312020302020202020200A2020342020372020312020302020202020200A2020372020382020312020302020202020200A2020382020392020312020302020202020200A2020392020352020312020302020202020200A2020382031302020312020302020202020200A2031302031312020312020302020202020200A2031312031322020312020302020202020200A2031322031332020312020302020202020200A2031332031342020312020302020202020200A2031342020382020312020302020202020200A2031312031352020312020302020202020200A4D2020454E44
Contributor: MASS SPECTROSCOPY SOC. OF JAPAN (MSSJ)
InstType: EI
InstName: HITACHI RMU-7L
IoniMethod: _ENERGY 70 eV
IonPolarity: pos
Date: 2010-10-09 19:48:36+02:00
Num Peaks: 47
41 111 43 55 45 121 55 57 57 63 77 111 79 92 91 133 97 421 115 122 
116 62 117 62 119 62 121 56 123 77 124 10 127 31 128 120 129 77 130 41 
134 162 135 193 136 29 141 65 142 27 146 18 147 414 148 548 149 372 150 62 
160 282 161 145 162 55 169 53 173 211 174 113 175 43 176 20 177 152 178 24 
187 95 201 81 202 138 203 29 220 999 221 138 222 43 
