Name: PROPANETHIOL
MW: 76
Formula: C3H8S
Synonym: MassBank: JP009154
Synonym: PROPANETHIOL
Structure: 310A31320A50524F50414E455448494F4C2E6D6F6C0A20204368656D447261773038313231303036303132440A2020342020332020302020302020302020302020302020302020302020303939392056323030300A2020202D302E333537322020202D302E3230363220202020302E303030302043202020302020302020302020302020302020302020302020302020302020302020302020300A20202020302E3335373220202020302E3230363220202020302E303030302043202020302020302020302020302020302020302020302020302020302020302020302020300A20202020312E303731372020202D302E3230363220202020302E303030302043202020302020302020302020302020302020302020302020302020302020302020302020300A2020202D312E3037313720202020302E3230363220202020302E303030302053202020302020302020302020302020302020302020302020302020302020302020302020300A2020312020322020312020302020202020200A2020322020332020312020302020202020200A2020312020342020312020302020202020200A4D2020454E44
Contributor: SODA AROMATIC CO., LTD.
InstType: EI
InstName: HITACHI M-80B
IoniMethod: _ENERGY 70 eV
IonPolarity: pos
Date: 2010-10-09 19:48:36+02:00
Num Peaks: 33
15 54 26 83 27 584 28 40 29 80 32 18 33 65 34 25 35 78 37 30 
38 67 39 385 40 82 41 767 42 831 43 869 44 26 45 318 46 262 47 999 
48 117 49 39 57 25 58 70 59 59 60 11 61 120 69 21 71 14 75 11 
76 944 77 34 78 33 
