Name: 2-(2-TRIMETHYLSILYLOXYETHOXY)-4-QUINOLINECARBOXYLIC ACID TRIMETHYLSILYL ESTER
MW: 377
Formula: C18H27NO4Si2
Synonym: MassBank: JP003450
Synonym: 2-(2-TRIMETHYLSILYLOXYETHOXY)-4-QUINOLINECARBOXYLIC ACID TRIMETHYLSILYL ESTER
Structure: 322D28322D5452494D455448594C53494C594C4F58594554484F5859292D342D5155494E4F4C494E45434152424F58594C49432041434944205452494D455448594C53494C594C2045535445522E6D6F6C0A20204368656D447261773132323130393134313232440A2032352032362020302020302020302020302020302020302020302020303939392056323030300A2020202D302E3030303020202020302E3637343020202020302E30303030204E202020302020302020302020302020302020302020302020302020302020302020302020300A20202020302E3731343520202020302E3236313520202020302E303030302043202020302020302020302020302020302020302020302020302020302020302020302020300A20202020302E373134352020202D302E3536333520202020302E303030302043202020302020302020302020302020302020302020302020302020302020302020302020300A2020202D302E303030302020202D302E3937363020202020302E303030302043202020302020302020302020302020302020302020302020302020302020302020302020300A2020202D302E373134352020202D302E3536333520202020302E303030302043202020302020302020302020302020302020302020302020302020302020302020302020300A2020202D312E343238392020202D302E3937363020202020302E303030302043202020302020302020302020302020302020302020302020302020302020302020302020300A2020202D322E313433342020202D302E3536333520202020302E303030302043202020302020302020302020302020302020302020302020302020302020302020302020300A2020202D322E3134333420202020302E3236313520202020302E303030302043202020302020302020302020302020302020302020302020302020302020302020302020300A2020202D312E3432383920202020302E3637343020202020302E303030302043202020302020302020302020302020302020302020302020302020302020302020302020300A2020202D302E3731343520202020302E3236313520202020302E303030302043202020302020302020302020302020302020302020302020302020302020302020302020300A2020202D302E303030302020202D312E3830313020202020302E303030302043202020302020302020302020302020302020302020302020302020302020302020302020300A2020202D302E373134352020202D322E3231333520202020302E30303030204F202020302020302020302020302020302020302020302020302020302020302020302020300A20202020302E373134352020202D322E3231333520202020302E30303030204F202020302020302020302020302020302020302020302020302020302020302020302020300A20202020312E3432383920202020302E3637343020202020302E30303030204F202020302020302020302020302020302020302020302020302020302020302020302020300A20202020312E3432383920202020312E3439393020202020302E303030302043202020302020302020302020302020302020302020302020302020302020302020302020300A20202020302E3731343520202020312E3931313520202020302E303030302043202020302020302020302020302020302020302020302020302020302020302020302020300A20202020302E3731343520202020322E3733363520202020302E30303030204F202020302020302020302020302020302020302020302020302020302020302020302020300A20202020312E3432383920202020332E3134393020202020302E303030302053692020302020302020302020302020302020302020302020302020302020302020302020300A20202020312E3834313420202020322E3433343520202020302E303030302043202020302020302020302020302020302020302020302020302020302020302020302020300A20202020312E3031363420202020332E3836333520202020302E303030302043202020302020302020302020302020302020302020302020302020302020302020302020300A20202020322E3134333420202020332E3536313520202020302E303030302043202020302020302020302020302020302020302020302020302020302020302020302020300A20202020302E373134352020202D332E3033383520202020302E303030302053692020302020302020302020302020302020302020302020302020302020302020302020300A20202020312E353339352020202D332E3033383520202020302E303030302043202020302020302020302020302020302020302020302020302020302020302020302020300A20202020302E373134352020202D332E3836333520202020302E303030302043202020302020302020302020302020302020302020302020302020302020302020302020300A2020202D302E313130352020202D332E3033383520202020302E303030302043202020302020302020302020302020302020302020302020302020302020302020302020300A2020312020322020312020302020202020200A2020322020332020322020302020202020200A2020332020342020312020302020202020200A2020342020352020322020302020202020200A2020352020362020312020302020202020200A2020362020372020322020302020202020200A2020372020382020312020302020202020200A2020382020392020322020302020202020200A2020392031302020312020302020202020200A2020312031302020322020302020202020200A2020352031302020312020302020202020200A2031312031322020322020302020202020200A2031312031332020312020302020202020200A2020342031312020312020302020202020200A2031352031362020312020302020202020200A2031342031352020312020302020202020200A2031382031392020312020312020202020200A2031382032302020312020312020202020200A2031382032312020312020302020202020200A2031372031382020312020302020202020200A2031362031372020312020302020202020200A2020322031342020312020302020202020200A2032322032332020312020302020202020200A2032322032342020312020302020202020200A2032322032352020312020302020202020200A2031332032322020312020302020202020200A4D2020454E44
Contributor: MASS SPECTROSCOPY SOC. OF JAPAN (MSSJ)
InstType: EI
InstName: HITACHI M-60
IoniMethod: _ENERGY 20 eV
IonPolarity: pos
Date: 2010-10-09 19:48:36+02:00
Num Peaks: 146
49 13 55 2 59 6 70 1 72 3 73 268 74 24 75 115 76 9 77 239 
78 16 79 7 81 2 84 2 92 5 93 15 94 2 95 7 96 3 97 1 
98 2 101 122 102 15 103 19 111 2 116 100 117 94 118 11 119 3 121 3 
127 1 129 5 131 2 132 20 133 5 143 2 144 10 145 15 146 1 147 11 
149 1 151 2 156 1 159 3 162 8 164 2 170 4 171 1 172 24 173 4 
174 4 184 1 185 3 186 2 187 2 188 1 189 1 190 14 191 3 192 5 
198 2 199 1 200 5 201 10 202 30 203 7 204 3 215 12 216 27 217 11 
218 20 219 3 220 13 221 4 222 6 228 3 229 5 230 4 232 88 233 20 
234 13 235 6 236 6 238 7 240 7 242 10 243 7 244 24 245 15 246 706 
247 186 248 58 249 10 250 4 251 10 259 12 260 25 261 999 262 421 263 129 
264 70 265 12 266 17 267 3 272 9 273 2 274 12 275 3 278 1 279 19 
280 9 281 5 282 2 286 41 287 14 288 12 289 3 290 2 302 3 303 4 
304 2 313 7 314 2 316 3 318 288 319 75 320 30 321 6 332 13 333 6 
334 155 335 42 336 16 337 3 339 2 341 8 342 2 346 1 362 224 363 63 
364 24 365 5 376 4 377 7 378 9 379 3 
