Name: 4-METHYLBENZYL ALCOHOL
CAS: 589-18-4
MW: 122
Formula: C8H10O
Synonym: MassBank: JP006254
Synonym: 4-METHYLBENZYL ALCOHOL
Structure: 310A32330A342D4D455448594C42454E5A594C20414C434F484F4C2E6D6F6C0A20204368656D447261773034323231303133313332440A2020392020392020302020302020302020302020302020302020302020303939392056323030300A2020202D312E343433372020202D302E3030303020202020302E303030302043202020302020302020302020302020302020302020302020302020302020302020302020300A2020202D302E363138372020202D302E3030303020202020302E303030302043202020302020302020302020302020302020302020302020302020302020302020302020300A2020202D302E3230363220202020302E3731343520202020302E303030302043202020302020302020302020302020302020302020302020302020302020302020302020300A20202020302E3631383820202020302E3731343520202020302E303030302043202020302020302020302020302020302020302020302020302020302020302020302020300A20202020312E303331332020202D302E3030303020202020302E303030302043202020302020302020302020302020302020302020302020302020302020302020302020300A20202020302E363138382020202D302E3731343520202020302E303030302043202020302020302020302020302020302020302020302020302020302020302020302020300A2020202D302E323036322020202D302E3731343520202020302E303030302043202020302020302020302020302020302020302020302020302020302020302020302020300A20202020312E383536332020202D302E3030303020202020302E303030302043202020302020302020302020302020302020302020302020302020302020302020302020300A2020202D312E3835363320202020302E3731343520202020302E30303030204F202020302020302020302020302020302020302020302020302020302020302020302020300A2020312020322020312020302020202020200A2020322020332020312020302020202020200A2020332020342020322020302020202020200A2020342020352020312020302020202020200A2020352020362020322020302020202020200A2020362020372020312020302020202020200A2020322020372020322020302020202020200A2020352020382020312020302020202020200A2020312020392020312020302020202020200A4D2020454E44
Contributor: MASS SPECTROSCOPY SOC. OF JAPAN (MSSJ)
InstType: EI
InstName: HITACHI M-80
IoniMethod: _ENERGY 70 eV
IonPolarity: pos
Date: 2010-10-09 19:48:36+02:00
Num Peaks: 47
15 8 28 16 29 35 31 32 38 17 39 149 40 16 41 45 50 41 51 112 
52 32 53 44 60 27 61 9 62 28 63 89 64 22 65 188 66 20 67 6 
74 13 75 13 76 12 77 452 78 117 79 571 80 40 89 56 90 23 91 508 
92 59 93 439 94 39 102 14 103 72 104 137 105 228 106 59 107 999 108 77 
109 5 119 46 120 19 121 170 122 937 123 82 124 5 
