Name: MassBank: JP002388
MW: 184
Formula: C10H20OSi
Synonym: MassBank: JP002388
Synonym: 6-METHYL-4-TRIMETHYLSILYLMETHYL-5,6-DIHYDRO-2H-PYRAN
Structure: 362D4D455448594C2D342D5452494D455448594C53494C594C4D455448594C2D352C362D4449485944524F2D32482D505952414E2E6D6F6C0A20204368656D447261773035313931303132333332440A2031322031322020302020302020302020302020302020302020302020303939392056323030300A2020202D302E3731343520202020302E3937363020202020302E303030302043202020302020302020302020302020302020302020302020302020302020302020302020300A20202020302E3030303020202020302E3536333520202020302E303030302043202020302020302020302020302020302020302020302020302020302020302020302020300A20202020302E303030302020202D302E3236313520202020302E303030302043202020302020302020302020302020302020302020302020302020302020302020302020300A2020202D302E373134352020202D302E3637343020202020302E303030302043202020302020302020302020302020302020302020302020302020302020302020302020300A2020202D312E343238392020202D302E3236313520202020302E303030302043202020302020302020302020302020302020302020302020302020302020302020302020300A2020202D312E3432383920202020302E3536333520202020302E30303030204F202020302020302020302020302020302020302020302020302020302020302020302020300A20202020302E373134352020202D302E3637343020202020302E303030302043202020302020302020302020302020302020302020302020302020302020302020302020300A20202020312E343238392020202D302E3236313520202020302E303030302053692020302020302020302020302020302020302020302020302020302020302020302020300A20202020312E383431342020202D302E3937363020202020302E303030302043202020302020302020302020302020302020302020302020302020302020302020302020300A20202020312E3031363420202020302E3435333020202020302E303030302043202020302020302020302020302020302020302020302020302020302020302020302020300A20202020322E3134333420202020302E3135313020202020302E303030302043202020302020302020302020302020302020302020302020302020302020302020302020300A2020202D322E313433342020202D302E3637343020202020302E303030302043202020302020302020302020302020302020302020302020302020302020302020302020300A2020312020322020312020302020202020200A2020322020332020322020302020202020200A2020332020342020312020302020202020200A2020342020352020312020302020202020200A2020352020362020312020302020202020200A2020312020362020312020302020202020200A2020382020392020312020312020202020200A2020382031302020312020312020202020200A2020382031312020312020302020202020200A2020372020382020312020302020202020200A2020332020372020312020302020202020200A2020352031322020312020302020202020200A4D2020454E44
Contributor: MASS SPECTROSCOPY SOC. OF JAPAN (MSSJ)
InstType: EI
InstName: JEOL JMS-D-3000
IoniMethod: _ENERGY 70 eV
IonPolarity: pos
Date: 2010-10-09 19:48:36+02:00
Num Peaks: 27
43 117 44 42 45 116 53 14 55 18 58 26 59 96 67 14 72 15 73 999 
74 90 75 116 77 14 79 38 83 14 95 32 97 79 101 24 110 39 115 19 
117 475 118 51 119 21 125 59 127 14 169 17 184 35 
