Name: METHYL EXO-7-METHYLBICYCLO(4.1.0)HEPT-2-EN-ENDO-7-ACETATE
MW: 180
Formula: C11H16O2
Synonym: MassBank: JP004632
Synonym: METHYL EXO-7-METHYLBICYCLO(4.1.0)HEPT-2-EN-ENDO-7-ACETATE
Structure: 303838385F4D455448594C2045584F2D372D4D455448594C42494359434C4F28342E312E3029484550542D322D454E2D454E444F2D372D414345544154452E6D6F6C0A20204368656D447261773039303631303230343132440A2031352031362020302020302020302020302020302020302020302020303939392056323030300A2020202D322E3433393820202020302E3431333220202020302E303030302043202020302020302020302020302020302020302020302020302020302020302020302020300A2020202D322E343339382020202D302E3431313820202020302E303030302043202020302020302020302020302020302020302020302020302020302020302020302020300A2020202D312E373235332020202D302E3832343320202020302E303030302043202020302020302020302020302020302020302020302020302020302020302020302020300A2020202D312E303130382020202D302E3431313820202020302E303030302043202020302020302020302020302020302020302020302020302020302020302020302020300A2020202D312E3031303820202020302E3431333220202020302E303030302043202020302020302020302020302020302020302020302020302020302020302020302020300A2020202D312E3732353320202020302E3832353720202020302E303030302043202020302020302020302020302020302020302020302020302020302020302020302020300A2020202D302E3239363420202020302E3030303720202020302E303030302043202020302020302020302020302020302020302020302020302020302020302020302020300A2020202D302E353937352020202D312E3132373120202020302E303030302048202020302020302020302020302020302020302020302020302020302020302020302020300A2020202D302E3539373520202020312E3132373120202020302E303030302048202020302020302020302020302020302020302020302020302020302020302020302020300A20202020302E313937382020202D302E3635393920202020302E303030302043202020302020302020302020302020302020302020302020302020302020302020302020300A20202020322E3433393820202020302E3832313620202020302E303030302043202020302020302020302020302020302020302020302020302020302020302020302020300A20202020312E3634323920202020312E3033353120202020302E30303030204F202020302020302020302020302020302020302020302020302020302020302020302020300A20202020312E3035393520202020302E3435313720202020302E303030302043202020302020302020302020302020302020302020302020302020302020302020302020300A20202020302E3235313420202020302E3631373620202020302E303030302043202020302020302020302020302020302020302020302020302020302020302020302020300A20202020312E323936362020202D302E3333383520202020302E30303030204F202020302020302020302020302020302020302020302020302020302020302020302020300A2020312020322020312020302020202020200A2020322020332020322020302020202020200A2020332020342020312020302020202020200A2020342020352020312020302020202020200A2020352020362020312020302020202020200A2020362020312020312020302020202020200A2020342020372020312020302020202020200A2020372020352020312020302020202020200A2020342020382020312020312020202020200A2020352020392020312020312020202020200A2020372031302020312020312020202020200A2020372031342020312020362020202020200A2031312031322020312020302020202020200A2031322031332020312020302020202020200A2031332031342020312020302020202020200A2031332031352020322020302020202020200A4D2020454E44
Contributor: KATO T, DEPT. OF CHEM., FAC. OF SCI., TOHOKU UNIV.
InstType: EI
InstName: HITACHI M-52
IoniMethod: _ENERGY 25 eV
IonPolarity: pos
Date: 2010-10-09 19:48:36+02:00
Num Peaks: 51
18 123 28 107 29 50 32 5 41 48 42 39 43 158 59 7 65 52 66 30 
67 97 71 3 74 115 75 136 77 119 78 22 79 858 80 93 81 50 84 3 
87 387 88 30 91 950 92 16 93 317 94 31 102 557 103 6 105 569 106 999 
107 378 108 3 115 33 117 119 119 74 120 17 121 216 122 40 123 45 125 3 
130 155 131 54 132 75 133 16 134 31 147 355 148 158 164 4 165 30 180 122 
181 34 
