Name: PARA-TERT-BUTYLPHENOL
MW: 150
Formula: C10H14O
Synonym: MassBank: JP004061
Synonym: PARA-TERT-BUTYLPHENOL
Structure: 504152412D544552542D425554594C5048454E4F4C2E6D6F6C0A20204368656D447261773038313231303034333732440A2031312031312020302020302020302020302020302020302020302020303939392056323030300A2020202D312E3233373520202020302E3030303020202020302E303030302043202020302020302020302020302020302020302020302020302020302020302020302020300A2020202D302E3832353020202020302E3731343520202020302E303030302043202020302020302020302020302020302020302020302020302020302020302020302020300A20202020302E3030303020202020302E3731343520202020302E303030302043202020302020302020302020302020302020302020302020302020302020302020302020300A20202020302E343132352020202D302E3030303020202020302E303030302043202020302020302020302020302020302020302020302020302020302020302020302020300A20202020302E303030302020202D302E3731343520202020302E303030302043202020302020302020302020302020302020302020302020302020302020302020302020300A2020202D302E383235302020202D302E3731343520202020302E303030302043202020302020302020302020302020302020302020302020302020302020302020302020300A20202020312E323337352020202D302E3030303020202020302E303030302043202020302020302020302020302020302020302020302020302020302020302020302020300A20202020312E323337352020202D302E3832353020202020302E303030302043202020302020302020302020302020302020302020302020302020302020302020302020300A20202020312E3233373520202020302E3832353020202020302E303030302043202020302020302020302020302020302020302020302020302020302020302020302020300A20202020322E303632352020202D302E3030303020202020302E303030302043202020302020302020302020302020302020302020302020302020302020302020302020300A2020202D322E3036323520202020302E3030303020202020302E30303030204F202020302020302020302020302020302020302020302020302020302020302020302020300A2020312020322020312020302020202020200A2020322020332020322020302020202020200A2020332020342020312020302020202020200A2020342020352020322020302020202020200A2020352020362020312020302020202020200A2020312020362020322020302020202020200A2020372020382020312020302020202020200A2020372031302020312020302020202020200A2020372020392020312020302020202020200A2020342020372020312020302020202020200A2020312031312020312020302020202020200A4D2020454E44
Contributor: MASS SPECTROSCOPY SOC. OF JAPAN (MSSJ)
InstType: EI
InstName: HITACHI RMU-6L
IoniMethod: _ENERGY 70 eV
IonPolarity: pos
Date: 2010-10-09 19:48:36+02:00
Num Peaks: 52
26 15 27 105 28 182 29 6 32 21 38 30 39 203 40 2 41 239 42 10 
43 11 50 3 51 69 52 20 53 43 55 4 57 16 59 12 62 21 63 4 
64 16 65 89 66 35 66.5 1 67 11 67.5 11 74 13 75 2 77 116 78 22 
79 30 89 2 91 103 92 20 94 25 95 17 96 15 103 12 105 20 106 2 
107 267 108 20 115 10 119 3 120 14 121 12 133 10 134 2 135 999 136 89 
150 200 151 22 
