Name: 2-BUTOXYETHANOL
MW: 118
Formula: C6H14O2
Synonym: MassBank: JP007024
Synonym: 2-BUTOXYETHANOL
Structure: 310A32300A322D4255544F5859455448414E4F4C2E6D6F6C0A20204368656D447261773031303331303130303632440A2020382020372020302020302020302020302020302020302020302020303939392056323030300A20202020312E373836322020202D302E3230363320202020302E303030302043202020302020302020302020302020302020302020302020302020302020302020302020300A20202020312E3037313720202020302E3230363320202020302E303030302043202020302020302020302020302020302020302020302020302020302020302020302020300A20202020302E333537322020202D302E3230363320202020302E30303030204F202020302020302020302020302020302020302020302020302020302020302020302020300A2020202D302E3335373220202020302E3230363220202020302E303030302043202020302020302020302020302020302020302020302020302020302020302020302020300A2020202D312E303731372020202D302E3230363320202020302E303030302043202020302020302020302020302020302020302020302020302020302020302020302020300A2020202D312E3738363220202020302E3230363220202020302E303030302043202020302020302020302020302020302020302020302020302020302020302020302020300A2020202D322E353030362020202D302E3230363320202020302E303030302043202020302020302020302020302020302020302020302020302020302020302020302020300A20202020322E3530303620202020302E3230363320202020302E30303030204F202020302020302020302020302020302020302020302020302020302020302020302020300A2020312020322020312020302020202020200A2020342020352020312020302020202020200A2020352020362020312020302020202020200A2020362020372020312020302020202020200A2020332020342020312020302020202020200A2020322020332020312020302020202020200A2020312020382020312020302020202020200A4D2020454E44
Contributor: SODA AROMATIC CO., LTD.
InstType: EI
InstName: HITACHI M-80B
IoniMethod: _ENERGY 70 eV
IonPolarity: pos
Date: 2010-10-09 19:48:36+02:00
Num Peaks: 26
15 18 19 17 26 13 27 150 28 43 29 339 30 11 31 136 39 71 41 363 
42 23 43 61 44 38 45 457 46 10 55 60 56 84 57 999 58 46 63 14 
71 43 72 15 73 13 75 76 87 169 100 26 
