Name: 1-ISOBUTYL-3-METHYL-2-PYRAZOLINE
MW: 140
Formula: C8H16N2
Synonym: MassBank: JP000410
Synonym: 1-ISOBUTYL-3-METHYL-2-PYRAZOLINE
Structure: 312D49534F425554594C2D332D4D455448594C2D322D505952415A4F4C494E452E6D6F6C0A20204368656D447261773131313930393135343532440A2031302031302020302020302020302020302020302020302020302020303939392056323030300A2020202D302E303038362020202D302E3238393820202020302E30303030204E202020302020302020302020302020302020302020302020302020302020302020302020300A2020202D302E373632332020202D302E3632353320202020302E30303030204E202020302020302020302020302020302020302020302020302020302020302020302020300A2020202D312E333134332020202D302E3031323220202020302E303030302043202020302020302020302020302020302020302020302020302020302020302020302020300A2020202D302E3930313820202020302E3730323320202020302E303030302043202020302020302020302020302020302020302020302020302020302020302020302020300A2020202D302E3039343820202020302E3533303720202020302E303030302043202020302020302020302020302020302020302020302020302020302020302020302020300A2020202D322E313334382020202D302E3039383520202020302E303030302043202020302020302020302020302020302020302020302020302020302020302020302020300A20202020302E373035392020202D302E3730323320202020302E303030302043202020302020302020302020302020302020302020302020302020302020302020302020300A20202020312E343230332020202D302E3238393820202020302E303030302043202020302020302020302020302020302020302020302020302020302020302020302020300A20202020312E3432303320202020302E3533353220202020302E303030302043202020302020302020302020302020302020302020302020302020302020302020302020300A20202020322E313334382020202D302E3730323320202020302E303030302043202020302020302020302020302020302020302020302020302020302020302020302020300A2020312020322020312020302020202020200A2020322020332020322020302020202020200A2020332020342020312020302020202020200A2020342020352020312020302020202020200A2020312020352020312020302020202020200A2020332020362020312020302020202020200A2020372020382020312020302020202020200A2020382020392020312020302020202020200A2020382031302020312020302020202020200A2020312020372020312020302020202020200A4D2020454E44
Contributor: SASAKI S, TOYOHASHI UNIV. OF TECH.
InstType: EI
InstName: SHIMADZU LKB-2091
IoniMethod: _ENERGY 70 eV
IonPolarity: pos
Date: 2010-10-09 19:48:36+02:00
Num Peaks: 30
26 4 27 32 28 60 29 3 30 3 39 22 41 43 42 12 43 13 53 5 
54 11 55 1 56 31 57 6 58 3 68 2 69 68 70 5 82 3 83 3 
84 7 95 7 96 8 97 999 98 47 99 2 125 6 139 0 140 77 141 8 
