Name: TRANS-2-METHYLCHROMAN-4-OL
MW: 164
Formula: C10H12O2
Synonym: MassBank: JP001246
Synonym: TRANS-2-METHYLCHROMAN-4-OL
Structure: 5452414E532D322D4D455448594C4348524F4D414E2D342D4F4C2E6D6F6C0A20204368656D447261773038313231303037353432440A2031322031332020302020302020302020302020302020302020302020303939392056323030300A20202020312E3037313720202020302E3832353020202020302E303030302043202020302020302020302020302020302020302020302020302020302020302020302020300A20202020312E303731372020202D302E3030303020202020302E303030302043202020302020302020302020302020302020302020302020302020302020302020302020300A20202020302E333537322020202D302E3431323520202020302E303030302043202020302020302020302020302020302020302020302020302020302020302020302020300A2020202D302E333537322020202D302E3030303020202020302E303030302043202020302020302020302020302020302020302020302020302020302020302020302020300A2020202D312E303731372020202D302E3431323520202020302E303030302043202020302020302020302020302020302020302020302020302020302020302020302020300A2020202D312E373836322020202D302E3030303020202020302E303030302043202020302020302020302020302020302020302020302020302020302020302020302020300A2020202D312E3738363220202020302E3832353020202020302E303030302043202020302020302020302020302020302020302020302020302020302020302020302020300A2020202D312E3037313720202020312E3233373520202020302E303030302043202020302020302020302020302020302020302020302020302020302020302020302020300A2020202D302E3335373220202020302E3832353020202020302E303030302043202020302020302020302020302020302020302020302020302020302020302020302020300A20202020302E3335373220202020312E3233373520202020302E30303030204F202020302020302020302020302020302020302020302020302020302020302020302020300A20202020302E333537322020202D312E3233373520202020302E30303030204F202020302020302020302020302020302020302020302020302020302020302020302020300A20202020312E3738363220202020312E3233373520202020302E303030302043202020302020302020302020302020302020302020302020302020302020302020302020300A2020312020322020312020302020202020200A2020322020332020312020302020202020200A2020332020342020312020302020202020200A2020342020352020312020302020202020200A2020352020362020322020302020202020200A2020362020372020312020302020202020200A2020372020382020322020302020202020200A2020382020392020312020302020202020200A2020342020392020322020302020202020200A2020392031302020312020302020202020200A2020312031302020312020302020202020200A2020332031312020312020362020202020200A2020312031322020312020312020202020200A4D2020454E44
Contributor: SASAKI S, TOYOHASHI UNIV. OF TECH.
InstType: EI
InstName: HITACHI RMU-6D
IoniMethod: _ENERGY 70 eV
IonPolarity: pos
Date: 2010-10-09 19:48:36+02:00
Num Peaks: 89
15 10 17 7 18 30 26 1 27 100 28 20 29 30 31 1 37 10 38 50 
39 350 40 6 41 100 42 20 43 60 45 1 50 90 51 230 52 53 53 4 
54 7 55 50 57 7 58 1 61 10 62 47 63 140 64 6 65 300 66 80 
67 10 68 1 69 17 72 7 73 7 74 4 75 50 76 120 77 320 78 6 
79 37 86 7 87 7 88 1 89 53 90 20 91 200 92 6 93 80 94 100 
95 80 96 1 101 10 102 40 103 70 104 14 105 70 106 7 107 70 108 1 
115 100 116 20 117 40 118 3 119 30 120 67 121 897 122 60 123 200 124 13 
126 7 127 2 128 23 129 10 130 7 131 999 132 100 133 8 135 10 144 1 
145 150 146 117 147 50 148 1 149 8 163 67 164 490 165 6 166 7 
