Name: 1-OCTADECANOYLPYRROLIDINE
MW: 337
Formula: C22H43NO
Synonym: MassBank: JP001856
Synonym: 1-OCTADECANOYLPYRROLIDINE
Synonym: N-STEAROYLPYRROLIDINE
Structure: 312D4F435441444543414E4F594C505952524F4C4944494E452E6D6F6C0A20204368656D447261773131323230393231333532440A2032342032342020302020302020302020302020302020302020302020303939392056323030300A20202020352E3432303220202020302E3332393020202020302E30303030204E202020302020302020302020302020302020302020302020302020302020302020302020300A20202020352E3530363420202020312E3134393520202020302E303030302043202020302020302020302020302020302020302020302020302020302020302020302020300A20202020362E3331333420202020312E3332313020202020302E303030302043202020302020302020302020302020302020302020302020302020302020302020302020300A20202020362E3732353920202020302E3630363520202020302E303030302043202020302020302020302020302020302020302020302020302020302020302020302020300A20202020362E313733382020202D302E3030363620202020302E303030302043202020302020302020302020302020302020302020302020302020302020302020302020300A20202020342E373035372020202D302E3038333520202020302E303030302043202020302020302020302020302020302020302020302020302020302020302020302020300A20202020342E373035372020202D302E3930383520202020302E303030302043202020302020302020302020302020302020302020302020302020302020302020302020300A20202020332E393931322020202D312E3332313020202020302E303030302043202020302020302020302020302020302020302020302020302020302020302020302020300A20202020332E323736372020202D302E3930383520202020302E303030302043202020302020302020302020302020302020302020302020302020302020302020302020300A20202020322E353632332020202D312E3332313020202020302E303030302043202020302020302020302020302020302020302020302020302020302020302020302020300A20202020312E383437382020202D302E3930383520202020302E303030302043202020302020302020302020302020302020302020302020302020302020302020302020300A20202020312E313333332020202D312E3332313020202020302E303030302043202020302020302020302020302020302020302020302020302020302020302020302020300A20202020302E343138392020202D302E3930383520202020302E303030302043202020302020302020302020302020302020302020302020302020302020302020302020300A2020202D302E323935362020202D312E3332313020202020302E303030302043202020302020302020302020302020302020302020302020302020302020302020302020300A2020202D312E303130312020202D302E3930383520202020302E303030302043202020302020302020302020302020302020302020302020302020302020302020302020300A2020202D312E373234362020202D312E3332313020202020302E303030302043202020302020302020302020302020302020302020302020302020302020302020302020300A2020202D322E343339302020202D302E3930383520202020302E303030302043202020302020302020302020302020302020302020302020302020302020302020302020300A2020202D332E313533352020202D312E3332313020202020302E303030302043202020302020302020302020302020302020302020302020302020302020302020302020300A2020202D332E383638302020202D302E3930383520202020302E303030302043202020302020302020302020302020302020302020302020302020302020302020302020300A2020202D342E353832342020202D312E3332313020202020302E303030302043202020302020302020302020302020302020302020302020302020302020302020302020300A2020202D352E323936392020202D302E3930383520202020302E303030302043202020302020302020302020302020302020302020302020302020302020302020302020300A2020202D362E303131342020202D312E3332313020202020302E303030302043202020302020302020302020302020302020302020302020302020302020302020302020300A2020202D362E373235392020202D302E3930383520202020302E303030302043202020302020302020302020302020302020302020302020302020302020302020302020300A20202020332E3939313220202020302E3332393020202020302E30303030204F202020302020302020302020302020302020302020302020302020302020302020302020300A2020312020322020312020302020202020200A2020322020332020312020302020202020200A2020332020342020312020302020202020200A2020342020352020312020302020202020200A2020312020352020312020302020202020200A2020362020372020312020302020202020200A2020372020382020312020302020202020200A2020382020392020312020302020202020200A2020392031302020312020302020202020200A2031302031312020312020302020202020200A2031312031322020312020302020202020200A2031322031332020312020302020202020200A2031332031342020312020302020202020200A2031342031352020312020302020202020200A2031352031362020312020302020202020200A2031362031372020312020302020202020200A2031372031382020312020302020202020200A2031382031392020312020302020202020200A2031392032302020312020302020202020200A2032302032312020312020302020202020200A2032312032322020312020302020202020200A2032322032332020312020302020202020200A2020362032342020322020302020202020200A2020312020362020312020302020202020200A4D2020454E44
Contributor: SEYAMA Y, DEPT. OF PHYSIOL. CHEMISTRY AND NUTRITION, FAC. OF MEDICINE, UNIV. OF TOKYO
InstType: EI
InstName: SHIMADZU QP-1000
IoniMethod: _ENERGY 70 eV
IonPolarity: pos
Date: 2010-10-09 19:48:36+02:00
Num Peaks: 23
98 78 99 11 112 14 113 999 114 72 126 186 127 39 140 26 154 13 168 21 
182 14 196 7 210 4 224 4 238 6 252 6 266 3 280 3 294 4 308 3 
322 2 337 10 338 2 
