Name: 5-CHOLESTEN-3BETA-YL HEPTAFLUOROBUTYRATE
MW: 582
Formula: C31H45F7O2
Synonym: MassBank: JP001880
Synonym: 5-CHOLESTEN-3BETA-YL HEPTAFLUOROBUTYRATE
Synonym: CHOLESTERYL HEPTAFLUOROBUTYRATE
Structure: 352D43484F4C455354454E2D33424554412D594C204845505441464C554F524F42555459524154452E6D6F6C0A20204368656D447261773034323331303034343932440A2034312034342020302020302020302020302020302020302020302020303939392056323030300A2020202D322E343435392020202D322E3133313720202020302E303030302043202020302020302020302020302020302020302020302020302020302020302020302020300A2020202D322E373238312020202D322E3930373020202020302E303030302043202020302020302020302020302020302020302020302020302020302020302020302020300A2020202D332E303130322020202D332E3638323220202020302E303030302043202020302020302020302020302020302020302020302020302020302020302020302020300A2020202D332E323932342020202D342E3435373520202020302E303030302043202020302020302020302020302020302020302020302020302020302020302020302020300A2020202D322E393736322020202D312E3439393720202020302E30303030204F202020302020302020302020302020302020302020302020302020302020302020302020300A2020202D312E363333342020202D312E3938383520202020302E30303030204F202020302020302020302020302020302020302020302020302020302020302020302020300A2020202D312E393532382020202D332E3138393120202020302E303030302046202020302020302020302020302020302020302020302020302020302020302020302020300A2020202D332E353033332020202D322E3632343820202020302E303030302046202020302020302020302020302020302020302020302020302020302020302020302020300A2020202D332E373835352020202D332E3430303120202020302E303030302046202020302020302020302020302020302020302020302020302020302020302020302020300A2020202D322E323335302020202D332E3936343420202020302E303030302046202020302020302020302020302020302020302020302020302020302020302020302020300A2020202D322E353137312020202D342E3733393620202020302E303030302046202020302020302020302020302020302020302020302020302020302020302020302020300A2020202D342E303637362020202D342E3137353320202020302E303030302046202020302020302020302020302020302020302020302020302020302020302020302020300A2020202D332E353734362020202D352E3233323720202020302E303030302046202020302020302020302020302020302020302020302020302020302020302020302020300A2020202D312E333531332020202D312E3231333220202020302E303030302043202020302020302020302020302020302020302020302020302020302020302020302020300A2020202D312E333531332020202D302E3338383220202020302E303030302043202020302020302020302020302020302020302020302020302020302020302020302020300A2020202D302E3633363820202020302E3032343320202020302E303030302043202020302020302020302020302020302020302020302020302020302020302020302020300A2020202D302E363336382020202D312E3632353720202020302E303030302043202020302020302020302020302020302020302020302020302020302020302020302020300A20202020302E303737372020202D312E3231333220202020302E303030302043202020302020302020302020302020302020302020302020302020302020302020302020300A20202020302E373932322020202D312E3632353720202020302E303030302043202020302020302020302020302020302020302020302020302020302020302020302020300A20202020312E353036362020202D312E3231333220202020302E303030302043202020302020302020302020302020302020302020302020302020302020302020302020300A20202020312E353036362020202D302E3338383220202020302E303030302043202020302020302020302020302020302020302020302020302020302020302020302020300A20202020322E3232313120202020302E3032343320202020302E303030302043202020302020302020302020302020302020302020302020302020302020302020302020300A20202020332E303035372020202D302E3233303720202020302E303030302043202020302020302020302020302020302020302020302020302020302020302020302020300A20202020332E3439303620202020302E3433363820202020302E303030302043202020302020302020302020302020302020302020302020302020302020302020302020300A20202020332E3030353720202020312E3130343220202020302E303030302043202020302020302020302020302020302020302020302020302020302020302020302020300A20202020332E3236303720202020312E3838383820202020302E303030302043202020302020302020302020302020302020302020302020302020302020302020302020300A20202020322E3637373320202020322E3437323220202020302E303030302043202020302020302020302020302020302020302020302020302020302020302020302020300A20202020322E3839303820202020332E3236393120202020302E303030302043202020302020302020302020302020302020302020302020302020302020302020302020300A20202020322E3330373520202020332E3835323520202020302E303030302043202020302020302020302020302020302020302020302020302020302020302020302020300A20202020322E3532313020202020342E3634393320202020302E303030302043202020302020302020302020302020302020302020302020302020302020302020302020300A20202020312E3933373620202020352E3233323720202020302E303030302043202020302020302020302020302020302020302020302020302020302020302020302020300A20202020332E3331373920202020342E3836323920202020302E303030302043202020302020302020302020302020302020302020302020302020302020302020302020300A20202020342E3036373620202020322E3036303420202020302E303030302043202020302020302020302020302020302020302020302020302020302020302020302020300A20202020322E3232313120202020302E3834393320202020302E303030302043202020302020302020302020302020302020302020302020302020302020302020302020300A20202020322E3330373320202020312E3636393820202020302E303030302043202020302020302020302020302020302020302020302020302020302020302020302020300A20202020312E3530363620202020312E3236313820202020302E303030302043202020302020302020302020302020302020302020302020302020302020302020302020300A20202020302E3739323220202020302E3834393320202020302E303030302043202020302020302020302020302020302020302020302020302020302020302020302020300A20202020302E3739323220202020302E3032343320202020302E303030302043202020302020302020302020302020302020302020302020302020302020302020302020300A20202020302E303737372020202D302E3338383220202020302E303030302043202020302020302020302020302020302020302020302020302020302020302020302020300A20202020302E3037373720202020302E3433363820202020302E303030302043202020302020302020302020302020302020302020302020302020302020302020302020300A2020202D322E313633372020202D312E3037303020202020302E303030302048202020302020302020302020302020302020302020302020302020302020302020302020300A2020312020322020312020302020202020200A2020322020332020312020302020202020200A2020332020342020312020302020202020200A2020312020352020322020302020202020200A2020312020362020312020302020202020200A2020322020372020312020312020202020200A2020322020382020312020312020202020200A2020332020392020312020312020202020200A2020332031302020312020312020202020200A2020342031312020312020312020202020200A2020342031322020312020312020202020200A2020342031332020312020302020202020200A2031342031352020312020302020202020200A2031352031362020312020302020202020200A2031342031372020312020302020202020200A2031372031382020312020302020202020200A2031382031392020322020302020202020200A2031392032302020312020302020202020200A2032302032312020312020302020202020200A2032312032322020312020302020202020200A2032322032332020312020302020202020200A2032332032342020312020302020202020200A2032342032352020312020302020202020200A2032352032362020312020302020202020200A2032362032372020312020302020202020200A2032372032382020312020302020202020200A2032382032392020312020302020202020200A2032392033302020312020302020202020200A2033302033312020312020302020202020200A2033302033322020312020302020202020200A2032362033332020312020312020202020200A2032352033342020312020302020202020200A2032322033342020312020302020202020200A2033342033352020312020312020202020200A2033342033362020312020302020202020200A2033362033372020312020302020202020200A2033372033382020312020302020202020200A2032312033382020312020302020202020200A2033382033392020312020302020202020200A2031362033392020312020302020202020200A2031382033392020312020302020202020200A2033392034302020312020312020202020200A2031342020362020312020312020202020200A2031342034312020312020362020202020200A4D2020454E44
Contributor: SEYAMA Y, DEPT. OF PHYSIOL. CHEMISTRY AND NUTRITION, FAC. OF MEDICINE, UNIV. OF TOKYO
InstType: EI
InstName: SHIMADZU LKB-9000B
IoniMethod: _ENERGY 70 eV
IonPolarity: pos
Date: 2010-10-09 19:48:36+02:00
Num Peaks: 130
41 42 43 98 53 22 55 198 56 23 57 184 58 10 65 10 67 137 68 24 
69 148 70 14 71 95 77 38 78 13 79 126 80 26 81 245 82 31 83 81 
85 19 91 149 92 44 93 165 94 52 95 200 96 21 97 46 100 10 103 13 
104 15 105 191 106 62 107 176 108 66 109 103 110 16 111 28 115 17 116 11 
117 68 118 36 119 115 120 112 121 108 122 29 123 55 125 10 128 21 129 41 
130 25 131 104 132 32 133 136 134 40 135 101 136 21 137 20 141 13 142 17 
143 120 144 45 145 239 146 68 147 182 148 44 149 53 150 11 151 14 155 10 
157 61 158 84 159 126 160 74 161 76 162 20 163 43 165 12 169 23 171 40 
172 18 173 41 174 16 175 21 177 11 185 39 186 14 187 22 191 12 193 14 
197 15 199 60 200 21 201 25 205 23 206 21 213 181 214 63 215 35 216 10 
227 21 228 83 229 30 241 13 245 13 246 13 247 117 248 29 255 117 256 26 
259 13 260 91 261 33 274 11 275 43 276 11 283 15 301 12 326 15 339 12 
353 150 354 47 368 999 369 344 370 62 427 42 428 19 469 26 567 12 582 10 
