Name: MassBank: JP007917
MW: 282
Formula: C16H14N2O3
Synonym: MassBank: JP007917
Synonym: 1-OXO-1H-PYRIMIDO(1,2-A)QUINOLINE-2-CARBOXYLIC ACID ISOPROPYL ESTER
Structure: 312D4F584F2D31482D505952494D49444F28312C322D41295155494E4F4C494E452D322D434152424F58594C494320414349442049534F50524F50594C2045535445522E6D6F6C0A20204368656D447261773131323230393231343932440A2032312032332020302020302020302020302020302020302020302020303939392056323030300A20202020312E303731372020202D302E3230363220202020302E30303030204E202020302020302020302020302020302020302020302020302020302020302020302020300A20202020312E303731372020202D312E3033313220202020302E303030302043202020302020302020302020302020302020302020302020302020302020302020302020300A20202020312E373836322020202D312E3434333820202020302E303030302043202020302020302020302020302020302020302020302020302020302020302020302020300A20202020322E353030362020202D312E3033313320202020302E303030302043202020302020302020302020302020302020302020302020302020302020302020302020300A20202020322E353030362020202D302E3230363220202020302E303030302043202020302020302020302020302020302020302020302020302020302020302020302020300A20202020332E3231353120202020302E3230363320202020302E303030302043202020302020302020302020302020302020302020302020302020302020302020302020300A20202020332E3231353120202020312E3033313320202020302E303030302043202020302020302020302020302020302020302020302020302020302020302020302020300A20202020322E3530303620202020312E3434333820202020302E303030302043202020302020302020302020302020302020302020302020302020302020302020302020300A20202020312E3738363220202020312E3033313320202020302E303030302043202020302020302020302020302020302020302020302020302020302020302020302020300A20202020312E3738363220202020302E3230363320202020302E303030302043202020302020302020302020302020302020302020302020302020302020302020302020300A20202020302E333537322020202D312E3434333820202020302E30303030204E202020302020302020302020302020302020302020302020302020302020302020302020300A2020202D302E333537322020202D312E3033313320202020302E303030302043202020302020302020302020302020302020302020302020302020302020302020302020300A2020202D302E333537322020202D302E3230363220202020302E303030302043202020302020302020302020302020302020302020302020302020302020302020302020300A20202020302E3335373220202020302E3230363320202020302E303030302043202020302020302020302020302020302020302020302020302020302020302020302020300A2020202D312E3037313720202020302E3230363220202020302E303030302043202020302020302020302020302020302020302020302020302020302020302020302020300A2020202D312E3037313720202020312E3033313220202020302E30303030204F202020302020302020302020302020302020302020302020302020302020302020302020300A2020202D312E373836322020202D302E3230363320202020302E30303030204F202020302020302020302020302020302020302020302020302020302020302020302020300A20202020302E3335373220202020312E3033313320202020302E30303030204F202020302020302020302020302020302020302020302020302020302020302020302020300A2020202D322E3530303620202020302E3230363220202020302E303030302043202020302020302020302020302020302020302020302020302020302020302020302020300A2020202D332E323135312020202D302E3230363320202020302E303030302043202020302020302020302020302020302020302020302020302020302020302020302020300A2020202D322E3530303620202020312E3033313220202020302E303030302043202020302020302020302020302020302020302020302020302020302020302020302020300A2020312020322020312020302020202020200A2020322020332020312020302020202020200A2020332020342020322020302020202020200A2020342020352020312020302020202020200A2020352020362020312020302020202020200A2020362020372020322020302020202020200A2020372020382020312020302020202020200A2020382020392020322020302020202020200A2020392031302020312020302020202020200A2020312031302020312020302020202020200A2020352031302020322020302020202020200A2031312031322020312020302020202020200A2031322031332020322020302020202020200A2031332031342020312020302020202020200A2020312031342020312020302020202020200A2020322031312020322020302020202020200A2031352031362020322020302020202020200A2031352031372020312020302020202020200A2031332031352020312020302020202020200A2031342031382020322020302020202020200A2031392032302020312020302020202020200A2031392032312020312020302020202020200A2031372031392020312020302020202020200A4D2020454E44
Contributor: SASAKI S, TOYOHASHI UNIV. OF TECH.
InstType: EI
InstName: MS-902
IoniMethod: _ENERGY 70 eV
IonPolarity: pos
Date: 2010-10-09 19:48:36+02:00
Num Peaks: 24
64 65 69 160 77 64 101 12 128 670 129 150 140 98 155 5 167 52 168 370 
169 75 194 4 195 190 196 790 197 100 212 50 223 370 224 120 239 35 240 8 
254 23 268 32 282 999 283 170 
