Name: MassBank: JP009947
MW: 290
Formula: C20H34O
Synonym: MassBank: JP009947
Synonym: 3,7,11,15-TETRAMETHYL-1,6,10,14-HEXADECATETRAEN-3-OL
Synonym: LINALYL LINALOOL
Structure: 332C372C31312C31352D54455452414D455448594C2D312C362C31302C31342D48455841444543415445545241454E2D332D4F4C2E6D6F6C0A20204368656D447261773032323231303032313032440A2032312032302020302020302020302020302020302020302020302020303939392056323030300A2020202D342E3538383820202020312E3635303020202020302E303030302043202020302020302020302020302020302020302020302020302020302020302020302020300A2020202D332E3837343320202020312E3233373520202020302E303030302043202020302020302020302020302020302020302020302020302020302020302020302020300A2020202D332E3837343320202020302E3431323520202020302E303030302043202020302020302020302020302020302020302020302020302020302020302020302020300A2020202D332E383734332020202D302E3431323520202020302E303030302043202020302020302020302020302020302020302020302020302020302020302020302020300A2020202D332E313539392020202D302E3832353020202020302E303030302043202020302020302020302020302020302020302020302020302020302020302020302020300A2020202D322E343435342020202D302E3431323520202020302E303030302043202020302020302020302020302020302020302020302020302020302020302020302020300A2020202D312E373330392020202D302E3832353020202020302E303030302043202020302020302020302020302020302020302020302020302020302020302020302020300A2020202D312E303136342020202D302E3431323520202020302E303030302043202020302020302020302020302020302020302020302020302020302020302020302020300A2020202D302E333032302020202D302E3832353020202020302E303030302043202020302020302020302020302020302020302020302020302020302020302020302020300A20202020302E343132352020202D302E3431323520202020302E303030302043202020302020302020302020302020302020302020302020302020302020302020302020300A20202020312E313237302020202D302E3832353020202020302E303030302043202020302020302020302020302020302020302020302020302020302020302020302020300A20202020312E383431342020202D302E3431323520202020302E303030302043202020302020302020302020302020302020302020302020302020302020302020302020300A20202020322E353535392020202D302E3832353020202020302E303030302043202020302020302020302020302020302020302020302020302020302020302020302020300A20202020332E323730342020202D302E3431323520202020302E303030302043202020302020302020302020302020302020302020302020302020302020302020302020300A20202020332E393834392020202D302E3832353020202020302E303030302043202020302020302020302020302020302020302020302020302020302020302020302020300A20202020342E363939332020202D302E3431323520202020302E303030302043202020302020302020302020302020302020302020302020302020302020302020302020300A2020202D342E3639393320202020302E3431323520202020302E30303030204F202020302020302020302020302020302020302020302020302020302020302020302020300A20202020332E393834392020202D312E3635303020202020302E303030302043202020302020302020302020302020302020302020302020302020302020302020302020300A20202020312E313237302020202D312E3635303020202020302E303030302043202020302020302020302020302020302020302020302020302020302020302020302020300A2020202D312E373330392020202D312E3635303020202020302E303030302043202020302020302020302020302020302020302020302020302020302020302020302020300A2020202D332E3034393320202020302E3431323520202020302E303030302043202020302020302020302020302020302020302020302020302020302020302020302020300A2020312020322020322020302020202020200A2020322020332020312020302020202020200A2020332020342020312020302020202020200A2020342020352020312020302020202020200A2020352020362020312020302020202020200A2020362020372020322020302020202020200A2020372020382020312020302020202020200A2020382020392020312020302020202020200A2020392031302020312020302020202020200A2031302031312020322020302020202020200A2031312031322020312020302020202020200A2031322031332020312020302020202020200A2031332031342020312020302020202020200A2031342031352020322020302020202020200A2031352031362020312020302020202020200A2020332031372020312020302020202020200A2031352031382020312020302020202020200A2031312031392020312020302020202020200A2020372032302020312020302020202020200A2020332032312020312020302020202020200A4D2020454E44
Contributor: KURARAY CO., LTD.
InstType: EI
InstName: JEOL JMS-D-300
IoniMethod: _ENERGY 70 eV
IonPolarity: pos
Date: 2010-10-09 19:48:36+02:00
Num Peaks: 75
27 55 29 98 32 8 39 4 41 641 42 94 43 559 44 2 45 78 53 94 
55 305 57 8 65 148 67 195 68 78 69 999 70 78 71 234 73 47 77 6 
79 153 80 70 81 528 82 9 83 122 85 102 91 125 92 3 93 355 94 78 
95 448 96 5 97 84 98 86 99 98 105 13 106 94 107 417 108 94 109 36 
110 86 111 117 113 61 119 16 120 23 121 258 122 108 123 47 124 109 125 161 
133 183 134 3 135 173 136 92 137 141 142 6 143 141 145 127 147 122 148 8 
149 102 151 138 159 20 161 8 163 127 175 117 177 125 187 2 189 133 190 109 
191 59 203 38 204 86 229 109 272 102 
