Name: 5-METHYL-2-HEXANONE
MW: 114
Formula: C7H14O
Synonym: MassBank: JP000263
Synonym: 5-METHYL-2-HEXANONE
Synonym: METHYL ISOAMYL KETONE
Structure: 310A32300A352D4D455448594C2D322D484558414E4F4E452E6D6F6C0A20204368656D447261773034323331303037303932440A2020382020372020302020302020302020302020302020302020302020303939392056323030300A2020202D312E3738363220202020302E3230363220202020302E303030302043202020302020302020302020302020302020302020302020302020302020302020302020300A2020202D312E303731372020202D302E3230363220202020302E303030302043202020302020302020302020302020302020302020302020302020302020302020302020300A2020202D302E3335373220202020302E3230363220202020302E303030302043202020302020302020302020302020302020302020302020302020302020302020302020300A20202020302E333537322020202D302E3230363220202020302E303030302043202020302020302020302020302020302020302020302020302020302020302020302020300A20202020312E3037313720202020302E3230363220202020302E303030302043202020302020302020302020302020302020302020302020302020302020302020302020300A20202020312E3037313720202020312E3033313320202020302E303030302043202020302020302020302020302020302020302020302020302020302020302020302020300A2020202D312E303731372020202D312E3033313320202020302E30303030204F202020302020302020302020302020302020302020302020302020302020302020302020300A20202020312E373836322020202D302E3230363220202020302E303030302043202020302020302020302020302020302020302020302020302020302020302020302020300A2020312020322020312020302020202020200A2020322020332020312020302020202020200A2020332020342020312020302020202020200A2020342020352020312020302020202020200A2020352020362020312020302020202020200A2020322020372020322020302020202020200A2020352020382020312020302020202020200A4D2020454E44
Contributor: YAMAMOTO M, DEP. CHEMISTRY, FAC. SCIENCE, NARA WOMEN'S UNIV.
InstType: EI
InstName: HITACHI RMU-6M
IoniMethod: _ENERGY 70 eV
IonPolarity: pos
Date: 2010-10-09 19:48:36+02:00
Num Peaks: 25
15 62 26 10 27 118 28 3 29 81 39 94 40 13 41 16 42 21 43 999 
44 24 53 2 55 48 56 46 57 178 58 58 59 123 71 104 72 14 81 6 
85 17 86 22 99 27 114 10 115 14 
