Name: MassBank: JP004553
MW: 236
Formula: C10H20O6
Synonym: MassBank: JP004553
Synonym: METHYL 3,4,6-TRI-O-METHYL MANNOPYRANOSIDE
Structure: 303837305F4D455448594C20332C342C362D5452492D4F2D4D455448594C204D414E4E4F505952414E4F534944452E6D6F6C0A20204368656D447261773039303631303230333532440A2031362031362020302020302020302020302020302020302020302020303939392056323030300A2020202D312E3434333720202020312E3432383920202020302E30303030204F202020302020302020302020302020302020302020302020302020302020302020302020300A2020202D312E3033313220202020302E3731343420202020302E303030302043202020302020302020302020302020302020302020302020302020302020302020302020300A2020202D312E343433372020202D302E3030303020202020302E303030302043202020302020302020302020302020302020302020302020302020302020302020302020300A2020202D322E3236383720202020302E3030303020202020302E30303030204F202020302020302020302020302020302020302020302020302020302020302020302020300A2020202D312E303331322020202D302E3731343520202020302E303030302043202020302020302020302020302020302020302020302020302020302020302020302020300A2020202D312E343433372020202D312E3432383920202020302E30303030204F202020302020302020302020302020302020302020302020302020302020302020302020300A2020202D302E323036332020202D302E3731343420202020302E303030302043202020302020302020302020302020302020302020302020302020302020302020302020300A20202020302E323036322020202D312E3432383920202020302E30303030204F202020302020302020302020302020302020302020302020302020302020302020302020300A20202020302E3230363220202020302E3030303020202020302E303030302043202020302020302020302020302020302020302020302020302020302020302020302020300A2020202D302E3230363220202020302E3731343420202020302E30303030204F202020302020302020302020302020302020302020302020302020302020302020302020300A20202020312E303331322020202D302E3030303020202020302E303030302043202020302020302020302020302020302020302020302020302020302020302020302020300A20202020312E3434333720202020302E3731343420202020302E30303030204F202020302020302020302020302020302020302020302020302020302020302020302020300A20202020322E3236383720202020302E3731343420202020302E303030302043202020302020302020302020302020302020302020302020302020302020302020302020300A2020202D302E323036322020202D322E3134333420202020302E303030302043202020302020302020302020302020302020302020302020302020302020302020302020300A2020202D322E323638372020202D312E3432383920202020302E303030302043202020302020302020302020302020302020302020302020302020302020302020302020300A2020202D312E3033313220202020322E3134333420202020302E303030302043202020302020302020302020302020302020302020302020302020302020302020302020300A2020322020312020312020312020202020200A2020322020332020312020302020202020200A2020332020342020312020362020202020200A2020332020352020312020302020202020200A2020352020362020312020362020202020200A2020352020372020312020302020202020200A2020372020382020312020312020202020200A2020372020392020312020302020202020200A2020392031302020312020302020202020200A2020392031312020312020362020202020200A2031312031322020312020302020202020200A2020322031302020312020302020202020200A2031322031332020312020302020202020200A2020382031342020312020302020202020200A2020362031352020312020302020202020200A2020312031362020312020302020202020200A4D2020454E44
Contributor: HAYASHI A, DEPT. OF CHEMISTRY, FAC. OF SCI. AND TECHNOLOGY, KINKI UNIV.
InstType: EI
InstName: SHIMADZU LKB-9000B
IoniMethod: _ENERGY 70 eV
IonPolarity: pos
Date: 2010-10-09 19:48:36+02:00
Num Peaks: 73
41 226 42 51 43 134 44 4 45 755 46 10 47 16 53 5 54 16 55 83 
56 32 57 9 58 140 59 206 60 16 61 3 67 9 68 34 69 79 70 1 
71 999 72 97 73 173 74 61 75 985 76 26 77 5 81 3 82 16 83 25 
84 36 85 12 86 15 87 343 88 673 89 29 90 7 95 4 97 16 98 1 
99 115 100 22 101 378 102 14 103 18 111 45 112 39 113 3 114 14 115 82 
116 12 117 7 118 12 127 151 128 4 129 1 130 22 131 44 140 6 141 2 
143 11 144 17 145 6 149 2 159 54 161 184 162 7 172 2 173 21 175 8 
191 5 204 1 205 16 
