Name: 1-METHYL-1-PHENYLHYDRAZINE
MW: 122
Formula: C7H10N2
Synonym: MassBank: JP000396
Synonym: 1-METHYL-1-PHENYLHYDRAZINE
Structure: 310A32330A312D4D455448594C2D312D5048454E594C48594452415A494E452E6D6F6C0A20204368656D447261773131313930393136323132440A2020392020392020302020302020302020302020302020302020302020303939392056323030300A2020202D312E3033313320202020302E3030303020202020302E30303030204E202020302020302020302020302020302020302020302020302020302020302020302020300A2020202D312E343433382020202D302E3731343520202020302E30303030204E202020302020302020302020302020302020302020302020302020302020302020302020300A2020202D302E3230363320202020302E3030303020202020302E303030302043202020302020302020302020302020302020302020302020302020302020302020302020300A20202020302E3230363220202020302E3731343520202020302E303030302043202020302020302020302020302020302020302020302020302020302020302020302020300A20202020312E3033313220202020302E3731343520202020302E303030302043202020302020302020302020302020302020302020302020302020302020302020302020300A20202020312E343433382020202D302E3030303020202020302E303030302043202020302020302020302020302020302020302020302020302020302020302020302020300A20202020312E303331322020202D302E3731343520202020302E303030302043202020302020302020302020302020302020302020302020302020302020302020302020300A20202020302E323036322020202D302E3731343520202020302E303030302043202020302020302020302020302020302020302020302020302020302020302020302020300A2020202D312E3434333820202020302E3731343520202020302E303030302043202020302020302020302020302020302020302020302020302020302020302020302020300A2020312020322020312020302020202020200A2020332020342020312020302020202020200A2020342020352020322020302020202020200A2020352020362020312020302020202020200A2020362020372020322020302020202020200A2020372020382020312020302020202020200A2020332020382020322020302020202020200A2020312020332020312020302020202020200A2020312020392020312020302020202020200A4D2020454E44
Contributor: SASAKI S, TOYOHASHI UNIV. OF TECH.
InstType: EI
InstName: SHIMADZU LKB-2091
IoniMethod: _ENERGY 70 eV
IonPolarity: pos
Date: 2010-10-09 19:48:36+02:00
Num Peaks: 47
27 42 29 132 30 21 31 1 37 12 38 33 39 98 40 1 41 10 42 12 
43 56 44 1 45 28 50 79 51 210 52 7 52.5 10 53 35 53.5 12 54 1 
61 51 62 12 63 54 64 3 65 61 66 16 73 12 74 2 75 23 76 19 
77 675 78 13 79 165 80 20 90 9 91 4 92 58 93 56 94 21 104 10 
105 98 106 74 107 465 108 4 121 88 122 999 123 100 
