Name: DICHLOROBROMOMETHANE
MW: 161
Formula: CHBrCl2
Synonym: MassBank: JP003421
Synonym: DICHLOROBROMOMETHANE
Structure: 310A31320A444943484C4F524F42524F4D4F4D455448414E452E6D6F6C0A20204368656D447261773039323131303138313632440A2020342020332020302020302020302020302020302020302020302020303939392056323030300A20202020302E3230363220202020302E3030303020202020302E303030302043202020302020302020302020302020302020302020302020302020302020302020302020300A20202020302E3631383820202020302E3731343520202020302E303030302042722020302020302020302020302020302020302020302020302020302020302020302020300A20202020302E363138382020202D302E3731343520202020302E3030303020436C2020302020302020302020302020302020302020302020302020302020302020302020300A2020202D302E3631383820202020302E3030303020202020302E3030303020436C2020302020302020302020302020302020302020302020302020302020302020302020300A2020312020322020312020302020202020200A2020312020332020312020302020202020200A2020312020342020312020302020202020200A4D2020454E44
Contributor: KOGA M, UNIV. OF OCCUPATIONAL AND ENVIRONMENTAL HEALTH
InstType: EI
InstName: JEOL JMS-01-SG-2
IoniMethod: _ENERGY 75 eV
IonPolarity: pos
Date: 2010-10-09 19:48:36+02:00
Num Peaks: 15
47 247 48 169 49 96 50 59 79 64 81 66 83 999 84 7 85 809 86 43 
87 118 91 4 127 113 129 144 131 36 
