Name: MassBank: JP009959
MW: 303
Formula: C18H25NO3
Synonym: MassBank: JP009959
Synonym: 1-BUTYL-5-HYDROXY-3-METHOXYCARBONYL-2,4,6,7-TETRAMETHYLINDOLE
Structure: 312D425554594C2D352D485944524F58592D332D4D4554484F5859434152424F4E594C2D322C342C362C372D54455452414D455448594C494E444F4C452E6D6F6C0A20204368656D447261773131313730393233353532440A2032322032332020302020302020302020302020302020302020302020303939392056323030300A2020202D302E343032312020202D302E3339353320202020302E30303030204E202020302020302020302020302020302020302020302020302020302020302020302020300A2020202D302E3838373020202020302E3237323220202020302E303030302043202020302020302020302020302020302020302020302020302020302020302020302020300A2020202D302E3430323120202020302E3933393620202020302E303030302043202020302020302020302020302020302020302020302020302020302020302020302020300A20202020302E3338323520202020302E3638343720202020302E303030302043202020302020302020302020302020302020302020302020302020302020302020302020300A20202020312E3039373020202020312E3039373220202020302E303030302043202020302020302020302020302020302020302020302020302020302020302020302020300A20202020312E3831313520202020302E3638343720202020302E303030302043202020302020302020302020302020302020302020302020302020302020302020302020300A20202020312E383131352020202D302E3134303320202020302E303030302043202020302020302020302020302020302020302020302020302020302020302020302020300A20202020312E303937302020202D302E3535323820202020302E303030302043202020302020302020302020302020302020302020302020302020302020302020302020300A20202020302E333832352020202D302E3134303320202020302E303030302043202020302020302020302020302020302020302020302020302020302020302020302020300A20202020312E303937302020202D312E3337373820202020302E303030302043202020302020302020302020302020302020302020302020302020302020302020302020300A20202020322E353235392020202D302E3535323820202020302E303030302043202020302020302020302020302020302020302020302020302020302020302020302020300A20202020312E3039373020202020312E3932323220202020302E303030302043202020302020302020302020302020302020302020302020302020302020302020302020300A2020202D312E3731323020202020302E3237323220202020302E303030302043202020302020302020302020302020302020302020302020302020302020302020302020300A2020202D302E3635373020202020312E3732343220202020302E303030302043202020302020302020302020302020302020302020302020302020302020302020302020300A2020202D302E3037333720202020322E3330373620202020302E30303030204F202020302020302020302020302020302020302020302020302020302020302020302020300A2020202D312E3435333920202020312E3933373720202020302E30303030204F202020302020302020302020302020302020302020302020302020302020302020302020300A2020202D322E3033373320202020312E3335343420202020302E303030302043202020302020302020302020302020302020302020302020302020302020302020302020300A20202020322E3532353920202020312E3039373220202020302E30303030204F202020302020302020302020302020302020302020302020302020302020302020302020300A2020202D302E363537302020202D312E3137393920202020302E303030302043202020302020302020302020302020302020302020302020302020302020302020302020300A2020202D312E343634302020202D312E3335313420202020302E303030302043202020302020302020302020302020302020302020302020302020302020302020302020300A2020202D312E373139302020202D322E3133363120202020302E303030302043202020302020302020302020302020302020302020302020302020302020302020302020300A2020202D322E353235392020202D322E3330373620202020302E303030302043202020302020302020302020302020302020302020302020302020302020302020302020300A2020312020322020312020302020202020200A2020322020332020322020302020202020200A2020332020342020312020302020202020200A2020342020352020312020302020202020200A2020352020362020322020302020202020200A2020362020372020312020302020202020200A2020372020382020322020302020202020200A2020382020392020312020302020202020200A2020312020392020312020302020202020200A2020342020392020322020302020202020200A2020382031302020312020302020202020200A2020372031312020312020302020202020200A2020352031322020312020302020202020200A2020322031332020312020302020202020200A2031342031352020322020302020202020200A2031362031372020312020302020202020200A2031342031362020312020302020202020200A2020332031342020312020302020202020200A2020362031382020312020302020202020200A2031392032302020312020302020202020200A2032302032312020312020302020202020200A2032312032322020312020302020202020200A2020312031392020312020302020202020200A4D2020454E44
Contributor: KURARAY CO., LTD.
InstType: EI
InstName: JEOL JMS-D-300
IoniMethod: _ENERGY 70 eV
IonPolarity: pos
Date: 2010-10-09 19:48:36+02:00
Num Peaks: 26
28 9 29 97 41 77 43 5 140 61 151 60 158 44 200 6 202 82 214 85 
215 92 216 7 222 34 228 326 229 63 243 8 246 45 260 203 261 44 271 9 
272 197 288 44 289 49 302 9 303 999 304 229 
