Name: 4-CHLORO-4-METHYL-2-TRIMETHYLSILOXYPENTENE
MW: 206
Formula: C9H19ClOSi
Synonym: MassBank: JP004751
Synonym: 4-CHLORO-4-METHYL-2-TRIMETHYLSILOXYPENTENE
Structure: 342D43484C4F524F2D342D4D455448594C2D322D5452494D455448594C53494C4F585950454E54454E452E6D6F6C0A20204368656D447261773033323531303039323932440A2031322031312020302020302020302020302020302020302020302020303939392056323030300A2020202D302E3030303020202020302E3736393720202020302E303030302043202020302020302020302020302020302020302020302020302020302020302020302020300A2020202D302E303030302020202D302E3035353320202020302E303030302043202020302020302020302020302020302020302020302020302020302020302020302020300A20202020302E373134352020202D302E3436373820202020302E303030302043202020302020302020302020302020302020302020302020302020302020302020302020300A20202020312E343238392020202D302E3035353320202020302E303030302043202020302020302020302020302020302020302020302020302020302020302020302020300A20202020312E3031363420202020302E3635393220202020302E303030302043202020302020302020302020302020302020302020302020302020302020302020302020300A2020202D302E373134352020202D302E3436373820202020302E30303030204F202020302020302020302020302020302020302020302020302020302020302020302020300A2020202D312E343238392020202D302E3035353320202020302E303030302053692020302020302020302020302020302020302020302020302020302020302020302020300A2020202D312E383431342020202D302E3736393720202020302E303030302043202020302020302020302020302020302020302020302020302020302020302020302020300A2020202D322E3134333420202020302E3335373220202020302E303030302043202020302020302020302020302020302020302020302020302020302020302020302020300A2020202D312E3031363420202020302E3635393220202020302E303030302043202020302020302020302020302020302020302020302020302020302020302020302020300A20202020322E3134333420202020302E3335373220202020302E303030302043202020302020302020302020302020302020302020302020302020302020302020302020300A20202020312E383431342020202D302E3736393720202020302E3030303020436C2020302020302020302020302020302020302020302020302020302020302020302020300A2020312020322020322020302020202020200A2020322020332020312020302020202020200A2020332020342020312020302020202020200A2020342020352020312020302020202020200A2020362020372020312020302020202020200A2020372020382020312020302020202020200A2020372020392020312020302020202020200A2020372031302020312020302020202020200A2020322020362020312020302020202020200A2020342031312020312020302020202020200A2020342031322020312020302020202020200A4D2020454E44
Contributor: MASS SPECTROSCOPY SOC. OF JAPAN (MSSJ)
InstType: EI
InstName: JEOL JMS-D-3000
IoniMethod: _ENERGY 20 eV
IonPolarity: pos
Date: 2010-10-09 19:48:36+02:00
Num Peaks: 49
32 26 36 69 38 24 41 22 43 140 55 29 56 159 57 578 58 20 68 26 
69 54 70 74 71 342 72 25 73 589 74 48 75 159 77 28 79 39 81 146 
82 86 83 72 84 94 85 194 93 148 95 71 98 97 111 23 112 112 113 53 
115 85 126 26 130 42 138 134 140 101 141 61 155 241 156 33 157 71 169 26 
170 33 171 999 172 157 173 37 191 154 192 25 193 57 206 54 208 21 
