Name: VERALKAMINE
MW: 413
Formula: C27H43NO2
Synonym: MassBank: JP003669
Synonym: VERALKAMINE
Structure: 303032325F564552414C4B414D494E452E6D6F6C0A20204368656D447261773038313931303232333532440A2038322034322020302020302020302020302020302020302020302020303939392056323030300A20202020312E353337342020202D352E3534353120202020302E303030302043202020302020302020302020302020302020302020302020302020302020302020302020300A20202020322E393032372020202D342E3439333220202020302E303030302043202020302020302020302020302020302020302020302020302020302020302020302020300A20202031362E3538353420202D31372E3231303620202020302E303030302043202020302020302020302020302020302020302020302020302020302020302020302020300A20202D31302E3039323420202031372E3734363120202020302E303030302043202020302020302020302020302020302020302020302020302020302020302020302020300A20202031372E3031333020202D31352E3433363820202020302E303030302043202020302020302020302020302020302020302020302020302020302020302020302020300A20202032302E3530353520202D31382E3935313320202020302E303030302043202020302020302020302020302020302020302020302020302020302020302020302020300A2020202D332E3738313120202020312E3533303720202020302E303030302043202020302020302020302020302020302020302020302020302020302020302020302020300A2020202D312E3331353820202020342E3334383120202020302E303030302043202020302020302020302020302020302020302020302020302020302020302020302020300A20202020322E3530353420202020312E3838313320202020302E303030302043202020302020302020302020302020302020302020302020302020302020302020302020300A20202D31372E3838343520202031372E3737323220202020302E303030302043202020302020302020302020302020302020302020302020302020302020302020302020300A20202D31302E3134303520202020392E3938303120202020302E303030302043202020302020302020302020302020302020302020302020302020302020302020302020300A20202D31302E3131383520202020342E3337303120202020302E303030302043202020302020302020302020302020302020302020302020302020302020302020302020300A2020202D342E3530383520202031302E3030323120202020302E303030302043202020302020302020302020302020302020302020302020302020302020302020302020300A20202D31302E3134303520202020392E3938303120202020302E303030302043202020302020302020302020302020302020302020302020302020302020302020302020300A20202D31302E3131383520202020342E3337303120202020302E303030302043202020302020302020302020302020302020302020302020302020302020302020302020300A2020202D342E3530383520202031302E3030323120202020302E303030302043202020302020302020302020302020302020302020302020302020302020302020302020300A20202D31302E3134303520202020392E3938303120202020302E303030302043202020302020302020302020302020302020302020302020302020302020302020302020300A2020202D312E3330363120202020342E3333353720202020302E303030302043202020302020302020302020302020302020302020302020302020302020302020302020300A2020202D332E3738323520202020392E3932373820202020302E303030302043202020302020302020302020302020302020302020302020302020302020302020302020300A20202D31362E3835383820202020342E3334383120202020302E303030302043202020302020302020302020302020302020302020302020302020302020302020302020300A20202D31302E303839362020202D352E3833373920202020302E303030302043202020302020302020302020302020302020302020302020302020302020302020302020300A20202D31362E383538382020202D362E3233393420202020302E303030302043202020302020302020302020302020302020302020302020302020302020302020302020300A20202020312E353337342020202D352E3534353120202020302E303030302043202020302020302020302020302020302020302020302020302020302020302020302020300A20202020322E393032372020202D342E3439333220202020302E303030302043202020302020302020302020302020302020302020302020302020302020302020302020300A20202031362E3538353420202D31372E3231303620202020302E303030302043202020302020302020302020302020302020302020302020302020302020302020302020300A20202D31302E3039323420202031372E3734363120202020302E303030302043202020302020302020302020302020302020302020302020302020302020302020302020300A20202031372E3031333020202D31352E3433363820202020302E303030302043202020302020302020302020302020302020302020302020302020302020302020302020300A20202032302E3530353520202D31382E3935313320202020302E303030302043202020302020302020302020302020302020302020302020302020302020302020302020300A2020202D332E3738313120202020312E3533303720202020302E303030302043202020302020302020302020302020302020302020302020302020302020302020302020300A2020202D312E3331353820202020342E3334383120202020302E303030302043202020302020302020302020302020302020302020302020302020302020302020302020300A20202020322E3530353420202020312E3838313320202020302E303030302043202020302020302020302020302020302020302020302020302020302020302020302020300A20202D31372E3838343520202031372E3737323220202020302E303030302043202020302020302020302020302020302020302020302020302020302020302020302020300A20202D31302E3134303520202020392E3938303120202020302E303030302043202020302020302020302020302020302020302020302020302020302020302020302020300A20202D31302E3131383520202020342E3337303120202020302E303030302043202020302020302020302020302020302020302020302020302020302020302020302020300A2020202D342E3530383520202031302E3030323120202020302E303030302043202020302020302020302020302020302020302020302020302020302020302020302020300A20202D31302E3134303520202020392E3938303120202020302E303030302043202020302020302020302020302020302020302020302020302020302020302020302020300A20202D31302E3131383520202020342E3337303120202020302E303030302043202020302020302020302020302020302020302020302020302020302020302020302020300A2020202D342E3530383520202031302E3030323120202020302E303030302043202020302020302020302020302020302020302020302020302020302020302020302020300A20202D31302E3134303520202020392E3938303120202020302E303030302043202020302020302020302020302020302020302020302020302020302020302020302020300A2020202D312E3330363120202020342E3333353720202020302E303030302043202020302020302020302020302020302020302020302020302020302020302020302020300A2020202D332E3738323520202020392E3932373820202020302E303030302043202020302020302020302020302020302020302020302020302020302020302020302020300A20202D31362E3835383820202020342E3334383120202020302E303030302043202020302020302020302020302020302020302020302020302020302020302020302020300A20202D31302E303839362020202D352E3833373920202020302E303030302043202020302020302020302020302020302020302020302020302020302020302020302020300A20202D31362E383538382020202D362E3233393420202020302E303030302043202020302020302020302020302020302020302020302020302020302020302020302020300A20202D31392E3730383620202031382E3135343420202020302E303030302043202020302020302020302020302020302020302020302020302020302020302020302020300A20202D31392E3730383620202031372E3332393420202020302E303030302043202020302020302020302020302020302020302020302020302020302020302020302020300A20202D31382E3939343120202031362E3931363920202020302E303030302043202020302020302020302020302020302020302020302020302020302020302020302020300A20202D31382E3237393720202031372E3332393420202020302E303030302043202020302020302020302020302020302020302020302020302020302020302020302020300A20202D31382E3237393720202031382E3135343420202020302E303030302043202020302020302020302020302020302020302020302020302020302020302020302020300A20202D31382E3939343120202031382E3536363920202020302E303030302043202020302020302020302020302020302020302020302020302020302020302020302020300A20202D31372E3536353220202031362E3931363920202020302E303030302043202020302020302020302020302020302020302020302020302020302020302020302020300A20202D31362E3835303720202031372E3332393420202020302E303030302043202020302020302020302020302020302020302020302020302020302020302020302020300A20202D31362E3835303720202031382E3135343420202020302E303030302043202020302020302020302020302020302020302020302020302020302020302020302020300A20202D31372E3536353220202031382E3536363920202020302E303030302043202020302020302020302020302020302020302020302020302020302020302020302020300A20202D31372E3536353220202031362E3039313920202020302E303030302043202020302020302020302020302020302020302020302020302020302020302020302020300A20202D31362E3835303720202031352E3637393420202020302E303030302043202020302020302020302020302020302020302020302020302020302020302020302020300A20202D31362E3133363220202031362E3039313920202020302E303030302043202020302020302020302020302020302020302020302020302020302020302020302020300A20202D31362E3133363220202031362E3931363920202020302E303030302043202020302020302020302020302020302020302020302020302020302020302020302020300A20202D31352E3335313620202031352E3833373020202020302E303030302043202020302020302020302020302020302020302020302020302020302020302020302020300A20202D31342E3836363720202031362E3530343420202020302E303030302043202020302020302020302020302020302020302020302020302020302020302020302020300A20202D31352E3335313620202031372E3137313920202020302E303030302043202020302020302020302020302020302020302020302020302020302020302020302020300A20202D31352E3736343120202031352E3132323520202020302E303030302043202020302020302020302020302020302020302020302020302020302020302020302020300A20202D31342E3535343720202031352E3632333520202020302E303030302043202020302020302020302020302020302020302020302020302020302020302020302020300A20202D31332E3937313420202031362E3230363820202020302E303030302048202020302020302020302020302020302020302020302020302020302020302020302020300A20202D31332E3732393720202031352E3632333520202020302E303030302043202020302020302020302020302020302020302020302020302020302020302020302020300A20202D31342E3736383320202031342E3832363620202020302E303030302043202020302020302020302020302020302020302020302020302020302020302020302020300A20202D31352E3536353220202031342E3631333120202020302E303030302043202020302020302020302020302020302020302020302020302020302020302020302020300A20202D31352E3737383720202031332E3831363220202020302E303030302043202020302020302020302020302020302020302020302020302020302020302020302020300A20202D31352E3139353320202031332E3233323820202020302E303030302043202020302020302020302020302020302020302020302020302020302020302020302020300A20202D31342E3339383420202031332E3434363320202020302E303030302043202020302020302020302020302020302020302020302020302020302020302020302020300A20202D31342E3138343920202031342E3234333220202020302E30303030204E202020302020302020302020302020302020302020302020302020302020302020302020300A20202D31342E3631323020202031322E3634393420202020302E303030302043202020302020302020302020302020302020302020302020302020302020302020302020300A20202D31352E3939323220202031332E3031393320202020302E303030302048202020302020302020302020302020302020302020302020302020302020302020302020300A20202D31342E3036393820202031362E3731383020202020302E303030302048202020302020302020302020302020302020302020302020302020302020302020302020300A20202D31342E3635333220202031372E3330313320202020302E30303030204F202020302020302020302020302020302020302020302020302020302020302020302020300A20202D31332E3937313420202031352E3034303120202020302E303030302048202020302020302020302020302020302020302020302020302020302020302020302020300A20202D31352E3732333720202031372E3633313420202020302E303030302048202020302020302020302020302020302020302020302020302020302020302020302020300A20202D31362E3236373420202031372E3931323820202020302E303030302048202020302020302020302020302020302020302020302020302020302020302020302020300A20202D31372E3536353220202031372E3734313920202020302E303030302043202020302020302020302020302020302020302020302020302020302020302020302020300A20202D31382E3237393720202031362E3530343420202020302E303030302048202020302020302020302020302020302020302020302020302020302020302020302020300A20202D32302E3530353520202031372E3934303920202020302E30303030204F202020302020302020302020302020302020302020302020302020302020302020302020300A20202D31392E3932323120202031382E3935313320202020302E303030302048202020302020302020302020302020302020302020302020302020302020302020302020300A2034352034362020312020302020202020200A2034362034372020312020302020202020200A2034372034382020312020302020202020200A2034382034392020312020302020202020200A2034392035302020312020302020202020200A2035302034352020312020302020202020200A2034382035312020312020302020202020200A2035312035322020312020302020202020200A2035322035332020312020302020202020200A2035332035342020312020302020202020200A2035342034392020322020302020202020200A2035312035352020312020302020202020200A2035352035362020312020302020202020200A2035362035372020322020302020202020200A2035372035382020312020302020202020200A2035382035322020312020302020202020200A2035372035392020312020302020202020200A2035392036302020312020302020202020200A2036302036312020312020302020202020200A2036312035382020312020302020202020200A2035392036322020312020362020202020200A2035392036332020312020312020202020200A2036332036342020312020362020202020200A2036332036352020312020302020202020200A2036332036362020312020302020202020200A2036362036372020312020302020202020200A2036372036382020312020302020202020200A2036382036392020312020302020202020200A2036392037302020312020302020202020200A2037302037312020312020302020202020200A2037312036362020312020302020202020200A2036392037322020312020312020202020200A2036392037332020312020362020202020200A2036302037342020312020312020202020200A2036302037352020312020362020202020200A2036362037362020312020362020202020200A2035382037372020312020312020202020200A2035322037382020312020362020202020200A2034382037392020312020362020202020200A2035312038302020312020312020202020200A2034352038312020312020362020202020200A2034352038322020312020312020202020200A4D2020454E44
Contributor: SASAKI S, TOYOHASHI UNIV. OF TECH.
InstType: EI
InstName: Unknown
IoniMethod: EI
IonPolarity: pos
Date: 2010-10-09 19:48:36+02:00
Num Peaks: 57
28 25 29 20 30 45 39 1 41 55 42 18 43 42 44 1 53 14 55 70 
56 79 57 3 67 26 68 15 69 24 70 5 77 15 79 31 81 31 82 2 
91 46 93 21 97 24 98 999 99 82 105 40 106 8 107 0 109 9 110 12 
112 16 117 1 119 18 120 9 124 17 125 7 126 30 127 16 129 15 131 2 
132 7 133 12 141 7 143 2 145 24 157 10 159 8 370 1 381 2 393 3 
394 4 395 1 396 4 411 3 412 4 413 1 414 4 
