Name: MassBank: JP007301
MW: 290
Formula: C19H30O2
Synonym: MassBank: JP007301
Synonym: 2ALPHA-ALLYL-2BETA-FORMYL-11ALPHA-METHOXY-6,6,8BETA-TRIMETHYL-5ALPHA-TRICYCLO(6.3.0.0(1,5))UNDECANE
Structure: 32414C5048412D414C4C594C2D32424554412D464F524D594C2D3131414C5048412D4D4554484F58592D362C362C38424554412D5452494D455448594C2D35414C5048412D5452494359434C4F28362E332E302E3028312C352929554E444543414E452E6D6F6C0A20204368656D447261773032323131303137323332440A2032322032342020302020302020302020302020302020302020302020303939392056323030300A2020202D302E3237323120202020302E3039313620202020302E303030302043202020302020302020302020302020302020302020302020302020302020302020302020300A20202020302E343435392020202D302E3238333120202020302E303030302043202020302020302020302020302020302020302020302020302020302020302020302020300A20202020302E333331312020202D312E3130303120202020302E303030302043202020302020302020302020302020302020302020302020302020302020302020302020300A2020202D302E343638382020202D312E3233363320202020302E303030302043202020302020302020302020302020302020302020302020302020302020302020302020300A2020202D302E383831332020202D302E3532313920202020302E303030302043202020302020302020302020302020302020302020302020302020302020302020302020300A2020202D312E363130322020202D302E3135333220202020302E303030302043202020302020302020302020302020302020302020302020302020302020302020302020300A2020202D312E3439353320202020302E3636333720202020302E303030302043202020302020302020302020302020302020302020302020302020302020302020302020300A2020202D302E3638383020202020302E3831323120202020302E303030302043202020302020302020302020302020302020302020302020302020302020302020302020300A2020202D302E3130343720202020312E3339353420202020302E303030302043202020302020302020302020302020302020302020302020302020302020302020302020300A20202020302E3633313720202020312E3033383820202020302E303030302043202020302020302020302020302020302020302020302020302020302020302020302020300A20202020302E3531363920202020302E3232313820202020302E303030302043202020302020302020302020302020302020302020302020302020302020302020302020300A2020202D312E3039373120202020312E3532303620202020302E303030302043202020302020302020302020302020302020302020302020302020302020302020302020300A2020202D322E303232372020202D302E3836373720202020302E303030302043202020302020302020302020302020302020302020302020302020302020302020302020300A2020202D322E3339303220202020302E3131353420202020302E303030302043202020302020302020302020302020302020302020302020302020302020302020302020300A20202020312E373232382020202D302E3331353120202020302E30303030204F202020302020302020302020302020302020302020302020302020302020302020302020300A20202020322E3339303220202020302E3136393920202020302E303030302043202020302020302020302020302020302020302020302020302020302020302020302020300A20202020302E3938323220202020302E3634353720202020302E303030302043202020302020302020302020302020302020302020302020302020302020302020302020300A20202020312E3830373220202020302E3634353720202020302E303030302043202020302020302020302020302020302020302020302020302020302020302020302020300A20202020322E3231393720202020312E3336303220202020302E303030302043202020302020302020302020302020302020302020302020302020302020302020302020300A2020202D312E333330302020202D312E3139383820202020302E303030302048202020302020302020302020302020302020302020302020302020302020302020302020300A20202020312E313630342020202D302E3639353620202020302E303030302043202020302020302020302020302020302020302020302020302020302020302020302020300A20202020312E313630342020202D312E3532303620202020302E30303030204F202020302020302020302020302020302020302020302020302020302020302020302020300A2020312020322020312020302020202020200A2020322020332020312020302020202020200A2020332020342020312020302020202020200A2020342020352020312020302020202020200A2020352020362020312020302020202020200A2020362020372020312020302020202020200A2020372020382020312020302020202020200A2020382020392020312020302020202020200A2020392031302020312020302020202020200A2031302031312020312020302020202020200A2020312031312020312020302020202020200A2020312020382020312020302020202020200A2020312020352020312020302020202020200A2020382031322020312020362020202020200A2020362031332020312020362020202020200A2020362031342020312020312020202020200A2031352031362020312020302020202020200A2031312031352020312020312020202020200A2031372031382020312020302020202020200A2031382031392020322020302020202020200A2020322031372020312020362020202020200A2020352032302020312020362020202020200A2020322032312020312020312020202020200A2032312032322020322020302020202020200A4D2020454E44
Contributor: ITO S, DEPT. OF CHEM., TOHOKU UNIV.
InstType: EI
InstName: HITACHI M-52
IoniMethod: _ENERGY 14 eV
IonPolarity: pos
Date: 2010-10-09 19:48:36+02:00
Num Peaks: 86
81 70 93 23 95 42 96 2 105 23 107 28 108 33 109 15 119 51 121 28 
123 51 131 4 133 28 134 51 135 79 137 5 138 28 145 84 146 42 147 5 
149 182 150 65 157 33 159 8 160 33 161 242 162 103 163 8 165 23 173 140 
174 112 175 11 176 23 177 93 178 131 179 14 183 28 184 47 187 61 188 3 
189 98 190 42 191 191 192 8 199 117 200 65 201 228 202 10 203 775 204 154 
205 145 206 4 215 42 216 51 217 550 218 14 219 999 220 140 225 51 229 2 
230 51 231 33 232 33 233 7 234 79 235 33 240 56 243 9 245 23 246 23 
247 65 248 7 249 196 250 65 258 375 259 15 260 33 261 475 262 131 263 2 
272 42 274 23 275 270 276 6 290 275 291 51 
