Name: MassBank: JP000462
MW: 113
Formula: C5H7NS
Synonym: MassBank: JP000462
Synonym: 2,4-DIMETHYLTHIAZOLE
Structure: 310A31390A322C342D44494D455448594C544849415A4F4C452E6D6F6C0A20204368656D447261773132323030393139333032440A2020372020372020302020302020302020302020302020302020302020303939392056323030300A20202020302E373133362020202D302E3532373520202020302E303030302053202020302020302020302020302020302020302020302020302020302020302020302020300A20202020302E3731333620202020302E3239373520202020302E303030302043202020302020302020302020302020302020302020302020302020302020302020302020300A2020202D302E3037313120202020302E3535323420202020302E30303030204E202020302020302020302020302020302020302020302020302020302020302020302020300A2020202D302E353536302020202D302E3131353020202020302E303030302043202020302020302020302020302020302020302020302020302020302020302020302020300A2020202D302E303731312020202D302E3738323420202020302E303030302043202020302020302020302020302020302020302020302020302020302020302020302020300A2020202D312E333831302020202D302E3131353020202020302E303030302043202020302020302020302020302020302020302020302020302020302020302020302020300A20202020312E3338313020202020302E3738323420202020302E303030302043202020302020302020302020302020302020302020302020302020302020302020302020300A2020312020322020312020302020202020200A2020322020332020322020302020202020200A2020332020342020312020302020202020200A2020342020352020322020302020202020200A2020312020352020312020302020202020200A2020342020362020312020302020202020200A2020322020372020312020302020202020200A4D2020454E44
Contributor: SASAKI S, TOYOHASHI UNIV. OF TECH.
InstType: EI
InstName: MX-1303
IoniMethod: _ENERGY 50 eV
IonPolarity: pos
Date: 2010-10-09 19:48:36+02:00
Num Peaks: 51
26 40 27 87 29 77 30 2 33 10 34 16 36 16 37 2 38 44 39 202 
40 177 41 3 42 103 43 10 45 322 46 4 47 21 50 12 51 18 52 2 
53 18 54 15 55 25 56 2 57 35 58 36 59 50 60 1 64 12 65 13 
66 13 67 2 68 36 69 109 70 39 71 91 72 889 73 102 74 51 75 1 
77 14 78 24 79 12 85 2 86 12 91 20 112 12 113 999 114 83 115 62 
127 18 
