Name: HUMULENE
CAS: 6753-98-6
MW: 204
Formula: C15H24
Synonym: MassBank: JP007579
Synonym: HUMULENE
Synonym: (1E,4E,8E)-2,6,6,9-TETRAMETHYL-1,4,8-CYCLOUNDECATRIENE
Structure: 2831452C34452C3845292D322C362C362C392D54455452414D455448594C2D312C342C382D4359434C4F554E44454341545249454E452E6D6F6C0A20204368656D447261773130313930393132303432440A2031392031392020302020302020302020302020302020302020302020303939392056323030300A2020202D312E3230353320202020302E3636393620202020302E303030302043202020302020302020302020302020302020302020302020302020302020302020302020300A2020202D312E323035332020202D302E3135353420202020302E303030302043202020302020302020302020302020302020302020302020302020302020302020302020300A2020202D302E343930392020202D302E3536373920202020302E303030302043202020302020302020302020302020302020302020302020302020302020302020302020300A20202020302E323233362020202D302E3135353420202020302E303030302043202020302020302020302020302020302020302020302020302020302020302020302020300A20202020302E3232333620202020302E3636393620202020302E303030302043202020302020302020302020302020302020302020302020302020302020302020302020300A2020202D302E3439303920202020312E3038323120202020302E303030302043202020302020302020302020302020302020302020302020302020302020302020302020300A20202020302E383638362020202D302E3636393820202020302E303030302043202020302020302020302020302020302020302020302020302020302020302020302020300A20202020312E363732392020202D302E3438363220202020302E303030302043202020302020302020302020302020302020302020302020302020302020302020302020300A20202020322E3033303920202020302E3235373120202020302E303030302043202020302020302020302020302020302020302020302020302020302020302020302020300A20202020312E3637323920202020312E3030303420202020302E303030302043202020302020302020302020302020302020302020302020302020302020302020302020300A20202020302E3836383620202020312E3138343020202020302E303030302043202020302020302020302020302020302020302020302020302020302020302020302020300A2020202D312E373838372020202D302E3733383720202020302E303030302048202020302020302020302020302020302020302020302020302020302020302020302020300A2020202D302E3439303920202020302E3235373120202020302E303030302048202020302020302020302020302020302020302020302020302020302020302020302020300A20202020302E3232333620202020312E3439343620202020302E303030302048202020302020302020302020302020302020302020302020302020302020302020302020300A20202020312E3637323920202020302E3333383820202020302E303030302048202020302020302020302020302020302020302020302020302020302020302020302020300A2020202D312E3631383420202020312E3338343620202020302E303030302043202020302020302020302020302020302020302020302020302020302020302020302020300A2020202D322E3033303920202020302E3636393620202020302E303030302043202020302020302020302020302020302020302020302020302020302020302020302020300A20202020312E3038323120202020302E3338373720202020302E303030302043202020302020302020302020302020302020302020302020302020302020302020302020300A20202020302E383637362020202D312E3439343620202020302E303030302043202020302020302020302020302020302020302020302020302020302020302020302020300A2020312020322020312020302020202020200A2020322020332020322020302020202020200A2020332020342020312020302020202020200A2020352020362020312020302020202020200A2020362020312020312020302020202020200A2020342020372020312020302020202020200A2020372020382020322020302020202020200A2020382020392020312020302020202020200A2020392031302020312020302020202020200A2031302031312020312020302020202020200A2031312020352020322020302020202020200A2020322031322020312020302020202020200A2020332031332020312020302020202020200A2020352031342020312020302020202020200A2020382031352020312020302020202020200A2020312031362020312020312020202020200A2020312031372020312020362020202020200A2031312031382020312020302020202020200A2020372031392020312020302020202020200A4D202053545920203120202031205355500A4D2020534C4220203120202031202020310A4D202053414C20202031202031202031360A4D202053424C20202031202031202031360A4D2020534D5420202031204D650A4D2020534256202020312031362020202D372E3335393520202020352E363333340A4D202053545920203120202032205355500A4D2020534C4220203120202032202020320A4D202053414C20202032202031202031370A4D202053424C20202032202031202031370A4D2020534D5420202032204D650A4D2020534256202020322031372020202D372E3737323020202020342E393138340A4D202053545920203120202033205355500A4D2020534C4220203120202033202020330A4D202053414C20202033202031202031380A4D202053424C20202033202031202031380A4D2020534D5420202033204D650A4D2020534256202020332031382020202D362E3733333020202020342E313232310A4D202053545920203120202034205355500A4D2020534C4220203120202034202020340A4D202053414C20202034202031202031390A4D202053424C20202034202031202031390A4D2020534D5420202034204D650A4D2020534256202020342031392020202D362E3934373520202020342E303933350A4D2020454E44
Contributor: TAKEUCHI T, DEP. CHEMISTRY, FAC. SCIENCE, NARA WOMEN'S UNIV.
InstType: EI
InstName: HITACHI M-80
IoniMethod: _ENERGY 20 eV
IonPolarity: pos
Date: 2010-10-09 19:48:36+02:00
Num Peaks: 28
27 89 29 76 41 258 43 106 53 123 55 115 67 127 69 54 79 169 80 344 
92 187 93 999 107 166 109 138 121 343 122 110 133 41 136 66 147 185 148 49 
161 47 162 13 175 12 176 9 189 30 197 6 204 121 205 24 
