Name: MassBank: JP001125
MW: 110
Formula: C7H10O
Synonym: MassBank: JP001125
Synonym: 2,3-DIMETHYLCYCLOPENT-2-EN-1-ONE
Structure: 310A32310A322C332D44494D455448594C4359434C4F50454E542D322D454E2D312D4F4E452E6D6F6C0A20204368656D447261773132323030393132303032440A2020382020382020302020302020302020302020302020302020302020303939392056323030300A2020202D302E323632372020202D302E3636373420202020302E303030302043202020302020302020302020302020302020302020302020302020302020302020302020300A20202020302E3232323320202020302E3030303020202020302E303030302043202020302020302020302020302020302020302020302020302020302020302020302020300A2020202D302E3236323720202020302E3636373420202020302E303030302043202020302020302020302020302020302020302020302020302020302020302020302020300A2020202D312E3034373320202020302E3431323520202020302E303030302043202020302020302020302020302020302020302020302020302020302020302020302020300A2020202D312E303437332020202D302E3431323520202020302E303030302043202020302020302020302020302020302020302020302020302020302020302020302020300A2020202D302E303037372020202D312E3435323120202020302E30303030204F202020302020302020302020302020302020302020302020302020302020302020302020300A2020202D302E3030373720202020312E3435323120202020302E303030302043202020302020302020302020302020302020302020302020302020302020302020302020300A20202020312E3034373320202020302E3030303020202020302E303030302043202020302020302020302020302020302020302020302020302020302020302020302020300A2020312020322020312020302020202020200A2020322020332020322020302020202020200A2020332020342020312020302020202020200A2020342020352020312020302020202020200A2020312020352020312020302020202020200A2020312020362020322020302020202020200A2020332020372020312020302020202020200A2020322020382020312020302020202020200A4D2020454E44
Contributor: NAKAYAMA M, MASS SPECTROSCOPY SOC. OF JAPAN (MSSJ)
InstType: EI
InstName: HITACHI RMU-7L
IoniMethod: _ENERGY 80 eV
IonPolarity: pos
Date: 2010-10-09 19:48:36+02:00
Num Peaks: 42
26 60 27 380 28 120 29 80 32 20 37 20 38 50 39 480 40 100 41 310 
42 70 43 100 50 80 51 150 52 90 53 230 54 250 55 100 56 50 57 30 
62 20 63 50 64 10 65 90 66 50 67 999 68 100 69 30 77 50 78 20 
79 80 80 30 81 130 82 120 83 30 91 20 95 180 96 30 99 20 109 70 
110 350 111 60 
