Name: ESTRIOL
MW: 288
Formula: C18H24O3
Synonym: MassBank: JP003432
Synonym: ESTRIOL
Structure: 45535452494F4C2E6D6F6C0A20204368656D447261773038313131303137353732440A2032342032372020302020302020302020302020302020302020302020303939392056323030300A2020202D322E343736322020202D312E3334343820202020302E303030302043202020302020302020302020302020302020302020302020302020302020302020302020300A2020202D332E313930372020202D312E3735373320202020302E30303030204F202020302020302020302020302020302020302020302020302020302020302020302020300A2020202D322E343736322020202D302E3531393820202020302E303030302043202020302020302020302020302020302020302020302020302020302020302020302020300A2020202D312E373631372020202D302E3130373320202020302E303030302043202020302020302020302020302020302020302020302020302020302020302020302020300A2020202D312E373631372020202D312E3735373320202020302E303030302043202020302020302020302020302020302020302020302020302020302020302020302020300A2020202D312E303437332020202D312E3334343820202020302E303030302043202020302020302020302020302020302020302020302020302020302020302020302020300A2020202D302E333332382020202D312E3735373320202020302E303030302043202020302020302020302020302020302020302020302020302020302020302020302020300A20202020302E333831372020202D312E3334343820202020302E303030302043202020302020302020302020302020302020302020302020302020302020302020302020300A20202020302E333831372020202D302E3531393820202020302E303030302043202020302020302020302020302020302020302020302020302020302020302020302020300A20202020312E303936312020202D302E3130373320202020302E303030302043202020302020302020302020302020302020302020302020302020302020302020302020300A20202020312E383830382020202D302E3336323220202020302E303030302043202020302020302020302020302020302020302020302020302020302020302020302020300A20202020322E3336353720202020302E3330353220202020302E303030302043202020302020302020302020302020302020302020302020302020302020302020302020300A20202020332E3139303720202020302E3330353220202020302E30303030204F202020302020302020302020302020302020302020302020302020302020302020302020300A20202020312E3838303820202020302E3937323720202020302E303030302043202020302020302020302020302020302020302020302020302020302020302020302020300A20202020322E3133353720202020312E3735373320202020302E30303030204F202020302020302020302020302020302020302020302020302020302020302020302020300A20202020312E3039363120202020302E3731373720202020302E303030302043202020302020302020302020302020302020302020302020302020302020302020302020300A20202020312E3039363120202020312E3534323720202020302E303030302043202020302020302020302020302020302020302020302020302020302020302020302020300A20202020302E3338313720202020312E3133303220202020302E303030302043202020302020302020302020302020302020302020302020302020302020302020302020300A2020202D302E3333323820202020302E3731373720202020302E303030302043202020302020302020302020302020302020302020302020302020302020302020302020300A2020202D302E333332382020202D302E3130373320202020302E303030302043202020302020302020302020302020302020302020302020302020302020302020302020300A2020202D312E303437332020202D302E3531393820202020302E303030302043202020302020302020302020302020302020302020302020302020302020302020302020300A2020202D302E333332382020202D302E3933323320202020302E303030302048202020302020302020302020302020302020302020302020302020302020302020302020300A20202020302E3338313720202020302E3330353220202020302E303030302048202020302020302020302020302020302020302020302020302020302020302020302020300A20202020312E303936312020202D302E3933323320202020302E303030302048202020302020302020302020302020302020302020302020302020302020302020302020300A2020312020322020312020302020202020200A2020312020332020312020302020202020200A2020332020342020322020302020202020200A2020312020352020322020302020202020200A2020352020362020312020302020202020200A2020362020372020312020302020202020200A2020372020382020312020302020202020200A2020382020392020312020302020202020200A2020392031302020312020302020202020200A2031302031312020312020302020202020200A2031312031322020312020302020202020200A2031322031332020312020362020202020200A2031322031342020312020302020202020200A2031342031352020312020312020202020200A2031342031362020312020302020202020200A2031302031362020312020302020202020200A2031362031372020312020312020202020200A2031362031382020312020302020202020200A2031382031392020312020302020202020200A2031392032302020312020302020202020200A2020392032302020312020302020202020200A2032302032312020312020302020202020200A2020342032312020312020302020202020200A2020362032312020322020302020202020200A2032302032322020312020362020202020200A2020392032332020312020312020202020200A2031302032342020312020362020202020200A4D2020454E44
Contributor: KOGA M, UNIV. OF OCCUPATIONAL AND ENVIRONMENTAL HEALTH
InstType: EI
InstName: JEOL JMS-01-SG-2
IoniMethod: _ENERGY 75 eV
IonPolarity: pos
Date: 2010-10-09 19:48:36+02:00
Num Peaks: 27
43 223 44 115 55 182 77 119 79 104 81 119 91 145 105 11 107 156 115 130 
131 138 133 27 144 123 145 223 146 324 147 17 157 156 158 145 160 332 161 130 
172 186 201 13 202 134 213 231 214 104 288 999 289 231 
