Name: MassBank: JP001174
MW: 919
Formula: C41H77NO21
Synonym: MassBank: JP001174
Synonym: PERMETHYLATED N-ACETYLGALACTOSAMINYL-(BETA1,3)-GALACTOSYL-(ALPHA1,4)-GALACTOSYL-(BETA1,4)-GLUCITOL
Structure: 303837395F5045524D455448594C41544544204E2D41434554594C47414C4143544F53414D494E594C2D2842455441312C33292D47414C4143544F53594C2D28414C504841312C34292D47414C4143544F53594C2D2842455441312C34292D474C554349544F4C2E6D6F6C0A20204368656D447261773038323331303138313032440A2038312038332020302020302020302020302020302020302020302020303939392056323030300A2020202D332E3531363620202020302E3835303320202020302E30303030204F202020302020302020302020302020302020302020302020302020302020302020302020300A2020202D322E393230312020202D302E3138373020202020302E303030302043202020302020302020302020302020302020302020302020302020302020302020302020300A2020202D352E3832323720202020302E3835303320202020302E303030302043202020302020302020302020302020302020302020302020302020302020302020302020300A2020202D342E3637313920202020302E3531383620202020302E303030302043202020302020302020302020302020302020302020302020302020302020302020302020300A2020202D352E3832323720202020312E3637353320202020302E30303030204F202020302020302020302020302020302020302020302020302020302020302020302020300A2020202D362E3533313320202020302E3432353520202020302E303030302048202020302020302020302020302020302020302020302020302020302020302020302020300A2020202D352E323239312020202D312E3031323020202020302E303030302048202020302020302020302020302020302020302020302020302020302020302020302020300A2020202D362E303332332020202D302E3030353220202020302E30303030204F202020302020302020302020302020302020302020302020302020302020302020302020300A2020202D342E3036393520202020302E3936363720202020302E303030302048202020302020302020302020302020302020302020302020302020302020302020302020300A2020202D322E393230312020202D312E3031323020202020302E303030302048202020302020302020302020302020302020302020302020302020302020302020302020300A2020202D342E333636362020202D302E3639383220202020302E30303030204E202020302020302020302020302020302020302020302020302020302020302020302020300A2020202D342E363731392020202D302E3330363420202020302E303030302048202020302020302020302020302020302020302020302020302020302020302020302020300A2020202D352E3335373120202020302E3937393920202020302E303030302043202020302020302020302020302020302020302020302020302020302020302020302020300A2020202D342E3036393520202020302E3134313820202020302E303030302043202020302020302020302020302020302020302020302020302020302020302020302020300A2020202D352E323239312020202D302E3138373020202020302E303030302043202020302020302020302020302020302020302020302020302020302020302020302020300A2020202D352E3335373120202020312E3830343820202020302E30303030204F202020302020302020302020302020302020302020302020302020302020302020302020300A2020202D362E353932342020202D302E3631303920202020302E303030302043202020302020302020302020302020302020302020302020302020302020302020302020300A2020202D362E3533373220202020322E3038373820202020302E303030302043202020302020302020302020302020302020302020302020302020302020302020302020300A2020202D342E3634323620202020322E3231373320202020302E303030302043202020302020302020302020302020302020302020302020302020302020302020302020300A2020202D342E343238352020202D312E3339393520202020302E303030302043202020302020302020302020302020302020302020302020302020302020302020302020300A2020202D352E303039312020202D312E3931373020202020302E30303030204F202020302020302020302020302020302020302020302020302020302020302020302020300A2020202D332E353939382020202D312E3932323520202020302E303030302043202020302020302020302020302020302020302020302020302020302020302020302020300A2020202D302E3336313020202020312E3330343120202020302E303030302043202020302020302020302020302020302020302020302020302020302020302020302020300A20202020302E3233353520202020302E3236363820202020302E30303030204F202020302020302020302020302020302020302020302020302020302020302020302020300A2020202D322E3636373120202020312E3330343120202020302E303030302043202020302020302020302020302020302020302020302020302020302020302020302020300A2020202D312E3531363320202020302E3937323420202020302E303030302043202020302020302020302020302020302020302020302020302020302020302020302020300A2020202D322E3636373120202020322E3132393120202020302E303030302048202020302020302020302020302020302020302020302020302020302020302020302020300A2020202D322E3037383520202020312E3039313820202020302E303030302048202020302020302020302020302020302020302020302020302020302020302020302020300A2020202D322E333631312020202D302E3333393220202020302E30303030204F202020302020302020302020302020302020302020302020302020302020302020302020300A2020202D312E3231323120202020302E3230353520202020302E303030302048202020302020302020302020302020302020302020302020302020302020302020302020300A2020202D312E3532323420202020312E3732323620202020302E30303030204F202020302020302020302020302020302020302020302020302020302020302020302020300A2020202D302E3931333920202020302E3539353620202020302E303030302043202020302020302020302020302020302020302020302020302020302020302020302020300A2020202D322E3037333520202020302E3236363820202020302E303030302043202020302020302020302020302020302020302020302020302020302020302020302020300A2020202D312E3133353420202020322E3435313220202020302E303030302043202020302020302020302020302020302020302020302020302020302020302020302020300A2020202D322E303331312020202D312E3034303420202020302E303030302043202020302020302020302020302020302020302020302020302020302020302020302020300A20202020302E3337353420202020302E3933323120202020302E303030302048202020302020302020302020302020302020302020302020302020302020302020302020300A2020202D322E3838313120202020302E3530373320202020302E30303030204F202020302020302020302020302020302020302020302020302020302020302020302020300A2020202D302E3336303520202020322E3137373120202020302E30303030204F202020302020302020302020302020302020302020302020302020302020302020302020300A20202020332E3835343820202020302E3033363720202020302E303030302043202020302020302020302020302020302020302020302020302020302020302020302020300A20202020342E3637393820202020302E3033353920202020302E303030302043202020302020302020302020302020302020302020302020302020302020302020302020300A20202020332E3032393820202020302E3033353920202020302E303030302048202020302020302020302020302020302020302020302020302020302020302020302020300A20202020332E383534382020202D302E3738383320202020302E303030302043202020302020302020302020302020302020302020302020302020302020302020302020300A20202020342E363739382020202D302E3738393120202020302E30303030204F202020302020302020302020302020302020302020302020302020302020302020302020300A20202020332E303239382020202D302E3738393120202020302E303030302048202020302020302020302020302020302020302020302020302020302020302020302020300A20202020332E383534382020202D312E3631333220202020302E303030302043202020302020302020302020302020302020302020302020302020302020302020302020300A20202020342E363739382020202D312E3631333720202020302E303030302048202020302020302020302020302020302020302020302020302020302020302020302020300A20202020332E303239382020202D312E3631333720202020302E30303030204F202020302020302020302020302020302020302020302020302020302020302020302020300A20202020332E313332302020202D332E3637353720202020302E303030302043202020302020302020302020302020302020302020302020302020302020302020302020300A20202020352E303932332020202D312E3530323820202020302E303030302043202020302020302020302020302020302020302020302020302020302020302020302020300A20202020352E313734382020202D302E3439313120202020302E303030302043202020302020302020302020302020302020302020302020302020302020302020302020300A20202020352E3432323320202020302E3536303820202020302E30303030204F202020302020302020302020302020302020302020302020302020302020302020302020300A20202020362E3234363320202020302E3630323020202020302E303030302043202020302020302020302020302020302020302020302020302020302020302020302020300A20202020352E383334382020202D302E3437303520202020302E30303030204F202020302020302020302020302020302020302020302020302020302020302020302020300A20202020362E353932342020202D312E3130313720202020302E303030302043202020302020302020302020302020302020302020302020302020302020302020302020300A20202020332E3835363220202020302E3836313420202020302E30303030204F202020302020302020302020302020302020302020302020302020302020302020302020300A20202020332E383534382020202D322E3433383220202020302E303030302043202020302020302020302020302020302020302020302020302020302020302020302020300A20202020332E313430342020202D322E3835303720202020302E30303030204F202020302020302020302020302020302020302020302020302020302020302020302020300A20202020322E333833362020202D322E3132363520202020302E303030302043202020302020302020302020302020302020302020302020302020302020302020302020300A2020202D332E363033332020202D312E3031313420202020302E303030302043202020302020302020302020302020302020302020302020302020302020302020302020300A2020202D302E393133392020202D302E3232393420202020302E303030302043202020302020302020302020302020302020302020302020302020302020302020302020300A2020202D312E323133382020202D302E3939383020202020302E30303030204F202020302020302020302020302020302020302020302020302020302020302020302020300A2020202D302E383233302020202D312E3732343520202020302E303030302043202020302020302020302020302020302020302020302020302020302020302020302020300A2020202D302E3933343120202020312E3432303320202020302E303030302048202020302020302020302020302020302020302020302020302020302020302020302020300A20202020332E3036303720202020322E3739363820202020302E303030302043202020302020302020302020302020302020302020302020302020302020302020302020300A20202020332E3635373220202020312E3735393420202020302E303030302043202020302020302020302020302020302020302020302020302020302020302020302020300A20202020302E3735343620202020322E3739363820202020302E303030302043202020302020302020302020302020302020302020302020302020302020302020302020300A20202020312E3930353420202020322E3436353120202020302E303030302043202020302020302020302020302020302020302020302020302020302020302020302020300A20202020302E3735343620202020332E3632313820202020302E303030302048202020302020302020302020302020302020302020302020302020302020302020302020300A20202020302E3537343320202020322E3034353320202020302E303030302048202020302020302020302020302020302020302020302020302020302020302020302020300A20202020302E3939333820202020312E3130333920202020302E303030302043202020302020302020302020302020302020302020302020302020302020302020302020300A20202020312E3930353420202020312E3634303120202020302E30303030204F202020302020302020302020302020302020302020302020302020302020302020302020300A20202020312E3232303220202020322E3932363320202020302E303030302048202020302020302020302020302020302020302020302020302020302020302020302020300A20202020342E3435373520202020312E3935373320202020302E303030302048202020302020302020302020302020302020302020302020302020302020302020302020300A20202020322E3530373820202020322E3038383320202020302E30303030204F202020302020302020302020302020302020302020302020302020302020302020302020300A20202020312E3334383220202020312E3735393420202020302E303030302043202020302020302020302020302020302020302020302020302020302020302020302020300A20202020302E3939333820202020302E3237383920202020302E30303030204F202020302020302020302020302020302020302020302020302020302020302020302020300A20202020312E353039332020202D302E3633333620202020302E303030302043202020302020302020302020302020302020302020302020302020302020302020302020300A20202020332E3337303320202020332E3536313520202020302E30303030204F202020302020302020302020302020302020302020302020302020302020302020302020300A20202020332E3831313020202020322E3435333620202020302E303030302048202020302020302020302020302020302020302020302020302020302020302020302020300A20202020342E3138373420202020332E3637353720202020302E303030302043202020302020302020302020302020302020302020302020302020302020302020302020300A20202020322E3139363120202020302E3836383020202020302E303030302043202020302020302020302020302020302020302020302020302020302020302020302020300A2020312020322020312020302020202020200A2020322031342020312020312020202020200A2020332031352020312020312020202020200A2020332020342020312020302020202020200A2020312020342020312020302020202020200A2020332020352020312020302020202020200A2020332020362020312020302020202020200A2020372031352020312020302020202020200A2020382031352020312020302020202020200A2020392031342020312020302020202020200A2020322031302020312020302020202020200A2031312031342020312020302020202020200A2020342031322020312020302020202020200A2020342031332020312020302020202020200A2031342031352020312020312020202020200A2031332031362020312020302020202020200A2020382031372020312020302020202020200A2020352031382020312020302020202020200A2031362031392020312020302020202020200A2031312032302020312020302020202020200A2032302032312020322020302020202020200A2032302032322020312020302020202020200A2032332032342020312020302020202020200A2032342033322020312020312020202020200A2032352033332020312020312020202020200A2032352032362020312020302020202020200A2032332032362020312020302020202020200A2032352032372020312020302020202020200A2032382033332020312020302020202020200A2032362033302020312020302020202020200A2032362033312020312020302020202020200A2033322033332020312020312020202020200A2033312033342020312020302020202020200A2032392033352020312020302020202020200A2032332033362020312020302020202020200A2032352033372020312020302020202020200A2033372020322020312020302020202020200A2032392033332020312020302020202020200A2032332033382020312020302020202020200A2033392034302020312020312020202020200A2033392034312020312020312020202020200A2033392034322020312020302020202020200A2034322034332020312020312020202020200A2034322034342020312020312020202020200A2034322034352020312020302020202020200A2034352034362020312020312020202020200A2034352034372020312020312020202020200A2034352035362020312020302020202020200A2035372034382020312020302020202020200A2034332034392020312020302020202020200A2034302035302020312020302020202020200A2035312035322020312020302020202020200A2035332035342020312020302020202020200A2033392035352020312020302020202020200A2035362035372020312020302020202020200A2034372035382020312020302020202020200A2034302035312020312020312020202020200A2035302035332020312020302020202020200A2031312035392020312020302020202020200A2033322036302020312020302020202020200A2036302036312020312020302020202020200A2036312036322020312020302020202020200A2033322036332020312020302020202020200A2036342036352020312020302020202020200A2036352037342020312020312020202020200A2036362037352020312020312020202020200A2036362036372020312020302020202020200A2036342036372020312020302020202020200A2036362036382020312020302020202020200A2036392037352020312020302020202020200A2037302037352020312020302020202020200A2036372037312020312020302020202020200A2036372037322020312020302020202020200A2036352037332020312020302020202020200A2037342037352020312020312020202020200A2036362033382020312020302020202020200A2037302037362020312020302020202020200A2037362037372020312020302020202020200A2036342037382020312020302020202020200A2036342037392020312020302020202020200A2037382038302020312020302020202020200A2037312038312020312020302020202020200A2035352036352020312020302020202020200A4D2020454E44
Contributor: MASS SPECTROSCOPY SOC. OF JAPAN (MSSJ)
InstType: EI
InstName: SHIMADZU LKB-9000
IoniMethod: _ENERGY 20 eV
IonPolarity: pos
Date: 2010-10-09 19:48:36+02:00
Num Peaks: 16
101 370 753 9 111 163 754 2 115 126 800 2 127 409 816 1 129 350 830 1 
142 208 859 0 155 198 872 1 159 860 888 4 
