Name: CYCLOPROPANE
CAS: 75-19-4
MW: 42
Formula: C3H6
Synonym: MassBank: JP009763
Synonym: CYCLOPROPANE
Structure: 310A31310A4359434C4F50524F50414E452E6D6F6C0A20204368656D447261773039323031303039313532440A2020332020332020302020302020302020302020302020302020302020303939392056323030300A2020202D302E343132352020202D302E3335373220202020302E303030302043202020302020302020302020302020302020302020302020302020302020302020302020300A2020202D302E3030303020202020302E3335373220202020302E303030302043202020302020302020302020302020302020302020302020302020302020302020302020300A20202020302E343132352020202D302E3335373220202020302E303030302043202020302020302020302020302020302020302020302020302020302020302020302020300A2020312020322020312020302020202020200A2020322020332020312020302020202020200A2020312020332020312020302020202020200A4D2020454E44
Contributor: HISAHIRO HAGIWARA, CHEMICAL RESEARCH INSTITUTE OF NON-AQUEOUSSOLUTIONS TOHOKU UNIV.
InstType: EI
InstName: JEOL JMS-DX-300
IoniMethod: _ENERGY 70 eV
IonPolarity: pos
Date: 2010-10-09 19:48:36+02:00
Num Peaks: 24
12 3 13 5 15 23 16 2 17 19 18 93 19 25 20 20 21 6 25 9 
26 67 27 259 32 161 36 16 37 85 38 125 39 599 40 302 41 944 42 999 
43 44 45 3 55 4 57 3 
