Name: MassBank: JP004643
MW: 152
Formula: C10H16O
Synonym: MassBank: JP004643
Synonym: 3,7,7-TRIMETHYL-BICYCLO(4.1.0)HEPTAN-2-ONE
Structure: 332C372C372D5452494D455448594C2D42494359434C4F28342E312E302948455054414E2D322D4F4E452E6D6F6C0A20204368656D447261773032323231303033333132440A2031312031322020302020302020302020302020302020302020302020303939392056323030300A20202020302E323331312020202D302E3330383220202020302E303030302043202020302020302020302020302020302020302020302020302020302020302020302020300A2020202D302E353933392020202D302E3330383220202020302E303030302043202020302020302020302020302020302020302020302020302020302020302020302020300A2020202D312E3030363420202020302E3430363220202020302E303030302043202020302020302020302020302020302020302020302020302020302020302020302020300A2020202D302E3539333920202020312E3132303720202020302E303030302043202020302020302020302020302020302020302020302020302020302020302020302020300A20202020302E3233313120202020312E3132303720202020302E303030302043202020302020302020302020302020302020302020302020302020302020302020302020300A20202020302E3634333620202020302E3430363220202020302E303030302043202020302020302020302020302020302020302020302020302020302020302020302020300A20202020312E303536312020202D302E3330383220202020302E303030302043202020302020302020302020302020302020302020302020302020302020302020302020300A2020202D312E303036342020202D312E3032323720202020302E30303030204F202020302020302020302020302020302020302020302020302020302020302020302020300A20202020312E383331342020202D302E3032363120202020302E303030302043202020302020302020302020302020302020302020302020302020302020302020302020300A20202020312E313939342020202D312E3132303720202020302E303030302043202020302020302020302020302020302020302020302020302020302020302020302020300A2020202D312E3833313420202020302E3430363220202020302E303030302043202020302020302020302020302020302020302020302020302020302020302020302020300A2020312020322020312020302020202020200A2020322020332020312020302020202020200A2020332020342020312020302020202020200A2020342020352020312020302020202020200A2020352020362020312020302020202020200A2020362020372020312020302020202020200A2020312020372020312020302020202020200A2020312020362020312020302020202020200A2020322020382020322020302020202020200A2020372020392020312020362020202020200A2020372031302020312020312020202020200A2020332031312020312020302020202020200A4D2020454E44
Contributor: KATO T, DEPT. OF CHEM., FAC. OF SCI., TOHOKU UNIV.
InstType: EI
InstName: HITACHI M-52
IoniMethod: _ENERGY 14 eV
IonPolarity: pos
Date: 2010-10-09 19:48:36+02:00
Num Peaks: 33
18 44 67 49 68 11 70 50 71 10 73 14 80 13 81 18 82 453 83 18 
84 11 93 4 94 24 95 46 96 70 97 4 106 13 109 170 110 999 111 2 
119 31 121 14 123 30 124 24 134 136 135 19 136 27 137 6 138 36 150 70 
152 406 153 17 154 22 
