Name: 1-PHENYL-1-PARA-CHLOROPHENYLETHANE
MW: 216
Formula: C14H13Cl
Synonym: MassBank: JP004560
Synonym: 1-PHENYL-1-PARA-CHLOROPHENYLETHANE
Structure: 312D5048454E594C2D312D504152412D43484C4F524F5048454E594C455448414E452E6D6F6C0A20204368656D447261773131323230393232313432440A2031352031362020302020302020302020302020302020302020302020303939392056323030300A20202020302E3335373220202020302E3431323520202020302E303030302043202020302020302020302020302020302020302020302020302020302020302020302020300A20202020302E3335373220202020312E3233373520202020302E303030302043202020302020302020302020302020302020302020302020302020302020302020302020300A2020202D302E3335373220202020302E3030303020202020302E303030302043202020302020302020302020302020302020302020302020302020302020302020302020300A2020202D312E3037313720202020302E3431323520202020302E303030302043202020302020302020302020302020302020302020302020302020302020302020302020300A2020202D312E3738363220202020302E3030303020202020302E303030302043202020302020302020302020302020302020302020302020302020302020302020302020300A2020202D312E373836322020202D302E3832353020202020302E303030302043202020302020302020302020302020302020302020302020302020302020302020302020300A2020202D312E303731372020202D312E3233373520202020302E303030302043202020302020302020302020302020302020302020302020302020302020302020302020300A2020202D302E333537322020202D302E3832353020202020302E303030302043202020302020302020302020302020302020302020302020302020302020302020302020300A2020202D322E353030362020202D312E3233373520202020302E3030303020436C2020302020302020302020302020302020302020302020302020302020302020302020300A20202020312E3037313720202020302E3030303020202020302E303030302043202020302020302020302020302020302020302020302020302020302020302020302020300A20202020312E303731372020202D302E3832353020202020302E303030302043202020302020302020302020302020302020302020302020302020302020302020302020300A20202020312E373836322020202D312E3233373520202020302E303030302043202020302020302020302020302020302020302020302020302020302020302020302020300A20202020322E353030362020202D302E3832353020202020302E303030302043202020302020302020302020302020302020302020302020302020302020302020302020300A20202020322E3530303620202020302E3030303020202020302E303030302043202020302020302020302020302020302020302020302020302020302020302020302020300A20202020312E3738363220202020302E3431323520202020302E303030302043202020302020302020302020302020302020302020302020302020302020302020302020300A2020312020322020312020302020202020200A2020332020342020312020302020202020200A2020342020352020322020302020202020200A2020352020362020312020302020202020200A2020362020372020322020302020202020200A2020372020382020312020302020202020200A2020332020382020322020302020202020200A2020362020392020312020302020202020200A2020312020332020312020302020202020200A2031302031312020312020302020202020200A2031312031322020322020302020202020200A2031322031332020312020302020202020200A2031332031342020322020302020202020200A2031342031352020312020302020202020200A2031302031352020322020302020202020200A2020312031302020312020302020202020200A4D2020454E44
Contributor: HAYASHI A, DEPT. OF CHEMISTRY, FAC. OF SCI. AND TECHNOLOGY, KINKI UNIV.
InstType: EI
InstName: SHIMADZU LKB-9000B
IoniMethod: _ENERGY 70 eV
IonPolarity: pos
Date: 2010-10-09 19:48:36+02:00
Num Peaks: 70
39 30 41 6 50 31 51 7 52 13 57 12 62 10 63 4 65 15 69 10 
70 20 73 1 74 21 75 48 76 55 77 13 78 36 79 24 81 19 82 7 
83 94 87 10 88 22 89 10 90 27 91 10 101 31 102 4 103 132 104 42 
105 44 108 1 115 24 127 10 135 9 137 2 138 29 139 57 140 14 141 1 
151 17 152 25 153 9 163 4 164 50 165 461 166 449 167 6 176 15 177 15 
178 55 179 5 180 19 181 100 182 14 187 1 199 27 200 11 201 999 202 15 
203 340 204 44 207 7 208 1 214 17 215 9 216 432 217 6 218 134 219 21 
