Name: MALONONITRILE
MW: 66
Formula: C3H2N2
Synonym: MassBank: JP008320
Synonym: MALONONITRILE
Structure: 310A31340A4D414C4F4E4F4E495452494C452E6D6F6C0A20204368656D447261773038313131303232333032440A2020352020342020302020302020302020302020302020302020302020303939392056323030300A2020202D302E3731343520202020302E3030303020202020302E303030302043202020302020302020302020302020302020302020302020302020302020302020302020300A20202020302E303030302020202D302E3431323520202020302E303030302043202020302020302020302020302020302020302020302020302020302020302020302020300A20202020302E3731343520202020302E3030303020202020302E303030302043202020302020302020302020302020302020302020302020302020302020302020302020300A2020202D312E3432383920202020302E3431323520202020302E30303030204E202020302020302020302020302020302020302020302020302020302020302020302020300A20202020312E3432383920202020302E3431323520202020302E30303030204E202020302020302020302020302020302020302020302020302020302020302020302020300A2020312020322020312020302020202020200A2020322020332020312020302020202020200A2020312020342020332020302020202020200A2020332020352020332020302020202020200A4D2020454E44
Contributor: UBE SCIENTIFIC ANALYSIS LABORATORY
InstType: EI
InstName: HITACHI M-60
IoniMethod: _ENERGY 70 eV
IonPolarity: pos
Date: 2010-10-09 19:48:36+02:00
Num Peaks: 25
12 15 13 8 14 13 18 3 24 10 25 12 26 33 27 16 28 114 29 3 
32 2 36 3 37 5 38 258 39 221 40 48 50 15 51 11 52 3 53 2 
64 52 65 84 66 999 67 42 69 1 
