Name: MassBank: JP001950
MW: 271
Formula: C12H22ClNSi2
Synonym: MassBank: JP001950
Synonym: 1-(CHLOROMETHYL)-1,1,3,3,3-PENTAMETYL-2-PHENYL-DISILAZANE
Synonym: N-CHLOROMETHYLDIMETHYLSILYL-N-TRIMETHYLSILYLANILINE
Structure: 312D2843484C4F524F4D455448594C292D312C312C332C332C332D50454E54414D4554594C2D322D5048454E594C2D444953494C415A414E452E6D6F6C0A20204368656D447261773131313730393139353032440A2031362031362020302020302020302020302020302020302020302020303939392056323030300A2020202D302E3335373220202020302E3039353720202020302E30303030204E202020302020302020302020302020302020302020302020302020302020302020302020300A20202020302E333537322020202D302E3331363820202020302E303030302043202020302020302020302020302020302020302020302020302020302020302020302020300A20202020312E3037313720202020302E3039353720202020302E303030302043202020302020302020302020302020302020302020302020302020302020302020302020300A20202020312E373836322020202D302E3331363820202020302E303030302043202020302020302020302020302020302020302020302020302020302020302020302020300A20202020312E373836322020202D312E3134313820202020302E303030302043202020302020302020302020302020302020302020302020302020302020302020302020300A20202020312E303731372020202D312E3535343320202020302E303030302043202020302020302020302020302020302020302020302020302020302020302020302020300A20202020302E333537322020202D312E3134313820202020302E303030302043202020302020302020302020302020302020302020302020302020302020302020302020300A2020202D302E3335373220202020302E3932303720202020302E303030302053692020302020302020302020302020302020302020302020302020302020302020302020300A20202020302E3436373820202020302E3932303720202020302E303030302043202020302020302020302020302020302020302020302020302020302020302020302020300A2020202D312E3138323220202020302E3932303720202020302E303030302043202020302020302020302020302020302020302020302020302020302020302020302020300A2020202D302E3335373220202020312E3734353720202020302E303030302043202020302020302020302020302020302020302020302020302020302020302020302020300A2020202D312E303731372020202D302E3331363820202020302E303030302053692020302020302020302020302020302020302020302020302020302020302020302020300A2020202D312E3438343220202020302E3339373720202020302E303030302043202020302020302020302020302020302020302020302020302020302020302020302020300A2020202D312E373836322020202D302E3732393320202020302E303030302043202020302020302020302020302020302020302020302020302020302020302020302020300A2020202D302E363539322020202D312E3033313320202020302E303030302043202020302020302020302020302020302020302020302020302020302020302020302020300A2020202D312E303731372020202D312E3734353720202020302E3030303020436C2020302020302020302020302020302020302020302020302020302020302020302020300A2020312020322020312020302020202020200A2020322020332020312020302020202020200A2020332020342020322020302020202020200A2020342020352020312020302020202020200A2020352020362020322020302020202020200A2020362020372020312020302020202020200A2020322020372020322020302020202020200A2020382020392020312020302020202020200A2020382031302020312020302020202020200A2020382031312020312020302020202020200A2020312020382020312020302020202020200A2031322031332020312020302020202020200A2031322031342020312020302020202020200A2031322031352020312020302020202020200A2031352031362020312020302020202020200A2020312031322020312020302020202020200A4D2020454E44
Contributor: MASS SPECTROSCOPY SOC. OF JAPAN (MSSJ)
InstType: EI
InstName: JEOL JMS-D-3000
IoniMethod: _ENERGY 70 eV
IonPolarity: pos
Date: 2010-10-09 19:48:36+02:00
Num Peaks: 58
44 79 45 13 46 130 51 13 58 21 59 143 60 11 63 18 65 13 70 17 
73 365 74 33 75 53 77 36 79 64 81 25 84 25 91 20 93 70 95 32 
100 15 104 15 105 19 107 13 119 15 120 18 121 14 130 18 132 11 134 16 
135 15 146 11 148 26 149 25 150 37 160 12 162 20 176 11 178 16 192 50 
206 70 207 10 220 44 221 15 222 999 223 238 224 90 225 14 226 13 228 67 
229 14 230 27 256 56 257 14 258 25 271 59 272 14 273 28 
