Name: N-BENZYL-3-METHOXYCARBONYLPYRROLIDINE
MW: 219
Formula: C13H17NO2
Synonym: MassBank: JP002372
Synonym: N-BENZYL-3-METHOXYCARBONYLPYRROLIDINE
Synonym: METHYL 1-BENZYLPYRROLIDINE-3-CARBOXYLATE
Structure: 4D455448594C20312D42454E5A594C505952524F4C4944494E452D332D434152424F58594C4154452E6D6F6C0A20204368656D447261773038313131303233323232440A2031362031372020302020302020302020302020302020302020302020303939392056323030300A2020202D302E313233342020202D302E3030333820202020302E30303030204E202020302020302020302020302020302020302020302020302020302020302020302020300A2020202D302E383737312020202D302E3333393420202020302E303030302043202020302020302020302020302020302020302020302020302020302020302020302020300A2020202D312E3432393120202020302E3237333720202020302E303030302043202020302020302020302020302020302020302020302020302020302020302020302020300A2020202D312E3031363620202020302E3938383220202020302E303030302043202020302020302020302020302020302020302020302020302020302020302020302020300A2020202D302E3230393620202020302E3831363620202020302E303030302043202020302020302020302020302020302020302020302020302020302020302020302020300A2020202D322E3234393620202020302E3138373520202020302E303030302043202020302020302020302020302020302020302020302020302020302020302020302020300A2020202D322E3733343520202020302E3835343920202020302E30303030204F202020302020302020302020302020302020302020302020302020302020302020302020300A2020202D322E353835312020202D302E3536363220202020302E30303030204F202020302020302020302020302020302020302020302020302020302020302020302020300A20202020302E353931312020202D302E3431363320202020302E303030302043202020302020302020302020302020302020302020302020302020302020302020302020300A20202020312E333035362020202D302E3030333820202020302E303030302043202020302020302020302020302020302020302020302020302020302020302020302020300A20202020312E3330353620202020302E3832313220202020302E303030302043202020302020302020302020302020302020302020302020302020302020302020302020300A20202020322E3032303020202020312E3233333720202020302E303030302043202020302020302020302020302020302020302020302020302020302020302020302020300A20202020322E3733343520202020302E3832313220202020302E303030302043202020302020302020302020302020302020302020302020302020302020302020302020300A20202020322E373334352020202D302E3030333820202020302E303030302043202020302020302020302020302020302020302020302020302020302020302020302020300A20202020322E303230302020202D302E3431363320202020302E303030302043202020302020302020302020302020302020302020302020302020302020302020302020300A2020202D322E313030322020202D312E3233333720202020302E303030302043202020302020302020302020302020302020302020302020302020302020302020302020300A2020312020322020312020302020202020200A2020322020332020312020302020202020200A2020332020342020312020302020202020200A2020342020352020312020302020202020200A2020312020352020312020302020202020200A2020362020372020322020302020202020200A2020362020382020312020302020202020200A2020332020362020312020302020202020200A2020392031302020312020302020202020200A2031302031312020312020302020202020200A2031312031322020322020302020202020200A2031322031332020312020302020202020200A2031332031342020322020302020202020200A2031342031352020312020302020202020200A2031302031352020322020302020202020200A2020312020392020312020302020202020200A2020382031362020312020302020202020200A4D2020454E44
Contributor: MASS SPECTROSCOPY SOC. OF JAPAN (MSSJ)
InstType: EI
InstName: JEOL JMS-D-3000
IoniMethod: _ENERGY 70 eV
IonPolarity: pos
Date: 2010-10-09 19:48:36+02:00
Num Peaks: 23
42 281 44 51 51 32 55 36 59 28 65 130 68 62 73 97 77 31 91 999 
92 126 128 536 129 41 130 59 132 66 133 26 142 177 188 109 204 38 215 53 
218 116 219 84 220 26 
