Name: MassBank: JP000805
MW: 488
Formula: C27H60O3Si2
Synonym: MassBank: JP000805
Synonym: 1-O-OCTADECYLGLYCEROL 2,3-DITRIMETHYLSILYLETHER
Synonym: 1-O-OCTADECYL-2,3-DI-O-TRIMETHYLSILYLGLYCEROL
Structure: 312D4F2D4F435441444543594C474C594345524F4C20322C332D44495452494D455448594C53494C594C45544845522E6D6F6C0A20204368656D447261773131323230393231333032440A2033322033312020302020302020302020302020302020302020302020303939392056323030300A20202020312E3830313020202020352E3030313320202020302E30303030204F202020302020302020302020302020302020302020302020302020302020302020302020300A20202020312E3338383520202020352E3731353820202020302E303030302043202020302020302020302020302020302020302020302020302020302020302020302020300A20202020302E3536333520202020352E3731353820202020302E303030302043202020302020302020302020302020302020302020302020302020302020302020302020300A20202020302E3135313020202020352E3030313320202020302E30303030204F202020302020302020302020302020302020302020302020302020302020302020302020300A20202020302E3135313020202020362E3433303220202020302E303030302043202020302020302020302020302020302020302020302020302020302020302020302020300A2020202D302E3637343020202020362E3433303220202020302E30303030204F202020302020302020302020302020302020302020302020302020302020302020302020300A20202020312E3338383520202020342E3238363820202020302E303030302043202020302020302020302020302020302020302020302020302020302020302020302020300A20202020312E3830313020202020332E3537323420202020302E303030302043202020302020302020302020302020302020302020302020302020302020302020302020300A20202020312E3338383520202020322E3835373920202020302E303030302043202020302020302020302020302020302020302020302020302020302020302020302020300A20202020312E3830313020202020322E3134333420202020302E303030302043202020302020302020302020302020302020302020302020302020302020302020302020300A20202020312E3338383520202020312E3432383920202020302E303030302043202020302020302020302020302020302020302020302020302020302020302020302020300A20202020312E3830313020202020302E3731343520202020302E303030302043202020302020302020302020302020302020302020302020302020302020302020302020300A20202020312E333838352020202D302E3030303020202020302E303030302043202020302020302020302020302020302020302020302020302020302020302020302020300A20202020312E383031302020202D302E3731343520202020302E303030302043202020302020302020302020302020302020302020302020302020302020302020302020300A20202020312E333838352020202D312E3432383920202020302E303030302043202020302020302020302020302020302020302020302020302020302020302020302020300A20202020312E383031302020202D322E3134333420202020302E303030302043202020302020302020302020302020302020302020302020302020302020302020302020300A20202020312E333838352020202D322E3835373920202020302E303030302043202020302020302020302020302020302020302020302020302020302020302020302020300A20202020312E383031302020202D332E3537323420202020302E303030302043202020302020302020302020302020302020302020302020302020302020302020302020300A20202020312E333838352020202D342E3238363820202020302E303030302043202020302020302020302020302020302020302020302020302020302020302020302020300A20202020312E383031302020202D352E3030313320202020302E303030302043202020302020302020302020302020302020302020302020302020302020302020302020300A20202020312E333838352020202D352E3731353820202020302E303030302043202020302020302020302020302020302020302020302020302020302020302020302020300A20202020312E383031302020202D362E3433303220202020302E303030302043202020302020302020302020302020302020302020302020302020302020302020302020300A20202020312E333838352020202D372E3134343720202020302E303030302043202020302020302020302020302020302020302020302020302020302020302020302020300A20202020312E383031302020202D372E3835393220202020302E303030302043202020302020302020302020302020302020302020302020302020302020302020302020300A2020202D312E3038363520202020372E3134343720202020302E303030302053692020302020302020302020302020302020302020302020302020302020302020302020300A2020202D302E3337323020202020372E3535373220202020302E303030302043202020302020302020302020302020302020302020302020302020302020302020302020300A2020202D312E3830313020202020362E3733323220202020302E303030302043202020302020302020302020302020302020302020302020302020302020302020302020300A2020202D312E3439393020202020372E3835393220202020302E303030302043202020302020302020302020302020302020302020302020302020302020302020302020300A2020202D302E3637343020202020352E3030313320202020302E303030302053692020302020302020302020302020302020302020302020302020302020302020302020300A2020202D302E3637343020202020342E3137363320202020302E303030302043202020302020302020302020302020302020302020302020302020302020302020302020300A2020202D312E3439393020202020352E3030313320202020302E303030302043202020302020302020302020302020302020302020302020302020302020302020302020300A2020202D302E3637343020202020352E3832363320202020302E303030302043202020302020302020302020302020302020302020302020302020302020302020302020300A2020312020322020312020302020202020200A2020322020332020312020302020202020200A2020332020342020312020302020202020200A2020332020352020312020302020202020200A2020352020362020312020302020202020200A2020372020382020312020302020202020200A2020382020392020312020302020202020200A2020392031302020312020302020202020200A2031302031312020312020302020202020200A2031312031322020312020302020202020200A2031322031332020312020302020202020200A2031332031342020312020302020202020200A2031342031352020312020302020202020200A2031352031362020312020302020202020200A2031362031372020312020302020202020200A2031372031382020312020302020202020200A2031382031392020312020302020202020200A2031392032302020312020302020202020200A2032302032312020312020302020202020200A2032312032322020312020302020202020200A2032322032332020312020302020202020200A2032332032342020312020302020202020200A2020312020372020312020302020202020200A2032352032362020312020312020202020200A2032352032372020312020312020202020200A2032352032382020312020302020202020200A2020362032352020312020302020202020200A2032392033302020312020302020202020200A2032392033312020312020302020202020200A2032392033322020312020302020202020200A2020342032392020312020302020202020200A4D2020454E44
Contributor: HAYASHI A, DEPT. OF CHEMISTRY, FAC. OF SCI. AND TECHNOLOGY, KINKI UNIV.
InstType: EI
InstName: SHIMADZU LKB-9000B
IoniMethod: _ENERGY 40 eV
IonPolarity: pos
Date: 2010-10-09 19:48:36+02:00
Num Peaks: 64
55 10 57 32 69 19 70 8 71 50 73 91 75 33 82 16 83 39 84 9 
85 63 89 8 95 17 96 16 97 47 98 13 99 26 101 27 103 85 105 16 
109 16 111 25 113 24 115 27 116 69 117 266 118 30 119 25 123 8 125 17 
127 16 129 98 130 175 131 147 132 42 133 265 134 32 135 15 141 12 145 18 
147 274 148 44 149 53 155 9 159 8 163 8 175 25 177 27 189 15 204 83 
205 999 206 183 207 85 208 15 221 14 281 11 341 43 342 11 383 9 384 16 
385 11 398 13 473 27 474 9 
