Name: MassBank: JP000794
MW: 198
Formula: C11H10N4
Synonym: MassBank: JP000794
Synonym: 2-AMINO-6-METHYL-DIPYRIDO(1,2-A:3',2'-D)IMIDAZOLE
Synonym: GLU-P-1
Structure: 322D414D494E4F2D362D4D455448594C2D444950595249444F28312C322D4133272C32272D4429494D4944415A4F4C452E6D6F6C0A20204368656D447261773132323130393232323532440A2031352031372020302020302020302020302020302020302020302020303939392056323030300A20202020312E303335332020202D302E3335373220202020302E303030302043202020302020302020302020302020302020302020302020302020302020302020302020300A20202020302E343833322020202D302E3937303320202020302E30303030204E202020302020302020302020302020302020302020302020302020302020302020302020300A2020202D302E323730342020202D302E3633343820202020302E303030302043202020302020302020302020302020302020302020302020302020302020302020302020300A2020202D302E3138343220202020302E3138353720202020302E303030302043202020302020302020302020302020302020302020302020302020302020302020302020300A20202020302E3632323820202020302E3335373220202020302E30303030204E202020302020302020302020302020302020302020302020302020302020302020302020300A20202020312E383630332020202D302E3335373220202020302E303030302043202020302020302020302020302020302020302020302020302020302020302020302020300A20202020322E3237323820202020302E3335373220202020302E303030302043202020302020302020302020302020302020302020302020302020302020302020302020300A20202020312E3836303320202020312E3037313720202020302E303030302043202020302020302020302020302020302020302020302020302020302020302020302020300A20202020312E3033353320202020312E3037313720202020302E303030302043202020302020302020302020302020302020302020302020302020302020302020302020300A2020202D312E303234312020202D302E3937303320202020302E303030302043202020302020302020302020302020302020302020302020302020302020302020302020300A2020202D312E363931362020202D302E3438353420202020302E303030302043202020302020302020302020302020302020302020302020302020302020302020302020300A2020202D312E3630353320202020302E3333353120202020302E303030302043202020302020302020302020302020302020302020302020302020302020302020302020300A2020202D302E3835313620202020302E3637303620202020302E30303030204E202020302020302020302020302020302020302020302020302020302020302020302020300A20202020322E323732382020202D312E3037313720202020302E303030302043202020302020302020302020302020302020302020302020302020302020302020302020300A2020202D322E3237323820202020302E3832303020202020302E30303030204E202020302020302020302020302020302020302020302020302020302020302020302020300A2020312020322020322020302020202020200A2020322020332020312020302020202020200A2020332020342020312020302020202020200A2020342020352020312020302020202020200A2020312020352020312020302020202020200A2020362020372020322020302020202020200A2020372020382020312020302020202020200A2020382020392020322020302020202020200A2020352020392020312020302020202020200A2020312020362020312020302020202020200A2031302031312020312020302020202020200A2031312031322020322020302020202020200A2031322031332020312020302020202020200A2020332031302020322020302020202020200A2020342031332020322020302020202020200A2020362031342020312020302020202020200A2031322031352020312020302020202020200A4D2020454E44
Contributor: MASS SPECTROSCOPY SOC. OF JAPAN (MSSJ)
InstType: EI
InstName: VARIAN MAT-44S
IoniMethod: _ENERGY 75 eV
IonPolarity: pos
Date: 2010-10-09 19:48:36+02:00
Num Peaks: 67
41 48 42 13 43 21 44 18 50 17 51 40 52 75 53 53 54 24 55 16 
57 15 63 38 64 78 65 204 66 77 67 3 71 11 72 17 76 15 77 23 
78 45 79 90 80 30 81 13 85 40 89 11 90 21 91 58 92 301 93 335 
94 33 98 40 99 169 102 13 103 11 105 14 107 31 116 20 117 20 118 47 
119 36 129 15 131 23 133 21 142 12 143 28 144 31 145 24 146 17 153 17 
155 14 156 21 157 20 158 179 159 22 169 12 170 135 171 71 172 22 180 3 
181 14 182 22 183 15 184 24 197 201 198 999 199 137 
