Name: MassBank: JP009719
MW: 104
Formula: C5H12O2
Synonym: MassBank: JP009719
Synonym: 1,5-PENTANEDIOL
Structure: 310A31380A312C352D50454E54414E4544494F4C2E6D6F6C0A20204368656D447261773131313630393133303332440A2020372020362020302020302020302020302020302020302020302020303939392056323030300A2020202D312E3432383920202020302E3230363320202020302E303030302043202020302020302020302020302020302020302020302020302020302020302020302020300A2020202D302E373134352020202D302E3230363320202020302E303030302043202020302020302020302020302020302020302020302020302020302020302020302020300A20202020302E3030303020202020302E3230363320202020302E303030302043202020302020302020302020302020302020302020302020302020302020302020302020300A20202020302E373134352020202D302E3230363220202020302E303030302043202020302020302020302020302020302020302020302020302020302020302020302020300A20202020312E3432383920202020302E3230363320202020302E303030302043202020302020302020302020302020302020302020302020302020302020302020302020300A2020202D322E313433342020202D302E3230363320202020302E30303030204F202020302020302020302020302020302020302020302020302020302020302020302020300A20202020322E313433342020202D302E3230363220202020302E30303030204F202020302020302020302020302020302020302020302020302020302020302020302020300A2020312020322020312020302020202020200A2020322020332020312020302020202020200A2020332020342020312020302020202020200A2020342020352020312020302020202020200A2020312020362020312020302020202020200A2020352020372020312020302020202020200A4D2020454E44
Contributor: HASHIMOTO K, KYOTO COLLEGE OF PHARMACY
InstType: EI
InstName: HITACHI M-80
IoniMethod: _ENERGY 20 eV
IonPolarity: pos
Date: 2010-10-09 19:48:36+02:00
Num Peaks: 31
27 46 28 89 29 171 30 26 31 501 33 21 39 26 40 32 41 495 42 94 
43 280 44 471 45 144 46 10 53 42 54 24 55 493 56 999 57 679 58 109 
61 43 62 11 66 11 67 274 68 394 69 38 71 37 73 113 74 198 75 19 
86 18 
