Name: MassBank: JP000767
MW: 328
Formula: C18H20N2O4
Synonym: MassBank: JP000767
Synonym: ETHYL 2-AMINO-3-CYANO-4,8-BIS(METHOXYMETHYL)AZULENE-1-CARBOXYLATE
Structure: 455448594C20322D414D494E4F2D332D4359414E4F2D342C382D424953284D4554484F58594D455448594C29415A554C454E452D312D434152424F58594C4154452E6D6F6C0A20204368656D447261773038313131303138303432440A2032342032352020302020302020302020302020302020302020302020303939392056323030300A2020202D302E3531353320202020302E3634313020202020302E303030302043202020302020302020302020302020302020302020302020302020302020302020302020300A20202020302E3135323120202020312E3132353920202020302E303030302043202020302020302020302020302020302020302020302020302020302020302020302020300A20202020302E3831393620202020302E3634313020202020302E303030302043202020302020302020302020302020302020302020302020302020302020302020302020300A20202020302E353634362020202D302E3134333620202020302E303030302043202020302020302020302020302020302020302020302020302020302020302020302020300A20202020312E303739302020202D302E3738383620202020302E303030302043202020302020302020302020302020302020302020302020302020302020302020302020300A20202020302E383935342020202D312E3539333020202020302E303030302043202020302020302020302020302020302020302020302020302020302020302020302020300A20202020302E313532312020202D312E3935303920202020302E303030302043202020302020302020302020302020302020302020302020302020302020302020302020300A2020202D302E353931322020202D312E3539333020202020302E303030302043202020302020302020302020302020302020302020302020302020302020302020302020300A2020202D302E373734382020202D302E3738383620202020302E303030302043202020302020302020302020302020302020302020302020302020302020302020302020300A2020202D302E323630342020202D302E3134333620202020302E303030302043202020302020302020302020302020302020302020302020302020302020302020302020300A2020202D312E3239393920202020302E3839353920202020302E303030302043202020302020302020302020302020302020302020302020302020302020302020302020300A2020202D312E3437313520202020312E3730323920202020302E30303030204F202020302020302020302020302020302020302020302020302020302020302020302020300A2020202D312E3838333320202020302E3331323620202020302E30303030204F202020302020302020302020302020302020302020302020302020302020302020302020300A2020202D312E353739312020202D302E3630353120202020302E303030302043202020302020302020302020302020302020302020302020302020302020302020302020300A2020202D322E313632342020202D312E3138383420202020302E30303030204F202020302020302020302020302020302020302020302020302020302020302020302020300A2020202D322E393539332020202D302E3937343920202020302E303030302043202020302020302020302020302020302020302020302020302020302020302020302020300A20202020312E383833332020202D302E3630353120202020302E303030302043202020302020302020302020302020302020302020302020302020302020302020302020300A20202020322E343636372020202D312E3138383420202020302E30303030204F202020302020302020302020302020302020302020302020302020302020302020302020300A20202020332E323633362020202D302E3937343920202020302E303030302043202020302020302020302020302020302020302020302020302020302020302020302020300A20202020312E3630343220202020302E3839353920202020302E303030302043202020302020302020302020302020302020302020302020302020302020302020302020300A20202020322E3338383820202020312E3135303920202020302E30303030204E202020302020302020302020302020302020302020302020302020302020302020302020300A20202020302E3135323120202020312E3935303920202020302E30303030204E202020302020302020302020302020302020302020302020302020302020302020302020300A2020202D322E3638303220202020302E3532363120202020302E303030302043202020302020302020302020302020302020302020302020302020302020302020302020300A2020202D332E323633362020202D302E3035373320202020302E303030302043202020302020302020302020302020302020302020302020302020302020302020302020300A2020312020322020312020302020202020200A2020322020332020322020302020202020200A2020332020342020312020302020202020200A2020342020352020322020302020202020200A2020352020362020312020302020202020200A2020362020372020322020302020202020200A2020372020382020312020302020202020200A2020382020392020322020302020202020200A2020392031302020312020302020202020200A2020312031302020322020302020202020200A2020342031302020312020302020202020200A2031312031322020322020302020202020200A2031312031332020312020302020202020200A2020312031312020312020302020202020200A2031352031362020312020302020202020200A2031342031352020312020302020202020200A2020392031342020312020302020202020200A2031382031392020312020302020202020200A2031372031382020312020302020202020200A2020352031372020312020302020202020200A2032302032312020332020302020202020200A2020332032302020312020302020202020200A2020322032322020312020302020202020200A2032332032342020312020302020202020200A2031332032332020312020302020202020200A4D2020454E44
Contributor: ITO S, DEPT. OF CHEM., TOHOKU UNIV.
InstType: EI
InstName: Unknown
IoniMethod: _ENERGY 25 eV
IonPolarity: pos
Date: 2010-10-09 19:48:36+02:00
Num Peaks: 71
45 260 74 115 127 70 139 4 140 50 141 40 142 30 151 7 152 85 153 130 
154 45 164 6 165 35 166 140 167 80 168 9 169 75 170 30 179 230 180 14 
181 150 182 120 183 65 191 5 192 110 193 130 194 90 195 31 196 160 197 60 
198 35 205 4 207 145 208 280 209 230 210 6 211 140 212 100 219 60 220 5 
221 200 222 335 223 180 224 19 225 215 226 40 235 250 236 23 237 430 238 160 
239 225 240 5 250 690 251 290 252 940 253 25 254 45 255 155 256 40 267 999 
268 140 269 65 281 35 282 48 283 240 284 70 296 100 297 9 298 55 328 420 
329 170 
