Name: MassBank: JP002874
MW: 284
Formula: C12H10Cl2N2O2
Synonym: MassBank: JP002874
Synonym: 1,3-DIMETHYL-5-PYLAZOLYL-2,4-DICHLOROBENZOATE
Structure: 312C332D44494D455448594C2D352D50594C415A4F4C594C2D322C342D444943484C4F524F42454E5A4F4154452E6D6F6C0A20204368656D447261773131313230393131353132440A2031392032302020302020302020302020302020302020302020302020303939392056323030300A2020202D312E303633312020202D302E3237333820202020302E303030302043202020302020302020302020302020302020302020302020302020302020302020302020300A2020202D302E3334383620202020302E3133383720202020302E303030302043202020302020302020302020302020302020302020302020302020302020302020302020300A20202020302E333635382020202D302E3237333820202020302E30303030204F202020302020302020302020302020302020302020302020302020302020302020302020300A2020202D302E3334383620202020302E3936333720202020302E30303030204F202020302020302020302020302020302020302020302020302020302020302020302020300A20202020312E3038303320202020302E3133383720202020302E303030302043202020302020302020302020302020302020302020302020302020302020302020302020300A2020202D312E3737373620202020302E3133383720202020302E303030302043202020302020302020302020302020302020302020302020302020302020302020302020300A2020202D322E343932302020202D302E3237333820202020302E303030302043202020302020302020302020302020302020302020302020302020302020302020302020300A2020202D322E343932302020202D312E3039383820202020302E303030302043202020302020302020302020302020302020302020302020302020302020302020302020300A2020202D312E373737362020202D312E3531313320202020302E303030302043202020302020302020302020302020302020302020302020302020302020302020302020300A2020202D312E303633312020202D312E3039383820202020302E303030302043202020302020302020302020302020302020302020302020302020302020302020302020300A20202020312E383334302020202D302E3139363820202020302E303030302043202020302020302020302020302020302020302020302020302020302020302020302020300A20202020322E3338363020202020302E3431363320202020302E303030302043202020302020302020302020302020302020302020302020302020302020302020302020300A20202020312E3937333520202020312E3133303820202020302E30303030204E202020302020302020302020302020302020302020302020302020302020302020302020300A20202020312E3136363620202020302E3935393220202020302E30303030204E202020302020302020302020302020302020302020302020302020302020302020302020300A2020202D302E333438362020202D312E3531313320202020302E3030303020436C2020302020302020302020302020302020302020302020302020302020302020302020300A2020202D332E323036352020202D312E3531313320202020302E3030303020436C2020302020302020302020302020302020302020302020302020302020302020302020300A20202020322E303035352020202D312E3030333820202020302E303030302048202020302020302020302020302020302020302020302020302020302020302020302020300A20202020332E3230363520202020302E3333303020202020302E303030302043202020302020302020302020302020302020302020302020302020302020302020302020300A20202020302E3535333520202020312E3531313320202020302E303030302043202020302020302020302020302020302020302020302020302020302020302020302020300A2020312020322020312020302020202020200A2020322020332020312020302020202020200A2020322020342020322020302020202020200A2020332020352020312020302020202020200A2020312020362020322020302020202020200A2020362020372020312020302020202020200A2020372020382020322020302020202020200A2020382020392020312020302020202020200A2020392031302020322020302020202020200A2031302020312020312020302020202020200A2020352031312020322020302020202020200A2031312031322020312020302020202020200A2031322031332020322020302020202020200A2031332031342020312020302020202020200A2031342020352020312020302020202020200A2031302031352020312020302020202020200A2020382031362020312020302020202020200A2031312031372020312020302020202020200A2031322031382020312020302020202020200A2031342031392020312020302020202020200A4D2020454E44
Contributor: MASS SPECTROSCOPY SOC. OF JAPAN (MSSJ)
InstType: EI
InstName: Unknown
IoniMethod: EI
IonPolarity: pos
Date: 2010-10-09 19:48:36+02:00
Num Peaks: 16
15 48 39 46 40 48 43 81 74 30 75 36 109 57 110 24 111 41 145 113 
147 70 173 999 174 78 175 598 176 48 177 103 
