Name: 3-ACETYL-1-TRIDEUTEROMETHYLINDOLE
MW: 173
Formula: C11H11NO
Synonym: MassBank: JP000447
Synonym: 3-ACETYL-1-TRIDEUTEROMETHYLINDOLE
Structure: 332D41434554594C2D312D5452494445555445524F4D455448594C494E444F4C452E6D6F6C0A20204368656D447261773032323231303133333432440A2031362031372020302020302020302020302020302020302020302020303939392056323030300A2020202D302E353830392020202D302E3536363820202020302E30303030204E202020302020302020302020302020302020302020302020302020302020302020302020300A2020202D312E3036353820202020302E3130303620202020302E303030302043202020302020302020302020302020302020302020302020302020302020302020302020300A2020202D302E3538303920202020302E3736383120202020302E303030302043202020302020302020302020302020302020302020302020302020302020302020302020300A20202020302E3230333820202020302E3531333120202020302E303030302043202020302020302020302020302020302020302020302020302020302020302020302020300A20202020302E3931383220202020302E3932353620202020302E303030302043202020302020302020302020302020302020302020302020302020302020302020302020300A20202020312E3633323720202020302E3531333120202020302E303030302043202020302020302020302020302020302020302020302020302020302020302020302020300A20202020312E363332372020202D302E3331313920202020302E303030302043202020302020302020302020302020302020302020302020302020302020302020302020300A20202020302E393138322020202D302E3732343420202020302E303030302043202020302020302020302020302020302020302020302020302020302020302020302020300A20202020302E323033382020202D302E3331313920202020302E303030302043202020302020302020302020302020302020302020302020302020302020302020302020300A2020202D302E383335382020202D312E3335313420202020302E303030302043202020302020302020302020302020302020302020302020302020302020302020302020300A2020202D312E363230342020202D312E3039363520202020302E303030302048202020312020302020302020302020302020302020302020302020302020302020302020300A2020202D302E303531322020202D312E3630363420202020302E303030302048202020312020302020302020302020302020302020302020302020302020302020302020300A2020202D312E303930372020202D322E3133363120202020302E303030302048202020312020302020302020302020302020302020302020302020302020302020302020300A2020202D302E3833353820202020312E3535323720202020302E303030302043202020302020302020302020302020302020302020302020302020302020302020302020300A2020202D312E3633323720202020312E3736363220202020302E30303030204F202020302020302020302020302020302020302020302020302020302020302020302020300A2020202D302E3235323420202020322E3133363120202020302E303030302043202020302020302020302020302020302020302020302020302020302020302020302020300A2020312020322020312020302020202020200A2020322020332020322020302020202020200A2020332020342020312020302020202020200A2020342020352020312020302020202020200A2020352020362020322020302020202020200A2020362020372020312020302020202020200A2020372020382020322020302020202020200A2020382020392020312020302020202020200A2020312020392020312020302020202020200A2020342020392020322020302020202020200A2031302031312020312020302020202020200A2031302031322020312020302020202020200A2031302031332020312020302020202020200A2020312031302020312020302020202020200A2031342031352020322020302020202020200A2031342031362020312020302020202020200A2020332031342020312020302020202020200A4D202049534F2020332020313120202032202031322020203220203133202020320A4D2020454E44
Contributor: SASAKI S, TOYOHASHI UNIV. OF TECH.
InstType: EI
InstName: MX-1303
IoniMethod: _ENERGY 50 eV
IonPolarity: pos
Date: 2010-10-09 19:48:36+02:00
Num Peaks: 25
39 11 43 27 63 20 69 3 74 14 77 21 78 34 79 3 80.5 18 81 14 
88 11 89 3 103 13 104 13 105 35 106 3 115 16 131 11 133 60 160 3 
161 999 162 95 175 10 176 45 177 44 
