Name: MassBank: JP006650
MW: 484
Formula: C22H20N4O9
Synonym: MassBank: JP006650
Synonym: DIMETHYL 1-(3-(3,5-DINITROBENZAMIDO)PROPYL)INDOLE-2,3-DICARBOXYLATE
Structure: 310A3130330A5772697474656E206279206A5073690A2033352033372020302020302020302020302020302020302020302020303939392056323030300A20202D31372E3030383920202D34332E3036393820202020302E303030302043202020302020302020302020302020302020302020302020302020302020302020302020300A2020202D382E3531363620202D33382E3137383820202020302E303030302043202020302020302020302020302020302020302020302020302020302020302020302020300A20202D32352E3530313220202D33382E3137383820202020302E30303030204E202020302020302020302020302020302020302020302020302020302020302020302020300A20202020302E3030303020202D34332E3036393820202020302E303030302043202020302020302020302020302020302020302020302020302020302020302020302020300A20202D34322E3438353820202D33382E3137383820202020302E303030302043202020302020302020302020302020302020302020302020302020302020302020302020300A20202D32352E3530313220202D32382E3337323520202020302E303030302043202020302020302020302020302020302020302020302020302020302020302020302020300A20202020382E3439323320202D33382E3137383820202020302E30303030204E202020302020302020302020302020302020302020302020302020302020302020302020300A20202D34322E3438353820202D32382E3337323520202020302E303030302043202020302020302020302020302020302020302020302020302020302020302020302020300A20202D35302E3937383120202D34332E3036393820202020302E303030302043202020302020302020302020302020302020302020302020302020302020302020302020300A20202D31372E3030383920202D32332E3435373220202020302E303030302043202020302020302020302020302020302020302020302020302020302020302020302020300A20202D33332E3936393220202D32332E3435373220202020302E303030302043202020302020302020302020302020302020302020302020302020302020302020302020300A20202031362E3938343620202D34332E3036393820202020302E303030302043202020302020302020302020302020302020302020302020302020302020302020302020300A20202D35302E3937383120202D32332E3435373220202020302E303030302043202020302020302020302020302020302020302020302020302020302020302020302020300A20202D35392E3437303420202D33382E3137383820202020302E303030302043202020302020302020302020302020302020302020302020302020302020302020302020300A2020202D382E3531363620202D32382E3337323520202020302E30303030204F202020302020302020302020302020302020302020302020302020302020302020302020300A20202D31372E3030383920202D31332E3635303920202020302E30303030204F202020302020302020302020302020302020302020302020302020302020302020302020300A20202D33332E3936393220202D31332E3635303920202020302E303030302043202020302020302020302020302020302020302020302020302020302020302020302020300A20202031362E3938343620202D35322E3837363120202020302E30303030204F202020302020302020302020302020302020302020302020302020302020302020302020300A20202032352E3437363920202D33382E3137383820202020302E303030302043202020302020302020302020302020302020302020302020302020302020302020302020300A20202D35392E3437303420202D32382E3337323520202020302E303030302043202020302020302020302020302020302020302020302020302020302020302020302020300A20202020302E3030303020202D32332E3435373220202020302E303030302043202020302020302020302020302020302020302020302020302020302020302020302020300A20202D34322E343631352020202D382E3736303020202020302E30303030204F202020302020302020302020302020302020302020302020302020302020302020302020300A20202D32352E343736392020202D382E3736303020202020302E30303030204F202020302020302020302020302020302020302020302020302020302020302020302020300A20202032352E3437363920202D32382E3337323520202020302E303030302043202020302020302020302020302020302020302020302020302020302020302020302020300A20202033332E3936393220202D34332E3036393820202020302E303030302043202020302020302020302020302020302020302020302020302020302020302020302020300A20202D35302E3935333820202D31332E3635303920202020302E303030302043202020302020302020302020302020302020302020302020302020302020302020302020300A20202033332E3936393220202D32332E3435373220202020302E303030302043202020302020302020302020302020302020302020302020302020302020302020302020300A20202034322E3436313520202D33382E3137383820202020302E303030302043202020302020302020302020302020302020302020302020302020302020302020302020300A20202033332E3936393220202D31332E3635303920202020302E30303030204E202020302020302020302020302020302020302020302020302020302020302020302020300A20202034322E3436313520202D32382E3337323520202020302E303030302043202020302020302020302020302020302020302020302020302020302020302020302020300A20202035302E3935333820202D34332E3036393820202020302E30303030204E202020302020302020302020302020302020302020302020302020302020302020302020300A20202032352E343736392020202D382E3736303020202020302E30303030204F202020302020302020302020302020302020302020302020302020302020302020302020300A20202034322E343631352020202D382E3736303020202020302E30303030204F202020302020302020302020302020302020302020302020302020302020302020302020300A20202035302E3935333820202D35322E3837363120202020302E30303030204F202020302020302020302020302020302020302020302020302020302020302020302020300A20202035392E3434363020202D33382E3137383820202020302E30303030204F202020302020302020302020302020302020302020302020302020302020302020302020300A2020312020322020312020302020302020302020300A2020312020332020312020302020302020302020300A2020322020342020312020302020302020302020300A2020332020352020312020302020302020302020300A2020332020362020312020302020302020302020300A2020342020372020312020302020302020302020300A2020352020382020322020302020302020302020300A2020352020392020312020302020302020302020300A2020362031302020312020302020302020302020300A2020362031312020322020302020302020302020300A2020372031322020312020302020302020302020300A2020382031312020312020302020302020302020300A2020382031332020312020302020302020302020300A2020392031342020322020302020302020302020300A2031302031352020312020302020302020302020300A2031302031362020322020302020302020302020300A2031312031372020312020302020302020302020300A2031322031382020322020302020302020302020300A2031322031392020312020302020302020302020300A2031332032302020322020302020302020302020300A2031342032302020312020302020302020302020300A2031352032312020312020302020302020302020300A2031372032322020312020302020302020302020300A2031372032332020322020302020302020302020300A2031392032342020322020302020302020302020300A2031392032352020312020302020302020302020300A2032322032362020312020302020302020302020300A2032342032372020312020302020302020302020300A2032352032382020322020302020302020302020300A2032372032392020312020302020302020302020300A2032372033302020322020302020302020302020300A2032382033302020312020302020302020302020300A2032382033312020312020302020302020302020300A2032392033322020322020302020302020302020300A2032392033332020322020302020302020302020300A2033312033342020322020302020302020302020300A2033312033352020322020302020302020302020300A4120202020330A4E0A4120202020370A4E0A4120202031350A4F0A4120202031360A4F0A4120202031380A4F0A4120202032320A4F0A4120202032330A4F0A4120202032390A4E0A4120202033310A4E0A4120202033320A4F0A4120202033330A4F0A4120202033340A4F0A4120202033350A4F0A4D2020454E44
Contributor: SASAKI S, TOYOHASHI UNIV. OF TECH.
InstType: EI
InstName: JEOL JMS-01-SG-2
IoniMethod: _ENERGY 75 eV
IonPolarity: pos
Date: 2010-10-09 19:48:36+02:00
Num Peaks: 26
45 306 75 128 77 123 105 30 122 171 143 120 149 80 188 31 195 175 198 98 
201 65 202 9 214 97 215 55 216 117 228 999 229 134 233 57 241 92 246 13 
247 275 252 46 260 28 393 7 453 55 484 708 
