Name: 3-NITROSO-2-OXAZOLINONE
MW: 116
Formula: C3H4N2O3
Synonym: MassBank: JP004156
Synonym: 3-NITROSO-2-OXAZOLINONE
Structure: 310A32310A332D4E4954524F534F2D322D4F58415A4F4C494E4F4E452E6D6F6C0A20204368656D447261773033323331303034313032440A2020382020382020302020302020302020302020302020302020302020303939392056323030300A20202020312E3235333520202020302E3034333720202020302E30303030204F202020302020302020302020302020302020302020302020302020302020302020302020300A20202020302E3436383920202020302E3239383620202020302E303030302043202020302020302020302020302020302020302020302020302020302020302020302020300A2020202D302E303136302020202D302E3336383820202020302E30303030204E202020302020302020302020302020302020302020302020302020302020302020302020300A20202020302E343638392020202D312E3033363220202020302E303030302043202020302020302020302020302020302020302020302020302020302020302020302020300A20202020312E323533352020202D302E3738313320202020302E303030302043202020302020302020302020302020302020302020302020302020302020302020302020300A20202020302E3231343020202020312E3038333320202020302E30303030204F202020302020302020302020302020302020302020302020302020302020302020302020300A2020202D302E383431302020202D302E3336383820202020302E30303030204E202020302020302020302020302020302020302020302020302020302020302020302020300A2020202D312E323533352020202D312E3038333320202020302E30303030204F202020302020302020302020302020302020302020302020302020302020302020302020300A2020312020322020312020302020202020200A2020322020332020312020302020202020200A2020332020342020312020302020202020200A2020342020352020322020302020202020200A2020312020352020312020302020202020200A2020322020362020322020302020202020200A2020372020382020322020302020202020200A2020332020372020312020302020202020200A4D2020454E44
Contributor: MASS SPECTROSCOPY SOC. OF JAPAN (MSSJ)
InstType: EI
InstName: HITACHI RMU-6E
IoniMethod: _ENERGY 70 eV
IonPolarity: pos
Date: 2010-10-09 19:48:36+02:00
Num Peaks: 49
12 12 13 10 14 48 15 18 16 14 17 27 18 112 24 0 25 10 26 84 
27 52 28 999 29 220 30 822 31 27 32 1 38 12 39 16 40 54 41 12 
42 582 43 43 44 90 45 1 46 8 51 1 52 1 53 0 54 6 55 11 
56 502 57 6 58 7 59 53 60 25 68 0 69 3 70 1 71 6 72 0 
83 1 84 1 85 8 86 1 87 100 88 7 115 6 116 9 117 5 
