Name: 1-BUTENE
MW: 56
Formula: C4H8
Synonym: MassBank: JP000318
Synonym: 1-BUTENE
Structure: 310A31320A312D425554454E452E6D6F6C0A20204368656D447261773131313730393233343132440A2020342020332020302020302020302020302020302020302020302020303939392056323030300A2020202D312E3037313720202020302E3230363320202020302E303030302043202020302020302020302020302020302020302020302020302020302020302020302020300A2020202D302E333537322020202D302E3230363320202020302E303030302043202020302020302020302020302020302020302020302020302020302020302020302020300A20202020302E3335373220202020302E3230363320202020302E303030302043202020302020302020302020302020302020302020302020302020302020302020302020300A20202020312E303731372020202D302E3230363220202020302E303030302043202020302020302020302020302020302020302020302020302020302020302020302020300A2020312020322020322020302020202020200A2020322020332020312020302020202020200A2020332020342020312020302020202020200A4D2020454E44
Contributor: YAMAMOTO M, DEP. CHEMISTRY, FAC. SCIENCE, NARA WOMEN'S UNIV.
InstType: EI
InstName: HITACHI RMU-6M
IoniMethod: _ENERGY 80 eV
IonPolarity: pos
Date: 2010-10-09 19:48:36+02:00
Num Peaks: 21
15 22 25 13 26 117 27 38 28 425 29 203 37 40 38 7 39 597 40 117 
41 999 42 6 49 31 50 94 51 75 52 2 53 106 54 42 55 378 56 75 
57 36 
