Name: MassBank: JP008178
CAS: 58-27-5
MW: 172
Formula: C11H8O2
Synonym: MassBank: JP008178
Synonym: 2-METHYL-1,4-NAPHTHOQUINONE
Synonym: VITAMIN K3
Structure: 322D4D455448594C2D312C342D4E41504854484F5155494E4F4E452E6D6F6C0A20204368656D447261773031323231303032353132440A2031332031342020302020302020302020302020302020302020302020303939392056323030300A20202020302E333537322020202D302E3832353020202020302E303030302043202020302020302020302020302020302020302020302020302020302020302020302020300A20202020312E303731372020202D302E3431323520202020302E303030302043202020302020302020302020302020302020302020302020302020302020302020302020300A20202020312E3037313720202020302E3431323520202020302E303030302043202020302020302020302020302020302020302020302020302020302020302020302020300A20202020302E3335373220202020302E3832353020202020302E303030302043202020302020302020302020302020302020302020302020302020302020302020302020300A2020202D302E3335373220202020302E3431323520202020302E303030302043202020302020302020302020302020302020302020302020302020302020302020302020300A2020202D312E3037313720202020302E3832353020202020302E303030302043202020302020302020302020302020302020302020302020302020302020302020302020300A2020202D312E3738363220202020302E3431323520202020302E303030302043202020302020302020302020302020302020302020302020302020302020302020302020300A2020202D312E373836322020202D302E3431323520202020302E303030302043202020302020302020302020302020302020302020302020302020302020302020302020300A2020202D312E303731372020202D302E3832353020202020302E303030302043202020302020302020302020302020302020302020302020302020302020302020302020300A2020202D302E333537322020202D302E3431323520202020302E303030302043202020302020302020302020302020302020302020302020302020302020302020302020300A20202020302E3335373220202020312E3635303020202020302E30303030204F202020302020302020302020302020302020302020302020302020302020302020302020300A20202020302E333537322020202D312E3635303020202020302E30303030204F202020302020302020302020302020302020302020302020302020302020302020302020300A20202020312E373836322020202D302E3832353020202020302E303030302043202020302020302020302020302020302020302020302020302020302020302020302020300A2020312020322020312020302020202020200A2020322020332020322020302020202020200A2020332020342020312020302020202020200A2020342020352020312020302020202020200A2020352020362020312020302020202020200A2020362020372020322020302020202020200A2020372020382020312020302020202020200A2020382020392020322020302020202020200A2020392031302020312020302020202020200A2020312031302020312020302020202020200A2020352031302020322020302020202020200A2020342031312020322020302020202020200A2020312031322020322020302020202020200A2020322031332020312020302020202020200A4D2020454E44
Contributor: NARA WOMEN'S UNIVERSITY
InstType: EI
InstName: HITACHI M-80
IoniMethod: _ENERGY 70 eV
IonPolarity: pos
Date: 2010-10-09 19:48:36+02:00
Num Peaks: 56
17 16 18 59 26 14 27 26 28 51 29 17 37 33 38 94 39 251 40 47 
49 16 50 251 51 73 52 19 53 26 57 17 58 22 61 19 62 42 63 69 
64 12 65 22 66 27 67 26 72 11 73 23 74 151 75 143 76 484 77 98 
85 10 86 22 87 28 88 17 89 63 90 10 101 29 102 10 104 554 105 154 
106 11 113 16 114 27 115 435 116 414 117 39 129 35 132 13 143 27 144 374 
145 44 157 12 171 27 172 999 173 128 174 19 
