Name: 4-AZIDOBENZOIC ACID CYCLOHEXYL ESTER
MW: 245
Formula: C13H15N3O2
Synonym: MassBank: JP003483
Synonym: 4-AZIDOBENZOIC ACID CYCLOHEXYL ESTER
Structure: 342D415A49444F42454E5A4F49432041434944204359434C4F484558594C2045535445522E6D6F6C0A20204368656D447261773033323531303035333132440A2031382031392020302020302020302020302020302020302020302020303939392056323030300A2020202D302E3731343520202020302E3230363320202020302E303030302043202020302020302020302020302020302020302020302020302020302020302020302020300A20202020302E303030302020202D302E3230363220202020302E303030302043202020302020302020302020302020302020302020302020302020302020302020302020300A20202020302E3731343520202020302E3230363320202020302E303030302043202020302020302020302020302020302020302020302020302020302020302020302020300A20202020312E343238392020202D302E3230363220202020302E303030302043202020302020302020302020302020302020302020302020302020302020302020302020300A20202020312E343238392020202D312E3033313220202020302E303030302043202020302020302020302020302020302020302020302020302020302020302020302020300A20202020302E373134352020202D312E3434333820202020302E303030302043202020302020302020302020302020302020302020302020302020302020302020302020300A2020202D302E303030302020202D312E3033313320202020302E303030302043202020302020302020302020302020302020302020302020302020302020302020302020300A2020202D302E3731343520202020312E3033313320202020302E30303030204F202020302020302020302020302020302020302020302020302020302020302020302020300A2020202D312E343238392020202D302E3230363220202020302E30303030204F202020302020302020302020302020302020302020302020302020302020302020302020300A20202020322E313433342020202D312E3434333720202020302E30303030204E202020302020302020302020302020302020302020302020302020302020302020302020300A20202020322E383537392020202D312E3033313220202020302E30303030204E202020302020332020302020302020302020302020302020302020302020302020302020300A20202020332E353732342020202D302E3631383720202020302E30303030204E202020302020352020302020302020302020302020302020302020302020302020302020300A2020202D322E3134333420202020302E3230363320202020302E303030302043202020302020302020302020302020302020302020302020302020302020302020302020300A2020202D322E383537392020202D302E3230363220202020302E303030302043202020302020302020302020302020302020302020302020302020302020302020302020300A2020202D332E3537323420202020302E3230363220202020302E303030302043202020302020302020302020302020302020302020302020302020302020302020302020300A2020202D332E3537323420202020312E3033313220202020302E303030302043202020302020302020302020302020302020302020302020302020302020302020302020300A2020202D322E3835373920202020312E3434333820202020302E303030302043202020302020302020302020302020302020302020302020302020302020302020302020300A2020202D322E3134333420202020312E3033313320202020302E303030302043202020302020302020302020302020302020302020302020302020302020302020302020300A2020312020322020312020302020202020200A2020322020332020312020302020202020200A2020332020342020322020302020202020200A2020342020352020312020302020202020200A2020352020362020322020302020202020200A2020362020372020312020302020202020200A2020322020372020322020302020202020200A2020312020382020322020302020202020200A2020312020392020312020302020202020200A2031302031312020322020302020202020200A2031312031322020322020302020202020200A2020352031302020312020302020202020200A2031332031342020312020302020202020200A2031342031352020312020302020202020200A2031352031362020312020302020202020200A2031362031372020312020302020202020200A2031372031382020312020302020202020200A2031332031382020312020302020202020200A2020392031332020312020302020202020200A4D202043484720203220203131202020312020313220202D310A4D2020454E44
Contributor: MASS SPECTROSCOPY SOC. OF JAPAN (MSSJ)
InstType: EI
InstName: HITACHI M-60
IoniMethod: _ENERGY 20 eV
IonPolarity: pos
Date: 2010-10-09 19:48:36+02:00
Num Peaks: 88
39 7 41 105 43 24 44 5 52 18 53 6 54 58 55 344 56 16 57 3 
63 35 64 52 65 22 66 3 67 72 68 12 69 13 71 3 78 12 79 172 
80 45 81 187 82 53 83 212 84 33 85 31 89 33 90 106 91 269 92 204 
93 73 94 10 95 3 99 44 100 2 104 2 105 11 106 40 107 225 108 31 
109 6 111 2 117 227 118 134 119 112 120 190 121 30 122 3 123 3 124 1 
129 1 130 6 131 1 132 9 133 3 134 4 135 999 136 105 137 332 138 38 
139 4 144 8 145 1 146 85 147 9 148 21 149 30 150 6 160 2 161 8 
162 7 163 16 164 13 172 5 174 23 175 3 176 4 188 20 189 12 190 2 
202 8 216 13 217 484 218 80 219 53 220 8 245 47 246 8 
