Name: MassBank: JP004857
MW: 208
Formula: C15H12O
Synonym: MassBank: JP004857
Synonym: 1-PHENYLBICYCLO(3.2.2)NONA-3,6,8-TRIEN-2-ONE
Structure: 312D5048454E594C42494359434C4F28332E322E32294E4F4E412D332C362C382D545249454E2D322D4F4E452E6D6F6C0A20204368656D447261773131323230393232323332440A2031362031382020302020302020302020302020302020302020302020303939392056323030300A20202020302E333933362020202D302E3039373120202020302E303030302043202020302020302020302020302020302020302020302020302020302020302020302020300A20202020302E3339333620202020302E3833303820202020302E303030302043202020302020302020302020302020302020302020302020302020302020302020302020300A20202020312E3230343720202020312E3239393120202020302E303030302043202020302020302020302020302020302020302020302020302020302020302020302020300A20202020322E3031363420202020302E3833303520202020302E303030302043202020302020302020302020302020302020302020302020302020302020302020302020300A20202020322E303136342020202D302E3039373120202020302E303030302043202020302020302020302020302020302020302020302020302020302020302020302020300A20202020312E3630383220202020302E3630393920202020302E303030302043202020302020302020302020302020302020302020302020302020302020302020302020300A20202020302E3739363420202020302E3630393920202020302E303030302043202020302020302020302020302020302020302020302020302020302020302020302020300A20202020302E383033372020202D302E3830373520202020302E303030302043202020302020302020302020302020302020302020302020302020302020302020302020300A20202020312E363231342020202D302E3830373520202020302E303030302043202020302020302020302020302020302020302020302020302020302020302020302020300A2020202D302E3331333720202020312E3233393220202020302E30303030204F202020302020302020302020302020302020302020302020302020302020302020302020300A2020202D302E343132312020202D302E3239393320202020302E303030302043202020302020302020302020302020302020302020302020302020302020302020302020300A2020202D302E363337302020202D312E3039363920202020302E303030302043202020302020302020302020302020302020302020302020302020302020302020302020300A2020202D312E343333302020202D312E3239393120202020302E303030302043202020302020302020302020302020302020302020302020302020302020302020302020300A2020202D322E303136342020202D302E3731353720202020302E303030302043202020302020302020302020302020302020302020302020302020302020302020302020300A2020202D312E3739313520202020302E3038313920202020302E303030302043202020302020302020302020302020302020302020302020302020302020302020302020300A2020202D302E3939353520202020302E3238343120202020302E303030302043202020302020302020302020302020302020302020302020302020302020302020302020300A2020312020322020312020302020202020200A2020322020332020312020302020202020200A2020332020342020322020302020202020200A2020342020352020312020302020202020200A2020352020362020312020302020202020200A2020362020372020322020302020202020200A2020382020392020322020302020202020200A2020312020372020312020302020202020200A2020312020382020312020302020202020200A2020352020392020312020302020202020200A2020322031302020322020302020202020200A2031312031322020312020302020202020200A2031322031332020322020302020202020200A2031332031342020312020302020202020200A2031342031352020322020302020202020200A2031352031362020312020302020202020200A2031312031362020322020302020202020200A2020312031312020312020302020202020200A4D2020454E44
Contributor: KATO T, DEPT. OF CHEM., FAC. OF SCI., TOHOKU UNIV.
InstType: EI
InstName: Unknown
IoniMethod: _ENERGY 14 eV
IonPolarity: pos
Date: 2010-10-09 19:48:36+02:00
Num Peaks: 17
131 633 132 52 155 22 165 11 166 42 167 48 168 17 179 65 180 904 181 122 
183 20 190 1 191 20 192 20 207 303 208 999 209 191 
