Name: 5-METHYL-5-PHENYL-3-HEXANONE
MW: 190
Formula: C13H18O
Synonym: MassBank: JP008625
Synonym: 5-METHYL-5-PHENYL-3-HEXANONE
Structure: 352D4D455448594C2D352D5048454E594C2D332D484558414E4F4E452E6D6F6C0A20204368656D447261773034323331303037323132440A2031342031342020302020302020302020302020302020302020302020303939392056323030300A20202020322E333039322020202D302E3936313220202020302E303030302043202020302020302020302020302020302020302020302020302020302020302020302020300A20202020312E343834322020202D302E3936313220202020302E303030302043202020302020302020302020302020302020302020302020302020302020302020302020300A20202020312E303731372020202D302E3234363720202020302E303030302043202020302020302020302020302020302020302020302020302020302020302020302020300A20202020302E323436372020202D302E3234363720202020302E303030302043202020302020302020302020302020302020302020302020302020302020302020302020300A2020202D302E3136353820202020302E3436373820202020302E303030302043202020302020302020302020302020302020302020302020302020302020302020302020300A20202020302E3534383720202020302E3838303320202020302E303030302043202020302020302020302020302020302020302020302020302020302020302020302020300A20202020312E3438343220202020302E3436373820202020302E30303030204F202020302020302020302020302020302020302020302020302020302020302020302020300A2020202D302E3838303320202020302E3035353320202020302E303030302043202020302020302020302020302020302020302020302020302020302020302020302020300A2020202D312E3539343720202020302E3436373820202020302E303030302043202020302020302020302020302020302020302020302020302020302020302020302020300A2020202D322E3330393220202020302E3035353320202020302E303030302043202020302020302020302020302020302020302020302020302020302020302020302020300A2020202D322E333039322020202D302E3736393720202020302E303030302043202020302020302020302020302020302020302020302020302020302020302020302020300A2020202D312E353934372020202D312E3138323220202020302E303030302043202020302020302020302020302020302020302020302020302020302020302020302020300A2020202D302E383830332020202D302E3736393720202020302E303030302043202020302020302020302020302020302020302020302020302020302020302020302020300A2020202D302E3537383320202020312E3138323220202020302E303030302043202020302020302020302020302020302020302020302020302020302020302020302020300A2020312020322020312020302020202020200A2020322020332020312020302020202020200A2020332020342020312020302020202020200A2020342020352020312020302020202020200A2020352020362020312020302020202020200A2020332020372020322020302020202020200A2020382020392020312020302020202020200A2020392031302020322020302020202020200A2031302031312020312020302020202020200A2031312031322020322020302020202020200A2031322031332020312020302020202020200A2020382031332020322020302020202020200A2020352020382020312020302020202020200A2020352031342020312020302020202020200A4D2020454E44
Contributor: SODA AROMATIC CO., LTD.
InstType: EI
InstName: HITACHI M-80B
IoniMethod: _ENERGY 70 eV
IonPolarity: pos
Date: 2010-10-09 19:48:36+02:00
Num Peaks: 30
27 78 29 219 39 62 41 110 42 18 50 12 51 52 52 10 53 11 55 26 
57 341 58 11 63 14 65 34 77 85 78 39 79 47 91 386 92 26 102 11 
103 61 104 10 105 22 115 44 117 52 118 176 119 999 120 97 190 123 191 14 
