Name: MassBank: JP000242
MW: 158
Formula: C6H10N2O3
Synonym: MassBank: JP000242
Synonym: 3-HYDROXYMETHYL-6-METHYL-2,5-PIPERAZINEDIONE
Synonym: CYCLO-ALANYL-SERINE
Structure: 332D485944524F58594D455448594C2D362D4D455448594C2D322C352D5049504552415A494E4544494F4E452E6D6F6C0A20204368656D447261773032323231303231333932440A2031312031312020302020302020302020302020302020302020302020303939392056323030300A20202020302E3335373220202020302E3832353020202020302E30303030204E202020302020302020302020302020302020302020302020302020302020302020302020300A2020202D302E3335373220202020302E3431323520202020302E303030302043202020302020302020302020302020302020302020302020302020302020302020302020300A2020202D302E333537322020202D302E3431323520202020302E303030302043202020302020302020302020302020302020302020302020302020302020302020302020300A20202020302E333537322020202D302E3832353020202020302E30303030204E202020302020302020302020302020302020302020302020302020302020302020302020300A20202020312E303731372020202D302E3431323520202020302E303030302043202020302020302020302020302020302020302020302020302020302020302020302020300A20202020312E3037313720202020302E3431323520202020302E303030302043202020302020302020302020302020302020302020302020302020302020302020302020300A2020202D312E3037313720202020302E3832353020202020302E30303030204F202020302020302020302020302020302020302020302020302020302020302020302020300A20202020312E373836322020202D302E3832353020202020302E30303030204F202020302020302020302020302020302020302020302020302020302020302020302020300A20202020312E3738363220202020302E3832353020202020302E303030302043202020302020302020302020302020302020302020302020302020302020302020302020300A2020202D312E303731372020202D302E3832353020202020302E303030302043202020302020302020302020302020302020302020302020302020302020302020302020300A2020202D312E373836322020202D302E3431323520202020302E30303030204F202020302020302020302020302020302020302020302020302020302020302020302020300A2020312020322020312020302020202020200A2020322020332020312020302020202020200A2020332020342020312020302020202020200A2020342020352020312020302020202020200A2020352020362020312020302020202020200A2020312020362020312020302020202020200A2020322020372020322020302020202020200A2020352020382020322020302020202020200A2020362020392020312020302020202020200A2031302031312020312020302020202020200A2020332031302020312020302020202020200A4D2020454E44
Contributor: YAMAMOTO M, DEP. CHEMISTRY, FAC. SCIENCE, NARA WOMEN'S UNIV.
InstType: EI
InstName: HITACHI RMU-6M
IoniMethod: _ENERGY 70 eV
IonPolarity: pos
Date: 2010-10-09 19:48:36+02:00
Num Peaks: 48
14 27 15 205 26 37 27 12 28 589 29 83 30 105 31 11 32 17 39 15 
40 49 41 11 42 340 43 115 44 999 45 3 54 18 55 60 56 66 57 6 
58 30 59 15 60 196 69 5 70 53 71 87 72 21 73 2 83 12 84 10 
85 85 86 1 87 26 97 64 98 16 99 16 100 21 111 13 112 28 113 16 
114 13 115 24 127 29 128 75 129 59 140 51 158 13 159 11 
