Name: 2-BIS(METHYLTHIO)METHYLFURAN
MW: 174
Formula: C7H10OS2
Synonym: MassBank: JP002493
Synonym: 2-BIS(METHYLTHIO)METHYLFURAN
Structure: 322D424953284D455448594C5448494F294D455448594C465552414E2E6D6F6C0A20204368656D447261773132323130393232353132440A2031302031302020302020302020302020302020302020302020302020303939392056323030300A2020202D302E363337382020202D312E3139313720202020302E303030302043202020302020302020302020302020302020302020302020302020302020302020302020300A2020202D302E343234332020202D302E3339343820202020302E303030302043202020302020302020302020302020302020302020302020302020302020302020302020300A2020202D312E3131363220202020302E3035343520202020302E30303030204F202020302020302020302020302020302020302020302020302020302020302020302020300A2020202D312E373537332020202D302E3436343720202020302E303030302043202020302020302020302020302020302020302020302020302020302020302020302020300A2020202D312E343631362020202D312E3233343920202020302E303030302043202020302020302020302020302020302020302020302020302020302020302020302020300A20202020302E333436302020202D302E3039393220202020302E303030302043202020302020302020302020302020302020302020302020302020302020302020302020300A20202020302E393837312020202D302E3631383320202020302E303030302053202020302020302020302020302020302020302020302020302020302020302020302020300A20202020302E3437353020202020302E3731353720202020302E303030302053202020302020302020302020302020302020302020302020302020302020302020302020300A2020202D302E3136363120202020312E3233343920202020302E303030302043202020302020302020302020302020302020302020302020302020302020302020302020300A20202020312E373537332020202D302E3332323720202020302E303030302043202020302020302020302020302020302020302020302020302020302020302020302020300A2020312020322020322020302020202020200A2020322020332020312020302020202020200A2020332020342020312020302020202020200A2020342020352020322020302020202020200A2020352020312020312020302020202020200A2020322020362020312020302020202020200A2020362020372020312020302020202020200A2020362020382020312020302020202020200A2020382020392020312020302020202020200A2020372031302020312020302020202020200A4D2020454E44
Contributor: MASS SPECTROSCOPY SOC. OF JAPAN (MSSJ)
InstType: EI
InstName: JEOL JMS-D-3000
IoniMethod: _ENERGY 15 eV
IonPolarity: pos
Date: 2010-10-09 19:48:36+02:00
Num Peaks: 15
28 11 45 16 46 11 47 23 48 29 65 40 79 16 94 37 95 27 96 52 
112 16 127 999 128 77 129 52 174 14 
