Name: MassBank: JP004479
MW: 218
Formula: C11H10N2O3
Synonym: MassBank: JP004479
Synonym: 6-METHYL-4-OXO-4H-PYRIDO(1,2-A)PYRIMIDINE-3-ACETIC ACID
Structure: 362D4D455448594C2D342D4F584F2D34482D50595249444F28312C322D4129505952494D4944494E452D332D41434554494320414349442E6D6F6C0A20204368656D447261773035313931303131353832440A2031362031372020302020302020302020302020302020302020302020303939392056323030300A20202020312E303731372020202D302E3832353020202020302E303030302043202020302020302020302020302020302020302020302020302020302020302020302020300A20202020302E333537322020202D312E3233373520202020302E30303030204E202020302020302020302020302020302020302020302020302020302020302020302020300A2020202D302E333537322020202D302E3832353020202020302E303030302043202020302020302020302020302020302020302020302020302020302020302020302020300A2020202D302E333537322020202D302E3030303020202020302E303030302043202020302020302020302020302020302020302020302020302020302020302020302020300A20202020302E3335373220202020302E3431323520202020302E303030302043202020302020302020302020302020302020302020302020302020302020302020302020300A20202020312E3037313720202020302E3030303020202020302E30303030204E202020302020302020302020302020302020302020302020302020302020302020302020300A20202020312E373836322020202D312E3233373520202020302E303030302043202020302020302020302020302020302020302020302020302020302020302020302020300A20202020322E353030362020202D302E3832353020202020302E303030302043202020302020302020302020302020302020302020302020302020302020302020302020300A20202020322E3530303620202020302E3030303020202020302E303030302043202020302020302020302020302020302020302020302020302020302020302020302020300A20202020312E3738363220202020302E3431323520202020302E303030302043202020302020302020302020302020302020302020302020302020302020302020302020300A2020202D312E373836322020202D302E3030303020202020302E303030302043202020302020302020302020302020302020302020302020302020302020302020302020300A2020202D312E3037313720202020302E3431323520202020302E303030302043202020302020302020302020302020302020302020302020302020302020302020302020300A2020202D312E373836322020202D302E3832353020202020302E30303030204F202020302020302020302020302020302020302020302020302020302020302020302020300A2020202D322E3530303620202020302E3431323520202020302E30303030204F202020302020302020302020302020302020302020302020302020302020302020302020300A20202020302E3335373220202020312E3233373520202020302E30303030204F202020302020302020302020302020302020302020302020302020302020302020302020300A20202020312E3738363220202020312E3233373520202020302E303030302043202020302020302020302020302020302020302020302020302020302020302020302020300A2020312020322020322020302020202020200A2020322020332020312020302020202020200A2020332020342020322020302020202020200A2020342020352020312020302020202020200A2020352020362020312020302020202020200A2020312020362020312020302020202020200A2020372020382020322020302020202020200A2020382020392020312020302020202020200A2020392031302020322020302020202020200A2020362031302020312020302020202020200A2020312020372020312020302020202020200A2031312031322020312020302020202020200A2031312031332020322020302020202020200A2031312031342020312020302020202020200A2020342031322020312020302020202020200A2020352031352020322020302020202020200A2031302031362020312020302020202020200A4D2020454E44
Contributor: SASAKI S, TOYOHASHI UNIV. OF TECH.
InstType: EI
InstName: MS-902
IoniMethod: _ENERGY 70 eV
IonPolarity: pos
Date: 2010-10-09 19:48:36+02:00
Num Peaks: 60
38 55 39 289 40 38 41 5 42 24 43 21 44 64 45 4 50 29 51 42 
52 55 53 4 54 31 55 148 57 24 60 2 63 45 64 76 65 414 66 11 
67 21 69 89 72 28 725 3 73 17 75 10 76 21 77 2 78 21 81 14 
91 83 92 86 93 241 94 21 95 17 116 1 117 36 118 33 119 124 120 2 
131 28 143 124 144 48 145 52 146 310 147 34 159 28 171 1 172 310 173 999 
174 517 175 6 176 8 189 24 200 72 201 1 217 14 218 621 219 141 220 14 
