Name: TRIS(PENTAFLUOROPHENYL)-PHOSPHINE OXIDE
MW: 547
Formula: C18F15OP
Synonym: MassBank: JP003804
Synonym: TRIS(PENTAFLUOROPHENYL)-PHOSPHINE OXIDE
Structure: 545249532850454E5441464C554F524F5048454E594C292D50484F535048494E45204F584944452E6D6F6C0A20204368656D447261773038313231303039313432440A2033352033372020302020302020302020302020302020302020302020303939392056323030300A20202020312E323132372020202D302E3338343420202020302E303030302050202020302020302020302020302020302020302020302020302020302020302020302020300A20202020312E333536302020202D312E3139363920202020302E303030302043202020302020302020302020302020302020302020302020302020302020302020302020300A20202020302E373234302020202D312E3732373220202020302E303030302043202020302020302020302020302020302020302020302020302020302020302020302020300A20202020302E383637322020202D322E3533393620202020302E303030302043202020302020302020302020302020302020302020302020302020302020302020302020300A20202020312E363432352020202D322E3832313820202020302E303030302043202020302020302020302020302020302020302020302020302020302020302020302020300A20202020322E323734352020202D322E3239313520202020302E303030302043202020302020302020302020302020302020302020302020302020302020302020302020300A20202020322E313331322020202D312E3437393020202020302E303030302043202020302020302020302020302020302020302020302020302020302020302020302020300A2020202D302E303531332020202D312E3434353020202020302E303030302046202020302020302020302020302020302020302020302020302020302020302020302020300A20202020302E323335332020202D332E3036393920202020302E303030302046202020302020302020302020302020302020302020302020302020302020302020302020300A20202020312E373835372020202D332E3633343320202020302E303030302046202020302020302020302020302020302020302020302020302020302020302020302020300A20202020332E303439372020202D322E3537333720202020302E303030302046202020302020302020302020302020302020302020302020302020302020302020302020300A20202020322E373633322020202D302E3934383720202020302E303030302046202020302020302020302020302020302020302020302020302020302020302020302020300A2020202D302E353734372020202D302E3639393620202020302E303030302043202020302020302020302020302020302020302020302020302020302020302020302020300A2020202D302E3938373220202020302E3031343920202020302E303030302043202020302020302020302020302020302020302020302020302020302020302020302020300A2020202D312E3831323220202020302E3031343920202020302E303030302043202020302020302020302020302020302020302020302020302020302020302020302020300A2020202D322E323234372020202D302E3639393620202020302E303030302043202020302020302020302020302020302020302020302020302020302020302020302020300A2020202D312E383132322020202D312E3431343120202020302E303030302043202020302020302020302020302020302020302020302020302020302020302020302020300A2020202D302E393837322020202D312E3431343120202020302E303030302043202020302020302020302020302020302020302020302020302020302020302020302020300A2020202D302E3537343720202020302E3732393420202020302E303030302046202020302020302020302020302020302020302020302020302020302020302020302020300A2020202D322E3232343720202020302E3732393420202020302E303030302046202020302020302020302020302020302020302020302020302020302020302020302020300A2020202D332E303439372020202D302E3639393620202020302E303030302046202020302020302020302020302020302020302020302020302020302020302020302020300A2020202D322E323234372020202D322E3132383520202020302E303030302046202020302020302020302020302020302020302020302020302020302020302020302020300A2020202D302E353734372020202D322E3132383520202020302E303030302046202020302020302020302020302020302020302020302020302020302020302020302020300A20202020302E3934303520202020312E3135393320202020302E303030302043202020302020302020302020302020302020302020302020302020302020302020302020300A20202020302E3232363020202020312E3537313820202020302E303030302043202020302020302020302020302020302020302020302020302020302020302020302020300A20202020302E3232363020202020322E3339363820202020302E303030302043202020302020302020302020302020302020302020302020302020302020302020302020300A20202020302E3934303520202020322E3830393320202020302E303030302043202020302020302020302020302020302020302020302020302020302020302020302020300A20202020312E3635353020202020322E3339363820202020302E303030302043202020302020302020302020302020302020302020302020302020302020302020302020300A20202020312E3635353020202020312E3537313820202020302E303030302043202020302020302020302020302020302020302020302020302020302020302020302020300A2020202D302E3534393220202020312E3238393620202020302E303030302046202020302020302020302020302020302020302020302020302020302020302020302020300A2020202D302E3438383420202020322E3830393320202020302E303030302046202020302020302020302020302020302020302020302020302020302020302020302020300A20202020302E3934303520202020332E3633343320202020302E303030302046202020302020302020302020302020302020302020302020302020302020302020302020300A20202020322E3336393520202020322E3830393320202020302E303030302046202020302020302020302020302020302020302020302020302020302020302020302020300A20202020322E3336393520202020312E3135393320202020302E303030302046202020302020302020302020302020302020302020302020302020302020302020302020300A20202020322E303235322020202D302E3234313220202020302E30303030204F202020302020302020302020302020302020302020302020302020302020302020302020300A2020322020332020312020302020202020200A2020332020342020322020302020202020200A2020342020352020312020302020202020200A2020352020362020322020302020202020200A2020362020372020312020302020202020200A2020322020372020322020302020202020200A2020332020382020312020302020202020200A2020342020392020312020302020202020200A2020352031302020312020302020202020200A2020362031312020312020302020202020200A2020372031322020312020302020202020200A2020312020322020312020302020202020200A2031332031342020312020302020202020200A2031342031352020322020302020202020200A2031352031362020312020302020202020200A2031362031372020322020302020202020200A2031372031382020312020302020202020200A2031332031382020322020302020202020200A2031342031392020312020302020202020200A2031352032302020312020302020202020200A2031362032312020312020302020202020200A2031372032322020312020302020202020200A2031382032332020312020302020202020200A2020312031332020312020302020202020200A2032342032352020312020302020202020200A2032352032362020322020302020202020200A2032362032372020312020302020202020200A2032372032382020322020302020202020200A2032382032392020312020302020202020200A2032342032392020322020302020202020200A2032352033302020312020302020202020200A2032362033312020312020302020202020200A2032372033322020312020302020202020200A2032382033332020312020302020202020200A2032392033342020312020302020202020200A2020312032342020312020302020202020200A2020312033352020322020302020202020200A4D2020454E44
Contributor: SASAKI S, TOYOHASHI UNIV. OF TECH.
InstType: EI
InstName: Unknown
IoniMethod: _ENERGY 70 eV
IonPolarity: pos
Date: 2010-10-09 19:48:36+02:00
Num Peaks: 50
47 142 69 451 74 21 79 5 86 38 93 241 98 112 105 3 110 58 117 999 
118 60 129 21 136 52 145 28 148 221 155 30 164 145 165 39 167 352 183 35 
184 27 196 38 198 14 205 2 214 25 215 52 217 215 227 12 234 60 245 73 
258 51 265 38 266 48 277 71 296 468 297 6 312 74 315 22 331 48 334 4 
346 10 362 15 365 920 366 1 381 78 400 15 529 21 532 1 548 365 549 70 
