Name: METHYLEUGENOL
MW: 178
Formula: C11H14O2
Synonym: MassBank: JP009443
Synonym: METHYLEUGENOL
Structure: 4D455448594C455547454E4F4C2E6D6F6C0A20204368656D447261773038313231303030353032440A2031332031332020302020302020302020302020302020302020302020303939392056323030300A2020202D322E343735302020202D312E3037313720202020302E303030302043202020302020302020302020302020302020302020302020302020302020302020302020300A2020202D322E303632352020202D302E3335373220202020302E30303030204F202020302020302020302020302020302020302020302020302020302020302020302020300A2020202D312E323337352020202D302E3335373220202020302E303030302043202020302020302020302020302020302020302020302020302020302020302020302020300A2020202D302E3832353020202020302E3335373220202020302E303030302043202020302020302020302020302020302020302020302020302020302020302020302020300A2020202D312E3233373520202020312E3037313720202020302E30303030204F202020302020302020302020302020302020302020302020302020302020302020302020300A2020202D322E3036323520202020312E3037313720202020302E303030302043202020302020302020302020302020302020302020302020302020302020302020302020300A2020202D302E3030303020202020302E3335373220202020302E303030302043202020302020302020302020302020302020302020302020302020302020302020302020300A20202020302E343132352020202D302E3335373220202020302E303030302043202020302020302020302020302020302020302020302020302020302020302020302020300A20202020312E323337352020202D302E3335373220202020302E303030302043202020302020302020302020302020302020302020302020302020302020302020302020300A20202020312E363530302020202D312E3037313720202020302E303030302043202020302020302020302020302020302020302020302020302020302020302020302020300A20202020322E343735302020202D312E3037313720202020302E303030302043202020302020302020302020302020302020302020302020302020302020302020302020300A20202020302E303030302020202D312E3037313720202020302E303030302043202020302020302020302020302020302020302020302020302020302020302020302020300A2020202D302E383235302020202D312E3037313720202020302E303030302043202020302020302020302020302020302020302020302020302020302020302020302020300A2020312020322020312020302020202020200A2020322020332020312020302020202020200A2020332020342020312020302020202020200A2020342020352020312020302020202020200A2020352020362020312020302020202020200A2020342020372020322020302020202020200A2020372020382020312020302020202020200A2020382020392020312020302020202020200A2020392031302020312020302020202020200A2031302031312020322020302020202020200A2020382031322020322020302020202020200A2031322031332020312020302020202020200A2020332031332020322020302020202020200A4D2020454E44
Contributor: EGUCHI S, FAC. OF SCIENCE, HIROSHIMA UNIV.
InstType: EI
InstName: HITACHI RMS-4
IoniMethod: _ENERGY 80 eV
IonPolarity: pos
Date: 2010-10-09 19:48:36+02:00
Num Peaks: 74
40 140 41 10 42 30 43 10 44 30 50 90 51 215 52 75 53 80 54 10 
55 70 57 40 62 65 63 155 64 60 65 235 66 60 67 35 68 20 74 40 
75 45 76 40 77 250 78 125 79 225 80 35 89 80 90 60 91 505 92 125 
93 30 94 20 95 45 101 10 102 40 103 390 104 90 105 195 106 60 107 275 
108 40 109 10 115 125 116 45 117 70 118 30 119 60 120 80 121 40 122 20 
123 15 131 80 132 45 133 45 134 15 135 180 136 25 145 10 146 40 147 320 
148 50 149 35 150 10 151 155 152 20 161 25 162 35 163 330 164 50 165 20 
166 30 177 45 178 999 179 125 
