Name: 3-ACETYL-9-ISOPENTYLCARBAZOLE
MW: 279
Formula: C19H21NO
Synonym: MassBank: JP006631
Synonym: 3-ACETYL-9-ISOPENTYLCARBAZOLE
Structure: 332D41434554594C2D392D49534F50454E54594C43415242415A4F4C452E6D6F6C0A20204368656D447261773032323231303133333732440A2032312032332020302020302020302020302020302020302020302020303939392056323030300A20202020302E343439392020202D302E3433353520202020302E30303030204E202020302020302020302020302020302020302020302020302020302020302020302020300A2020202D302E333537312020202D302E3630373020202020302E303030302043202020302020302020302020302020302020302020302020302020302020302020302020300A2020202D302E373639362020202D312E3332313520202020302E303030302043202020302020302020302020302020302020302020302020302020302020302020302020300A2020202D312E353934362020202D312E3332313520202020302E303030302043202020302020302020302020302020302020302020302020302020302020302020302020300A2020202D322E303037312020202D302E3630373020202020302E303030302043202020302020302020302020302020302020302020302020302020302020302020302020300A2020202D312E3539343620202020302E3130373420202020302E303030302043202020302020302020302020302020302020302020302020302020302020302020302020300A2020202D302E3736393620202020302E3130373420202020302E303030302043202020302020302020302020302020302020302020302020302020302020302020302020300A2020202D302E3231373520202020302E3732303520202020302E303030302043202020302020302020302020302020302020302020302020302020302020302020302020300A2020202D302E3330333820202020312E3534313020202020302E303030302043202020302020302020302020302020302020302020302020302020302020302020302020300A20202020302E3336333720202020322E3032353920202020302E303030302043202020302020302020302020302020302020302020302020302020302020302020302020300A20202020312E3131373420202020312E3639303420202020302E303030302043202020302020302020302020302020302020302020302020302020302020302020302020300A20202020312E3230333620202020302E3836393920202020302E303030302043202020302020302020302020302020302020302020302020302020302020302020302020300A20202020302E3533363120202020302E3338353020202020302E303030302043202020302020302020302020302020302020302020302020302020302020302020302020300A20202020312E303633302020202D302E3938373520202020302E303030302043202020302020302020302020302020302020302020302020302020302020302020302020300A20202020312E383333322020202D302E3639313920202020302E303030302043202020302020302020302020302020302020302020302020302020302020302020302020300A20202020322E343734342020202D312E3231313120202020302E303030302043202020302020302020302020302020302020302020302020302020302020302020302020300A20202020332E323434362020202D302E3931353420202020302E303030302043202020302020302020302020302020302020302020302020302020302020302020302020300A20202020322E333435332020202D322E3032353920202020302E303030302043202020302020302020302020302020302020302020302020302020302020302020302020300A2020202D322E383332312020202D302E3630373020202020302E303030302043202020302020302020302020302020302020302020302020302020302020302020302020300A2020202D332E323434362020202D312E3332313520202020302E30303030204F202020302020302020302020302020302020302020302020302020302020302020302020300A2020202D332E3234343620202020302E3130373420202020302E303030302043202020302020302020302020302020302020302020302020302020302020302020302020300A2020312020322020312020302020202020200A2020322020332020312020302020202020200A2020332020342020322020302020202020200A2020342020352020312020302020202020200A2020352020362020322020302020202020200A2020362020372020312020302020202020200A2020322020372020322020302020202020200A2020372020382020312020302020202020200A2020382020392020312020302020202020200A2020392031302020322020302020202020200A2031302031312020312020302020202020200A2031312031322020322020302020202020200A2031322031332020312020302020202020200A2020382031332020322020302020202020200A2020312031332020312020302020202020200A2031342031352020312020302020202020200A2031352031362020312020302020202020200A2031362031372020312020302020202020200A2031362031382020312020302020202020200A2020312031342020312020302020202020200A2031392032302020322020302020202020200A2031392032312020312020302020202020200A2020352031392020312020302020202020200A4D2020454E44
Contributor: SASAKI S, TOYOHASHI UNIV. OF TECH.
InstType: EI
InstName: MX-1303
IoniMethod: _ENERGY 50 eV
IonPolarity: pos
Date: 2010-10-09 19:48:36+02:00
Num Peaks: 18
41 27 43 103 55 11 57 1 69 14 152 10 165 14 166 2 178 34 179 202 
180 72 194 2 222 999 223 157 264 185 265 2 279 509 280 69 
