Name: 3-ACETYL-1-METHYL-6-NITROINDOLE
MW: 218
Formula: C11H10N2O3
Synonym: MassBank: JP000450
Synonym: 3-ACETYL-1-METHYL-6-NITROINDOLE
Structure: 332D41434554594C2D312D4D455448594C2D362D4E4954524F494E444F4C452E6D6F6C0A20204368656D447261773032323231303133333332440A2031362031372020302020302020302020302020302020302020302020303939392056323030300A2020202D302E343734382020202D302E3834393020202020302E30303030204E202020302020302020302020302020302020302020302020302020302020302020302020300A2020202D312E323238352020202D302E3531333420202020302E303030302043202020302020302020302020302020302020302020302020302020302020302020302020300A2020202D312E3134323220202020302E3330373020202020302E303030302043202020302020302020302020302020302020302020302020302020302020302020302020300A2020202D302E3333353320202020302E3437383620202020302E303030302043202020302020302020302020302020302020302020302020302020302020302020302020300A20202020302E3037373220202020312E3139333020202020302E303030302043202020302020302020302020302020302020302020302020302020302020302020302020300A20202020302E3930323220202020312E3139333020202020302E303030302043202020302020302020302020302020302020302020302020302020302020302020302020300A20202020312E3331343720202020302E3437383620202020302E303030302043202020302020302020302020302020302020302020302020302020302020302020302020300A20202020302E393032322020202D302E3233353920202020302E303030302043202020302020302020302020302020302020302020302020302020302020302020302020300A20202020302E303737322020202D302E3233353920202020302E303030302043202020302020302020302020302020302020302020302020302020302020302020302020300A20202020322E3133393720202020302E3437383620202020302E30303030204E202020302020332020302020302020302020302020302020302020302020302020302020300A20202020322E3535323220202020312E3139333020202020302E30303030204F202020302020302020302020302020302020302020302020302020302020302020302020300A20202020322E353532322020202D302E3233353920202020302E30303030204F202020302020352020302020302020302020302020302020302020302020302020302020300A2020202D302E333033332020202D312E3635363020202020302E303030302043202020302020302020302020302020302020302020302020302020302020302020302020300A2020202D312E3735353320202020302E3835393120202020302E303030302043202020302020302020302020302020302020302020302020302020302020302020302020300A2020202D322E3535323220202020302E3634353620202020302E30303030204F202020302020302020302020302020302020302020302020302020302020302020302020300A2020202D312E3534313820202020312E3635363020202020302E303030302043202020302020302020302020302020302020302020302020302020302020302020302020300A2020312020322020312020302020202020200A2020322020332020322020302020202020200A2020332020342020312020302020202020200A2020342020352020312020302020202020200A2020352020362020322020302020202020200A2020362020372020312020302020202020200A2020372020382020322020302020202020200A2020382020392020312020302020202020200A2020312020392020312020302020202020200A2020342020392020322020302020202020200A2031302031312020322020302020202020200A2031302031322020312020302020202020200A2020372031302020312020302020202020200A2020312031332020312020302020202020200A2031342031352020322020302020202020200A2031342031362020312020302020202020200A2020332031342020312020302020202020200A4D202043484720203220203130202020312020313220202D310A4D2020454E44
Contributor: SASAKI S, TOYOHASHI UNIV. OF TECH.
InstType: EI
InstName: MX-1303
IoniMethod: _ENERGY 50 eV
IonPolarity: pos
Date: 2010-10-09 19:48:36+02:00
Num Peaks: 59
41 108 42 45 43 310 44 4 51 23 54 13 55 150 56 4 57 180 60 45 
61 12 62 1 63 17 67 32 68 18 69 12 70 25 71 68 73 52 75 2 
76 20 77 43 78 10 79 2 81 38 82 27 83 67 84 3 85 33 87 28 
88 13 89 1 90 10 95 25 96 23 97 5 98 20 101 23 102 73 103 3 
109 13 114 20 115 22 116 1 123 10 127 10 128 42 129 4 130 10 143 15 
145 37 157 77 158 97 172 12 173 22 203 999 204 63 218 387 219 38 
