Name: ALLOBARBITAL                           REG#      -  -
MW: 208
Formula: C10H12N2O3
Synonym: MassBank: JP003098
Synonym: ALLOBARBITAL                           REG#      -  -
Structure: 414C4C4F424152424954414C202020202020202020202020202020202020202020202020202020524547232020202020202D20202D2E6D6F6C0A20204368656D447261773038303631303033353832440A2031352031352020302020302020302020302020302020302020302020303939392056323030300A2020202D302E3034303520202020302E3832353020202020302E303030302043202020302020302020302020302020302020302020302020302020302020302020302020300A2020202D302E3034303520202020302E3030303020202020302E303030302043202020302020302020302020302020302020302020302020302020302020302020302020300A20202020302E363734302020202D302E3431323520202020302E303030302043202020302020302020302020302020302020302020302020302020302020302020302020300A20202020312E3338383520202020302E3030303020202020302E30303030204E202020302020302020302020302020302020302020302020302020302020302020302020300A20202020312E3338383520202020302E3832353020202020302E303030302043202020302020302020302020302020302020302020302020302020302020302020302020300A20202020302E3637343020202020312E3233373520202020302E30303030204E202020302020302020302020302020302020302020302020302020302020302020302020300A20202020322E3130333020202020312E3233373520202020302E30303030204F202020302020302020302020302020302020302020302020302020302020302020302020300A2020202D302E3735343920202020312E3233373520202020302E30303030204F202020302020302020302020302020302020302020302020302020302020302020302020300A20202020302E363734302020202D312E3233373520202020302E30303030204F202020302020302020302020302020302020302020302020302020302020302020302020300A2020202D302E303430352020202D302E3832353020202020302E303030302043202020302020302020302020302020302020302020302020302020302020302020302020300A2020202D302E3836353520202020302E3030303020202020302E303030302043202020302020302020302020302020302020302020302020302020302020302020302020300A2020202D312E3237383020202020302E3731343520202020302E303030302043202020302020302020302020302020302020302020302020302020302020302020302020300A2020202D322E3130333020202020302E3731343520202020302E303030302043202020302020302020302020302020302020302020302020302020302020302020302020300A2020202D302E373534392020202D312E3233373520202020302E303030302043202020302020302020302020302020302020302020302020302020302020302020302020300A2020202D312E343639342020202D302E3832353020202020302E303030302043202020302020302020302020302020302020302020302020302020302020302020302020300A2020312020322020312020302020202020200A2020322020332020312020302020202020200A2020332020342020312020302020202020200A2020342020352020312020302020202020200A2020352020362020312020302020202020200A2020362020312020312020302020202020200A2020352020372020322020302020202020200A2020312020382020322020302020202020200A2020332020392020322020302020202020200A2020322031302020312020302020202020200A2020322031312020312020302020202020200A2031312031322020312020302020202020200A2031322031332020322020302020202020200A2031302031342020312020302020202020200A2031342031352020322020302020202020200A4D2020454E44
Contributor: SASAKI S, TOYOHASHI UNIV. OF TECH.
InstType: EI
InstName: Unknown
IoniMethod: EI
IonPolarity: pos
Date: 2010-10-09 19:48:36+02:00
Num Peaks: 121
26 60 27 285 28 450 29 4 30 17 31 5 32 480 36 3 37 23 38 48 
39 454 40 10 41 896 42 89 43 180 44 16 45 12 46 2 49 10 50 6 
51 120 52 150 53 340 54 1 55 57 56 40 57 20 61 0 62 15 63 34 
64 19 65 9 66 76 67 138 68 271 69 4 70 86 71 10 75 10 76 0 
77 121 78 96 79 157 80 59 81 134 82 39 83 30 84 1 85 10 89 10 
90 6 91 9 92 45 93 52 94 48 95 5 96 141 97 81 98 93 99 2 
100 3 103 10 104 17 105 2 106 190 107 47 108 30 109 0 110 14 111 10 
112 4 117 1 118 13 119 14 120 38 121 0 122 74 123 56 124 685 125 1 
126 13 129 12 134 3 135 0 136 42 137 30 138 20 139 1 140 6 141 215 
142 30 143 1 147 10 148 20 149 20 150 5 151 50 152 40 153 41 154 1 
155 10 163 10 164 14 165 2 166 410 167 999 168 115 169 2 179 140 180 80 
181 20 182 0 190 80 191 10 192 30 193 2 194 20 207 10 208 132 209 2 
210 6 
