Name: DILAURYL THIODIPROPIONATE
MW: 514
Formula: C30H58O4S
Synonym: MassBank: JP008418
Synonym: DILAURYL THIODIPROPIONATE
Synonym: DIDODECYL 4-THIAHEPTANEDIOATE
Structure: 44494C415552594C205448494F444950524F50494F4E4154452E6D6F6C0A20204368656D447261773039323131303139303032440A2033352033342020302020302020302020302020302020302020302020303939392056323030300A2020202D332E3731323520202020312E3738363220202020302E303030302053202020302020302020302020302020302020302020302020302020302020302020302020300A2020202D332E3330303020202020332E3932393620202020302E303030302043202020302020302020302020302020302020302020302020302020302020302020302020300A2020202D332E3731323520202020332E3231353120202020302E303030302043202020302020302020302020302020302020302020302020302020302020302020302020300A2020202D332E3330303020202020322E3530303620202020302E303030302043202020302020302020302020302020302020302020302020302020302020302020302020300A2020202D322E3437353020202020332E3932393620202020302E30303030204F202020302020302020302020302020302020302020302020302020302020302020302020300A2020202D332E3731323520202020342E3634343120202020302E30303030204F202020302020302020302020302020302020302020302020302020302020302020302020300A2020202D332E333030302020202D302E3335373220202020302E303030302043202020302020302020302020302020302020302020302020302020302020302020302020300A2020202D332E3731323520202020302E3335373220202020302E303030302043202020302020302020302020302020302020302020302020302020302020302020302020300A2020202D332E3330303020202020312E3037313720202020302E303030302043202020302020302020302020302020302020302020302020302020302020302020302020300A2020202D332E373132352020202D312E3037313720202020302E30303030204F202020302020302020302020302020302020302020302020302020302020302020302020300A2020202D322E343735302020202D302E3335373220202020302E30303030204F202020302020302020302020302020302020302020302020302020302020302020302020300A2020202D332E3330303020202020352E3335383520202020302E303030302043202020302020302020302020302020302020302020302020302020302020302020302020300A2020202D322E3437353020202020352E3335383520202020302E303030302043202020302020302020302020302020302020302020302020302020302020302020302020300A2020202D322E3036323520202020362E3037333020202020302E303030302043202020302020302020302020302020302020302020302020302020302020302020302020300A2020202D312E3233373520202020362E3037333020202020302E303030302043202020302020302020302020302020302020302020302020302020302020302020302020300A2020202D302E3832353020202020362E3738373520202020302E303030302043202020302020302020302020302020302020302020302020302020302020302020302020300A20202020302E3030303020202020362E3738373520202020302E303030302043202020302020302020302020302020302020302020302020302020302020302020302020300A20202020302E3431323520202020372E3530313920202020302E303030302043202020302020302020302020302020302020302020302020302020302020302020302020300A20202020312E3233373520202020372E3530313920202020302E303030302043202020302020302020302020302020302020302020302020302020302020302020302020300A20202020312E3635303020202020382E3231363420202020302E303030302043202020302020302020302020302020302020302020302020302020302020302020302020300A20202020322E3437353020202020382E3231363420202020302E303030302043202020302020302020302020302020302020302020302020302020302020302020302020300A20202020322E3838373520202020382E3933303920202020302E303030302043202020302020302020302020302020302020302020302020302020302020302020302020300A20202020332E3731323520202020382E3933303920202020302E303030302043202020302020302020302020302020302020302020302020302020302020302020302020300A2020202D322E303632352020202D312E3037313720202020302E303030302043202020302020302020302020302020302020302020302020302020302020302020302020300A2020202D322E343735302020202D312E3738363220202020302E303030302043202020302020302020302020302020302020302020302020302020302020302020302020300A2020202D322E303632352020202D322E3530303620202020302E303030302043202020302020302020302020302020302020302020302020302020302020302020302020300A2020202D322E343735302020202D332E3231353120202020302E303030302043202020302020302020302020302020302020302020302020302020302020302020302020300A2020202D322E303632352020202D332E3932393620202020302E303030302043202020302020302020302020302020302020302020302020302020302020302020302020300A2020202D322E343735302020202D342E3634343120202020302E303030302043202020302020302020302020302020302020302020302020302020302020302020302020300A2020202D322E303632352020202D352E3335383520202020302E303030302043202020302020302020302020302020302020302020302020302020302020302020302020300A2020202D322E343735302020202D362E3037333020202020302E303030302043202020302020302020302020302020302020302020302020302020302020302020302020300A2020202D322E303632352020202D362E3738373520202020302E303030302043202020302020302020302020302020302020302020302020302020302020302020302020300A2020202D322E343735302020202D372E3530313920202020302E303030302043202020302020302020302020302020302020302020302020302020302020302020302020300A2020202D322E303632352020202D382E3231363420202020302E303030302043202020302020302020302020302020302020302020302020302020302020302020302020300A2020202D322E343735302020202D382E3933303920202020302E303030302043202020302020302020302020302020302020302020302020302020302020302020302020300A2020322020332020312020302020202020200A2020332020342020312020302020202020200A2020322020352020322020302020202020200A2020322020362020312020302020202020200A2020312020342020312020302020202020200A2020372020382020312020302020202020200A2020382020392020312020302020202020200A2020372031302020322020302020202020200A2020372031312020312020302020202020200A2020312020392020312020302020202020200A2031322031332020312020302020202020200A2031332031342020312020302020202020200A2031342031352020312020302020202020200A2031352031362020312020302020202020200A2031362031372020312020302020202020200A2031372031382020312020302020202020200A2031382031392020312020302020202020200A2031392032302020312020302020202020200A2032302032312020312020302020202020200A2032312032322020312020302020202020200A2032322032332020312020302020202020200A2020362031322020312020302020202020200A2032342032352020312020302020202020200A2032352032362020312020302020202020200A2032362032372020312020302020202020200A2032372032382020312020302020202020200A2032382032392020312020302020202020200A2032392033302020312020302020202020200A2033302033312020312020302020202020200A2033312033322020312020302020202020200A2033322033332020312020302020202020200A2033332033342020312020302020202020200A2033342033352020312020302020202020200A2031312032342020312020302020202020200A4D2020454E44
Contributor: UBE SCIENTIFIC ANALYSIS LABORATORY
InstType: EI
InstName: HITACHI M-60
IoniMethod: _ENERGY 70 eV
IonPolarity: pos
Date: 2010-10-09 19:48:36+02:00
Num Peaks: 81
27 64 28 72 29 196 41 406 42 76 43 899 54 21 55 999 56 156 57 716 
60 23 61 27 67 38 68 52 69 311 70 90 71 333 73 127 74 50 75 19 
81 48 82 78 83 188 84 56 85 168 87 38 88 39 89 244 95 34 96 42 
97 109 98 35 99 35 105 148 106 70 107 44 109 17 110 12 111 52 112 11 
113 27 114 87 115 40 117 11 119 64 125 11 127 22 132 250 133 59 134 36 
142 105 143 380 144 39 145 19 159 47 160 56 161 284 162 13 166 40 168 23 
169 11 178 398 179 99 180 23 201 18 213 14 223 14 241 32 273 47 274 29 
300 20 327 17 328 33 329 120 330 24 346 167 347 60 348 11 514 138 515 47 
516 12 
