Name: METHYLHYDRAZONE ISOBUTYRALDEHYDE
MW: 100
Formula: C5H12N2
Synonym: MassBank: JP000523
Synonym: METHYLHYDRAZONE ISOBUTYRALDEHYDE
Synonym: ISOBUTYRALDEHYDE METHYLHYDRAZONE
Structure: 310A31380A303134335F4D455448594C48594452415A4F4E452049534F4255545952414C4445485944452E6D6F6C0A20204368656D447261773039303331303138313632440A2020372020362020302020302020302020302020302020302020302020303939392056323030300A2020202D312E3635303020202020302E3335373220202020302E303030302043202020302020302020302020302020302020302020302020302020302020302020302020300A2020202D302E3832353020202020302E3335373220202020302E303030302043202020302020302020302020302020302020302020302020302020302020302020302020300A2020202D302E343132352020202D302E3335373220202020302E303030302043202020302020302020302020302020302020302020302020302020302020302020302020300A2020202D302E3431323520202020312E3037313720202020302E303030302043202020302020302020302020302020302020302020302020302020302020302020302020300A20202020302E343132352020202D302E3335373220202020302E30303030204E202020302020302020302020302020302020302020302020302020302020302020302020300A20202020302E383235302020202D312E3037313720202020302E30303030204E202020302020302020302020302020302020302020302020302020302020302020302020300A20202020312E363530302020202D312E3037313720202020302E303030302043202020302020302020302020302020302020302020302020302020302020302020302020300A2020312020322020312020302020202020200A2020322020332020312020302020202020200A2020322020342020312020302020202020200A2020352020362020312020302020202020200A2020362020372020312020302020202020200A2020332020352020322020302020202020200A4D2020454E44
Contributor: SASAKI S, TOYOHASHI UNIV. OF TECH.
InstType: EI
InstName: SHIMADZU LKB-2091
IoniMethod: _ENERGY 70 eV
IonPolarity: pos
Date: 2010-10-09 19:48:36+02:00
Num Peaks: 36
26 40 27 250 28 616 29 38 30 977 31 108 32 329 37 1 38 27 39 235 
40 42 41 54 42 409 43 365 44 326 45 15 51 14 52 20 53 24 54 8 
55 64 56 299 57 696 58 20 59 17 68 57 69 56 70 13 71 124 72 99 
83 11 85 75 86 42 99 30 100 999 101 123 
