Name: ISOPULEGYL ACETATE(AXIAL)
MW: 196
Formula: C12H20O2
Synonym: MassBank: JP006015
Synonym: ISOPULEGYL ACETATE(AXIAL)
Structure: 310A350A49534F50554C4547594C204143455441544528415849414C292E6D6F6C0A20204368656D447261773038313131303231353432440A2020302020302020302020302020302020302020302020302020302020303939392056323030300A4D2020454E44
Contributor: YAMAMOTO M, DEP. CHEMISTRY, FAC. SCIENCE, NARA WOMEN'S UNIV.
InstType: EI
InstName: HITACHI RMU-6M
IoniMethod: _ENERGY 20 eV
IonPolarity: pos
Date: 2010-10-09 19:48:36+02:00
Num Peaks: 83
28 13 29 4 32 3 41 27 42 24 43 915 44 20 53 4 54 4 55 64 
56 21 57 17 58 7 59 11 60 2 61 7 66 2 67 51 68 117 69 148 
70 19 71 62 72 11 77 4 78 5 79 85 80 149 81 374 82 61 83 38 
84 64 85 46 86 5 91 7 92 118 93 445 94 293 95 145 96 29 97 77 
98 40 99 12 101 33 105 7 106 7 107 359 108 162 109 168 110 50 111 58 
112 42 113 9 114 3 115 2 119 7 120 29 121 516 122 58 123 29 124 5 
125 10 126 4 127 3 134 15 135 70 136 999 137 125 138 56 139 60 140 7 
141 4 145 19 149 5 150 2 151 3 152 12 153 16 154 38 155 4 160 7 
163 18 196 65 197 9 
