Name: ALLYL CYANIDE
CAS: 109-75-1
MW: 67
Formula: C4H5N
Synonym: MassBank: JP007367
Synonym: ALLYL CYANIDE
Synonym: 3-BUTENENITRILE
Structure: 310A31340A414C4C594C204359414E4944452E6D6F6C0A20204368656D447261773032323231303134343132440A2020352020342020302020302020302020302020302020302020302020303939392056323030300A20202020302E323036322020202D302E3335373220202020302E303030302043202020302020302020302020302020302020302020302020302020302020302020302020300A20202020302E3631383820202020302E3335373220202020302E303030302043202020302020302020302020302020302020302020302020302020302020302020302020300A20202020312E3434333820202020302E3335373220202020302E303030302043202020302020302020302020302020302020302020302020302020302020302020302020300A2020202D302E363138382020202D302E3335373220202020302E303030302043202020302020302020302020302020302020302020302020302020302020302020302020300A2020202D312E343433382020202D302E3335373220202020302E30303030204E202020302020302020302020302020302020302020302020302020302020302020302020300A2020312020322020312020302020202020200A2020322020332020322020302020202020200A2020342020352020332020302020202020200A2020312020342020312020302020202020200A4D2020454E44
Contributor: YAMAMOTO M, DEP. CHEMISTRY, FAC. SCIENCE, NARA WOMEN'S UNIV.
InstType: EI
InstName: HITACHI RMU-6M
IoniMethod: _ENERGY 70 eV
IonPolarity: pos
Date: 2010-10-09 19:48:36+02:00
Num Peaks: 24
14 11 15 17 25 14 26 56 27 238 28 52 32.5 16 36 15 37 104 38 136 
39 365 40 198 41 999 42 28 50 14 51 23 53 75 62 13 63 29 64 71 
65 20 66 130 67 440 68 23 
