Name: N-TERT-BUTYLANILINE
MW: 149
Formula: C10H15N
Synonym: MassBank: JP001371
Synonym: N-TERT-BUTYLANILINE
Structure: 4E2D544552542D425554594C414E494C494E452E6D6F6C0A20204368656D447261773038313231303032323632440A2031312031312020302020302020302020302020302020302020302020303939392056323030300A2020202D302E333537322020202D302E3637343020202020302E30303030204E202020302020302020302020302020302020302020302020302020302020302020302020300A20202020302E333537322020202D302E3236313520202020302E303030302043202020302020302020302020302020302020302020302020302020302020302020302020300A20202020302E3335373220202020302E3536333520202020302E303030302043202020302020302020302020302020302020302020302020302020302020302020302020300A20202020312E3037313720202020302E3937363020202020302E303030302043202020302020302020302020302020302020302020302020302020302020302020302020300A20202020312E3738363220202020302E3536333520202020302E303030302043202020302020302020302020302020302020302020302020302020302020302020302020300A20202020312E373836322020202D302E3236313520202020302E303030302043202020302020302020302020302020302020302020302020302020302020302020302020300A20202020312E303731372020202D302E3637343020202020302E303030302043202020302020302020302020302020302020302020302020302020302020302020302020300A2020202D312E303731372020202D302E3236313520202020302E303030302043202020302020302020302020302020302020302020302020302020302020302020302020300A2020202D312E343834322020202D302E3937363020202020302E303030302043202020302020302020302020302020302020302020302020302020302020302020302020300A2020202D312E3738363220202020302E3135313020202020302E303030302043202020302020302020302020302020302020302020302020302020302020302020302020300A2020202D302E3635393220202020302E3435333020202020302E303030302043202020302020302020302020302020302020302020302020302020302020302020302020300A2020312020322020312020302020202020200A2020322020332020312020302020202020200A2020332020342020322020302020202020200A2020342020352020312020302020202020200A2020352020362020322020302020202020200A2020362020372020312020302020202020200A2020322020372020322020302020202020200A2020382020392020312020302020202020200A2020382031312020312020302020202020200A2020382031302020312020302020202020200A2020312020382020312020302020202020200A4D2020454E44
Contributor: MASS SPECTROSCOPY SOC. OF JAPAN (MSSJ)
InstType: EI
InstName: JEOL JMS-D-3000
IoniMethod: _ENERGY 70 eV
IonPolarity: pos
Date: 2010-10-09 19:48:36+02:00
Num Peaks: 37
42 69 46 12 50 31 51 110 52 35 53 29 54 20 55 42 56 115 57 110 
58 12 60 23 63 26 64 21 65 129 66 184 67 53 76 12 77 141 78 23 
79 13 91 40 92 64 93 999 94 116 106 23 115 16 117 28 118 68 119 18 
132 24 133 19 134 844 135 92 148 13 149 230 150 29 
