Name: MassBank: JP004781
MW: 271
Formula: C14H33NSi2
Synonym: MassBank: JP004781
Synonym: 1-OCTYL-2,2,5,5-TETRAMETHYL-2,5-DISILAPYRROLIDINE
Structure: 312D4F4354594C2D322C322C352C352D54455452414D455448594C2D322C352D444953494C41505952524F4C4944494E452E6D6F6C0A20204368656D447261773131323230393231333932440A2031372031372020302020302020302020302020302020302020302020303939392056323030300A2020202D322E3134373320202020302E3239353520202020302E30303030204E202020302020302020302020302020302020302020302020302020302020302020302020300A2020202D322E3930313020202020302E3633313020202020302E303030302053692020302020302020302020302020302020302020302020302020302020302020302020300A2020202D332E3435333020202020302E3031373920202020302E303030302043202020302020302020302020302020302020302020302020302020302020302020302020300A2020202D332E303430352020202D302E3639363520202020302E303030302043202020302020302020302020302020302020302020302020302020302020302020302020300A2020202D322E323333362020202D302E3532353020202020302E303030302053692020302020302020302020302020302020302020302020302020302020302020302020300A2020202D312E343038362020202D302E3532353020202020302E303030302043202020302020302020302020302020302020302020302020302020302020302020302020300A2020202D322E313437332020202D312E3334353520202020302E303030302043202020302020302020302020302020302020302020302020302020302020302020302020300A2020202D322E3438383520202020312E3334353520202020302E303030302043202020302020302020302020302020302020302020302020302020302020302020302020300A2020202D332E3536383420202020312E3131353920202020302E303030302043202020302020302020302020302020302020302020302020302020302020302020302020300A2020202D312E3433323920202020302E3730383020202020302E303030302043202020302020302020302020302020302020302020302020302020302020302020302020300A2020202D302E3731383420202020302E3239353520202020302E303030302043202020302020302020302020302020302020302020302020302020302020302020302020300A2020202D302E3030333920202020302E3730383020202020302E303030302043202020302020302020302020302020302020302020302020302020302020302020302020300A20202020302E3731303620202020302E3239353520202020302E303030302043202020302020302020302020302020302020302020302020302020302020302020302020300A20202020312E3432353020202020302E3730383020202020302E303030302043202020302020302020302020302020302020302020302020302020302020302020302020300A20202020322E3133393520202020302E3239353520202020302E303030302043202020302020302020302020302020302020302020302020302020302020302020302020300A20202020322E3835343020202020302E3730383020202020302E303030302043202020302020302020302020302020302020302020302020302020302020302020302020300A20202020332E3536383420202020302E3239353520202020302E303030302043202020302020302020302020302020302020302020302020302020302020302020302020300A2020312020322020312020302020202020200A2020322020332020312020302020202020200A2020332020342020312020302020202020200A2020342020352020312020302020202020200A2020312020352020312020302020202020200A2020352020362020312020362020202020200A2020352020372020312020312020202020200A2020322020382020312020312020202020200A2020322020392020312020362020202020200A2031302031312020312020302020202020200A2031312031322020312020302020202020200A2031322031332020312020302020202020200A2031332031342020312020302020202020200A2031342031352020312020302020202020200A2031352031362020312020302020202020200A2031362031372020312020302020202020200A2020312031302020312020302020202020200A4D2020454E44
Contributor: MASS SPECTROSCOPY SOC. OF JAPAN (MSSJ)
InstType: EI
InstName: JEOL JMS-D-3000
IoniMethod: _ENERGY 70 eV
IonPolarity: pos
Date: 2010-10-09 19:48:36+02:00
Num Peaks: 19
41 17 43 12 45 12 59 93 73 87 86 12 100 17 116 16 117 21 130 12 
144 11 158 13 172 999 173 185 174 83 198 25 256 46 257 12 271 15 
