Name: MassBank: JP008298
MW: 194
Formula: C10H10O4
Synonym: MassBank: JP008298
Synonym: 2,4-DIFORMYL-6-ETHOXYPHENOL
Structure: 322C342D4449464F524D594C2D362D4554484F58595048454E4F4C2E6D6F6C0A20204368656D447261773132323030393138353732440A2031342031342020302020302020302020302020302020302020302020303939392056323030300A20202020302E3230363220202020302E3731343520202020302E303030302043202020302020302020302020302020302020302020302020302020302020302020302020300A20202020312E3033313220202020302E3731343520202020302E303030302043202020302020302020302020302020302020302020302020302020302020302020302020300A20202020312E343433382020202D302E3030303020202020302E303030302043202020302020302020302020302020302020302020302020302020302020302020302020300A20202020312E303331332020202D302E3731343520202020302E303030302043202020302020302020302020302020302020302020302020302020302020302020302020300A20202020302E323036332020202D302E3731343520202020302E303030302043202020302020302020302020302020302020302020302020302020302020302020302020300A2020202D302E3230363320202020302E3030303020202020302E303030302043202020302020302020302020302020302020302020302020302020302020302020302020300A2020202D312E3033313320202020302E3030303020202020302E30303030204F202020302020302020302020302020302020302020302020302020302020302020302020300A2020202D312E343433382020202D302E3731343520202020302E303030302043202020302020302020302020302020302020302020302020302020302020302020302020300A2020202D322E323638382020202D302E3731343520202020302E303030302043202020302020302020302020302020302020302020302020302020302020302020302020300A20202020312E343433382020202D312E3432383920202020302E303030302043202020302020302020302020302020302020302020302020302020302020302020302020300A20202020322E323638382020202D312E3432383920202020302E30303030204F202020302020302020302020302020302020302020302020302020302020302020302020300A20202020312E3434333820202020312E3432383920202020302E303030302043202020302020302020302020302020302020302020302020302020302020302020302020300A20202020322E3236383720202020312E3432383920202020302E30303030204F202020302020302020302020302020302020302020302020302020302020302020302020300A2020202D302E3230363320202020312E3432383920202020302E30303030204F202020302020302020302020302020302020302020302020302020302020302020302020300A2020312020322020312020302020202020200A2020322020332020322020302020202020200A2020332020342020312020302020202020200A2020342020352020322020302020202020200A2020352020362020312020302020202020200A2020312020362020322020302020202020200A2020382020392020312020302020202020200A2020372020382020312020302020202020200A2020362020372020312020302020202020200A2031302031312020322020302020202020200A2020342031302020312020302020202020200A2031322031332020322020302020202020200A2020322031322020312020302020202020200A2020312031342020312020302020202020200A4D2020454E44
Contributor: UBE SCIENTIFIC ANALYSIS LABORATORY
InstType: EI
InstName: HITACHI M-60
IoniMethod: _ENERGY 70 eV
IonPolarity: pos
Date: 2010-10-09 19:48:36+02:00
Num Peaks: 100
15 10 17 3 18 3 26 22 27 202 28 24 29 301 30 7 31 4 32 1 
37 8 38 23 39 69 40 5 41 11 42 4 43 14 45 7 49 6 50 50 
51 88 52 59 53 157 54 16 55 52 56 1 57 3 61 10 62 29 63 80 
64 27 65 38 66 11 67 7 69 10 70 1 73 1 74 7 75 11 76 3 
77 12 78 3 79 40 80 17 81 134 82 15 83 1 89 5 90 3 91 29 
92 16 93 19 94 4 95 3 96 1 103 2 104 4 105 1 107 9 108 16 
109 43 110 10 111 1 114 8 119 31 120 78 121 17 122 2 123 2 135 16 
136 11 137 124 138 32 139 3 141 4 142 24 147 5 148 77 149 22 150 39 
151 9 152 2 154 3 161 1 163 11 164 73 165 999 166 760 167 55 168 9 
175 2 176 4 177 4 179 21 180 3 182 2 193 11 194 629 195 71 196 9 
