Name: MassBank: JP000241
MW: 188
Formula: C7H12N2O2S
Synonym: MassBank: JP000241
Synonym: 3-(2-METHYLTHIOETHYL)-2,5-PIPRAZINEDIONE
Synonym: CYCLO-GLYCYL-METHIONINE
Structure: 332D28322D4D455448594C5448494F455448594C292D322C352D50495052415A494E4544494F4E452E6D6F6C0A20204368656D447261773032323231303039353332440A2031322031322020302020302020302020302020302020302020302020303939392056323030300A2020202D302E3335373220202020312E3434333820202020302E303030302043202020302020302020302020302020302020302020302020302020302020302020302020300A2020202D302E3335373220202020302E3631383820202020302E303030302043202020302020302020302020302020302020302020302020302020302020302020302020300A20202020302E3335373220202020302E3230363220202020302E30303030204E202020302020302020302020302020302020302020302020302020302020302020302020300A20202020312E3037313720202020302E3631383820202020302E303030302043202020302020302020302020302020302020302020302020302020302020302020302020300A20202020312E3037313720202020312E3434333820202020302E303030302043202020302020302020302020302020302020302020302020302020302020302020302020300A20202020302E3335373220202020312E3835363320202020302E30303030204E202020302020302020302020302020302020302020302020302020302020302020302020300A20202020312E3738363220202020302E3230363220202020302E30303030204F202020302020302020302020302020302020302020302020302020302020302020302020300A2020202D312E3037313720202020312E3835363320202020302E30303030204F202020302020302020302020302020302020302020302020302020302020302020302020300A2020202D312E3037313720202020302E3230363220202020302E303030302043202020302020302020302020302020302020302020302020302020302020302020302020300A2020202D312E303731372020202D302E3631383820202020302E303030302043202020302020302020302020302020302020302020302020302020302020302020302020300A2020202D312E373836322020202D312E3033313320202020302E303030302053202020302020302020302020302020302020302020302020302020302020302020302020300A2020202D312E373836322020202D312E3835363320202020302E303030302043202020302020302020302020302020302020302020302020302020302020302020302020300A2020312020322020312020302020202020200A2020322020332020312020302020202020200A2020332020342020312020302020202020200A2020342020352020312020302020202020200A2020352020362020312020302020202020200A2020362020312020312020302020202020200A2020342020372020322020302020202020200A2020312020382020322020302020202020200A2020322020392020312020302020202020200A2020392031302020312020302020202020200A2031302031312020312020302020202020200A2031312031322020312020302020202020200A4D2020454E44
Contributor: YAMAMOTO M, DEP. CHEMISTRY, FAC. SCIENCE, NARA WOMEN'S UNIV.
InstType: EI
InstName: HITACHI RMU-6M
IoniMethod: _ENERGY 70 eV
IonPolarity: pos
Date: 2010-10-09 19:48:36+02:00
Num Peaks: 65
14 15 15 39 26 17 27 14 28 401 29 92 30 443 31 2 32 55 35 53 
39 54 40 2 41 116 42 109 43 34 44 4 45 100 46 43 47 99 48 5 
49 24 52 13 54 69 55 6 56 195 57 213 58 29 59 4 60 16 61 259 
62 129 63 2 67 20 68 29 69 20 70 2 71 13 72 12 73 16 74 2 
75 63 82 15 83 14 84 3 85 135 86 106 87 13 88 4 97 10 98 12 
99 197 100 2 111 15 113 32 114 999 115 6 116 12 126 17 127 150 128 1 
140 40 141 14 188 281 189 3 190 14 
