Name: 12-METHYL-1-METHOXYTETRADECANE
MW: 242
Formula: C16H34O
Synonym: MassBank: JP008109
Synonym: 12-METHYL-1-METHOXYTETRADECANE
Structure: 31322D4D455448594C2D312D4D4554484F58595445545241444543414E452E6D6F6C0A20204368656D447261773132313030393231333832440A2031372031362020302020302020302020302020302020302020302020303939392056323030300A20202020332E353732342020202D302E3230363220202020302E303030302043202020302020302020302020302020302020302020302020302020302020302020302020300A20202020322E3835373920202020302E3230363320202020302E303030302043202020302020302020302020302020302020302020302020302020302020302020302020300A20202020322E313433342020202D302E3230363220202020302E303030302043202020302020302020302020302020302020302020302020302020302020302020302020300A20202020312E3432383920202020302E3230363320202020302E303030302043202020302020302020302020302020302020302020302020302020302020302020302020300A20202020302E373134352020202D302E3230363220202020302E303030302043202020302020302020302020302020302020302020302020302020302020302020302020300A2020202D302E3030303020202020302E3230363320202020302E303030302043202020302020302020302020302020302020302020302020302020302020302020302020300A2020202D302E373134352020202D302E3230363220202020302E303030302043202020302020302020302020302020302020302020302020302020302020302020302020300A2020202D312E3432383920202020302E3230363320202020302E303030302043202020302020302020302020302020302020302020302020302020302020302020302020300A2020202D322E313433342020202D302E3230363220202020302E303030302043202020302020302020302020302020302020302020302020302020302020302020302020300A2020202D322E3835373920202020302E3230363320202020302E303030302043202020302020302020302020302020302020302020302020302020302020302020302020300A2020202D332E353732342020202D302E3230363220202020302E303030302043202020302020302020302020302020302020302020302020302020302020302020302020300A2020202D342E3238363820202020302E3230363320202020302E303030302043202020302020302020302020302020302020302020302020302020302020302020302020300A2020202D352E303031332020202D302E3230363220202020302E303030302043202020302020302020302020302020302020302020302020302020302020302020302020300A2020202D352E303031332020202D312E3033313320202020302E303030302043202020302020302020302020302020302020302020302020302020302020302020302020300A20202020342E3238363820202020302E3230363320202020302E30303030204F202020302020302020302020302020302020302020302020302020302020302020302020300A20202020352E303031332020202D302E3230363220202020302E303030302043202020302020302020302020302020302020302020302020302020302020302020302020300A2020202D342E3238363820202020312E3033313320202020302E303030302043202020302020302020302020302020302020302020302020302020302020302020302020300A2020312020322020312020302020202020200A2020322020332020312020302020202020200A2020332020342020312020302020202020200A2020342020352020312020302020202020200A2020352020362020312020302020202020200A2020362020372020312020302020202020200A2020372020382020312020302020202020200A2020382020392020312020302020202020200A2020392031302020312020302020202020200A2031302031312020312020302020202020200A2031312031322020312020302020202020200A2031322031332020312020302020202020200A2031332031342020312020302020202020200A2031352031362020312020302020202020200A2020312031352020312020302020202020200A2031322031372020312020302020202020200A4D2020454E44
Contributor: YAMAMOTO M, DEP. CHEMISTRY, FAC. SCIENCE, NARA WOMEN'S UNIV.
InstType: EI
InstName: JEOL JMS-HX-100
IoniMethod: _ENERGY 40 eV
IonPolarity: pos
Date: 2010-10-09 19:48:36+02:00
Num Peaks: 62
14 1 15 17 29 89 31 18 35 3 36 3 39 19 41 238 42 48 43 319 
44 4 45 696 46 21 47 4 48 2 49 5 53 15 54 48 55 462 56 341 
57 600 58 37 59 17 67 69 68 168 69 574 70 999 71 446 72 31 73 9 
81 45 82 205 83 379 84 196 85 6 87 2 95 32 96 75 97 614 98 94 
99 51 109 27 110 34 111 350 112 79 113 25 118 2 123 23 124 15 125 173 
126 43 138 14 139 43 140 47 141 15 152 28 153 98 154 35 180 76 181 141 
182 56 210 50 
