Name: MassBank: JP008008
MW: 210
Formula: C12H18O3
Synonym: MassBank: JP008008
Synonym: 2,6-DIMETHYL-6-ETHYLENEDIOXYMETHYL-1-CYCLOHEXENE-1-CARBALDEHYDE
Structure: 322C362D44494D455448594C2D362D455448594C454E4544494F58594D455448594C2D312D4359434C4F484558454E452D312D43415242414C4445485944452E6D6F6C0A20204368656D447261773132323130393034333632440A2031352031362020302020302020302020302020302020302020302020303939392056323030300A2020202D312E3737393720202020302E3633323820202020302E303030302043202020302020302020302020302020302020302020302020302020302020302020302020300A2020202D312E373739372020202D302E3139323220202020302E303030302043202020302020302020302020302020302020302020302020302020302020302020302020300A2020202D312E303635322020202D302E3630343720202020302E303030302043202020302020302020302020302020302020302020302020302020302020302020302020300A2020202D302E333530382020202D302E3139323220202020302E303030302043202020302020302020302020302020302020302020302020302020302020302020302020300A2020202D302E3335303820202020302E3633323820202020302E303030302043202020302020302020302020302020302020302020302020302020302020302020302020300A2020202D312E3036353220202020312E3034353320202020302E303030302043202020302020302020302020302020302020302020302020302020302020302020302020300A2020202D302E3133373220202020312E3432393720202020302E303030302043202020302020302020302020302020302020302020302020302020302020302020302020300A20202020302E3436373220202020302E3532353120202020302E303030302043202020302020302020302020302020302020302020302020302020302020302020302020300A20202020302E333633372020202D302E3630343720202020302E303030302043202020302020302020302020302020302020302020302020302020302020302020302020300A20202020302E333633372020202D312E3432393720202020302E30303030204F202020302020302020302020302020302020302020302020302020302020302020302020300A2020202D312E303635322020202D312E3432393720202020302E303030302043202020302020302020302020302020302020302020302020302020302020302020302020300A20202020302E383630382020202D302E3139393920202020302E30303030204F202020302020302020302020302020302020302020302020302020302020302020302020300A20202020312E363732302020202D302E3034393620202020302E303030302043202020302020302020302020302020302020302020302020302020302020302020302020300A20202020312E3737393720202020302E3736383420202020302E303030302043202020302020302020302020302020302020302020302020302020302020302020302020300A20202020312E3033353120202020312E3132333620202020302E30303030204F202020302020302020302020302020302020302020302020302020302020302020302020300A2020312020322020312020302020202020200A2020322020332020312020302020202020200A2020332020342020322020302020202020200A2020342020352020312020302020202020200A2020352020362020312020302020202020200A2020362020312020312020302020202020200A2020352020372020312020302020202020200A2020352020382020312020302020202020200A2020342020392020312020302020202020200A2020392031302020322020302020202020200A2020332031312020312020302020202020200A2020382031322020312020302020202020200A2031322031332020312020302020202020200A2031332031342020312020302020202020200A2031342031352020312020302020202020200A2031352020382020312020302020202020200A4D2020454E44
Contributor: HISAHIRO HAGIWARA, CHEMICAL RESEARCH INSTITUTE OF NON-AQUEOUSSOLUTIONS TOHOKU UNIV.
InstType: EI
InstName: JEOL JMS-DX-300
IoniMethod: _ENERGY 70 eV
IonPolarity: pos
Date: 2010-10-09 19:48:36+02:00
Num Peaks: 49
31 41 39 40 40 92 41 101 42 30 43 138 44 102 45 162 53 30 55 81 
56 34 57 59 61 15 65 18 67 42 69 67 70 25 71 35 73 999 74 47 
77 36 79 36 81 40 82 32 83 39 84 16 85 19 87 16 91 32 93 48 
95 40 96 20 97 41 105 21 107 28 108 21 109 48 111 23 113 18 123 18 
126 18 129 16 135 33 136 23 137 19 153 19 168 18 169 27 210 19 
