Name: MassBank: JP009707
MW: 204
Formula: C12H4N4
Synonym: MassBank: JP009707
Synonym: 7,7,8,8-TETRACYANOQUINODIMETHANE
Structure: 372C372C382C382D54455452414359414E4F5155494E4F44494D455448414E452E6D6F6C0A20204368656D447261773035323031303136313832440A2031362031362020302020302020302020302020302020302020302020303939392056323030300A20202020302E383235302020202D302E3030303020202020302E303030302043202020302020302020302020302020302020302020302020302020302020302020302020300A20202020312E363530302020202D302E3030303020202020302E303030302043202020302020302020302020302020302020302020302020302020302020302020302020300A20202020302E343132352020202D302E3731343520202020302E303030302043202020302020302020302020302020302020302020302020302020302020302020302020300A2020202D302E343132352020202D302E3731343520202020302E303030302043202020302020302020302020302020302020302020302020302020302020302020302020300A2020202D302E3832353020202020302E3030303020202020302E303030302043202020302020302020302020302020302020302020302020302020302020302020302020300A2020202D312E3635303020202020302E3030303020202020302E303030302043202020302020302020302020302020302020302020302020302020302020302020302020300A2020202D302E3431323520202020302E3731343520202020302E303030302043202020302020302020302020302020302020302020302020302020302020302020302020300A20202020302E3431323520202020302E3731343520202020302E303030302043202020302020302020302020302020302020302020302020302020302020302020302020300A2020202D322E3036323520202020302E3731343520202020302E303030302043202020302020302020302020302020302020302020302020302020302020302020302020300A2020202D322E3437353020202020312E3432383920202020302E30303030204E202020302020302020302020302020302020302020302020302020302020302020302020300A2020202D322E303632352020202D302E3731343520202020302E303030302043202020302020302020302020302020302020302020302020302020302020302020302020300A2020202D322E343735302020202D312E3432383920202020302E30303030204E202020302020302020302020302020302020302020302020302020302020302020302020300A20202020322E3036323520202020302E3731343520202020302E303030302043202020302020302020302020302020302020302020302020302020302020302020302020300A20202020322E3437353020202020312E3432383920202020302E30303030204E202020302020302020302020302020302020302020302020302020302020302020302020300A20202020322E303632352020202D302E3731343520202020302E303030302043202020302020302020302020302020302020302020302020302020302020302020302020300A20202020322E343735302020202D312E3432383920202020302E30303030204E202020302020302020302020302020302020302020302020302020302020302020302020300A2020312020322020322020302020202020200A2020312020332020312020302020202020200A2020332020342020322020302020202020200A2020342020352020312020302020202020200A2020352020362020322020302020202020200A2020352020372020312020302020202020200A2020372020382020322020302020202020200A2020312020382020312020302020202020200A2020392031302020332020302020202020200A2020362020392020312020302020202020200A2031312031322020332020302020202020200A2020362031312020312020302020202020200A2031332031342020332020302020202020200A2020322031332020312020302020202020200A2031352031362020332020302020202020200A2020322031352020312020302020202020200A4D2020454E44
Contributor: HASHIMOTO K, KYOTO COLLEGE OF PHARMACY
InstType: EI
InstName: HITACHI M-80
IoniMethod: _ENERGY 20 eV
IonPolarity: pos
Date: 2010-10-09 19:48:36+02:00
Num Peaks: 19
88 15 101 22 102 12 113 12 125 20 126 17 128 23 141 48 150 47 151 22 
152 62 153 20 177 194 178 46 179 11 203 14 204 999 205 155 206 21 
