Name: ETHYLENE GLYCOL MONOISOBUTYL ETHER
MW: 118
Formula: C6H14O2
Synonym: MassBank: JP008924
Synonym: ETHYLENE GLYCOL MONOISOBUTYL ETHER
Structure: 310A32300A455448594C454E4520474C59434F4C204D4F4E4F49534F425554594C2045544845522E6D6F6C0A20204368656D447261773031323231303030303632440A2020382020372020302020302020302020302020302020302020302020303939392056323030300A20202020302E3731343520202020302E3631383820202020302E303030302043202020302020302020302020302020302020302020302020302020302020302020302020300A20202020312E3432383920202020302E3230363220202020302E303030302043202020302020302020302020302020302020302020302020302020302020302020302020300A2020202D302E3030303020202020302E3230363220202020302E30303030204F202020302020302020302020302020302020302020302020302020302020302020302020300A20202020322E3134333420202020302E3631383820202020302E30303030204F202020302020302020302020302020302020302020302020302020302020302020302020300A2020202D302E3731343520202020302E3631383820202020302E303030302043202020302020302020302020302020302020302020302020302020302020302020302020300A2020202D312E3432383920202020302E3230363220202020302E303030302043202020302020302020302020302020302020302020302020302020302020302020302020300A2020202D312E343238392020202D302E3631383820202020302E303030302043202020302020302020302020302020302020302020302020302020302020302020302020300A2020202D322E3134333420202020302E3631383820202020302E303030302043202020302020302020302020302020302020302020302020302020302020302020302020300A2020312020322020312020302020202020200A2020312020332020312020302020202020200A2020322020342020312020302020202020200A2020352020362020312020302020202020200A2020362020372020312020302020202020200A2020362020382020312020302020202020200A2020332020352020312020302020202020200A4D2020454E44
Contributor: YAMAMOTO M, DEP. CHEMISTRY, FAC. SCIENCE, NARA WOMEN'S UNIV.
InstType: EI
InstName: HITACHI RMU-6M
IoniMethod: _ENERGY 20 eV
IonPolarity: pos
Date: 2010-10-09 19:48:36+02:00
Num Peaks: 23
27 10 29 103 31 31 41 19 42 15 43 28 45 626 46 2 55 28 56 96 
57 999 58 5 59 34 61 10 62 13 63 2 71 40 72 21 73 30 75 23 
76 12 87 105 100 12 
