Name: MassBank: JP006155
MW: 118
Formula: C6H14O2
Synonym: MassBank: JP006155
Synonym: 1,2-DIETHOXYETHANE
Structure: 310A32300A312C322D44494554484F5859455448414E452E6D6F6C0A20204368656D447261773131303330393233313332440A2020382020372020302020302020302020302020302020302020302020303939392056323030300A20202020302E333537322020202D302E3230363320202020302E303030302043202020302020302020302020302020302020302020302020302020302020302020302020300A2020202D302E3335373220202020302E3230363320202020302E303030302043202020302020302020302020302020302020302020302020302020302020302020302020300A2020202D312E303731372020202D302E3230363320202020302E30303030204F202020302020302020302020302020302020302020302020302020302020302020302020300A2020202D312E3738363220202020302E3230363220202020302E303030302043202020302020302020302020302020302020302020302020302020302020302020302020300A2020202D322E353030362020202D302E3230363320202020302E303030302043202020302020302020302020302020302020302020302020302020302020302020302020300A20202020312E3037313720202020302E3230363320202020302E30303030204F202020302020302020302020302020302020302020302020302020302020302020302020300A20202020312E373836322020202D302E3230363320202020302E303030302043202020302020302020302020302020302020302020302020302020302020302020302020300A20202020322E3530303620202020302E3230363320202020302E303030302043202020302020302020302020302020302020302020302020302020302020302020302020300A2020312020322020312020302020202020200A2020342020352020312020302020202020200A2020332020342020312020302020202020200A2020322020332020312020302020202020200A2020372020382020312020302020202020200A2020362020372020312020302020202020200A2020312020362020312020302020202020200A4D2020454E44
Contributor: HASHIMOTO K, KYOTO COLLEGE OF PHARMACY
InstType: EI
InstName: HITACHI M-80
IoniMethod: _ENERGY 20 eV
IonPolarity: pos
Date: 2010-10-09 19:48:36+02:00
Num Peaks: 20
27 48 28 39 29 349 30 10 31 999 32 14 41 59 43 76 44 47 45 471 
46 12 47 38 59 629 60 22 61 15 72 23 73 61 74 231 75 12 118 3 
