Name: IODOMETHYLTRIMETHYLSILANE
MW: 213
Formula: C4H11ISi
Synonym: MassBank: JP002468
Synonym: IODOMETHYLTRIMETHYLSILANE
Structure: 310A31360A494F444F4D455448594C5452494D455448594C53494C414E452E6D6F6C0A20204368656D447261773038313131303230353432440A2020362020352020302020302020302020302020302020302020302020303939392056323030300A2020202D302E333537322020202D302E3030303020202020302E303030302053692020302020302020302020302020302020302020302020302020302020302020302020300A2020202D302E3736393720202020302E3731343520202020302E303030302043202020302020302020302020302020302020302020302020302020302020302020302020300A20202020302E303535332020202D302E3731343520202020302E303030302043202020302020302020302020302020302020302020302020302020302020302020302020300A2020202D312E303731372020202D302E3431323520202020302E303030302043202020302020302020302020302020302020302020302020302020302020302020302020300A20202020302E3335373220202020302E3431323520202020302E303030302043202020302020302020302020302020302020302020302020302020302020302020302020300A20202020312E3037313720202020302E3030303020202020302E303030302049202020302020302020302020302020302020302020302020302020302020302020302020300A2020312020322020312020302020202020200A2020312020332020312020302020202020200A2020312020342020312020302020202020200A2020352020362020312020302020202020200A2020312020352020312020302020202020200A4D2020454E44
Contributor: MASS SPECTROSCOPY SOC. OF JAPAN (MSSJ)
InstType: EI
InstName: JEOL JMS-D-3000
IoniMethod: _ENERGY 70 eV
IonPolarity: pos
Date: 2010-10-09 19:48:36+02:00
Num Peaks: 31
42 23 43 95 44 27 45 53 53 13 55 18 57 15 58 17 59 48 72 67 
73 510 74 49 75 19 87 14 127 16 128 17 155 56 156 11 157 28 169 16 
170 42 171 780 172 51 173 28 185 25 199 999 200 87 201 37 214 386 215 37 
216 15 
