Name: METHYL-9-OCTADECENOATE
MW: 296
Formula: C19H36O2
Synonym: MassBank: JP002662
Synonym: METHYL-9-OCTADECENOATE
Structure: 303437315F4D455448594C2D392D4F435441444543454E4F4154452E6D6F6C0A20204368656D447261773039303631303137333632440A2032312032302020302020302020302020302020302020302020302020303939392056323030300A20202020352E3335383320202020302E3431323520202020302E303030302043202020302020302020302020302020302020302020302020302020302020302020302020300A20202020342E363434302020202D302E3030303020202020302E303030302043202020302020302020302020302020302020302020302020302020302020302020302020300A20202020342E363434302020202D302E3832353020202020302E303030302043202020302020302020302020302020302020302020302020302020302020302020302020300A20202020332E393239352020202D312E3233373520202020302E303030302043202020302020302020302020302020302020302020302020302020302020302020302020300A20202020332E323135302020202D302E3832353020202020302E303030302043202020302020302020302020302020302020302020302020302020302020302020302020300A20202020322E353030352020202D312E3233373520202020302E303030302043202020302020302020302020302020302020302020302020302020302020302020302020300A20202020312E373836312020202D302E3832353020202020302E303030302043202020302020302020302020302020302020302020302020302020302020302020302020300A20202020312E303731372020202D312E3233373520202020302E303030302043202020302020302020302020302020302020302020302020302020302020302020302020300A20202020302E333537322020202D302E3832353020202020302E303030302043202020302020302020302020302020302020302020302020302020302020302020302020300A2020202D302E333537322020202D312E3233373520202020302E303030302043202020302020302020302020302020302020302020302020302020302020302020302020300A2020202D312E303731372020202D302E3832353020202020302E303030302043202020302020302020302020302020302020302020302020302020302020302020302020300A2020202D312E373836322020202D312E3233373520202020302E303030302043202020302020302020302020302020302020302020302020302020302020302020302020300A2020202D322E353030352020202D302E3832353020202020302E303030302043202020302020302020302020302020302020302020302020302020302020302020302020300A2020202D332E323135302020202D312E3233373520202020302E303030302043202020302020302020302020302020302020302020302020302020302020302020302020300A2020202D332E393239352020202D302E3832353020202020302E303030302043202020302020302020302020302020302020302020302020302020302020302020302020300A2020202D342E363434302020202D312E3233373520202020302E303030302043202020302020302020302020302020302020302020302020302020302020302020302020300A2020202D352E333538332020202D302E3832353020202020302E303030302043202020302020302020302020302020302020302020302020302020302020302020302020300A2020202D362E303732382020202D312E3233373520202020302E303030302043202020302020302020302020302020302020302020302020302020302020302020302020300A20202020352E3335383320202020312E3233373520202020302E30303030204F202020302020302020302020302020302020302020302020302020302020302020302020300A20202020362E303732382020202D302E3030303020202020302E30303030204F202020302020302020302020302020302020302020302020302020302020302020302020300A20202020362E303732382020202D302E3832353020202020302E303030302043202020302020302020302020302020302020302020302020302020302020302020302020300A2020312020322020312020302020202020200A2020322020332020312020302020202020200A2020332020342020312020302020202020200A2020342020352020312020302020202020200A2020352020362020312020302020202020200A2020362020372020312020302020202020200A2020372020382020312020302020202020200A2020382020392020312020302020202020200A2020392031302020322020302020202020200A2031302031312020312020302020202020200A2031312031322020312020302020202020200A2031322031332020312020302020202020200A2031332031342020312020302020202020200A2031342031352020312020302020202020200A2031352031362020312020302020202020200A2031362031372020312020302020202020200A2031372031382020312020302020202020200A2020312031392020322020302020202020200A2020312032302020312020302020202020200A2032302032312020312020302020202020200A4D2020454E44
Contributor: HAYASHI A, DEPT. OF CHEMISTRY, FAC. OF SCI. AND TECHNOLOGY, KINKI UNIV.
InstType: EI
InstName: SHIMADZU LKB-9000B
IoniMethod: _ENERGY 70 eV
IonPolarity: pos
Date: 2010-10-09 19:48:36+02:00
Num Peaks: 129
53 10 54 73 55 166 57 5 59 59 67 270 68 212 69 60 70 107 71 77 
74 671 75 1 79 122 80 90 81 475 82 33 83 800 84 625 85 150 87 66 
88 18 91 50 93 112 94 11 95 436 96 859 97 927 98 79 105 54 106 28 
107 89 108 9 109 373 110 587 111 620 112 22 113 105 115 99 116 33 119 10 
120 57 121 160 122 80 123 48 124 377 125 375 127 52 128 12 129 105 130 35 
131 14 133 10 134 110 135 138 136 65 137 36 138 288 139 240 140 36 141 23 
142 49 143 138 144 32 146 44 147 52 148 97 149 118 150 6 151 252 152 287 
153 182 154 3 155 71 156 28 157 67 158 27 161 55 162 53 163 54 164 5 
165 162 166 233 167 121 168 3 169 100 170 37 171 18 172 1 173 11 175 57 
177 41 178 3 179 98 180 444 181 111 183 6 185 45 187 58 188 620 189 11 
191 46 193 74 194 94 195 4 199 60 200 29 204 32 207 6 208 69 209 31 
213 44 214 26 215 32 220 184 221 164 222 52 223 140 235 107 236 71 246 8 
247 48 253 26 264 999 265 595 266 116 267 36 280 31 296 18 297 42 
