Name: BENZYL ALCOHOL
CAS: 100-51-6
MW: 108
Formula: C7H8O
Synonym: MassBank: JP006260
Synonym: BENZYL ALCOHOL
Structure: 310A32310A42454E5A594C20414C434F484F4C2E6D6F6C0A20204368656D447261773038313131303136303532440A2020382020382020302020302020302020302020302020302020302020303939392056323030300A2020202D312E303331332020202D302E3030303020202020302E303030302043202020302020302020302020302020302020302020302020302020302020302020302020300A2020202D302E323036322020202D302E3030303020202020302E303030302043202020302020302020302020302020302020302020302020302020302020302020302020300A20202020302E3230363320202020302E3731343520202020302E303030302043202020302020302020302020302020302020302020302020302020302020302020302020300A20202020312E3033313320202020302E3731343520202020302E303030302043202020302020302020302020302020302020302020302020302020302020302020302020300A20202020312E343433382020202D302E3030303020202020302E303030302043202020302020302020302020302020302020302020302020302020302020302020302020300A20202020312E303331332020202D302E3731343520202020302E303030302043202020302020302020302020302020302020302020302020302020302020302020302020300A20202020302E323036322020202D302E3731343520202020302E303030302043202020302020302020302020302020302020302020302020302020302020302020302020300A2020202D312E3434333820202020302E3731343520202020302E30303030204F202020302020302020302020302020302020302020302020302020302020302020302020300A2020312020322020312020302020202020200A2020322020332020312020302020202020200A2020332020342020322020302020202020200A2020342020352020312020302020202020200A2020352020362020322020302020202020200A2020362020372020312020302020202020200A2020322020372020322020302020202020200A2020312020382020312020302020202020200A4D2020454E44
Contributor: MASS SPECTROSCOPY SOC. OF JAPAN (MSSJ)
InstType: EI
InstName: HITACHI M-80
IoniMethod: _ENERGY 70 eV
IonPolarity: pos
Date: 2010-10-09 19:48:36+02:00
Num Peaks: 42
26 22 27 77 28 23 29 69 30 9 31 56 37 23 38 49 39 145 40 12 
41 11 49 16 50 141 51 277 52 75 53 63 54 10 55 10 61 17 62 39 
63 80 64 17 65 74 66 8 73 10 74 45 75 26 76 22 77 536 78 130 
79 999 80 106 81 10 89 68 90 78 91 175 92 15 105 54 106 24 107 634 
108 885 109 70 
