Name: 4-PYRIDINECARBOXYLIC ACID METHYL ESTER
CAS: 2459-09-8
MW: 137
Formula: C7H7NO2
Synonym: MassBank: JP004257
Synonym: 4-PYRIDINECARBOXYLIC ACID METHYL ESTER
Synonym: ISONICOTINIC ACID METHYL ESTER
Structure: 342D5059524944494E45434152424F58594C49432041434944204D455448594C2045535445522E6D6F6C0A20204368656D447261773034323231303231303732440A2031302031302020302020302020302020302020302020302020302020303939392056323030300A2020202D312E3033313320202020302E3335373220202020302E303030302043202020302020302020302020302020302020302020302020302020302020302020302020300A2020202D302E3230363220202020302E3335373220202020302E303030302043202020302020302020302020302020302020302020302020302020302020302020302020300A20202020302E323036332020202D302E3335373220202020302E303030302043202020302020302020302020302020302020302020302020302020302020302020302020300A2020202D302E323036322020202D312E3037313720202020302E303030302043202020302020302020302020302020302020302020302020302020302020302020302020300A2020202D312E303331332020202D312E3037313720202020302E303030302043202020302020302020302020302020302020302020302020302020302020302020302020300A2020202D312E343433382020202D302E3335373220202020302E30303030204E202020302020302020302020302020302020302020302020302020302020302020302020300A20202020312E303331332020202D302E3335373220202020302E303030302043202020302020302020302020302020302020302020302020302020302020302020302020300A20202020312E343433382020202D312E3037313720202020302E30303030204F202020302020302020302020302020302020302020302020302020302020302020302020300A20202020312E3434333820202020302E3335373220202020302E30303030204F202020302020302020302020302020302020302020302020302020302020302020302020300A20202020312E3033313320202020312E3037313720202020302E303030302043202020302020302020302020302020302020302020302020302020302020302020302020300A2020312020322020322020302020202020200A2020322020332020312020302020202020200A2020332020342020322020302020202020200A2020342020352020312020302020202020200A2020352020362020322020302020202020200A2020312020362020312020302020202020200A2020372020382020322020302020202020200A2020372020392020312020302020202020200A2020332020372020312020302020202020200A2020392031302020312020302020202020200A4D2020454E44
Contributor: KOGA M, UNIV. OF OCCUPATIONAL AND ENVIRONMENTAL HEALTH
InstType: EI
InstName: JEOL JMS-01-SG
IoniMethod: _ENERGY 70 eV
IonPolarity: pos
Date: 2010-10-09 19:48:36+02:00
Num Peaks: 26
36 22 38 37 39 65 49 5 50 396 51 999 52 100 53 3 65 25 66 20 
75 25 76 4 77 45 78 723 79 138 92 3 93 37 105 25 106 206 107 18 
108 25 119 47 136 25 137 80 138 175 139 12 
