Name: PERILLYL ALCOHOL
CAS: 536-59-4
MW: 152
Formula: C10H16O
Synonym: MassBank: JP009069
Synonym: PERILLYL ALCOHOL
Synonym: (4-ISOPROPENYL-1-CYCLOHXENE)METHANOL
Structure: 28342D49534F50524F50454E594C2D312D4359434C4F4858454E45294D455448414E4F4C2E6D6F6C0A20204368656D447261773130323130393132323032440A2031322031322020302020302020302020302020302020302020302020303939392056323030300A2020202D312E3037313720202020302E3431323520202020302E303030302043202020302020302020302020302020302020302020302020302020302020302020302020300A2020202D312E303731372020202D302E3431323520202020302E303030302043202020302020302020302020302020302020302020302020302020302020302020302020300A2020202D302E333537322020202D302E3832353020202020302E303030302043202020302020302020302020302020302020302020302020302020302020302020302020300A20202020302E333537322020202D302E3431323520202020302E303030302043202020302020302020302020302020302020302020302020302020302020302020302020300A20202020302E3335373220202020302E3431323520202020302E303030302043202020302020302020302020302020302020302020302020302020302020302020302020300A2020202D302E3335373220202020302E3832353020202020302E303030302043202020302020302020302020302020302020302020302020302020302020302020302020300A2020202D302E333537322020202D312E3635303020202020302E303030302043202020302020302020302020302020302020302020302020302020302020302020302020300A20202020312E303731372020202D302E3832353020202020302E303030302048202020302020302020302020302020302020302020302020302020302020302020302020300A2020202D312E303731372020202D322E3036323520202020302E30303030204F202020302020302020302020302020302020302020302020302020302020302020302020300A2020202D302E3335373220202020312E3635303020202020302E303030302043202020302020302020302020302020302020302020302020302020302020302020302020300A20202020302E3335373220202020322E3036323520202020302E303030302043202020302020302020302020302020302020302020302020302020302020302020302020300A2020202D312E3037313720202020322E3036323520202020302E303030302043202020302020302020302020302020302020302020302020302020302020302020302020300A2020312020322020312020302020202020200A2020322020332020312020302020202020200A2020332020342020322020302020202020200A2020342020352020312020302020202020200A2020352020362020312020302020202020200A2020362020312020312020302020202020200A2020332020372020312020302020202020200A2020342020382020312020302020202020200A2020372020392020312020302020202020200A2020362031302020312020302020202020200A2031302031312020312020302020202020200A2031302031322020322020302020202020200A4D2020454E44
Contributor: SODA AROMATIC CO., LTD.
InstType: EI
InstName: HITACHI M-80B
IoniMethod: _ENERGY 70 eV
IonPolarity: pos
Date: 2010-10-09 19:48:36+02:00
Num Peaks: 72
15 18 26 18 27 309 28 94 29 198 30 10 31 190 38 26 39 540 40 147 
41 656 42 87 43 134 44 19 50 43 51 148 52 66 53 426 54 65 55 489 
56 150 57 66 62 14 63 44 64 14 65 151 66 96 67 635 68 999 69 199 
70 80 71 31 77 343 78 93 79 915 80 164 81 265 82 52 83 204 84 53 
85 15 89 11 91 461 92 176 93 660 94 131 95 108 96 37 97 17 103 23 
104 15 105 188 106 206 107 72 108 190 109 216 110 50 111 15 115 16 117 22 
119 283 120 29 121 542 122 54 123 37 124 29 133 13 134 90 135 16 137 18 
152 154 153 16 
