Name: METHYL (3R)-3-(TERT-BUTYLDIMETHYLSILOXY)-6-METHYL-6-HEPTENOATE
MW: 286
Formula: C15H30O3Si
Synonym: MassBank: JP002424
Synonym: METHYL (3R)-3-(TERT-BUTYLDIMETHYLSILOXY)-6-METHYL-6-HEPTENOATE
Structure: 303431335F4D455448594C20283352292D332D28544552542D425554594C44494D455448594C53494C4F5859292D362D4D455448594C2D362D48455054454E4F4154452E6D6F6C0A20204368656D447261773039303631303136343532440A2032302031392020302020302020302020302020302020302020302020303939392056323030300A2020202D312E3033313320202020302E3436373820202020302E303030302043202020302020302020302020302020302020302020302020302020302020302020302020300A2020202D302E363138372020202D302E3234363720202020302E303030302043202020302020302020302020302020302020302020302020302020302020302020302020300A20202020302E323036332020202D302E3234363720202020302E303030302043202020302020302020302020302020302020302020302020302020302020302020302020300A20202020302E3631383820202020302E3436373820202020302E303030302043202020302020302020302020302020302020302020302020302020302020302020302020300A20202020302E3230363320202020312E3138323220202020302E303030302043202020302020302020302020302020302020302020302020302020302020302020302020300A20202020302E3631383820202020312E3839363720202020302E303030302043202020302020302020302020302020302020302020302020302020302020302020302020300A20202020302E3230363320202020322E3631313220202020302E303030302043202020302020302020302020302020302020302020302020302020302020302020302020300A2020202D302E3631383720202020312E3138323220202020302E30303030204F202020302020302020302020302020302020302020302020302020302020302020302020300A2020202D312E3835363220202020302E3436373820202020302E30303030204F202020302020302020302020302020302020302020302020302020302020302020302020300A20202020312E3434333820202020312E3839363720202020302E303030302043202020302020302020302020302020302020302020302020302020302020302020302020300A20202020302E363138382020202D302E3936313220202020302E30303030204F202020302020302020302020302020302020302020302020302020302020302020302020300A20202020312E343433382020202D302E3936313220202020302E303030302053692020302020302020302020302020302020302020302020302020302020302020302020300A20202020322E323638382020202D302E3936313220202020302E303030302043202020302020302020302020302020302020302020302020302020302020302020302020300A20202020312E343433382020202D302E3133363220202020302E303030302043202020302020302020302020302020302020302020302020302020302020302020302020300A20202020312E343433382020202D312E3738363220202020302E303030302043202020302020302020302020302020302020302020302020302020302020302020302020300A20202020322E323638382020202D312E3738363220202020302E303030302043202020302020302020302020302020302020302020302020302020302020302020302020300A20202020312E343433382020202D322E3631313220202020302E303030302043202020302020302020302020302020302020302020302020302020302020302020302020300A20202020302E363138382020202D312E3738363220202020302E303030302043202020302020302020302020302020302020302020302020302020302020302020302020300A2020202D322E323638382020202D302E3234363720202020302E303030302043202020302020302020302020302020302020302020302020302020302020302020302020300A2020202D302E323437312020202D302E3933353920202020302E303030302048202020302020302020302020302020302020302020302020302020302020302020302020300A2020312020322020312020302020202020200A2020322020332020312020302020202020200A2020332020342020312020312020202020200A2020342020352020312020302020202020200A2020352020362020312020302020202020200A2020362020372020322020302020202020200A2020312020382020322020302020202020200A2020312020392020312020302020202020200A2020362031302020312020302020202020200A2031312031322020312020302020202020200A2031322031332020312020302020202020200A2031322031342020312020302020202020200A2031352031362020312020302020202020200A2031352031382020312020302020202020200A2031352031372020312020302020202020200A2031322031352020312020302020202020200A2020332031312020312020302020202020200A2020392031392020312020302020202020200A2020332032302020312020312020202020200A4D2020454E44
Contributor: ITO S, DEPT. OF CHEM., TOHOKU UNIV.
InstType: EI
InstName: HITACHI M-52
IoniMethod: _ENERGY 13.5 eV
IonPolarity: pos
Date: 2010-10-09 19:48:36+02:00
Num Peaks: 16
75 131 81 999 89 56 90 3 103 286 111 34 154 78 157 14 173 82 216 19 
227 22 229 68 230 131 231 87 232 39 271 29 
