Name: LIMONENE DIOXIDE
MW: 168
Formula: C10H16O2
Synonym: MassBank: JP008370
Synonym: LIMONENE DIOXIDE
Synonym: 1,2-EPOXY-4-(1,2-EPOXY-1-METHYLETHYL)-1-METHYLCYCLOHEXANE
Structure: 4C494D4F4E454E452044494F584944452E6D6F6C0A20204368656D447261773131313030393135343332440A2031322031342020302020302020302020302020302020302020302020303939392056323030300A20202020312E323637392020202D302E3030303020202020302E303030302043202020302020302020302020302020302020302020302020302020302020302020302020300A20202020302E383535342020202D302E3731343520202020302E303030302043202020302020302020302020302020302020302020302020302020302020302020302020300A20202020302E303330342020202D302E3731343520202020302E303030302043202020302020302020302020302020302020302020302020302020302020302020302020300A2020202D302E333832312020202D302E3030303020202020302E303030302043202020302020302020302020302020302020302020302020302020302020302020302020300A20202020302E3033303420202020302E3731343520202020302E303030302043202020302020302020302020302020302020302020302020302020302020302020302020300A20202020302E3835353420202020302E3731343520202020302E303030302043202020302020302020302020302020302020302020302020302020302020302020302020300A20202020312E3938323420202020302E3431323520202020302E303030302043202020302020302020302020302020302020302020302020302020302020302020302020300A2020202D312E323037312020202D302E3030303020202020302E303030302043202020302020302020302020302020302020302020302020302020302020302020302020300A2020202D312E3335303420202020302E3831323520202020302E303030302043202020302020302020302020302020302020302020302020302020302020302020302020300A2020202D312E333530342020202D302E3831323520202020302E303030302043202020302020302020302020302020302020302020302020302020302020302020302020300A2020202D312E3938323420202020302E3238323220202020302E30303030204F202020302020302020302020302020302020302020302020302020302020302020302020300A20202020312E363830342020202D302E3731343520202020302E30303030204F202020302020302020302020302020302020302020302020302020302020302020302020300A2020312020322020312020302020202020200A2020322020332020312020302020202020200A2020332020342020312020302020202020200A2020342020352020312020302020202020200A2020352020362020312020302020202020200A2020312020362020312020302020202020200A2020312020372020312020302020202020200A2020382020392020312020302020202020200A2020382031302020312020302020202020200A2020382031312020312020302020202020200A2020392031312020312020302020202020200A2020342020382020312020302020202020200A2020312031322020312020302020202020200A2020322031322020312020302020202020200A4D2020454E44
Contributor: SODA AROMATIC CO., LTD.
InstType: EI
InstName: HITACHI M-80B
IoniMethod: _ENERGY 70 eV
IonPolarity: pos
Date: 2010-10-09 19:48:36+02:00
Num Peaks: 58
15 29 27 149 29 106 31 24 39 151 40 15 41 253 42 30 43 999 44 50 
45 28 51 23 52 13 53 93 54 39 55 176 56 25 57 49 58 96 59 28 
65 28 66 16 67 171 68 44 69 95 70 20 71 108 72 16 77 46 79 103 
80 30 81 94 82 114 83 85 84 30 85 38 91 54 92 64 93 101 94 25 
95 133 96 23 97 100 98 30 105 28 106 19 107 145 108 43 109 69 110 43 
111 54 121 37 123 51 125 37 135 29 137 12 139 11 153 25 
