Name: PHENYLACETALDEHYDE DIETHYL ACETAL
MW: 194
Formula: C12H18O2
Synonym: MassBank: JP008607
Synonym: PHENYLACETALDEHYDE DIETHYL ACETAL
Structure: 5048454E594C41434554414C444548594445204449455448594C2041434554414C2E6D6F6C0A20204368656D447261773038313231303035323432440A2031342031342020302020302020302020302020302020302020302020303939392056323030300A2020202D302E333537322020202D302E3431323520202020302E303030302043202020302020302020302020302020302020302020302020302020302020302020302020300A20202020302E333537322020202D302E3832353020202020302E303030302043202020302020302020302020302020302020302020302020302020302020302020302020300A20202020312E303731372020202D302E3431323520202020302E303030302043202020302020302020302020302020302020302020302020302020302020302020302020300A20202020312E3037313720202020302E3431323520202020302E303030302043202020302020302020302020302020302020302020302020302020302020302020302020300A20202020312E3738363220202020302E3832353020202020302E303030302043202020302020302020302020302020302020302020302020302020302020302020302020300A20202020322E3530303620202020302E3431323520202020302E303030302043202020302020302020302020302020302020302020302020302020302020302020302020300A20202020322E353030362020202D302E3431323520202020302E303030302043202020302020302020302020302020302020302020302020302020302020302020302020300A20202020312E373836322020202D302E3832353020202020302E303030302043202020302020302020302020302020302020302020302020302020302020302020302020300A2020202D312E303731372020202D302E3832353020202020302E30303030204F202020302020302020302020302020302020302020302020302020302020302020302020300A2020202D302E3335373220202020302E3431323520202020302E30303030204F202020302020302020302020302020302020302020302020302020302020302020302020300A2020202D312E373836322020202D302E3431323520202020302E303030302043202020302020302020302020302020302020302020302020302020302020302020302020300A2020202D322E353030362020202D302E3832353020202020302E303030302043202020302020302020302020302020302020302020302020302020302020302020302020300A2020202D312E3037313720202020302E3832353020202020302E303030302043202020302020302020302020302020302020302020302020302020302020302020302020300A2020202D312E3738363220202020302E3431323520202020302E303030302043202020302020302020302020302020302020302020302020302020302020302020302020300A2020312020322020312020302020202020200A2020332020342020312020302020202020200A2020342020352020322020302020202020200A2020352020362020312020302020202020200A2020362020372020322020302020202020200A2020372020382020312020302020202020200A2020332020382020322020302020202020200A2020322020332020312020302020202020200A2031312031322020312020302020202020200A2020392031312020312020302020202020200A2031332031342020312020302020202020200A2031302031332020312020302020202020200A2020312020392020312020302020202020200A2020312031302020312020302020202020200A4D2020454E44
Contributor: SODA AROMATIC CO., LTD.
InstType: EI
InstName: HITACHI M-80B
IoniMethod: _ENERGY 70 eV
IonPolarity: pos
Date: 2010-10-09 19:48:36+02:00
Num Peaks: 39
19 13 26 10 27 67 29 192 31 21 39 48 41 22 43 19 44 13 45 23 
47 877 48 11 50 11 51 40 52 11 63 28 64 11 65 119 75 524 76 20 
77 62 78 19 79 26 89 25 90 17 91 531 92 66 93 16 103 999 104 55 
105 15 119 15 120 27 121 238 122 19 131 36 148 22 149 151 150 16 
