Name: MassBank: JP000464
MW: 96
Formula: C5H8N2
Synonym: MassBank: JP000464
Synonym: 1,4-DIMETHYLPYRAZOLE
Structure: 310A32330A312C342D44494D455448594C505952415A4F4C452E6D6F6C0A20204368656D447261773131313630393132303132440A2020392020392020302020302020302020302020302020302020302020303939392056323030300A20202020302E3731333620202020302E3431323520202020302E30303030204E202020302020302020302020302020302020302020302020302020302020302020302020300A20202020302E373133362020202D302E3431323520202020302E30303030204E202020302020302020302020302020302020302020302020302020302020302020302020300A2020202D302E303731312020202D302E3636373420202020302E303030302043202020302020302020302020302020302020302020302020302020302020302020302020300A2020202D302E3535363020202020302E3030303020202020302E303030302043202020302020302020302020302020302020302020302020302020302020302020302020300A2020202D302E3037313120202020302E3636373420202020302E303030302043202020302020302020302020302020302020302020302020302020302020302020302020300A2020202D312E3338313020202020302E3030303020202020302E303030302043202020302020302020302020302020302020302020302020302020302020302020302020300A20202020312E3338313020202020302E3839373420202020302E303030302043202020302020302020302020302020302020302020302020302020302020302020302020300A2020202D302E3332363020202020312E3435323120202020302E303030302048202020302020302020302020302020302020302020302020302020302020302020302020300A2020202D302E333236302020202D312E3435323120202020302E303030302048202020302020302020302020302020302020302020302020302020302020302020302020300A2020312020322020312020302020202020200A2020322020332020322020302020202020200A2020332020342020312020302020202020200A2020342020352020322020302020202020200A2020312020352020312020302020202020200A2020342020362020312020302020202020200A2020312020372020312020302020202020200A2020352020382020312020302020202020200A2020332020392020312020302020202020200A4D2020454E44
Contributor: SASAKI S, TOYOHASHI UNIV. OF TECH.
InstType: EI
InstName: MX-1303
IoniMethod: _ENERGY 50 eV
IonPolarity: pos
Date: 2010-10-09 19:48:36+02:00
Num Peaks: 37
26 41 27 120 28 155 29 2 30 14 37 20 38 44 39 14 40 48 41 182 
42 369 43 7 50 15 51 29 52 45 53 9 54 166 55 89 56 20 57 3 
65 11 66 39 67 47 68 21 69 45 70 11 79 10 80 1 81 83 82 28 
83 22 93 1 94 19 95 999 96 931 97 6 98 3 
