Name: MassBank: JP009607
MW: 162
Formula: C11H14O
Synonym: MassBank: JP009607
Synonym: METHYL 2,4,6-TRIMETHYLPHENYL KETONE
Synonym: 2,4,6-TRIMETHYLACETOPHENONE
Structure: 4D455448594C20322C342C362D5452494D455448594C5048454E594C204B45544F4E452E6D6F6C0A20204368656D447261773132323030393133333732440A2031322031322020302020302020302020302020302020302020302020303939392056323030300A20202020312E343433372020202D302E3030303020202020302E303030302043202020302020302020302020302020302020302020302020302020302020302020302020300A20202020312E3835363320202020302E3731343520202020302E30303030204F202020302020302020302020302020302020302020302020302020302020302020302020300A20202020302E363138372020202D302E3030303020202020302E303030302043202020302020302020302020302020302020302020302020302020302020302020302020300A20202020302E323036322020202D302E3731343520202020302E303030302043202020302020302020302020302020302020302020302020302020302020302020302020300A2020202D302E363138372020202D302E3731343520202020302E303030302043202020302020302020302020302020302020302020302020302020302020302020302020300A2020202D312E3033313320202020302E3030303020202020302E303030302043202020302020302020302020302020302020302020302020302020302020302020302020300A2020202D302E3631383820202020302E3731343520202020302E303030302043202020302020302020302020302020302020302020302020302020302020302020302020300A20202020302E3230363220202020302E3731343520202020302E303030302043202020302020302020302020302020302020302020302020302020302020302020302020300A20202020302E3631383720202020312E3432383920202020302E303030302043202020302020302020302020302020302020302020302020302020302020302020302020300A2020202D312E3835363320202020302E3030303020202020302E303030302043202020302020302020302020302020302020302020302020302020302020302020302020300A20202020302E363138372020202D312E3432383920202020302E303030302043202020302020302020302020302020302020302020302020302020302020302020302020300A20202020312E383536332020202D302E3731343520202020302E303030302043202020302020302020302020302020302020302020302020302020302020302020302020300A2020312020322020322020302020202020200A2020332020342020312020302020202020200A2020342020352020322020302020202020200A2020352020362020312020302020202020200A2020362020372020322020302020202020200A2020372020382020312020302020202020200A2020332020382020322020302020202020200A2020382020392020312020302020202020200A2020362031302020312020302020202020200A2020342031312020312020302020202020200A2020312020332020312020302020202020200A2020312031322020312020302020202020200A4D2020454E44
Contributor: THE INSTITUTE OF SCIENTIFIC AND INDUSTRIALRESEARCH
InstType: EI
InstName: JEOL JMS-DX-300
IoniMethod: _ENERGY 70 eV
IonPolarity: pos
Date: 2010-10-09 19:48:36+02:00
Num Peaks: 52
27 100 28 115 29 19 32 2 38 10 39 186 40 25 41 16 42 27 43 404 
50 39 51 15 52 56 53 90 55 10 58 1 62 18 63 90 64 27 65 16 
66 40 67 12 74 17 75 3 76 22 77 297 78 112 79 8 80 17 89 45 
90 13 91 45 92 44 93 30 102 42 103 15 104 95 105 55 115 196 116 5 
117 173 118 50 119 544 120 6 128 20 129 10 133 22 146 1 147 999 148 108 
162 227 163 27 
