Name: 4-METHYLCYCLOHEXANONE
MW: 112
Formula: C7H12O
Synonym: MassBank: JP002583
Synonym: 4-METHYLCYCLOHEXANONE
Structure: 310A32310A342D4D455448594C4359434C4F484558414E4F4E452E6D6F6C0A20204368656D447261773034323231303135313332440A2020382020382020302020302020302020302020302020302020302020303939392056323030300A2020202D302E3832353020202020302E3030303020202020302E303030302043202020302020302020302020302020302020302020302020302020302020302020302020300A2020202D302E3431323520202020302E3731343520202020302E303030302043202020302020302020302020302020302020302020302020302020302020302020302020300A20202020302E3431323520202020302E3731343520202020302E303030302043202020302020302020302020302020302020302020302020302020302020302020302020300A20202020302E383235302020202D302E3030303020202020302E303030302043202020302020302020302020302020302020302020302020302020302020302020302020300A20202020302E343132352020202D302E3731343520202020302E303030302043202020302020302020302020302020302020302020302020302020302020302020302020300A2020202D302E343132352020202D302E3731343520202020302E303030302043202020302020302020302020302020302020302020302020302020302020302020302020300A20202020312E363530302020202D302E3030303020202020302E303030302043202020302020302020302020302020302020302020302020302020302020302020302020300A2020202D312E3635303020202020302E3030303020202020302E30303030204F202020302020302020302020302020302020302020302020302020302020302020302020300A2020312020322020312020302020202020200A2020322020332020312020302020202020200A2020332020342020312020302020202020200A2020342020352020312020302020202020200A2020352020362020312020302020202020200A2020312020362020312020302020202020200A2020342020372020312020302020202020200A2020312020382020322020302020202020200A4D2020454E44
Contributor: YAMAMOTO M, DEP. CHEMISTRY, FAC. SCIENCE, NARA WOMEN'S UNIV.
InstType: EI
InstName: HITACHI RMU-6M
IoniMethod: _ENERGY 70 eV
IonPolarity: pos
Date: 2010-10-09 19:48:36+02:00
Num Peaks: 35
15 21 26 37 27 264 28 161 29 187 38 17 39 215 40 46 41 492 42 150 
43 78 50 19 51 29 52 15 53 57 54 31 55 999 56 341 57 208 58 18 
67 33 68 80 69 127 70 193 71 14 79 55 81 13 83 251 85 15 94 116 
95 14 96 12 97 73 112 365 113 31 
