Name: CYCLOOCTENE
MW: 110
Formula: C8H14
Synonym: MassBank: JP006781
Synonym: CYCLOOCTENE
Structure: 310A32310A4359434C4F4F4354454E452E6D6F6C0A20204368656D447261773039323031303038353332440A2020382020382020302020302020302020302020302020302020302020303939392056323030300A20202020302E393935392020202D302E3431323520202020302E303030302043202020302020302020302020302020302020302020302020302020302020302020302020300A20202020302E343132352020202D302E3939353920202020302E303030302043202020302020302020302020302020302020302020302020302020302020302020302020300A2020202D302E343132352020202D302E3939353920202020302E303030302043202020302020302020302020302020302020302020302020302020302020302020302020300A2020202D302E393935392020202D302E3431323520202020302E303030302043202020302020302020302020302020302020302020302020302020302020302020302020300A2020202D302E3939353920202020302E3431323520202020302E303030302043202020302020302020302020302020302020302020302020302020302020302020302020300A2020202D302E3431323520202020302E3939353920202020302E303030302043202020302020302020302020302020302020302020302020302020302020302020302020300A20202020302E3431323520202020302E3939353920202020302E303030302043202020302020302020302020302020302020302020302020302020302020302020302020300A20202020302E3939353920202020302E3431323520202020302E303030302043202020302020302020302020302020302020302020302020302020302020302020302020300A2020312020322020322020302020202020200A2020322020332020312020302020202020200A2020332020342020312020302020202020200A2020342020352020312020302020202020200A2020352020362020312020302020202020200A2020362020372020312020302020202020200A2020372020382020312020302020202020200A2020312020382020312020302020202020200A4D2020454E44
Contributor: TAJIMA S, GUNMA COLLEGE OF TECHNOLOGY
InstType: EI
InstName: HITACHI RMU-7M
IoniMethod: _ENERGY 70 eV
IonPolarity: pos
Date: 2010-10-09 19:48:36+02:00
Num Peaks: 32
27 63 28 12 29 41 39 165 40 32 41 436 42 45 43 27 51 26 52 15 
53 100 54 730 55 205 56 96 65 37 66 50 67 999 68 387 69 175 70 27 
77 34 79 62 80 30 81 509 82 656 83 57 91 14 95 195 109 11 110 436 
111 39 112 15 
