Name: ETHYL 3-METHYLSULFONYLBENZOATE
MW: 228
Formula: C10H12O4S
Synonym: MassBank: JP009598
Synonym: ETHYL 3-METHYLSULFONYLBENZOATE
Structure: 455448594C20332D4D455448594C53554C464F4E594C42454E5A4F4154452E6D6F6C0A20204368656D447261773038313131303138313332440A2031352031352020302020302020302020302020302020302020302020303939392056323030300A20202020302E373134352020202D302E3431323520202020302E303030302043202020302020302020302020302020302020302020302020302020302020302020302020300A2020202D302E303030302020202D302E3030303020202020302E303030302043202020302020302020302020302020302020302020302020302020302020302020302020300A2020202D302E373134352020202D302E3431323520202020302E303030302043202020302020302020302020302020302020302020302020302020302020302020302020300A2020202D312E343238392020202D302E3030303020202020302E303030302043202020302020302020302020302020302020302020302020302020302020302020302020300A2020202D312E3432383920202020302E3832353020202020302E303030302043202020302020302020302020302020302020302020302020302020302020302020302020300A2020202D302E3731343520202020312E3233373520202020302E303030302043202020302020302020302020302020302020302020302020302020302020302020302020300A20202020302E3030303020202020302E3832353020202020302E303030302043202020302020302020302020302020302020302020302020302020302020302020302020300A20202020302E373134352020202D312E3233373520202020302E30303030204F202020302020302020302020302020302020302020302020302020302020302020302020300A20202020312E343238392020202D302E3030303020202020302E30303030204F202020302020302020302020302020302020302020302020302020302020302020302020300A2020202D322E313433342020202D302E3431323520202020302E303030302053202020302020302020302020302020302020302020302020302020302020302020302020300A2020202D312E373330392020202D312E3132373020202020302E30303030204F202020302020302020302020302020302020302020302020302020302020302020302020300A2020202D322E3535353920202020302E3330323020202020302E30303030204F202020302020302020302020302020302020302020302020302020302020302020302020300A2020202D322E383537392020202D302E3832353020202020302E303030302043202020302020302020302020302020302020302020302020302020302020302020302020300A20202020322E313433342020202D302E3431323520202020302E303030302043202020302020302020302020302020302020302020302020302020302020302020302020300A20202020322E383537392020202D302E3030303020202020302E303030302043202020302020302020302020302020302020302020302020302020302020302020302020300A2020312020322020312020302020202020200A2020322020332020312020302020202020200A2020332020342020322020302020202020200A2020342020352020312020302020202020200A2020352020362020322020302020202020200A2020362020372020312020302020202020200A2020322020372020322020302020202020200A2020312020382020322020302020202020200A2020312020392020312020302020202020200A2031302031312020322020302020202020200A2031302031322020322020302020202020200A2031302031332020312020302020202020200A2020342031302020312020302020202020200A2031342031352020312020302020202020200A2020392031342020312020302020202020200A4D2020454E44
Contributor: THE INSTITUTE OF SCIENTIFIC AND INDUSTRIALRESEARCH
InstType: EI
InstName: JEOL JMS-DX-300
IoniMethod: _ENERGY 70 eV
IonPolarity: pos
Date: 2010-10-09 19:48:36+02:00
Num Peaks: 97
26 65 27 387 29 534 30 5 31 28 38 30 39 122 41 2 42 13 43 80 
44 116 45 13 46 10 47 30 48 33 49 1 50 551 51 168 52 38 53 6 
55 28 62 27 63 170 64 13 65 522 66 39 69 38 70 4 73 17 74 184 
75 400 76 999 77 273 78 79 79 163 80 3 81 70 82 14 84 20 85 1 
89 28 90 30 91 58 92 11 93 97 94 14 95 41 96 4 97 27 99 10 
103 148 104 21 105 85 106 28 107 48 108 4 109 74 110 29 111 48 112 1 
113 18 119 18 120 29 121 40 122 43 123 35 124 32 125 1 131 14 135 17 
137 27 138 35 139 87 140 16 141 28 148 6 149 364 150 38 151 17 152 3 
153 19 155 114 156 227 157 3 158 15 169 65 183 853 184 28 185 160 186 27 
197 27 200 15 201 48 202 12 213 18 228 13 229 22 
