Name: MassBank: JP008947
MW: 126
Formula: C8H14O
Synonym: MassBank: JP008947
Synonym: 2,2,4-TRIMETHYLCYCLOPENTANONE (5,5-D2)
Structure: 322C322C342D5452494D455448594C4359434C4F50454E54414E4F4E452028352C352D4432292E6D6F6C0A20204368656D447261773132313930393039333032440A2031312031312020302020302020302020302020302020302020302020303939392056323030300A2020202D302E3030303020202020302E3535363020202020302E303030302043202020302020302020302020302020302020302020302020302020302020302020302020300A20202020302E3636373420202020302E3037313120202020302E303030302043202020302020302020302020302020302020302020302020302020302020302020302020300A20202020302E343132352020202D302E3731333620202020302E303030302043202020302020302020302020302020302020302020302020302020302020302020302020300A2020202D302E343132352020202D302E3731333620202020302E303030302043202020302020302020302020302020302020302020302020302020302020302020302020300A2020202D302E3636373420202020302E3037313120202020302E303030302043202020302020302020302020302020302020302020302020302020302020302020302020300A2020202D302E383937342020202D312E3338313020202020302E303030302043202020302020302020302020302020302020302020302020302020302020302020302020300A20202020312E3037393920202020302E3738353520202020302E303030302043202020302020302020302020302020302020302020302020302020302020302020302020300A20202020312E343231312020202D302E3236343520202020302E303030302043202020302020302020302020302020302020302020302020302020302020302020302020300A2020202D302E3030303020202020312E3338313020202020302E30303030204F202020302020302020302020302020302020302020302020302020302020302020302020300A2020202D312E343231312020202D302E3236343520202020302E303030302048202020312020302020302020302020302020302020302020302020302020302020302020300A2020202D312E3037393920202020302E3738353520202020302E303030302048202020312020302020302020302020302020302020302020302020302020302020302020300A2020312020322020312020302020202020200A2020322020332020312020302020202020200A2020332020342020312020302020202020200A2020342020352020312020302020202020200A2020312020352020312020302020202020200A2020342020362020312020302020202020200A2020322020372020312020312020202020200A2020322020382020312020362020202020200A2020312020392020322020302020202020200A2020352031302020312020362020202020200A2020352031312020312020312020202020200A4D202049534F202032202031302020203220203131202020320A4D2020454E44
Contributor: YAMAMOTO M, DEP. CHEMISTRY, FAC. SCIENCE, NARA WOMEN'S UNIV.
InstType: EI
InstName: HITACHI RMU-6M
IoniMethod: _ENERGY 70 eV
IonPolarity: pos
Date: 2010-10-09 19:48:36+02:00
Num Peaks: 43
27 98 28 55 29 69 30 2 31 11 38 12 39 161 40 9 41 361 42 98 
43 92 44 8 45 18 51 15 52 10 53 3 54 20 55 96 56 999 57 14 
58 37 67 25 68 12 69 14 70 142 71 17 72 16 73 2 82 107 83 131 
84 68 85 4 94 14 95 41 99 16 109 1 110 44 112 47 113 213 114 2 
127 31 128 185 129 17 
