Name: (E)-2-METHYL-2-BUTENEDIOIC ACID BIS(TRIMETHYLSILYL) ESTER
MW: 274
Formula: C11H22O4Si2
Synonym: MassBank: JP007473
Synonym: (E)-2-METHYL-2-BUTENEDIOIC ACID BIS(TRIMETHYLSILYL) ESTER
Structure: 2845292D322D4D455448594C2D322D425554454E4544494F4943204143494420424953285452494D455448594C53494C594C292045535445522E6D6F6C0A20204368656D447261773130323230393133303632440A2031382031372020302020302020302020302020302020302020302020303939392056323030300A2020202D302E3937363020202020302E3335373220202020302E303030302043202020302020302020302020302020302020302020302020302020302020302020302020300A2020202D302E3135313020202020302E3335373220202020302E303030302043202020302020302020302020302020302020302020302020302020302020302020302020300A2020202D312E333838352020202D302E3335373220202020302E303030302043202020302020302020302020302020302020302020302020302020302020302020302020300A2020202D312E3338383520202020312E3037313720202020302E303030302043202020302020302020302020302020302020302020302020302020302020302020302020300A20202020302E3236313520202020312E3037313720202020302E303030302043202020302020302020302020302020302020302020302020302020302020302020302020300A20202020302E323631352020202D302E3335373220202020302E303030302048202020302020302020302020302020302020302020302020302020302020302020302020300A2020202D302E393736302020202D312E3037313720202020302E30303030204F202020302020302020302020302020302020302020302020302020302020302020302020300A2020202D322E323133352020202D302E3335373220202020302E30303030204F202020302020302020302020302020302020302020302020302020302020302020302020300A2020202D312E333838352020202D312E3738363220202020302E303030302053692020302020302020302020302020302020302020302020302020302020302020302020300A2020202D312E383031302020202D322E3530303620202020302E303030302043202020302020302020302020302020302020302020302020302020302020302020302020300A2020202D322E313033302020202D312E3337333720202020302E303030302043202020302020302020302020302020302020302020302020302020302020302020302020300A2020202D302E363734302020202D322E3139383720202020302E303030302043202020302020302020302020302020302020302020302020302020302020302020302020300A2020202D302E3135313020202020312E3738363220202020302E30303030204F202020302020302020302020302020302020302020302020302020302020302020302020300A20202020312E3038363520202020312E3037313720202020302E30303030204F202020302020302020302020302020302020302020302020302020302020302020302020300A20202020312E3439393020202020312E3738363220202020302E303030302053692020302020302020302020302020302020302020302020302020302020302020302020300A20202020312E3931313520202020322E3530303620202020302E303030302043202020302020302020302020302020302020302020302020302020302020302020302020300A20202020302E3738343520202020322E3139383720202020302E303030302043202020302020302020302020302020302020302020302020302020302020302020302020300A20202020322E3231333520202020312E3337333720202020302E303030302043202020302020302020302020302020302020302020302020302020302020302020302020300A2020312020322020322020302020202020200A2020312020332020312020302020202020200A2020312020342020312020302020202020200A2020322020352020312020302020202020200A2020322020362020312020302020202020200A2020332020372020312020302020202020200A2020332020382020322020302020202020200A2020372020392020312020302020202020200A2020392031302020312020302020202020200A2020392031312020312020302020202020200A2020392031322020312020302020202020200A2020352031332020322020302020202020200A2020352031342020312020302020202020200A2031342031352020312020302020202020200A2031352031362020312020302020202020200A2031352031372020312020312020202020200A2031352031382020312020312020202020200A4D2020454E44
Contributor: KOGA M, UNIV. OF OCCUPATIONAL AND ENVIRONMENTAL HEALTH
InstType: EI
InstName: JEOL JMS-01-SG
IoniMethod: _ENERGY 70 eV
IonPolarity: pos
Date: 2010-10-09 19:48:36+02:00
Num Peaks: 44
43 67 44 48 45 217 47 8 58 23 59 34 61 34 66 5 67 186 68 38 
69 15 72 4 73 332 74 159 75 340 76 3 77 32 83 36 97 92 98 3 
99 21 112 42 117 25 122 13 131 19 133 71 140 15 141 7 147 142 148 178 
149 132 156 3 157 61 169 51 184 103 185 16 186 48 215 17 231 38 259 999 
260 217 261 92 262 19 274 32 
