Name: BIS(CHLOROMETHYL) ETHER
CAS: 542-88-1
MW: 113
Formula: C2H4Cl2O
Synonym: MassBank: JP000933
Synonym: BIS(CHLOROMETHYL) ETHER
Structure: 310A31340A4249532843484C4F524F4D455448594C292045544845522E6D6F6C0A20204368656D447261773039303531303232313432440A2020352020342020302020302020302020302020302020302020302020303939392056323030300A20202020302E303030302020202D302E3230363320202020302E30303030204F202020302020302020302020302020302020302020302020302020302020302020302020300A2020202D302E3731343520202020302E3230363320202020302E303030302043202020302020302020302020302020302020302020302020302020302020302020302020300A2020202D312E343238392020202D302E3230363320202020302E3030303020436C2020302020302020302020302020302020302020302020302020302020302020302020300A20202020302E3731343520202020302E3230363320202020302E303030302043202020302020302020302020302020302020302020302020302020302020302020302020300A20202020312E343238392020202D302E3230363220202020302E3030303020436C2020302020302020302020302020302020302020302020302020302020302020302020300A2020322020332020312020302020202020200A2020312020322020312020302020202020200A2020342020352020312020302020202020200A2020312020342020312020302020202020200A4D2020454E44
Contributor: KOGA M, UNIV. OF OCCUPATIONAL AND ENVIRONMENTAL HEALTH
InstType: EI
InstName: JEOL JMS-01-SG
IoniMethod: _ENERGY 70 eV
IonPolarity: pos
Date: 2010-10-09 19:48:36+02:00
Num Peaks: 10
29 93 35 28 48 29 49 38 50 19 51 119 78 56 79 999 80 37 81 332 
