Name: LYSERGIC ACID ETHYLAMIDE
MW: 295
Formula: C18H21N3O
Synonym: MassBank: JP003740
Synonym: LYSERGIC ACID ETHYLAMIDE
Structure: 4C59534552474943204143494420455448594C414D4944452E6D6F6C0A20204368656D447261773038313131303232323432440A2032332032362020302020302020302020302020302020302020302020303939392056323030300A2020202D312E3338313120202020312E3033343620202020302E303030302043202020302020302020302020302020302020302020302020302020302020302020302020300A20202020312E363936382020202D322E3733353620202020302E30303030204E202020302020302020302020302020302020302020302020302020302020302020302020300A20202020322E313039332020202D322E3032313120202020302E303030302043202020302020302020302020302020302020302020302020302020302020302020302020300A20202020312E353430342020202D312E3431343220202020302E303030302043202020302020302020302020302020302020302020302020302020302020302020302020300A20202020312E343834352020202D302E3630313620202020302E303030302043202020302020302020302020302020302020302020302020302020302020302020302020300A20202020302E373730312020202D302E3138393120202020302E303030302043202020302020302020302020302020302020302020302020302020302020302020302020300A20202020312E3437353120202020302E3231383020202020302E303030302048202020302020302020302020302020302020302020302020302020302020302020302020300A20202020302E3737303120202020302E3632353020202020302E30303030204E202020302020302020302020302020302020302020302020302020302020302020302020300A20202020312E3437373220202020312E3033333220202020302E303030302043202020302020302020302020302020302020302020302020302020302020302020302020300A20202020302E3034383320202020312E3034313720202020302E303030302043202020302020302020302020302020302020302020302020302020302020302020302020300A2020202D302E3637323620202020302E3632353520202020302E303030302043202020302020302020302020302020302020302020302020302020302020302020302020300A2020202D302E363732362020202D302E3230363320202020302E303030302043202020302020302020302020302020302020302020302020302020302020302020302020300A20202020302E303437362020202D302E3632323120202020302E303030302043202020302020302020302020302020302020302020302020302020302020302020302020300A20202020302E303437362020202D312E3434303620202020302E303030302043202020302020302020302020302020302020302020302020302020302020302020302020300A2020202D302E363235362020202D312E3933373020202020302E303030302043202020302020302020302020302020302020302020302020302020302020302020302020300A2020202D302E353235312020202D322E3735353820202020302E303030302043202020302020302020302020302020302020302020302020302020302020302020302020300A20202020302E323334332020202D332E3037383220202020302E303030302043202020302020302020302020302020302020302020302020302020302020302020302020300A20202020302E383933322020202D322E3538313720202020302E303030302043202020302020302020302020302020302020302020302020302020302020302020302020300A20202020302E373932372020202D312E3736323820202020302E303030302043202020302020302020302020302020302020302020302020302020302020302020302020300A2020202D322E3130313120202020302E3631383920202020302E30303030204F202020302020302020302020302020302020302020302020302020302020302020302020300A2020202D312E3338313120202020312E3835333120202020302E30303030204E202020302020302020302020302020302020302020302020302020302020302020302020300A2020202D322E3130393320202020322E3237333520202020302E303030302043202020302020302020302020302020302020302020302020302020302020302020302020300A2020202D322E3130393320202020332E3037383220202020302E303030302043202020302020302020302020302020302020302020302020302020302020302020302020300A2020322020332020312020302020202020200A2020332020342020322020302020202020200A2020342020352020312020302020202020200A2020352020362020312020302020202020200A2020362020372020312020312020202020200A2020362020382020312020302020202020200A2020382020392020312020302020202020200A2020382031302020312020302020202020200A2031302031312020312020302020202020200A2031312020312020312020312020202020200A2031312031322020312020302020202020200A2031322031332020322020302020202020200A2020362031332020312020302020202020200A2031332031342020312020302020202020200A2031342031352020312020302020202020200A2031352031362020322020302020202020200A2031362031372020312020302020202020200A2031372031382020322020302020202020200A2020322031382020312020302020202020200A2031382031392020312020302020202020200A2020342031392020312020302020202020200A2031342031392020322020302020202020200A2020312032302020322020302020202020200A2032322032332020312020302020202020200A2032312032322020312020302020202020200A2020312032312020312020302020202020200A4D2020454E44
Contributor: SASAKI S, TOYOHASHI UNIV. OF TECH.
InstType: EI
InstName: Unknown
IoniMethod: EI
IonPolarity: pos
Date: 2010-10-09 19:48:36+02:00
Num Peaks: 59
55 40 56 30 57 70 58 1 77 30 78 10 89 30 90 0 110 60 111 20 
112 100 113 0 114 40 127 70 128 20 150 0 151 70 152 90 153 70 154 2 
155 50 165 40 166 30 167 2 168 50 169 10 177 20 178 1 179 120 180 280 
181 390 182 1 183 20 190 10 191 50 192 2 193 80 194 60 195 60 196 4 
197 50 205 110 206 80 207 2 208 120 209 50 219 30 220 1 221 510 222 210 
223 320 224 1 237 60 238 10 252 80 253 0 295 999 296 190 297 20 
