Name: PROPENOIC ACID METHYL ESTER
MW: 86
Formula: C4H6O2
Synonym: MassBank: JP004264
Synonym: PROPENOIC ACID METHYL ESTER
Synonym: METHYL ACRYLATE
Structure: 310A31360A50524F50454E4F49432041434944204D455448594C2045535445522E6D6F6C0A20204368656D447261773038313231303036303332440A2020362020352020302020302020302020302020302020302020302020303939392056323030300A20202020302E3030303020202020302E3030303020202020302E303030302043202020302020302020302020302020302020302020302020302020302020302020302020300A20202020302E343132352020202D302E3731343520202020302E303030302043202020302020302020302020302020302020302020302020302020302020302020302020300A20202020312E323337352020202D302E3731343520202020302E303030302043202020302020302020302020302020302020302020302020302020302020302020302020300A20202020302E3431323520202020302E3731343520202020302E30303030204F202020302020302020302020302020302020302020302020302020302020302020302020300A2020202D302E3832353020202020302E3030303020202020302E30303030204F202020302020302020302020302020302020302020302020302020302020302020302020300A2020202D312E323337352020202D302E3731343520202020302E303030302043202020302020302020302020302020302020302020302020302020302020302020302020300A2020312020322020312020302020202020200A2020322020332020322020302020202020200A2020312020342020322020302020202020200A2020312020352020312020302020202020200A2020352020362020312020302020202020200A4D2020454E44
Contributor: TAJIMA S, GUNMA COLLEGE OF TECHNOLOGY
InstType: EI
InstName: HITACHI RMU-7M
IoniMethod: _ENERGY 70 eV
IonPolarity: pos
Date: 2010-10-09 19:48:36+02:00
Num Peaks: 18
15 82 26 39 27 310 28 20 29 18 31 30 41 13 42 44 43 33 44 49 
55 999 56 37 57 27 58 68 59 37 68 13 85 127 86 10 
