Name: MassBank: JP001810
MW: 90
Formula: C4H10O2
Synonym: MassBank: JP001810
Synonym: 1,2-DIHYDROXYLBUTANE
Synonym: 1,2-BUTANEDIOL
Structure: 310A31360A312C322D4449485944524F58594C425554414E452E6D6F6C0A20204368656D447261773131303330393232323932440A2020362020352020302020302020302020302020302020302020302020303939392056323030300A20202020302E343132352020202D302E3731343520202020302E303030302043202020302020302020302020302020302020302020302020302020302020302020302020300A20202020302E3030303020202020302E3030303020202020302E303030302043202020302020302020302020302020302020302020302020302020302020302020302020300A2020202D302E3832353020202020302E3030303020202020302E303030302043202020302020302020302020302020302020302020302020302020302020302020302020300A2020202D312E323337352020202D302E3731343520202020302E303030302043202020302020302020302020302020302020302020302020302020302020302020302020300A20202020302E3431323520202020302E3731343520202020302E30303030204F202020302020302020302020302020302020302020302020302020302020302020302020300A20202020312E323337352020202D302E3731343520202020302E30303030204F202020302020302020302020302020302020302020302020302020302020302020302020300A2020312020322020312020302020202020200A2020322020332020312020302020202020200A2020332020342020312020302020202020200A2020322020352020312020302020202020200A2020312020362020312020302020202020200A4D2020454E44
Contributor: TAJIMA S, GUNMA COLLEGE OF TECHNOLOGY
InstType: EI
InstName: HITACHI RMU-7M
IoniMethod: _ENERGY 70 eV
IonPolarity: pos
Date: 2010-10-09 19:48:36+02:00
Num Peaks: 24
15 45 18 13 19 10 26 12 27 77 28 22 29 97 30 10 31 614 32 10 
33 11 39 42 41 272 42 33 43 204 44 21 45 12 55 36 57 48 58 98 
59 999 60 39 61 204 73 15 
