Name: BETA-INDOLEACETIC ACID
MW: 175
Formula: C10H9NO2
Synonym: MassBank: JP001408
Synonym: BETA-INDOLEACETIC ACID
Synonym: INDOLE-3-ACETIC ACID
Structure: 424554412D494E444F4C4541434554494320414349442E6D6F6C0A20204368656D447261773039303531303137333232440A2031332031342020302020302020302020302020302020302020302020303939392056323030300A20202020302E343434342020202D312E3032313020202020302E30303030204E202020302020302020302020302020302020302020302020302020302020302020302020300A2020202D302E333039332020202D302E3638353520202020302E303030302043202020302020302020302020302020302020302020302020302020302020302020302020300A2020202D302E3232333120202020302E3133353020202020302E303030302043202020302020302020302020302020302020302020302020302020302020302020302020300A20202020302E3538333920202020302E3330363520202020302E303030302043202020302020302020302020302020302020302020302020302020302020302020302020300A20202020302E3939363420202020312E3032313020202020302E303030302043202020302020302020302020302020302020302020302020302020302020302020302020300A20202020312E3832313420202020312E3032313020202020302E303030302043202020302020302020302020302020302020302020302020302020302020302020302020300A20202020322E3233333920202020302E3330363520202020302E303030302043202020302020302020302020302020302020302020302020302020302020302020302020300A20202020312E383231342020202D302E3430373920202020302E303030302043202020302020302020302020302020302020302020302020302020302020302020302020300A20202020302E393936342020202D302E3430373920202020302E303030302043202020302020302020302020302020302020302020302020302020302020302020302020300A2020202D312E3632303820202020302E3433323120202020302E303030302043202020302020302020302020302020302020302020302020302020302020302020302020300A2020202D302E3833363220202020302E3638373120202020302E303030302043202020302020302020302020302020302020302020302020302020302020302020302020300A2020202D312E383334332020202D302E3336343820202020302E30303030204F202020302020302020302020302020302020302020302020302020302020302020302020300A2020202D322E3233333920202020302E3938343120202020302E30303030204F202020302020302020302020302020302020302020302020302020302020302020302020300A2020312020322020312020302020202020200A2020322020332020322020302020202020200A2020332020342020312020302020202020200A2020342020352020312020302020202020200A2020352020362020322020302020202020200A2020362020372020312020302020202020200A2020372020382020322020302020202020200A2020382020392020312020302020202020200A2020312020392020312020302020202020200A2020342020392020322020302020202020200A2031302031312020312020302020202020200A2031302031322020322020302020202020200A2031302031332020312020302020202020200A2020332031312020312020302020202020200A4D2020454E44
Contributor: HASHIMOTO K, KYOTO COLLEGE OF PHARMACY
InstType: EI
InstName: HITACHI M-80
IoniMethod: _ENERGY 20 eV
IonPolarity: pos
Date: 2010-10-09 19:48:36+02:00
Num Peaks: 8
77 13 103 34 129 14 130 999 131 105 132 17 175 823 176 94 
