Name: MassBank: JP001421
MW: 249
Formula: C16H11NS
Synonym: MassBank: JP001421
Synonym: 2-PHENY1PYRROLO(2,1-B)BENZOTHIAZOL
Structure: 322D5048454E5931505952524F4C4F28322C312D422942454E5A4F544849415A4F4C2E6D6F6C0A20204368656D447261773032323131303134303632440A2031382032312020302020302020302020302020302020302020302020303939392056323030300A20202020312E343439392020202D302E3032333720202020302E303030302043202020302020302020302020302020302020302020302020302020302020302020302020300A20202020302E363234392020202D302E3032333720202020302E30303030204E202020302020302020302020302020302020302020302020302020302020302020302020300A20202020302E333730302020202D302E3830383320202020302E303030302043202020302020302020302020302020302020302020302020302020302020302020302020300A20202020312E303337342020202D312E3239333220202020302E303030302053202020302020302020302020302020302020302020302020302020302020302020302020300A20202020312E373034382020202D302E3830383320202020302E303030302043202020302020302020302020302020302020302020302020302020302020302020302020300A2020202D302E3034323520202020302E3436313320202020302E303030302043202020302020302020302020302020302020302020302020302020302020302020302020300A2020202D302E373130302020202D302E3032333720202020302E303030302043202020302020302020302020302020302020302020302020302020302020302020302020300A2020202D302E343535302020202D302E3830383320202020302E303030302043202020302020302020302020302020302020302020302020302020302020302020302020300A2020202D312E3439343620202020302E3233313320202020302E303030302043202020302020302020302020302020302020302020302020302020302020302020302020300A2020202D312E3636363120202020312E3033383320202020302E303030302043202020302020302020302020302020302020302020302020302020302020302020302020300A2020202D322E3435303720202020312E3239333220202020302E303030302043202020302020302020302020302020302020302020302020302020302020302020302020300A2020202D332E3036333820202020302E3734313220202020302E303030302043202020302020302020302020302020302020302020302020302020302020302020302020300A2020202D322E383932332020202D302E3036353820202020302E303030302043202020302020302020302020302020302020302020302020302020302020302020302020300A2020202D322E313037372020202D302E3332303720202020302E303030302043202020302020302020302020302020302020302020302020302020302020302020302020300A20202020322E353131382020202D302E3937393820202020302E303030302043202020302020302020302020302020302020302020302020302020302020302020302020300A20202020332E303633382020202D302E3336363720202020302E303030302043202020302020302020302020302020302020302020302020302020302020302020302020300A20202020322E3830383920202020302E3431373920202020302E303030302043202020302020302020302020302020302020302020302020302020302020302020302020300A20202020322E3030313920202020302E3538393420202020302E303030302043202020302020302020302020302020302020302020302020302020302020302020302020300A2020312020322020312020302020202020200A2020322020332020312020302020202020200A2020332020342020312020302020202020200A2020342020352020312020302020202020200A2020352020312020322020302020202020200A2020322020362020312020302020202020200A2020362020372020322020302020202020200A2020372020382020312020302020202020200A2020382020332020322020302020202020200A2020372020392020312020302020202020200A2020392031302020322020302020202020200A2031302031312020312020302020202020200A2031312031322020322020302020202020200A2031322031332020312020302020202020200A2031332031342020322020302020202020200A2031342020392020312020302020202020200A2020352031352020312020302020202020200A2031352031362020322020302020202020200A2031362031372020312020302020202020200A2031372031382020322020302020202020200A2031382020312020312020302020202020200A4D2020454E44
Contributor: HASHIMOTO K, KYOTO COLLEGE OF PHARMACY
InstType: EI
InstName: HITACHI M-80
IoniMethod: _ENERGY 20 eV
IonPolarity: pos
Date: 2010-10-09 19:48:36+02:00
Num Peaks: 9
115 15 204 12 216 14 217 2 247 25 248 80 249 999 250 19 251 60 
