Name: SULPYRINE
MW: 333
Formula: C13H16N3NaO4S
Synonym: MassBank: JP003241
Synonym: SULPYRINE
Structure: 303532315F53554C505952494E452E6D6F6C0A20204368656D447261773038323031303035303432440A2032322032332020302020302020302020302020302020302020302020303939392056323030300A2020202D332E3035333520202020312E3132333320202020302E303030302043202020302020302020302020302020302020302020302020302020302020302020302020300A2020202D332E3035333520202020302E3239383320202020302E303030302043202020302020302020302020302020302020302020302020302020302020302020302020300A2020202D322E333339302020202D302E3131343220202020302E303030302043202020302020302020302020302020302020302020302020302020302020302020302020300A2020202D312E3632343520202020302E3239383320202020302E303030302043202020302020302020302020302020302020302020302020302020302020302020302020300A2020202D312E3632343520202020312E3132333320202020302E303030302043202020302020302020302020302020302020302020302020302020302020302020302020300A2020202D322E3333393020202020312E3533353820202020302E303030302043202020302020302020302020302020302020302020302020302020302020302020302020300A2020202D302E3530333420202020312E3134333920202020302E30303030204E202020302020302020302020302020302020302020302020302020302020302020302020300A2020202D302E3238393820202020302E3334373020202020302E303030302043202020302020302020302020302020302020302020302020302020302020302020302020300A20202020302E3533343020202020302E3330333820202020302E303030302043202020302020302020302020302020302020302020302020302020302020302020302020300A20202020302E3832393720202020312E3037343020202020302E303030302043202020302020302020302020302020302020302020302020302020302020302020302020300A20202020302E3138383520202020312E3539333220202020302E30303030204E202020302020302020302020302020302020302020302020302020302020302020302020300A2020202D302E383039302020202D302E3239343220202020302E30303030204F202020302020302020302020302020302020302020302020302020302020302020302020300A20202020302E3233313720202020322E3431373120202020302E303030302043202020302020302020302020302020302020302020302020302020302020302020302020300A20202020312E3632363620202020312E3238373520202020302E303030302043202020302020302020302020302020302020302020302020302020302020302020302020300A20202020302E393833342020202D302E3338383120202020302E30303030204E202020302020302020302020302020302020302020302020302020302020302020302020300A20202020302E363038382020202D312E3132333220202020302E303030302043202020302020302020302020302020302020302020302020302020302020302020302020300A20202020312E383037322020202D302E3334343920202020302E303030302043202020302020302020302020302020302020302020302020302020302020302020302020300A20202020322E323536362020202D312E3033363820202020302E303030302053202020302020302020302020302020302020302020302020302020302020302020302020300A20202020322E393731302020202D302E3632343320202020302E30303030204F202020302020302020302020302020302020302020302020302020302020302020302020300A20202020312E363733322020202D312E3632303220202020302E30303030204F202020302020302020302020302020302020302020302020302020302020302020302020300A20202020322E383339392020202D312E3632303220202020302E30303030204F202020302020302020302020302020302020302020302020302020302020302020302020300A20202020332E303533352020202D322E3431373120202020302E30303030204E612020302020302020302020302020302020302020302020302020302020302020302020300A2020312020322020322020302020202020200A2020322020332020312020302020202020200A2020332020342020322020302020202020200A2020342020352020312020302020202020200A2020352020362020322020302020202020200A2020362020312020312020302020202020200A2020372020382020312020302020202020200A2020382020392020312020302020202020200A2020392031302020322020302020202020200A2031302031312020312020302020202020200A2031312020372020312020302020202020200A2020352020372020312020302020202020200A2020382031322020322020302020202020200A2031312031332020312020302020202020200A2031302031342020312020302020202020200A2020392031352020312020302020202020200A2031352031362020312020302020202020200A2031352031372020312020302020202020200A2031372031382020312020302020202020200A2031382031392020322020302020202020200A2031382032302020322020302020202020200A2031382032312020312020302020202020200A2032312032322020312020302020202020200A4D2020454E44
Contributor: MASS SPECTROSCOPY SOC. OF JAPAN (MSSJ)
InstType: EI
InstName: HITACHI RMU-6E
IoniMethod: _ENERGY 70 eV
IonPolarity: pos
Date: 2010-10-09 19:48:36+02:00
Num Peaks: 22
218 220 217 780 215 520 123 720 119 450 98 360 97 370 96 220 91 370 83 650 
77 420 68 120 65 200 64 510 57 400 56 999 54 220 51 270 48 170 44 100 
42 510 41 200 
