Name: MassBank: JP002044
MW: 156
Formula: C6H8N2O3
Synonym: MassBank: JP002044
Synonym: 5-ACETYL-1,2-DIHYDRO-4,6-DIHYDROXYPYRIMIDINE
Structure: 352D41434554594C2D312C322D4449485944524F2D342C362D4449485944524F5859505952494D4944494E452E6D6F6C0A20204368656D447261773034323331303033353732440A2031312031312020302020302020302020302020302020302020302020303939392056323030300A20202020312E3434333820202020302E3030303020202020302E303030302043202020302020302020302020302020302020302020302020302020302020302020302020300A20202020312E303331332020202D302E3731343520202020302E30303030204E202020302020302020302020302020302020302020302020302020302020302020302020300A20202020302E323036332020202D302E3731343520202020302E303030302043202020302020302020302020302020302020302020302020302020302020302020302020300A2020202D302E3230363220202020302E3030303020202020302E303030302043202020302020302020302020302020302020302020302020302020302020302020302020300A20202020302E3230363220202020302E3731343520202020302E303030302043202020302020302020302020302020302020302020302020302020302020302020302020300A20202020312E3033313320202020302E3731343520202020302E30303030204E202020302020302020302020302020302020302020302020302020302020302020302020300A2020202D302E3230363220202020312E3432383920202020302E30303030204F202020302020302020302020302020302020302020302020302020302020302020302020300A2020202D302E323036322020202D312E3432383920202020302E30303030204F202020302020302020302020302020302020302020302020302020302020302020302020300A2020202D312E3033313220202020302E3030303020202020302E303030302043202020302020302020302020302020302020302020302020302020302020302020302020300A2020202D312E343433382020202D302E3731343520202020302E30303030204F202020302020302020302020302020302020302020302020302020302020302020302020300A2020202D312E3434333820202020302E3731343520202020302E303030302043202020302020302020302020302020302020302020302020302020302020302020302020300A2020312020322020312020302020202020200A2020322020332020322020302020202020200A2020332020342020312020302020202020200A2020342020352020322020302020202020200A2020352020362020312020302020202020200A2020312020362020312020302020202020200A2020352020372020312020302020202020200A2020332020382020312020302020202020200A2020392031302020322020302020202020200A2020392031312020312020302020202020200A2020342020392020312020302020202020200A4D2020454E44
Contributor: SASAKI S, TOYOHASHI UNIV. OF TECH.
InstType: EI
InstName: MS-902
IoniMethod: _ENERGY 70 eV
IonPolarity: pos
Date: 2010-10-09 19:48:36+02:00
Num Peaks: 33
41 18 42 63 43 534 44 11 45 134 46 16 53 12 55 2 56 47 60 26 
66 12 67 1 68 30 69 197 71 101 73 1 83 13 84 39 85 108 86 3 
99 138 111 26 112 22 126 2 127 18 128 39 138 39 139 8 141 79 154 36 
155 739 156 999 157 65 
