Name: TRI-ETHYL PHOSPHATE
MW: 182
Formula: C6H15O4P
Synonym: MassBank: JP003582
Synonym: TRI-ETHYL PHOSPHATE
Structure: 5452492D455448594C2050484F5350484154452E6D6F6C0A20204368656D447261773038313231303038313632440A2031312031302020302020302020302020302020302020302020302020303939392056323030300A20202020302E323436372020202D302E3436373820202020302E303030302050202020302020302020302020302020302020302020302020302020302020302020302020300A2020202D302E3136353820202020302E3234363720202020302E30303030204F202020302020302020302020302020302020302020302020302020302020302020302020300A20202020302E393631322020202D302E3035353320202020302E30303030204F202020302020302020302020302020302020302020302020302020302020302020302020300A20202020302E363539322020202D312E3138323220202020302E30303030204F202020302020302020302020302020302020302020302020302020302020302020302020300A2020202D302E343637382020202D302E3838303320202020302E30303030204F202020302020302020302020302020302020302020302020302020302020302020302020300A20202020302E3936313220202020302E3736393720202020302E303030302043202020302020302020302020302020302020302020302020302020302020302020302020300A20202020302E3234363720202020312E3138323220202020302E303030302043202020302020302020302020302020302020302020302020302020302020302020302020300A20202020312E343834322020202D312E3138323220202020302E303030302043202020302020302020302020302020302020302020302020302020302020302020302020300A20202020312E383936372020202D302E3436373820202020302E303030302043202020302020302020302020302020302020302020302020302020302020302020302020300A2020202D312E313832322020202D302E3436373820202020302E303030302043202020302020302020302020302020302020302020302020302020302020302020302020300A2020202D312E383936372020202D302E3838303320202020302E303030302043202020302020302020302020302020302020302020302020302020302020302020302020300A2020312020322020322020302020202020200A2020312020332020312020302020202020200A2020312020342020312020302020202020200A2020312020352020312020302020202020200A2020362020372020312020302020202020200A2020332020362020312020302020202020200A2020382020392020312020302020202020200A2020342020382020312020302020202020200A2031302031312020312020302020202020200A2020352031302020312020302020202020200A4D2020454E44
Contributor: MASS SPECTROSCOPY SOC. OF JAPAN (MSSJ)
InstType: EI
InstName: Unknown
IoniMethod: EI
IonPolarity: pos
Date: 2010-10-09 19:48:36+02:00
Num Peaks: 34
15 63 26 49 27 206 29 345 31 71 43 34 45 219 47 29 65 58 81 463 
82 325 83 95 91 97 93 21 99 906 104 23 109 362 110 83 111 146 125 172 
126 68 127 585 132 21 137 97 138 114 139 91 153 46 154 21 155 999 156 43 
167 40 181 27 182 121 183 112 
