Name: 2-ETHYL-2-HEXENAL
MW: 126
Formula: C8H14O
Synonym: MassBank: JP008681
Synonym: 2-ETHYL-2-HEXENAL
Structure: 310A32320A322D455448594C2D322D484558454E414C2E6D6F6C0A20204368656D447261773031303331303132343932440A2020392020382020302020302020302020302020302020302020302020303939392056323030300A2020202D312E343433372020202D302E3335373220202020302E303030302043202020302020302020302020302020302020302020302020302020302020302020302020300A2020202D302E363138372020202D302E3335373220202020302E303030302043202020302020302020302020302020302020302020302020302020302020302020302020300A2020202D302E323036322020202D312E3037313720202020302E303030302043202020302020302020302020302020302020302020302020302020302020302020302020300A20202020302E363138382020202D312E3037313720202020302E303030302043202020302020302020302020302020302020302020302020302020302020302020302020300A20202020312E303331332020202D302E3335373220202020302E303030302043202020302020302020302020302020302020302020302020302020302020302020302020300A20202020312E383536332020202D302E3335373220202020302E303030302043202020302020302020302020302020302020302020302020302020302020302020302020300A2020202D312E383536332020202D312E3037313720202020302E30303030204F202020302020302020302020302020302020302020302020302020302020302020302020300A2020202D302E3230363220202020302E3335373220202020302E303030302043202020302020302020302020302020302020302020302020302020302020302020302020300A2020202D302E3631383720202020312E3037313720202020302E303030302043202020302020302020302020302020302020302020302020302020302020302020302020300A2020312020322020312020302020202020200A2020322020332020322020302020202020200A2020332020342020312020302020202020200A2020342020352020312020302020202020200A2020352020362020312020302020202020200A2020312020372020322020302020202020200A2020382020392020312020302020202020200A2020322020382020312020302020202020200A4D2020454E44
Contributor: SODA AROMATIC CO., LTD.
InstType: EI
InstName: HITACHI M-80B
IoniMethod: _ENERGY 70 eV
IonPolarity: pos
Date: 2010-10-09 19:48:36+02:00
Num Peaks: 50
15 20 26 22 27 416 28 28 29 303 31 11 38 24 39 422 40 49 41 825 
42 122 43 256 44 15 45 12 50 28 51 58 52 26 53 198 54 31 55 999 
56 134 57 120 63 18 65 33 66 22 67 198 68 36 69 187 70 44 71 38 
72 14 77 56 78 11 79 56 81 44 82 10 83 151 84 43 85 70 91 27 
93 130 95 32 96 10 97 406 98 34 111 193 112 11 125 16 126 371 127 29 
