Name: MassBank: JP001340
MW: 154
Formula: C9H18Si
Synonym: MassBank: JP001340
Synonym: 3,3-DIMETHYL-1-TRIMETHYLSILYL-1-BUTYNE
Structure: 332C332D44494D455448594C2D312D5452494D455448594C53494C594C2D312D425554594E452E6D6F6C0A20204368656D447261773032323131303230313632440A2031302020392020302020302020302020302020302020302020302020303939392056323030300A2020202D302E3431323520202020302E3030303020202020302E303030302043202020302020302020302020302020302020302020302020302020302020302020302020300A20202020302E3431323520202020302E3030303020202020302E303030302043202020302020302020302020302020302020302020302020302020302020302020302020300A20202020312E3233373520202020302E3030303020202020302E303030302043202020302020302020302020302020302020302020302020302020302020302020302020300A20202020312E3233373520202020302E3832353020202020302E303030302043202020302020302020302020302020302020302020302020302020302020302020302020300A2020202D312E3233373520202020302E3030303020202020302E303030302053692020302020302020302020302020302020302020302020302020302020302020302020300A2020202D312E323337352020202D302E3832353020202020302E303030302043202020302020302020302020302020302020302020302020302020302020302020302020300A2020202D322E3036323520202020302E3030303020202020302E303030302043202020302020302020302020302020302020302020302020302020302020302020302020300A2020202D312E3233373520202020302E3832353020202020302E303030302043202020302020302020302020302020302020302020302020302020302020302020302020300A20202020322E3036323520202020302E3030303020202020302E303030302043202020302020302020302020302020302020302020302020302020302020302020302020300A20202020312E323337352020202D302E3832353020202020302E303030302043202020302020302020302020302020302020302020302020302020302020302020302020300A2020312020322020332020302020202020200A2020322020332020312020302020202020200A2020332020342020312020312020202020200A2020352020362020312020312020202020200A2020352020372020312020302020202020200A2020352020382020312020312020202020200A2020312020352020312020302020202020200A2020332020392020312020302020202020200A2020332031302020312020312020202020200A4D2020454E44
Contributor: MASS SPECTROSCOPY SOC. OF JAPAN (MSSJ)
InstType: EI
InstName: JEOL JMS-D-3000
IoniMethod: _ENERGY 70 eV
IonPolarity: pos
Date: 2010-10-09 19:48:36+02:00
Num Peaks: 23
43 38 45 14 53 18 55 18 61 19 62 12 67 35 69 28 73 123 81 12 
83 39 95 11 97 454 98 52 99 25 109 28 123 40 124 22 139 999 140 145 
141 47 154 123 155 22 
