Name: MassBank: JP009369
MW: 276
Formula: C15H16O5
Synonym: MassBank: JP009369
Synonym: DIMETHYL 1,2,4,5-TETRAHYDRO-3-OXO-BENZO(D)CYCLOHEPTENE-2,4-DICARBOXYLATE
Structure: 310A35360A5772697474656E206279206A5073690A2032302032312020302020302020302020302020302020302020302020303939392056323030300A20202D31332E3030393020202D31382E3934323420202020302E303030302043202020302020302020302020302020302020302020302020302020302020302020302020300A20202D32312E3637333320202D32332E3933323520202020302E30303030204F202020302020302020302020302020302020302020302020302020302020302020302020300A20202D31332E303039302020202D382E3933373420202020302E30303030204F202020302020302020302020302020302020302020302020302020302020302020302020300A2020202D342E3334343620202D32332E3933323520202020302E303030302043202020302020302020302020302020302020302020302020302020302020302020302020300A20202D33302E3333373720202D31382E3934323420202020302E303030302043202020302020302020302020302020302020302020302020302020302020302020302020300A2020202D342E3334343620202D33332E3933373520202020302E303030302043202020302020302020302020302020302020302020302020302020302020302020302020300A20202020342E3334343620202D31382E3934323420202020302E303030302043202020302020302020302020302020302020302020302020302020302020302020302020300A20202D31342E3137353820202D33352E3834393120202020302E30303030204F202020302020302020302020302020302020302020302020302020302020302020302020300A2020202D302E3532313420202D34332E3137323820202020302E303030302043202020302020302020302020302020302020302020302020302020302020302020302020300A20202031322E3938343120202D32332E3933323520202020302E303030302043202020302020302020302020302020302020302020302020302020302020302020302020300A2020202D392E3138353720202D34382E3138373720202020302E303030302043202020302020302020302020302020302020302020302020302020302020302020302020300A20202020392E3530383420202D34332E3137323820202020302E303030302043202020302020302020302020302020302020302020302020302020302020302020302020300A20202031322E3938343120202D33332E3933373520202020302E303030302043202020302020302020302020302020302020302020302020302020302020302020302020300A20202032312E3637333320202D31382E3934323420202020302E303030302043202020302020302020302020302020302020302020302020302020302020302020302020300A20202D31372E3835303120202D34332E3137323820202020302E30303030204F202020302020302020302020302020302020302020302020302020302020302020302020300A2020202D392E3138353720202D35382E3139323720202020302E30303030204F202020302020302020302020302020302020302020302020302020302020302020302020300A20202032312E3637333320202D33382E3935323420202020302E303030302043202020302020302020302020302020302020302020302020302020302020302020302020300A20202033302E3331323820202D32332E3933323520202020302E303030302043202020302020302020302020302020302020302020302020302020302020302020302020300A20202D32362E3533393320202D34382E3138373720202020302E303030302043202020302020302020302020302020302020302020302020302020302020302020302020300A20202033302E3331323820202D33332E3933373520202020302E303030302043202020302020302020302020302020302020302020302020302020302020302020302020300A2020312020322020312020302020302020302020300A2020312020332020322020302020302020302020300A2020312020342020312020302020302020302020300A2020322020352020312020302020302020302020300A2020342020362020312020302020302020302020300A2020342020372020312020302020302020302020300A2020362020382020322020302020302020302020300A2020362020392020312020302020302020302020300A2020372031302020312020302020302020302020300A2020392031312020312020302020302020302020300A2020392031322020312020302020302020302020300A2031302031332020312020302020302020302020300A2031302031342020322020302020302020302020300A2031312031352020312020302020302020302020300A2031312031362020322020302020302020302020300A2031322031332020312020302020302020302020300A2031332031372020322020302020302020302020300A2031342031382020312020302020302020302020300A2031352031392020312020302020302020302020300A2031372032302020312020302020302020302020300A2031382032302020322020302020302020302020300A4120202020320A4F0A4120202020330A4F0A4120202020380A4F0A4120202031350A4F0A4120202031360A4F0A4D2020454E44
Contributor: TASHIRO M, INST. OF ADVANCED MATERIAL STUDY KYUSHU UNIV.
InstType: EI
InstName: JEOL JMS-01-SG-2
IoniMethod: _ENERGY 75 eV
IonPolarity: pos
Date: 2010-10-09 19:48:36+02:00
Num Peaks: 55
40 110 50 46 51 111 55 150 59 441 63 105 65 81 69 157 76 66 77 55 
78 221 79 85 89 102 91 267 101 57 102 152 103 123 115 773 116 400 117 484 
127 276 128 888 129 999 130 199 131 77 143 66 144 47 145 49 146 15 147 16 
155 84 156 165 157 277 158 85 159 20 160 17 170 24 171 26 173 28 175 42 
183 32 184 267 185 153 186 26 187 25 188 192 189 37 212 21 213 39 216 178 
217 63 244 219 245 109 276 69 277 15 
