Name: BIS(TERT-BUTYLDIMETHYLSILYL)ACETYLENE
MW: 254
Formula: C14H30Si2
Synonym: MassBank: JP002289
Synonym: BIS(TERT-BUTYLDIMETHYLSILYL)ACETYLENE
Structure: 42495328544552542D425554594C44494D455448594C53494C594C2941434554594C454E452E6D6F6C0A20204368656D447261773039303631303030353332440A2031362031352020302020302020302020302020302020302020302020303939392056323030300A20202020302E343132352020202D302E3030303020202020302E303030302043202020302020302020302020302020302020302020302020302020302020302020302020300A2020202D302E343132352020202D302E3030303020202020302E303030302043202020302020302020302020302020302020302020302020302020302020302020302020300A20202020312E323337352020202D302E3030303020202020302E303030302053692020302020302020302020302020302020302020302020302020302020302020302020300A20202020312E323337352020202D302E3832353020202020302E303030302043202020302020302020302020302020302020302020302020302020302020302020302020300A20202020312E3233373520202020302E3832353020202020302E303030302043202020302020302020302020302020302020302020302020302020302020302020302020300A20202020322E303632352020202D302E3030303020202020302E303030302043202020302020302020302020302020302020302020302020302020302020302020302020300A20202020322E3036323520202020302E3832353020202020302E303030302043202020302020302020302020302020302020302020302020302020302020302020302020300A20202020322E303632352020202D302E3832353020202020302E303030302043202020302020302020302020302020302020302020302020302020302020302020302020300A20202020322E383837352020202D302E3030303020202020302E303030302043202020302020302020302020302020302020302020302020302020302020302020302020300A2020202D312E323337352020202D302E3030303020202020302E303030302053692020302020302020302020302020302020302020302020302020302020302020302020300A2020202D312E323337352020202D302E3832353020202020302E303030302043202020302020302020302020302020302020302020302020302020302020302020302020300A2020202D312E3233373520202020302E3832353020202020302E303030302043202020302020302020302020302020302020302020302020302020302020302020302020300A2020202D322E303632352020202D302E3030303020202020302E303030302043202020302020302020302020302020302020302020302020302020302020302020302020300A2020202D322E3036323520202020302E3832353020202020302E303030302043202020302020302020302020302020302020302020302020302020302020302020302020300A2020202D322E383837352020202D302E3030303020202020302E303030302043202020302020302020302020302020302020302020302020302020302020302020302020300A2020202D322E303632352020202D302E3832353020202020302E303030302043202020302020302020302020302020302020302020302020302020302020302020302020300A2020312020322020332020302020202020200A2020332020342020312020312020202020200A2020332020352020312020312020202020200A2020362020372020312020312020202020200A2020362020392020312020302020202020200A2020362020382020312020312020202020200A2020332020362020312020302020202020200A2020312020332020312020302020202020200A2031302031312020312020312020202020200A2031302031322020312020312020202020200A2031332031342020312020312020202020200A2031332031362020312020312020202020200A2031332031352020312020302020202020200A2031302031332020312020302020202020200A2020322031302020312020302020202020200A4D2020454E44
Contributor: MASS SPECTROSCOPY SOC. OF JAPAN (MSSJ)
InstType: EI
InstName: JEOL JMS-D-3000
IoniMethod: _ENERGY 70 eV
IonPolarity: pos
Date: 2010-10-09 19:48:36+02:00
Num Peaks: 44
43 72 45 68 53 12 55 26 56 23 57 58 58 11 59 86 67 36 69 30 
70 36 139 13 71 11 73 616 74 54 75 23 81 14 83 100 84 12 85 31 
95 14 97 109 98 13 99 100 100 13 109 27 111 15 123 21 125 103 126 18 
127 15 140 69 141 135 142 26 143 11 151 16 155 463 156 87 157 39 197 999 
198 222 199 91 200 13 254 25 
