Name: 3-TERT-BUTYLPHENOL
CAS: 585-34-2
MW: 150
Formula: C10H14O
Synonym: MassBank: JP009482
Synonym: 3-TERT-BUTYLPHENOL
Structure: 332D544552542D425554594C5048454E4F4C2E6D6F6C0A20204368656D447261773033323331303137343232440A2031312031312020302020302020302020302020302020302020302020303939392056323030300A20202020302E303535332020202D312E3037313720202020302E303030302043202020302020302020302020302020302020302020302020302020302020302020302020300A20202020302E343637382020202D302E3335373220202020302E303030302043202020302020302020302020302020302020302020302020302020302020302020302020300A20202020302E3035353320202020302E3335373220202020302E303030302043202020302020302020302020302020302020302020302020302020302020302020302020300A2020202D302E3736393720202020302E3335373220202020302E303030302043202020302020302020302020302020302020302020302020302020302020302020302020300A2020202D312E313832322020202D302E3335373220202020302E303030302043202020302020302020302020302020302020302020302020302020302020302020302020300A2020202D302E373639372020202D312E3037313720202020302E303030302043202020302020302020302020302020302020302020302020302020302020302020302020300A20202020302E3436373820202020312E3037313720202020302E303030302043202020302020302020302020302020302020302020302020302020302020302020302020300A2020202D302E3234363720202020312E3438343220202020302E303030302043202020302020302020302020302020302020302020302020302020302020302020302020300A20202020312E3138323220202020302E3635393220202020302E303030302043202020302020302020302020302020302020302020302020302020302020302020302020300A20202020302E3838303320202020312E3738363220202020302E303030302043202020302020302020302020302020302020302020302020302020302020302020302020300A20202020302E343637382020202D312E3738363220202020302E30303030204F202020302020302020302020302020302020302020302020302020302020302020302020300A2020312020322020312020302020202020200A2020322020332020322020302020202020200A2020332020342020312020302020202020200A2020342020352020322020302020202020200A2020352020362020312020302020202020200A2020312020362020322020302020202020200A2020372020382020312020302020202020200A2020372031302020312020302020202020200A2020372020392020312020302020202020200A2020332020372020312020302020202020200A2020312031312020312020302020202020200A4D2020454E44
Contributor: NARA WOMEN'S UNIVERSITY
InstType: EI
InstName: HITACHI M-80
IoniMethod: _ENERGY 70 eV
IonPolarity: pos
Date: 2010-10-09 19:48:36+02:00
Num Peaks: 48
15 31 27 52 28 28 29 30 38 10 39 105 40 14 41 85 43 15 50 16 
51 50 52 19 53 30 55 19 57 20 63 41 64 14 65 75 66 25 75 13 
77 127 78 37 79 65 89 30 90 15 91 213 92 25 94 22 95 46 102 12 
103 20 105 32 107 889 108 104 109 13 115 139 116 35 117 17 119 27 120 11 
121 24 122 21 133 17 134 16 135 999 136 104 150 433 151 49 
