Name: PROKETAZINE CARPHENAZINE
MW: 425
Formula: C24H31N3O2S
Synonym: MassBank: JP003083
Synonym: PROKETAZINE CARPHENAZINE
Structure: 303733335F50524F4B4554415A494E45204341525048454E415A494E452E6D6F6C0A20204368656D447261773038323031303039343132440A2033312033342020302020302020302020302020302020302020302020303939392056323030300A2020202D322E3230353320202020322E3332303320202020302E303030302043202020302020302020302020302020302020302020302020302020302020302020302020300A2020202D322E3230353320202020312E3439353320202020302E303030302043202020302020302020302020302020302020302020302020302020302020302020302020300A2020202D312E3439303820202020312E3038323820202020302E303030302043202020302020302020302020302020302020302020302020302020302020302020302020300A2020202D302E3737363320202020312E3439353320202020302E303030302043202020302020302020302020302020302020302020302020302020302020302020302020300A2020202D302E3737363320202020322E3332303320202020302E303030302043202020302020302020302020302020302020302020302020302020302020302020302020300A2020202D312E3439303820202020322E3733323820202020302E303030302043202020302020302020302020302020302020302020302020302020302020302020302020300A2020202D302E3036313920202020312E3038323820202020302E30303030204E202020302020302020302020302020302020302020302020302020302020302020302020300A20202020302E3635323620202020312E3439353320202020302E303030302043202020302020302020302020302020302020302020302020302020302020302020302020300A20202020302E3635323620202020322E3332303320202020302E303030302043202020302020302020302020302020302020302020302020302020302020302020302020300A2020202D302E3036313920202020322E3733323820202020302E303030302053202020302020302020302020302020302020302020302020302020302020302020302020300A20202020312E3336373120202020312E3038323820202020302E303030302043202020302020302020302020302020302020302020302020302020302020302020302020300A20202020322E3038313520202020312E3439353320202020302E303030302043202020302020302020302020302020302020302020302020302020302020302020302020300A20202020322E3038313520202020322E3332303320202020302E303030302043202020302020302020302020302020302020302020302020302020302020302020302020300A20202020312E3336373120202020322E3733323820202020302E303030302043202020302020302020302020302020302020302020302020302020302020302020302020300A2020202D322E3931393820202020312E3038323820202020302E303030302043202020302020302020302020302020302020302020302020302020302020302020302020300A2020202D332E3633343220202020312E3439353320202020302E303030302043202020302020302020302020302020302020302020302020302020302020302020302020300A2020202D322E3931393820202020302E3235373820202020302E30303030204F202020302020302020302020302020302020302020302020302020302020302020302020300A2020202D342E3334383720202020312E3038323820202020302E303030302043202020302020302020302020302020302020302020302020302020302020302020302020300A2020202D352E3036333220202020312E3439353320202020302E303030302043202020302020302020302020302020302020302020302020302020302020302020302020300A2020202D302E3036313920202020302E3235373820202020302E303030302043202020302020302020302020302020302020302020302020302020302020302020302020300A20202020302E363532362020202D302E3135343720202020302E303030302043202020302020302020302020302020302020302020302020302020302020302020302020300A20202020302E363532362020202D302E3937393720202020302E303030302043202020302020302020302020302020302020302020302020302020302020302020302020300A20202020312E343930382020202D312E3439353320202020302E30303030204E202020302020302020302020302020302020302020302020302020302020302020302020300A20202020312E343930382020202D322E3332303320202020302E303030302043202020302020302020302020302020302020302020302020302020302020302020302020300A20202020322E323035332020202D322E3733323820202020302E303030302043202020302020302020302020302020302020302020302020302020302020302020302020300A20202020322E393139382020202D322E3332303320202020302E30303030204E202020302020302020302020302020302020302020302020302020302020302020302020300A20202020322E393139382020202D312E3439353320202020302E303030302043202020302020302020302020302020302020302020302020302020302020302020302020300A20202020322E323035332020202D312E3038323820202020302E303030302043202020302020302020302020302020302020302020302020302020302020302020302020300A20202020332E363334322020202D322E3733323820202020302E303030302043202020302020302020302020302020302020302020302020302020302020302020302020300A20202020342E333438372020202D322E3332303320202020302E303030302043202020302020302020302020302020302020302020302020302020302020302020302020300A20202020352E303633322020202D322E3733323820202020302E30303030204F202020302020302020302020302020302020302020302020302020302020302020302020300A2020312020322020322020302020202020200A2020322020332020312020302020202020200A2020332020342020322020302020202020200A2020342020352020312020302020202020200A2020352020362020322020302020202020200A2020362020312020312020302020202020200A2020342020372020312020302020202020200A2020372020382020312020302020202020200A2020382020392020322020302020202020200A2020392031302020312020302020202020200A2031302020352020312020302020202020200A2020382031312020312020302020202020200A2031312031322020322020302020202020200A2031322031332020312020302020202020200A2031332031342020322020302020202020200A2031342020392020312020302020202020200A2020322031352020312020302020202020200A2031352031362020312020302020202020200A2031352031372020322020302020202020200A2031362031382020312020302020202020200A2031382031392020312020302020202020200A2020372032302020312020302020202020200A2032302032312020312020302020202020200A2032312032322020312020302020202020200A2032332032342020312020302020202020200A2032342032352020312020302020202020200A2032352032362020312020302020202020200A2032362032372020312020302020202020200A2032372032382020312020302020202020200A2032382032332020312020302020202020200A2032362032392020312020302020202020200A2032392033302020312020302020202020200A2033302033312020312020302020202020200A2032322032332020312020302020202020200A4D2020454E44
Contributor: SASAKI S, TOYOHASHI UNIV. OF TECH.
InstType: EI
InstName: Unknown
IoniMethod: EI
IonPolarity: pos
Date: 2010-10-09 19:48:36+02:00
Num Peaks: 204
38 39 39 294 40 479 41 49 42 169 43 80 51 29 52 4 53 279 54 339 
55 549 56 27 57 39 58 29 65 29 66 2 67 49 68 64 69 159 70 51 
71 329 72 89 73 59 74 7 75 29 76 19 77 64 78 2 80 29 81 69 
82 89 83 14 84 189 85 159 86 49 87 2 88 54 89 39 95 39 96 9 
97 229 98 239 99 159 100 19 101 29 105 124 106 39 107 4 108 34 109 39 
110 39 111 14 112 74 113 299 114 79 115 6 116 19 121 39 122 24 123 6 
124 49 125 154 126 74 127 9 128 69 129 49 133 39 134 5 135 49 136 24 
137 34 138 3 139 164 140 49 141 124 142 5 143 619 144 74 145 29 146 2 
149 64 150 24 151 29 152 5 153 134 154 49 155 29 156 6 157 319 158 64 
159 29 160 3 161 19 162 14 167 49 168 2 169 59 170 29 171 249 172 4 
174 1 175 16 176 17 177 2 178 28 179 53 180 43 181 2 182 23 183 38 
184 13 185 2 186 7 187 1 193 29 194 2 195 24 196 59 197 349 198 15 
199 59 200 44 201 29 202 2 208 29 209 29 210 49 211 5 212 99 213 39 
214 19 223 4 224 49 225 49 226 59 227 2 228 9 234 14 235 19 236 15 
237 49 238 49 239 39 240 4 241 19 242 9 252 29 253 2 254 109 255 199 
256 49 257 3 258 9 266 49 267 29 268 999 269 419 270 144 271 44 280 4 
281 79 282 99 283 34 284 2 293 19 294 79 295 99 296 3 297 19 308 59 
309 34 310 2 311 14 312 9 324 39 325 2 326 19 338 59 339 24 340 2 
351 44 352 29 353 19 354 1 366 29 367 24 368 29 369 2 380 14 381 39 
394 319 395 15 396 59 397 19 407 104 408 5 409 34 410 19 423 49 424 4 
425 589 426 214 427 69 428 19 
