Name: 3-AMINOPROPYL METHYL ETHER
CAS: 5332-73-0
MW: 89
Formula: C4H11NO
Synonym: MassBank: JP007376
Synonym: 3-AMINOPROPYL METHYL ETHER
Synonym: 3-METHOXY-1-PROPANAMINE
Structure: 310A31360A332D414D494E4F50524F50594C204D455448594C2045544845522E6D6F6C0A20204368656D447261773032323231303134303332440A2020362020352020302020302020302020302020302020302020302020303939392056323030300A2020202D312E3037313720202020302E3230363320202020302E30303030204F202020302020302020302020302020302020302020302020302020302020302020302020300A2020202D312E373836322020202D302E3230363320202020302E303030302043202020302020302020302020302020302020302020302020302020302020302020302020300A2020202D302E333537322020202D302E3230363220202020302E303030302043202020302020302020302020302020302020302020302020302020302020302020302020300A20202020302E3335373220202020302E3230363320202020302E303030302043202020302020302020302020302020302020302020302020302020302020302020302020300A20202020312E303731372020202D302E3230363220202020302E303030302043202020302020302020302020302020302020302020302020302020302020302020302020300A20202020312E3738363220202020302E3230363320202020302E30303030204E202020302020302020302020302020302020302020302020302020302020302020302020300A2020312020322020312020302020202020200A2020332020342020312020302020202020200A2020342020352020312020302020202020200A2020352020362020312020302020202020200A2020312020332020312020302020202020200A4D2020454E44
Contributor: YAMAMOTO M, DEP. CHEMISTRY, FAC. SCIENCE, NARA WOMEN'S UNIV.
InstType: EI
InstName: HITACHI RMU-6M
IoniMethod: _ENERGY 70 eV
IonPolarity: pos
Date: 2010-10-09 19:48:36+02:00
Num Peaks: 23
15 52 18 56 27 28 28 80 29 39 30 999 31 32 33 23 39 12 41 30 
42 29 43 15 44 35 45 156 56 102 57 60 58 11 59 26 71 21 72 234 
73 11 74 56 89 14 
