Name: MassBank: JP008877
MW: 78
Formula: C3H7Cl
Synonym: MassBank: JP008877
Synonym: 2-CHLOROPROPANE (1,1,1,2,3,3,3-D7)
Synonym: ISOPROPYLCHLORIDE (1,1,1,2,3,3,3-D7)
Structure: 322D43484C4F524F50524F50414E452028312C312C312C322C332C332C332D4437292E6D6F6C0A20204368656D447261773031303331303131353832440A2031312031302020302020302020302020302020302020302020302020303939392056323030300A20202020302E3030313920202020302E3832353020202020302E303030302043202020302020302020302020302020302020302020302020302020302020302020302020300A20202020302E303031392020202D302E3030303020202020302E303030302043202020302020302020302020302020302020302020302020302020302020302020302020300A20202020302E303031392020202D302E3832353020202020302E303030302043202020302020302020302020302020302020302020302020302020302020302020302020300A20202020302E303031392020202D312E3635303020202020302E303030302048202020312020302020302020302020302020302020302020302020302020302020302020300A20202020302E383231322020202D302E3832353020202020302E303030302048202020312020302020302020302020302020302020302020302020302020302020302020300A2020202D302E383238382020202D302E3832353020202020302E303030302048202020312020302020302020302020302020302020302020302020302020302020302020300A20202020302E383235302020202D302E3030303020202020302E303030302048202020312020302020302020302020302020302020302020302020302020302020302020300A2020202D302E3832313220202020302E3832353020202020302E303030302048202020312020302020302020302020302020302020302020302020302020302020302020300A20202020302E3030313920202020312E3635303020202020302E303030302048202020312020302020302020302020302020302020302020302020302020302020302020300A20202020302E3832383820202020302E3832353020202020302E303030302048202020312020302020302020302020302020302020302020302020302020302020302020300A2020202D302E383235302020202D302E3030303020202020302E3030303020436C2020302020302020302020302020302020302020302020302020302020302020302020300A2020312020322020312020302020202020200A2020322020332020312020302020202020200A2020332020342020312020302020202020200A2020332020352020312020302020202020200A2020332020362020312020302020202020200A2020322020372020312020302020202020200A2020312020382020312020302020202020200A2020312020392020312020302020202020200A2020312031302020312020302020202020200A2020322031312020312020302020202020200A4D202049534F20203720202034202020322020203520202032202020362020203220202037202020322020203820202032202020392020203220203130202020320A4D2020454E44
Contributor: TAJIMA S, GUNMA COLLEGE OF TECHNOLOGY
InstType: EI
InstName: HITACHI RMU-7M
IoniMethod: _ENERGY 70 eV
IonPolarity: pos
Date: 2010-10-09 19:48:36+02:00
Num Peaks: 26
16 21 18 74 28 135 29 27 30 583 32 34 35 22 37 15 38 33 40 61 
42 215 44 31 45 27 46 364 47 20 48 65 49 142 50 999 51 33 63 15 
65 27 67 176 69 56 84 15 85 155 87 52 
