Name: PROPIONITRILE
MW: 55
Formula: C3H5N
Synonym: MassBank: JP001696
Synonym: PROPIONITRILE
Structure: 310A31320A50524F50494F4E495452494C452E6D6F6C0A20204368656D447261773038313231303036303732440A2020342020332020302020302020302020302020302020302020302020303939392056323030300A2020202D302E323036322020202D302E3335373220202020302E303030302043202020302020302020302020302020302020302020302020302020302020302020302020300A20202020302E363138382020202D302E3335373220202020302E303030302043202020302020302020302020302020302020302020302020302020302020302020302020300A20202020312E3033313320202020302E3335373220202020302E303030302043202020302020302020302020302020302020302020302020302020302020302020302020300A2020202D312E303331332020202D302E3335373220202020302E30303030204E202020302020302020302020302020302020302020302020302020302020302020302020300A2020312020322020312020302020202020200A2020322020332020312020302020202020200A2020312020342020332020302020202020200A4D2020454E44
Contributor: TAJIMA S, GUNMA COLLEGE OF TECHNOLOGY
InstType: EI
InstName: HITACHI RMU-7M
IoniMethod: _ENERGY 70 eV
IonPolarity: pos
Date: 2010-10-09 19:48:36+02:00
Num Peaks: 18
15 46 25 14 26 140 27 129 28 999 29 31 31 17 37 11 38 20 39 25 
40 43 41 38 50 13 51 77 52 107 53 72 54 716 55 114 
