Name: ALLYL PROPIONATE
MW: 114
Formula: C6H10O2
Synonym: MassBank: JP006389
Synonym: ALLYL PROPIONATE
Structure: 310A32300A414C4C594C2050524F50494F4E4154452E6D6F6C0A20204368656D447261773038303631303034323832440A2020382020372020302020302020302020302020302020302020302020303939392056323030300A2020202D302E363138372020202D302E3030303020202020302E303030302043202020302020302020302020302020302020302020302020302020302020302020302020300A2020202D312E343433372020202D302E3030303020202020302E303030302043202020302020302020302020302020302020302020302020302020302020302020302020300A2020202D312E383536332020202D302E3731343520202020302E303030302043202020302020302020302020302020302020302020302020302020302020302020302020300A2020202D302E3230363220202020302E3731343520202020302E30303030204F202020302020302020302020302020302020302020302020302020302020302020302020300A2020202D302E323036322020202D302E3731343520202020302E30303030204F202020302020302020302020302020302020302020302020302020302020302020302020300A20202020302E363138382020202D302E3731343520202020302E303030302043202020302020302020302020302020302020302020302020302020302020302020302020300A20202020312E3033313320202020302E3030303020202020302E303030302043202020302020302020302020302020302020302020302020302020302020302020302020300A20202020312E3835363320202020302E3030303020202020302E303030302043202020302020302020302020302020302020302020302020302020302020302020302020300A2020312020322020312020302020202020200A2020322020332020312020302020202020200A2020312020342020322020302020202020200A2020312020352020312020302020202020200A2020362020372020312020302020202020200A2020372020382020322020302020202020200A2020352020362020312020302020202020200A4D2020454E44
Contributor: HISAHIRO HAGIWARA, CHEMICAL RESEARCH INSTITUTE OF NON-AQUEOUSSOLUTIONS TOHOKU UNIV.
InstType: EI
InstName: HITACHI M-80B
IoniMethod: _ENERGY 70 eV
IonPolarity: pos
Date: 2010-10-09 19:48:36+02:00
Num Peaks: 17
15 11 26 39 27 161 28 38 29 412 30 11 31 14 38 15 39 152 40 24 
41 325 42 24 55 16 56 19 57 999 58 44 75 18 
