Name: DIXYRAZINE
MW: 427
Formula: C24H33N3O2S
Synonym: MassBank: JP002766
Synonym: DIXYRAZINE
Structure: 310A350A4449585952415A494E452E6D6F6C0A20204368656D447261773130313831303136343232440A2020302020302020302020302020302020302020302020302020302020303939392056323030300A4D2020454E44
Contributor: SASAKI S, TOYOHASHI UNIV. OF TECH.
InstType: EI
InstName: Unknown
IoniMethod: EI
IonPolarity: pos
Date: 2010-10-09 19:48:36+02:00
Num Peaks: 37
39 49 41 139 42 759 43 18 44 149 45 649 55 309 56 55 69 99 70 619 
71 99 97 22 98 469 99 139 101 99 111 16 113 169 180 589 187 689 197 3 
198 409 199 9 212 999 213 18 229 39 238 39 239 39 240 6 252 39 253 49 
283 9 296 1 339 9 352 89 363 59 395 2 427 149 
