Name: GAMMA-UNDECALACTONE
MW: 184
Formula: C11H20O2
Synonym: MassBank: JP002881
Synonym: GAMMA-UNDECALACTONE
Structure: 47414D4D412D554E444543414C4143544F4E452E6D6F6C0A20204368656D447261773038313131303139343432440A2031332031332020302020302020302020302020302020302020302020303939392056323030300A2020202D322E373433332020202D302E3031323220202020302E303030302043202020302020302020302020302020302020302020302020302020302020302020302020300A2020202D322E3333303820202020302E3730323320202020302E303030302043202020302020302020302020302020302020302020302020302020302020302020302020300A2020202D312E3532333820202020302E3533303720202020302E303030302043202020302020302020302020302020302020302020302020302020302020302020302020300A2020202D312E343337362020202D302E3238393820202020302E303030302043202020302020302020302020302020302020302020302020302020302020302020302020300A2020202D302E373233312020202D302E3730323320202020302E303030302043202020302020302020302020302020302020302020302020302020302020302020302020300A2020202D302E303038362020202D302E3238393820202020302E303030302043202020302020302020302020302020302020302020302020302020302020302020302020300A20202020302E373035392020202D302E3730323320202020302E303030302043202020302020302020302020302020302020302020302020302020302020302020302020300A20202020312E343230332020202D302E3238393820202020302E303030302043202020302020302020302020302020302020302020302020302020302020302020302020300A20202020322E313334382020202D302E3730323320202020302E303030302043202020302020302020302020302020302020302020302020302020302020302020302020300A20202020322E383439332020202D302E3238393820202020302E303030302043202020302020302020302020302020302020302020302020302020302020302020302020300A20202020332E353633372020202D302E3730323320202020302E303030302043202020302020302020302020302020302020302020302020302020302020302020302020300A2020202D332E353633372020202D302E3039383520202020302E30303030204F202020302020302020302020302020302020302020302020302020302020302020302020300A2020202D322E313931322020202D302E3632353320202020302E30303030204F202020302020302020302020302020302020302020302020302020302020302020302020300A2020312020322020312020302020202020200A2020322020332020312020302020202020200A2020332020342020312020302020202020200A2020342020352020312020302020202020200A2020352020362020312020302020202020200A2020362020372020312020302020202020200A2020372020382020312020302020202020200A2020382020392020312020302020202020200A2020392031302020312020302020202020200A2031302031312020312020302020202020200A2020312031322020322020302020202020200A2020312031332020312020302020202020200A2020342031332020312020302020202020200A4D2020454E44
Contributor: MASS SPECTROSCOPY SOC. OF JAPAN (MSSJ)
InstType: EI
InstName: Unknown
IoniMethod: EI
IonPolarity: pos
Date: 2010-10-09 19:48:36+02:00
Num Peaks: 32
27 84 28 66 29 259 39 46 41 156 42 51 43 134 54 21 55 149 56 122 
57 129 67 21 68 28 69 76 70 39 71 27 72 23 81 21 82 29 83 39 
84 65 85 999 86 45 95 22 96 22 98 22 99 98 100 54 101 22 114 29 
127 25 128 90 
