Name: MassBank: JP002144
MW: 180
Formula: C4H3F3N4O
Synonym: MassBank: JP002144
Synonym: 4-(N-TRIFLUOROACETYL)AMINO-1,2,4-TRIAZOLE
Structure: 342D284E2D545249464C554F524F41434554594C29414D494E4F2D312C322C342D545249415A4F4C452E6D6F6C0A20204368656D447261773033323531303033353032440A2031322031322020302020302020302020302020302020302020302020303939392056323030300A20202020312E3737393820202020302E3334313220202020302E30303030204E202020302020302020302020302020302020302020302020302020302020302020302020300A20202020312E333637332020202D302E3337333320202020302E30303030204E202020302020302020302020302020302020302020302020302020302020302020302020300A20202020302E353630342020202D302E3230313720202020302E303030302043202020302020302020302020302020302020302020302020302020302020302020302020300A20202020302E3437343120202020302E3631383720202020302E30303030204E202020302020302020302020302020302020302020302020302020302020302020302020300A20202020312E3232373820202020302E3935343320202020302E303030302043202020302020302020302020302020302020302020302020302020302020302020302020300A2020202D302E3234303420202020312E3033313320202020302E30303030204E202020302020302020302020302020302020302020302020302020302020302020302020300A2020202D302E3935343820202020302E3631383720202020302E303030302043202020302020302020302020302020302020302020302020302020302020302020302020300A2020202D312E3636393320202020312E3033313320202020302E30303030204F202020302020302020302020302020302020302020302020302020302020302020302020300A2020202D302E393534382020202D302E3230363220202020302E303030302043202020302020302020302020302020302020302020302020302020302020302020302020300A2020202D302E313239382020202D302E3230363220202020302E303030302046202020302020302020302020302020302020302020302020302020302020302020302020300A2020202D302E393534382020202D312E3033313320202020302E303030302046202020302020302020302020302020302020302020302020302020302020302020302020300A2020202D312E373739382020202D302E3230363220202020302E303030302046202020302020302020302020302020302020302020302020302020302020302020302020300A2020312020322020312020302020202020200A2020322020332020322020302020202020200A2020332020342020312020302020202020200A2020342020352020312020302020202020200A2020312020352020322020302020202020200A2020372020382020322020302020202020200A2020372020392020312020302020202020200A2020392031302020312020312020202020200A2020392031312020312020302020202020200A2020392031322020312020312020202020200A2020362020372020312020302020202020200A2020342020362020312020302020202020200A4D2020454E44
Contributor: KOGA M, UNIV. OF OCCUPATIONAL AND ENVIRONMENTAL HEALTH
InstType: EI
InstName: JEOL JMS-01-SG
IoniMethod: _ENERGY 70 eV
IonPolarity: pos
Date: 2010-10-09 19:48:36+02:00
Num Peaks: 8
51 131 53 56 69 412 84 8 111 140 153 50 180 999 181 59 
