Name: BETA-METHOXYETHYLHYDRAZINE
MW: 90
Formula: C3H10N2O
Synonym: MassBank: JP000376
Synonym: BETA-METHOXYETHYLHYDRAZINE
Structure: 310A31360A424554412D4D4554484F5859455448594C48594452415A494E452E6D6F6C0A20204368656D447261773039303531303137333432440A2020362020352020302020302020302020302020302020302020302020303939392056323030300A2020202D312E3037313720202020302E3230363220202020302E30303030204E202020302020302020302020302020302020302020302020302020302020302020302020300A2020202D312E373836322020202D302E3230363220202020302E30303030204E202020302020302020302020302020302020302020302020302020302020302020302020300A2020202D302E333537322020202D302E3230363220202020302E303030302043202020302020302020302020302020302020302020302020302020302020302020302020300A20202020302E3335373220202020302E3230363220202020302E303030302043202020302020302020302020302020302020302020302020302020302020302020302020300A20202020312E303731372020202D302E3230363220202020302E30303030204F202020302020302020302020302020302020302020302020302020302020302020302020300A20202020312E3738363220202020302E3230363220202020302E303030302043202020302020302020302020302020302020302020302020302020302020302020302020300A2020312020322020312020302020202020200A2020332020342020312020302020202020200A2020352020362020312020302020202020200A2020342020352020312020302020202020200A2020312020332020312020302020202020200A4D2020454E44
Contributor: SASAKI S, TOYOHASHI UNIV. OF TECH.
InstType: EI
InstName: SHIMADZU LKB-2091
IoniMethod: _ENERGY 70 eV
IonPolarity: pos
Date: 2010-10-09 19:48:36+02:00
Num Peaks: 22
26 7 27 30 28 65 29 5 30 48 31 79 32 16 33 1 40 6 41 14 
42 26 43 4 44 21 45 999 46 25 57 2 58 14 59 12 69 3 73 0 
90 110 91 9 
