Name: MassBank: JP004484
MW: 222
Formula: C11H14N2O3
Synonym: MassBank: JP004484
Synonym: 1,6-DIMETHYL-4-OXO-7,8-DIHYDRO-1H,4H,6H-PYRIDO(1,2-A)PYRIMIDINE-3-CARBOXYLIC ACID
Structure: 312C362D44494D455448594C2D342D4F584F2D372C382D4449485944524F2D31482C34482C36482D50595249444F28312C322D4129505952494D4944494E452D332D434152424F58594C494320414349442E6D6F6C0A20204368656D447261773131313730393037323232440A2031382031392020302020302020302020302020302020302020302020303939392056323030300A2020202D302E373134352020202D302E3431323520202020302E303030302043202020302020302020302020302020302020302020302020302020302020302020302020300A2020202D302E303030302020202D302E3832353020202020302E30303030204E202020302020302020302020302020302020302020302020302020302020302020302020300A20202020302E373134352020202D302E3431323520202020302E303030302043202020302020302020302020302020302020302020302020302020302020302020302020300A20202020302E3731343520202020302E3431323520202020302E303030302043202020302020302020302020302020302020302020302020302020302020302020302020300A2020202D302E3030303020202020302E3832353020202020302E303030302043202020302020302020302020302020302020302020302020302020302020302020302020300A2020202D302E3731343520202020302E3431323520202020302E30303030204E202020302020302020302020302020302020302020302020302020302020302020302020300A2020202D312E343238392020202D302E3832353020202020302E303030302043202020302020302020302020302020302020302020302020302020302020302020302020300A2020202D322E313433342020202D302E3431323520202020302E303030302043202020302020302020302020302020302020302020302020302020302020302020302020300A2020202D322E3134333420202020302E3431323520202020302E303030302043202020302020302020302020302020302020302020302020302020302020302020302020300A2020202D312E3432383920202020302E3832353020202020302E303030302043202020302020302020302020302020302020302020302020302020302020302020302020300A20202020312E3432383920202020302E3832353020202020302E303030302043202020302020302020302020302020302020302020302020302020302020302020302020300A20202020312E3432383920202020312E3635303020202020302E30303030204F202020302020302020302020302020302020302020302020302020302020302020302020300A20202020322E3134333420202020302E3431323520202020302E30303030204F202020302020302020302020302020302020302020302020302020302020302020302020300A2020202D302E3030303020202020312E3635303020202020302E30303030204F202020302020302020302020302020302020302020302020302020302020302020302020300A2020202D312E3432383920202020312E3635303020202020302E303030302043202020302020302020302020302020302020302020302020302020302020302020302020300A2020202D302E303030302020202D312E3635303020202020302E303030302043202020302020302020302020302020302020302020302020302020302020302020302020300A2020202D312E343238392020202D312E3635303020202020302E303030302048202020302020302020302020302020302020302020302020302020302020302020302020300A20202020312E343238392020202D302E3832353020202020302E303030302048202020302020302020302020302020302020302020302020302020302020302020302020300A2020312020322020312020302020202020200A2020322020332020312020302020202020200A2020332020342020322020302020202020200A2020342020352020312020302020202020200A2020352020362020312020302020202020200A2020312020362020312020302020202020200A2020372020382020312020302020202020200A2020382020392020312020302020202020200A2020392031302020312020302020202020200A2020362031302020312020302020202020200A2020312020372020322020302020202020200A2031312031322020322020302020202020200A2031312031332020312020302020202020200A2020342031312020312020302020202020200A2020352031342020322020302020202020200A2031302031352020312020302020202020200A2020322031362020312020302020202020200A2020372031372020312020302020202020200A2020332031382020312020302020202020200A4D2020454E44
Contributor: SASAKI S, TOYOHASHI UNIV. OF TECH.
InstType: EI
InstName: MX-1303
IoniMethod: _ENERGY 70 eV
IonPolarity: pos
Date: 2010-10-09 19:48:36+02:00
Num Peaks: 32
53 40 54 50 82 20 83 2 94 30 95 30 96 20 99 2 102 30 108 30 
109 20 110 9 122 30 135 30 136 40 148 6 149 90 150 50 163 140 164 2 
168 20 177 120 178 20 181 4 189 20 193 60 203 30 204 3 207 100 221 130 
222 999 223 100 
