Name: 2-METHYLTETRAHYDROFURAN
MW: 86
Formula: C5H10O
Synonym: MassBank: JP008950
Synonym: 2-METHYLTETRAHYDROFURAN
Structure: 310A31370A322D4D455448594C5445545241485944524F465552414E2E6D6F6C0A20204368656D447261773032323131303036303532440A2020362020362020302020302020302020302020302020302020302020303939392056323030300A20202020302E3236323720202020302E3636373420202020302E30303030204F202020302020302020302020302020302020302020302020302020302020302020302020300A2020202D302E3232323320202020302E3030303020202020302E303030302043202020302020302020302020302020302020302020302020302020302020302020302020300A20202020302E323632372020202D302E3636373420202020302E303030302043202020302020302020302020302020302020302020302020302020302020302020302020300A20202020312E303437332020202D302E3431323520202020302E303030302043202020302020302020302020302020302020302020302020302020302020302020302020300A20202020312E3034373320202020302E3431323520202020302E303030302043202020302020302020302020302020302020302020302020302020302020302020302020300A2020202D312E3034373320202020302E3030303020202020302E303030302043202020302020302020302020302020302020302020302020302020302020302020302020300A2020312020322020312020302020202020200A2020322020332020312020302020202020200A2020332020342020312020302020202020200A2020342020352020312020302020202020200A2020312020352020312020302020202020200A2020322020362020312020302020202020200A4D2020454E44
Contributor: YAMAMOTO M, DEP. CHEMISTRY, FAC. SCIENCE, NARA WOMEN'S UNIV.
InstType: EI
InstName: HITACHI RMU-6M
IoniMethod: _ENERGY 70 eV
IonPolarity: pos
Date: 2010-10-09 19:48:36+02:00
Num Peaks: 31
14 15 15 74 26 56 27 33 28 106 29 145 31 30 37 1 38 30 39 239 
40 81 41 68 42 523 43 588 44 27 45 25 50 20 51 19 53 27 54 1 
55 69 56 232 57 30 58 2 67 13 70 17 71 999 72 5 85 49 86 198 
87 17 
