Name: 2-METHYL-6-METHYLENE-7-OCTEN-4-OL
MW: 154
Formula: C10H18O
Synonym: MassBank: JP002367
Synonym: 2-METHYL-6-METHYLENE-7-OCTEN-4-OL
Structure: 322D4D455448594C2D362D4D455448594C454E452D372D4F4354454E2D342D4F4C2E6D6F6C0A20204368656D447261773031323231303037323632440A2031312031302020302020302020302020302020302020302020302020303939392056323030300A2020202D322E353030362020202D302E3230363320202020302E303030302043202020302020302020302020302020302020302020302020302020302020302020302020300A2020202D312E3738363220202020302E3230363220202020302E303030302043202020302020302020302020302020302020302020302020302020302020302020302020300A2020202D312E303731372020202D302E3230363220202020302E303030302043202020302020302020302020302020302020302020302020302020302020302020302020300A2020202D302E3335373220202020302E3230363220202020302E303030302043202020302020302020302020302020302020302020302020302020302020302020302020300A20202020302E333537322020202D302E3230363220202020302E303030302043202020302020302020302020302020302020302020302020302020302020302020302020300A20202020312E3037313720202020302E3230363220202020302E303030302043202020302020302020302020302020302020302020302020302020302020302020302020300A2020202D302E3335373220202020312E3033313320202020302E30303030204F202020302020302020302020302020302020302020302020302020302020302020302020300A20202020312E373836322020202D302E3230363220202020302E303030302043202020302020302020302020302020302020302020302020302020302020302020302020300A2020202D312E3738363220202020312E3033313320202020302E303030302043202020302020302020302020302020302020302020302020302020302020302020302020300A20202020302E333537322020202D312E3033313320202020302E303030302043202020302020302020302020302020302020302020302020302020302020302020302020300A20202020322E3530303620202020302E3230363220202020302E303030302043202020302020302020302020302020302020302020302020302020302020302020302020300A2020312020322020312020302020202020200A2020322020332020312020302020202020200A2020332020342020312020302020202020200A2020342020352020312020302020202020200A2020352020362020312020302020202020200A2020342020372020312020302020202020200A2020362020382020312020302020202020200A2020322020392020312020302020202020200A2020352031302020322020302020202020200A2020382031312020322020302020202020200A4D2020454E44
Contributor: MASS SPECTROSCOPY SOC. OF JAPAN (MSSJ)
InstType: EI
InstName: JEOL JMS-D-3000
IoniMethod: _ENERGY 70 eV
IonPolarity: pos
Date: 2010-10-09 19:48:36+02:00
Num Peaks: 32
41 396 42 44 43 412 44 71 45 210 51 19 52 14 53 114 55 30 57 132 
58 37 65 22 66 19 67 272 68 999 69 565 70 44 71 47 77 14 79 32 
80 24 81 13 83 12 85 171 86 22 87 72 93 37 97 19 98 31 121 12 
136 34 154 1 
