Name: MassBank: JP006662
MW: 282
Formula: C15H22O5
Synonym: MassBank: JP006662
Synonym: 3,5-DIMETHOXY-2,6-DIMETHYL-(6R)-((2R)-2-METHYLBUTYRYLOXY)-2,4-CYCLOHEXADIEN-1-ONE
Synonym: WASABIDIENONE-A METHYL ETHER
Structure: 332C352D44494D4554484F58592D322C362D44494D455448594C2D283652292D28283252292D322D4D455448594C4255545952594C4F5859292D322C342D4359434C4F484558414449454E2D312D4F4E452E6D6F6C0A20204368656D447261773032323231303031303732440A2032322032322020302020302020302020302020302020302020302020303939392056323030300A20202020312E3033343520202020302E3831313820202020302E303030302043202020302020302020302020302020302020302020302020302020302020302020302020300A20202020312E3734393020202020302E3339393320202020302E303030302043202020302020302020302020302020302020302020302020302020302020302020302020300A20202020312E373439302020202D302E3432353720202020302E303030302043202020302020302020302020302020302020302020302020302020302020302020302020300A20202020312E303334352020202D302E3833383220202020302E303030302043202020302020302020302020302020302020302020302020302020302020302020302020300A20202020302E333230312020202D302E3432353720202020302E303030302043202020302020302020302020302020302020302020302020302020302020302020302020300A20202020302E3332303120202020302E3339393320202020302E303030302043202020302020302020302020302020302020302020302020302020302020302020302020300A20202020312E3033343520202020312E3633363820202020302E30303030204F202020302020302020302020302020302020302020302020302020302020302020302020300A2020202D302E3439323420202020302E3235363020202020302E30303030204F202020302020302020302020302020302020302020302020302020302020302020302020300A20202020322E3436333520202020302E3831313820202020302E303030302043202020302020302020302020302020302020302020302020302020302020302020302020300A2020202D302E333934342020202D302E3833383220202020302E30303030204F202020302020302020302020302020302020302020302020302020302020302020302020300A2020202D302E333934342020202D312E3636333220202020302E303030302043202020302020302020302020302020302020302020302020302020302020302020302020300A20202020322E343633352020202D302E3833383220202020302E30303030204F202020302020302020302020302020302020302020302020302020302020302020302020300A20202020332E313737392020202D302E3432353720202020302E303030302043202020302020302020302020302020302020302020302020302020302020302020302020300A20202020302E3033373920202020312E3137343520202020302E303030302043202020302020302020302020302020302020302020302020302020302020302020302020300A2020202D312E3032323720202020302E3838383020202020302E303030302043202020302020302020302020302020302020302020302020302020302020302020302020300A2020202D302E3734303520202020312E3636333220202020302E30303030204F202020302020302020302020302020302020302020302020302020302020302020302020300A2020202D312E3833353220202020302E3734343720202020302E303030302043202020302020302020302020302020302020302020302020302020302020302020302020300A2020202D322E3634373620202020302E3630313520202020302E303030302043202020302020302020302020302020302020302020302020302020302020302020302020300A2020202D312E363931392020202D302E3036373720202020302E303030302043202020302020302020302020302020302020302020302020302020302020302020302020300A2020202D312E3937383420202020312E3535373220202020302E303030302048202020302020302020302020302020302020302020302020302020302020302020302020300A2020202D332E3137373920202020312E3233333520202020302E303030302043202020302020302020302020302020302020302020302020302020302020302020302020300A20202020312E303334352020202D312E3636333220202020302E303030302048202020302020302020302020302020302020302020302020302020302020302020302020300A2020312020322020312020302020202020200A2020322020332020322020302020202020200A2020332020342020312020302020202020200A2020342020352020322020302020202020200A2020352020362020312020302020202020200A2020312020362020312020302020202020200A2020312020372020322020302020202020200A2020362020382020312020312020202020200A2020322020392020312020302020202020200A2031302031312020312020302020202020200A2020352031302020312020302020202020200A2031322031332020312020302020202020200A2020332031322020312020302020202020200A2020362031342020312020362020202020200A2020382031352020312020302020202020200A2031352031362020322020302020202020200A2031352031372020312020302020202020200A2031372031382020312020302020202020200A2031372031392020312020312020202020200A2031372032302020312020312020202020200A2031382032312020312020302020202020200A2020342032322020312020302020202020200A4D2020454E44
Contributor: MASS SPECTROSCOPY SOC. OF JAPAN (MSSJ)
InstType: EI
InstName: JEOL JMS-D-300
IoniMethod: _ENERGY 70 eV
IonPolarity: pos
Date: 2010-10-09 19:48:36+02:00
Num Peaks: 54
39 20 41 70 42 10 43 10 53 10 55 20 57 550 58 3 59 20 67 20 
69 20 77 2 82 20 83 30 84 10 85 11 91 10 95 20 105 20 106 1 
107 10 108 10 123 20 125 1 127 10 137 10 138 30 139 1 140 20 141 20 
149 10 151 1 153 45 154 10 155 999 156 10 157 10 165 10 166 155 167 3 
168 10 169 70 170 10 181 2 182 30 183 30 184 15 197 4 198 390 199 35 
205 15 239 2 282 160 283 25 
