Name: 5-METHYL-2-FURFURAL
MW: 110
Formula: C6H6O2
Synonym: MassBank: JP005293
Synonym: 5-METHYL-2-FURFURAL
Structure: 310A32310A352D4D455448594C2D322D465552465552414C2E6D6F6C0A20204368656D447261773034323331303037303732440A2020382020382020302020302020302020302020302020302020302020303939392056323030300A2020202D302E3333363720202020302E3239373520202020302E303030302043202020302020302020302020302020302020302020302020302020302020302020302020300A2020202D302E333336372020202D302E3532373520202020302E303030302043202020302020302020302020302020302020302020302020302020302020302020302020300A20202020302E343437392020202D302E3738323420202020302E303030302043202020302020302020302020302020302020302020302020302020302020302020302020300A20202020302E393332382020202D302E3131353020202020302E303030302043202020302020302020302020302020302020302020302020302020302020302020302020300A20202020302E3434373920202020302E3535323420202020302E30303030204F202020302020302020302020302020302020302020302020302020302020302020302020300A20202020312E373537382020202D302E3131353020202020302E303030302043202020302020302020302020302020302020302020302020302020302020302020302020300A2020202D312E3030343220202020302E3738323420202020302E303030302043202020302020302020302020302020302020302020302020302020302020302020302020300A2020202D312E3735373820202020302E3434363920202020302E30303030204F202020302020302020302020302020302020302020302020302020302020302020302020300A2020312020322020322020302020202020200A2020322020332020312020302020202020200A2020332020342020322020302020202020200A2020342020352020312020302020202020200A2020352020312020312020302020202020200A2020342020362020312020302020202020200A2020312020372020312020302020202020200A2020372020382020322020302020202020200A4D2020454E44
Contributor: YAMAMOTO M, DEP. CHEMISTRY, FAC. SCIENCE, NARA WOMEN'S UNIV.
InstType: EI
InstName: HITACHI RMU-6M
IoniMethod: _ENERGY 70 eV
IonPolarity: pos
Date: 2010-10-09 19:48:36+02:00
Num Peaks: 28
14 11 15 35 26 49 27 256 28 25 29 68 37 36 38 54 39 136 41 11 
42 23 43 104 49 24 50 101 51 130 52 69 53 525 54 48 55 12 79 21 
80 17 81 107 82 11 95 32 96 20 109 864 110 999 111 70 
