Name: TETRAMETHYLTIN
MW: 179
Formula: C4H12Sn
Synonym: MassBank: JP009802
Synonym: TETRAMETHYLTIN
Structure: 310A31340A54455452414D455448594C54494E2E6D6F6C0A20204368656D447261773038313231303037333132440A2020352020342020302020302020302020302020302020302020302020303939392056323030300A20202020302E3030303020202020302E3030303020202020302E3030303020536E2020302020302020302020302020302020302020302020302020302020302020302020300A20202020302E303030302020202D302E3832353020202020302E303030302043202020302020302020302020302020302020302020302020302020302020302020302020300A2020202D302E3832353020202020302E3030303020202020302E303030302043202020302020302020302020302020302020302020302020302020302020302020302020300A20202020302E3030303020202020302E3832353020202020302E303030302043202020302020302020302020302020302020302020302020302020302020302020302020300A20202020302E3832353020202020302E3030303020202020302E303030302043202020302020302020302020302020302020302020302020302020302020302020302020300A2020312020322020312020302020202020200A2020312020332020312020302020202020200A2020312020342020312020302020202020200A2020312020352020312020302020202020200A4D2020454E44
Contributor: KURARAY CO., LTD.
InstType: EI
InstName: JEOL JMS-D-300
IoniMethod: _ENERGY 70 eV
IonPolarity: pos
Date: 2010-10-09 19:48:36+02:00
Num Peaks: 30
116 52 117 59 118 108 119 9 120 141 121 70 130 23 131 14 132 108 133 216 
134 117 135 26 137 39 139 42 146 97 147 6 148 163 149 70 150 216 152 3 
154 34 157 30 161 447 162 25 163 738 164 289 165 999 166 3 167 139 169 177 
