Name: MassBank: JP006643
MW: 410
Formula: C21H22N4O5
Synonym: MassBank: JP006643
Synonym: N-(3-(2,3-DIMETHYL-1-INDOLYL)-2-METHYLPROPYL)-3,5-DINITROBENZAMIDE
Synonym: 1-(3-(3,5-DINITROBENZAMIDO)-2-METHYLPROPYL)-2,3-DIMETYLINDOLE
Structure: 4E2D28332D28322C332D44494D455448594C2D312D494E444F4C594C292D322D4D455448594C50524F50594C292D332C352D44494E4954524F42454E5A414D4944452E6D6F6C0A20204368656D447261773131313730393137323532440A2033302033322020302020302020302020302020302020302020302020303939392056323030300A20202020312E343837302020202D312E3334333620202020302E303030302043202020302020302020302020302020302020302020302020302020302020302020302020300A20202020312E373030352020202D302E3534363720202020302E303030302043202020302020302020302020302020302020302020302020302020302020302020302020300A20202020312E3131373220202020302E3033363720202020302E303030302043202020302020302020302020302020302020302020302020302020302020302020302020300A20202020312E3333303720202020302E3833333620202020302E303030302043202020302020302020302020302020302020302020302020302020302020302020302020300A20202020322E3132373620202020312E3034373120202020302E303030302043202020302020302020302020302020302020302020302020302020302020302020302020300A20202020322E3731303920202020302E3436333720202020302E303030302043202020302020302020302020302020302020302020302020302020302020302020302020300A20202020322E343937342020202D302E3333333120202020302E303030302043202020302020302020302020302020302020302020302020302020302020302020302020300A20202020322E303730342020202D312E3932363920202020302E30303030204F202020302020302020302020302020302020302020302020302020302020302020302020300A20202020302E363930312020202D312E3535373120202020302E30303030204E202020302020302020302020302020302020302020302020302020302020302020302020300A20202020332E3530373820202020302E3637373320202020302E30303030204E202020302020332020302020302020302020302020302020302020302020302020302020300A20202020342E3039313220202020302E3039333920202020302E30303030204F202020302020302020302020302020302020302020302020302020302020302020302020300A20202020332E3732313320202020312E3437343220202020302E30303030204F202020302020352020302020302020302020302020302020302020302020302020302020300A20202020302E3734373320202020312E3431363920202020302E30303030204E202020302020332020302020302020302020302020302020302020302020302020302020300A2020202D302E3034393620202020312E3230333420202020302E30303030204F202020302020302020302020302020302020302020302020302020302020302020302020300A20202020302E3936303820202020322E3231333820202020302E30303030204F202020302020352020302020302020302020302020302020302020302020302020302020300A20202020302E313036372020202D302E3937333720202020302E303030302043202020302020302020302020302020302020302020302020302020302020302020302020300A2020202D302E363930312020202D312E3138373320202020302E303030302043202020302020302020302020302020302020302020302020302020302020302020302020300A2020202D312E323432322020202D302E3537343220202020302E303030302043202020302020302020302020302020302020302020302020302020302020302020302020300A2020202D302E393033372020202D312E3938343120202020302E303030302043202020302020302020302020302020302020302020302020302020302020302020302020300A2020202D322E303439322020202D302E3734353720202020302E30303030204E202020302020302020302020302020302020302020302020302020302020302020302020300A2020202D322E333834372020202D312E3439393420202020302E303030302043202020302020302020302020302020302020302020302020302020302020302020302020300A2020202D332E323035322020202D312E3431333120202020302E303030302043202020302020302020302020302020302020302020302020302020302020302020302020300A2020202D332E333736372020202D302E3630363220202020302E303030302043202020302020302020302020302020302020302020302020302020302020302020302020300A2020202D342E303931322020202D302E3139333720202020302E303030302043202020302020302020302020302020302020302020302020302020302020302020302020300A2020202D342E3039313220202020302E3633313320202020302E303030302043202020302020302020302020302020302020302020302020302020302020302020302020300A2020202D332E3337363720202020312E3034333820202020302E303030302043202020302020302020302020302020302020302020302020302020302020302020302020300A2020202D322E3636323220202020302E3633313320202020302E303030302043202020302020302020302020302020302020302020302020302020302020302020302020300A2020202D322E363632322020202D302E3139333720202020302E303030302043202020302020302020302020302020302020302020302020302020302020302020302020300A2020202D332E373537322020202D322E3032363220202020302E303030302043202020302020302020302020302020302020302020302020302020302020302020302020300A2020202D312E393732322020202D322E3231333820202020302E303030302043202020302020302020302020302020302020302020302020302020302020302020302020300A2020312020322020312020302020202020200A2020322020332020312020302020202020200A2020332020342020322020302020202020200A2020342020352020312020302020202020200A2020352020362020322020302020202020200A2020362020372020312020302020202020200A2020322020372020322020302020202020200A2020312020382020322020302020202020200A2020312020392020312020302020202020200A2031302031312020322020302020202020200A2031302031322020312020302020202020200A2020362031302020312020302020202020200A2031332031342020322020302020202020200A2031332031352020312020302020202020200A2020342031332020312020302020202020200A2031362031372020312020302020202020200A2031372031382020312020302020202020200A2031372031392020312020302020202020200A2032302032312020312020302020202020200A2032312032322020322020302020202020200A2032322032332020312020302020202020200A2032332032342020312020302020202020200A2032342032352020322020302020202020200A2032352032362020312020302020202020200A2032362032372020322020302020202020200A2032372032382020312020302020202020200A2032302032382020312020302020202020200A2032332032382020322020302020202020200A2032322032392020312020302020202020200A2032312033302020312020302020202020200A2031382032302020312020302020202020200A2020392031362020312020302020202020200A4D202043484720203420203130202020312020313220202D3120203133202020312020313520202D310A4D2020454E44
Contributor: SASAKI S, TOYOHASHI UNIV. OF TECH.
InstType: EI
InstName: JEOL JMS-01-SG-2
IoniMethod: _ENERGY 75 eV
IonPolarity: pos
Date: 2010-10-09 19:48:36+02:00
Num Peaks: 11
75 12 77 21 78 13 115 1 130 15 143 64 144 99 145 7 158 999 159 212 
410 900 
