Name: TETRAHYDROPYRAN-2-METHANOL
MW: 116
Formula: C6H12O2
Synonym: MassBank: JP008898
Synonym: TETRAHYDROPYRAN-2-METHANOL
Structure: 310A32310A5445545241485944524F505952414E2D322D4D455448414E4F4C2E6D6F6C0A20204368656D447261773038313231303037323532440A2020382020382020302020302020302020302020302020302020302020303939392056323030300A2020202D302E323036322020202D302E3030303020202020302E303030302043202020302020302020302020302020302020302020302020302020302020302020302020300A20202020302E3230363220202020302E3731343520202020302E303030302043202020302020302020302020302020302020302020302020302020302020302020302020300A20202020312E3033313320202020302E3731343520202020302E303030302043202020302020302020302020302020302020302020302020302020302020302020302020300A20202020312E343433382020202D302E3030303020202020302E303030302043202020302020302020302020302020302020302020302020302020302020302020302020300A20202020312E303331332020202D302E3731343520202020302E303030302043202020302020302020302020302020302020302020302020302020302020302020302020300A20202020302E323036322020202D302E3731343520202020302E30303030204F202020302020302020302020302020302020302020302020302020302020302020302020300A2020202D312E303331332020202D302E3030303020202020302E303030302043202020302020302020302020302020302020302020302020302020302020302020302020300A2020202D312E3434333820202020302E3731343520202020302E30303030204F202020302020302020302020302020302020302020302020302020302020302020302020300A2020312020322020312020302020202020200A2020322020332020312020302020202020200A2020332020342020312020302020202020200A2020342020352020312020302020202020200A2020352020362020312020302020202020200A2020312020362020312020302020202020200A2020372020382020312020302020202020200A2020312020372020312020302020202020200A4D2020454E44
Contributor: YAMAMOTO M, DEP. CHEMISTRY, FAC. SCIENCE, NARA WOMEN'S UNIV.
InstType: EI
InstName: HITACHI RMU-6M
IoniMethod: _ENERGY 70 eV
IonPolarity: pos
Date: 2010-10-09 19:48:36+02:00
Num Peaks: 29
15 29 26 27 27 201 28 11 29 372 30 15 31 243 32 4 38 10 39 134 
40 25 41 55 42 32 43 277 44 34 45 2 51 13 53 31 54 12 55 15 
56 50 57 268 58 15 59 1 60 15 84 50 85 999 86 6 116 6 
