Name: MassBank: JP002391
MW: 112
Formula: C7H12O
Synonym: MassBank: JP002391
Synonym: 1-METHYL-1,2-EPOXYCYCLOHEXANE
Structure: 310A32320A312D4D455448594C2D312C322D45504F58594359434C4F484558414E452E6D6F6C0A20204368656D447261773131313930393136313732440A2020382020392020302020302020302020302020302020302020302020303939392056323030300A20202020302E3436373820202020302E3030303020202020302E303030302043202020302020302020302020302020302020302020302020302020302020302020302020300A20202020302E303535332020202D302E3731343520202020302E303030302043202020302020302020302020302020302020302020302020302020302020302020302020300A2020202D302E373639372020202D302E3731343520202020302E303030302043202020302020302020302020302020302020302020302020302020302020302020302020300A2020202D312E3138323220202020302E3030303020202020302E303030302043202020302020302020302020302020302020302020302020302020302020302020302020300A2020202D302E3736393720202020302E3731343520202020302E303030302043202020302020302020302020302020302020302020302020302020302020302020302020300A20202020302E3035353320202020302E3731343520202020302E303030302043202020302020302020302020302020302020302020302020302020302020302020302020300A20202020302E383830332020202D302E3731343520202020302E30303030204F202020302020302020302020302020302020302020302020302020302020302020302020300A20202020312E3138323220202020302E3431323520202020302E303030302043202020302020302020302020302020302020302020302020302020302020302020302020300A2020312020322020312020302020202020200A2020322020332020312020302020202020200A2020332020342020312020302020202020200A2020342020352020312020302020202020200A2020352020362020312020302020202020200A2020312020362020312020302020202020200A2020312020372020312020302020202020200A2020322020372020312020302020202020200A2020312020382020312020302020202020200A4D2020454E44
Contributor: MASS SPECTROSCOPY SOC. OF JAPAN (MSSJ)
InstType: EI
InstName: JEOL JMS-D-3000
IoniMethod: _ENERGY 70 eV
IonPolarity: pos
Date: 2010-10-09 19:48:36+02:00
Num Peaks: 30
42 641 43 683 44 35 51 42 53 128 54 41 55 959 56 181 57 107 58 145 
65 32 67 221 68 270 69 339 70 68 71 236 77 67 79 146 81 29 82 26 
83 963 84 203 91 38 93 26 94 58 97 999 98 69 111 62 112 346 113 28 
