Name: ALPHA-PINENE
MW: 136
Formula: C10H16
Synonym: MassBank: JP000245
Synonym: ALPHA-PINENE
Synonym: 2,6,6-TRIMETHYLBICYCLO(3,1,1)HEPT-2-ENE
Structure: 414C5048412D50494E454E452E6D6F6C0A20204368656D447261773132323130393032343132440A2031302031312020302020302020302020302020302020302020302020303939392056323030300A2020202D302E3330323020202020302E3135313020202020302E303030302043202020302020302020302020302020302020302020302020302020302020302020302020300A2020202D302E333032302020202D302E3637343020202020302E303030302043202020302020302020302020302020302020302020302020302020302020302020302020300A20202020302E343132352020202D312E3038363520202020302E303030302043202020302020302020302020302020302020302020302020302020302020302020302020300A20202020312E313237302020202D302E3637343020202020302E303030302043202020302020302020302020302020302020302020302020302020302020302020302020300A20202020312E3132373020202020302E3135313020202020302E303030302043202020302020302020302020302020302020302020302020302020302020302020302020300A20202020302E3431323520202020302E3536333520202020302E303030302043202020302020302020302020302020302020302020302020302020302020302020302020300A20202020302E343132352020202D302E3236313520202020302E303030302043202020302020302020302020302020302020302020302020302020302020302020302020300A20202020302E3431323520202020312E3338383520202020302E303030302043202020302020302020302020302020302020302020302020302020302020302020302020300A2020202D312E313237302020202D302E3637343020202020302E303030302043202020302020302020302020302020302020302020302020302020302020302020302020300A2020202D302E373134352020202D312E3338383520202020302E303030302043202020302020302020302020302020302020302020302020302020302020302020302020300A2020312020322020312020302020202020200A2020322020332020312020302020202020200A2020332020342020312020302020202020200A2020342020352020312020302020202020200A2020352020362020322020302020202020200A2020362020312020312020302020202020200A2020312020372020312020302020202020200A2020372020332020312020302020202020200A2020362020382020312020302020202020200A2020322020392020312020312020202020200A2020322031302020312020362020202020200A4D2020454E44
Contributor: YAMAMOTO M, DEP. CHEMISTRY, FAC. SCIENCE, NARA WOMEN'S UNIV.
InstType: EI
InstName: HITACHI RMU-6M
IoniMethod: _ENERGY 70 eV
IonPolarity: pos
Date: 2010-10-09 19:48:36+02:00
Num Peaks: 42
15 10 27 200 28 19 29 10 38 14 39 269 40 41 41 27 42 19 43 95 
50 22 51 8 52 33 53 116 54 14 55 7 63 27 65 80 66 21 67 10 
68 43 69 16 77 290 78 5 79 236 80 107 81 41 91 36 92 325 93 999 
94 94 95 2 103 18 105 101 106 27 107 5 108 13 119 23 121 121 122 3 
136 119 137 12 
