Name: MassBank: JP003044
MW: 125
Formula: C3H4Cl2O
Synonym: MassBank: JP003044
Synonym: 1,1-DICHLOROACETONE
Structure: 310A31360A312C312D444943484C4F524F414345544F4E452E6D6F6C0A20204368656D447261773130323330393039343232440A2020362020352020302020302020302020302020302020302020302020303939392056323030300A2020202D302E3431323520202020302E3030303020202020302E303030302043202020302020302020302020302020302020302020302020302020302020302020302020300A20202020302E3431323520202020302E3030303020202020302E303030302043202020302020302020302020302020302020302020302020302020302020302020302020300A20202020302E383235302020202D302E3731343520202020302E30303030204F202020302020302020302020302020302020302020302020302020302020302020302020300A20202020302E3832353020202020302E3731343520202020302E303030302043202020302020302020302020302020302020302020302020302020302020302020302020300A2020202D302E383235302020202D302E3731343520202020302E3030303020436C2020302020302020302020302020302020302020302020302020302020302020302020300A2020202D302E3832353020202020302E3731343520202020302E3030303020436C2020302020302020302020302020302020302020302020302020302020302020302020300A2020312020322020312020302020202020200A2020322020332020322020302020202020200A2020322020342020312020302020202020200A2020312020352020312020302020202020200A2020312020362020312020302020202020200A4D2020454E44
Contributor: SASAKI S, TOYOHASHI UNIV. OF TECH.
InstType: EI
InstName: Unknown
IoniMethod: EI
IonPolarity: pos
Date: 2010-10-09 19:48:36+02:00
Num Peaks: 42
25 5 26 23 27 75 28 1 29 9 35 5 36 11 37 1 38 8 39 7 
40 3 41 1 42 21 43 999 44 21 45 0 47 11 48 17 49 11 50 1 
51 2 53 1 55 1 60 0 61 4 62 4 63 22 64 0 65 6 76 7 
78 2 82 0 83 26 84 2 85 17 87 0 91 13 92 2 93 4 94 0 
126 4 128 3 
