Name: ISOPROPYLHYDRAZONE ALPHA-ISOPROPYLACRYLALDEHYDE
MW: 154
Formula: C9H18N2
Synonym: MassBank: JP000881
Synonym: ISOPROPYLHYDRAZONE ALPHA-ISOPROPYLACRYLALDEHYDE
Synonym: 2-ISOPROPYL-2-PROPENAL ISOPROPYLHYDRAZONE
Structure: 49534F50524F50594C48594452415A4F4E4520414C5048412D49534F50524F50594C414352594C414C4445485944452E6D6F6C0A20204368656D447261773031323231303030353932440A2031312031302020302020302020302020302020302020302020302020303939392056323030300A2020202D302E333537322020202D302E3230363320202020302E303030302043202020302020302020302020302020302020302020302020302020302020302020302020300A2020202D312E3037313720202020302E3230363320202020302E303030302043202020302020302020302020302020302020302020302020302020302020302020302020300A2020202D312E3037313720202020312E3033313220202020302E303030302043202020302020302020302020302020302020302020302020302020302020302020302020300A2020202D312E373836322020202D302E3230363320202020302E303030302043202020302020302020302020302020302020302020302020302020302020302020302020300A2020202D312E373836322020202D312E3033313220202020302E303030302043202020302020302020302020302020302020302020302020302020302020302020302020300A2020202D322E3530303620202020302E3230363220202020302E303030302043202020302020302020302020302020302020302020302020302020302020302020302020300A20202020302E3335373220202020302E3230363220202020302E30303030204E202020302020302020302020302020302020302020302020302020302020302020302020300A20202020312E303731372020202D302E3230363320202020302E30303030204E202020302020302020302020302020302020302020302020302020302020302020302020300A20202020312E3738363220202020302E3230363220202020302E303030302043202020302020302020302020302020302020302020302020302020302020302020302020300A20202020322E353030362020202D302E3230363320202020302E303030302043202020302020302020302020302020302020302020302020302020302020302020302020300A20202020312E3738363220202020312E3033313220202020302E303030302043202020302020302020302020302020302020302020302020302020302020302020302020300A2020312020322020312020302020202020200A2020322020332020322020302020202020200A2020342020352020312020302020202020200A2020342020362020312020302020202020200A2020322020342020312020302020202020200A2020372020382020312020302020202020200A2020392031302020312020302020202020200A2020392031312020312020302020202020200A2020382020392020312020302020202020200A2020312020372020322020302020202020200A4D2020454E44
Contributor: SASAKI S, TOYOHASHI UNIV. OF TECH.
InstType: EI
InstName: SHIMADZU LKB-2091
IoniMethod: _ENERGY 70 eV
IonPolarity: pos
Date: 2010-10-09 19:48:36+02:00
Num Peaks: 39
27 137 28 32 29 37 30 4 39 100 40 22 41 326 42 17 43 242 44 221 
53 39 54 3 55 229 56 58 57 17 58 4 67 42 68 29 69 999 70 6 
71 12 80 15 81 31 82 2 83 42 84 14 94 22 95 4 96 79 97 71 
98 14 110 1 111 231 112 18 139 358 140 4 153 14 154 187 155 21 
