Name: CYCLOPENTANE
MW: 70
Formula: C5H10
Synonym: MassBank: JP005997
Synonym: CYCLOPENTANE
Structure: 310A31350A4359434C4F50454E54414E452E6D6F6C0A20204368656D447261773039323031303039303032440A2020352020352020302020302020302020302020302020302020302020303939392056323030300A20202020302E3431323520202020302E3633343820202020302E303030302043202020302020302020302020302020302020302020302020302020302020302020302020300A20202020302E363637342020202D302E3134393820202020302E303030302043202020302020302020302020302020302020302020302020302020302020302020302020300A20202020302E303030302020202D302E3633343820202020302E303030302043202020302020302020302020302020302020302020302020302020302020302020302020300A2020202D302E363637342020202D302E3134393820202020302E303030302043202020302020302020302020302020302020302020302020302020302020302020302020300A2020202D302E3431323520202020302E3633343820202020302E303030302043202020302020302020302020302020302020302020302020302020302020302020302020300A2020312020322020312020302020202020200A2020322020332020312020302020202020200A2020332020342020312020302020202020200A2020342020352020312020302020202020200A2020312020352020312020302020202020200A4D2020454E44
Contributor: YAMAMOTO M, DEP. CHEMISTRY, FAC. SCIENCE, NARA WOMEN'S UNIV.
InstType: EI
InstName: HITACHI RMU-6M
IoniMethod: _ENERGY 70 eV
IonPolarity: pos
Date: 2010-10-09 19:48:36+02:00
Num Peaks: 30
15 10 17 56 18 263 26 1 27 84 28 36 29 41 31 1 32 8 37 7 
38 19 39 16 40 52 41 264 42 999 43 5 44 5 50 6 51 6 53 2 
54 8 55 330 56 16 57 1 63 5 65 6 67 16 69 1 70 390 71 27 
