Name: MassBank: JP004626
MW: 164
Formula: C11H16O
Synonym: MassBank: JP004626
Synonym: 1,5-DIMETHYLBICYCLO(3.2.2)NON-6-EN-2-ONE
Structure: 312C352D44494D455448594C42494359434C4F28332E322E32294E4F4E2D362D454E2D322D4F4E452E6D6F6C0A20204368656D447261773131313630393132353932440A2031342031352020302020302020302020302020302020302020302020303939392056323030300A2020202D302E3630373920202020302E3730393220202020302E303030302043202020302020302020302020302020302020302020302020302020302020302020302020300A20202020302E3239323620202020302E3931383020202020302E303030302043202020302020302020302020302020302020302020302020302020302020302020302020300A20202020302E3934383920202020302E3236313720202020302E303030302043202020302020302020302020302020302020302020302020302020302020302020302020300A20202020302E373033362020202D302E3633393020202020302E303030302043202020302020302020302020302020302020302020302020302020302020302020302020300A2020202D302E313838302020202D302E3839313620202020302E303030302043202020302020302020302020302020302020302020302020302020302020302020302020300A20202020302E333935342020202D302E3330383320202020302E303030302043202020302020302020302020302020302020302020302020302020302020302020302020300A20202020302E3138393520202020302E3438383020202020302E303030302043202020302020302020302020302020302020302020302020302020302020302020302020300A2020202D312E3139313320202020302E3132353820202020302E303030302043202020302020302020302020302020302020302020302020302020302020302020302020300A2020202D302E393835342020202D302E3637303520202020302E303030302043202020302020302020302020302020302020302020302020302020302020302020302020300A20202020302E3532363820202020312E3731343620202020302E30303030204F202020302020302020302020302020302020302020302020302020302020302020302020300A2020202D302E313838302020202D312E3731343620202020302E303030302043202020302020302020302020302020302020302020302020302020302020302020302020300A2020202D312E3031393120202020312E3432313320202020302E303030302043202020302020302020302020302020302020302020302020302020302020302020302020300A20202020302E3737373920202020312E3036363320202020302E303030302048202020302020302020302020302020302020302020302020302020302020302020302020300A20202020312E313931332020202D302E3532353320202020302E303030302048202020302020302020302020302020302020302020302020302020302020302020302020300A2020312020322020312020302020202020200A2020322020332020312020302020202020200A2020332020342020312020302020202020200A2020342020352020312020302020202020200A2020352020362020312020302020202020200A2020362020372020322020302020202020200A2020382020392020312020302020202020200A2020312020372020312020302020202020200A2020312020382020312020302020202020200A2020352020392020312020302020202020200A2020322031302020322020302020202020200A2020352031312020312020302020202020200A2020312031322020312020302020202020200A2020372031332020312020302020202020200A2020362031342020312020302020202020200A4D2020454E44
Contributor: KATO T, DEPT. OF CHEM., FAC. OF SCI., TOHOKU UNIV.
InstType: EI
InstName: HITACHI M-52
IoniMethod: _ENERGY 25 eV
IonPolarity: pos
Date: 2010-10-09 19:48:36+02:00
Num Peaks: 23
18 150 28 91 43 82 58 6 67 54 77 92 79 90 81 10 91 116 93 989 
94 153 105 15 106 406 107 850 108 999 109 16 120 602 121 144 131 100 146 6 
149 80 164 458 165 38 
