Name: CYCLOPENTANOL
MW: 86
Formula: C5H10O
Synonym: MassBank: JP005400
Synonym: CYCLOPENTANOL
Structure: 310A31370A4359434C4F50454E54414E4F4C2E6D6F6C0A20204368656D447261773039323031303039303232440A2020362020362020302020302020302020302020302020302020302020303939392056323030300A2020202D302E323232332020202D302E3030303020202020302E303030302043202020302020302020302020302020302020302020302020302020302020302020302020300A20202020302E3236323720202020302E3636373420202020302E303030302043202020302020302020302020302020302020302020302020302020302020302020302020300A20202020312E3034373320202020302E3431323520202020302E303030302043202020302020302020302020302020302020302020302020302020302020302020302020300A20202020312E303437332020202D302E3431323520202020302E303030302043202020302020302020302020302020302020302020302020302020302020302020302020300A20202020302E323632372020202D302E3636373420202020302E303030302043202020302020302020302020302020302020302020302020302020302020302020302020300A2020202D312E303437332020202D302E3030303020202020302E30303030204F202020302020302020302020302020302020302020302020302020302020302020302020300A2020312020322020312020302020202020200A2020322020332020312020302020202020200A2020332020342020312020302020202020200A2020342020352020312020302020202020200A2020312020352020312020302020202020200A2020312020362020312020302020202020200A4D2020454E44
Contributor: TAJIMA S, GUNMA COLLEGE OF TECHNOLOGY
InstType: EI
InstName: HITACHI RMU-7M
IoniMethod: _ENERGY 70 eV
IonPolarity: pos
Date: 2010-10-09 19:48:36+02:00
Num Peaks: 32
15 26 26 34 27 142 28 74 29 177 30 55 31 62 32 22 38 24 39 148 
40 56 41 197 42 76 43 136 44 390 45 135 46 13 50 10 51 10 53 27 
55 41 56 26 57 999 58 513 59 48 67 73 68 67 69 21 71 28 72 13 
86 74 87 38 
