Name: HEXACHLOROETHANE
CAS: 67-72-1
MW: 233
Formula: C2Cl6
Synonym: MassBank: JP000955
Synonym: HEXACHLOROETHANE
Structure: 310A32300A4845584143484C4F524F455448414E452E6D6F6C0A20204368656D447261773038313131303230313532440A2020382020372020302020302020302020302020302020302020302020303939392056323030300A20202020302E3030303020202020302E3431323520202020302E303030302043202020302020302020302020302020302020302020302020302020302020302020302020300A20202020302E303030302020202D302E3431323520202020302E303030302043202020302020302020302020302020302020302020302020302020302020302020302020300A2020202D302E3832353020202020302E3431323520202020302E3030303020436C2020302020302020302020302020302020302020302020302020302020302020302020300A20202020302E3030303020202020312E3233373520202020302E3030303020436C2020302020302020302020302020302020302020302020302020302020302020302020300A20202020302E3832353020202020302E3431323520202020302E3030303020436C2020302020302020302020302020302020302020302020302020302020302020302020300A20202020302E383235302020202D302E3431323520202020302E3030303020436C2020302020302020302020302020302020302020302020302020302020302020302020300A20202020302E303030302020202D312E3233373520202020302E3030303020436C2020302020302020302020302020302020302020302020302020302020302020302020300A2020202D302E383235302020202D302E3431323520202020302E3030303020436C2020302020302020302020302020302020302020302020302020302020302020302020300A2020312020322020312020302020202020200A2020312020332020312020302020202020200A2020312020342020312020302020202020200A2020312020352020312020302020202020200A2020322020362020312020302020202020200A2020322020372020312020302020202020200A2020322020382020312020302020202020200A4D2020454E44
Contributor: KOGA M, UNIV. OF OCCUPATIONAL AND ENVIRONMENTAL HEALTH
InstType: EI
InstName: JEOL JMS-01-SG
IoniMethod: _ENERGY 70 eV
IonPolarity: pos
Date: 2010-10-09 19:48:36+02:00
Num Peaks: 25
47 304 49 99 59 140 61 4 82 217 83 82 84 137 94 31 96 179 98 30 
117 999 119 83 121 286 123 31 129 101 131 9 133 31 164 231 166 323 168 16 
170 31 199 347 201 578 203 38 205 116 
