Name: 4-METHOXYPYRIDINE-N-OXIDE
CAS: 1122-96-9
MW: 125
Formula: C6H7NO2
Synonym: MassBank: JP005730
Synonym: 4-METHOXYPYRIDINE-N-OXIDE
Structure: 310A32340A342D4D4554484F58595059524944494E452D4E2D4F584944452E6D6F6C0A20204368656D447261773034323131303030353032440A2020392020392020302020302020302020302020302020302020302020303939392056323030300A20202020302E363138382020202D302E3731343520202020302E303030302043202020302020302020302020302020302020302020302020302020302020302020302020300A2020202D302E323036322020202D302E3731343520202020302E303030302043202020302020302020302020302020302020302020302020302020302020302020302020300A2020202D302E3631383820202020302E3030303020202020302E303030302043202020302020302020302020302020302020302020302020302020302020302020302020300A2020202D302E3230363220202020302E3731343520202020302E303030302043202020302020302020302020302020302020302020302020302020302020302020302020300A20202020302E3631383820202020302E3731343520202020302E303030302043202020302020302020302020302020302020302020302020302020302020302020302020300A20202020312E303331332020202D302E3030303020202020302E30303030204E202020302020332020302020302020302020302020302020302020302020302020302020300A20202020312E383536332020202D302E3030303020202020302E30303030204F202020302020352020302020302020302020302020302020302020302020302020302020300A2020202D312E3434333820202020302E3030303020202020302E30303030204F202020302020302020302020302020302020302020302020302020302020302020302020300A2020202D312E3835363320202020302E3731343520202020302E303030302043202020302020302020302020302020302020302020302020302020302020302020302020300A2020312020322020322020302020202020200A2020322020332020312020302020202020200A2020332020342020322020302020202020200A2020342020352020312020302020202020200A2020352020362020322020302020202020200A2020312020362020312020302020202020200A2020362020372020312020302020202020200A2020382020392020312020302020202020200A2020332020382020312020302020202020200A4D202043484720203220202036202020312020203720202D310A4D2020454E44
Contributor: MASS SPECTROSCOPY SOC. OF JAPAN (MSSJ)
InstType: EI
InstName: HITACHI M-80
IoniMethod: _ENERGY 70 eV
IonPolarity: pos
Date: 2010-10-09 19:48:36+02:00
Num Peaks: 35
17 62 26 98 27 112 28 226 29 84 30 112 37 27 38 77 39 187 40 61 
41 35 50 81 51 107 52 118 53 76 54 77 55 58 56 47 63 62 64 25 
65 20 66 44 67 20 68 59 69 45 78 25 79 76 82 89 83 32 84 44 
108 27 109 141 110 367 125 999 126 71 
