Name: PARA-METHYLCINNAMIC ACID TRIMETHYLSILYL ESTER
MW: 234
Formula: C13H18O2Si
Synonym: MassBank: JP001904
Synonym: PARA-METHYLCINNAMIC ACID TRIMETHYLSILYL ESTER
Structure: 504152412D4D455448594C43494E4E414D49432041434944205452494D455448594C53494C594C2045535445522E6D6F6C0A20204368656D447261773038313231303034333232440A2031362031362020302020302020302020302020302020302020302020303939392056323030300A2020202D312E3233373520202020302E3431323520202020302E303030302043202020302020302020302020302020302020302020302020302020302020302020302020300A2020202D302E3431323520202020302E3431323520202020302E303030302043202020302020302020302020302020302020302020302020302020302020302020302020300A20202020302E303030302020202D302E3330323020202020302E303030302043202020302020302020302020302020302020302020302020302020302020302020302020300A20202020302E383235302020202D302E3330323020202020302E303030302043202020302020302020302020302020302020302020302020302020302020302020302020300A20202020312E3233373520202020302E3431323520202020302E303030302043202020302020302020302020302020302020302020302020302020302020302020302020300A20202020322E3036323520202020302E3431323520202020302E303030302043202020302020302020302020302020302020302020302020302020302020302020302020300A20202020322E343735302020202D302E3330323020202020302E303030302043202020302020302020302020302020302020302020302020302020302020302020302020300A20202020322E303632352020202D312E3031363420202020302E303030302043202020302020302020302020302020302020302020302020302020302020302020302020300A20202020312E323337352020202D312E3031363420202020302E303030302043202020302020302020302020302020302020302020302020302020302020302020302020300A2020202D312E3635303020202020312E3132373020202020302E30303030204F202020302020302020302020302020302020302020302020302020302020302020302020300A2020202D312E363530302020202D302E3330323020202020302E30303030204F202020302020302020302020302020302020302020302020302020302020302020302020300A20202020332E333030302020202D302E3330323020202020302E303030302043202020302020302020302020302020302020302020302020302020302020302020302020300A2020202D322E343735302020202D302E3330323020202020302E303030302053692020302020302020302020302020302020302020302020302020302020302020302020300A2020202D322E343735302020202D312E3132373020202020302E303030302043202020302020302020302020302020302020302020302020302020302020302020302020300A2020202D332E333030302020202D302E3330323020202020302E303030302043202020302020302020302020302020302020302020302020302020302020302020302020300A2020202D322E3437353020202020302E3532333020202020302E303030302043202020302020302020302020302020302020302020302020302020302020302020302020300A2020312020322020312020302020202020200A2020322020332020322020302020202020200A2020332020342020312020302020202020200A2020342020352020312020302020202020200A2020352020362020322020302020202020200A2020362020372020312020302020202020200A2020372020382020322020302020202020200A2020382020392020312020302020202020200A2020342020392020322020302020202020200A2020312031302020322020302020202020200A2020312031312020312020302020202020200A2020372031322020312020302020202020200A2031332031342020312020302020202020200A2031332031352020312020302020202020200A2031332031362020312020302020202020200A2031312031332020312020302020202020200A4D2020454E44
Contributor: KOGA M, UNIV. OF OCCUPATIONAL AND ENVIRONMENTAL HEALTH
InstType: EI
InstName: JEOL JMS-01-SG
IoniMethod: _ENERGY 70 eV
IonPolarity: pos
Date: 2010-10-09 19:48:36+02:00
Num Peaks: 18
45 75 47 81 73 151 75 41 77 93 91 151 105 75 115 41 117 279 145 982 
146 69 149 19 159 244 175 808 176 145 219 999 220 180 234 325 
