Name: PENTAERYTHRO-TETRAMETHYL ETHER
MW: 192
Formula: C9H20O4
Synonym: MassBank: JP003686
Synonym: PENTAERYTHRO-TETRAMETHYL ETHER
Structure: 303935335F50454E54414552595448524F2D54455452414D455448594C2045544845522E6D6F6C0A20204368656D447261773038323031303131353932440A2031332031322020302020302020302020302020302020302020302020303939392056323030300A2020202D302E333136372020202D302E3039353720202020302E303030302043202020302020302020302020302020302020302020302020302020302020302020302020300A20202020302E353038332020202D302E3039353720202020302E303030302043202020302020302020302020302020302020302020302020302020302020302020302020300A2020202D302E3331363720202020302E3732393320202020302E303030302043202020302020302020302020302020302020302020302020302020302020302020302020300A2020202D312E313431372020202D302E3039353720202020302E303030302043202020302020302020302020302020302020302020302020302020302020302020302020300A2020202D302E333136372020202D302E3932303720202020302E303030302043202020302020302020302020302020302020302020302020302020302020302020302020300A20202020302E393230382020202D302E3831303220202020302E30303030204F202020302020302020302020302020302020302020302020302020302020302020302020300A20202020312E373435372020202D302E3739393220202020302E303030302043202020302020302020302020302020302020302020302020302020302020302020302020300A20202020302E3339373720202020312E3134313820202020302E30303030204F202020302020302020302020302020302020302020302020302020302020302020302020300A20202020312E3131323220202020302E3732393320202020302E303030302043202020302020302020302020302020302020302020302020302020302020302020302020300A2020202D312E3535343220202020302E3631383820202020302E30303030204F202020302020302020302020302020302020302020302020302020302020302020302020300A2020202D312E303331322020202D312E3333333220202020302E30303030204F202020302020302020302020302020302020302020302020302020302020302020302020300A2020202D312E373435372020202D302E3932303720202020302E303030302043202020302020302020302020302020302020302020302020302020302020302020302020300A2020202D312E3134313720202020312E3333333220202020302E303030302043202020302020302020302020302020302020302020302020302020302020302020302020300A2020312020322020312020302020202020200A2020312020332020312020302020202020200A2020312020342020312020302020202020200A2020312020352020312020302020202020200A2020322020362020312020302020202020200A2020362020372020312020302020202020200A2020332020382020312020302020202020200A2020382020392020312020302020202020200A2020342031302020312020302020202020200A2020352031312020312020302020202020200A2031312031322020312020302020202020200A2031302031332020312020302020202020200A4D2020454E44
Contributor: SASAKI S, TOYOHASHI UNIV. OF TECH.
InstType: EI
InstName: Unknown
IoniMethod: EI
IonPolarity: pos
Date: 2010-10-09 19:48:36+02:00
Num Peaks: 44
39 45 41 153 42 38 43 7 45 697 46 20 47 18 53 2 54 21 55 183 
56 40 57 2 58 67 59 33 67 17 68 1 69 40 70 10 71 305 72 3 
73 15 75 999 76 42 77 1 81 4 82 12 83 60 84 11 85 243 86 26 
87 39 97 5 98 52 99 13 100 8 101 6 102 10 113 31 114 10 115 6 
116 16 117 14 128 230 129 21 
