Name: NORBORNEOL
MW: 112
Formula: C7H12O
Synonym: MassBank: JP002601
Synonym: NORBORNEOL
Synonym: ENDO-BICYCLO(2.2.1)HEPTAN-2-OL
Structure: 310A32320A303436325F4E4F52424F524E454F4C2E6D6F6C0A20204368656D447261773039303631303137333132440A2020382020392020302020302020302020302020302020302020302020303939392056323030300A2020202D302E3731343520202020302E3030303020202020302E303030302043202020302020302020302020302020302020302020302020302020302020302020302020300A2020202D302E373134352020202D302E3832353020202020302E303030302043202020302020302020302020302020302020302020302020302020302020302020302020300A20202020302E303030302020202D312E3233373520202020302E303030302043202020302020302020302020302020302020302020302020302020302020302020302020300A20202020302E373134352020202D302E3832353020202020302E303030302043202020302020302020302020302020302020302020302020302020302020302020302020300A20202020302E3731343520202020302E3030303020202020302E303030302043202020302020302020302020302020302020302020302020302020302020302020302020300A20202020302E3030303020202020302E3431323520202020302E303030302043202020302020302020302020302020302020302020302020302020302020302020302020300A20202020302E3030303020202020312E3233373520202020302E30303030204F202020302020302020302020302020302020302020302020302020302020302020302020300A20202020302E313031302020202D302E3132353120202020302E303030302043202020302020302020302020302020302020302020302020302020302020302020302020300A2020312020322020312020302020202020200A2020322020332020312020302020202020200A2020332020342020312020302020202020200A2020342020352020312020302020202020200A2020352020362020312020302020202020200A2020362020312020312020302020202020200A2020362020372020312020302020202020200A2020312020382020312020302020202020200A2020382020342020312020302020202020200A4D2020454E44
Contributor: YAMAMOTO M, DEP. CHEMISTRY, FAC. SCIENCE, NARA WOMEN'S UNIV.
InstType: EI
InstName: HITACHI RMU-6M
IoniMethod: _ENERGY 70 eV
IonPolarity: pos
Date: 2010-10-09 19:48:36+02:00
Num Peaks: 46
15 32 26 21 27 253 28 44 29 137 31 67 38 26 39 315 40 82 41 376 
42 76 43 85 44 60 45 65 50 24 51 46 52 21 53 160 54 63 55 179 
56 92 57 206 58 42 63 14 65 53 66 605 67 665 68 603 69 60 70 125 
71 57 77 66 78 20 79 694 80 59 81 123 82 17 83 129 84 48 91 25 
93 54 94 999 95 85 97 51 111 12 112 38 
