Name: (E)-2-METHYLCROTONIC ACID METHYL ESTER
CAS: 6622-76-0
MW: 114
Formula: C6H10O2
Synonym: MassBank: JP004219
Synonym: (E)-2-METHYLCROTONIC ACID METHYL ESTER
Synonym: TIGLIC ACID METHYL ESTER
Structure: 310A32320A2845292D322D4D455448594C43524F544F4E49432041434944204D455448594C2045535445522E6D6F6C0A20204368656D447261773130323230393133303932440A2020392020382020302020302020302020302020302020302020302020303939392056323030300A2020202D302E3832353020202020302E3736393720202020302E303030302043202020302020302020302020302020302020302020302020302020302020302020302020300A20202020302E3030303020202020302E3736393720202020302E303030302043202020302020302020302020302020302020302020302020302020302020302020302020300A2020202D312E3233373520202020302E3035353320202020302E303030302048202020302020302020302020302020302020302020302020302020302020302020302020300A2020202D312E3233373520202020312E3438343220202020302E303030302043202020302020302020302020302020302020302020302020302020302020302020302020300A20202020302E3431323520202020312E3438343220202020302E303030302043202020302020302020302020302020302020302020302020302020302020302020302020300A20202020302E3431323520202020302E3035353320202020302E303030302043202020302020302020302020302020302020302020302020302020302020302020302020300A20202020302E303030302020202D302E3635393220202020302E30303030204F202020302020302020302020302020302020302020302020302020302020302020302020300A20202020312E3233373520202020302E3035353320202020302E30303030204F202020302020302020302020302020302020302020302020302020302020302020302020300A20202020302E303030302020202D312E3438343220202020302E303030302043202020302020302020302020302020302020302020302020302020302020302020302020300A2020312020322020322020302020202020200A2020312020332020312020302020202020200A2020312020342020312020302020202020200A2020322020352020312020302020202020200A2020322020362020312020302020202020200A2020362020372020312020302020202020200A2020362020382020322020302020202020200A2020372020392020312020302020202020200A4D2020454E44
Contributor: KOGA M, UNIV. OF OCCUPATIONAL AND ENVIRONMENTAL HEALTH
InstType: EI
InstName: JEOL JMS-01-SG
IoniMethod: _ENERGY 70 eV
IonPolarity: pos
Date: 2010-10-09 19:48:36+02:00
Num Peaks: 14
38 44 50 19 51 44 53 12 54 128 55 999 56 44 71 3 82 166 83 647 
84 38 99 17 114 602 115 38 
