Name: MassBank: JP004320
MW: 188
Formula: C12H16N2
Synonym: MassBank: JP004320
Synonym: 3-(2-AMINOETHYL)-1,2-DIMETHYLINDOLE
Structure: 332D28322D414D494E4F455448594C292D312C322D44494D455448594C494E444F4C452E6D6F6C0A20204368656D447261773032323231303039333532440A2031342031352020302020302020302020302020302020302020302020303939392056323030300A20202020302E343434342020202D302E3631373520202020302E30303030204E202020302020302020302020302020302020302020302020302020302020302020302020300A2020202D302E333039332020202D302E3238323020202020302E303030302043202020302020302020302020302020302020302020302020302020302020302020302020300A2020202D302E3232333120202020302E3533383520202020302E303030302043202020302020302020302020302020302020302020302020302020302020302020302020300A20202020302E3538333920202020302E3731303020202020302E303030302043202020302020302020302020302020302020302020302020302020302020302020302020300A20202020302E3939363420202020312E3432343520202020302E303030302043202020302020302020302020302020302020302020302020302020302020302020302020300A20202020312E3832313420202020312E3432343520202020302E303030302043202020302020302020302020302020302020302020302020302020302020302020302020300A20202020322E3233333920202020302E3731303020202020302E303030302043202020302020302020302020302020302020302020302020302020302020302020302020300A20202020312E383231342020202D302E3030343420202020302E303030302043202020302020302020302020302020302020302020302020302020302020302020302020300A20202020302E393936342020202D302E3030343420202020302E303030302043202020302020302020302020302020302020302020302020302020302020302020302020300A2020202D312E303233382020202D302E3639343520202020302E303030302043202020302020302020302020302020302020302020302020302020302020302020302020300A20202020302E363135392020202D312E3432343520202020302E303030302043202020302020302020302020302020302020302020302020302020302020302020302020300A2020202D302E3833363220202020312E3039303520202020302E303030302043202020302020302020302020302020302020302020302020302020302020302020302020300A2020202D312E3632303820202020302E3833353620202020302E303030302043202020302020302020302020302020302020302020302020302020302020302020302020300A2020202D322E3233333920202020312E3338373620202020302E30303030204E202020302020302020302020302020302020302020302020302020302020302020302020300A2020312020322020312020302020202020200A2020322020332020322020302020202020200A2020332020342020312020302020202020200A2020342020352020312020302020202020200A2020352020362020322020302020202020200A2020362020372020312020302020202020200A2020372020382020322020302020202020200A2020382020392020312020302020202020200A2020312020392020312020302020202020200A2020342020392020322020302020202020200A2020322031302020312020302020202020200A2020312031312020312020302020202020200A2031322031332020312020302020202020200A2031332031342020312020302020202020200A2020332031322020312020302020202020200A4D2020454E44
Contributor: SASAKI S, TOYOHASHI UNIV. OF TECH.
InstType: EI
InstName: MX-1303
IoniMethod: _ENERGY 50 eV
IonPolarity: pos
Date: 2010-10-09 19:48:36+02:00
Num Peaks: 72
26 30 27 21 29 40 30 5 31 37 36 13 39 53 40 3 41 82 42 50 
43 114 50 1 51 21 53 13 54 13 55 7 56 30 57 42 60 18 63 1 
65 16 67 28 68 13 69 3 70 16 71 20 73 12 75 1 76 20 77 43 
78 14 79 2 81 20 82 12 83 19 84 1 85 11 89 19 90 11 91 4 
93 10 95 13 97 13 98 1 101 14 102 37 103 14 115 10 116 39 117 36 
118 12 127 2 128 41 129 31 130 26 131 1 140 11 142 47 143 170 144 7 
145 14 154 13 156 55 157 8 158 999 159 227 160 20 170 1 171 15 186 14 
188 156 189 22 
