Name: MassBank: JP009967
MW: 319
Formula: C13H15Cl2NO4
Synonym: MassBank: JP009967
Synonym: N-(2,4-DICHLORO-5-(2-HYDROXYETHOXY)PHENOXYCARBONYL)TETRAHYDROPYRROLE
Structure: 4E2D28322C342D444943484C4F524F2D352D28322D485944524F58594554484F5859295048454E4F5859434152424F4E594C295445545241485944524F505952524F4C452E6D6F6C0A20204368656D447261773038313231303031313032440A2032302032312020302020302020302020302020302020302020302020303939392056323030300A2020202D312E363530302020202D302E3737363120202020302E30303030204E202020302020302020302020302020302020302020302020302020302020302020302020300A2020202D302E383239352020202D302E3836323320202020302E303030302043202020302020302020302020302020302020302020302020302020302020302020302020300A2020202D302E363538302020202D312E3636393320202020302E303030302043202020302020302020302020302020302020302020302020302020302020302020302020300A2020202D312E333732352020202D322E3038313820202020302E303030302043202020302020302020302020302020302020302020302020302020302020302020302020300A2020202D312E393835362020202D312E3532393820202020302E303030302043202020302020302020302020302020302020302020302020302020302020302020302020300A2020202D322E303632352020202D302E3036313620202020302E303030302043202020302020302020302020302020302020302020302020302020302020302020302020300A2020202D322E383837352020202D302E3036313620202020302E30303030204F202020302020302020302020302020302020302020302020302020302020302020302020300A2020202D312E3635303020202020302E3635323920202020302E30303030204F202020302020302020302020302020302020302020302020302020302020302020302020300A2020202D302E3832353020202020302E3635323920202020302E303030302043202020302020302020302020302020302020302020302020302020302020302020302020300A2020202D302E3431323520202020312E3336373320202020302E303030302043202020302020302020302020302020302020302020302020302020302020302020302020300A20202020302E3431323520202020312E3336373320202020302E303030302043202020302020302020302020302020302020302020302020302020302020302020302020300A20202020302E3832353020202020302E3635323920202020302E303030302043202020302020302020302020302020302020302020302020302020302020302020302020300A20202020302E343132352020202D302E3036313620202020302E303030302043202020302020302020302020302020302020302020302020302020302020302020302020300A2020202D302E343132352020202D302E3036313620202020302E303030302043202020302020302020302020302020302020302020302020302020302020302020302020300A20202020302E383235302020202D302E3737363120202020302E30303030204F202020302020302020302020302020302020302020302020302020302020302020302020300A20202020312E363530302020202D302E3737363120202020302E303030302043202020302020302020302020302020302020302020302020302020302020302020302020300A20202020322E303632352020202D302E3036313620202020302E303030302043202020302020302020302020302020302020302020302020302020302020302020302020300A20202020322E383837352020202D302E3036313620202020302E30303030204F202020302020302020302020302020302020302020302020302020302020302020302020300A20202020312E3635303020202020302E3635323920202020302E3030303020436C2020302020302020302020302020302020302020302020302020302020302020302020300A2020202D302E3832353020202020322E3038313820202020302E3030303020436C2020302020302020302020302020302020302020302020302020302020302020302020300A2020312020322020312020302020202020200A2020322020332020312020302020202020200A2020332020342020312020302020202020200A2020342020352020312020302020202020200A2020312020352020312020302020202020200A2020362020372020322020302020202020200A2020392031302020312020302020202020200A2031302031312020322020302020202020200A2031312031322020312020302020202020200A2031322031332020322020302020202020200A2031332031342020312020302020202020200A2020392031342020322020302020202020200A2020382020392020312020302020202020200A2020362020382020312020302020202020200A2031362031372020312020302020202020200A2031352031362020312020302020202020200A2031372031382020312020302020202020200A2031332031352020312020302020202020200A2031322031392020312020302020202020200A2031302032302020312020302020202020200A2020312020362020312020302020202020200A4D2020454E44
Contributor: KURARAY CO., LTD.
InstType: EI
InstName: JEOL JMS-D-300
IoniMethod: _ENERGY 70 eV
IonPolarity: pos
Date: 2010-10-09 19:48:36+02:00
Num Peaks: 34
27 5 28 19 29 15 30 5 41 12 42 12 43 14 45 5 55 392 56 121 
69 12 70 2 73 3 78 3 85 2 97 1 98 999 99 60 133 5 178 9 
180 63 182 14 222 12 224 1 266 21 268 12 284 16 285 0 286 5 319 47 
320 8 321 3 322 5 323 5 
