Name: METHYL SULFIDE
CAS: 75-18-3
MW: 62
Formula: C2H6S
Synonym: MassBank: JP005726
Synonym: METHYL SULFIDE
Structure: 310A31300A4D455448594C2053554C464944452E6D6F6C0A20204368656D447261773038313231303030343032440A2020332020322020302020302020302020302020302020302020302020303939392056323030300A2020202D302E3030303020202020302E3230363320202020302E303030302053202020302020302020302020302020302020302020302020302020302020302020302020300A20202020302E373134352020202D302E3230363320202020302E303030302043202020302020302020302020302020302020302020302020302020302020302020302020300A2020202D302E373134352020202D302E3230363320202020302E303030302043202020302020302020302020302020302020302020302020302020302020302020302020300A2020312020322020312020302020202020200A2020312020332020312020302020202020200A4D2020454E44
Contributor: MASS SPECTROSCOPY SOC. OF JAPAN (MSSJ)
InstType: EI
InstName: HITACHI M-80
IoniMethod: _ENERGY 70 eV
IonPolarity: pos
Date: 2010-10-09 19:48:36+02:00
Num Peaks: 31
15 273 16 5 17 3 18 9 26 11 27 186 28 66 29 9 32 46 33 20 
34 17 35 273 36 3 37 12 44 88 45 758 46 463 47 999 48 40 49 44 
54 4 56 6 57 29 58 37 59 33 60 5 61 297 62 831 63 65 64 39 
65 2 
