Name: MassBank: JP003034
MW: 206
Formula: C10H22S2
Synonym: MassBank: JP003034
Synonym: BIS(2,2-DIMETHYLPROPYL)DISULFIDE
Structure: 42495328322C322D44494D455448594C50524F50594C29444953554C464944452E6D6F6C0A20204368656D447261773039303531303231343032440A2031322031312020302020302020302020302020302020302020302020303939392056323030300A2020202D302E333537322020202D302E3230363320202020302E303030302053202020302020302020302020302020302020302020302020302020302020302020302020300A20202020302E3335373220202020302E3230363320202020302E303030302053202020302020302020302020302020302020302020302020302020302020302020302020300A2020202D312E3037313720202020302E3230363320202020302E303030302043202020302020302020302020302020302020302020302020302020302020302020302020300A2020202D312E373836322020202D302E3230363320202020302E303030302043202020302020302020302020302020302020302020302020302020302020302020302020300A2020202D322E353030362020202D302E3631383820202020302E303030302043202020302020302020302020302020302020302020302020302020302020302020302020300A2020202D322E3139383720202020302E3530383220202020302E303030302043202020302020302020302020302020302020302020302020302020302020302020302020300A2020202D312E333733372020202D302E3932303720202020302E303030302043202020302020302020302020302020302020302020302020302020302020302020302020300A20202020312E303731372020202D302E3230363320202020302E303030302043202020302020302020302020302020302020302020302020302020302020302020302020300A20202020312E3738363220202020302E3230363320202020302E303030302043202020302020302020302020302020302020302020302020302020302020302020302020300A20202020312E3337333720202020302E3932303720202020302E303030302043202020302020302020302020302020302020302020302020302020302020302020302020300A20202020322E3530303620202020302E3631383820202020302E303030302043202020302020302020302020302020302020302020302020302020302020302020302020300A20202020322E313938372020202D302E3530383220202020302E303030302043202020302020302020302020302020302020302020302020302020302020302020302020300A2020312020322020312020302020202020200A2020332020342020312020302020202020200A2020342020352020312020302020202020200A2020342020362020312020312020202020200A2020342020372020312020312020202020200A2020312020332020312020302020202020200A2020382020392020312020302020202020200A2020392031302020312020312020202020200A2020392031312020312020302020202020200A2020392031322020312020312020202020200A2020322020382020312020302020202020200A4D2020454E44
Contributor: SASAKI S, TOYOHASHI UNIV. OF TECH.
InstType: EI
InstName: Unknown
IoniMethod: EI
IonPolarity: pos
Date: 2010-10-09 19:48:36+02:00
Num Peaks: 110
15 16 25 1 26 11 27 17 28 31 29 241 30 7 31 1 32 7 33 7 
34 13 35 1 36 1 37 5 38 11 39 15 40 21 41 339 42 102 43 92 
44 42 45 57 46 5 47 3 48 1 49 5 50 9 51 1 52 5 53 43 
54 10 55 35 56 31 57 93 58 19 59 7 60 14 61 36 62 4 63 1 
64 7 65 5 66 5 67 1 68 6 69 41 70 102 71 999 72 76 73 19 
74 12 75 3 76 9 77 2 78 1 79 0 80 7 81 1 82 1 83 0 
84 5 85 25 86 2 87 1 88 2 89 7 90 9 91 0 92 1 93 5 
94 1 95 0 97 1 98 1 99 1 101 1 102 7 103 9 104 31 105 0 
106 2 107 17 108 1 109 0 111 1 121 6 122 17 123 0 124 2 134 1 
135 2 136 9 137 3 138 3 139 1 140 0 150 1 160 1 168 1 177 0 
178 1 192 15 193 2 194 0 204 1 206 86 207 12 208 1 209 1 210 1 
