Name: N-(META-PHENOXYPHENYL)-2-PYRROLIDONE
MW: 253
Formula: C16H15NO2
Synonym: MassBank: JP004154
Synonym: N-(META-PHENOXYPHENYL)-2-PYRROLIDONE
Structure: 4E2D284D4554412D5048454E4F58595048454E594C292D322D505952524F4C49444F4E452E6D6F6C0A20204368656D447261773038313231303031323332440A2031392032312020302020302020302020302020302020302020302020303939392056323030300A20202020312E3834303220202020302E3334353720202020302E30303030204E202020302020302020302020302020302020302020302020302020302020302020302020300A20202020322E3332353220202020312E3031333120202020302E303030302043202020302020302020302020302020302020302020302020302020302020302020302020300A20202020332E3130393820202020302E3735383220202020302E303030302043202020302020302020302020302020302020302020302020302020302020302020302020300A20202020332E313039382020202D302E3036363820202020302E303030302043202020302020302020302020302020302020302020302020302020302020302020302020300A20202020322E333235322020202D302E3332313820202020302E303030302043202020302020302020302020302020302020302020302020302020302020302020302020300A20202020322E3037303220202020312E3739373720202020302E30303030204F202020302020302020302020302020302020302020302020302020302020302020302020300A20202020312E3031353220202020302E3334353720202020302E303030302043202020302020302020302020302020302020302020302020302020302020302020302020300A20202020302E363032372020202D302E3336383820202020302E303030302043202020302020302020302020302020302020302020302020302020302020302020302020300A2020202D302E323232332020202D302E3336383820202020302E303030302043202020302020302020302020302020302020302020302020302020302020302020302020300A2020202D302E3633343820202020302E3334353720202020302E303030302043202020302020302020302020302020302020302020302020302020302020302020302020300A2020202D302E3232323320202020312E3036303120202020302E303030302043202020302020302020302020302020302020302020302020302020302020302020302020300A20202020302E3630323720202020312E3036303120202020302E303030302043202020302020302020302020302020302020302020302020302020302020302020302020300A2020202D302E363334382020202D312E3038333320202020302E30303030204F202020302020302020302020302020302020302020302020302020302020302020302020300A2020202D312E343539382020202D312E3038333320202020302E303030302043202020302020302020302020302020302020302020302020302020302020302020302020300A2020202D312E383732332020202D312E3739373720202020302E303030302043202020302020302020302020302020302020302020302020302020302020302020302020300A2020202D322E363937332020202D312E3739373720202020302E303030302043202020302020302020302020302020302020302020302020302020302020302020302020300A2020202D332E313039382020202D312E3038333320202020302E303030302043202020302020302020302020302020302020302020302020302020302020302020302020300A2020202D322E363937332020202D302E3336383820202020302E303030302043202020302020302020302020302020302020302020302020302020302020302020302020300A2020202D312E383732332020202D302E3336383820202020302E303030302043202020302020302020302020302020302020302020302020302020302020302020302020300A2020312020322020312020302020202020200A2020322020332020312020302020202020200A2020332020342020312020302020202020200A2020342020352020312020302020202020200A2020312020352020312020302020202020200A2020322020362020322020302020202020200A2020372020382020312020302020202020200A2020382020392020322020302020202020200A2020392031302020312020302020202020200A2031302031312020322020302020202020200A2031312031322020312020302020202020200A2020372031322020322020302020202020200A2031342031352020312020302020202020200A2031352031362020322020302020202020200A2031362031372020312020302020202020200A2031372031382020322020302020202020200A2031382031392020312020302020202020200A2031342031392020322020302020202020200A2031332031342020312020302020202020200A2020392031332020312020302020202020200A2020312020372020312020302020202020200A4D2020454E44
Contributor: MASS SPECTROSCOPY SOC. OF JAPAN (MSSJ)
InstType: EI
InstName: HITACHI RMU-6E
IoniMethod: _ENERGY 70 eV
IonPolarity: pos
Date: 2010-10-09 19:48:36+02:00
Num Peaks: 156
26 3 27 15 28 28 29 1 30 3 31 1 32 4 38 1 39 92 40 8 
41 38 42 1 43 8 44 2 45 2 50 1 51 118 52 11 53 7 54 0 
55 18 56 6 57 5 61 0 62 4 63 20 64 25 65 3 66 8 67 3 
68 4 69 1 70 4 71 3 72 2 73 0 74 3 75 9 76 17 77 18 
78 17 79 7 80 5 81 0 82 2 86 2 87 2 88 0 89 6 90 11 
91 16 92 2 93 10 94 6 95 4 96 0 97 4 98 5 99 6 101 0 
102 4 103 5 104 18 105 3 106 5 107 3 108 2 109 0 110 1 111 1 
112 3 113 0 114 2 115 38 116 7 117 1 118 6 119 4 120 5 121 0 
122 4 123 2 124 2 125 0 126 2 127 7 128 9 129 1 130 12 131 4 
132 10 133 0 134 1 135 1 137 1 138 0 139 15 140 8 141 130 142 1 
143 4 144 1 145 1 146 0 147 2 148 1 149 13 150 0 151 2 152 4 
153 6 154 1 155 10 156 17 157 9 158 0 159 1 160 4 164 1 165 0 
166 5 167 6 168 112 169 2 170 13 171 2 177 3 178 0 179 1 180 4 
181 4 182 1 183 9 184 10 185 35 186 1 187 1 195 2 196 16 197 1 
198 999 199 140 200 7 210 1 211 5 212 1 223 3 224 2 225 20 226 3 
227 1 251 1 252 264 253 792 254 168 255 10 
