Name: BUTANEDIOIC ACID BIS(TRIMETHYLSILYL) ESTER
MW: 262
Formula: C10H22O4Si2
Synonym: MassBank: JP001918
Synonym: BUTANEDIOIC ACID BIS(TRIMETHYLSILYL) ESTER
Synonym: BIS(TRIMETHYLSILYL) SUCCINATE
Structure: 425554414E4544494F4943204143494420424953285452494D455448594C53494C594C292045535445522E6D6F6C0A20204368656D447261773039303631303031303232440A2031362031352020302020302020302020302020302020302020302020303939392056323030300A2020202D312E303331322020202D302E3035353320202020302E303030302043202020302020302020302020302020302020302020302020302020302020302020302020300A2020202D302E323036322020202D302E3035353320202020302E303030302043202020302020302020302020302020302020302020302020302020302020302020302020300A20202020302E323036332020202D302E3736393720202020302E303030302043202020302020302020302020302020302020302020302020302020302020302020302020300A20202020312E303331332020202D302E3736393720202020302E303030302043202020302020302020302020302020302020302020302020302020302020302020302020300A2020202D312E343433382020202D302E3736393720202020302E30303030204F202020302020302020302020302020302020302020302020302020302020302020302020300A2020202D312E3434333820202020302E3635393220202020302E30303030204F202020302020302020302020302020302020302020302020302020302020302020302020300A20202020312E343433382020202D312E3438343220202020302E30303030204F202020302020302020302020302020302020302020302020302020302020302020302020300A20202020312E343433382020202D302E3035353320202020302E30303030204F202020302020302020302020302020302020302020302020302020302020302020302020300A2020202D322E3236383820202020302E3635393220202020302E303030302053692020302020302020302020302020302020302020302020302020302020302020302020300A2020202D322E3236383820202020312E3438343220202020302E303030302043202020302020302020302020302020302020302020302020302020302020302020302020300A2020202D322E323638382020202D302E3136353820202020302E303030302043202020302020302020302020302020302020302020302020302020302020302020302020300A2020202D332E3039333820202020302E3635393220202020302E303030302043202020302020302020302020302020302020302020302020302020302020302020302020300A20202020322E323638382020202D302E3035353320202020302E303030302053692020302020302020302020302020302020302020302020302020302020302020302020300A20202020322E3236383820202020302E3736393720202020302E303030302043202020302020302020302020302020302020302020302020302020302020302020302020300A20202020332E303933382020202D302E3035353320202020302E303030302043202020302020302020302020302020302020302020302020302020302020302020302020300A20202020322E323638382020202D302E3838303320202020302E303030302043202020302020302020302020302020302020302020302020302020302020302020302020300A2020312020322020312020302020202020200A2020322020332020312020302020202020200A2020332020342020312020302020202020200A2020312020352020322020302020202020200A2020312020362020312020302020202020200A2020342020372020322020302020202020200A2020342020382020312020302020202020200A2020392031302020312020302020202020200A2020392031312020312020302020202020200A2020392031322020312020302020202020200A2020362020392020312020302020202020200A2031332031342020312020312020202020200A2031332031352020312020302020202020200A2031332031362020312020312020202020200A2020382031332020312020302020202020200A4D2020454E44
Contributor: KOGA M, UNIV. OF OCCUPATIONAL AND ENVIRONMENTAL HEALTH
InstType: EI
InstName: JEOL JMS-01-SG
IoniMethod: _ENERGY 70 eV
IonPolarity: pos
Date: 2010-10-09 19:48:36+02:00
Num Peaks: 12
45 180 55 175 56 130 73 17 74 116 75 440 147 999 148 36 149 99 172 71 
247 213 248 40 
