Name: ORTHO-CHLOROPHENOL
MW: 128
Formula: C6H5ClO
Synonym: MassBank: JP008335
Synonym: ORTHO-CHLOROPHENOL
Structure: 310A32310A4F5254484F2D43484C4F524F5048454E4F4C2E6D6F6C0A20204368656D447261773038313231303033333432440A2020382020382020302020302020302020302020302020302020302020303939392056323030300A2020202D302E343132352020202D302E3335373220202020302E303030302043202020302020302020302020302020302020302020302020302020302020302020302020300A20202020302E3030303020202020302E3335373220202020302E303030302043202020302020302020302020302020302020302020302020302020302020302020302020300A20202020302E3832353020202020302E3335373220202020302E303030302043202020302020302020302020302020302020302020302020302020302020302020302020300A20202020312E323337352020202D302E3335373220202020302E303030302043202020302020302020302020302020302020302020302020302020302020302020302020300A20202020302E383235302020202D312E3037313720202020302E303030302043202020302020302020302020302020302020302020302020302020302020302020302020300A20202020302E303030302020202D312E3037313720202020302E303030302043202020302020302020302020302020302020302020302020302020302020302020302020300A2020202D302E3431323520202020312E3037313720202020302E3030303020436C2020302020302020302020302020302020302020302020302020302020302020302020300A2020202D312E323337352020202D302E3335373220202020302E30303030204F202020302020302020302020302020302020302020302020302020302020302020302020300A2020312020322020312020302020202020200A2020322020332020322020302020202020200A2020332020342020312020302020202020200A2020342020352020322020302020202020200A2020352020362020312020302020202020200A2020312020362020322020302020202020200A2020322020372020312020302020202020200A2020312020382020312020302020202020200A4D2020454E44
Contributor: UBE SCIENTIFIC ANALYSIS LABORATORY
InstType: EI
InstName: HITACHI M-60
IoniMethod: _ENERGY 70 eV
IonPolarity: pos
Date: 2010-10-09 19:48:36+02:00
Num Peaks: 43
14 62 26 21 27 13 31 21 32 31 37 37 38 121 39 145 41 34 46 33 
50 68 51 34 52 7 53 27 54 38 61 39 62 70 63 233 64 523 65 185 
70 24 71 3 73 60 75 39 82 5 85 4 87 14 88 15 89 8 92 214 
97 15 99 46 100 32 108 37 109 8 111 14 115 6 128 999 129 82 130 396 
131 27 142 4 149 4 
