Name: MassBank: JP006697
MW: 262
Formula: C10H14O6S
Synonym: MassBank: JP006697
Synonym: 2-METHYLSULFONYLMETHYL-3,4,5-TRIHYDROXYBENZYL METHYL ETHER
Structure: 322D4D455448594C53554C464F4E594C4D455448594C2D332C342C352D545249485944524F585942454E5A594C204D455448594C2045544845522E6D6F6C0A20204368656D447261773032323131303036303432440A2031372031372020302020302020302020302020302020302020302020303939392056323030300A2020202D302E3135313020202020312E3432383920202020302E30303030204F202020302020302020302020302020302020302020302020302020302020302020302020300A20202020302E3236313520202020322E3134333420202020302E303030302043202020302020302020302020302020302020302020302020302020302020302020302020300A20202020302E3236313520202020302E3731343520202020302E303030302043202020302020302020302020302020302020302020302020302020302020302020302020300A2020202D302E313531302020202D302E3030303020202020302E303030302043202020302020302020302020302020302020302020302020302020302020302020302020300A20202020302E323631352020202D302E3731343520202020302E303030302043202020302020302020302020302020302020302020302020302020302020302020302020300A2020202D302E313531302020202D312E3432383920202020302E303030302043202020302020302020302020302020302020302020302020302020302020302020302020300A2020202D302E393736302020202D312E3432383920202020302E303030302043202020302020302020302020302020302020302020302020302020302020302020302020300A2020202D312E333838352020202D302E3731343520202020302E303030302043202020302020302020302020302020302020302020302020302020302020302020302020300A2020202D302E3937363020202020302E3030303020202020302E303030302043202020302020302020302020302020302020302020302020302020302020302020302020300A2020202D322E323133352020202D302E3731343520202020302E30303030204F202020302020302020302020302020302020302020302020302020302020302020302020300A2020202D312E333838352020202D322E3134333420202020302E30303030204F202020302020302020302020302020302020302020302020302020302020302020302020300A20202020302E323631352020202D322E3134333420202020302E30303030204F202020302020302020302020302020302020302020302020302020302020302020302020300A20202020312E303836352020202D302E3731343520202020302E303030302043202020302020302020302020302020302020302020302020302020302020302020302020300A20202020312E3439393020202020302E3030303020202020302E303030302053202020302020302020302020302020302020302020302020302020302020302020302020300A20202020302E3738343520202020302E3431323520202020302E30303030204F202020302020302020302020302020302020302020302020302020302020302020302020300A20202020322E323133352020202D302E3431323520202020302E30303030204F202020302020302020302020302020302020302020302020302020302020302020302020300A20202020312E3931313520202020302E3731343520202020302E303030302043202020302020302020302020302020302020302020302020302020302020302020302020300A2020312020322020312020302020202020200A2020332020342020312020302020202020200A2020342020352020312020302020202020200A2020352020362020322020302020202020200A2020362020372020312020302020202020200A2020372020382020322020302020202020200A2020382020392020312020302020202020200A2020342020392020322020302020202020200A2020382031302020312020302020202020200A2020372031312020312020302020202020200A2020362031322020312020302020202020200A2031342031352020322020302020202020200A2031342031362020322020302020202020200A2031342031372020312020302020202020200A2031332031342020312020302020202020200A2020352031332020312020302020202020200A2020312020332020312020302020202020200A4D2020454E44
Contributor: MASS SPECTROSCOPY SOC. OF JAPAN (MSSJ)
InstType: EI
InstName: JEOL JMS-D-300
IoniMethod: _ENERGY 70 eV
IonPolarity: pos
Date: 2010-10-09 19:48:36+02:00
Num Peaks: 54
52 55 53 31 54 50 56 5 62 18 63 375 64 41 65 999 66 50 67 55 
69 18 77 4 78 20 79 40 80 380 81 3 82 28 83 15 93 25 94 4 
95 60 106 20 107 28 111 5 120 15 121 20 122 40 123 11 124 10 125 15 
136 13 137 19 138 35 139 52 140 20 147 2 149 15 151 15 152 15 153 5 
154 10 164 42 165 290 166 5 167 39 168 41 181 25 182 8 183 545 184 52 
190 11 192 1 262 58 263 9 
