Name: PROPYLHYDRAZINE
MW: 74
Formula: C3H10N2
Synonym: MassBank: JP000366
Synonym: PROPYLHYDRAZINE
Structure: 310A31340A50524F50594C48594452415A494E452E6D6F6C0A20204368656D447261773038313231303036323132440A2020352020342020302020302020302020302020302020302020302020303939392056323030300A2020202D302E3731343520202020302E3230363220202020302E30303030204E202020302020302020302020302020302020302020302020302020302020302020302020300A2020202D312E343238392020202D302E3230363220202020302E30303030204E202020302020302020302020302020302020302020302020302020302020302020302020300A20202020302E303030302020202D302E3230363220202020302E303030302043202020302020302020302020302020302020302020302020302020302020302020302020300A20202020302E3731343520202020302E3230363220202020302E303030302043202020302020302020302020302020302020302020302020302020302020302020302020300A20202020312E343238392020202D302E3230363220202020302E303030302043202020302020302020302020302020302020302020302020302020302020302020302020300A2020312020322020312020302020202020200A2020332020342020312020302020202020200A2020342020352020312020302020202020200A2020312020332020312020302020202020200A4D2020454E44
Contributor: SASAKI S, TOYOHASHI UNIV. OF TECH.
InstType: EI
InstName: SHIMADZU LKB-2091
IoniMethod: _ENERGY 70 eV
IonPolarity: pos
Date: 2010-10-09 19:48:36+02:00
Num Peaks: 19
29 108 30 77 31 145 32 3 39 72 40 17 41 145 42 6 43 113 44 34 
45 999 46 3 56 29 57 13 58 6 59 2 73 16 74 264 75 46 
