Name: DIHYDROLANOSTEROL
CAS: 79-62-9
MW: 428
Formula: C30H52O
Synonym: MassBank: JP008185
Synonym: DIHYDROLANOSTEROL
Structure: 303438395F4449485944524F4C414E4F535445524F4C2E6D6F6C0A20204368656D447261773130313931303231343632440A2033342033372020302020302020302020302020302020302020302020303939392056323030300A2020202D332E343134312020202D322E3239313520202020302E303030302043202020302020302020302020302020302020302020302020302020302020302020302020300A2020202D332E343134312020202D312E3436363520202020302E303030302043202020302020302020302020302020302020302020302020302020302020302020302020300A2020202D322E363939362020202D312E3035343020202020302E303030302043202020302020302020302020302020302020302020302020302020302020302020302020300A2020202D322E363939362020202D322E3730343020202020302E303030302043202020302020302020302020302020302020302020302020302020302020302020302020300A2020202D322E313639332020202D332E3333363020202020302E303030302043202020302020302020302020302020302020302020302020302020302020302020302020300A2020202D332E323239392020202D332E3333363020202020302E303030302043202020302020302020302020302020302020302020302020302020302020302020302020300A2020202D312E393835322020202D322E3239313520202020302E303030302043202020302020302020302020302020302020302020302020302020302020302020302020300A2020202D312E323730372020202D322E3730343020202020302E303030302043202020302020302020302020302020302020302020302020302020302020302020302020300A2020202D302E353536322020202D322E3239313520202020302E303030302043202020302020302020302020302020302020302020302020302020302020302020302020300A2020202D302E353536322020202D312E3436363520202020302E303030302043202020302020302020302020302020302020302020302020302020302020302020302020300A20202020302E313538322020202D312E3035343020202020302E303030302043202020302020302020302020302020302020302020302020302020302020302020302020300A20202020302E313538322020202D312E3837393020202020302E303030302043202020302020302020302020302020302020302020302020302020302020302020302020300A20202020302E393432392020202D312E3330383920202020302E303030302043202020302020302020302020302020302020302020302020302020302020302020302020300A20202020312E343237382020202D302E3634313520202020302E303030302043202020302020302020302020302020302020302020302020302020302020302020302020300A20202020302E3934323920202020302E3032363020202020302E303030302043202020302020302020302020302020302020302020302020302020302020302020302020300A20202020312E3139373820202020302E3831303620202020302E303030302043202020302020302020302020302020302020302020302020302020302020302020302020300A20202020322E3030343820202020302E3938323120202020302E303030302043202020302020302020302020302020302020302020302020302020302020302020302020300A20202020322E3235393720202020312E3736363720202020302E303030302043202020302020302020302020302020302020302020302020302020302020302020302020300A20202020332E3036363720202020312E3933383320202020302E303030302043202020302020302020302020302020302020302020302020302020302020302020302020300A20202020332E3332313620202020322E3732323920202020302E303030302043202020302020302020302020302020302020302020302020302020302020302020302020300A20202020342E3132383620202020322E3839343420202020302E303030302043202020302020302020302020302020302020302020302020302020302020302020302020300A20202020322E3736393620202020332E3333363020202020302E303030302043202020302020302020302020302020302020302020302020302020302020302020302020300A20202020302E3634353820202020312E3432333720202020302E303030302043202020302020302020302020302020302020302020302020302020302020302020302020300A20202020302E313538322020202D302E3232393020202020302E303030302043202020302020302020302020302020302020302020302020302020302020302020302020300A20202020302E3135383220202020302E3539363020202020302E303030302043202020302020302020302020302020302020302020302020302020302020302020302020300A2020202D302E3535363220202020302E3138333520202020302E303030302043202020302020302020302020302020302020302020302020302020302020302020302020300A2020202D312E323730372020202D302E3232393020202020302E303030302043202020302020302020302020302020302020302020302020302020302020302020302020300A2020202D312E323730372020202D312E3035343020202020302E303030302043202020302020302020302020302020302020302020302020302020302020302020302020300A2020202D312E393835322020202D312E3436363520202020302E303030302043202020302020302020302020302020302020302020302020302020302020302020302020300A2020202D312E393835322020202D302E3634313520202020302E303030302043202020302020302020302020302020302020302020302020302020302020302020302020300A2020202D342E313238362020202D322E3730343020202020302E30303030204F202020302020302020302020302020302020302020302020302020302020302020302020300A2020202D312E383037392020202D332E3039373220202020302E303030302048202020302020302020302020302020302020302020302020302020302020302020302020300A20202020312E373432382020202D302E3137353920202020302E303030302048202020302020302020302020302020302020302020302020302020302020302020302020300A20202020312E3837303920202020302E3333333520202020302E303030302048202020302020302020302020302020302020302020302020302020302020302020302020300A2020312020322020312020302020202020200A2020322020332020312020302020202020200A2020312020342020312020302020202020200A2020342020352020312020302020202020200A2020342020362020312020302020202020200A2020342020372020312020302020202020200A2020372020382020312020302020202020200A2020382020392020312020302020202020200A2020392031302020312020302020202020200A2031302031312020312020302020202020200A2031312031322020312020362020202020200A2031312031332020312020302020202020200A2031332031342020312020302020202020200A2031352031342020312020302020202020200A2031352031362020312020302020202020200A2031362031372020312020302020202020200A2031372031382020312020302020202020200A2031382031392020312020302020202020200A2031392032302020312020302020202020200A2032302032312020312020302020202020200A2032302032322020312020302020202020200A2031362032332020312020302020202020200A2031352032342020312020302020202020200A2031312032342020312020302020202020200A2032342032352020312020312020202020200A2032342032362020312020302020202020200A2032362032372020312020302020202020200A2032372032382020312020302020202020200A2031302032382020322020302020202020200A2032382032392020312020302020202020200A2020332032392020312020302020202020200A2020372032392020312020302020202020200A2032392033302020312020312020202020200A2020312033312020312020312020202020200A2020372033322020312020362020202020200A2031352033332020312020362020202020200A2031362033342020312020312020202020200A4D2020454E44
Contributor: NARA WOMEN'S UNIVERSITY
InstType: EI
InstName: HITACHI M-80
IoniMethod: _ENERGY 70 eV
IonPolarity: pos
Date: 2010-10-09 19:48:36+02:00
Num Peaks: 183
27 47 29 126 39 29 41 410 42 43 43 999 53 33 54 42 55 484 56 43 
57 432 58 21 65 16 67 129 68 15 69 484 70 34 71 206 72 18 77 46 
78 12 79 112 80 18 81 208 82 23 83 252 84 22 85 58 91 148 92 23 
93 179 94 32 95 362 96 37 97 165 98 17 99 17 103 12 105 213 106 35 
107 231 108 45 109 194 110 26 111 128 112 16 113 15 115 21 116 12 117 49 
118 19 119 206 120 43 121 195 122 42 123 112 124 14 125 46 127 15 128 25 
129 42 130 24 131 91 132 27 133 148 134 41 135 192 136 38 137 57 139 21 
141 20 142 17 143 42 144 26 145 98 146 32 147 117 148 27 149 83 150 20 
151 27 152 12 153 32 155 17 156 15 157 44 158 17 159 101 160 30 161 134 
162 28 163 64 164 15 165 25 169 16 171 43 172 17 173 83 174 26 175 90 
176 20 177 25 179 28 183 15 185 39 186 20 187 108 188 25 189 84 190 16 
191 31 193 26 197 15 199 39 200 16 201 46 202 10 203 35 205 30 206 11 
207 25 213 36 214 33 215 69 216 15 217 15 219 33 220 11 225 10 227 53 
228 15 229 60 230 12 231 18 233 26 241 59 242 14 243 38 245 31 246 12 
247 48 255 41 256 10 257 20 259 65 260 19 261 51 262 12 267 10 269 15 
271 16 273 110 274 46 275 59 276 18 281 12 283 25 285 15 287 21 288 22 
289 11 297 13 299 47 300 14 301 11 313 15 315 17 355 11 378 78 379 13 
395 280 396 88 397 21 398 13 399 20 411 12 412 11 413 617 414 248 415 44 
428 236 429 79 430 14 
