Name: 2-METHYL-2-BUTANETHIOL
MW: 104
Formula: C5H12S
Synonym: MassBank: JP009156
Synonym: 2-METHYL-2-BUTANETHIOL
Structure: 310A31360A322D4D455448594C2D322D425554414E455448494F4C2E6D6F6C0A20204368656D447261773031323231303033303432440A2020362020352020302020302020302020302020302020302020302020303939392056323030300A20202020302E303535332020202D302E3731343520202020302E303030302043202020302020302020302020302020302020302020302020302020302020302020302020300A2020202D302E3335373220202020302E3030303020202020302E303030302043202020302020302020302020302020302020302020302020302020302020302020302020300A20202020302E3335373220202020302E3431323520202020302E303030302043202020302020302020302020302020302020302020302020302020302020302020302020300A20202020312E3037313720202020302E3030303020202020302E303030302043202020302020302020302020302020302020302020302020302020302020302020302020300A2020202D312E303731372020202D302E3431323520202020302E303030302053202020302020302020302020302020302020302020302020302020302020302020302020300A2020202D302E3736393720202020302E3731343520202020302E303030302043202020302020302020302020302020302020302020302020302020302020302020302020300A2020312020322020312020302020202020200A2020322020332020312020302020202020200A2020332020342020312020302020202020200A2020322020352020312020302020202020200A2020322020362020312020302020202020200A4D2020454E44
Contributor: SODA AROMATIC CO., LTD.
InstType: EI
InstName: HITACHI M-80B
IoniMethod: _ENERGY 70 eV
IonPolarity: pos
Date: 2010-10-09 19:48:36+02:00
Num Peaks: 27
14 38 26 43 27 242 29 265 39 277 40 46 41 500 42 93 43 999 45 69 
47 115 50 38 51 47 53 75 55 411 58 54 59 116 61 38 69 41 70 67 
71 683 72 54 75 258 89 40 104 348 105 33 106 34 
