Name: 2-HEXANOL
MW: 102
Formula: C6H14O
Synonym: MassBank: JP002129
Synonym: 2-HEXANOL
Structure: 310A31380A322D484558414E4F4C2E6D6F6C0A20204368656D447261773031323131303134303332440A2020372020362020302020302020302020302020302020302020302020303939392056323030300A2020202D312E3738363220202020302E3631383820202020302E303030302043202020302020302020302020302020302020302020302020302020302020302020302020300A2020202D312E3037313720202020302E3230363220202020302E303030302043202020302020302020302020302020302020302020302020302020302020302020302020300A2020202D302E3335373220202020302E3631383820202020302E303030302043202020302020302020302020302020302020302020302020302020302020302020302020300A20202020302E3335373220202020302E3230363220202020302E303030302043202020302020302020302020302020302020302020302020302020302020302020302020300A20202020312E3037313720202020302E3631383820202020302E303030302043202020302020302020302020302020302020302020302020302020302020302020302020300A20202020312E3738363220202020302E3230363320202020302E303030302043202020302020302020302020302020302020302020302020302020302020302020302020300A2020202D312E303731372020202D302E3631383820202020302E30303030204F202020302020302020302020302020302020302020302020302020302020302020302020300A2020312020322020312020302020202020200A2020322020332020312020302020202020200A2020332020342020312020302020202020200A2020342020352020312020302020202020200A2020352020362020312020302020202020200A2020322020372020312020302020202020200A4D2020454E44
Contributor: TAJIMA S, GUNMA COLLEGE OF TECHNOLOGY
InstType: EI
InstName: HITACHI RMU-7M
IoniMethod: _ENERGY 70 eV
IonPolarity: pos
Date: 2010-10-09 19:48:36+02:00
Num Peaks: 30
15 30 19 14 27 126 28 61 29 188 31 19 39 92 40 13 41 324 42 163 
43 702 44 101 45 999 46 23 53 21 54 13 55 230 56 136 57 124 58 297 
59 25 67 11 69 186 70 12 71 35 84 92 85 68 87 43 100 32 101 11 
