Name: 3-METHYL-3-(TRIMETHYLSILYL)OXYGLUTARIC ACID BIS(TRIMETHYLSILYL) ESTER
MW: 378
Formula: C15H34O5Si3
Synonym: MassBank: JP001062
Synonym: 3-METHYL-3-(TRIMETHYLSILYL)OXYGLUTARIC ACID BIS(TRIMETHYLSILYL) ESTER
Synonym: DI(TRIMETHYLSILYL) 3-METHYL-3-TRIMETHYLSILOXYPENTANEDIOATE
Structure: 332D4D455448594C2D332D285452494D455448594C53494C594C294F5859474C555441524943204143494420424953285452494D455448594C53494C594C292045535445522E6D6F6C0A20204368656D447261773033323031303030323632440A2032332032322020302020302020302020302020302020302020302020303939392056323030300A20202020312E333733372020202D312E3033313220202020302E303030302043202020302020302020302020302020302020302020302020302020302020302020302020300A20202020302E353438372020202D312E3033313220202020302E303030302043202020302020302020302020302020302020302020302020302020302020302020302020300A20202020302E313336322020202D302E3331363820202020302E303030302043202020302020302020302020302020302020302020302020302020302020302020302020300A2020202D302E353738332020202D302E3732393320202020302E303030302043202020302020302020302020302020302020302020302020302020302020302020302020300A2020202D312E323932382020202D302E3331363820202020302E303030302043202020302020302020302020302020302020302020302020302020302020302020302020300A20202020312E373836322020202D312E3734353720202020302E30303030204F202020302020302020302020302020302020302020302020302020302020302020302020300A20202020312E373836322020202D302E3331363820202020302E30303030204F202020302020302020302020302020302020302020302020302020302020302020302020300A2020202D312E3239323820202020302E3530383220202020302E30303030204F202020302020302020302020302020302020302020302020302020302020302020302020300A2020202D322E303037322020202D302E3732393320202020302E30303030204F202020302020302020302020302020302020302020302020302020302020302020302020300A20202020302E3835303620202020302E3039353720202020302E30303030204F202020302020302020302020302020302020302020302020302020302020302020302020300A20202020302E3835303620202020302E3932303720202020302E303030302053692020302020302020302020302020302020302020302020302020302020302020302020300A20202020302E3032353620202020302E3932303720202020302E303030302043202020302020302020302020302020302020302020302020302020302020302020302020300A20202020302E3835303620202020312E3734353720202020302E303030302043202020302020302020302020302020302020302020302020302020302020302020302020300A20202020312E3637353620202020302E3932303720202020302E303030302043202020302020302020302020302020302020302020302020302020302020302020302020300A2020202D302E3237363320202020302E3339373720202020302E303030302043202020302020302020302020302020302020302020302020302020302020302020302020300A20202020322E363131322020202D302E3331363820202020302E303030302053692020302020302020302020302020302020302020302020302020302020302020302020300A20202020322E363131322020202D312E3134313820202020302E303030302043202020302020302020302020302020302020302020302020302020302020302020302020300A20202020322E3631313220202020302E3530383220202020302E303030302043202020302020302020302020302020302020302020302020302020302020302020302020300A20202020332E343336322020202D302E3331363820202020302E303030302043202020302020302020302020302020302020302020302020302020302020302020302020300A2020202D322E373231372020202D302E3331363820202020302E303030302053692020302020302020302020302020302020302020302020302020302020302020302020300A2020202D332E313334322020202D312E3033313320202020302E303030302043202020302020302020302020302020302020302020302020302020302020302020302020300A2020202D332E3433363220202020302E3039353720202020302E303030302043202020302020302020302020302020302020302020302020302020302020302020302020300A2020202D322E3330393220202020302E3339373720202020302E303030302043202020302020302020302020302020302020302020302020302020302020302020302020300A2020312020322020312020302020202020200A2020322020332020312020302020202020200A2020332020342020312020302020202020200A2020342020352020312020302020202020200A2020312020362020322020302020202020200A2020312020372020312020302020202020200A2020352020382020322020302020202020200A2020352020392020312020302020202020200A2031312031322020312020312020202020200A2031312031332020312020302020202020200A2031312031342020312020312020202020200A2031302031312020312020302020202020200A2020332031302020312020302020202020200A2020332031352020312020302020202020200A2031362031372020312020312020202020200A2031362031382020312020312020202020200A2031362031392020312020302020202020200A2020372031362020312020302020202020200A2032302032312020312020312020202020200A2032302032322020312020302020202020200A2032302032332020312020312020202020200A2020392032302020312020302020202020200A4D2020454E44
Contributor: KOGA M, UNIV. OF OCCUPATIONAL AND ENVIRONMENTAL HEALTH
InstType: EI
InstName: JEOL JMS-01-SG
IoniMethod: _ENERGY 70 eV
IonPolarity: pos
Date: 2010-10-09 19:48:36+02:00
Num Peaks: 23
43 52 45 104 55 70 73 999 74 100 75 297 83 55 85 5 109 155 115 209 
117 72 133 6 147 480 148 75 149 78 183 7 199 217 203 100 231 178 247 33 
248 72 273 154 363 89 
