Name: 2-(DIMETHYLAMINO)ETHANOL
CAS: 108-01-0
MW: 89
Formula: C4H11NO
Synonym: MassBank: JP007316
Synonym: 2-(DIMETHYLAMINO)ETHANOL
Synonym: DEANOL
Structure: 310A31360A322D2844494D455448594C414D494E4F29455448414E4F4C2E6D6F6C0A20204368656D447261773132323130393230353132440A2020362020352020302020302020302020302020302020302020302020303939392056323030300A2020202D302E373134352020202D302E3230363220202020302E303030302043202020302020302020302020302020302020302020302020302020302020302020302020300A20202020302E303030302020202D302E3631383820202020302E303030302043202020302020302020302020302020302020302020302020302020302020302020302020300A20202020302E373134352020202D302E3230363220202020302E30303030204E202020302020302020302020302020302020302020302020302020302020302020302020300A20202020302E3731343520202020302E3631383820202020302E303030302043202020302020302020302020302020302020302020302020302020302020302020302020300A20202020312E343238392020202D302E3631383820202020302E303030302043202020302020302020302020302020302020302020302020302020302020302020302020300A2020202D312E343238392020202D302E3631383820202020302E30303030204F202020302020302020302020302020302020302020302020302020302020302020302020300A2020312020322020312020302020202020200A2020332020342020312020302020202020200A2020332020352020312020302020202020200A2020322020332020312020302020202020200A2020312020362020312020302020202020200A4D2020454E44
Contributor: YAMAMOTO M, DEP. CHEMISTRY, FAC. SCIENCE, NARA WOMEN'S UNIV.
InstType: EI
InstName: HITACHI RMU-6M
IoniMethod: _ENERGY 70 eV
IonPolarity: pos
Date: 2010-10-09 19:48:36+02:00
Num Peaks: 16
15 69 27 27 28 34 29 30 30 114 41 20 42 146 43 46 44 140 45 22 
56 20 57 31 58 999 59 54 88 25 89 67 
