Name: MassBank: JP007021
MW: 90
Formula: C4H10O2
Synonym: MassBank: JP007021
Synonym: 1,4-BUTANEDIOL
Structure: 310A31360A312C342D425554414E4544494F4C2E6D6F6C0A20204368656D447261773131313430393232343732440A2020362020352020302020302020302020302020302020302020302020303939392056323030300A2020202D312E3037313720202020302E3230363320202020302E303030302043202020302020302020302020302020302020302020302020302020302020302020302020300A2020202D302E333537322020202D302E3230363320202020302E303030302043202020302020302020302020302020302020302020302020302020302020302020302020300A20202020302E3335373220202020302E3230363320202020302E303030302043202020302020302020302020302020302020302020302020302020302020302020302020300A20202020312E303731372020202D302E3230363220202020302E303030302043202020302020302020302020302020302020302020302020302020302020302020302020300A2020202D312E373836322020202D302E3230363320202020302E30303030204F202020302020302020302020302020302020302020302020302020302020302020302020300A20202020312E3738363220202020302E3230363320202020302E30303030204F202020302020302020302020302020302020302020302020302020302020302020302020300A2020312020322020312020302020202020200A2020322020332020312020302020202020200A2020332020342020312020302020202020200A2020312020352020312020302020202020200A2020342020362020312020302020202020200A4D2020454E44
Contributor: SODA AROMATIC CO., LTD.
InstType: EI
InstName: HITACHI M-80B
IoniMethod: _ENERGY 70 eV
IonPolarity: pos
Date: 2010-10-09 19:48:36+02:00
Num Peaks: 25
15 27 19 23 26 28 27 226 28 60 29 225 30 19 31 974 32 15 38 11 
39 131 40 65 41 398 42 999 43 204 44 865 45 54 53 18 54 10 55 19 
57 218 60 33 62 22 71 231 72 73 
