Name: METHYL PHENYL KETONE
MW: 120
Formula: C8H8O
Synonym: MassBank: JP009602
Synonym: METHYL PHENYL KETONE
Structure: 310A32330A4D455448594C205048454E594C204B45544F4E452E6D6F6C0A20204368656D447261773038313231303030333632440A2020392020392020302020302020302020302020302020302020302020303939392056323030300A2020202D312E3033313320202020302E3030303020202020302E303030302043202020302020302020302020302020302020302020302020302020302020302020302020300A2020202D312E343433382020202D302E3731343520202020302E30303030204F202020302020302020302020302020302020302020302020302020302020302020302020300A2020202D302E3230363320202020302E3030303020202020302E303030302043202020302020302020302020302020302020302020302020302020302020302020302020300A20202020302E3230363220202020302E3731343520202020302E303030302043202020302020302020302020302020302020302020302020302020302020302020302020300A20202020312E3033313220202020302E3731343520202020302E303030302043202020302020302020302020302020302020302020302020302020302020302020302020300A20202020312E343433382020202D302E3030303020202020302E303030302043202020302020302020302020302020302020302020302020302020302020302020302020300A20202020312E303331322020202D302E3731343520202020302E303030302043202020302020302020302020302020302020302020302020302020302020302020302020300A20202020302E323036322020202D302E3731343520202020302E303030302043202020302020302020302020302020302020302020302020302020302020302020302020300A2020202D312E3434333820202020302E3731343520202020302E303030302043202020302020302020302020302020302020302020302020302020302020302020302020300A2020312020322020322020302020202020200A2020332020342020312020302020202020200A2020342020352020322020302020202020200A2020352020362020312020302020202020200A2020362020372020322020302020202020200A2020372020382020312020302020202020200A2020332020382020322020302020202020200A2020312020332020312020302020202020200A2020312020392020312020302020202020200A4D2020454E44
Contributor: THE INSTITUTE OF SCIENTIFIC AND INDUSTRIALRESEARCH
InstType: EI
InstName: JEOL JMS-DX-300
IoniMethod: _ENERGY 70 eV
IonPolarity: pos
Date: 2010-10-09 19:48:36+02:00
Num Peaks: 24
26 11 27 38 29 12 38 3 39 81 42 38 43 270 50 17 51 393 52 37 
62 27 63 5 65 30 74 56 75 33 76 5 77 779 78 84 89 12 91 3 
105 999 106 78 120 541 121 51 
