Name: GERANIOL
MW: 154
Formula: C10H18O
Synonym: MassBank: JP008375
Synonym: GERANIOL
Synonym: 3,7-DIMETHYL-2,6-OCTADIEN-1-OL
Structure: 474552414E494F4C2E6D6F6C0A20204368656D447261773032323231303033353432440A2031312031302020302020302020302020302020302020302020302020303939392056323030300A20202020312E363530302020202D302E3731343520202020302E303030302043202020302020302020302020302020302020302020302020302020302020302020302020300A20202020312E3233373520202020302E3030303020202020302E303030302043202020302020302020302020302020302020302020302020302020302020302020302020300A20202020302E3431323520202020302E3030303020202020302E303030302043202020302020302020302020302020302020302020302020302020302020302020302020300A2020202D302E303030302020202D302E3731343520202020302E303030302043202020302020302020302020302020302020302020302020302020302020302020302020300A20202020302E3030303020202020302E3731343520202020302E303030302043202020302020302020302020302020302020302020302020302020302020302020302020300A2020202D302E3832353020202020302E3731343520202020302E303030302043202020302020302020302020302020302020302020302020302020302020302020302020300A2020202D312E323337352020202D302E3030303020202020302E303030302043202020302020302020302020302020302020302020302020302020302020302020302020300A2020202D322E303632352020202D302E3030303020202020302E303030302043202020302020302020302020302020302020302020302020302020302020302020302020300A2020202D322E343735302020202D302E3731343520202020302E303030302043202020302020302020302020302020302020302020302020302020302020302020302020300A2020202D322E3437353020202020302E3731343520202020302E303030302043202020302020302020302020302020302020302020302020302020302020302020302020300A20202020322E343735302020202D302E3731343520202020302E30303030204F202020302020302020302020302020302020302020302020302020302020302020302020300A2020312020322020312020302020202020200A2020322020332020322020302020202020200A2020332020342020312020302020202020200A2020332020352020312020302020202020200A2020352020362020312020302020202020200A2020362020372020312020302020202020200A2020372020382020322020302020202020200A2020382020392020312020302020202020200A2020382031302020312020302020202020200A2020312031312020312020302020202020200A4D2020454E44
Contributor: SODA AROMATIC CO., LTD.
InstType: EI
InstName: HITACHI M-80B
IoniMethod: _ENERGY 70 eV
IonPolarity: pos
Date: 2010-10-09 19:48:36+02:00
Num Peaks: 46
18 11 27 101 28 13 29 108 31 34 39 166 40 33 41 695 42 42 43 57 
51 27 52 12 53 101 54 13 55 78 56 15 57 41 59 25 65 19 66 10 
67 99 68 197 69 999 70 80 71 67 77 24 79 25 80 40 81 42 83 37 
84 65 85 15 91 17 92 16 93 87 94 13 95 14 96 23 97 13 107 13 
111 50 121 36 123 92 136 29 139 13 154 23 
