Name: MassBank: JP005150
MW: 295
Formula: C17H13NO4
Synonym: MassBank: JP005150
Synonym: 2-OXO-4-PHENYL-1,2-DIHYDROQUINOLIN-3-YLOXYACETIC ACID
Structure: 322D4F584F2D342D5048454E594C2D312C322D4449485944524F5155494E4F4C494E2D332D594C4F585941434554494320414349442E6D6F6C0A20204368656D447261773130313831303136353632440A2032322032342020302020302020302020302020302020302020302020303939392056323030300A2020202D322E313433342020202D302E3431323520202020302E303030302043202020302020302020302020302020302020302020302020302020302020302020302020300A2020202D312E343238392020202D302E3832353020202020302E303030302043202020302020302020302020302020302020302020302020302020302020302020302020300A2020202D322E3134333420202020302E3431323520202020302E30303030204F202020302020302020302020302020302020302020302020302020302020302020302020300A2020202D322E383537392020202D302E3832353020202020302E30303030204F202020302020302020302020302020302020302020302020302020302020302020302020300A2020202D302E373134352020202D302E3431323520202020302E30303030204F202020302020302020302020302020302020302020302020302020302020302020302020300A20202020302E373134352020202D322E3036323520202020302E30303030204E202020302020302020302020302020302020302020302020302020302020302020302020300A20202020302E303030302020202D312E3635303020202020302E303030302043202020302020302020302020302020302020302020302020302020302020302020302020300A20202020302E303030302020202D302E3832353020202020302E303030302043202020302020302020302020302020302020302020302020302020302020302020302020300A20202020302E373134352020202D302E3431323520202020302E303030302043202020302020302020302020302020302020302020302020302020302020302020302020300A20202020312E343238392020202D302E3832353020202020302E303030302043202020302020302020302020302020302020302020302020302020302020302020302020300A20202020322E313433342020202D302E3431323520202020302E303030302043202020302020302020302020302020302020302020302020302020302020302020302020300A20202020322E383537392020202D302E3832353020202020302E303030302043202020302020302020302020302020302020302020302020302020302020302020302020300A20202020322E383537392020202D312E3635303020202020302E303030302043202020302020302020302020302020302020302020302020302020302020302020302020300A20202020322E313433342020202D322E3036323520202020302E303030302043202020302020302020302020302020302020302020302020302020302020302020302020300A20202020312E343238392020202D312E3635303020202020302E303030302043202020302020302020302020302020302020302020302020302020302020302020302020300A20202020302E3731343520202020302E3431323520202020302E303030302043202020302020302020302020302020302020302020302020302020302020302020302020300A2020202D302E3030303020202020302E3832353020202020302E303030302043202020302020302020302020302020302020302020302020302020302020302020302020300A2020202D302E3030303020202020312E3635303020202020302E303030302043202020302020302020302020302020302020302020302020302020302020302020302020300A20202020302E3731343520202020322E3036323520202020302E303030302043202020302020302020302020302020302020302020302020302020302020302020302020300A20202020312E3432383920202020312E3635303020202020302E303030302043202020302020302020302020302020302020302020302020302020302020302020302020300A20202020312E3432383920202020302E3832353020202020302E303030302043202020302020302020302020302020302020302020302020302020302020302020302020300A2020202D302E373134352020202D322E3036323520202020302E30303030204F202020302020302020302020302020302020302020302020302020302020302020302020300A2020312020322020312020302020202020200A2020312020332020322020302020202020200A2020312020342020312020302020202020200A2020362020372020312020302020202020200A2020372020382020312020302020202020200A2020382020392020322020302020202020200A2020392031302020312020302020202020200A2031302031312020312020302020202020200A2031312031322020322020302020202020200A2031322031332020312020302020202020200A2031332031342020322020302020202020200A2031342031352020312020302020202020200A2020362031352020312020302020202020200A2031302031352020322020302020202020200A2020352020382020312020302020202020200A2020322020352020312020302020202020200A2031362031372020312020302020202020200A2031372031382020322020302020202020200A2031382031392020312020302020202020200A2031392032302020322020302020202020200A2032302032312020312020302020202020200A2031362032312020322020302020202020200A2020392031362020312020302020202020200A2020372032322020322020302020202020200A4D2020454E44
Contributor: HAYASHI A, FAC. OF SCIENCE AND TECHNOLOGY, KINKI UNIV.
InstType: EI
InstName: JEOL JMS-HX-100
IoniMethod: _ENERGY 70 eV
IonPolarity: pos
Date: 2010-10-09 19:48:36+02:00
Num Peaks: 102
39 13 44 9 50 8 51 18 52 6 62 8 63 22 64 6 65 6 74 7 
75 17 76 37 77 62 78 8 81 10 82 19 86 6 87 9 88 19 89 27 
90 19 91 12 95 20 96 7 100 6 101 28 102 19 103 8 104 8 109 6 
110 10 113 8 114 8 115 14 116 12 124 67 125 17 126 19 127 22 128 13 
139 20 140 13 150 13 151 44 152 88 153 41 154 12 163 39 164 44 165 95 
166 22 174 6 175 10 176 19 177 31 178 46 179 80 180 133 181 34 188 5 
189 10 190 86 191 58 192 22 193 33 194 22 201 12 202 85 203 27 204 53 
205 16 206 15 207 27 208 205 209 37 215 14 216 6 218 8 219 25 220 325 
221 92 222 76 223 17 232 83 233 157 234 44 235 23 236 143 237 90 238 18 
248 61 249 57 250 999 251 272 252 37 266 6 277 62 278 15 294 18 295 260 
296 54 297 8 
