Name: N-TRIMETHYLSILYLPIPERIDINE-3-CARBOXYLIC ACID TRIMETHYLSILYL ESTER
MW: 273
Formula: C12H27NO2Si2
Synonym: MassBank: JP007458
Synonym: N-TRIMETHYLSILYLPIPERIDINE-3-CARBOXYLIC ACID TRIMETHYLSILYL ESTER
Synonym: N-TRIMETHYLSILYLNIPECOTIC ACID TRIMETHYLSILYL ESTER
Structure: 4E2D5452494D455448594C53494C594C50495045524944494E452D332D434152424F58594C49432041434944205452494D455448594C53494C594C2045535445522E6D6F6C0A20204368656D447261773038313231303032323832440A2031372031372020302020302020302020302020302020302020302020303939392056323030300A20202020312E3439393020202020302E3030303020202020302E30303030204E202020302020302020302020302020302020302020302020302020302020302020302020300A20202020302E3637343020202020302E3030303020202020302E303030302043202020302020302020302020302020302020302020302020302020302020302020302020300A20202020302E3236313520202020302E3731343520202020302E303030302043202020302020302020302020302020302020302020302020302020302020302020302020300A20202020302E3637343020202020312E3432383920202020302E303030302043202020302020302020302020302020302020302020302020302020302020302020302020300A20202020312E3439393020202020312E3432383920202020302E303030302043202020302020302020302020302020302020302020302020302020302020302020302020300A20202020312E3931313520202020302E3731343520202020302E303030302043202020302020302020302020302020302020302020302020302020302020302020302020300A2020202D302E3536333520202020302E3731343520202020302E303030302043202020302020302020302020302020302020302020302020302020302020302020302020300A2020202D302E3937363020202020312E3432383920202020302E30303030204F202020302020302020302020302020302020302020302020302020302020302020302020300A2020202D302E393736302020202D302E3030303020202020302E30303030204F202020302020302020302020302020302020302020302020302020302020302020302020300A20202020312E393131352020202D302E3731343520202020302E303030302053692020302020302020302020302020302020302020302020302020302020302020302020300A20202020312E313937302020202D312E3132373020202020302E303030302043202020302020302020302020302020302020302020302020302020302020302020302020300A20202020322E363236302020202D302E3330323020202020302E303030302043202020302020302020302020302020302020302020302020302020302020302020302020300A20202020322E333234302020202D312E3432383920202020302E303030302043202020302020302020302020302020302020302020302020302020302020302020302020300A2020202D312E383031302020202D302E3030303020202020302E303030302053692020302020302020302020302020302020302020302020302020302020302020302020300A2020202D312E383031302020202D302E3832353020202020302E303030302043202020302020302020302020302020302020302020302020302020302020302020302020300A2020202D322E363236302020202D302E3030303020202020302E303030302043202020302020302020302020302020302020302020302020302020302020302020302020300A2020202D312E3830313020202020302E3832353020202020302E303030302043202020302020302020302020302020302020302020302020302020302020302020302020300A2020312020322020312020302020202020200A2020322020332020312020302020202020200A2020332020342020312020302020202020200A2020342020352020312020302020202020200A2020352020362020312020302020202020200A2020312020362020312020302020202020200A2020372020382020322020302020202020200A2020372020392020312020302020202020200A2020332020372020312020302020202020200A2031302031312020312020302020202020200A2031302031322020312020302020202020200A2031302031332020312020302020202020200A2020312031302020312020302020202020200A2031342031352020312020302020202020200A2031342031362020312020302020202020200A2031342031372020312020302020202020200A2020392031342020312020302020202020200A4D2020454E44
Contributor: KOGA M, UNIV. OF OCCUPATIONAL AND ENVIRONMENTAL HEALTH
InstType: EI
InstName: JEOL JMS-01-SG
IoniMethod: _ENERGY 70 eV
IonPolarity: pos
Date: 2010-10-09 19:48:36+02:00
Num Peaks: 90
42 21 43 28 44 28 45 22 47 50 51 43 55 158 56 11 57 230 58 28 
59 151 61 3 66 43 67 21 68 28 72 3 73 999 74 86 75 194 76 2 
77 28 78 71 79 21 80 2 81 28 82 129 83 151 84 35 85 50 86 143 
87 21 93 1 94 21 99 14 100 86 101 14 102 100 103 21 106 57 108 6 
110 57 112 14 114 50 115 12 116 345 117 43 121 28 128 53 129 258 130 43 
131 136 133 6 135 28 136 71 140 35 142 6 143 50 145 35 147 611 148 8 
149 50 154 93 155 115 156 40 157 64 158 21 168 21 180 15 181 21 182 28 
184 50 186 9 190 64 200 129 201 64 217 3 230 805 231 143 232 71 244 6 
245 35 258 776 259 165 260 8 261 14 262 14 272 122 273 17 274 50 275 14 
