Name: MassBank: JP000736
MW: 144
Formula: C8H16O2
Synonym: MassBank: JP000736
Synonym: 2,2,5-TRIMETHYL-3-OXA-5-HEXEN-1-OL
Structure: 322C322C352D5452494D455448594C2D332D4F58412D352D484558454E2D312D4F4C2E6D6F6C0A20204368656D447261773132313930393134353832440A2031302020392020302020302020302020302020302020302020302020303939392056323030300A2020202D302E3631383820202020302E3330323020202020302E303030302043202020302020302020302020302020302020302020302020302020302020302020302020300A2020202D312E3434333820202020302E3330323020202020302E303030302043202020302020302020302020302020302020302020302020302020302020302020302020300A20202020302E3230363220202020302E3330323020202020302E30303030204F202020302020302020302020302020302020302020302020302020302020302020302020300A2020202D302E3631383820202020312E3132373020202020302E303030302043202020302020302020302020302020302020302020302020302020302020302020302020300A2020202D302E363138382020202D302E3532333020202020302E303030302043202020302020302020302020302020302020302020302020302020302020302020302020300A20202020302E363138382020202D302E3431323520202020302E303030302043202020302020302020302020302020302020302020302020302020302020302020302020300A20202020312E343433382020202D302E3431323520202020302E303030302043202020302020302020302020302020302020302020302020302020302020302020302020300A20202020312E383536332020202D312E3132373020202020302E303030302043202020302020302020302020302020302020302020302020302020302020302020302020300A20202020312E3835363320202020302E3330323020202020302E303030302043202020302020302020302020302020302020302020302020302020302020302020302020300A2020202D312E383536332020202D302E3431323520202020302E30303030204F202020302020302020302020302020302020302020302020302020302020302020302020300A2020312020322020312020302020202020200A2020312020332020312020302020202020200A2020312020342020312020302020202020200A2020312020352020312020302020202020200A2020332020362020312020302020202020200A2020362020372020312020302020202020200A2020372020382020322020302020202020200A2020372020392020312020302020202020200A2020322031302020312020302020202020200A4D2020454E44
Contributor: NAKAYAMA M, MASS SPECTROSCOPY SOC. OF JAPAN (MSSJ)
InstType: EI
InstName: HITACHI RMS-4
IoniMethod: _ENERGY 70 eV
IonPolarity: pos
Date: 2010-10-09 19:48:36+02:00
Num Peaks: 26
39 110 40 60 41 100 42 40 43 140 44 40 45 50 53 65 54 50 55 999 
56 120 57 160 58 130 59 100 70 40 71 40 72 70 73 30 74 120 95 50 
101 40 109 30 113 320 114 65 126 20 144 1 
