Name: ETHYL TIGLATE
MW: 128
Formula: C7H12O2
Synonym: MassBank: JP006837
Synonym: ETHYL TIGLATE
Synonym: ETHYL 2-METHYL-2-BUTENOATE
Structure: 310A32320A455448594C20322D4D455448594C2D322D425554454E4F4154452E6D6F6C0A20204368656D447261773038313131303138303832440A2020392020382020302020302020302020302020302020302020302020303939392056323030300A2020202D302E3030303020202020302E3230363220202020302E303030302043202020302020302020302020302020302020302020302020302020302020302020302020300A20202020302E373134352020202D302E3230363320202020302E303030302043202020302020302020302020302020302020302020302020302020302020302020302020300A20202020312E3432383920202020302E3230363220202020302E303030302043202020302020302020302020302020302020302020302020302020302020302020302020300A20202020322E313433342020202D302E3230363220202020302E303030302043202020302020302020302020302020302020302020302020302020302020302020302020300A2020202D302E3030303020202020312E3033313320202020302E30303030204F202020302020302020302020302020302020302020302020302020302020302020302020300A2020202D302E373134352020202D302E3230363320202020302E30303030204F202020302020302020302020302020302020302020302020302020302020302020302020300A20202020302E373134352020202D312E3033313320202020302E303030302043202020302020302020302020302020302020302020302020302020302020302020302020300A2020202D312E3432383920202020302E3230363220202020302E303030302043202020302020302020302020302020302020302020302020302020302020302020302020300A2020202D322E313433342020202D302E3230363320202020302E303030302043202020302020302020302020302020302020302020302020302020302020302020302020300A2020312020322020312020302020202020200A2020322020332020322020302020202020200A2020332020342020312020302020202020200A2020312020352020322020302020202020200A2020312020362020312020302020202020200A2020322020372020312020302020202020200A2020382020392020312020302020202020200A2020362020382020312020302020202020200A4D2020454E44
Contributor: TAJIMA S, GUNMA COLLEGE OF TECHNOLOGY
InstType: EI
InstName: HITACHI M-80B
IoniMethod: _ENERGY 70 eV
IonPolarity: pos
Date: 2010-10-09 19:48:36+02:00
Num Peaks: 32
15 17 26 36 27 388 29 465 30 16 38 13 39 219 40 20 41 50 43 63 
45 58 50 26 51 40 52 23 53 147 54 136 55 999 56 86 57 12 69 18 
73 11 82 127 83 769 84 47 85 107 99 18 100 229 101 13 113 200 114 11 
128 161 129 13 
