Name: DIETHYLHYDRAZONE ALPHA-PROPYLACRYLALDEHYDE
MW: 168
Formula: C10H20N2
Synonym: MassBank: JP000884
Synonym: DIETHYLHYDRAZONE ALPHA-PROPYLACRYLALDEHYDE
Synonym: 2-PROPYL-2-PROPENAL DIETHYLHYDRAZONE
Structure: 4449455448594C48594452415A4F4E4520414C5048412D50524F50594C414352594C414C4445485944452E6D6F6C0A20204368656D447261773032323131303134353932440A2031322031312020302020302020302020302020302020302020302020303939392056323030300A20202020312E383536332020202D302E3731343520202020302E303030302043202020302020302020302020302020302020302020302020302020302020302020302020300A20202020312E3434333720202020302E3030303020202020302E303030302043202020302020302020302020302020302020302020302020302020302020302020302020300A20202020302E3631383820202020302E3030303020202020302E303030302043202020302020302020302020302020302020302020302020302020302020302020302020300A20202020312E3835363320202020302E3731343520202020302E303030302043202020302020302020302020302020302020302020302020302020302020302020302020300A20202020312E3434333720202020312E3432383920202020302E303030302043202020302020302020302020302020302020302020302020302020302020302020302020300A20202020302E3631383720202020312E3432383920202020302E303030302043202020302020302020302020302020302020302020302020302020302020302020302020300A2020202D302E3230363220202020302E3030303020202020302E30303030204E202020302020302020302020302020302020302020302020302020302020302020302020300A2020202D302E363138382020202D302E3731343520202020302E30303030204E202020302020302020302020302020302020302020302020302020302020302020302020300A2020202D302E323036332020202D312E3432383920202020302E303030302043202020302020302020302020302020302020302020302020302020302020302020302020300A20202020302E363138382020202D312E3432383920202020302E303030302043202020302020302020302020302020302020302020302020302020302020302020302020300A2020202D312E343433372020202D302E3731343520202020302E303030302043202020302020302020302020302020302020302020302020302020302020302020302020300A2020202D312E383536332020202D312E3432383920202020302E303030302043202020302020302020302020302020302020302020302020302020302020302020302020300A2020312020322020322020302020202020200A2020322020332020312020302020202020200A2020342020352020312020302020202020200A2020352020362020312020302020202020200A2020322020342020312020302020202020200A2020372020382020312020302020202020200A2020392031302020312020302020202020200A2020382020392020312020302020202020200A2031312031322020312020302020202020200A2020382031312020312020302020202020200A2020332020372020322020302020202020200A4D2020454E44
Contributor: SASAKI S, TOYOHASHI UNIV. OF TECH.
InstType: EI
InstName: SHIMADZU LKB-2091
IoniMethod: _ENERGY 70 eV
IonPolarity: pos
Date: 2010-10-09 19:48:36+02:00
Num Peaks: 60
27 150 28 269 29 364 30 28 31 11 39 145 40 44 41 44 42 327 43 171 
44 276 45 1 51 19 52 20 53 91 54 6 55 120 56 258 57 44 58 31 
59 58 67 84 68 73 69 25 70 94 71 40 72 120 73 2 74 16 79 29 
80 54 81 10 82 76 83 58 84 62 85 3 86 14 87 80 94 45 95 6 
96 225 97 265 98 44 108 4 109 84 110 62 111 204 112 3 123 25 124 36 
125 98 126 2 138 18 139 999 140 116 153 29 154 36 167 14 168 382 169 58 
