Name: 1-(TRIMETHYLSILYL)OXY-2-NAPHTHOIC ACID TRIMETHYLSILYL ESTER
MW: 332
Formula: C17H24O3Si2
Synonym: MassBank: JP000604
Synonym: 1-(TRIMETHYLSILYL)OXY-2-NAPHTHOIC ACID TRIMETHYLSILYL ESTER
Structure: 312D285452494D455448594C53494C594C294F58592D322D4E41504854484F49432041434944205452494D455448594C53494C594C2045535445522E6D6F6C0A20204368656D447261773131313730393230353432440A2032322032332020302020302020302020302020302020302020302020303939392056323030300A20202020302E343132352020202D302E3335373220202020302E303030302043202020302020302020302020302020302020302020302020302020302020302020302020300A20202020302E303030302020202D312E3037313720202020302E303030302043202020302020302020302020302020302020302020302020302020302020302020302020300A20202020302E343132352020202D312E3738363220202020302E303030302043202020302020302020302020302020302020302020302020302020302020302020302020300A20202020312E323337352020202D312E3738363220202020302E303030302043202020302020302020302020302020302020302020302020302020302020302020302020300A20202020312E363530302020202D312E3037313720202020302E303030302043202020302020302020302020302020302020302020302020302020302020302020302020300A20202020322E343735302020202D312E3037313720202020302E303030302043202020302020302020302020302020302020302020302020302020302020302020302020300A20202020322E383837352020202D302E3335373220202020302E303030302043202020302020302020302020302020302020302020302020302020302020302020302020300A20202020322E3437353020202020302E3335373220202020302E303030302043202020302020302020302020302020302020302020302020302020302020302020302020300A20202020312E3635303020202020302E3335373220202020302E303030302043202020302020302020302020302020302020302020302020302020302020302020302020300A20202020312E323337352020202D302E3335373220202020302E303030302043202020302020302020302020302020302020302020302020302020302020302020302020300A2020202D302E383235302020202D312E3037313720202020302E303030302043202020302020302020302020302020302020302020302020302020302020302020302020300A2020202D312E323337352020202D312E3738363220202020302E30303030204F202020302020302020302020302020302020302020302020302020302020302020302020300A2020202D312E323337352020202D302E3335373220202020302E30303030204F202020302020302020302020302020302020302020302020302020302020302020302020300A20202020302E3030303020202020302E3335373220202020302E30303030204F202020302020302020302020302020302020302020302020302020302020302020302020300A20202020302E3431323520202020312E3037313720202020302E303030302053692020302020302020302020302020302020302020302020302020302020302020302020300A20202020312E3132373020202020302E3635393220202020302E303030302043202020302020302020302020302020302020302020302020302020302020302020302020300A2020202D302E3330323020202020312E3438343220202020302E303030302043202020302020302020302020302020302020302020302020302020302020302020302020300A20202020302E3832353020202020312E3738363220202020302E303030302043202020302020302020302020302020302020302020302020302020302020302020302020300A2020202D322E303632352020202D302E3335373220202020302E303030302053692020302020302020302020302020302020302020302020302020302020302020302020300A2020202D322E3036323520202020302E3436373820202020302E303030302043202020302020302020302020302020302020302020302020302020302020302020302020300A2020202D322E383837352020202D302E3335373220202020302E303030302043202020302020302020302020302020302020302020302020302020302020302020302020300A2020202D322E303632352020202D312E3138323220202020302E303030302043202020302020302020302020302020302020302020302020302020302020302020302020300A2020312020322020312020302020202020200A2020322020332020322020302020202020200A2020332020342020312020302020202020200A2020342020352020322020302020202020200A2020352020362020312020302020202020200A2020362020372020322020302020202020200A2020372020382020312020302020202020200A2020382020392020322020302020202020200A2020392031302020312020302020202020200A2020312031302020322020302020202020200A2020352031302020312020302020202020200A2020322031312020312020302020202020200A2031312031322020322020302020202020200A2031312031332020312020302020202020200A2031352031362020312020302020202020200A2031352031372020312020302020202020200A2031352031382020312020302020202020200A2031342031352020312020302020202020200A2020312031342020312020302020202020200A2031392032302020312020312020202020200A2031392032312020312020302020202020200A2031392032322020312020312020202020200A2031332031392020312020302020202020200A4D2020454E44
Contributor: KOGA M, UNIV. OF OCCUPATIONAL AND ENVIRONMENTAL HEALTH
InstType: EI
InstName: JEOL JMS-01-SG
IoniMethod: _ENERGY 70 eV
IonPolarity: pos
Date: 2010-10-09 19:48:36+02:00
Num Peaks: 20
40 89 43 220 47 258 49 13 63 93 65 125 73 498 74 9 75 999 76 123 
77 122 93 42 94 82 95 131 115 86 147 15 170 97 317 389 318 104 319 41 
