Name: MassBank: JP007543
CAS: 470-67-7
MW: 154
Formula: C10H18O
Synonym: MassBank: JP007543
Synonym: 1,4-EPOXYMENTHANE
Synonym: 1,4-CINEOLE
Structure: 312C342D45504F58594D454E5448414E452E6D6F6C0A20204368656D447261773131313630393132303732440A2031312031322020302020302020302020302020302020302020302020303939392056323030300A2020202D302E313839352020202D302E3737323020202020302E303030302043202020302020302020302020302020302020302020302020302020302020302020302020300A2020202D302E343539372020202D302E3032343220202020302E303030302043202020302020302020302020302020302020302020302020302020302020302020302020300A2020202D302E3230393820202020302E3737323020202020302E303030302043202020302020302020302020302020302020302020302020302020302020302020302020300A20202020302E3631353220202020302E3737323020202020302E303030302043202020302020302020302020302020302020302020302020302020302020302020302020300A20202020302E383735322020202D302E3031303120202020302E303030302043202020302020302020302020302020302020302020302020302020302020302020302020300A20202020302E363134392020202D302E3737323020202020302E303030302043202020302020302020302020302020302020302020302020302020302020302020302020300A20202020312E373030322020202D302E3031303120202020302E303030302043202020302020302020302020302020302020302020302020302020302020302020302020300A2020202D312E323834352020202D302E3032343220202020302E303030302043202020302020302020302020302020302020302020302020302020302020302020302020300A2020202D312E3639343020202020302E3638353020202020302E303030302043202020302020302020302020302020302020302020302020302020302020302020302020300A2020202D312E373030322020202D302E3734343120202020302E303030302043202020302020302020302020302020302020302020302020302020302020302020302020300A20202020302E323130392020202D302E3439373520202020302E30303030204F202020302020302020302020302020302020302020302020302020302020302020302020300A2020312020322020312020302020202020200A2020322020332020312020302020202020200A2020332020342020312020302020202020200A2020342020352020312020302020202020200A2020352020362020312020302020202020200A2020312020362020312020302020202020200A2020352020372020312020302020202020200A2020382020392020312020302020202020200A2020382031302020312020302020202020200A2020322020382020312020302020202020200A2020352031312020312020302020202020200A2020322031312020312020302020202020200A4D2020454E44
Contributor: TAKEUCHI T, DEP. CHEMISTRY, FAC. SCIENCE, NARA WOMEN'S UNIV.
InstType: EI
InstName: HITACHI M-80
IoniMethod: _ENERGY 20 eV
IonPolarity: pos
Date: 2010-10-09 19:48:36+02:00
Num Peaks: 20
28 426 29 40 41 91 43 999 55 494 58 153 69 418 71 853 81 168 83 220 
93 438 96 130 107 110 111 920 121 526 125 390 136 325 139 127 154 342 155 35 
