Name: ALPHA-IONOL
MW: 194
Formula: C13H22O
Synonym: MassBank: JP006936
Synonym: ALPHA-IONOL
Synonym: 3-(3-HYDROXY-1-BUTENYL)-2,4,4-TRIMETHYL-1-CYCLOHEXENE
Structure: 414C5048412D494F4E4F4C2E6D6F6C0A20204368656D447261773032323231303130303332440A2031342031342020302020302020302020302020302020302020302020303939392056323030300A2020202D312E343238392020202D312E3233373520202020302E303030302043202020302020302020302020302020302020302020302020302020302020302020302020300A2020202D302E373134352020202D302E3832353020202020302E303030302043202020302020302020302020302020302020302020302020302020302020302020302020300A2020202D302E3731343520202020302E3030303020202020302E303030302043202020302020302020302020302020302020302020302020302020302020302020302020300A2020202D312E3432383920202020302E3431323520202020302E303030302043202020302020302020302020302020302020302020302020302020302020302020302020300A2020202D322E3134333420202020302E3030303020202020302E303030302043202020302020302020302020302020302020302020302020302020302020302020302020300A2020202D322E313433342020202D302E3832353020202020302E303030302043202020302020302020302020302020302020302020302020302020302020302020302020300A2020202D312E3935393220202020312E3034343520202020302E303030302043202020302020302020302020302020302020302020302020302020302020302020302020300A2020202D302E3839383620202020312E3034343520202020302E303030302043202020302020302020302020302020302020302020302020302020302020302020302020300A20202020302E303030302020202D312E3233373520202020302E303030302043202020302020302020302020302020302020302020302020302020302020302020302020300A20202020302E3030303020202020302E3431323520202020302E303030302043202020302020302020302020302020302020302020302020302020302020302020302020300A20202020302E3731343520202020302E3030303020202020302E303030302043202020302020302020302020302020302020302020302020302020302020302020302020300A20202020312E3432383920202020302E3431323520202020302E303030302043202020302020302020302020302020302020302020302020302020302020302020302020300A20202020322E3134333420202020302E3030303020202020302E303030302043202020302020302020302020302020302020302020302020302020302020302020302020300A20202020312E3432383920202020312E3233373520202020302E30303030204F202020302020302020302020302020302020302020302020302020302020302020302020300A2020312020322020322020302020202020200A2020322020332020312020302020202020200A2020332020342020312020302020202020200A2020342020352020312020302020202020200A2020352020362020312020302020202020200A2020312020362020312020302020202020200A2020342020372020312020312020202020200A2020342020382020312020362020202020200A2020322020392020312020302020202020200A2031302031312020322020302020202020200A2031312031322020312020302020202020200A2031322031332020312020302020202020200A2031322031342020312020302020202020200A2020332031302020312020302020202020200A4D2020454E44
Contributor: TAJIMA S, GUNMA COLLEGE OF TECHNOLOGY
InstType: EI
InstName: HITACHI M-80B
IoniMethod: _ENERGY 70 eV
IonPolarity: pos
Date: 2010-10-09 19:48:36+02:00
Num Peaks: 57
18 12 27 85 28 12 29 79 31 10 39 102 40 16 41 223 42 12 43 551 
44 13 45 77 51 23 52 12 53 81 54 10 55 123 56 48 57 22 58 12 
65 46 66 13 67 90 68 53 69 48 71 29 77 123 78 27 79 145 80 101 
81 149 82 16 83 11 91 129 92 33 93 148 94 76 95 999 96 133 97 13 
105 81 106 12 107 70 108 15 109 88 119 23 120 43 121 74 122 11 123 142 
124 12 135 12 136 10 138 413 139 47 161 15 194 21 
