Name: MassBank: JP006629
MW: 276
Formula: C19H20N2
Synonym: MassBank: JP006629
Synonym: 3,3-DIMETHYL-1-PHENYL-1,2,3,4-TETRAHYDRO-GAMMA-CARBOLINE
Structure: 332C332D44494D455448594C2D312D5048454E594C2D312C322C332C342D5445545241485944524F2D47414D4D412D434152424F4C494E452E6D6F6C0A20204368656D447261773032323131303230313532440A2032312032342020302020302020302020302020302020302020302020303939392056323030300A2020202D312E353134382020202D302E3438333820202020302E303030302043202020302020302020302020302020302020302020302020302020302020302020302020300A2020202D312E353134382020202D312E3330383820202020302E30303030204E202020302020302020302020302020302020302020302020302020302020302020302020300A2020202D302E383030332020202D312E3732313320202020302E303030302043202020302020302020302020302020302020302020302020302020302020302020302020300A2020202D302E303835382020202D312E3330383820202020302E303030302043202020302020302020302020302020302020302020302020302020302020302020302020300A2020202D302E303835382020202D302E3438333820202020302E303030302043202020302020302020302020302020302020302020302020302020302020302020302020300A2020202D302E383030332020202D302E3037313320202020302E303030302043202020302020302020302020302020302020302020302020302020302020302020302020300A20202020302E363938382020202D312E3536333820202020302E303030302043202020302020302020302020302020302020302020302020302020302020302020302020300A20202020312E313833372020202D302E3839363320202020302E303030302043202020302020302020302020302020302020302020302020302020302020302020302020300A20202020302E363938382020202D302E3232383920202020302E30303030204E202020302020302020302020302020302020302020302020302020302020302020302020300A2020202D302E3830303320202020302E3735333720202020302E303030302043202020302020302020302020302020302020302020302020302020302020302020302020300A2020202D302E3038353820202020312E3136363220202020302E303030302043202020302020302020302020302020302020302020302020302020302020302020302020300A2020202D302E3038353820202020312E3939313220202020302E303030302043202020302020302020302020302020302020302020302020302020302020302020302020300A2020202D302E3830303320202020322E3430333720202020302E303030302043202020302020302020302020302020302020302020302020302020302020302020302020300A2020202D312E3531343820202020312E3939313220202020302E303030302043202020302020302020302020302020302020302020302020302020302020302020302020300A2020202D312E3531343820202020312E3136363220202020302E303030302043202020302020302020302020302020302020302020302020302020302020302020302020300A20202020312E303334342020202D322E3331373420202020302E303030302043202020302020302020302020302020302020302020302020302020302020302020302020300A20202020312E383534382020202D322E3430333720202020302E303030302043202020302020302020302020302020302020302020302020302020302020302020302020300A20202020322E333339382020202D312E3733363220202020302E303030302043202020302020302020302020302020302020302020302020302020302020302020302020300A20202020322E303034322020202D302E3938323620202020302E303030302043202020302020302020302020302020302020302020302020302020302020302020302020300A2020202D312E3732383320202020302E3331333120202020302E303030302043202020302020302020302020302020302020302020302020302020302020302020302020300A2020202D322E333339382020202D302E3438333820202020302E303030302043202020302020302020302020302020302020302020302020302020302020302020302020300A2020312020322020312020302020202020200A2020322020332020312020302020202020200A2020332020342020312020302020202020200A2020342020352020322020302020202020200A2020352020362020312020302020202020200A2020362020312020312020302020202020200A2020342020372020312020302020202020200A2020372020382020322020302020202020200A2020382020392020312020302020202020200A2020392020352020312020302020202020200A2020362031302020312020302020202020200A2031302031312020322020302020202020200A2031312031322020312020302020202020200A2031322031332020322020302020202020200A2031332031342020312020302020202020200A2031342031352020322020302020202020200A2031352031302020312020302020202020200A2020372031362020312020302020202020200A2031362031372020322020302020202020200A2031372031382020312020302020202020200A2031382031392020322020302020202020200A2031392020382020312020302020202020200A2020312032302020312020312020202020200A2020312032312020312020362020202020200A4D2020454E44
Contributor: SASAKI S, TOYOHASHI UNIV. OF TECH.
InstType: EI
InstName: JEOL JMS-01-SG-2
IoniMethod: _ENERGY 75 eV
IonPolarity: pos
Date: 2010-10-09 19:48:36+02:00
Num Peaks: 24
57 19 77 20 78 15 91 1 104 25 117 14 128 10 129 1 130 22 138 14 
183 16 189 1 199 65 204 25 216 29 217 12 218 775 219 999 220 100 261 1 
273 40 274 34 275 56 276 92 
