Name: 1-TRIMETHYLSILOXY-2-BUTENE
MW: 144
Formula: C7H16OSi
Synonym: MassBank: JP002393
Synonym: 1-TRIMETHYLSILOXY-2-BUTENE
Structure: 310A32320A312D5452494D455448594C53494C4F58592D322D425554454E452E6D6F6C0A20204368656D447261773131323230393232353332440A2020392020382020302020302020302020302020302020302020302020303939392056323030300A20202020302E3135313020202020302E3731343520202020302E303030302043202020302020302020302020302020302020302020302020302020302020302020302020300A20202020302E3536333520202020302E3030303020202020302E303030302043202020302020302020302020302020302020302020302020302020302020302020302020300A20202020312E3338383520202020302E3030303020202020302E303030302043202020302020302020302020302020302020302020302020302020302020302020302020300A20202020312E383031302020202D302E3731343520202020302E303030302043202020302020302020302020302020302020302020302020302020302020302020302020300A2020202D302E3637343020202020302E3731343520202020302E30303030204F202020302020302020302020302020302020302020302020302020302020302020302020300A2020202D312E303836352020202D302E3030303020202020302E303030302053692020302020302020302020302020302020302020302020302020302020302020302020300A2020202D302E333732302020202D302E3431323520202020302E303030302043202020302020302020302020302020302020302020302020302020302020302020302020300A2020202D312E343939302020202D302E3731343520202020302E303030302043202020302020302020302020302020302020302020302020302020302020302020302020300A2020202D312E3830313020202020302E3431323520202020302E303030302043202020302020302020302020302020302020302020302020302020302020302020302020300A2020312020322020312020302020202020200A2020322020332020322020302020202020200A2020332020342020312020302020202020200A2020352020362020312020302020202020200A2020362020372020312020302020202020200A2020362020382020312020302020202020200A2020362020392020312020302020202020200A2020312020352020312020302020202020200A4D2020454E44
Contributor: MASS SPECTROSCOPY SOC. OF JAPAN (MSSJ)
InstType: EI
InstName: JEOL JMS-D-3000
IoniMethod: _ENERGY 70 eV
IonPolarity: pos
Date: 2010-10-09 19:48:36+02:00
Num Peaks: 27
42 16 43 48 44 19 45 81 47 53 53 22 54 24 55 43 57 36 58 20 
59 48 60 12 61 43 73 450 74 46 75 999 76 75 77 38 85 15 99 32 
101 31 113 16 129 578 130 70 131 25 144 236 145 35 
