Name: MassBank: JP008474
MW: 212
Formula: C13H24O2
Synonym: MassBank: JP008474
Synonym: 3,3,5-TRIMETHYLCYCLOHEXYL BUTYRATE
Structure: 332C332C352D5452494D455448594C4359434C4F484558594C2042555459524154452E6D6F6C0A20204368656D447261773032323131303139353432440A2031352031352020302020302020302020302020302020302020302020303939392056323030300A20202020312E3437373920202020302E3634333620202020302E303030302043202020302020302020302020302020302020302020302020302020302020302020302020300A20202020312E343737392020202D302E3138313420202020302E303030302043202020302020302020302020302020302020302020302020302020302020302020302020300A20202020322E313932342020202D302E3539333920202020302E303030302043202020302020302020302020302020302020302020302020302020302020302020302020300A20202020322E313932342020202D312E3431383920202020302E303030302043202020302020302020302020302020302020302020302020302020302020302020302020300A20202020322E3139323420202020312E3035363120202020302E30303030204F202020302020302020302020302020302020302020302020302020302020302020302020300A20202020302E3736333520202020312E3035363120202020302E30303030204F202020302020302020302020302020302020302020302020302020302020302020302020300A20202020302E3034393020202020302E3634333620202020302E303030302043202020302020302020302020302020302020302020302020302020302020302020302020300A2020202D302E3636353520202020312E3035363120202020302E303030302043202020302020302020302020302020302020302020302020302020302020302020302020300A2020202D312E3337393920202020302E3634333620202020302E303030302043202020302020302020302020302020302020302020302020302020302020302020302020300A2020202D312E333739392020202D302E3138313420202020302E303030302043202020302020302020302020302020302020302020302020302020302020302020302020300A2020202D302E363635352020202D302E3539333920202020302E303030302043202020302020302020302020302020302020302020302020302020302020302020302020300A20202020302E303439302020202D302E3138313420202020302E303030302043202020302020302020302020302020302020302020302020302020302020302020302020300A2020202D302E363635352020202D312E3431383920202020302E303030302043202020302020302020302020302020302020302020302020302020302020302020302020300A2020202D312E3636323120202020312E3431383920202020302E303030302043202020302020302020302020302020302020302020302020302020302020302020302020300A2020202D322E3139323420202020302E3530303420202020302E303030302043202020302020302020302020302020302020302020302020302020302020302020302020300A2020312020322020312020302020202020200A2020322020332020312020302020202020200A2020332020342020312020302020202020200A2020312020352020322020302020202020200A2020312020362020312020302020202020200A2020372020382020312020302020202020200A2020382020392020312020302020202020200A2020392031302020312020302020202020200A2031302031312020312020302020202020200A2031312031322020312020302020202020200A2020372031322020312020302020202020200A2031312031332020312020302020202020200A2020392031342020312020312020202020200A2020392031352020312020362020202020200A2020362020372020312020302020202020200A4D2020454E44
Contributor: SODA AROMATIC CO., LTD.
InstType: EI
InstName: HITACHI M-80B
IoniMethod: _ENERGY 70 eV
IonPolarity: pos
Date: 2010-10-09 19:48:36+02:00
Num Peaks: 41
27 176 29 141 39 110 40 17 41 472 42 62 43 585 44 19 45 14 53 42 
54 10 55 219 56 64 57 78 60 24 65 11 67 137 68 397 69 472 70 28 
71 442 72 18 73 12 77 14 79 19 80 19 81 160 82 360 83 205 84 15 
85 14 89 41 91 11 93 15 95 210 96 36 109 999 110 87 123 15 124 522 
125 135 
