Name: MassBank: JP003665
MW: 316
Formula: C11H6F6O4
Synonym: MassBank: JP003665
Synonym: DIMETHYL 1,2,3,4,7,7-HEXAFLUOROBICYCLO(2.2.1)HEPTA-2,5-DIENE-5,6-DICARBOXYLATE
Structure: 310A36380A5772697474656E206279206A5073690A2032312032322020302020302020302020302020302020302020302020303939392056323030300A2020202D382E343035372020202D382E3637303620202020302E303030302046202020302020302020302020302020302020302020302020302020302020302020302020300A2020202D382E3430353720202D31382E3337363920202020302E303030302043202020302020302020302020302020302020302020302020302020302020302020302020300A20202020302E3030303020202D32332E3231383020202020302E303030302043202020302020302020302020302020302020302020302020302020302020302020302020300A2020202D342E3938353620202D32382E3038333220202020302E303030302043202020302020302020302020302020302020302020302020302020302020302020302020300A20202D31362E3831313420202D32332E3231383020202020302E303030302043202020302020302020302020302020302020302020302020302020302020302020302020300A20202020382E3430353720202D31382E3337363920202020302E303030302043202020302020302020302020302020302020302020302020302020302020302020302020300A20202020302E3030303020202D33322E3932343320202020302E303030302043202020302020302020302020302020302020302020302020302020302020302020302020300A20202020362E3838383320202D33312E3437393220202020302E303030302046202020302020302020302020302020302020302020302020302020302020302020302020300A20202020362E3838383320202D32342E3636333120202020302E303030302046202020302020302020302020302020302020302020302020302020302020302020302020300A2020202D382E3430353720202D33372E3738393520202020302E303030302043202020302020302020302020302020302020302020302020302020302020302020302020300A20202D32352E3231373020202D31382E3337363920202020302E303030302046202020302020302020302020302020302020302020302020302020302020302020302020300A20202D31362E3831313420202D33322E3932343320202020302E303030302043202020302020302020302020302020302020302020302020302020302020302020302020300A20202031362E3831313420202D32332E3231383020202020302E30303030204F202020302020302020302020302020302020302020302020302020302020302020302020300A20202020382E343035372020202D382E3637303620202020302E30303030204F202020302020302020302020302020302020302020302020302020302020302020302020300A20202020382E3430353720202D33372E3738393520202020302E303030302043202020302020302020302020302020302020302020302020302020302020302020302020300A2020202D382E3430353720202D34372E3439353820202020302E303030302046202020302020302020302020302020302020302020302020302020302020302020302020300A20202D32352E3231373020202D33372E3738393520202020302E303030302046202020302020302020302020302020302020302020302020302020302020302020302020300A20202032352E3231373020202D31382E3337363920202020302E303030302043202020302020302020302020302020302020302020302020302020302020302020302020300A20202031362E3831313420202D33322E3932343320202020302E30303030204F202020302020302020302020302020302020302020302020302020302020302020302020300A20202020382E3430353720202D34372E3439353820202020302E30303030204F202020302020302020302020302020302020302020302020302020302020302020302020300A20202032352E3231373020202D33372E3738393520202020302E303030302043202020302020302020302020302020302020302020302020302020302020302020302020300A2020312020322020312020302020302020302020300A2020322020332020312020302020302020302020300A2020322020342020312020302020302020302020300A2020322020352020312020302020302020302020300A2020332020362020312020302020302020302020300A2020332020372020322020302020302020302020300A2020342020382020312020302020302020302020300A2020342020392020312020302020302020302020300A2020342031302020312020302020302020302020300A2020352031312020312020302020302020302020300A2020352031322020322020302020302020302020300A2020362031332020312020302020302020302020300A2020362031342020322020302020302020302020300A2020372031302020312020302020302020302020300A2020372031352020312020302020302020302020300A2031302031322020312020302020302020302020300A2031302031362020312020302020302020302020300A2031322031372020312020302020302020302020300A2031332031382020312020302020302020302020300A2031352031392020312020302020302020302020300A2031352032302020322020302020302020302020300A2031392032312020312020302020302020302020300A4120202020310A460A4120202020380A460A4120202020390A460A4120202031310A460A4120202031330A4F0A4120202031340A4F0A4120202031360A460A4120202031370A460A4120202031390A4F0A4120202032300A4F0A4D2020454E44
Contributor: SASAKI S, TOYOHASHI UNIV. OF TECH.
InstType: EI
InstName: Unknown
IoniMethod: EI
IonPolarity: pos
Date: 2010-10-09 19:48:36+02:00
Num Peaks: 36
15 206 31 123 43 10 59 21 69 21 74 7 86 7 93 3 110 8 117 41 
124 22 129 3 136 70 137 60 143 10 148 9 155 8 167 10 174 33 179 6 
191 13 198 57 205 150 207 2 223 73 235 999 236 106 251 10 257 185 263 54 
266 15 285 29 286 32 297 269 301 80 316 73 
