Name: 2-AMINO-5-BROMO-4-PHENYLPYRIMIDINE-1-OXIDE
MW: 264
Formula: C10H8BrN3O
Synonym: MassBank: JP007908
Synonym: 2-AMINO-5-BROMO-4-PHENYLPYRIMIDINE-1-OXIDE
Structure: 322D414D494E4F2D352D42524F4D4F2D342D5048454E594C505952494D4944494E452D312D4F584944452E6D6F6C0A20204368656D447261773132323130393232323332440A2031352031362020302020302020302020302020302020302020302020303939392056323030300A20202020312E3033313220202020302E3731343520202020302E303030302043202020302020302020302020302020302020302020302020302020302020302020302020300A20202020302E3631383720202020302E3030303020202020302E30303030204E202020302020302020302020302020302020302020302020302020302020302020302020300A2020202D302E3230363320202020302E3030303020202020302E303030302043202020302020302020302020302020302020302020302020302020302020302020302020300A2020202D302E3631383820202020302E3731343520202020302E303030302043202020302020302020302020302020302020302020302020302020302020302020302020300A2020202D302E3230363320202020312E3432383920202020302E303030302043202020302020302020302020302020302020302020302020302020302020302020302020300A20202020302E3631383820202020312E3432383920202020302E30303030204E202020302020332020302020302020302020302020302020302020302020302020302020300A20202020312E3033313320202020322E3134333420202020302E30303030204F202020302020352020302020302020302020302020302020302020302020302020302020300A2020202D302E363138382020202D302E3731343520202020302E303030302043202020302020302020302020302020302020302020302020302020302020302020302020300A2020202D302E323036322020202D312E3432383920202020302E303030302043202020302020302020302020302020302020302020302020302020302020302020302020300A2020202D302E363138372020202D322E3134333420202020302E303030302043202020302020302020302020302020302020302020302020302020302020302020302020300A2020202D312E343433382020202D322E3134333420202020302E303030302043202020302020302020302020302020302020302020302020302020302020302020302020300A2020202D312E383536332020202D312E3432383920202020302E303030302043202020302020302020302020302020302020302020302020302020302020302020302020300A2020202D312E343433382020202D302E3731343520202020302E303030302043202020302020302020302020302020302020302020302020302020302020302020302020300A2020202D312E3434333820202020302E3731343520202020302E303030302042722020302020302020302020302020302020302020302020302020302020302020302020300A20202020312E3835363320202020302E3731343520202020302E30303030204E202020302020302020302020302020302020302020302020302020302020302020302020300A2020312020322020322020302020202020200A2020322020332020312020302020202020200A2020332020342020322020302020202020200A2020342020352020312020302020202020200A2020352020362020322020302020202020200A2020312020362020312020302020202020200A2020362020372020312020302020202020200A2020382020392020312020302020202020200A2020392031302020322020302020202020200A2031302031312020312020302020202020200A2031312031322020322020302020202020200A2031322031332020312020302020202020200A2020382031332020322020302020202020200A2020332020382020312020302020202020200A2020342031342020312020302020202020200A2020312031352020312020302020202020200A4D202043484720203220202036202020312020203720202D310A4D2020454E44
Contributor: SASAKI S, TOYOHASHI UNIV. OF TECH.
InstType: EI
InstName: MS-902
IoniMethod: _ENERGY 70 eV
IonPolarity: pos
Date: 2010-10-09 19:48:36+02:00
Num Peaks: 87
43 13 44 16 45 13 47 1 49 36 50 40 51 109 52 2 57 14 62 47 
63 81 64 3 68 12 71 13 74 40 75 5 76 27 77 212 78 56 785 1 
79 17 83 47 84 28 845 5 85 27 86 19 87 30 88 9 89 85 90 14 
99 11 101 4 102 27 103 24 104 599 105 25 106 17 113 77 114 180 115 7 
116 147 117 82 118 22 121 1 124 38 124.5 16 125 43 125.5 1 127 47 128 57 
129 30 132.5 3 133.5 36 141 28 142 45 143 7 144 13 155 32 156 22 168 2 
169 119 170 202 171 40 180 1 182 17 185 13 193 37 194 1 195 57 196 14 
197 28 219 2 222 13 224 40 226 32 235 1 247 54 248 82 249 161 250 9 
251 97 252 11 264 97 265 999 266 246 267 972 268 102 
