Name: TORECANE
MW: 399
Formula: C22H29N3S2
Synonym: MassBank: JP003084
Synonym: TORECANE
Structure: 303338375F544F524543414E452E6D6F6C0A20204368656D447261773038323031303032333232440A2032342032372020302020302020302020302020302020302020302020303939392056323030300A2020202D322E3835363420202020322E3236393920202020302E303030302043202020302020302020302020302020302020302020302020302020302020302020302020300A2020202D322E3835363420202020312E3434343920202020302E303030302043202020302020302020302020302020302020302020302020302020302020302020302020300A2020202D322E3134323320202020312E3033313620202020302E303030302043202020302020302020302020302020302020302020302020302020302020302020302020300A2020202D312E3432363920202020312E3434343920202020302E303030302043202020302020302020302020302020302020302020302020302020302020302020302020300A2020202D312E3432363920202020322E3236393920202020302E303030302043202020302020302020302020302020302020302020302020302020302020302020302020300A2020202D322E3134323320202020322E3638333120202020302E303030302043202020302020302020302020302020302020302020302020302020302020302020302020300A2020202D302E3731323820202020312E3033313620202020302E30303030204E202020302020302020302020302020302020302020302020302020302020302020302020300A20202020302E3030343120202020312E3434343920202020302E303030302043202020302020302020302020302020302020302020302020302020302020302020302020300A20202020302E3030343120202020322E3236393920202020302E303030302043202020302020302020302020302020302020302020302020302020302020302020302020300A2020202D302E3731323820202020322E3638333120202020302E303030302053202020302020302020302020302020302020302020302020302020302020302020302020300A20202020302E3731383120202020312E3033313620202020302E303030302043202020302020302020302020302020302020302020302020302020302020302020302020300A20202020312E3433333620202020312E3434343920202020302E303030302043202020302020302020302020302020302020302020302020302020302020302020302020300A20202020312E3433333620202020322E3236393920202020302E303030302043202020302020302020302020302020302020302020302020302020302020302020302020300A20202020302E3731383120202020322E3638333120202020302E303030302043202020302020302020302020302020302020302020302020302020302020302020302020300A2020202D302E3731333620202020302E3230363620202020302E303030302043202020302020302020302020302020302020302020302020302020302020302020302020300A20202020302E303030352020202D302E3230363520202020302E303030302043202020302020302020302020302020302020302020302020302020302020302020302020300A2020202D302E303030322020202D312E3033313520202020302E303030302043202020302020302020302020302020302020302020302020302020302020302020302020300A20202020302E373133392020202D312E3434343620202020302E30303030204E202020302020302020302020302020302020302020302020302020302020302020302020300A20202020302E373132382020202D322E3236393620202020302E303030302043202020302020302020302020302020302020302020302020302020302020302020302020300A20202020312E343236372020202D322E3638333120202020302E303030302043202020302020302020302020302020302020302020302020302020302020302020302020300A20202020322E313431382020202D322E3236393620202020302E30303030204E202020302020302020302020302020302020302020302020302020302020302020302020300A20202020322E313431382020202D312E3434343620202020302E303030302043202020302020302020302020302020302020302020302020302020302020302020302020300A20202020312E343236372020202D312E3033313220202020302E303030302043202020302020302020302020302020302020302020302020302020302020302020302020300A20202020322E383536342020202D322E3638313920202020302E303030302043202020302020302020302020302020302020302020302020302020302020302020302020300A2020312020322020322020302020202020200A2020322020332020312020302020202020200A2020332020342020322020302020202020200A2020342020352020312020302020202020200A2020352020362020322020302020202020200A2020312020362020312020302020202020200A2020342020372020312020302020202020200A2020372020382020312020302020202020200A2020382020392020322020302020202020200A2020392031302020312020302020202020200A2020352031302020312020302020202020200A2020382031312020312020302020202020200A2031312031322020322020302020202020200A2031322031332020312020302020202020200A2031332031342020322020302020202020200A2020392031342020312020302020202020200A2020372031352020312020302020202020200A2031352031362020312020302020202020200A2031362031372020312020302020202020200A2031372031382020312020302020202020200A2031382031392020312020302020202020200A2031392032302020312020302020202020200A2032302032312020312020302020202020200A2032312032322020312020302020202020200A2032322032332020312020302020202020200A2032332031382020312020302020202020200A2032312032342020312020302020202020200A4D2020454E44
Contributor: SASAKI S, TOYOHASHI UNIV. OF TECH.
InstType: EI
InstName: Unknown
IoniMethod: EI
IonPolarity: pos
Date: 2010-10-09 19:48:36+02:00
Num Peaks: 137
41 109 42 219 43 349 44 16 45 199 53 64 54 124 55 15 56 159 57 149 
58 129 67 2 68 29 69 59 70 799 71 23 72 289 73 29 82 49 83 7 
84 74 85 95 86 19 95 3 96 59 97 79 98 149 99 12 100 19 101 14 
111 129 112 4 113 975 114 109 115 14 125 3 126 19 127 174 128 24 137 2 
138 19 139 69 140 34 141 73 142 94 143 14 149 23 150 0 151 13 152 18 
153 19 154 0 155 13 156 1 165 11 166 2 167 33 168 11 169 9 171 2 
178 19 179 39 180 19 184 2 185 74 186 34 187 9 196 2 197 29 198 59 
199 39 200 1 209 19 210 39 211 64 212 10 213 29 214 14 223 39 224 3 
225 29 226 19 227 4 228 2 229 44 230 59 231 24 232 1 236 19 237 29 
238 39 239 3 240 64 241 24 242 29 243 3 244 39 245 19 246 9 256 2 
257 19 258 129 259 219 260 5 261 34 262 9 269 14 270 5 271 24 272 119 
273 144 274 4 275 29 285 64 286 84 287 2 288 14 297 19 298 109 299 14 
300 39 301 29 328 24 329 2 342 29 343 14 344 9 355 4 356 19 357 9 
397 29 398 2 399 999 400 289 401 144 402 3 403 9 
