Name: ORTHO NITROTOLUENE
MW: 137
Formula: C7H7NO2
Synonym: MassBank: JP000200
Synonym: ORTHO NITROTOLUENE
Structure: 4F5254484F204E4954524F544F4C55454E452E6D6F6C0A20204368656D447261773038313231303033353032440A2031302031302020302020302020302020302020302020302020302020303939392056323030300A2020202D302E3230363320202020302E3335373220202020302E303030302043202020302020302020302020302020302020302020302020302020302020302020302020300A20202020302E323036332020202D302E3335373220202020302E303030302043202020302020302020302020302020302020302020302020302020302020302020302020300A2020202D312E303331322020202D312E3037313720202020302E303030302043202020302020302020302020302020302020302020302020302020302020302020302020300A2020202D312E3033313220202020302E3335373220202020302E303030302043202020302020302020302020302020302020302020302020302020302020302020302020300A2020202D302E323036322020202D312E3037313720202020302E303030302043202020302020302020302020302020302020302020302020302020302020302020302020300A2020202D312E343433382020202D302E3335373220202020302E303030302043202020302020302020302020302020302020302020302020302020302020302020302020300A20202020302E3230363320202020312E3037313720202020302E303030302043202020302020302020302020302020302020302020302020302020302020302020302020300A20202020312E303331332020202D302E3335373220202020302E30303030204E202020302020332020302020302020302020302020302020302020302020302020302020300A20202020312E3434333820202020302E3335373220202020302E30303030204F202020302020302020302020302020302020302020302020302020302020302020302020300A20202020312E343433382020202D312E3037313720202020302E30303030204F202020302020352020302020302020302020302020302020302020302020302020302020300A2020312020322020312020302020202020200A2020312020342020322020302020202020200A2020322020352020322020302020202020200A2020332020352020312020302020202020200A2020332020362020322020302020202020200A2020342020362020312020302020202020200A2020312020372020312020302020202020200A2020382020392020322020302020202020200A2020382031302020312020302020202020200A2020322020382020312020302020202020200A4D202043484720203220202038202020312020313020202D310A4D2020454E44
Contributor: TAJIMA S, GUNMA COLLEGE OF TECHNOLOGY
InstType: EI
InstName: HITACHI RMU-7M
IoniMethod: _ENERGY 70 eV
IonPolarity: pos
Date: 2010-10-09 19:48:36+02:00
Num Peaks: 28
27 29 30 12 38 31 39 244 40 15 41 61 50 61 51 114 52 33 53 20 
61 13 62 46 63 158 64 67 65 999 66 68 77 165 78 35 79 24 89 163 
90 68 91 479 92 452 93 70 120 878 121 73 137 50 138 6 
