Name: ISOPROPYLHYDRAZONE ACETONE
MW: 114
Formula: C6H14N2
Synonym: MassBank: JP000822
Synonym: ISOPROPYLHYDRAZONE ACETONE
Synonym: ACETONE ISOPROPYLHYDRAZONE
Structure: 310A32300A49534F50524F50594C48594452415A4F4E4520414345544F4E452E6D6F6C0A20204368656D447261773036323431303138313332440A2020382020372020302020302020302020302020302020302020302020303939392056323030300A20202020312E373836322020202D302E3230363320202020302E303030302043202020302020302020302020302020302020302020302020302020302020302020302020300A20202020312E3037313720202020302E3230363320202020302E303030302043202020302020302020302020302020302020302020302020302020302020302020302020300A20202020312E3037313720202020312E3033313320202020302E303030302043202020302020302020302020302020302020302020302020302020302020302020302020300A20202020302E333537322020202D302E3230363320202020302E30303030204E202020302020302020302020302020302020302020302020302020302020302020302020300A2020202D302E3335373220202020302E3230363220202020302E30303030204E202020302020302020302020302020302020302020302020302020302020302020302020300A2020202D312E303731372020202D302E3230363320202020302E303030302043202020302020302020302020302020302020302020302020302020302020302020302020300A2020202D312E303731372020202D312E3033313320202020302E303030302043202020302020302020302020302020302020302020302020302020302020302020302020300A2020202D312E3738363220202020302E3230363220202020302E303030302043202020302020302020302020302020302020302020302020302020302020302020302020300A2020312020322020312020302020202020200A2020322020332020312020302020202020200A2020342020352020312020302020202020200A2020362020372020312020302020202020200A2020362020382020312020302020202020200A2020352020362020312020302020202020200A2020322020342020322020302020202020200A4D2020454E44
Contributor: SASAKI S, TOYOHASHI UNIV. OF TECH.
InstType: EI
InstName: SHIMADZU LKB-2091
IoniMethod: _ENERGY 70 eV
IonPolarity: pos
Date: 2010-10-09 19:48:36+02:00
Num Peaks: 26
27 114 28 169 29 69 30 13 31 29 32 29 39 97 40 3 41 197 42 217 
43 120 44 9 54 37 55 69 56 999 57 17 58 111 71 57 72 46 82 1 
83 9 99 886 100 7 113 2 114 315 115 31 
