Name: 12-METHYLTETRADECANOIC ACID TRIMETHYLSILYLESTER
MW: 314
Formula: C18H38O2Si
Synonym: MassBank: JP000615
Synonym: 12-METHYLTETRADECANOIC ACID TRIMETHYLSILYLESTER
Structure: 31322D4D455448594C5445545241444543414E4F49432041434944205452494D455448594C53494C594C45535445522E6D6F6C0A20204368656D447261773132313030393231343032440A2032312032302020302020302020302020302020302020302020302020303939392056323030300A20202020322E393432382020202D312E3432383920202020302E303030302043202020302020302020302020302020302020302020302020302020302020302020302020300A20202020322E353330332020202D322E3134333420202020302E303030302043202020302020302020302020302020302020302020302020302020302020302020302020300A20202020312E373035332020202D322E3134333420202020302E303030302043202020302020302020302020302020302020302020302020302020302020302020302020300A20202020312E323932382020202D312E3432383920202020302E303030302043202020302020302020302020302020302020302020302020302020302020302020302020300A20202020302E343637382020202D312E3432383920202020302E303030302043202020302020302020302020302020302020302020302020302020302020302020302020300A20202020302E303535332020202D302E3731343520202020302E303030302043202020302020302020302020302020302020302020302020302020302020302020302020300A2020202D302E373639372020202D302E3731343520202020302E303030302043202020302020302020302020302020302020302020302020302020302020302020302020300A2020202D312E3138323220202020302E3030303020202020302E303030302043202020302020302020302020302020302020302020302020302020302020302020302020300A2020202D322E3030373220202020302E3030303020202020302E303030302043202020302020302020302020302020302020302020302020302020302020302020302020300A2020202D322E3431393720202020302E3731343520202020302E303030302043202020302020302020302020302020302020302020302020302020302020302020302020300A2020202D332E3234343720202020302E3731343520202020302E303030302043202020302020302020302020302020302020302020302020302020302020302020302020300A2020202D332E3635373220202020312E3432383920202020302E303030302043202020302020302020302020302020302020302020302020302020302020302020302020300A2020202D342E3438323220202020312E3432383920202020302E303030302043202020302020302020302020302020302020302020302020302020302020302020302020300A2020202D342E3839343720202020302E3731343520202020302E303030302043202020302020302020302020302020302020302020302020302020302020302020302020300A20202020322E353330332020202D302E3731343520202020302E30303030204F202020302020302020302020302020302020302020302020302020302020302020302020300A20202020332E373637382020202D312E3432383920202020302E30303030204F202020302020302020302020302020302020302020302020302020302020302020302020300A2020202D332E3234343720202020322E3134333420202020302E303030302043202020302020302020302020302020302020302020302020302020302020302020302020300A20202020342E313830332020202D302E3731343520202020302E303030302053692020302020302020302020302020302020302020302020302020302020302020302020300A20202020332E343635382020202D302E3330323020202020302E303030302043202020302020302020302020302020302020302020302020302020302020302020302020300A20202020342E3539323820202020302E3030303020202020302E303030302043202020302020302020302020302020302020302020302020302020302020302020302020300A20202020342E383934372020202D312E3132373020202020302E303030302043202020302020302020302020302020302020302020302020302020302020302020302020300A2020312020322020312020302020202020200A2020322020332020312020302020202020200A2020332020342020312020302020202020200A2020342020352020312020302020202020200A2020352020362020312020302020202020200A2020362020372020312020302020202020200A2020372020382020312020302020202020200A2020382020392020312020302020202020200A2020392031302020312020302020202020200A2031302031312020312020302020202020200A2031312031322020312020302020202020200A2031322031332020312020302020202020200A2031332031342020312020302020202020200A2020312031352020322020302020202020200A2020312031362020312020302020202020200A2031322031372020312020302020202020200A2031382031392020312020302020202020200A2031382032302020312020302020202020200A2031382032312020312020302020202020200A2031362031382020312020302020202020200A4D2020454E44
Contributor: KOGA M, UNIV. OF OCCUPATIONAL AND ENVIRONMENTAL HEALTH
InstType: EI
InstName: JEOL JMS-01-SG
IoniMethod: _ENERGY 70 eV
IonPolarity: pos
Date: 2010-10-09 19:48:36+02:00
Num Peaks: 24
43 352 45 81 55 275 57 14 61 97 69 167 73 999 75 74 76 98 81 76 
83 71 95 8 117 717 129 268 131 134 132 35 145 191 146 50 159 55 201 6 
271 52 283 52 299 283 300 95 
