Name: DIPHENAMIDE
MW: 239
Formula: C16H17NO
Synonym: MassBank: JP004080
Synonym: DIPHENAMIDE
Structure: 303230335F44495048454E414D4944452E6D6F6C0A20204368656D447261773130313931303137343132440A2031382031392020302020302020302020302020302020302020302020303939392056323030300A2020202D322E303632342020202D302E3335373220202020302E303030302043202020302020302020302020302020302020302020302020302020302020302020302020300A2020202D312E363538302020202D312E3037363320202020302E303030302043202020302020302020302020302020302020302020302020302020302020302020302020300A2020202D302E383333302020202D312E3037363320202020302E303030302043202020302020302020302020302020302020302020302020302020302020302020302020300A2020202D302E343132362020202D302E3335373220202020302E303030302043202020302020302020302020302020302020302020302020302020302020302020302020300A2020202D302E3833333020202020302E3336313820202020302E303030302043202020302020302020302020302020302020302020302020302020302020302020302020300A2020202D312E3635383020202020302E3336313820202020302E303030302043202020302020302020302020302020302020302020302020302020302020302020302020300A20202020302E343132342020202D302E3335373220202020302E303030302043202020302020302020302020302020302020302020302020302020302020302020302020300A20202020302E383234392020202D312E3037313720202020302E303030302043202020302020302020302020302020302020302020302020302020302020302020302020300A20202020302E3832343920202020302E3335373220202020302E303030302043202020302020302020302020302020302020302020302020302020302020302020302020300A20202020312E3634393920202020302E3335373220202020302E303030302043202020302020302020302020302020302020302020302020302020302020302020302020300A20202020322E3036323420202020312E3037313720202020302E303030302043202020302020302020302020302020302020302020302020302020302020302020302020300A20202020312E3634393920202020312E3738363220202020302E303030302043202020302020302020302020302020302020302020302020302020302020302020302020300A20202020302E3832343920202020312E3738363220202020302E303030302043202020302020302020302020302020302020302020302020302020302020302020302020300A20202020302E3431323420202020312E3037313720202020302E303030302043202020302020302020302020302020302020302020302020302020302020302020302020300A20202020302E343132342020202D312E3738363220202020302E30303030204F202020302020302020302020302020302020302020302020302020302020302020302020300A20202020312E363439392020202D312E3037313720202020302E30303030204E202020302020302020302020302020302020302020302020302020302020302020302020300A20202020322E303632342020202D312E3738363220202020302E303030302043202020302020302020302020302020302020302020302020302020302020302020302020300A20202020322E303632342020202D302E3335373220202020302E303030302043202020302020302020302020302020302020302020302020302020302020302020302020300A2020312020322020322020302020202020200A2020322020332020312020302020202020200A2020332020342020322020302020202020200A2020342020352020312020302020202020200A2020352020362020322020302020202020200A2020362020312020312020302020202020200A2020342020372020312020302020202020200A2020372020392020312020302020202020200A2020372020382020312020302020202020200A2020392031302020322020302020202020200A2031302031312020312020302020202020200A2031312031322020322020302020202020200A2031322031332020312020302020202020200A2031332031342020322020302020202020200A2020392031342020312020302020202020200A2020382031352020322020302020202020200A2020382031362020312020302020202020200A2031362031372020312020302020202020200A2031362031382020312020302020202020200A4D2020454E44
Contributor: YAMAMOTO M, DEP. CHEMISTRY, FAC. SCIENCE, NARA WOMEN'S UNIV.
InstType: EI
InstName: HITACHI M-68
IoniMethod: _ENERGY 70 eV
IonPolarity: pos
Date: 2010-10-09 19:48:36+02:00
Num Peaks: 22
44 14 51 17 63 22 72 920 77 11 134 18 139 31 141 1 152 140 153 20 
163 24 164 3 165 372 166 145 167 999 168 14 169 10 222 153 223 30 239 35 
240 200 241 34 
