Name: MassBank: JP004381
MW: 178
Formula: C11H14O2
Synonym: MassBank: JP004381
Synonym: TRICYCLO(5,3,1,0(3,8))UNDECANE-4,11-DIONE
Structure: 5452494359434C4F28352C332C312C3028332C382929554E444543414E452D342C31312D44494F4E452E6D6F6C0A20204368656D447261773038313231303038323532440A2031332031352020302020302020302020302020302020302020302020303939392056323030300A2020202D312E3432383920202020302E3139353620202020302E303030302043202020302020302020302020302020302020302020302020302020302020302020302020300A2020202D302E3731343520202020302E3630383120202020302E303030302043202020302020302020302020302020302020302020302020302020302020302020302020300A20202020302E3030303020202020302E3139353620202020302E303030302043202020302020302020302020302020302020302020302020302020302020302020302020300A20202020302E3731343520202020302E3630383120202020302E303030302043202020302020302020302020302020302020302020302020302020302020302020302020300A20202020312E3432383920202020302E3139353620202020302E303030302043202020302020302020302020302020302020302020302020302020302020302020302020300A20202020312E343238392020202D302E3632393420202020302E303030302043202020302020302020302020302020302020302020302020302020302020302020302020300A20202020302E373134352020202D312E3034313920202020302E303030302043202020302020302020302020302020302020302020302020302020302020302020302020300A2020202D302E303030302020202D302E3632393420202020302E303030302043202020302020302020302020302020302020302020302020302020302020302020302020300A2020202D302E373134352020202D312E3034313920202020302E303030302043202020302020302020302020302020302020302020302020302020302020302020302020300A2020202D312E343238392020202D302E3632393420202020302E303030302043202020302020302020302020302020302020302020302020302020302020302020302020300A2020202D302E353231372020202D302E3731313620202020302E303030302043202020302020302020302020302020302020302020302020302020302020302020302020300A20202020302E3731343520202020312E3433333120202020302E30303030204F202020302020302020302020302020302020302020302020302020302020302020302020300A2020202D302E393338332020202D312E3433333120202020302E30303030204F202020302020302020302020302020302020302020302020302020302020302020302020300A2020312020322020312020302020202020200A2020322020332020312020302020202020200A2020332020342020312020302020202020200A2020342020352020312020302020202020200A2020352020362020312020302020202020200A2020362020372020312020302020202020200A2020372020382020312020302020202020200A2020382020392020312020302020202020200A2020392031302020312020302020202020200A2020312031302020312020302020202020200A2020312031312020312020302020202020200A2020372031312020312020302020202020200A2020332020382020312020302020202020200A2020342031322020322020302020202020200A2031312031332020322020302020202020200A4D2020454E44
Contributor: HAGIWARA H, CHEM. RES. INST. OF NON-AQUEOUS SOLUTIONS, TOHOKU UNIV.
InstType: EI
InstName: JEOL JMS-DX-300
IoniMethod: _ENERGY 70 eV
IonPolarity: pos
Date: 2010-10-09 19:48:36+02:00
Num Peaks: 57
39 299 41 267 42 30 50 22 51 76 52 49 53 179 54 94 55 508 63 22 
65 94 66 151 67 263 68 121 69 20 77 201 78 158 79 571 80 462 81 336 
82 109 83 50 84 23 91 20 92 77 93 242 94 207 95 279 96 441 99 85 
100 91 104 7 105 72 106 66 107 193 108 144 109 60 110 33 113 103 118 67 
119 32 121 110 122 421 123 72 124 235 131 48 132 33 133 30 135 60 136 157 
137 35 149 85 150 485 151 56 164 27 178 999 179 142 
