Name: MassBank: JP007795
MW: 141
Formula: C7H11NS
Synonym: MassBank: JP007795
Synonym: 2-ETHYL-4,5-DIMETHYLTHIAZOLE
Structure: 310A32330A322D455448594C2D342C352D44494D455448594C544849415A4F4C452E6D6F6C0A20204368656D447261773031303331303132353232440A2020392020392020302020302020302020302020302020302020302020303939392056323030300A2020202D302E3133353220202020302E3636373420202020302E303030302053202020302020302020302020302020302020302020302020302020302020302020302020300A20202020302E3334393720202020302E3030303020202020302E303030302043202020302020302020302020302020302020302020302020302020302020302020302020300A2020202D302E313335322020202D302E3636373420202020302E30303030204E202020302020302020302020302020302020302020302020302020302020302020302020300A2020202D302E393139382020202D302E3431323520202020302E303030302043202020302020302020302020302020302020302020302020302020302020302020302020300A2020202D302E3931393820202020302E3431323520202020302E303030302043202020302020302020302020302020302020302020302020302020302020302020302020300A2020202D312E3538373220202020302E3839373420202020302E303030302043202020302020302020302020302020302020302020302020302020302020302020302020300A2020202D312E353837322020202D302E3839373420202020302E303030302043202020302020302020302020302020302020302020302020302020302020302020302020300A20202020312E3137343720202020302E3030303020202020302E303030302043202020302020302020302020302020302020302020302020302020302020302020302020300A20202020312E3538373220202020302E3731343520202020302E303030302043202020302020302020302020302020302020302020302020302020302020302020302020300A2020312020322020312020302020202020200A2020322020332020322020302020202020200A2020332020342020312020302020202020200A2020342020352020322020302020202020200A2020312020352020312020302020202020200A2020352020362020312020302020202020200A2020342020372020312020302020202020200A2020382020392020312020302020202020200A2020322020382020312020302020202020200A4D2020454E44
Contributor: HASHIMOTO K, KYOTO COLLEGE OF PHARMACY
InstType: EI
InstName: HITACHI M-80
IoniMethod: _ENERGY 20 eV
IonPolarity: pos
Date: 2010-10-09 19:48:36+02:00
Num Peaks: 33
27 37 29 72 39 10 41 39 42 201 45 103 46 10 47 19 53 167 54 59 
58 29 60 10 71 850 72 80 73 85 82 362 83 10 84 10 85 377 86 999 
87 221 88 88 112 21 113 141 114 40 126 540 127 60 128 28 139 32 140 639 
141 881 142 319 143 158 
