Name: MassBank: JP008011
MW: 280
Formula: C17H28O3
Synonym: MassBank: JP008011
Synonym: (4AS,5S,8AS)-5ALPHA-ALLYL-8A-METHOXYMETHOXYMETHYL-5BETA-METHYL-3,4,4A,5,6,7,8,8A-OCTAHYDRONAPHTHALEN-1(2H)-ONE
Structure: 283441532C35532C384153292D35414C5048412D414C4C594C2D38412D4D4554484F58594D4554484F58594D455448594C2D35424554412D4D455448594C2D332C342C34412C352C362C372C382C38412D4F435441485944524F4E4150485448414C454E2D31283248292D4F4E452E6D6F6C0A20204368656D447261773130323130393137333632440A2032312032322020302020302020302020302020302020302020302020303939392056323030300A2020202D322E3135383020202020302E3230363120202020302E303030302043202020302020302020302020302020302020302020302020302020302020302020302020300A2020202D322E313538302020202D302E3631383820202020302E303030302043202020302020302020302020302020302020302020302020302020302020302020302020300A2020202D312E343433362020202D312E3033313320202020302E303030302043202020302020302020302020302020302020302020302020302020302020302020302020300A2020202D302E373239312020202D302E3631383820202020302E303030302043202020302020302020302020302020302020302020302020302020302020302020302020300A2020202D302E3732393120202020302E3230363120202020302E303030302043202020302020302020302020302020302020302020302020302020302020302020302020300A2020202D312E3434333620202020302E3631383620202020302E303030302043202020302020302020302020302020302020302020302020302020302020302020302020300A2020202D302E303134362020202D312E3033313320202020302E303030302043202020302020302020302020302020302020302020302020302020302020302020302020300A20202020302E363939382020202D302E3631383820202020302E303030302043202020302020302020302020302020302020302020302020302020302020302020302020300A20202020302E3639393820202020302E3230363120202020302E303030302043202020302020302020302020302020302020302020302020302020302020302020302020300A2020202D302E3031343620202020302E3631383620202020302E303030302043202020302020302020302020302020302020302020302020302020302020302020302020300A2020202D302E3732393120202020312E3033313120202020302E303030302048202020302020302020302020302020302020302020302020302020302020302020302020300A2020202D302E3432373120202020312E3333333120202020302E303030302043202020302020302020302020302020302020302020302020302020302020302020302020300A2020202D302E3031343620202020322E3034373620202020302E303030302043202020302020302020302020302020302020302020302020302020302020302020302020300A2020202D302E3432373120202020322E3736323120202020302E303030302043202020302020302020302020302020302020302020302020302020302020302020302020300A2020202D302E333136362020202D312E3333333320202020302E303030302043202020302020302020302020302020302020302020302020302020302020302020302020300A20202020302E353038342020202D312E3333333320202020302E30303030204F202020302020302020302020302020302020302020302020302020302020302020302020300A20202020302E393230392020202D322E3034373820202020302E303030302043202020302020302020302020302020302020302020302020302020302020302020302020300A20202020312E373435392020202D322E3034373820202020302E30303030204F202020302020302020302020302020302020302020302020302020302020302020302020300A2020202D312E343433362020202D312E3835363320202020302E30303030204F202020302020302020302020302020302020302020302020302020302020302020302020300A20202020322E313538302020202D322E3736323120202020302E303030302043202020302020302020302020302020302020302020302020302020302020302020302020300A20202020302E3339363020202020312E3333343120202020302E303030302043202020302020302020302020302020302020302020302020302020302020302020302020300A2020312020322020312020302020202020200A2020322020332020312020302020202020200A2020332020342020312020302020202020200A2020342020352020312020302020202020200A2020352020362020312020302020202020200A2020362020312020312020302020202020200A2020342020372020312020302020202020200A2020372020382020312020302020202020200A2020382020392020312020302020202020200A2020392031302020312020302020202020200A2031302020352020312020302020202020200A2020352031312020312020362020202020200A2031302031322020312020362020202020200A2031322031332020312020302020202020200A2031332031342020322020302020202020200A2020342031352020312020312020202020200A2031352031362020312020302020202020200A2031362031372020312020302020202020200A2031372031382020312020302020202020200A2020332031392020322020302020202020200A2031382032302020312020302020202020200A2031302032312020312020312020202020200A4D202053545920203120202031205355500A4D2020534C4220203120202031202020310A4D202053414C20202031202031202032300A4D202053424C20202031202031202032310A4D2020534D5420202031204D650A4D2020534256202020312032312020202D362E3232363420202020372E303738320A4D202053545920203120202032205355500A4D2020534C4220203120202032202020320A4D202053414C20202032202031202032310A4D202053424C20202032202031202032320A4D2020534D5420202032204D650A4D2020534256202020322032322020202D362E3232373920202020382E353038300A4D2020454E44
Contributor: HISAHIRO HAGIWARA, CHEMICAL RESEARCH INSTITUTE OF NON-AQUEOUSSOLUTIONS TOHOKU UNIV.
InstType: EI
InstName: JEOL JMS-DX-300
IoniMethod: _ENERGY 70 eV
IonPolarity: pos
Date: 2010-10-09 19:48:36+02:00
Num Peaks: 56
39 119 41 374 43 153 45 999 53 181 55 493 65 83 66 84 67 380 69 170 
71 82 77 190 79 444 81 344 83 113 85 104 91 261 93 475 94 393 95 508 
97 131 99 89 105 195 107 299 108 279 109 213 111 115 115 54 117 53 119 149 
121 241 123 20 125 92 131 72 133 142 135 335 145 116 147 264 149 194 159 206 
161 183 163 251 165 147 171 59 175 115 177 304 179 186 189 251 193 123 205 96 
208 756 209 624 235 100 239 467 250 96 280 39 
