Name: THIOPROPERAZINE
CAS: 316-81-4
MW: 446
Formula: C22H30N4O2S2
Synonym: MassBank: JP005765
Synonym: THIOPROPERAZINE
Synonym: N,N-DIMETHYL-10-(3-(4-METHYL-1-PIPERAZINYL)PROPYL)-10H-PHENOTHIAZINE-2-SULFONAMIDE
Structure: 303339365F5448494F50524F504552415A494E452E6D6F6C0A20204368656D447261773038323031303032343132440A2033302033332020302020302020302020302020302020302020302020303939392056323030300A2020202D312E3037313620202020332E3034323120202020302E303030302043202020302020302020302020302020302020302020302020302020302020302020302020300A2020202D312E3037313620202020322E3231373220202020302E303030302043202020302020302020302020302020302020302020302020302020302020302020302020300A2020202D302E3335373220202020312E3830343720202020302E303030302043202020302020302020302020302020302020302020302020302020302020302020302020300A20202020302E3335373220202020322E3231373220202020302E303030302043202020302020302020302020302020302020302020302020302020302020302020302020300A20202020302E3335373220202020332E3034323120202020302E303030302043202020302020302020302020302020302020302020302020302020302020302020302020300A2020202D302E3335373220202020332E3435343620202020302E303030302043202020302020302020302020302020302020302020302020302020302020302020302020300A20202020312E3037313720202020312E3830343720202020302E30303030204E202020302020302020302020302020302020302020302020302020302020302020302020300A20202020312E3738363120202020322E3231373220202020302E303030302043202020302020302020302020302020302020302020302020302020302020302020302020300A20202020312E3738363120202020332E3034323120202020302E303030302043202020302020302020302020302020302020302020302020302020302020302020302020300A20202020312E3037313720202020332E3435343620202020302E303030302053202020302020302020302020302020302020302020302020302020302020302020302020300A20202020322E3530303620202020312E3830343720202020302E303030302043202020302020302020302020302020302020302020302020302020302020302020302020300A20202020332E3231353020202020322E3231373220202020302E303030302043202020302020302020302020302020302020302020302020302020302020302020302020300A20202020332E3231353020202020332E3034323120202020302E303030302043202020302020302020302020302020302020302020302020302020302020302020302020300A20202020322E3530303620202020332E3435343620202020302E303030302043202020302020302020302020302020302020302020302020302020302020302020302020300A20202020312E3037313720202020302E3937393620202020302E303030302043202020302020302020302020302020302020302020302020302020302020302020302020300A20202020312E3738363120202020302E3536373220202020302E303030302043202020302020302020302020302020302020302020302020302020302020302020302020300A20202020312E373836312020202D302E3235373820202020302E303030302043202020302020302020302020302020302020302020302020302020302020302020302020300A2020202D312E3738363120202020312E3830343720202020302E303030302053202020302020302020302020302020302020302020302020302020302020302020302020300A2020202D322E3530303620202020312E3339323220202020302E30303030204E202020302020302020302020302020302020302020302020302020302020302020302020300A2020202D322E3139383620202020322E3531393220202020302E30303030204F202020302020302020302020302020302020302020302020302020302020302020302020300A2020202D312E3337333620202020312E3039303220202020302E30303030204F202020302020302020302020302020302020302020302020302020302020302020302020300A2020202D332E3231353020202020312E3830343720202020302E303030302043202020302020302020302020302020302020302020302020302020302020302020302020300A2020202D322E3530303620202020302E3536373220202020302E303030302043202020302020302020302020302020302020302020302020302020302020302020302020300A20202020312E313637332020202D302E3937393720202020302E30303030204E202020302020302020302020302020302020302020302020302020302020302020302020300A20202020302E343533302020202D312E3339323220202020302E303030302043202020302020302020302020302020302020302020302020302020302020302020302020300A20202020302E343533302020202D322E3231373120202020302E303030302043202020302020302020302020302020302020302020302020302020302020302020302020300A20202020312E313637332020202D322E3632393620202020302E30303030204E202020302020302020302020302020302020302020302020302020302020302020302020300A20202020312E383831382020202D322E3231373120202020302E303030302043202020302020302020302020302020302020302020302020302020302020302020302020300A20202020312E383831382020202D312E3339323220202020302E303030302043202020302020302020302020302020302020302020302020302020302020302020302020300A20202020312E313637332020202D332E3435343620202020302E303030302043202020302020302020302020302020302020302020302020302020302020302020302020300A2020312020322020322020302020202020200A2020322020332020312020302020202020200A2020332020342020322020302020202020200A2020342020352020312020302020202020200A2020352020362020322020302020202020200A2020362020312020312020302020202020200A2020342020372020312020302020202020200A2020372020382020312020302020202020200A2020382020392020322020302020202020200A2020392031302020312020302020202020200A2031302020352020312020302020202020200A2020382031312020312020302020202020200A2031312031322020322020302020202020200A2031322031332020312020302020202020200A2031332031342020322020302020202020200A2031342020392020312020302020202020200A2020372031352020312020302020202020200A2031352031362020312020302020202020200A2031362031372020312020302020202020200A2020322031382020312020302020202020200A2031382031392020312020302020202020200A2031382032302020322020302020202020200A2031382032312020322020302020202020200A2031392032322020312020302020202020200A2031392032332020312020302020202020200A2032342032352020312020302020202020200A2032352032362020312020302020202020200A2032362032372020312020302020202020200A2032372032382020312020302020202020200A2032382032392020312020302020202020200A2032392032342020312020302020202020200A2032372033302020312020302020202020200A2031372032342020312020302020202020200A4D2020454E44
Contributor: HAMAMATSU UNIV. SCHOOL OF MEDICINE
InstType: EI
InstName: JEOL JMS-D-300
IoniMethod: _ENERGY 70 eV
IonPolarity: pos
Date: 2010-10-09 19:48:36+02:00
Num Peaks: 107
55 11 56 125 57 74 58 108 59 21 63 14 64 15 68 17 69 29 70 866 
71 330 72 71 77 11 79 26 80 19 81 16 82 34 83 42 84 86 85 126 
86 18 95 14 96 41 97 138 98 134 99 106 100 16 109 10 111 101 112 25 
113 999 114 221 115 18 125 18 126 33 127 698 128 67 139 45 140 29 141 342 
142 33 152 12 153 23 154 3 166 14 167 27 170 10 171 22 172 13 178 18 
179 47 180 32 184 11 185 13 191 10 196 65 197 116 198 253 199 97 200 24 
209 13 210 73 211 102 212 270 213 47 214 44 222 23 223 63 224 68 225 38 
226 18 236 20 237 29 238 98 239 35 240 12 266 15 267 22 268 22 287 26 
305 26 306 218 307 44 308 25 319 109 320 351 321 74 322 39 332 110 333 74 
334 26 337 19 338 160 339 43 340 13 345 76 346 64 347 19 359 17 387 18 
389 43 390 14 402 26 403 15 446 338 447 102 448 50 
