Name: MassBank: JP001656
MW: 60
Formula: C3H8O
Synonym: MassBank: JP001656
Synonym: ISOPROPYL ALCOHOL(1,1,1,2,3,3,3-D7)
Structure: 303239355F49534F50524F50594C20414C434F484F4C28312C312C312C322C332C332C332D4437292E6D6F6C0A20204368656D447261773039303631303136303032440A2031312031302020302020302020302020302020302020302020302020303939392056323030300A2020202D312E3639313220202020302E3030303020202020302E303030302048202020312020302020302020302020302020302020302020302020302020302020302020300A2020202D302E3836363220202020302E3030303020202020302E303030302043202020302020302020302020302020302020302020302020302020302020302020302020300A2020202D302E3836363220202020302E3832353020202020302E303030302048202020312020302020302020302020302020302020302020302020302020302020302020300A2020202D302E3034313320202020302E3030303020202020302E303030302043202020302020302020302020302020302020302020302020302020302020302020302020300A2020202D302E383636322020202D302E3832353020202020302E303030302048202020312020302020302020302020302020302020302020302020302020302020302020300A20202020302E3836363220202020302E3030303020202020302E303030302043202020302020302020302020302020302020302020302020302020302020302020302020300A20202020302E3836363220202020302E3832353020202020302E303030302048202020312020302020302020302020302020302020302020302020302020302020302020300A20202020312E3639313220202020302E3030303020202020302E303030302048202020312020302020302020302020302020302020302020302020302020302020302020300A20202020302E383636322020202D302E3832353020202020302E303030302048202020312020302020302020302020302020302020302020302020302020302020302020300A2020202D302E3034313320202020302E3832353020202020302E30303030204F202020302020302020302020302020302020302020302020302020302020302020302020300A2020202D302E303431332020202D302E3832353020202020302E303030302048202020312020302020302020302020302020302020302020302020302020302020302020300A2020312020322020312020302020202020200A2020322020332020312020302020202020200A2020322020342020312020302020202020200A2020322020352020312020302020202020200A2020362020372020312020302020202020200A2020362020382020312020302020202020200A2020362020392020312020302020202020200A2020342020362020312020302020202020200A2020342031302020312020302020202020200A2020342031312020312020302020202020200A4D202049534F20203720202031202020322020203320202032202020352020203220202037202020322020203820202032202020392020203220203131202020320A4D2020454E44
Contributor: TAJIMA S, GUNMA COLLEGE OF TECHNOLOGY
InstType: EI
InstName: HITACHI RMU-7M
IoniMethod: _ENERGY 70 eV
IonPolarity: pos
Date: 2010-10-09 19:48:36+02:00
Num Peaks: 16
18 25 21 37 22 5 28 19 29 12 30 117 33 24 42 21 45 22 46 87 
47 15 48 17 49 999 50 77 51 9 65 22 
