Name: N-DODECYL-2-PYRROLIDONE
MW: 253
Formula: C16H31NO
Synonym: MassBank: JP004144
Synonym: N-DODECYL-2-PYRROLIDONE
Structure: 4E2D444F444543594C2D322D505952524F4C49444F4E452E6D6F6C0A20204368656D447261773038313231303032303032440A2031382031382020302020302020302020302020302020302020302020303939392056323030300A20202020332E363334302020202D302E3037353320202020302E30303030204E202020302020302020302020302020302020302020302020302020302020302020302020300A20202020342E3338373620202020302E3236303320202020302E303030302043202020302020302020302020302020302020302020302020302020302020302020302020300A20202020342E393339372020202D302E3335323820202020302E303030302043202020302020302020302020302020302020302020302020302020302020302020302020300A20202020342E353237322020202D312E3036373320202020302E303030302043202020302020302020302020302020302020302020302020302020302020302020302020300A20202020332E373230322020202D302E3839353720202020302E303030302043202020302020302020302020302020302020302020302020302020302020302020302020300A20202020342E3535393220202020312E3036373320202020302E30303030204F202020302020302020302020302020302020302020302020302020302020302020302020300A20202020322E3931393520202020302E3333373220202020302E303030302043202020302020302020302020302020302020302020302020302020302020302020302020300A20202020322E323035302020202D302E3037353320202020302E303030302043202020302020302020302020302020302020302020302020302020302020302020302020300A20202020312E3439303620202020302E3333373220202020302E303030302043202020302020302020302020302020302020302020302020302020302020302020302020300A20202020302E373736312020202D302E3037353320202020302E303030302043202020302020302020302020302020302020302020302020302020302020302020302020300A20202020302E3036313620202020302E3333373220202020302E303030302043202020302020302020302020302020302020302020302020302020302020302020302020300A2020202D302E363532392020202D302E3037353320202020302E303030302043202020302020302020302020302020302020302020302020302020302020302020302020300A2020202D312E3336373320202020302E3333373220202020302E303030302043202020302020302020302020302020302020302020302020302020302020302020302020300A2020202D322E303831382020202D302E3037353320202020302E303030302043202020302020302020302020302020302020302020302020302020302020302020302020300A2020202D322E3739363320202020302E3333373220202020302E303030302043202020302020302020302020302020302020302020302020302020302020302020302020300A2020202D332E353130372020202D302E3037353320202020302E303030302043202020302020302020302020302020302020302020302020302020302020302020302020300A2020202D342E3232353220202020302E3333373220202020302E303030302043202020302020302020302020302020302020302020302020302020302020302020302020300A2020202D342E393339372020202D302E3037353320202020302E303030302043202020302020302020302020302020302020302020302020302020302020302020302020300A2020312020322020312020302020202020200A2020322020332020312020302020202020200A2020332020342020312020302020202020200A2020342020352020312020302020202020200A2020312020352020312020302020202020200A2020322020362020322020302020202020200A2020372020382020312020302020202020200A2020382020392020312020302020202020200A2020392031302020312020302020202020200A2031302031312020312020302020202020200A2031312031322020312020302020202020200A2031322031332020312020302020202020200A2031332031342020312020302020202020200A2031342031352020312020302020202020200A2031352031362020312020302020202020200A2031362031372020312020302020202020200A2031372031382020312020302020202020200A2020312020372020312020302020202020200A4D2020454E44
Contributor: MASS SPECTROSCOPY SOC. OF JAPAN (MSSJ)
InstType: EI
InstName: HITACHI RMU-6E
IoniMethod: _ENERGY 70 eV
IonPolarity: pos
Date: 2010-10-09 19:48:36+02:00
Num Peaks: 118
25 3 26 19 27 106 28 16 29 198 30 744 31 18 32 3 37 4 38 6 
39 68 40 3 41 404 42 201 43 288 44 13 45 54 46 2 50 1 51 0 
52 1 53 20 54 25 55 22 56 120 57 74 58 14 59 1 60 2 65 4 
66 2 67 2 68 35 69 118 70 198 71 3 72 34 73 6 77 3 78 0 
79 5 80 6 81 8 82 1 83 26 84 36 85 23 86 15 87 12 88 1 
93 1 94 0 95 3 96 12 97 22 98 999 99 774 100 69 101 7 110 1 
111 14 112 220 113 170 114 2 115 2 122 1 123 1 124 1 125 6 126 164 
127 70 128 1 129 1 138 3 139 2 140 11 141 37 142 10 143 1 152 0 
153 1 154 164 155 37 156 1 157 1 166 2 167 1 168 7 169 21 170 4 
182 53 183 2 184 7 185 14 186 6 187 0 194 2 195 1 196 50 197 2 
198 6 208 1 209 1 210 5 211 14 212 3 223 2 224 3 225 8 226 1 
236 7 237 0 238 12 239 3 251 2 252 2 253 164 254 6 
