Name: TRIFLUOROTRIS(TRIMETHYLSILYL)METHYLSILANE
MW: 316
Formula: C10H27F3Si4
Synonym: MassBank: JP001945
Synonym: TRIFLUOROTRIS(TRIMETHYLSILYL)METHYLSILANE
Synonym: TRIFLUOROSILYLTRIS(TRIMETHYSILYL)METHANE
Structure: 545249464C554F524F54524953285452494D455448594C53494C594C294D455448594C53494C414E452E6D6F6C0A20204368656D447261773038313231303038333832440A2031372031362020302020302020302020302020302020302020302020303939392056323030300A20202020302E313436342020202D302E3132373420202020302E303030302053692020302020302020302020302020302020302020302020302020302020302020302020300A20202020302E3134363420202020312E3139323620202020302E303030302043202020302020302020302020302020302020302020302020302020302020302020302020300A20202020312E3230323620202020302E3035383920202020302E303030302053692020302020302020302020302020302020302020302020302020302020302020302020300A20202020312E3939333020202020302E3239353520202020302E303030302043202020302020302020302020302020302020302020302020302020302020302020302020300A20202020312E343834382020202D302E3731363420202020302E303030302043202020302020302020302020302020302020302020302020302020302020302020302020300A20202020312E3031323420202020302E3836313620202020302E303030302043202020302020302020302020302020302020302020302020302020302020302020302020300A20202020302E323730392020202D312E3139323620202020302E303030302053692020302020302020302020302020302020302020302020302020302020302020302020300A2020202D302E353331382020202D312E3338323920202020302E303030302043202020302020302020302020302020302020302020302020302020302020302020302020300A20202020302E333636372020202D322E3031323020202020302E303030302043202020302020302020302020302020302020302020302020302020302020302020302020300A20202020312E303935392020202D312E3139323620202020302E303030302043202020302020302020302020302020302020302020302020302020302020302020302020300A2020202D312E313733362020202D302E3132373420202020302E303030302053692020302020302020302020302020302020302020302020302020302020302020302020300A2020202D312E323639332020202D302E3934363820202020302E303030302043202020302020302020302020302020302020302020302020302020302020302020302020300A2020202D312E393933302020202D302E3232333220202020302E303030302043202020302020302020302020302020302020302020302020302020302020302020302020300A2020202D312E3331363820202020302E3638353120202020302E303030302043202020302020302020302020302020302020302020302020302020302020302020302020300A2020202D302E3636363020202020312E3333353920202020302E303030302046202020302020302020302020302020302020302020302020302020302020302020302020300A20202020302E3234323220202020322E3031323020202020302E303030302046202020302020302020302020302020302020302020302020302020302020302020302020300A20202020302E3937303020202020312E3134343720202020302E303030302046202020302020302020302020302020302020302020302020302020302020302020302020300A2020312020322020312020302020202020200A2020332020342020312020302020202020200A2020332020352020312020302020202020200A2020332020362020312020302020202020200A2020312020332020312020302020202020200A2020372020382020312020302020202020200A2020372020392020312020302020202020200A2020372031302020312020302020202020200A2020312020372020312020302020202020200A2031312031322020312020302020202020200A2031312031332020312020302020202020200A2031312031342020312020302020202020200A2020312031312020312020302020202020200A2020322031352020312020302020202020200A2020322031362020312020302020202020200A2020322031372020312020302020202020200A4D2020454E44
Contributor: MASS SPECTROSCOPY SOC. OF JAPAN (MSSJ)
InstType: EI
InstName: JEOL JMS-D-3000
IoniMethod: _ENERGY 70 eV
IonPolarity: pos
Date: 2010-10-09 19:48:36+02:00
Num Peaks: 45
43 44 44 22 45 143 46 11 47 15 55 11 59 139 60 12 69 17 73 471 
74 40 75 18 77 50 83 26 85 22 113 22 117 24 119 10 127 27 129 10 
131 15 133 12 147 14 179 11 189 23 193 80 194 17 195 24 197 15 205 95 
206 21 207 16 209 999 210 219 211 125 212 20 213 204 214 41 215 24 228 22 
285 25 301 872 302 259 303 157 304 33 
