Name: MassBank: JP004613
MW: 290
Formula: C20H34O
Synonym: MassBank: JP004613
Synonym: (3E,7E,11E)-1-HYDROXY-1-ISOPROPYL-4,8,12-TRIMETHYLCYCLOTETRADECATRIENE
Structure: 2833452C37452C313145292D312D485944524F58592D312D49534F50524F50594C2D342C382C31322D5452494D455448594C4359434C4F544554524144454341545249454E452E6D6F6C0A20204368656D447261773130323130393033323032440A2032342032342020302020302020302020302020302020302020302020303939392056323030300A2020202D312E3631303320202020302E3037393120202020302E303030302043202020302020302020302020302020302020302020302020302020302020302020302020300A2020202D312E363130332020202D302E3734353920202020302E303030302043202020302020302020302020302020302020302020302020302020302020302020302020300A2020202D312E303237302020202D312E3332393220202020302E303030302043202020302020302020302020302020302020302020302020302020302020302020302020300A2020202D302E323032302020202D312E3332393220202020302E303030302043202020302020302020302020302020302020302020302020302020302020302020302020300A20202020302E333831342020202D302E3734353920202020302E303030302043202020302020302020302020302020302020302020302020302020302020302020302020300A20202020302E3338313420202020302E3037393120202020302E303030302043202020302020302020302020302020302020302020302020302020302020302020302020300A2020202D302E3230323020202020302E3636323520202020302E303030302043202020302020302020302020302020302020302020302020302020302020302020302020300A2020202D312E3032373020202020302E3636323520202020302E303030302043202020302020302020302020302020302020302020302020302020302020302020302020300A20202020302E393634372020202D312E3332393220202020302E303030302043202020302020302020302020302020302020302020302020302020302020302020302020300A20202020312E373839372020202D312E3332393220202020302E303030302043202020302020302020302020302020302020302020302020302020302020302020302020300A20202020322E333733312020202D302E3734353920202020302E303030302043202020302020302020302020302020302020302020302020302020302020302020302020300A20202020322E3337333120202020302E3037393120202020302E303030302043202020302020302020302020302020302020302020302020302020302020302020302020300A20202020312E3738393720202020302E3636323520202020302E303030302043202020302020302020302020302020302020302020302020302020302020302020302020300A20202020302E3936343720202020302E3636323520202020302E303030302043202020302020302020302020302020302020302020302020302020302020302020302020300A2020202D302E363134352020202D302E3631343820202020302E303030302048202020302020302020302020302020302020302020302020302020302020302020302020300A2020202D302E3631343520202020312E3337373020202020302E303030302043202020302020302020302020302020302020302020302020302020302020302020302020300A20202020302E3231303520202020312E3337373020202020302E30303030204F202020302020302020302020302020302020302020302020302020302020302020302020300A20202020302E3735313220202020312E3435393420202020302E303030302048202020302020302020302020302020302020302020302020302020302020302020302020300A20202020322E313035352020202D322E3039313420202020302E303030302048202020302020302020302020302020302020302020302020302020302020302020302020300A2020202D312E3433393520202020312E3337373020202020302E303030302043202020302020302020302020302020302020302020302020302020302020302020302020300A2020202D302E3230323020202020322E3039313420202020302E303030302043202020302020302020302020302020302020302020302020302020302020302020302020300A20202020312E353735392020202D302E3133343020202020302E303030302043202020302020302020302020302020302020302020302020302020302020302020302020300A2020202D322E333733312020202D312E3036303720202020302E303030302043202020302020302020302020302020302020302020302020302020302020302020302020300A20202020312E333736352020202D302E3631333920202020302E303030302043202020302020302020302020302020302020302020302020302020302020302020302020300A2020312020322020312020302020202020200A2020322020332020322020302020202020200A2020332020342020312020302020202020200A2020342020352020312020302020202020200A2020362020372020312020302020202020200A2020372020382020312020302020202020200A2020382020312020312020302020202020200A2020352020392020312020302020202020200A2020392031302020322020302020202020200A2031302031312020312020302020202020200A2031312031322020312020302020202020200A2031322031332020312020302020202020200A2031332031342020322020302020202020200A2031342020362020312020302020202020200A2020332031352020312020302020202020200A2020372031362020312020302020202020200A2020372031372020312020302020202020200A2031342031382020312020302020202020200A2031302031392020312020302020202020200A2031362032302020312020302020202020200A2031362032312020312020302020202020200A2031332032322020312020302020202020200A2020322032332020312020302020202020200A2020392032342020312020302020202020200A4D202053545920203120202031205355500A4D2020534C4220203120202031202020310A4D202053414C20202031202031202032320A4D202053424C20202031202031202032320A4D2020534D5420202031204D650A4D2020534256202020312032322020202D362E3738393020202020362E383130380A4D202053545920203120202032205355500A4D2020534C4220203120202032202020320A4D202053414C20202032202031202032330A4D202053424C20202032202031202032330A4D2020534D5420202032204D650A4D2020534256202020322032332020202D372E3333373920202020372E323932340A4D202053545920203120202033205355500A4D2020534C4220203120202033202020330A4D202053414C20202033202031202032340A4D202053424C20202033202031202032340A4D2020534D5420202033204D650A4D2020534256202020332032342020202D362E3136333320202020382E333232360A4D2020454E44
Contributor: KATO T, DEPT. OF CHEM., FAC. OF SCI., TOHOKU UNIV.
InstType: EI
InstName: Unknown
IoniMethod: _ENERGY 25 eV
IonPolarity: pos
Date: 2010-10-09 19:48:36+02:00
Num Peaks: 82
41 51 43 275 53 50 55 13 57 38 67 275 68 260 69 26 71 999 72 51 
79 105 80 7 81 630 82 182 83 90 85 4 86 36 91 51 92 40 93 29 
94 231 95 492 105 115 106 3 107 290 108 125 109 222 110 5 111 61 119 134 
120 65 121 36 122 211 123 271 124 60 125 6 127 785 128 65 133 100 134 15 
135 478 136 211 137 141 139 6 141 35 147 88 148 37 149 9 150 119 151 52 
153 699 154 10 159 36 161 78 162 35 163 19 164 35 165 35 166 35 173 4 
175 40 177 32 179 36 189 8 191 78 203 40 204 101 205 4 207 40 208 38 
220 40 229 5 247 145 248 30 257 18 261 1 272 25 273 11 275 15 290 17 
291 35 292 12 
