Name: 1-DICHLOROMETHYLSILYL-3-TRIMETHYLSILYLPROPANE
MW: 228
Formula: C7H18Cl2Si2
Synonym: MassBank: JP004676
Synonym: 1-DICHLOROMETHYLSILYL-3-TRIMETHYLSILYLPROPANE
Structure: 312D444943484C4F524F4D455448594C53494C594C2D332D5452494D455448594C53494C594C50524F50414E452E6D6F6C0A20204368656D447261773131313830393031323332440A2031312031302020302020302020302020302020302020302020302020303939392056323030300A20202020302E3335373220202020302E3135313020202020302E303030302043202020302020302020302020302020302020302020302020302020302020302020302020300A2020202D302E333537322020202D302E3236313520202020302E303030302043202020302020302020302020302020302020302020302020302020302020302020302020300A2020202D312E3037313720202020302E3135313020202020302E303030302043202020302020302020302020302020302020302020302020302020302020302020302020300A2020202D312E373836322020202D302E3236313520202020302E303030302053692020302020302020302020302020302020302020302020302020302020302020302020300A2020202D322E353030362020202D302E3637343020202020302E303030302043202020302020302020302020302020302020302020302020302020302020302020302020300A2020202D322E3139383720202020302E3435333020202020302E303030302043202020302020302020302020302020302020302020302020302020302020302020302020300A2020202D312E333733372020202D302E3937363020202020302E303030302043202020302020302020302020302020302020302020302020302020302020302020302020300A20202020312E303731372020202D302E3236313520202020302E303030302053692020302020302020302020302020302020302020302020302020302020302020302020300A20202020312E3738363220202020302E3135313020202020302E303030302043202020302020302020302020302020302020302020302020302020302020302020302020300A20202020312E3738363220202020302E3937363020202020302E3030303020436C2020302020302020302020302020302020302020302020302020302020302020302020300A20202020322E353030362020202D302E3236313520202020302E3030303020436C2020302020302020302020302020302020302020302020302020302020302020302020300A2020312020322020312020302020202020200A2020322020332020312020302020202020200A2020342020352020312020302020202020200A2020342020362020312020312020202020200A2020342020372020312020312020202020200A2020332020342020312020302020202020200A2020382020392020312020302020202020200A2020392031302020312020302020202020200A2020392031312020312020302020202020200A2020312020382020312020302020202020200A4D2020454E44
Contributor: MASS SPECTROSCOPY SOC. OF JAPAN (MSSJ)
InstType: EI
InstName: JEOL JMS-D-3000
IoniMethod: _ENERGY 70 eV
IonPolarity: pos
Date: 2010-10-09 19:48:36+02:00
Num Peaks: 29
43 17 45 58 58 15 59 72 63 27 65 13 72 53 73 999 74 81 75 35 
79 18 85 113 92 52 93 46 94 21 95 17 113 105 114 13 115 71 117 13 
119 142 120 167 121 65 122 57 213 292 214 48 215 211 216 34 217 46 
