Name: METHYL (Z)-3-HYDROXY-4-PHENYL-2-BUTENOATE
MW: 192
Formula: C11H12O3
Synonym: MassBank: JP005455
Synonym: METHYL (Z)-3-HYDROXY-4-PHENYL-2-BUTENOATE
Structure: 4D455448594C20285A292D332D485944524F58592D342D5048454E594C2D322D425554454E4F4154452E6D6F6C0A20204368656D447261773038313131303233323232440A2031342031342020302020302020302020302020302020302020302020303939392056323030300A20202020312E373836322020202D302E3030303020202020302E303030302043202020302020302020302020302020302020302020302020302020302020302020302020300A20202020312E3037313720202020302E3431323520202020302E303030302043202020302020302020302020302020302020302020302020302020302020302020302020300A20202020302E333537322020202D302E3030303020202020302E303030302043202020302020302020302020302020302020302020302020302020302020302020302020300A2020202D302E3335373220202020302E3431323520202020302E303030302043202020302020302020302020302020302020302020302020302020302020302020302020300A20202020312E373836322020202D302E3832353020202020302E30303030204F202020302020302020302020302020302020302020302020302020302020302020302020300A20202020322E3530303620202020302E3431323520202020302E30303030204F202020302020302020302020302020302020302020302020302020302020302020302020300A2020202D312E303731372020202D302E3030303020202020302E303030302043202020302020302020302020302020302020302020302020302020302020302020302020300A2020202D312E303731372020202D302E3832353020202020302E303030302043202020302020302020302020302020302020302020302020302020302020302020302020300A2020202D312E373836322020202D312E3233373520202020302E303030302043202020302020302020302020302020302020302020302020302020302020302020302020300A2020202D322E353030362020202D302E3832353020202020302E303030302043202020302020302020302020302020302020302020302020302020302020302020302020300A2020202D322E353030362020202D302E3030303020202020302E303030302043202020302020302020302020302020302020302020302020302020302020302020302020300A2020202D312E3738363220202020302E3431323520202020302E303030302043202020302020302020302020302020302020302020302020302020302020302020302020300A20202020302E333537322020202D302E3832353020202020302E30303030204F202020302020302020302020302020302020302020302020302020302020302020302020300A20202020322E3530303620202020312E3233373520202020302E303030302043202020302020302020302020302020302020302020302020302020302020302020302020300A2020312020322020312020302020202020200A2020322020332020322020302020202020200A2020332020342020312020302020202020200A2020312020352020322020302020202020200A2020312020362020312020302020202020200A2020372020382020312020302020202020200A2020382020392020322020302020202020200A2020392031302020312020302020202020200A2031302031312020322020302020202020200A2031312031322020312020302020202020200A2020372031322020322020302020202020200A2020342020372020312020302020202020200A2020332031332020312020302020202020200A2020362031342020312020302020202020200A4D2020454E44
Contributor: HIRAMA M, TOHOKU UNIV. FACULTY OF SCIENCE DEPT. OF CHEMISTRY YUKIBUNSEKI
InstType: EI
InstName: HITACHI M-52
IoniMethod: _ENERGY 14 eV
IonPolarity: pos
Date: 2010-10-09 19:48:36+02:00
Num Peaks: 70
18 63 27 9 28 32 29 1 30 14 31 13 32 9 33 1 40 4 41 14 
42 22 43 1 44 4 54 13 55 12 56 1 57 27 58 22 59 82 60 1 
65 15 66 7 67 4 68 15 69 22 70 5 89 4 90 2 91 290 92 112 
93 21 100 7 101 110 102 11 103 71 104 1 105 26 106 5 114 4 115 30 
116 83 117 72 118 131 119 3 128 5 129 27 130 383 131 27 132 103 133 22 
140 4 141 1 142 24 143 45 144 37 145 1 146 4 158 33 159 999 160 53 
161 45 162 10 173 5 174 6 175 12 190 9 191 730 192 18 193 26 194 6 
