Name: MassBank: JP009430
MW: 188
Formula: C12H12O2
Synonym: MassBank: JP009430
Synonym: 6-METHYL-3,4-(5'-METHYLBENZO)-2-OXABICYCLO(4.1.0)HEPT-3-EN-5-ONE
Structure: 362D4D455448594C2D332C342D2835272D4D455448594C42454E5A4F292D322D4F584142494359434C4F28342E312E3029484550542D332D454E2D352D4F4E452E6D6F6C0A20204368656D447261773035313731303139313832440A2031342031362020302020302020302020302020302020302020302020303939392056323030300A2020202D312E3432383920202020302E3832353020202020302E303030302043202020302020302020302020302020302020302020302020302020302020302020302020300A2020202D312E3432383920202020302E3030303020202020302E303030302043202020302020302020302020302020302020302020302020302020302020302020302020300A2020202D302E373134352020202D302E3431323520202020302E303030302043202020302020302020302020302020302020302020302020302020302020302020302020300A20202020302E3030303020202020302E3030303020202020302E303030302043202020302020302020302020302020302020302020302020302020302020302020302020300A20202020302E3030303020202020302E3832353020202020302E303030302043202020302020302020302020302020302020302020302020302020302020302020302020300A2020202D302E3731343520202020312E3233373520202020302E303030302043202020302020302020302020302020302020302020302020302020302020302020302020300A20202020302E373134352020202D302E3431323520202020302E303030302043202020302020302020302020302020302020302020302020302020302020302020302020300A20202020312E3432383920202020302E3030303020202020302E303030302043202020302020302020302020302020302020302020302020302020302020302020302020300A20202020312E3432383920202020302E3832353020202020302E303030302043202020302020302020302020302020302020302020302020302020302020302020302020300A20202020302E3731343520202020312E3233373520202020302E30303030204F202020302020302020302020302020302020302020302020302020302020302020302020300A20202020322E3134333420202020302E3431323520202020302E303030302043202020302020302020302020302020302020302020302020302020302020302020302020300A20202020312E383431342020202D302E3731343520202020302E303030302043202020302020302020302020302020302020302020302020302020302020302020302020300A20202020302E373134352020202D312E3233373520202020302E30303030204F202020302020302020302020302020302020302020302020302020302020302020302020300A2020202D322E3134333420202020312E3233373520202020302E303030302043202020302020302020302020302020302020302020302020302020302020302020302020300A2020312020322020322020302020202020200A2020322020332020312020302020202020200A2020332020342020322020302020202020200A2020342020352020312020302020202020200A2020352020362020322020302020202020200A2020362020312020312020302020202020200A2020342020372020312020302020202020200A2020372020382020312020302020202020200A2020382020392020312020302020202020200A2020392031302020312020302020202020200A2031302020352020312020302020202020200A2020382031312020312020302020202020200A2031312020392020312020302020202020200A2020382031322020312020302020202020200A2020372031332020322020302020202020200A2020312031342020312020302020202020200A4D2020454E44
Contributor: EGUCHI S, FAC. OF SCIENCE, HIROSHIMA UNIV.
InstType: EI
InstName: HITACHI RMU-7L
IoniMethod: _ENERGY 70 eV
IonPolarity: pos
Date: 2010-10-09 19:48:36+02:00
Num Peaks: 94
50 65 51 230 52 100 53 150 54 10 55 65 56 10 57 10 58 10 59 50 
60 15 61 15 62 50 63 170 64 68 65 125 66 18 67 10 68 10 69 19 
70 20 73 10 74 10 75 18 76 20 77 160 78 130 79 120 80 20 81 10 
82 40 83 160 84 10 85 10 86 10 87 10 88 20 89 125 90 145 91 200 
92 30 93 10 98 20 99 10 101 10 102 20 103 20 104 10 105 80 106 70 
107 25 108 20 109 10 111 10 114 10 115 120 116 60 117 80 118 305 119 100 
120 10 127 20 128 40 129 30 131 40 132 30 133 10 134 50 135 145 136 20 
144 20 145 560 146 50 147 30 148 740 149 25 150 15 157 10 158 15 159 360 
160 60 161 50 162 10 163 10 171 10 172 15 173 80 174 15 175 10 186 10 
187 45 188 999 189 110 190 10 
