Name: 4-CHLORO-1-PHENYLPYRAZOLE
MW: 178
Formula: C9H7ClN2
Synonym: MassBank: JP002015
Synonym: 4-CHLORO-1-PHENYLPYRAZOLE
Structure: 342D43484C4F524F2D312D5048454E594C505952415A4F4C452E6D6F6C0A20204368656D447261773033323531303038353432440A2031322031332020302020302020302020302020302020302020302020303939392056323030300A20202020302E3236393020202020302E3039313520202020302E30303030204E202020302020302020302020302020302020302020302020302020302020302020302020300A20202020302E3735333920202020302E3735383920202020302E30303030204E202020302020302020302020302020302020302020302020302020302020302020302020300A20202020312E3533383620202020302E3530343020202020302E303030302043202020302020302020302020302020302020302020302020302020302020302020302020300A20202020312E353338362020202D302E3332313020202020302E303030302043202020302020302020302020302020302020302020302020302020302020302020302020300A20202020302E373533392020202D302E3537363020202020302E303030302043202020302020302020302020302020302020302020302020302020302020302020302020300A2020202D302E3535363020202020302E3039313520202020302E303030302043202020302020302020302020302020302020302020302020302020302020302020302020300A2020202D302E393638352020202D302E3632333020202020302E303030302043202020302020302020302020302020302020302020302020302020302020302020302020300A2020202D312E373933352020202D302E3632333020202020302E303030302043202020302020302020302020302020302020302020302020302020302020302020302020300A2020202D322E3230363020202020302E3039313520202020302E303030302043202020302020302020302020302020302020302020302020302020302020302020302020300A2020202D312E3739333520202020302E3830353920202020302E303030302043202020302020302020302020302020302020302020302020302020302020302020302020300A2020202D302E3936383520202020302E3830353920202020302E303030302043202020302020302020302020302020302020302020302020302020302020302020302020300A20202020322E323036302020202D302E3830353920202020302E3030303020436C2020302020302020302020302020302020302020302020302020302020302020302020300A2020312020322020312020302020202020200A2020322020332020322020302020202020200A2020332020342020312020302020202020200A2020342020352020322020302020202020200A2020312020352020312020302020202020200A2020362020372020312020302020202020200A2020372020382020322020302020202020200A2020382020392020312020302020202020200A2020392031302020322020302020202020200A2031302031312020312020302020202020200A2020362031312020322020302020202020200A2020312020362020312020302020202020200A2020342031322020312020302020202020200A4D2020454E44
Contributor: SASAKI S, TOYOHASHI UNIV. OF TECH.
InstType: EI
InstName: MX-1303
IoniMethod: _ENERGY 50 eV
IonPolarity: pos
Date: 2010-10-09 19:48:36+02:00
Num Peaks: 60
26 24 27 94 28 83 36 2 37 33 38 104 39 190 40 3 41 14 47 37 
48 31 49 2 50 164 51 653 52 92 60 4 61 18 62 53 63 134 64 9 
65 57 66 19 73 26 74 10 75 68 76 72 77 851 78 8 86 16 87 14 
88 30 89 26 90 141 91 77 102 10 103 1 104 102 105 11 114 31 115 19 
116 220 117 90 118 77 123 2 124 64 125 15 126 22 142 9 143 199 144 90 
150 33 151 8 152 139 153 36 154 45 177 3 178 999 179 128 180 333 181 40 
