Name: PENTANEDIOIC ACID DIMETHYL ESTER
MW: 160
Formula: C7H12O4
Synonym: MassBank: JP001832
Synonym: PENTANEDIOIC ACID DIMETHYL ESTER
Synonym: DIMETHYL GLUTARATE
Structure: 50454E54414E4544494F494320414349442044494D455448594C2045535445522E6D6F6C0A20204368656D447261773038313231303034353632440A2031312031302020302020302020302020302020302020302020302020303939392056323030300A2020202D302E383235302020202D302E3335373220202020302E303030302043202020302020302020302020302020302020302020302020302020302020302020302020300A2020202D302E343132352020202D312E3037313720202020302E303030302043202020302020302020302020302020302020302020302020302020302020302020302020300A20202020302E343132352020202D312E3037313720202020302E303030302043202020302020302020302020302020302020302020302020302020302020302020302020300A20202020302E383235302020202D302E3335373220202020302E303030302043202020302020302020302020302020302020302020302020302020302020302020302020300A20202020312E363530302020202D302E3335373220202020302E303030302043202020302020302020302020302020302020302020302020302020302020302020302020300A2020202D302E3431323520202020302E3335373220202020302E30303030204F202020302020302020302020302020302020302020302020302020302020302020302020300A2020202D312E363530302020202D302E3335373220202020302E30303030204F202020302020302020302020302020302020302020302020302020302020302020302020300A20202020322E303632352020202D312E3037313720202020302E30303030204F202020302020302020302020302020302020302020302020302020302020302020302020300A20202020322E3036323520202020302E3335373220202020302E30303030204F202020302020302020302020302020302020302020302020302020302020302020302020300A2020202D322E303632352020202D312E3037313720202020302E303030302043202020302020302020302020302020302020302020302020302020302020302020302020300A20202020312E3635303020202020312E3037313720202020302E303030302043202020302020302020302020302020302020302020302020302020302020302020302020300A2020312020322020312020302020202020200A2020322020332020312020302020202020200A2020332020342020312020302020202020200A2020342020352020312020302020202020200A2020312020362020322020302020202020200A2020312020372020312020302020202020200A2020352020382020322020302020202020200A2020352020392020312020302020202020200A2020372031302020312020302020202020200A2020392031312020312020302020202020200A4D2020454E44
Contributor: TAJIMA S, GUNMA COLLEGE OF TECHNOLOGY
InstType: EI
InstName: HITACHI RMU-7M
IoniMethod: _ENERGY 70 eV
IonPolarity: pos
Date: 2010-10-09 19:48:36+02:00
Num Peaks: 39
15 267 27 77 28 27 29 81 31 30 39 96 40 22 41 216 42 241 43 164 
44 13 45 33 49 13 55 436 56 32 58 77 59 999 60 28 68 25 69 56 
70 26 71 12 72 59 73 12 74 108 85 52 87 213 88 17 97 87 99 15 
100 739 101 524 102 31 111 10 114 12 115 11 128 275 129 525 130 36 
