Name: DELTA-VALEROLACTAM
MW: 99
Formula: C5H9NO
Synonym: MassBank: JP008601
Synonym: DELTA-VALEROLACTAM
Synonym: 2-PIPERIDONE
Structure: 310A31390A44454C54412D56414C45524F4C414354414D2E6D6F6C0A20204368656D447261773032323131303134343232440A2020372020372020302020302020302020302020302020302020302020303939392056323030300A2020202D302E3431323520202020302E3030303020202020302E303030302043202020302020302020302020302020302020302020302020302020302020302020302020300A20202020302E303030302020202D302E3731343520202020302E303030302043202020302020302020302020302020302020302020302020302020302020302020302020300A20202020302E383235302020202D302E3731343520202020302E303030302043202020302020302020302020302020302020302020302020302020302020302020302020300A20202020312E3233373520202020302E3030303020202020302E303030302043202020302020302020302020302020302020302020302020302020302020302020302020300A20202020302E3832353020202020302E3731343520202020302E303030302043202020302020302020302020302020302020302020302020302020302020302020302020300A2020202D312E3233373520202020302E3030303020202020302E30303030204F202020302020302020302020302020302020302020302020302020302020302020302020300A20202020302E3030303020202020302E3731343520202020302E30303030204E202020302020302020302020302020302020302020302020302020302020302020302020300A2020312020322020312020302020202020200A2020322020332020312020302020202020200A2020332020342020312020302020202020200A2020342020352020312020302020202020200A2020312020362020322020302020202020200A2020312020372020312020302020202020200A2020352020372020312020302020202020200A4D2020454E44
Contributor: SODA AROMATIC CO., LTD.
InstType: EI
InstName: HITACHI M-80B
IoniMethod: _ENERGY 70 eV
IonPolarity: pos
Date: 2010-10-09 19:48:36+02:00
Num Peaks: 31
14 11 15 68 18 26 26 91 27 341 28 691 29 140 30 923 37 24 38 46 
39 289 40 71 41 660 42 780 43 733 44 51 50 17 51 17 52 22 53 32 
54 48 55 305 56 126 58 57 68 25 70 211 71 93 82 19 98 140 99 999 
100 61 
