Name: 4-METHYLTETRAHYDROPYRAN
MW: 100
Formula: C6H12O
Synonym: MassBank: JP009992
Synonym: 4-METHYLTETRAHYDROPYRAN
Structure: 310A31390A342D4D455448594C5445545241485944524F505952414E2E6D6F6C0A20204368656D447261773034323231303136323532440A2020372020372020302020302020302020302020302020302020302020303939392056323030300A20202020302E383235302020202D302E3731343520202020302E303030302043202020302020302020302020302020302020302020302020302020302020302020302020300A2020202D302E303030302020202D302E3731343520202020302E303030302043202020302020302020302020302020302020302020302020302020302020302020302020300A2020202D302E3431323520202020302E3030303020202020302E303030302043202020302020302020302020302020302020302020302020302020302020302020302020300A2020202D302E3030303020202020302E3731343520202020302E303030302043202020302020302020302020302020302020302020302020302020302020302020302020300A20202020302E3832353020202020302E3731343520202020302E303030302043202020302020302020302020302020302020302020302020302020302020302020302020300A20202020312E323337352020202D302E3030303020202020302E30303030204F202020302020302020302020302020302020302020302020302020302020302020302020300A2020202D312E3233373520202020302E3030303020202020302E303030302043202020302020302020302020302020302020302020302020302020302020302020302020300A2020312020322020312020302020202020200A2020322020332020312020302020202020200A2020332020342020312020302020202020200A2020342020352020312020302020202020200A2020352020362020312020302020202020200A2020312020362020312020302020202020200A2020332020372020312020302020202020200A4D2020454E44
Contributor: KURARAY CO., LTD.
InstType: EI
InstName: JEOL JMS-D-300
IoniMethod: _ENERGY 70 eV
IonPolarity: pos
Date: 2010-10-09 19:48:36+02:00
Num Peaks: 34
26 36 27 151 28 77 29 12 31 56 38 37 39 171 40 4 41 351 42 942 
43 258 44 5 45 250 50 34 51 12 53 6 54 71 55 999 56 135 57 11 
58 51 67 351 68 104 69 12 70 382 71 93 81 99 82 29 83 51 85 62 
99 910 100 71 101 49 104 27 
