Name: MassBank: JP007282
MW: 210
Formula: C12H18O3
Synonym: MassBank: JP007282
Synonym: (2S,3S)-4-BENZYLOXY-3-METHYLBUTAN-1,2-DIOL
Structure: 2832532C3353292D342D42454E5A594C4F58592D332D4D455448594C425554414E2D312C322D44494F4C2E6D6F6C0A20204368656D447261773130323030393232323632440A2031372031372020302020302020302020302020302020302020302020303939392056323030300A2020202D312E3738363220202020302E3236313520202020302E303030302043202020302020302020302020302020302020302020302020302020302020302020302020300A2020202D312E3037313720202020302E3637343020202020302E303030302043202020302020302020302020302020302020302020302020302020302020302020302020300A2020202D302E3335373220202020302E3236313520202020302E30303030204F202020302020302020302020302020302020302020302020302020302020302020302020300A20202020302E3335373220202020302E3637343020202020302E303030302043202020302020302020302020302020302020302020302020302020302020302020302020300A20202020312E3037313720202020302E3236313520202020302E303030302043202020302020302020302020302020302020302020302020302020302020302020302020300A20202020312E373836322020202D302E3135313020202020302E303030302043202020302020302020302020302020302020302020302020302020302020302020302020300A20202020322E353030362020202D302E3536333520202020302E303030302043202020302020302020302020302020302020302020302020302020302020302020302020300A20202020332E323135312020202D302E3135313020202020302E30303030204F202020302020302020302020302020302020302020302020302020302020302020302020300A2020202D322E3530303620202020302E3637343020202020302E303030302043202020302020302020302020302020302020302020302020302020302020302020302020300A2020202D332E3231353120202020302E3236313520202020302E303030302043202020302020302020302020302020302020302020302020302020302020302020302020300A2020202D332E323135312020202D302E3536333520202020302E303030302043202020302020302020302020302020302020302020302020302020302020302020302020300A2020202D322E353030362020202D302E3937363020202020302E303030302043202020302020302020302020302020302020302020302020302020302020302020302020300A2020202D312E373836322020202D302E3536333520202020302E303030302043202020302020302020302020302020302020302020302020302020302020302020302020300A20202020302E363539322020202D302E3435333020202020302E303030302048202020302020302020302020302020302020302020302020302020302020302020302020300A20202020312E3438343220202020302E3937363020202020302E303030302043202020302020302020302020302020302020302020302020302020302020302020302020300A20202020312E333733372020202D302E3836353520202020302E303030302048202020302020302020302020302020302020302020302020302020302020302020302020300A20202020322E3139383720202020302E3536333520202020302E30303030204F202020302020302020302020302020302020302020302020302020302020302020302020300A2020312020322020312020302020202020200A2020322020332020312020302020202020200A2020332020342020312020302020202020200A2020342020352020312020302020202020200A2020352020362020312020302020202020200A2020362020372020312020302020202020200A2020372020382020312020302020202020200A2020312020392020322020302020202020200A2020392031302020312020302020202020200A2031302031312020322020302020202020200A2031312031322020312020302020202020200A2031322031332020322020302020202020200A2031332020312020312020302020202020200A2020352031342020312020312020202020200A2020352031352020312020312020202020200A2020362031362020312020312020202020200A2020362031372020312020312020202020200A4D2020454E44
Contributor: ITO S, DEPT. OF CHEM., TOHOKU UNIV.
InstType: EI
InstName: HITACHI M-52
IoniMethod: _ENERGY 14 eV
IonPolarity: pos
Date: 2010-10-09 19:48:36+02:00
Num Peaks: 51
43 57 45 114 54 26 56 5 57 26 58 68 59 63 61 2 68 79 69 68 
70 39 71 11 72 22 79 92 84 134 85 8 86 35 87 224 88 22 91 999 
92 138 93 24 101 55 102 6 105 388 106 94 107 569 108 47 109 50 118 79 
119 37 120 22 121 57 122 26 131 61 132 3 133 26 143 31 147 31 148 3 
150 92 159 88 161 81 174 9 175 90 176 22 179 120 191 3 192 39 210 37 
211 28 
