Name: MassBank: JP009868
CAS: 6890-26-2
MW: 208
Formula: C11H12O4
Synonym: MassBank: JP009868
Synonym: 3,4-METHYLENEDIOXYBENZYL PROPIONATE
Structure: 332C342D4D455448594C454E4544494F585942454E5A594C2050524F50494F4E4154452E6D6F6C0A20204368656D447261773032323131303233303632440A2031352031362020302020302020302020302020302020302020302020303939392056323030300A20202020322E3036333720202020302E3431323520202020302E303030302043202020302020302020302020302020302020302020302020302020302020302020302020300A20202020322E3737383220202020302E3030303020202020302E303030302043202020302020302020302020302020302020302020302020302020302020302020302020300A20202020322E373738322020202D302E3832353020202020302E303030302043202020302020302020302020302020302020302020302020302020302020302020302020300A20202020322E3036333720202020312E3233373520202020302E30303030204F202020302020302020302020302020302020302020302020302020302020302020302020300A20202020312E3334393220202020302E3030303020202020302E30303030204F202020302020302020302020302020302020302020302020302020302020302020302020300A20202020302E3633343820202020302E3431323520202020302E303030302043202020302020302020302020302020302020302020302020302020302020302020302020300A2020202D302E3037393720202020302E3030303020202020302E303030302043202020302020302020302020302020302020302020302020302020302020302020302020300A2020202D302E3739343220202020302E3431323520202020302E303030302043202020302020302020302020302020302020302020302020302020302020302020302020300A2020202D312E3530383620202020302E3030303020202020302E303030302043202020302020302020302020302020302020302020302020302020302020302020302020300A2020202D312E353038362020202D302E3832353020202020302E303030302043202020302020302020302020302020302020302020302020302020302020302020302020300A2020202D302E373934322020202D312E3233373520202020302E303030302043202020302020302020302020302020302020302020302020302020302020302020302020300A2020202D302E303739372020202D302E3832353020202020302E303030302043202020302020302020302020302020302020302020302020302020302020302020302020300A2020202D322E373738322020202D302E3431323520202020302E303030302043202020302020302020302020302020302020302020302020302020302020302020302020300A2020202D322E3239333320202020302E3235343920202020302E30303030204F202020302020302020302020302020302020302020302020302020302020302020302020300A2020202D322E323933332020202D312E3037393920202020302E30303030204F202020302020302020302020302020302020302020302020302020302020302020302020300A2020312020322020312020302020202020200A2020322020332020312020302020202020200A2020312020342020322020302020202020200A2020312020352020312020302020202020200A2020362020372020312020302020202020200A2020372020382020312020302020202020200A2020382020392020322020302020202020200A2020392031302020312020302020202020200A2031302031312020322020302020202020200A2031312031322020312020302020202020200A2020372031322020322020302020202020200A2031332031342020312020302020202020200A2031332031352020312020302020202020200A2020392031342020312020302020202020200A2031302031352020312020302020202020200A2020352020362020312020302020202020200A4D2020454E44
Contributor: KURARAY CO., LTD.
InstType: EI
InstName: JEOL JMS-D-300
IoniMethod: _ENERGY 70 eV
IonPolarity: pos
Date: 2010-10-09 19:48:36+02:00
Num Peaks: 31
27 12 29 89 39 28 50 16 51 100 57 100 63 40 65 72 67 22 76 65 
77 143 78 15 79 12 91 12 93 74 104 62 105 68 121 52 122 82 123 50 
134 380 135 999 136 100 149 80 150 142 151 65 152 665 153 58 180 18 208 600 
209 67 
