Name: ISOBUTYL PARA HYDROXY BENZOATE
MW: 194
Formula: C11H14O3
Synonym: MassBank: JP000077
Synonym: ISOBUTYL PARA HYDROXY BENZOATE
Structure: 49534F425554594C205041524120485944524F58592042454E5A4F4154452E6D6F6C0A20204368656D447261773038313131303231313132440A2031342031342020302020302020302020302020302020302020302020303939392056323030300A2020202D302E3030303020202020302E3431323520202020302E303030302043202020302020302020302020302020302020302020302020302020302020302020302020300A20202020302E373134352020202D302E3030303020202020302E303030302043202020302020302020302020302020302020302020302020302020302020302020302020300A20202020312E3432383920202020302E3431323520202020302E303030302043202020302020302020302020302020302020302020302020302020302020302020302020300A20202020322E3134333420202020302E3030303020202020302E303030302043202020302020302020302020302020302020302020302020302020302020302020302020300A20202020322E313433342020202D302E3832353020202020302E303030302043202020302020302020302020302020302020302020302020302020302020302020302020300A20202020312E343238392020202D312E3233373520202020302E303030302043202020302020302020302020302020302020302020302020302020302020302020302020300A20202020302E373134352020202D302E3832353020202020302E303030302043202020302020302020302020302020302020302020302020302020302020302020302020300A2020202D302E3030303020202020312E3233373520202020302E30303030204F202020302020302020302020302020302020302020302020302020302020302020302020300A2020202D302E373134352020202D302E3030303020202020302E30303030204F202020302020302020302020302020302020302020302020302020302020302020302020300A20202020322E383537392020202D312E3233373520202020302E30303030204F202020302020302020302020302020302020302020302020302020302020302020302020300A2020202D312E3432383920202020302E3431323520202020302E303030302043202020302020302020302020302020302020302020302020302020302020302020302020300A2020202D322E313433342020202D302E3030303020202020302E303030302043202020302020302020302020302020302020302020302020302020302020302020302020300A2020202D322E313433342020202D302E3832353020202020302E303030302043202020302020302020302020302020302020302020302020302020302020302020302020300A2020202D322E3835373920202020302E3431323520202020302E303030302043202020302020302020302020302020302020302020302020302020302020302020302020300A2020312020322020312020302020202020200A2020322020332020312020302020202020200A2020332020342020322020302020202020200A2020342020352020312020302020202020200A2020352020362020322020302020202020200A2020362020372020312020302020202020200A2020322020372020322020302020202020200A2020312020382020322020302020202020200A2020312020392020312020302020202020200A2020352031302020312020302020202020200A2031312031322020312020302020202020200A2031322031332020312020302020202020200A2031322031342020312020302020202020200A2020392031312020312020302020202020200A4D2020454E44
Contributor: TAJIMA S, GUNMA COLLEGE OF TECHNOLOGY
InstType: EI
InstName: HITACHI RMU-7M
IoniMethod: _ENERGY 70 eV
IonPolarity: pos
Date: 2010-10-09 19:48:36+02:00
Num Peaks: 20
27 48 29 32 39 127 41 64 43 33 59 30 63 30 64 24 65 190 66 24 
92 18 93 195 94 39 95 14 120 13 121 999 122 99 123 13 138 480 139 69 
