Name: MassBank: JP007840
MW: 160
Formula: C12H16
Synonym: MassBank: JP007840
Synonym: 1,4,7-TRIMETHYLINDAN
Structure: 312C342C372D5452494D455448594C494E44414E2E6D6F6C0A20204368656D447261773131313430393232303432440A2031322031332020302020302020302020302020302020302020302020303939392056323030300A2020202D302E3836343320202020302E3636373420202020302E303030302043202020302020302020302020302020302020302020302020302020302020302020302020300A2020202D312E3334393220202020302E3030303020202020302E303030302043202020302020302020302020302020302020302020302020302020302020302020302020300A2020202D302E383634332020202D302E3636373420202020302E303030302043202020302020302020302020302020302020302020302020302020302020302020302020300A2020202D302E303739372020202D302E3431323520202020302E303030302043202020302020302020302020302020302020302020302020302020302020302020302020300A20202020302E363334382020202D302E3832353020202020302E303030302043202020302020302020302020302020302020302020302020302020302020302020302020300A20202020312E333439322020202D302E3431323520202020302E303030302043202020302020302020302020302020302020302020302020302020302020302020302020300A20202020312E3334393220202020302E3431323520202020302E303030302043202020302020302020302020302020302020302020302020302020302020302020302020300A20202020302E3633343820202020302E3832353020202020302E303030302043202020302020302020302020302020302020302020302020302020302020302020302020300A2020202D302E3037393720202020302E3431323520202020302E303030302043202020302020302020302020302020302020302020302020302020302020302020302020300A20202020302E3633343820202020312E3635303020202020302E303030302043202020302020302020302020302020302020302020302020302020302020302020302020300A20202020302E363334382020202D312E3635303020202020302E303030302043202020302020302020302020302020302020302020302020302020302020302020302020300A2020202D312E3131393320202020312E3435323120202020302E303030302043202020302020302020302020302020302020302020302020302020302020302020302020300A2020312020322020312020302020202020200A2020322020332020312020302020202020200A2020332020342020312020302020202020200A2020342020352020312020302020202020200A2020352020362020322020302020202020200A2020362020372020312020302020202020200A2020372020382020322020302020202020200A2020382020392020312020302020202020200A2020312020392020312020302020202020200A2020342020392020322020302020202020200A2020382031302020312020302020202020200A2020352031312020312020302020202020200A2020312031322020312020302020202020200A4D2020454E44
Contributor: HASHIMOTO K, KYOTO COLLEGE OF PHARMACY
InstType: EI
InstName: HITACHI M-80
IoniMethod: _ENERGY 20 eV
IonPolarity: pos
Date: 2010-10-09 19:48:36+02:00
Num Peaks: 21
15 30 27 82 29 18 39 71 41 25 51 51 53 24 63 33 65 32 77 43 
79 14 91 44 103 14 105 38 115 94 128 109 129 91 145 999 159 20 160 201 
161 25 
