Name: PARA-ANISIDINE
MW: 123
Formula: C7H9NO
Synonym: MassBank: JP002294
Synonym: PARA-ANISIDINE
Synonym: 4-METHOXYANILINE
Structure: 310A32330A504152412D414E49534944494E452E6D6F6C0A20204368656D447261773034323031303137313732440A2020392020392020302020302020302020302020302020302020302020303939392056323030300A20202020312E383536332020202D302E3030303020202020302E30303030204E202020302020302020302020302020302020302020302020302020302020302020302020300A20202020312E303331332020202D302E3030303020202020302E303030302043202020302020302020302020302020302020302020302020302020302020302020302020300A20202020302E363138372020202D302E3731343520202020302E303030302043202020302020302020302020302020302020302020302020302020302020302020302020300A2020202D302E323036322020202D302E3731343520202020302E303030302043202020302020302020302020302020302020302020302020302020302020302020302020300A2020202D302E3631383820202020302E3030303020202020302E303030302043202020302020302020302020302020302020302020302020302020302020302020302020300A2020202D302E3230363320202020302E3731343520202020302E303030302043202020302020302020302020302020302020302020302020302020302020302020302020300A20202020302E3631383820202020302E3731343520202020302E303030302043202020302020302020302020302020302020302020302020302020302020302020302020300A2020202D312E3434333820202020302E3030303020202020302E30303030204F202020302020302020302020302020302020302020302020302020302020302020302020300A2020202D312E3835363320202020302E3731343520202020302E303030302043202020302020302020302020302020302020302020302020302020302020302020302020300A2020312020322020312020302020202020200A2020322020332020312020302020202020200A2020332020342020322020302020202020200A2020342020352020312020302020202020200A2020352020362020322020302020202020200A2020362020372020312020302020202020200A2020322020372020322020302020202020200A2020382020392020312020302020202020200A2020352020382020312020302020202020200A4D2020454E44
Contributor: MASS SPECTROSCOPY SOC. OF JAPAN (MSSJ)
InstType: EI
InstName: JEOL JMS-D-3000
IoniMethod: _ENERGY 70 eV
IonPolarity: pos
Date: 2010-10-09 19:48:36+02:00
Num Peaks: 30
42 13 47 18 50 30 51 51 52 171 53 203 54 46 61 49 62 22 63 46 
64 36 65 97 66 23 67 11 77 26 78 18 79 35 80 321 81 29 91 10 
92 47 95 28 106 12 107 76 108 999 109 86 120 74 122 36 123 764 124 67 
