Name: LIBRIUM
MW: 299
Formula: C16H14ClN3O
Synonym: MassBank: JP003835
Synonym: LIBRIUM
Synonym: CHLORDIAZEPOXIDE
Structure: 4C49425249554D2E6D6F6C0A20204368656D447261773038313131303232313532440A2032312032332020302020302020302020302020302020302020302020303939392056323030300A2020202D312E3136333820202020302E3838323020202020302E30303030204F202020302020352020302020302020302020302020302020302020302020302020302020300A2020202D302E3334383020202020302E3735393020202020302E30303030204E202020302020332020302020302020302020302020302020302020302020302020302020300A20202020302E3131363720202020312E3434303720202020302E303030302043202020302020302020302020302020302020302020302020302020302020302020302020300A20202020302E3932383320202020312E3439313620202020302E303030302043202020302020302020302020302020302020302020302020302020302020302020302020300A20202020312E3234303820202020322E3237303320202020302E30303030204E202020302020302020302020302020302020302020302020302020302020302020302020300A20202020322E3035363620202020322E3339333220202020302E303030302043202020302020302020302020302020302020302020302020302020302020302020302020300A20202020312E3531313620202020302E3930383220202020302E30303030204E202020302020302020302020302020302020302020302020302020302020302020302020300A2020202D302E313135362020202D302E3031383220202020302E303030302043202020302020302020302020302020302020302020302020302020302020302020302020300A20202020302E363633312020202D302E3333303720202020302E303030302043202020302020302020302020302020302020302020302020302020302020302020302020300A20202020312E3337373620202020302E3038313820202020302E303030302043202020302020302020302020302020302020302020302020302020302020302020302020300A20202020322E303932302020202D302E3333303720202020302E303030302043202020302020302020302020302020302020302020302020302020302020302020302020300A20202020322E303932302020202D312E3135353720202020302E303030302043202020302020302020302020302020302020302020302020302020302020302020302020300A20202020312E333737362020202D312E3536383220202020302E303030302043202020302020302020302020302020302020302020302020302020302020302020302020300A20202020312E333737362020202D322E3339333220202020302E3030303020436C2020302020302020302020302020302020302020302020302020302020302020302020300A20202020302E363633312020202D312E3135353720202020302E303030302043202020302020302020302020302020302020302020302020302020302020302020302020300A2020202D302E363938392020202D302E3630313620202020302E303030302043202020302020302020302020302020302020302020302020302020302020302020302020300A2020202D302E353336382020202D312E3338333720202020302E303030302043202020302020302020302020302020302020302020302020302020302020302020302020300A2020202D312E313230312020202D312E3936373020202020302E303030302043202020302020302020302020302020302020302020302020302020302020302020302020300A2020202D312E393139322020202D312E3731323820202020302E303030302043202020302020302020302020302020302020302020302020302020302020302020302020300A2020202D322E303932302020202D302E3931393620202020302E303030302043202020302020302020302020302020302020302020302020302020302020302020302020300A2020202D312E353038372020202D302E3333363220202020302E303030302043202020302020302020302020302020302020302020302020302020302020302020302020300A2020312020322020312020302020202020200A2020322020332020312020302020202020200A2020332020342020312020302020202020200A2020342020352020312020302020202020200A2020352020362020312020302020202020200A2020342020372020322020302020202020200A2020322020382020322020302020202020200A2020382020392020312020302020202020200A2020392031302020322020302020202020200A2020372031302020312020302020202020200A2031302031312020312020302020202020200A2031312031322020322020302020202020200A2031322031332020312020302020202020200A2031332031342020312020302020202020200A2031332031352020322020302020202020200A2020392031352020312020302020202020200A2020382031362020312020302020202020200A2031362031372020322020302020202020200A2031372031382020312020302020202020200A2031382031392020322020302020202020200A2031392032302020312020302020202020200A2032302032312020322020302020202020200A2031362032312020312020302020202020200A4D20204348472020322020203120202D3120202032202020310A4D2020454E44
Contributor: SASAKI S, TOYOHASHI UNIV. OF TECH.
InstType: EI
InstName: Unknown
IoniMethod: _ENERGY 70 eV
IonPolarity: pos
Date: 2010-10-09 19:48:36+02:00
Num Peaks: 241
36 49 37 9 38 29 39 9 40 89 41 189 42 109 43 8 44 149 45 19 
49 9 50 4 51 109 52 29 53 19 54 6 55 124 56 199 57 79 58 5 
59 19 60 29 61 9 62 3 63 69 64 29 65 59 66 2 67 29 68 29 
69 49 70 3 71 29 72 9 73 29 74 3 75 99 76 79 77 229 78 4 
79 29 80 19 81 39 82 5 83 39 84 19 85 19 86 2 87 29 88 49 
89 109 90 5 91 189 92 29 93 29 94 2 95 29 96 39 97 39 98 3 
99 29 100 39 101 34 102 7 103 69 104 49 105 69 106 3 107 19 108 19 
109 49 110 5 111 49 112 29 113 29 114 4 115 39 116 49 117 49 118 6 
119 19 120 39 121 29 122 2 123 39 124 109 125 39 126 5 127 39 128 29 
129 29 130 2 131 19 132 29 133 9 134 2 135 19 136 29 137 29 138 5 
139 39 140 29 141 29 142 3 143 29 144 19 145 19 146 1 147 19 148 9 
149 109 150 6 151 99 152 69 153 39 154 2 155 9 156 9 157 9 158 1 
159 9 160 9 161 9 162 3 163 99 164 79 165 109 166 4 167 29 168 19 
169 14 170 1 171 19 172 9 173 9 174 1 175 19 176 39 177 79 178 6 
179 79 180 49 181 29 182 1 186 19 187 19 188 29 189 3 190 69 191 49 
192 39 193 5 194 29 195 19 196 9 197 1 198 9 199 39 200 19 201 3 
202 19 203 39 204 39 205 10 206 49 207 29 208 19 209 1 210 9 211 9 
212 9 213 3 214 59 215 39 216 49 217 4 218 99 219 109 220 119 221 4 
222 19 223 19 224 19 226 3 227 69 228 29 229 49 230 3 231 19 232 29 
233 29 234 2 235 14 236 9 237 9 238 2 239 69 240 49 241 169 242 7 
243 69 244 39 245 19 246 5 247 119 248 49 249 9 251 2 252 59 253 129 
254 74 255 9 256 39 257 39 258 19 259 2 264 19 265 19 266 39 267 5 
268 59 269 49 270 39 271 2 272 9 273 9 279 9 280 5 281 39 282 999 
283 719 284 44 285 239 286 49 287 9 298 9 299 349 300 99 301 129 302 3 
303 9 
