Name: PROPIONITRILE
MW: 55
Formula: C3H5N
Synonym: MassBank: JP004000
Synonym: PROPIONITRILE
Structure: 310A31320A50524F50494F4E495452494C452E6D6F6C0A20204368656D447261773038313231303036303732440A2020342020332020302020302020302020302020302020302020302020303939392056323030300A2020202D302E323036322020202D302E3335373220202020302E303030302043202020302020302020302020302020302020302020302020302020302020302020302020300A20202020302E363138382020202D302E3335373220202020302E303030302043202020302020302020302020302020302020302020302020302020302020302020302020300A20202020312E3033313320202020302E3335373220202020302E303030302043202020302020302020302020302020302020302020302020302020302020302020302020300A2020202D312E303331332020202D302E3335373220202020302E30303030204E202020302020302020302020302020302020302020302020302020302020302020302020300A2020312020322020312020302020202020200A2020322020332020312020302020202020200A2020312020342020332020302020202020200A4D2020454E44
Contributor: MASS SPECTROSCOPY SOC. OF JAPAN (MSSJ)
InstType: EI
InstName: HITACHI RMU-6L
IoniMethod: _ENERGY 70 eV
IonPolarity: pos
Date: 2010-10-09 19:48:36+02:00
Num Peaks: 19
12 15 13 13 14 21 15 8 25 122 26 208 27 185 28 999 29 22 37 15 
38 22 39 2 40 41 50 18 51 83 52 11 53 75 54 627 55 103 
