Name: MassBank: JP006630
MW: 276
Formula: C19H20N2
Synonym: MassBank: JP006630
Synonym: 2-BENZYL-8-METHYL-1,2,3,4-TETRAHYDRO-GAMMA-CARBOLINE
Structure: 322D42454E5A594C2D382D4D455448594C2D312C322C332C342D5445545241485944524F2D47414D4D412D434152424F4C494E452E6D6F6C0A20204368656D447261773132323130393232343332440A2032312032342020302020302020302020302020302020302020302020303939392056323030300A2020202D332E3233323720202020302E3438333820202020302E303030302043202020302020302020302020302020302020302020302020302020302020302020302020300A2020202D332E323332372020202D302E3334313220202020302E303030302043202020302020302020302020302020302020302020302020302020302020302020302020300A2020202D322E353138322020202D302E3735333720202020302E303030302043202020302020302020302020302020302020302020302020302020302020302020302020300A2020202D312E383033372020202D302E3334313220202020302E303030302043202020302020302020302020302020302020302020302020302020302020302020302020300A2020202D312E3830333720202020302E3438333820202020302E303030302043202020302020302020302020302020302020302020302020302020302020302020302020300A2020202D322E3531383220202020302E3839363320202020302E303030302043202020302020302020302020302020302020302020302020302020302020302020302020300A2020202D312E303139312020202D302E3539363120202020302E30303030204E202020302020302020302020302020302020302020302020302020302020302020302020300A2020202D302E3533343220202020302E3037313320202020302E303030302043202020302020302020302020302020302020302020302020302020302020302020302020300A2020202D312E3031393120202020302E3733383820202020302E303030302043202020302020302020302020302020302020302020302020302020302020302020302020300A20202020302E3238363320202020302E3135373620202020302E303030302043202020302020302020302020302020302020302020302020302020302020302020302020300A20202020302E3632313920202020302E3931313220202020302E303030302043202020302020302020302020302020302020302020302020302020302020302020302020300A20202020302E3133363920202020312E3537383720202020302E30303030204E202020302020302020302020302020302020302020302020302020302020302020302020300A2020202D302E3638333520202020312E3439323420202020302E303030302043202020302020302020302020302020302020302020302020302020302020302020302020300A2020202D322E353138322020202D312E3537383720202020302E303030302043202020302020302020302020302020302020302020302020302020302020302020302020300A20202020312E3434323320202020302E3939373520202020302E303030302043202020302020302020302020302020302020302020302020302020302020302020302020300A20202020312E3932373320202020302E3333303020202020302E303030302043202020302020302020302020302020302020302020302020302020302020302020302020300A20202020312E353931372020202D302E3432333620202020302E303030302043202020302020302020302020302020302020302020302020302020302020302020302020300A20202020322E303736362020202D312E3039313120202020302E303030302043202020302020302020302020302020302020302020302020302020302020302020302020300A20202020322E383937312020202D312E3030343820202020302E303030302043202020302020302020302020302020302020302020302020302020302020302020302020300A20202020332E323332372020202D302E3235313220202020302E303030302043202020302020302020302020302020302020302020302020302020302020302020302020300A20202020322E3734373720202020302E3431363320202020302E303030302043202020302020302020302020302020302020302020302020302020302020302020302020300A2020312020322020322020302020202020200A2020322020332020312020302020202020200A2020332020342020322020302020202020200A2020342020352020312020302020202020200A2020352020362020322020302020202020200A2020362020312020312020302020202020200A2020342020372020312020302020202020200A2020372020382020312020302020202020200A2020382020392020322020302020202020200A2020392020352020312020302020202020200A2020382031302020312020302020202020200A2031302031312020312020302020202020200A2031312031322020312020302020202020200A2031322031332020312020302020202020200A2031332020392020312020302020202020200A2020332031342020312020302020202020200A2031312031352020312020302020202020200A2031352031362020312020302020202020200A2031362031372020322020302020202020200A2031372031382020312020302020202020200A2031382031392020322020302020202020200A2031392032302020312020302020202020200A2032302032312020322020302020202020200A2032312031362020312020302020202020200A4D2020454E44
Contributor: SASAKI S, TOYOHASHI UNIV. OF TECH.
InstType: EI
InstName: JEOL JMS-01-SG-2
IoniMethod: _ENERGY 75 eV
IonPolarity: pos
Date: 2010-10-09 19:48:36+02:00
Num Peaks: 14
42 31 43 10 77 11 91 15 115 17 128 12 142 31 156 7 157 999 158 79 
183 11 185 1 275 30 276 62 
