Name: MassBank: JP000359
MW: 152
Formula: C10H16O
Synonym: MassBank: JP000359
Synonym: D-LIMONENE 1,2-EPOXIDE
Structure: 442D4C494D4F4E454E4520312C322D45504F584944452E6D6F6C0A20204368656D447261773039323031303039323832440A2031312031322020302020302020302020302020302020302020302020303939392056323030300A20202020312E3830313020202020302E3431323520202020302E303030302043202020302020302020302020302020302020302020302020302020302020302020302020300A20202020312E3038363520202020302E3030303020202020302E303030302043202020302020302020302020302020302020302020302020302020302020302020302020300A20202020302E363734302020202D302E3731343520202020302E303030302043202020302020302020302020302020302020302020302020302020302020302020302020300A2020202D302E313531302020202D302E3731343520202020302E303030302043202020302020302020302020302020302020302020302020302020302020302020302020300A2020202D302E3536333520202020302E3030303020202020302E303030302043202020302020302020302020302020302020302020302020302020302020302020302020300A2020202D312E3338383520202020302E3030303020202020302E303030302043202020302020302020302020302020302020302020302020302020302020302020302020300A2020202D312E3830313020202020302E3731343520202020302E303030302043202020302020302020302020302020302020302020302020302020302020302020302020300A2020202D312E383031302020202D302E3731343520202020302E303030302043202020302020302020302020302020302020302020302020302020302020302020302020300A2020202D302E3135313020202020302E3731343520202020302E303030302043202020302020302020302020302020302020302020302020302020302020302020302020300A20202020302E3637343020202020302E3731343520202020302E303030302043202020302020302020302020302020302020302020302020302020302020302020302020300A20202020312E343939302020202D302E3731343520202020302E30303030204F202020302020302020302020302020302020302020302020302020302020302020302020300A2020312020322020312020302020202020200A2020332020342020312020302020202020200A2020342020352020312020302020202020200A2020352020362020312020302020202020200A2020362020372020322020302020202020200A2020362020382020312020302020202020200A2020352020392020312020302020202020200A2020392031302020312020302020202020200A2020322031302020312020302020202020200A2020322020332020312020302020202020200A2020322031312020312020302020202020200A2020332031312020312020302020202020200A4D2020454E44
Contributor: SASAKI S, TOYOHASHI UNIV. OF TECH.
InstType: EI
InstName: HITACHI RMU-6D
IoniMethod: _ENERGY 70 eV
IonPolarity: pos
Date: 2010-10-09 19:48:36+02:00
Num Peaks: 85
15 270 17 10 18 160 26 9 27 550 28 320 29 550 30 2 31 100 37 20 
39 680 40 41 41 750 42 400 43 999 44 57 45 290 50 160 51 400 52 26 
53 600 54 410 55 860 56 39 57 190 58 180 59 130 62 4 63 150 64 40 
65 420 66 29 67 910 68 610 69 710 70 14 71 640 72 110 74 10 75 1 
77 530 78 210 79 850 80 39 81 690 82 640 83 520 84 53 85 50 88 10 
91 600 92 38 93 860 94 880 95 880 96 28 97 310 98 10 102 10 103 5 
104 20 105 340 106 170 107 46 108 870 109 970 110 450 111 17 115 20 117 50 
120 610 121 8 122 610 123 250 124 20 129 5 133 20 134 260 135 40 136 4 
137 780 138 140 151 20 152 33 153 30 
