Name: MassBank: JP003966
MW: 118
Formula: C6H14O2
Synonym: MassBank: JP003966
Synonym: 1,3-DIMETHOXYBUTANE
Structure: 310A32300A312C332D44494D4554484F5859425554414E452E6D6F6C0A20204368656D447261773131313130393232313932440A2020382020372020302020302020302020302020302020302020302020303939392056323030300A20202020302E363138382020202D302E3731343520202020302E303030302043202020302020302020302020302020302020302020302020302020302020302020302020300A2020202D302E323036322020202D302E3731343520202020302E303030302043202020302020302020302020302020302020302020302020302020302020302020302020300A2020202D302E3631383820202020302E3030303020202020302E303030302043202020302020302020302020302020302020302020302020302020302020302020302020300A2020202D302E3230363220202020302E3731343520202020302E303030302043202020302020302020302020302020302020302020302020302020302020302020302020300A2020202D312E3434333720202020302E3030303020202020302E30303030204F202020302020302020302020302020302020302020302020302020302020302020302020300A2020202D312E383536332020202D302E3731343520202020302E303030302043202020302020302020302020302020302020302020302020302020302020302020302020300A20202020312E3033313320202020302E3030303020202020302E30303030204F202020302020302020302020302020302020302020302020302020302020302020302020300A20202020312E3835363320202020302E3030303020202020302E303030302043202020302020302020302020302020302020302020302020302020302020302020302020300A2020312020322020312020302020202020200A2020322020332020312020302020202020200A2020332020342020312020302020202020200A2020352020362020312020302020202020200A2020332020352020312020302020202020200A2020372020382020312020302020202020200A2020312020372020312020302020202020200A4D2020454E44
Contributor: SASAKI S, TOYOHASHI UNIV. OF TECH.
InstType: EI
InstName: Unknown
IoniMethod: EI
IonPolarity: pos
Date: 2010-10-09 19:48:36+02:00
Num Peaks: 27
39 79 41 184 42 55 43 17 45 1000 46 30 51 9 53 3 54 20 55 114 
56 54 57 3 58 75 59 999 60 48 61 1 64 11 69 6 71 355 72 2 
73 38 75 22 85 28 86 41 87 39 88 30 103 46 
