Name: 3-NITROPHTHALIC ACID DIMETHYL ESTER
MW: 239
Formula: C10H9NO6
Synonym: MassBank: JP004249
Synonym: 3-NITROPHTHALIC ACID DIMETHYL ESTER
Structure: 332D4E4954524F50485448414C494320414349442044494D455448594C2045535445522E6D6F6C0A20204368656D447261773033323331303034303932440A2031372031372020302020302020302020302020302020302020302020303939392056323030300A2020202D302E323036322020202D312E3037313720202020302E303030302043202020302020302020302020302020302020302020302020302020302020302020302020300A2020202D302E363138372020202D302E3335373220202020302E303030302043202020302020302020302020302020302020302020302020302020302020302020302020300A2020202D302E3230363220202020302E3335373220202020302E303030302043202020302020302020302020302020302020302020302020302020302020302020302020300A20202020302E3631383820202020302E3335373220202020302E303030302043202020302020302020302020302020302020302020302020302020302020302020302020300A2020202D302E3631383720202020312E3037313720202020302E303030302043202020302020302020302020302020302020302020302020302020302020302020302020300A2020202D312E3434333720202020312E3037313720202020302E303030302043202020302020302020302020302020302020302020302020302020302020302020302020300A2020202D312E3835363320202020302E3335373220202020302E303030302043202020302020302020302020302020302020302020302020302020302020302020302020300A2020202D312E343433382020202D302E3335373220202020302E303030302043202020302020302020302020302020302020302020302020302020302020302020302020300A20202020302E363138382020202D312E3037313720202020302E30303030204F202020302020302020302020302020302020302020302020302020302020302020302020300A2020202D302E363138372020202D312E3738363220202020302E30303030204F202020302020302020302020302020302020302020302020302020302020302020302020300A20202020312E303331332020202D302E3335373220202020302E30303030204F202020302020302020302020302020302020302020302020302020302020302020302020300A20202020312E3033313320202020312E3037313720202020302E30303030204F202020302020302020302020302020302020302020302020302020302020302020302020300A2020202D302E3230363220202020312E3738363220202020302E30303030204E202020302020332020302020302020302020302020302020302020302020302020302020300A20202020302E3631383820202020312E3738363220202020302E30303030204F202020302020302020302020302020302020302020302020302020302020302020302020300A2020202D302E3631383720202020322E3530303620202020302E30303030204F202020302020352020302020302020302020302020302020302020302020302020302020300A2020202D302E323036322020202D322E3530303620202020302E303030302043202020302020302020302020302020302020302020302020302020302020302020302020300A20202020312E3835363320202020312E3037313720202020302E303030302043202020302020302020302020302020302020302020302020302020302020302020302020300A2020312020322020312020302020202020200A2020322020332020312020302020202020200A2020332020342020312020302020202020200A2020332020352020322020302020202020200A2020352020362020312020302020202020200A2020362020372020322020302020202020200A2020372020382020312020302020202020200A2020322020382020322020302020202020200A2020312020392020322020302020202020200A2020312031302020312020302020202020200A2020342031312020322020302020202020200A2020342031322020312020302020202020200A2031332031342020322020302020202020200A2031332031352020312020302020202020200A2020352031332020312020302020202020200A2031302031362020312020302020202020200A2031322031372020312020302020202020200A4D202043484720203220203133202020312020313520202D310A4D2020454E44
Contributor: KOGA M, UNIV. OF OCCUPATIONAL AND ENVIRONMENTAL HEALTH
InstType: EI
InstName: JEOL JMS-01-SG
IoniMethod: _ENERGY 70 eV
IonPolarity: pos
Date: 2010-10-09 19:48:36+02:00
Num Peaks: 22
39 13 40 16 50 13 63 3 75 113 76 100 77 36 78 2 91 23 92 16 
103 23 104 27 105 56 119 53 120 50 132 7 135 16 150 13 177 23 208 999 
209 150 210 16 
