Name: PHTHALIC ANHYDRIDE
CAS: 85-44-9
MW: 148
Formula: C8H4O3
Synonym: MassBank: JP008255
Synonym: PHTHALIC ANHYDRIDE
Structure: 50485448414C494320414E485944524944452E6D6F6C0A20204368656D447261773038313231303035343432440A2031312031322020302020302020302020302020302020302020302020303939392056323030300A20202020302E363137352020202D302E3235343520202020302E303030302043202020302020302020302020302020302020302020302020302020302020302020302020300A20202020302E3030343420202020302E3239373520202020302E303030302043202020302020302020302020302020302020302020302020302020302020302020302020300A2020202D302E373130302020202D302E3131353020202020302E303030302043202020302020302020302020302020302020302020302020302020302020302020302020300A2020202D302E353338352020202D302E3932313920202020302E303030302043202020302020302020302020302020302020302020302020302020302020302020302020300A2020202D312E3432343520202020302E3239373520202020302E303030302043202020302020302020302020302020302020302020302020302020302020302020302020300A2020202D312E3432343520202020312E3132323520202020302E303030302043202020302020302020302020302020302020302020302020302020302020302020302020300A2020202D302E3731303020202020312E3533353020202020302E303030302043202020302020302020302020302020302020302020302020302020302020302020302020300A20202020302E3030343420202020312E3132323520202020302E303030302043202020302020302020302020302020302020302020302020302020302020302020302020300A20202020312E343234352020202D302E3038333020202020302E30303030204F202020302020302020302020302020302020302020302020302020302020302020302020300A2020202D312E303930352020202D312E3533353020202020302E30303030204F202020302020302020302020302020302020302020302020302020302020302020302020300A20202020302E323832302020202D312E3030383220202020302E30303030204F202020302020302020302020302020302020302020302020302020302020302020302020300A2020312020322020312020302020202020200A2020322020332020312020302020202020200A2020332020342020312020302020202020200A2020332020352020322020302020202020200A2020352020362020312020302020202020200A2020362020372020322020302020202020200A2020372020382020312020302020202020200A2020322020382020322020302020202020200A2020312020392020322020302020202020200A2020342031302020322020302020202020200A2020312031312020312020302020202020200A2020342031312020312020302020202020200A4D2020454E44
Contributor: UBE SCIENTIFIC ANALYSIS LABORATORY
InstType: EI
InstName: HITACHI M-60
IoniMethod: _ENERGY 70 eV
IonPolarity: pos
Date: 2010-10-09 19:48:36+02:00
Num Peaks: 22
28 13 37 142 38 289 39 31 44 17 49 64 50 513 51 40 52 102 53 19 
61 26 62 15 63 17 73 60 74 187 75 115 76 890 77 72 104 999 105 78 
148 351 149 33 
