Name: METHYL 3-UNDECENOATE
MW: 198
Formula: C12H22O2
Synonym: MassBank: JP005891
Synonym: METHYL 3-UNDECENOATE
Structure: 4D455448594C20332D554E444543454E4F4154452E6D6F6C0A20204368656D447261773038313131303233353232440A2031342031332020302020302020302020302020302020302020302020303939392056323030300A2020202D332E3231353120202020302E3230363220202020302E303030302043202020302020302020302020302020302020302020302020302020302020302020302020300A2020202D322E353030362020202D302E3230363220202020302E303030302043202020302020302020302020302020302020302020302020302020302020302020302020300A2020202D312E3738363220202020302E3230363220202020302E303030302043202020302020302020302020302020302020302020302020302020302020302020302020300A2020202D312E303731372020202D302E3230363220202020302E303030302043202020302020302020302020302020302020302020302020302020302020302020302020300A2020202D302E3335373220202020302E3230363220202020302E303030302043202020302020302020302020302020302020302020302020302020302020302020302020300A20202020302E333537322020202D302E3230363220202020302E303030302043202020302020302020302020302020302020302020302020302020302020302020302020300A20202020312E3037313720202020302E3230363320202020302E303030302043202020302020302020302020302020302020302020302020302020302020302020302020300A20202020312E373836322020202D302E3230363220202020302E303030302043202020302020302020302020302020302020302020302020302020302020302020302020300A20202020322E3530303620202020302E3230363320202020302E303030302043202020302020302020302020302020302020302020302020302020302020302020302020300A20202020332E323135312020202D302E3230363220202020302E303030302043202020302020302020302020302020302020302020302020302020302020302020302020300A20202020332E3932393620202020302E3230363320202020302E303030302043202020302020302020302020302020302020302020302020302020302020302020302020300A2020202D332E3231353120202020312E3033313320202020302E30303030204F202020302020302020302020302020302020302020302020302020302020302020302020300A2020202D332E393239362020202D302E3230363220202020302E30303030204F202020302020302020302020302020302020302020302020302020302020302020302020300A2020202D332E393239362020202D312E3033313320202020302E303030302043202020302020302020302020302020302020302020302020302020302020302020302020300A2020312020322020312020302020202020200A2020322020332020312020302020202020200A2020332020342020322020302020202020200A2020342020352020312020302020202020200A2020352020362020312020302020202020200A2020362020372020312020302020202020200A2020372020382020312020302020202020200A2020382020392020312020302020202020200A2020392031302020312020302020202020200A2031302031312020312020302020202020200A2020312031322020322020302020202020200A2020312031332020312020302020202020200A2031332031342020312020302020202020200A4D2020454E44
Contributor: YAMAMOTO M, DEP. CHEMISTRY, FAC. SCIENCE, NARA WOMEN'S UNIV.
InstType: EI
InstName: HITACHI RMU-6M
IoniMethod: _ENERGY 20 eV
IonPolarity: pos
Date: 2010-10-09 19:48:36+02:00
Num Peaks: 78
15 16 28 16 29 36 41 121 42 92 43 418 44 16 54 245 55 498 56 221 
57 157 58 12 59 213 66 12 67 129 68 281 69 506 70 117 71 165 72 96 
73 72 74 999 75 117 76 12 79 20 80 28 81 181 82 406 83 414 84 619 
85 181 86 16 87 303 88 48 93 12 94 48 95 149 96 566 97 193 98 273 
99 58 100 28 101 161 102 28 108 16 109 76 110 147 111 56 112 22 113 104 
114 285 115 185 116 28 119 36 122 96 123 169 124 859 125 193 126 16 127 68 
128 88 129 32 130 16 137 94 138 86 139 52 141 44 142 16 148 68 149 12 
151 12 165 32 176 438 177 96 178 12 179 18 198 183 199 32 
