Name: PIPERONYLIC ACID
CAS: 94-53-1
MW: 166
Formula: C8H6O4
Synonym: MassBank: JP008154
Synonym: PIPERONYLIC ACID
Structure: 50495045524F4E594C494320414349442E6D6F6C0A20204368656D447261773038313231303035353132440A2031322031332020302020302020302020302020302020302020302020303939392056323030300A2020202D312E343737392020202D302E3330363520202020302E303030302043202020302020302020302020302020302020302020302020302020302020302020302020300A2020202D302E363532392020202D302E3330363520202020302E303030302043202020302020302020302020302020302020302020302020302020302020302020302020300A2020202D302E3234303420202020302E3430373920202020302E303030302043202020302020302020302020302020302020302020302020302020302020302020302020300A20202020302E3538343620202020302E3430373920202020302E303030302043202020302020302020302020302020302020302020302020302020302020302020302020300A20202020312E3133363720202020312E3032313020202020302E30303030204F202020302020302020302020302020302020302020302020302020302020302020302020300A20202020312E3839303420202020302E3638353520202020302E303030302043202020302020302020302020302020302020302020302020302020302020302020302020300A20202020312E383034312020202D302E3133353020202020302E30303030204F202020302020302020302020302020302020302020302020302020302020302020302020300A20202020302E393937312020202D302E3330363520202020302E303030302043202020302020302020302020302020302020302020302020302020302020302020302020300A20202020302E353834362020202D312E3032313020202020302E303030302043202020302020302020302020302020302020302020302020302020302020302020302020300A2020202D302E323430342020202D312E3032313020202020302E303030302043202020302020302020302020302020302020302020302020302020302020302020302020300A2020202D312E383930342020202D312E3032313020202020302E30303030204F202020302020302020302020302020302020302020302020302020302020302020302020300A2020202D312E3839303420202020302E3430373920202020302E30303030204F202020302020302020302020302020302020302020302020302020302020302020302020300A2020312020322020312020302020202020200A2020322020332020312020302020202020200A2020332020342020322020302020202020200A2020342020352020312020302020202020200A2020352020362020312020302020202020200A2020362020372020312020302020202020200A2020342020382020312020302020202020200A2020372020382020312020302020202020200A2020382020392020322020302020202020200A2020392031302020312020302020202020200A2020322031302020322020302020202020200A2020312031312020322020302020202020200A2020312031322020312020302020202020200A4D2020454E44
Contributor: NARA WOMEN'S UNIVERSITY
InstType: EI
InstName: HITACHI M-80
IoniMethod: _ENERGY 70 eV
IonPolarity: pos
Date: 2010-10-09 19:48:36+02:00
Num Peaks: 45
26 10 27 13 28 38 29 50 37 30 38 50 39 72 40 10 41 18 42 10 
43 10 45 28 50 40 51 55 52 30 53 60 55 10 57 72 60 27 61 40 
62 105 63 218 64 30 65 120 66 10 69 58 74 90 79 20 80 10 81 35 
82 10 83 10 91 88 92 12 93 10 119 143 120 25 121 132 122 10 149 320 
150 40 165 940 166 999 167 95 168 15 
