Name: 2-METHYL-1-PROPANOL
MW: 74
Formula: C4H10O
Synonym: MassBank: JP000273
Synonym: 2-METHYL-1-PROPANOL
Synonym: ISO-BUTYL ALCOHOL
Structure: 310A31340A322D4D455448594C2D312D50524F50414E4F4C2E6D6F6C0A20204368656D447261773031323231303032353832440A2020352020342020302020302020302020302020302020302020302020303939392056323030300A2020202D302E333537322020202D302E3631383820202020302E303030302043202020302020302020302020302020302020302020302020302020302020302020302020300A20202020302E333537322020202D302E3230363220202020302E303030302043202020302020302020302020302020302020302020302020302020302020302020302020300A20202020302E3335373220202020302E3631383820202020302E303030302043202020302020302020302020302020302020302020302020302020302020302020302020300A2020202D312E303731372020202D302E3230363220202020302E30303030204F202020302020302020302020302020302020302020302020302020302020302020302020300A20202020312E303731372020202D302E3631383720202020302E303030302043202020302020302020302020302020302020302020302020302020302020302020302020300A2020312020322020312020302020202020200A2020322020332020312020302020202020200A2020312020342020312020302020202020200A2020322020352020312020302020202020200A4D2020454E44
Contributor: YAMAMOTO M, DEP. CHEMISTRY, FAC. SCIENCE, NARA WOMEN'S UNIV.
InstType: EI
InstName: HITACHI RMU-6M
IoniMethod: _ENERGY 70 eV
IonPolarity: pos
Date: 2010-10-09 19:48:36+02:00
Num Peaks: 24
15 33 26 30 27 353 28 5 29 111 31 526 32 15 33 59 37 15 38 29 
39 190 40 4 41 655 42 636 43 999 44 3 45 25 53 10 55 30 56 5 
57 32 59 38 73 22 74 140 
