Name: METHYL 2-O-METHYLFUCOPYRANOSIDE
MW: 192
Formula: C8H16O5
Synonym: MassBank: JP004536
Synonym: METHYL 2-O-METHYLFUCOPYRANOSIDE
Structure: 303836375F4D455448594C20322D4F2D4D455448594C4655434F505952414E4F534944452E6D6F6C0A20204368656D447261773039303631303230333032440A2031332031332020302020302020302020302020302020302020302020303939392056323030300A20202020312E3037313720202020302E3832353020202020302E30303030204F202020302020302020302020302020302020302020302020302020302020302020302020300A20202020302E3335373220202020302E3431323520202020302E303030302043202020302020302020302020302020302020302020302020302020302020302020302020300A20202020302E333537322020202D302E3431323520202020302E303030302043202020302020302020302020302020302020302020302020302020302020302020302020300A20202020312E303731372020202D302E3832353020202020302E30303030204F202020302020302020302020302020302020302020302020302020302020302020302020300A2020202D302E333537322020202D302E3832353020202020302E303030302043202020302020302020302020302020302020302020302020302020302020302020302020300A2020202D302E333537322020202D312E3635303020202020302E30303030204F202020302020302020302020302020302020302020302020302020302020302020302020300A2020202D312E303731372020202D302E3431323520202020302E303030302043202020302020302020302020302020302020302020302020302020302020302020302020300A2020202D312E373836312020202D302E3832353020202020302E30303030204F202020302020302020302020302020302020302020302020302020302020302020302020300A2020202D312E3037313720202020302E3431323520202020302E303030302043202020302020302020302020302020302020302020302020302020302020302020302020300A2020202D302E3335373220202020302E3832353020202020302E30303030204F202020302020302020302020302020302020302020302020302020302020302020302020300A2020202D312E3738363120202020302E3832353020202020302E303030302043202020302020302020302020302020302020302020302020302020302020302020302020300A20202020312E373836312020202D302E3431323520202020302E303030302043202020302020302020302020302020302020302020302020302020302020302020302020300A20202020312E3037313720202020312E3635303020202020302E303030302043202020302020302020302020302020302020302020302020302020302020302020302020300A2020322020312020312020362020202020200A2020322020332020312020302020202020200A2020332020342020312020362020202020200A2020332020352020312020302020202020200A2020352020362020312020312020202020200A2020352020372020312020302020202020200A2020372020382020312020312020202020200A2020372020392020312020302020202020200A2020392031302020312020302020202020200A2020392031312020312020312020202020200A2020322031302020312020302020202020200A2020342031322020312020302020202020200A2020312031332020312020302020202020200A4D2020454E44
Contributor: HAYASHI A, DEPT. OF CHEMISTRY, FAC. OF SCI. AND TECHNOLOGY, KINKI UNIV.
InstType: EI
InstName: SHIMADZU LKB-9000B
IoniMethod: _ENERGY 70 eV
IonPolarity: pos
Date: 2010-10-09 19:48:36+02:00
Num Peaks: 49
41 245 42 74 43 190 44 4 45 367 46 3 47 15 53 1 54 6 55 103 
56 33 57 11 58 390 59 304 60 18 61 4 68 73 69 168 70 44 71 29 
72 66 73 125 74 999 75 79 76 27 77 2 83 17 85 5 86 3 87 562 
88 225 89 3 97 12 98 3 99 39 100 8 101 159 102 14 105 3 114 2 
115 10 117 3 128 23 129 2 130 31 131 10 160 14 161 13 162 12 
