Name: MassBank: JP006271
CAS: 150-78-7
MW: 138
Formula: C8H10O2
Synonym: MassBank: JP006271
Synonym: 1,4-DIMETHOXYBENZENE
Synonym: HYDROXYQUINONE DIMETHYL ETHER
Structure: 312C342D44494D4554484F585942454E5A454E452E6D6F6C0A20204368656D447261773131313430393233303432440A2031302031302020302020302020302020302020302020302020302020303939392056323030300A2020202D302E3832353020202020302E3030303020202020302E303030302043202020302020302020302020302020302020302020302020302020302020302020302020300A2020202D302E3431323520202020302E3731343520202020302E303030302043202020302020302020302020302020302020302020302020302020302020302020302020300A20202020302E3431323520202020302E3731343520202020302E303030302043202020302020302020302020302020302020302020302020302020302020302020302020300A20202020302E383235302020202D302E3030303020202020302E303030302043202020302020302020302020302020302020302020302020302020302020302020302020300A20202020302E343132352020202D302E3731343520202020302E303030302043202020302020302020302020302020302020302020302020302020302020302020302020300A2020202D302E343132352020202D302E3731343520202020302E303030302043202020302020302020302020302020302020302020302020302020302020302020302020300A20202020312E363530302020202D302E3030303020202020302E30303030204F202020302020302020302020302020302020302020302020302020302020302020302020300A20202020322E303632352020202D302E3731343520202020302E303030302043202020302020302020302020302020302020302020302020302020302020302020302020300A2020202D312E3635303020202020302E3030303020202020302E30303030204F202020302020302020302020302020302020302020302020302020302020302020302020300A2020202D322E3036323520202020302E3731343520202020302E303030302043202020302020302020302020302020302020302020302020302020302020302020302020300A2020312020322020312020302020202020200A2020322020332020322020302020202020200A2020332020342020312020302020202020200A2020342020352020322020302020202020200A2020352020362020312020302020202020200A2020312020362020322020302020202020200A2020372020382020312020302020202020200A2020342020372020312020302020202020200A2020392031302020312020302020202020200A2020312020392020312020302020202020200A4D2020454E44
Contributor: MASS SPECTROSCOPY SOC. OF JAPAN (MSSJ)
InstType: EI
InstName: HITACHI M-80
IoniMethod: _ENERGY 70 eV
IonPolarity: pos
Date: 2010-10-09 19:48:36+02:00
Num Peaks: 45
15 142 26 46 27 16 29 37 30 11 39 80 41 153 49 7 50 52 51 79 
52 109 53 68 54 69 55 9 61 19 62 55 63 143 64 123 65 75 66 24 
67 18 69 16 74 23 75 16 76 11 77 57 78 9 79 44 80 70 81 7 
82 19 92 78 93 9 94 9 95 413 96 27 107 19 108 23 109 11 122 6 
123 999 124 77 125 7 138 718 139 64 
