Name: MassBank: JP004506
MW: 363
Formula: C16H29NO8
Synonym: MassBank: JP004506
Synonym: 1,5-DI-O-ACETYL-3,4,6-TRI-O-METHYL-2-N-METHYLACETAMIDO-2-DEOXYHEXITOL (1-D)
Synonym: 1,5-DIACETOXY-3,4,6-TRIMETHOXY-2-N-METHYLACETAMIDOHEXANE (1-D)
Structure: 312C352D44492D4F2D41434554594C2D332C342C362D5452492D4F2D4D455448594C2D322D4E2D4D455448594C41434554414D49444F2D322D44454F585948455849544F4C2028312D44292E6D6F6C0A20204368656D447261773131313630393132333232440A2032372032362020302020302020302020302020302020302020302020303939392056323030300A2020202D302E363138372020202D312E3432383920202020302E303030302043202020302020302020302020302020302020302020302020302020302020302020302020300A20202020302E323036332020202D312E3432383920202020302E303030302043202020302020302020302020302020302020302020302020302020302020302020302020300A20202020302E363138382020202D302E3731343520202020302E303030302043202020302020302020302020302020302020302020302020302020302020302020302020300A20202020302E3230363320202020302E3030303020202020302E303030302043202020302020302020302020302020302020302020302020302020302020302020302020300A20202020302E3631383720202020302E3731343520202020302E303030302043202020302020302020302020302020302020302020302020302020302020302020302020300A20202020302E3230363220202020312E3432383920202020302E303030302043202020302020302020302020302020302020302020302020302020302020302020302020300A20202020312E343433382020202D322E3134333420202020302E303030302043202020302020302020302020302020302020302020302020302020302020302020302020300A20202020312E383536332020202D322E3835373920202020302E303030302043202020302020302020302020302020302020302020302020302020302020302020302020300A20202020312E383536332020202D312E3432383920202020302E30303030204F202020302020302020302020302020302020302020302020302020302020302020302020300A20202020302E363138382020202D322E3134333420202020302E30303030204E202020302020302020302020302020302020302020302020302020302020302020302020300A20202020302E323036332020202D322E3835373920202020302E303030302043202020302020302020302020302020302020302020302020302020302020302020302020300A20202020302E3631383720202020322E3134333420202020302E30303030204F202020302020302020302020302020302020302020302020302020302020302020302020300A20202020302E3230363220202020322E3835373920202020302E303030302043202020302020302020302020302020302020302020302020302020302020302020302020300A2020202D302E3631383820202020302E3030303020202020302E30303030204F202020302020302020302020302020302020302020302020302020302020302020302020300A2020202D312E3033313320202020302E3731343520202020302E303030302043202020302020302020302020302020302020302020302020302020302020302020302020300A20202020312E343433372020202D302E3731343520202020302E30303030204F202020302020302020302020302020302020302020302020302020302020302020302020300A20202020312E3835363320202020302E3030303020202020302E303030302043202020302020302020302020302020302020302020302020302020302020302020302020300A20202020312E3434333720202020302E3731343520202020302E30303030204F202020302020302020302020302020302020302020302020302020302020302020302020300A20202020312E3835363220202020312E3432383920202020302E303030302043202020302020302020302020302020302020302020302020302020302020302020302020300A20202020312E3434333720202020322E3134333420202020302E30303030204F202020302020302020302020302020302020302020302020302020302020302020302020300A20202020322E3638313220202020312E3432383920202020302E303030302043202020302020302020302020302020302020302020302020302020302020302020302020300A2020202D302E363138372020202D302E3630333920202020302E303030302048202020302020302020302020302020302020302020302020302020302020302020302020300A2020202D312E343433372020202D312E3432383920202020302E30303030204F202020302020302020302020302020302020302020302020302020302020302020302020300A2020202D302E363138372020202D322E3235333920202020302E303030302048202020312020302020302020302020302020302020302020302020302020302020302020300A2020202D312E383536322020202D322E3134333420202020302E303030302043202020302020302020302020302020302020302020302020302020302020302020302020300A2020202D322E363831322020202D322E3134333420202020302E30303030204F202020302020302020302020302020302020302020302020302020302020302020302020300A2020202D312E343433372020202D322E3835373920202020302E303030302043202020302020302020302020302020302020302020302020302020302020302020302020300A2020312020322020312020302020202020200A2020322020332020312020302020202020200A2020332020342020312020302020202020200A2020342020352020312020302020202020200A2020352020362020312020302020202020200A2020372020382020312020302020202020200A2020372020392020322020302020202020200A2020372031302020312020302020202020200A2031302031312020312020302020202020200A2020322031302020312020302020202020200A2031322031332020312020302020202020200A2020362031322020312020302020202020200A2031342031352020312020302020202020200A2020342031342020312020302020202020200A2031362031372020312020302020202020200A2020332031362020312020302020202020200A2031392032302020322020302020202020200A2031392032312020312020302020202020200A2031382031392020312020302020202020200A2020352031382020312020302020202020200A2020312032322020312020302020202020200A2020312032332020312020302020202020200A2020312032342020312020302020202020200A2032332032352020312020302020202020200A2032352032362020322020302020202020200A2032352032372020312020302020202020200A4D202049534F20203120203234202020320A4D2020454E44
Contributor: SEYAMA Y, DEPT. OF PHYSIOL. CHEMISTRY AND NUTRITION, FAC. OF MEDICINE, UNIV. OF TOKYO
InstType: EI
InstName: SHIMADZU LKB-9000B
IoniMethod: _ENERGY 70 eV
IonPolarity: pos
Date: 2010-10-09 19:48:36+02:00
Num Peaks: 54
41 15 42 41 43 331 44 2 45 165 56 30 57 27 58 3 59 17 69 12 
70 12 71 4 72 35 73 22 74 36 75 24 85 22 86 15 87 108 88 6 
89 37 98 26 99 58 100 9 101 86 113 78 114 13 115 3 116 55 117 999 
118 61 119 2 129 264 130 32 131 35 142 4 143 317 144 29 145 330 146 3 
158 30 159 516 160 43 161 14 162 11 171 21 173 15 202 1 203 239 204 27 
205 280 206 3 272 14 273 14 
