Name: METHYL (4-AMINOBENZENESULFONYL)CARBAMATE
MW: 230
Formula: C8H10N2O4S
Synonym: MassBank: JP006290
Synonym: METHYL (4-AMINOBENZENESULFONYL)CARBAMATE
Synonym: ASULAM
Structure: 4D455448594C2028342D414D494E4F42454E5A454E4553554C464F4E594C2943415242414D4154452E6D6F6C0A20204368656D447261773038313131303233313632440A2031352031352020302020302020302020302020302020302020302020303939392056323030300A2020202D312E3738363220202020302E3230363320202020302E303030302043202020302020302020302020302020302020302020302020302020302020302020302020300A2020202D312E3037313720202020302E3631383820202020302E30303030204E202020302020302020302020302020302020302020302020302020302020302020302020300A2020202D312E373836322020202D302E3631383720202020302E30303030204F202020302020302020302020302020302020302020302020302020302020302020302020300A2020202D322E3530303620202020302E3631383820202020302E30303030204F202020302020302020302020302020302020302020302020302020302020302020302020300A2020202D302E3335373220202020302E3230363320202020302E303030302053202020302020302020302020302020302020302020302020302020302020302020302020300A20202020302E3035353320202020302E3932303720202020302E30303030204F202020302020302020302020302020302020302020302020302020302020302020302020300A2020202D302E373639372020202D302E3530383220202020302E30303030204F202020302020302020302020302020302020302020302020302020302020302020302020300A20202020302E333537322020202D302E3230363220202020302E303030302043202020302020302020302020302020302020302020302020302020302020302020302020300A20202020312E3037313720202020302E3230363320202020302E303030302043202020302020302020302020302020302020302020302020302020302020302020302020300A20202020312E373836322020202D302E3230363220202020302E303030302043202020302020302020302020302020302020302020302020302020302020302020302020300A20202020312E373836322020202D312E3033313220202020302E303030302043202020302020302020302020302020302020302020302020302020302020302020302020300A20202020312E303731372020202D312E3434333720202020302E303030302043202020302020302020302020302020302020302020302020302020302020302020302020300A20202020302E333537322020202D312E3033313220202020302E303030302043202020302020302020302020302020302020302020302020302020302020302020302020300A20202020322E353030362020202D312E3434333720202020302E30303030204E202020302020302020302020302020302020302020302020302020302020302020302020300A2020202D322E3530303620202020312E3434333720202020302E303030302043202020302020302020302020302020302020302020302020302020302020302020302020300A2020312020322020312020302020202020200A2020312020332020322020302020202020200A2020312020342020312020302020202020200A2020352020362020322020302020202020200A2020352020372020322020302020202020200A2020382020392020312020302020202020200A2020392031302020322020302020202020200A2031302031312020312020302020202020200A2031312031322020322020302020202020200A2031322031332020312020302020202020200A2020382031332020322020302020202020200A2020352020382020312020302020202020200A2031312031342020312020302020202020200A2020322020352020312020302020202020200A2020342031352020312020302020202020200A4D2020454E44
Contributor: MASS SPECTROSCOPY SOC. OF JAPAN (MSSJ)
InstType: EI
InstName: HITACHI M-80
IoniMethod: _ENERGY 70 eV
IonPolarity: pos
Date: 2010-10-09 19:48:36+02:00
Num Peaks: 65
14 12 15 206 27 12 28 55 29 253 30 41 31 384 32 684 33 47 38 21 
39 180 40 13 41 55 42 25 43 10 44 20 48 13 50 11 51 18 52 60 
53 46 54 30 58 25 59 48 62 11 63 75 64 85 65 677 66 96 67 10 
78 12 79 24 80 102 81 12 90 36 91 73 92 999 93 84 94 7 105 13 
106 20 107 76 108 554 109 673 110 48 123 20 124 8 134 40 135 7 140 60 
141 6 156 639 157 51 158 33 166 120 167 13 172 15 173 41 187 8 198 182 
199 21 200 10 230 340 231 44 232 21 
