Name: MassBank: JP003252
MW: 221
Formula: C15H11NO
Synonym: MassBank: JP003252
Synonym: 3,5-DIPHENYL-ISOXAZOLE
Structure: 332C352D44495048454E594C2D49534F58415A4F4C452E6D6F6C0A20204368656D447261773032323231303031343932440A2031372031392020302020302020302020302020302020302020302020303939392056323030300A20202020302E303831332020202D312E3332313020202020302E30303030204F202020302020302020302020302020302020302020302020302020302020302020302020300A2020202D302E373235362020202D312E3134393520202020302E30303030204E202020302020302020302020302020302020302020302020302020302020302020302020300A2020202D302E383131392020202D302E3332393020202020302E303030302043202020302020302020302020302020302020302020302020302020302020302020302020300A2020202D302E3035383220202020302E3030363620202020302E303030302043202020302020302020302020302020302020302020302020302020302020302020302020300A20202020302E343933382020202D302E3630363520202020302E303030302043202020302020302020302020302020302020302020302020302020302020302020302020300A20202020312E333134332020202D302E3532303320202020302E303030302043202020302020302020302020302020302020302020302020302020302020302020302020300A20202020312E3634393920202020302E3233333420202020302E303030302043202020302020302020302020302020302020302020302020302020302020302020302020300A20202020322E3437303420202020302E3331393620202020302E303030302043202020302020302020302020302020302020302020302020302020302020302020302020300A20202020322E393535332020202D302E3334373820202020302E303030302043202020302020302020302020302020302020302020302020302020302020302020302020300A20202020322E363139372020202D312E3130313520202020302E303030302043202020302020302020302020302020302020302020302020302020302020302020302020300A20202020312E373939322020202D312E3138373720202020302E303030302043202020302020302020302020302020302020302020302020302020302020302020302020300A2020202D312E3532363320202020302E3038333520202020302E303030302043202020302020302020302020302020302020302020302020302020302020302020302020300A2020202D322E323430382020202D302E3332393020202020302E303030302043202020302020302020302020302020302020302020302020302020302020302020302020300A2020202D322E3935353320202020302E3038333520202020302E303030302043202020302020302020302020302020302020302020302020302020302020302020302020300A2020202D322E3935353320202020302E3930383520202020302E303030302043202020302020302020302020302020302020302020302020302020302020302020302020300A2020202D322E3234303820202020312E3332313020202020302E303030302043202020302020302020302020302020302020302020302020302020302020302020302020300A2020202D312E3532363320202020302E3930383520202020302E303030302043202020302020302020302020302020302020302020302020302020302020302020302020300A2020312020322020312020302020202020200A2020322020332020322020302020202020200A2020332020342020312020302020202020200A2020342020352020322020302020202020200A2020312020352020312020302020202020200A2020362020372020312020302020202020200A2020372020382020322020302020202020200A2020382020392020312020302020202020200A2020392031302020322020302020202020200A2031302031312020312020302020202020200A2020362031312020322020302020202020200A2020352020362020312020302020202020200A2031322031332020312020302020202020200A2031332031342020322020302020202020200A2031342031352020312020302020202020200A2031352031362020322020302020202020200A2031362031372020312020302020202020200A2031322031372020322020302020202020200A2020332031322020312020302020202020200A4D2020454E44
Contributor: MASS SPECTROSCOPY SOC. OF JAPAN (MSSJ)
InstType: EI
InstName: HITACHI RMU-6E
IoniMethod: _ENERGY 70 eV
IonPolarity: pos
Date: 2010-10-09 19:48:36+02:00
Num Peaks: 11
222 90 221 520 193 60 165 70 144 140 105 999 89 140 77 670 63 90 51 270 
39 70 
