Name: 2-PROPOXYETHANOL
MW: 104
Formula: C5H12O2
Synonym: MassBank: JP001688
Synonym: 2-PROPOXYETHANOL
Synonym: ETHYLENE GLYCOL MONO PROPYL ETHER
Structure: 310A31380A322D50524F504F5859455448414E4F4C2E6D6F6C0A20204368656D447261773032323131303134353832440A2020372020362020302020302020302020302020302020302020302020303939392056323030300A2020202D312E3432383920202020302E3230363320202020302E303030302043202020302020302020302020302020302020302020302020302020302020302020302020300A2020202D302E373134352020202D302E3230363320202020302E303030302043202020302020302020302020302020302020302020302020302020302020302020302020300A20202020302E3030303020202020302E3230363320202020302E30303030204F202020302020302020302020302020302020302020302020302020302020302020302020300A20202020302E373134352020202D302E3230363220202020302E303030302043202020302020302020302020302020302020302020302020302020302020302020302020300A20202020312E3432383920202020302E3230363320202020302E303030302043202020302020302020302020302020302020302020302020302020302020302020302020300A20202020322E313433342020202D302E3230363220202020302E303030302043202020302020302020302020302020302020302020302020302020302020302020302020300A2020202D322E313433342020202D302E3230363320202020302E30303030204F202020302020302020302020302020302020302020302020302020302020302020302020300A2020312020322020312020302020202020200A2020342020352020312020302020202020200A2020352020362020312020302020202020200A2020332020342020312020302020202020200A2020322020332020312020302020202020200A2020312020372020312020302020202020200A4D2020454E44
Contributor: TAJIMA S, GUNMA COLLEGE OF TECHNOLOGY
InstType: EI
InstName: HITACHI RMU-7M
IoniMethod: _ENERGY 70 eV
IonPolarity: pos
Date: 2010-10-09 19:48:36+02:00
Num Peaks: 21
15 23 19 25 27 162 28 21 29 46 31 128 39 36 41 235 42 52 43 999 
44 45 45 393 46 10 55 34 57 31 58 25 59 21 73 204 74 10 75 41 
86 53 
