Name: 2-METHYL-5-UNDECYLPYRIDINE
MW: 247
Formula: C17H29N
Synonym: MassBank: JP005038
Synonym: 2-METHYL-5-UNDECYLPYRIDINE
Structure: 322D4D455448594C2D352D554E444543594C5059524944494E452E6D6F6C0A20204368656D447261773031323231303037323332440A2031382031382020302020302020302020302020302020302020302020303939392056323030300A20202020332E3530363220202020302E3335373220202020302E303030302043202020302020302020302020302020302020302020302020302020302020302020302020300A20202020332E393138382020202D302E3335373220202020302E303030302043202020302020302020302020302020302020302020302020302020302020302020302020300A20202020332E353036322020202D312E3037313720202020302E303030302043202020302020302020302020302020302020302020302020302020302020302020302020300A20202020322E363831332020202D312E3037313720202020302E303030302043202020302020302020302020302020302020302020302020302020302020302020302020300A20202020322E323638372020202D302E3335373220202020302E303030302043202020302020302020302020302020302020302020302020302020302020302020302020300A20202020322E3638313220202020302E3335373220202020302E30303030204E202020302020302020302020302020302020302020302020302020302020302020302020300A20202020322E323638382020202D312E3738363220202020302E303030302043202020302020302020302020302020302020302020302020302020302020302020302020300A20202020312E343433382020202D312E3738363220202020302E303030302043202020302020302020302020302020302020302020302020302020302020302020302020300A20202020312E303331322020202D312E3037313720202020302E303030302043202020302020302020302020302020302020302020302020302020302020302020302020300A20202020302E323036332020202D312E3037313720202020302E303030302043202020302020302020302020302020302020302020302020302020302020302020302020300A2020202D302E323036332020202D302E3335373220202020302E303030302043202020302020302020302020302020302020302020302020302020302020302020302020300A2020202D312E303331332020202D302E3335373220202020302E303030302043202020302020302020302020302020302020302020302020302020302020302020302020300A2020202D312E3434333820202020302E3335373220202020302E303030302043202020302020302020302020302020302020302020302020302020302020302020302020300A2020202D322E3236383820202020302E3335373220202020302E303030302043202020302020302020302020302020302020302020302020302020302020302020302020300A2020202D322E3638313320202020312E3037313720202020302E303030302043202020302020302020302020302020302020302020302020302020302020302020302020300A2020202D332E3530363320202020312E3037313720202020302E303030302043202020302020302020302020302020302020302020302020302020302020302020302020300A2020202D332E3931383820202020312E3738363220202020302E303030302043202020302020302020302020302020302020302020302020302020302020302020302020300A20202020332E3931383820202020312E3037313720202020302E303030302043202020302020302020302020302020302020302020302020302020302020302020302020300A2020312020322020312020302020202020200A2020322020332020322020302020202020200A2020332020342020312020302020202020200A2020342020352020322020302020202020200A2020352020362020312020302020202020200A2020312020362020322020302020202020200A2020372020382020312020302020202020200A2020382020392020312020302020202020200A2020392031302020312020302020202020200A2031302031312020312020302020202020200A2031312031322020312020302020202020200A2031322031332020312020302020202020200A2031332031342020312020302020202020200A2031342031352020312020302020202020200A2031352031362020312020302020202020200A2031362031372020312020302020202020200A2020342020372020312020302020202020200A2020312031382020312020302020202020200A4D2020454E44
Contributor: SASAKI S, TOYOHASHI UNIV. OF TECH.
InstType: EI
InstName: MX-1303
IoniMethod: _ENERGY 50 eV
IonPolarity: pos
Date: 2010-10-09 19:48:36+02:00
Num Peaks: 67
39 93 40 25 41 296 42 5 43 163 51 43 53 66 54 2 55 148 56 35 
57 69 65 6 66 31 67 55 69 71 77 25 78 61 79 156 80 10 81 3 
83 28 91 66 92 41 93 5 94 32 95 40 97 40 105 6 106 689 107 936 
108 99 117 5 118 35 119 110 120 999 121 31 122 18 132 70 133 28 134 21 
135 50 146 49 147 27 148 10 149 45 156 35 160 47 161 2 162 136 175 121 
176 49 188 5 189 12 190 100 191 31 204 10 205 41 216 142 217 10 218 11 
230 31 232 83 244 41 245 7 246 113 247 125 248 41 
