Name: MassBank: JP002027
MW: 145
Formula: C10H11N
Synonym: MassBank: JP002027
Synonym: 2,3-DIMETHYLINDOLE
Structure: 322C332D44494D455448594C494E444F4C452E6D6F6C0A20204368656D447261773132323030393132303332440A2031312031322020302020302020302020302020302020302020302020303939392056323030300A2020202D302E343531382020202D302E3938313020202020302E30303030204E202020302020302020302020302020302020302020302020302020302020302020302020300A2020202D302E393336372020202D302E3331333520202020302E303030302043202020302020302020302020302020302020302020302020302020302020302020302020300A2020202D302E3435313820202020302E3335333920202020302E303030302043202020302020302020302020302020302020302020302020302020302020302020302020300A20202020302E3333323820202020302E3039393020202020302E303030302043202020302020302020302020302020302020302020302020302020302020302020302020300A20202020312E3034373320202020302E3531313520202020302E303030302043202020302020302020302020302020302020302020302020302020302020302020302020300A20202020312E3736313720202020302E3039393020202020302E303030302043202020302020302020302020302020302020302020302020302020302020302020302020300A20202020312E373631372020202D302E3732363020202020302E303030302043202020302020302020302020302020302020302020302020302020302020302020302020300A20202020312E303437332020202D312E3133383520202020302E303030302043202020302020302020302020302020302020302020302020302020302020302020302020300A20202020302E333332382020202D302E3732363020202020302E303030302043202020302020302020302020302020302020302020302020302020302020302020302020300A2020202D302E3730363820202020312E3133383520202020302E303030302043202020302020302020302020302020302020302020302020302020302020302020302020300A2020202D312E373631372020202D302E3331333520202020302E303030302043202020302020302020302020302020302020302020302020302020302020302020302020300A2020312020322020312020302020202020200A2020322020332020322020302020202020200A2020332020342020312020302020202020200A2020342020352020312020302020202020200A2020352020362020322020302020202020200A2020362020372020312020302020202020200A2020372020382020322020302020202020200A2020382020392020312020302020202020200A2020312020392020312020302020202020200A2020342020392020322020302020202020200A2020332031302020312020302020202020200A2020322031312020312020302020202020200A4D2020454E44
Contributor: SASAKI S, TOYOHASHI UNIV. OF TECH.
InstType: EI
InstName: MX-1303
IoniMethod: _ENERGY 50 eV
IonPolarity: pos
Date: 2010-10-09 19:48:36+02:00
Num Peaks: 74
26 17 27 57 29 40 30 9 31 10 36 10 38 10 39 5 40 17 41 61 
42 40 43 10 50 17 51 44 52 20 53 2 54 14 55 51 56 25 57 4 
58.5 29 60 17 64 14 65 6 67 20 68 14 69 27 70 2 70.5 15 71 24 
71.5 74 72 4 72.5 79 73 20 74 10 75 2 76 25 77 111 78 29 79 1 
81 19 82 15 83 19 84 1 85 12 89 17 90 14 91 3 92 10 95 14 
96 10 97 2 98 15 100 10 101 25 102 5 103 57 104 17 105 10 115 7 
116 30 117 34 118 10 127 1 128 46 129 24 130 343 131 4 141 14 142 40 
143 165 144 999 145 894 146 100 
