Name: MassBank: JP001466
MW: 142
Formula: C8H18Si
Synonym: MassBank: JP001466
Synonym: TRANS-1-DIMETHYLHYDROSILYL-3,3-DIMETHYL-1-BUTENE
Structure: 310A32320A5452414E532D312D44494D455448594C485944524F53494C594C2D332C332D44494D455448594C2D312D425554454E452E6D6F6C0A20204368656D447261773038313231303037343332440A2020392020382020302020302020302020302020302020302020302020303939392056323030300A20202020302E333537322020202D302E3236313520202020302E303030302043202020302020302020302020302020302020302020302020302020302020302020302020300A2020202D302E3335373220202020302E3135313020202020302E303030302043202020302020302020302020302020302020302020302020302020302020302020302020300A2020202D312E303731372020202D302E3236313520202020302E303030302043202020302020302020302020302020302020302020302020302020302020302020302020300A2020202D312E3438343220202020302E3435333020202020302E303030302043202020302020302020302020302020302020302020302020302020302020302020302020300A2020202D302E363539322020202D302E3937363020202020302E303030302043202020302020302020302020302020302020302020302020302020302020302020302020300A2020202D312E373836322020202D302E3637343020202020302E303030302043202020302020302020302020302020302020302020302020302020302020302020302020300A20202020312E3037313720202020302E3135313020202020302E303030302053692020302020302020302020302020302020302020302020302020302020302020302020300A20202020312E3037313720202020302E3937363020202020302E303030302043202020302020302020302020302020302020302020302020302020302020302020302020300A20202020312E373836322020202D302E3236313520202020302E303030302043202020302020302020302020302020302020302020302020302020302020302020302020300A2020312020322020322020302020202020200A2020322020332020312020302020202020200A2020332020342020312020302020202020200A2020332020352020312020302020202020200A2020332020362020312020302020202020200A2020372020382020312020302020202020200A2020372020392020312020302020202020200A2020312020372020312020302020202020200A4D2020454E44
Contributor: MASS SPECTROSCOPY SOC. OF JAPAN (MSSJ)
InstType: EI
InstName: JEOL JMS-D-3000
IoniMethod: _ENERGY 70 eV
IonPolarity: pos
Date: 2010-10-09 19:48:36+02:00
Num Peaks: 46
43 175 45 78 46 10 53 35 54 12 55 150 56 37 57 76 58 159 59 999 
60 82 61 35 66 10 67 149 68 11 69 67 70 17 71 58 72 300 73 648 
74 36 75 27 81 19 82 368 83 275 84 35 85 668 86 226 87 71 88 12 
95 16 97 22 99 283 100 862 101 108 102 32 109 13 111 30 113 17 125 32 
126 15 127 147 128 18 141 32 142 131 143 19 
