Name: 4-(2-HYDROXY-5-NITROPHENYL)PYRIMIDINE
MW: 217
Formula: C10H7N3O3
Synonym: MassBank: JP004475
Synonym: 4-(2-HYDROXY-5-NITROPHENYL)PYRIMIDINE
Synonym: 4-NITRO-2-(4-PYRIMIDINYL)PHENOL
Structure: 342D28322D485944524F58592D352D4E4954524F5048454E594C29505952494D4944494E452E6D6F6C0A20204368656D447261773033323331303137353232440A2031362031372020302020302020302020302020302020302020302020303939392056323030300A20202020322E3530303620202020302E3230363320202020302E303030302043202020302020302020302020302020302020302020302020302020302020302020302020300A20202020312E373836322020202D302E3230363320202020302E30303030204E202020302020302020302020302020302020302020302020302020302020302020302020300A20202020312E3037313720202020302E3230363220202020302E303030302043202020302020302020302020302020302020302020302020302020302020302020302020300A20202020312E3037313720202020312E3033313220202020302E303030302043202020302020302020302020302020302020302020302020302020302020302020302020300A20202020312E3738363220202020312E3434333820202020302E303030302043202020302020302020302020302020302020302020302020302020302020302020302020300A20202020322E3530303620202020312E3033313320202020302E30303030204E202020302020302020302020302020302020302020302020302020302020302020302020300A20202020302E333537322020202D302E3230363320202020302E303030302043202020302020302020302020302020302020302020302020302020302020302020302020300A20202020302E333537322020202D312E3033313320202020302E303030302043202020302020302020302020302020302020302020302020302020302020302020302020300A2020202D302E333537322020202D312E3434333820202020302E303030302043202020302020302020302020302020302020302020302020302020302020302020302020300A2020202D312E303731372020202D312E3033313320202020302E303030302043202020302020302020302020302020302020302020302020302020302020302020302020300A2020202D312E303731372020202D302E3230363320202020302E303030302043202020302020302020302020302020302020302020302020302020302020302020302020300A2020202D302E3335373220202020302E3230363320202020302E303030302043202020302020302020302020302020302020302020302020302020302020302020302020300A2020202D312E3738363220202020302E3230363220202020302E30303030204E202020302020332020302020302020302020302020302020302020302020302020302020300A2020202D312E3738363220202020312E3033313220202020302E30303030204F202020302020302020302020302020302020302020302020302020302020302020302020300A2020202D322E353030362020202D302E3230363320202020302E30303030204F202020302020352020302020302020302020302020302020302020302020302020302020300A20202020312E303731372020202D312E3434333820202020302E30303030204F202020302020302020302020302020302020302020302020302020302020302020302020300A2020312020322020322020302020202020200A2020322020332020312020302020202020200A2020332020342020322020302020202020200A2020342020352020312020302020202020200A2020352020362020322020302020202020200A2020312020362020312020302020202020200A2020372020382020312020302020202020200A2020382020392020322020302020202020200A2020392031302020312020302020202020200A2031302031312020322020302020202020200A2031312031322020312020302020202020200A2020372031322020322020302020202020200A2031332031342020322020302020202020200A2031332031352020312020302020202020200A2031312031332020312020302020202020200A2020382031362020312020302020202020200A2020332020372020312020302020202020200A4D202043484720203220203133202020312020313520202D310A4D2020454E44
Contributor: SASAKI S, TOYOHASHI UNIV. OF TECH.
InstType: EI
InstName: MS-902
IoniMethod: _ENERGY 70 eV
IonPolarity: pos
Date: 2010-10-09 19:48:36+02:00
Num Peaks: 47
53 24 54 15 61 8 62 4 63 81 64 15 65 14 66 1 71 14 71.5 9 
74 9 75 1 77 14 78 15 79 39 80 1 83 22 85 13 86 10 87 1 
88 20 89 88 90 35 91 1 92 5 104 8 105 28 115 1 116 103 117 22 
118 7 131 1 141 8 142 44 143 133 144 3 149 7 159 8 170 14 171 6 
172 10 187 114 188 14 215 1 216 24 217 999 218 105 
