Name: MassBank: JP007311
MW: 236
Formula: C15H24O2
Synonym: MassBank: JP007311
Synonym: 11ALPHA-METHOXY-6,6,8BETA-TETRAMETHYL-5ALPHA-TRICYCLO(6.3.0.0(1,5))UNDECAN-2-ONE
Structure: 3131414C5048412D4D4554484F58592D362C362C38424554412D54455452414D455448594C2D35414C5048412D5452494359434C4F28362E332E302E3028312C352929554E444543414E2D322D4F4E452E6D6F6C0A20204368656D447261773132313030393139303332440A2031392032312020302020302020302020302020302020302020302020303939392056323030300A20202020302E303430372020202D302E3135373620202020302E303030302043202020302020302020302020302020302020302020302020302020302020302020302020300A20202020302E353235372020202D302E3832353020202020302E303030302043202020302020302020302020302020302020302020302020302020302020302020302020300A20202020302E303430372020202D312E3439323420202020302E303030302043202020302020302020302020302020302020302020302020302020302020302020302020300A2020202D302E373433392020202D312E3233373520202020302E303030302043202020302020302020302020302020302020302020302020302020302020302020302020300A2020202D302E373433392020202D302E3431323520202020302E303030302043202020302020302020302020302020302020302020302020302020302020302020302020300A2020202D312E3232313420202020302E3234323620202020302E303030302043202020302020302020302020302020302020302020302020302020302020302020302020300A2020202D302E3734333920202020302E3932323420202020302E303030302043202020302020302020302020302020302020302020302020302020302020302020302020300A20202020302E3034303720202020302E3636373420202020302E303030302043202020302020302020302020302020302020302020302020302020302020302020302020300A20202020302E3832353420202020302E3932323420202020302E303030302043202020302020302020302020302020302020302020302020302020302020302020302020300A20202020312E3331303320202020302E3235343920202020302E303030302043202020302020302020302020302020302020302020302020302020302020302020302020300A20202020302E383235342020202D302E3431323520202020302E303030302043202020302020302020302020302020302020302020302020302020302020302020302020300A20202020312E333530372020202D302E3832353020202020302E30303030204F202020302020302020302020302020302020302020302020302020302020302020302020300A20202020302E3034303720202020312E3439323420202020302E303030302043202020302020302020302020302020302020302020302020302020302020302020302020300A2020202D312E393335392020202D302E3136393920202020302E303030302043202020302020302020302020302020302020302020302020302020302020302020302020300A2020202D312E3831343720202020302E3833353920202020302E303030302043202020302020302020302020302020302020302020302020302020302020302020302020300A2020202D312E343538342020202D302E3832353020202020302E303030302048202020302020302020302020302020302020302020302020302020302020302020302020300A20202020312E303830332020202D312E3139373120202020302E303030302048202020302020302020302020302020302020302020302020302020302020302020302020300A20202020312E363430322020202D302E3534313620202020302E30303030204F202020302020302020302020302020302020302020302020302020302020302020302020300A20202020312E393335392020202D312E3331313820202020302E303030302043202020302020302020302020302020302020302020302020302020302020302020302020300A2020312020322020312020302020202020200A2020322020332020312020302020202020200A2020332020342020312020302020202020200A2020342020352020312020302020202020200A2020352020362020312020302020202020200A2020362020372020312020302020202020200A2020372020382020312020302020202020200A2020382020392020312020302020202020200A2020392031302020312020302020202020200A2031302031312020312020302020202020200A2020312031312020312020302020202020200A2020312020382020312020302020202020200A2020312020352020312020302020202020200A2020322031322020322020302020202020200A2020382031332020312020312020202020200A2020362031342020312020362020202020200A2020362031352020312020312020202020200A2020352031362020312020362020202020200A2031312031372020312020362020202020200A2031312031382020312020312020202020200A2031382031392020312020302020202020200A4D2020454E44
Contributor: ITO S, DEPT. OF CHEM., TOHOKU UNIV.
InstType: EI
InstName: HITACHI M-52
IoniMethod: _ENERGY 14 eV
IonPolarity: pos
Date: 2010-10-09 19:48:36+02:00
Num Peaks: 10
72 63 123 15 161 15 165 999 166 141 204 15 208 39 221 2 236 99 237 15 
