Name: MassBank: JP007291
CAS: 73890-17-2
MW: 176
Formula: C7H12O5
Synonym: MassBank: JP007291
Synonym: (2S,3R)-2-HYDROXY-3-METHYLBUTANDIOIC ACIDDIMETHYL ESTER
Structure: 2832532C3352292D322D485944524F58592D332D4D455448594C425554414E44494F4943204143494444494D455448594C2045535445522E6D6F6C0A20204368656D447261773130323030393135313932440A2031342031332020302020302020302020302020302020302020302020303939392056323030300A2020202D322E3036323520202020302E3030303020202020302E30303030204F202020302020302020302020302020302020302020302020302020302020302020302020300A2020202D312E3233373520202020302E3030303020202020302E303030302043202020302020302020302020302020302020302020302020302020302020302020302020300A2020202D302E3431323520202020302E3030303020202020302E303030302043202020302020302020302020302020302020302020302020302020302020302020302020300A20202020302E3431323520202020302E3030303020202020302E303030302043202020302020302020302020302020302020302020302020302020302020302020302020300A20202020312E3233373520202020302E3030303020202020302E303030302043202020302020302020302020302020302020302020302020302020302020302020302020300A20202020322E3036323520202020302E3030303020202020302E30303030204F202020302020302020302020302020302020302020302020302020302020302020302020300A2020202D302E3431323520202020302E3832353020202020302E303030302048202020302020302020302020302020302020302020302020302020302020302020302020300A2020202D302E343132352020202D302E3832353020202020302E30303030204F202020302020302020302020302020302020302020302020302020302020302020302020300A20202020302E3431323520202020302E3832353020202020302E303030302048202020302020302020302020302020302020302020302020302020302020302020302020300A20202020302E343132352020202D302E3832353020202020302E303030302043202020302020302020302020302020302020302020302020302020302020302020302020300A20202020312E3233373520202020302E3832353020202020302E30303030204F202020302020302020302020302020302020302020302020302020302020302020302020300A2020202D312E3233373520202020302E3832353020202020302E30303030204F202020302020302020302020302020302020302020302020302020302020302020302020300A2020202D322E3437353020202020302E3731343520202020302E303030302043202020302020302020302020302020302020302020302020302020302020302020302020300A20202020322E343735302020202D302E3731343520202020302E303030302043202020302020302020302020302020302020302020302020302020302020302020302020300A2020312020322020312020302020202020200A2020322020332020312020302020202020200A2020332020342020312020302020202020200A2020342020352020312020302020202020200A2020352020362020312020302020202020200A2020332020372020312020312020202020200A2020332020382020312020312020202020200A2020342020392020312020312020202020200A2020342031302020312020312020202020200A2020352031312020322020302020202020200A2020322031322020322020302020202020200A2020312031332020312020302020202020200A2020362031342020312020302020202020200A4D2020454E44
Contributor: ITO S, DEPT. OF CHEM., TOHOKU UNIV.
InstType: EI
InstName: HITACHI M-52
IoniMethod: _ENERGY 25 eV
IonPolarity: pos
Date: 2010-10-09 19:48:36+02:00
Num Peaks: 39
27 45 28 450 29 382 31 14 32 206 33 51 40 30 41 5 42 31 43 41 
44 103 55 9 56 122 57 999 58 107 59 10 61 137 68 37 69 75 71 4 
84 37 85 832 86 62 87 11 88 191 90 30 99 31 100 3 103 63 113 38 
115 49 116 15 117 939 118 93 119 27 126 7 127 60 144 20 145 51 
