Name: TERT-PENTYLBENZENE
MW: 148
Formula: C11H16
Synonym: MassBank: JP001544
Synonym: TERT-PENTYLBENZENE
Synonym: (1.1-DIMETHYLPROPYL)BENZENE
Structure: 28312E312D44494D455448594C50524F50594C2942454E5A454E452E6D6F6C0A20204368656D447261773130303630393135333932440A2031312031312020302020302020302020302020302020302020302020303939392056323030300A2020202D302E3235333720202020302E3832353020202020302E303030302043202020302020302020302020302020302020302020302020302020302020302020302020300A2020202D302E3235333720202020302E3030303020202020302E303030302043202020302020302020302020302020302020302020302020302020302020302020302020300A2020202D312E3037383720202020302E3832353020202020302E303030302043202020302020302020302020302020302020302020302020302020302020302020302020300A2020202D302E3235333720202020312E3635303020202020302E303030302043202020302020302020302020302020302020302020302020302020302020302020302020300A2020202D302E393638322020202D302E3431323520202020302E303030302043202020302020302020302020302020302020302020302020302020302020302020302020300A2020202D302E393638322020202D312E3233373520202020302E303030302043202020302020302020302020302020302020302020302020302020302020302020302020300A2020202D302E323533372020202D312E3635303020202020302E303030302043202020302020302020302020302020302020302020302020302020302020302020302020300A20202020302E343630372020202D312E3233373520202020302E303030302043202020302020302020302020302020302020302020302020302020302020302020302020300A20202020302E343630372020202D302E3431323520202020302E303030302043202020302020302020302020302020302020302020302020302020302020302020302020300A20202020302E3336343320202020302E3838313220202020302E303030302043202020302020302020302020302020302020302020302020302020302020302020302020300A20202020312E3037383720202020302E3436383720202020302E303030302043202020302020302020302020302020302020302020302020302020302020302020302020300A2020312020322020312020302020202020200A2020312020332020312020302020202020200A2020312020342020312020302020202020200A2020322020352020322020302020202020200A2020352020362020312020302020202020200A2020362020372020322020302020202020200A2020372020382020312020302020202020200A2020382020392020322020302020202020200A2020392020322020312020302020202020200A2020312031302020312020302020202020200A2031302031312020312020302020202020200A4D202053545920203120202031205355500A4D2020534C4220203120202031202020310A4D202053414C2020203120203220203130202031310A4D202053424C20202031202031202031300A4D2020534D5420202031204348324348330A4D2020534256202020312031302020202D352E3138333920202020352E323734340A4D2020454E44
Contributor: YAMAMOTO M, DEP. CHEMISTRY, FAC. SCIENCE, NARA WOMEN'S UNIV.
InstType: EI
InstName: HITACHI RMU-6M
IoniMethod: _ENERGY 70 eV
IonPolarity: pos
Date: 2010-10-09 19:48:36+02:00
Num Peaks: 32
27 49 29 38 39 76 41 162 43 15 50 20 51 61 52 16 53 18 55 42 
63 22 65 40 75 10 76 11 77 94 78 44 79 84 91 574 92 47 102 14 
103 51 104 18 105 63 115 40 116 12 117 33 118 24 119 999 120 102 133 30 
148 169 149 22 
