Name: MassBank: JP000761
MW: 164
Formula: C10H12O2
Synonym: MassBank: JP000761
Synonym: 2-METHOXY-3,7-DIMETHYLCYCLOHEPTA-2,4,6-TRIEN-1-ONE
Structure: 322D4D4554484F58592D332C372D44494D455448594C4359434C4F48455054412D322C342C362D545249454E2D312D4F4E452E6D6F6C0A20204368656D447261773031323231303032303132440A2031322031322020302020302020302020302020302020302020302020303939392056323030300A2020202D302E303733312020202D302E3537313920202020302E303030302043202020302020302020302020302020302020302020302020302020302020302020302020300A20202020302E3238343920202020302E3137313420202020302E303030302043202020302020302020302020302020302020302020302020302020302020302020302020300A2020202D302E3037333120202020302E3931343720202020302E303030302043202020302020302020302020302020302020302020302020302020302020302020302020300A2020202D302E3837373420202020312E3039383320202020302E303030302043202020302020302020302020302020302020302020302020302020302020302020302020300A2020202D312E3532323420202020302E3538333920202020302E303030302043202020302020302020302020302020302020302020302020302020302020302020302020300A2020202D312E353232342020202D302E3234313120202020302E303030302043202020302020302020302020302020302020302020302020302020302020302020302020300A2020202D302E383737342020202D302E3735353420202020302E303030302043202020302020302020302020302020302020302020302020302020302020302020302020300A20202020302E343431332020202D312E3231363920202020302E30303030204F202020302020302020302020302020302020302020302020302020302020302020302020300A2020202D312E303631302020202D312E3535393820202020302E303030302043202020302020302020302020302020302020302020302020302020302020302020302020300A20202020302E3434313320202020312E3535393820202020302E303030302043202020302020302020302020302020302020302020302020302020302020302020302020300A20202020312E3130393920202020302E3137313420202020302E30303030204F202020302020302020302020302020302020302020302020302020302020302020302020300A20202020312E3532323420202020302E3838353920202020302E303030302043202020302020302020302020302020302020302020302020302020302020302020302020300A2020312020322020312020302020202020200A2020322020332020322020302020202020200A2020332020342020312020302020202020200A2020342020352020322020302020202020200A2020352020362020312020302020202020200A2020362020372020322020302020202020200A2020312020372020312020302020202020200A2020312020382020322020302020202020200A2020372020392020312020302020202020200A2020332031302020312020302020202020200A2031312031322020312020302020202020200A2020322031312020312020302020202020200A4D2020454E44
Contributor: ITO S, DEPT. OF CHEM., TOHOKU UNIV.
InstType: EI
InstName: Unknown
IoniMethod: _ENERGY 25 eV
IonPolarity: pos
Date: 2010-10-09 19:48:36+02:00
Num Peaks: 38
51 100 52 95 53 230 55 4 63 50 65 210 66 50 67 4 77 580 78 220 
79 120 89 4 91 890 92 100 93 150 103 14 104 75 105 260 106 100 107 9 
115 60 116 50 117 170 118 30 119 140 121 680 122 105 131 4 132 30 133 210 
134 210 135 22 136 90 145 60 146 150 149 5 164 999 165 140 
