Name: MassBank: JP001629
CAS: 95-68-1
MW: 121
Formula: C8H11N
Synonym: MassBank: JP001629
Synonym: 2,4-DIMETHYLANILINE
Synonym: 2,4-XYLIDINE
Structure: 310A32330A322C342D44494D455448594C414E494C494E452E6D6F6C0A20204368656D447261773132323030393139323132440A2020392020392020302020302020302020302020302020302020302020303939392056323030300A20202020312E343238392020202D302E3832353020202020302E30303030204E202020302020302020302020302020302020302020302020302020302020302020302020300A20202020302E373134352020202D302E3431323520202020302E303030302043202020302020302020302020302020302020302020302020302020302020302020302020300A20202020302E3731343520202020302E3431323520202020302E303030302043202020302020302020302020302020302020302020302020302020302020302020302020300A2020202D302E3030303020202020302E3832353020202020302E303030302043202020302020302020302020302020302020302020302020302020302020302020302020300A2020202D302E3731343520202020302E3431323520202020302E303030302043202020302020302020302020302020302020302020302020302020302020302020302020300A2020202D302E373134352020202D302E3431323520202020302E303030302043202020302020302020302020302020302020302020302020302020302020302020302020300A20202020302E303030302020202D302E3832353020202020302E303030302043202020302020302020302020302020302020302020302020302020302020302020302020300A2020202D312E3432383920202020302E3832353020202020302E303030302043202020302020302020302020302020302020302020302020302020302020302020302020300A20202020312E3432383920202020302E3832353020202020302E303030302043202020302020302020302020302020302020302020302020302020302020302020302020300A2020312020322020312020302020202020200A2020322020332020312020302020202020200A2020332020342020322020302020202020200A2020342020352020312020302020202020200A2020352020362020322020302020202020200A2020362020372020312020302020202020200A2020322020372020322020302020202020200A2020352020382020312020302020202020200A2020332020392020312020302020202020200A4D2020454E44
Contributor: KOGA M, UNIV. OF OCCUPATIONAL AND ENVIRONMENTAL HEALTH
InstType: EI
InstName: VARIAN MAT-44
IoniMethod: _ENERGY 70 eV
IonPolarity: pos
Date: 2010-10-09 19:48:36+02:00
Num Peaks: 59
30 74 37 19 38 65 39 322 40 24 41 165 42 149 45 16 46 51 47 21 
49 14 50 119 51 202 52 187 53 157 54 81 55 29 56 13 57 23 58 102 
59 139 60 121 61 24 62 44 63 48 64 56 65 102 66 47 67 28 68 12 
69 10 70 10 73 17 74 17 75 18 76 31 77 397 78 136 79 157 80 86 
81 18 89 28 90 18 91 242 92 57 93 106 94 32 102 19 103 78 104 53 
105 54 106 896 107 78 117 27 118 61 119 42 120 877 121 999 122 87 
