Name: 4-ALLYLANISOLE
MW: 148
Formula: C10H12O
Synonym: MassBank: JP000744
Synonym: 4-ALLYLANISOLE
Synonym: 1-ALLYL-4-METHOXYBENZENE
Structure: 342D414C4C594C414E49534F4C452E6D6F6C0A20204368656D447261773131313730393231323532440A2031312031312020302020302020302020302020302020302020302020303939392056323030300A2020202D302E373134352020202D322E3437353020202020302E303030302043202020302020302020302020302020302020302020302020302020302020302020302020300A20202020302E303030302020202D322E3036323520202020302E30303030204F202020302020302020302020302020302020302020302020302020302020302020302020300A20202020302E303030302020202D312E3233373520202020302E303030302043202020302020302020302020302020302020302020302020302020302020302020302020300A2020202D302E373134352020202D302E3832353020202020302E303030302043202020302020302020302020302020302020302020302020302020302020302020302020300A2020202D302E3731343520202020302E3030303020202020302E303030302043202020302020302020302020302020302020302020302020302020302020302020302020300A20202020302E3030303020202020302E3431323520202020302E303030302043202020302020302020302020302020302020302020302020302020302020302020302020300A20202020302E3731343520202020302E3030303020202020302E303030302043202020302020302020302020302020302020302020302020302020302020302020302020300A20202020302E373134352020202D302E3832353020202020302E303030302043202020302020302020302020302020302020302020302020302020302020302020302020300A20202020302E3030303020202020312E3233373520202020302E303030302043202020302020302020302020302020302020302020302020302020302020302020302020300A20202020302E3731343520202020312E3635303020202020302E303030302043202020302020302020302020302020302020302020302020302020302020302020302020300A20202020302E3731343520202020322E3437353020202020302E303030302043202020302020302020302020302020302020302020302020302020302020302020302020300A2020312020322020312020302020202020200A2020322020332020312020302020202020200A2020332020342020312020302020202020200A2020342020352020322020302020202020200A2020352020362020312020302020202020200A2020362020372020322020302020202020200A2020372020382020312020302020202020200A2020332020382020322020302020202020200A2020392031302020312020302020202020200A2031302031312020322020302020202020200A2020362020392020312020302020202020200A4D2020454E44
Contributor: NAKAYAMA M, MASS SPECTROSCOPY SOC. OF JAPAN (MSSJ)
InstType: EI
InstName: HITACHI RMS-4
IoniMethod: _ENERGY 80 eV
IonPolarity: pos
Date: 2010-10-09 19:48:36+02:00
Num Peaks: 49
39 160 40 160 41 80 43 5 50 10 51 210 52 110 53 6 55 110 61 10 
62 50 63 15 64 50 65 120 74 50 75 5 76 50 77 380 78 260 79 21 
89 80 90 40 91 280 92 6 93 40 102 50 103 180 104 10 105 290 106 50 
107 40 108 1 114 10 115 190 116 110 117 34 118 60 119 50 120 10 121 47 
122 50 131 60 132 50 133 26 134 40 146 40 147 440 148 999 149 150 
