Name: 1-(4-TETRAHYDROPYRANYL)-3-CYCLOHEXENE-1-CARBOXYLIC ACID
MW: 210
Formula: C12H18O3
Synonym: MassBank: JP004100
Synonym: 1-(4-TETRAHYDROPYRANYL)-3-CYCLOHEXENE-1-CARBOXYLIC ACID
Structure: 312D28342D5445545241485944524F505952414E594C292D332D4359434C4F484558454E452D312D434152424F58594C494320414349442E6D6F6C0A20204368656D447261773131313730393137353232440A2031372031382020302020302020302020302020302020302020302020303939392056323030300A2020202D302E343036322020202D302E3238393520202020302E303030302043202020302020302020302020302020302020302020302020302020302020302020302020300A20202020302E343036322020202D302E3134363320202020302E303030302043202020302020302020302020302020302020302020302020302020302020302020302020300A20202020302E393336352020202D302E3737383220202020302E303030302043202020302020302020302020302020302020302020302020302020302020302020302020300A20202020302E363534342020202D312E3535333520202020302E303030302043202020302020302020302020302020302020302020302020302020302020302020302020300A2020202D302E313538312020202D312E3639363820202020302E303030302043202020302020302020302020302020302020302020302020302020302020302020302020300A2020202D302E363838342020202D312E3036343820202020302E303030302043202020302020302020302020302020302020302020302020302020302020302020302020300A2020202D312E323138372020202D302E3134363320202020302E303030302043202020302020302020302020302020302020302020302020302020302020302020302020300A2020202D312E373439302020202D302E3737383220202020302E30303030204F202020302020302020302020302020302020302020302020302020302020302020302020300A2020202D312E3530303920202020302E3632393020202020302E30303030204F202020302020302020302020302020302020302020302020302020302020302020302020300A20202020302E3330383220202020312E3737333020202020302E303030302043202020302020302020302020302020302020302020302020302020302020302020302020300A20202020302E3330383220202020302E3934383020202020302E303030302043202020302020302020302020302020302020302020302020302020302020302020302020300A2020202D302E3430363220202020302E3533353520202020302E303030302043202020302020302020302020302020302020302020302020302020302020302020302020300A2020202D312E3132303720202020302E3934383020202020302E303030302043202020302020302020302020302020302020302020302020302020302020302020302020300A2020202D312E3132303720202020312E3737333020202020302E303030302043202020302020302020302020302020302020302020302020302020302020302020302020300A2020202D302E3430363220202020322E3138353520202020302E30303030204F202020302020302020302020302020302020302020302020302020302020302020302020300A20202020312E313834372020202D322E3138353520202020302E303030302048202020302020302020302020302020302020302020302020302020302020302020302020300A20202020312E373439302020202D302E3633353020202020302E303030302048202020302020302020302020302020302020302020302020302020302020302020302020300A2020312020322020312020302020202020200A2020322020332020312020302020202020200A2020332020342020322020302020202020200A2020342020352020312020302020202020200A2020352020362020312020302020202020200A2020312020362020312020302020202020200A2020372020382020322020302020202020200A2020372020392020312020302020202020200A2020312020372020312020302020202020200A2031302031312020312020302020202020200A2031312031322020312020302020202020200A2031322031332020312020302020202020200A2031332031342020312020302020202020200A2031342031352020312020302020202020200A2031302031352020312020302020202020200A2020312031322020312020302020202020200A2020342031362020312020302020202020200A2020332031372020312020302020202020200A4D2020454E44
Contributor: YAMAMOTO M, DEP. CHEMISTRY, FAC. SCIENCE, NARA WOMEN'S UNIV.
InstType: EI
InstName: HITACHI RMU-6E
IoniMethod: _ENERGY 70 eV
IonPolarity: pos
Date: 2010-10-09 19:48:36+02:00
Num Peaks: 71
27 147 28 55 29 257 31 53 39 196 40 26 41 327 42 3 43 181 44 28 
45 34 50 2 51 62 52 36 53 156 54 9 55 851 56 72 57 126 65 7 
66 40 67 259 68 143 69 4 77 173 78 103 79 502 80 13 81 180 82 28 
83 999 84 7 85 130 86 106 91 184 92 6 93 79 94 26 95 23 96 4 
97 45 103 19 104 20 105 9 106 27 107 86 108 279 109 4 110 16 111 25 
117 64 118 5 119 85 120 62 121 47 122 2 123 93 124 69 125 284 126 23 
127 23 131 16 133 37 135 2 136 14 146 15 147 12 164 40 165 58 192 56 
210 60 
