Name: MassBank: JP002178
MW: 198
Formula: C10H14O4
Synonym: MassBank: JP002178
Synonym: 2,5-DIMETHYL-2,4-HEXADIENEDIOIC ACID DIMETHYL ESTER
Structure: 322C352D44494D455448594C2D322C342D484558414449454E4544494F494320414349442044494D455448594C2045535445522E6D6F6C0A20204368656D447261773132323130393031333132440A2031342031332020302020302020302020302020302020302020302020303939392056323030300A2020202D322E3134333420202020302E3230363220202020302E303030302043202020302020302020302020302020302020302020302020302020302020302020302020300A2020202D312E343238392020202D302E3230363320202020302E303030302043202020302020302020302020302020302020302020302020302020302020302020302020300A2020202D302E3731343520202020302E3230363220202020302E303030302043202020302020302020302020302020302020302020302020302020302020302020302020300A20202020302E303030302020202D302E3230363320202020302E303030302043202020302020302020302020302020302020302020302020302020302020302020302020300A20202020302E3731343520202020302E3230363220202020302E303030302043202020302020302020302020302020302020302020302020302020302020302020302020300A20202020312E343238392020202D302E3230363220202020302E303030302043202020302020302020302020302020302020302020302020302020302020302020302020300A2020202D322E3134333420202020312E3033313220202020302E30303030204F202020302020302020302020302020302020302020302020302020302020302020302020300A2020202D322E383537392020202D302E3230363320202020302E30303030204F202020302020302020302020302020302020302020302020302020302020302020302020300A20202020312E343238392020202D312E3033313220202020302E30303030204F202020302020302020302020302020302020302020302020302020302020302020302020300A20202020322E3134333420202020302E3230363320202020302E30303030204F202020302020302020302020302020302020302020302020302020302020302020302020300A20202020302E3731343520202020312E3033313320202020302E303030302043202020302020302020302020302020302020302020302020302020302020302020302020300A2020202D312E343238392020202D312E3033313320202020302E303030302043202020302020302020302020302020302020302020302020302020302020302020302020300A2020202D322E383537392020202D312E3033313320202020302E303030302043202020302020302020302020302020302020302020302020302020302020302020302020300A20202020322E383537392020202D302E3230363220202020302E303030302043202020302020302020302020302020302020302020302020302020302020302020302020300A2020312020322020312020302020202020200A2020322020332020322020302020202020200A2020332020342020312020302020202020200A2020342020352020322020302020202020200A2020352020362020312020302020202020200A2020312020372020322020302020202020200A2020312020382020312020302020202020200A2020362020392020322020302020202020200A2020362031302020312020302020202020200A2020352031312020312020302020202020200A2020322031322020312020302020202020200A2020382031332020312020302020202020200A2031302031342020312020302020202020200A4D2020454E44
Contributor: KOGA M, UNIV. OF OCCUPATIONAL AND ENVIRONMENTAL HEALTH
InstType: EI
InstName: JEOL JMS-01-SG
IoniMethod: _ENERGY 70 eV
IonPolarity: pos
Date: 2010-10-09 19:48:36+02:00
Num Peaks: 66
38 15 39 98 41 82 43 13 50 15 51 41 52 28 53 9 54 10 55 52 
59 30 62 1 63 8 65 19 66 15 67 4 68 13 69 54 77 102 78 2 
79 159 80 26 81 28 82 1 83 21 84 6 95 52 96 6 97 157 98 28 
106 13 107 13 108 28 109 17 110 13 111 3 112 124 113 10 117 8 121 1 
122 10 123 37 124 52 125 1 127 6 135 10 137 34 138 3 139 999 140 89 
141 13 142 1 143 17 151 67 152 10 153 1 155 8 165 8 166 13 167 8 
168 10 183 19 184 10 197 1 198 93 199 10 
