Name: MassBank: JP009810
MW: 181
Formula: C6H8Cl2O2
Synonym: MassBank: JP009810
Synonym: METHYL 2,4-DICHLORO-3-METHYLENEBUTYRATE
Structure: 4D455448594C20322C342D444943484C4F524F2D332D4D455448594C454E4542555459524154452E6D6F6C0A20204368656D447261773038313131303233343332440A2031302020392020302020302020302020302020302020302020302020303939392056323030300A20202020302E303030302020202D302E3731343520202020302E303030302043202020302020302020302020302020302020302020302020302020302020302020302020300A20202020302E3431323520202020302E3030303020202020302E303030302043202020302020302020302020302020302020302020302020302020302020302020302020300A20202020302E3030303020202020302E3731343520202020302E303030302043202020302020302020302020302020302020302020302020302020302020302020302020300A2020202D302E3832353020202020302E3731343520202020302E303030302043202020302020302020302020302020302020302020302020302020302020302020302020300A2020202D302E383235302020202D302E3731343520202020302E30303030204F202020302020302020302020302020302020302020302020302020302020302020302020300A20202020302E343132352020202D312E3432383920202020302E30303030204F202020302020302020302020302020302020302020302020302020302020302020302020300A20202020302E3431323520202020312E3432383920202020302E303030302043202020302020302020302020302020302020302020302020302020302020302020302020300A2020202D312E323337352020202D302E3030303020202020302E3030303020436C2020302020302020302020302020302020302020302020302020302020302020302020300A20202020312E3233373520202020302E3030303020202020302E3030303020436C2020302020302020302020302020302020302020302020302020302020302020302020300A20202020312E323337352020202D312E3432383920202020302E303030302043202020302020302020302020302020302020302020302020302020302020302020302020300A2020312020322020312020302020202020200A2020322020332020312020302020202020200A2020332020342020312020302020202020200A2020312020352020322020302020202020200A2020312020362020312020302020202020200A2020332020372020322020302020202020200A2020342020382020312020302020202020200A2020322020392020312020302020202020200A2020362031302020312020302020202020200A4D2020454E44
Contributor: KURARAY CO., LTD.
InstType: EI
InstName: JEOL JMS-D-300
IoniMethod: _ENERGY 70 eV
IonPolarity: pos
Date: 2010-10-09 19:48:36+02:00
Num Peaks: 51
27 95 29 36 36 87 38 11 39 149 41 34 42 65 43 7 44 16 45 52 
49 65 50 9 51 248 52 72 53 316 54 7 55 68 58 12 59 604 61 7 
67 94 73 88 75 45 81 8 82 69 83 51 87 362 88 20 89 182 90 79 
91 97 108 7 111 56 112 78 113 101 115 6 116 104 117 182 118 52 119 7 
123 291 125 208 131 39 146 7 147 999 148 155 149 364 150 8 151 55 153 40 
182 43 
