Name: P-T-BUTYLCYCLOHEXYL ACETATE (TRANS)
MW: 198
Formula: C12H22O2
Synonym: MassBank: JP000129
Synonym: P-T-BUTYLCYCLOHEXYL ACETATE (TRANS)
Structure: 303030385F502D542D425554594C4359434C4F484558594C204143455441544520285452414E53292E6D6F6C0A20204368656D447261773130303131303230313532440A2031362031362020302020302020302020302020302020302020302020303939392056323030300A2020202D312E343238342020202D312E3338383420202020302E303030302043202020302020302020302020302020302020302020302020302020302020302020302020300A2020202D302E373133322020202D312E3830303220202020302E30303030204F202020302020302020302020302020302020302020302020302020302020302020302020300A2020202D322E313432342020202D312E3830313720202020302E303030302043202020302020302020302020302020302020302020302020302020302020302020302020300A2020202D312E343237362020202D302E3536323820202020302E30303030204F202020302020302020302020302020302020302020302020302020302020302020302020300A2020202D302E373135342020202D302E3135303220202020302E303030302043202020302020302020302020302020302020302020302020302020302020302020302020300A2020202D302E3731353420202020302E3637343820202020302E303030302043202020302020302020302020302020302020302020302020302020302020302020302020300A2020202D302E3030303920202020312E3038373320202020302E303030302043202020302020302020302020302020302020302020302020302020302020302020302020300A20202020302E3731333520202020302E3637343820202020302E303030302043202020302020302020302020302020302020302020302020302020302020302020302020300A20202020302E373133352020202D302E3135303220202020302E303030302043202020302020302020302020302020302020302020302020302020302020302020302020300A2020202D302E303030392020202D302E3536323720202020302E303030302043202020302020302020302020302020302020302020302020302020302020302020302020300A2020202D302E363334392020202D302E3937313820202020302E303030302048202020302020302020302020302020302020302020302020302020302020302020302020300A20202020312E3432383020202020312E3038373320202020302E303030302043202020302020302020302020302020302020302020302020302020302020302020302020300A20202020312E3031353520202020312E3830313720202020302E303030302043202020302020302020302020302020302020302020302020302020302020302020302020300A20202020322E3134323420202020312E3439393820202020302E303030302043202020302020302020302020302020302020302020302020302020302020302020302020300A20202020312E3834303520202020302E3337323820202020302E303030302043202020302020302020302020302020302020302020302020302020302020302020302020300A20202020302E3633353020202020312E3439363020202020302E303030302048202020302020302020302020302020302020302020302020302020302020302020302020300A2020312020322020322020302020202020200A2020312020332020312020302020202020200A2020312020342020312020302020202020200A2020352020362020312020302020202020200A2020362020372020312020302020202020200A2020372020382020312020302020202020200A2020382020392020312020302020202020200A2020392031302020312020302020202020200A2020352031302020312020302020202020200A2020352020342020312020312020202020200A2020352031312020312020362020202020200A2020382031322020312020362020202020200A2031322031332020312020302020202020200A2031322031342020312020302020202020200A2031322031352020312020302020202020200A2020382031362020312020312020202020200A4D2020454E44
Contributor: YAMAMOTO M, DEP. CHEMISTRY, FAC. SCIENCE, NARA WOMEN'S UNIV.
InstType: EI
InstName: HITACHI RMU-6M
IoniMethod: _ENERGY 70 eV
IonPolarity: pos
Date: 2010-10-09 19:48:36+02:00
Num Peaks: 46
14 10 15 109 27 119 28 123 29 243 39 128 40 25 42 37 43 681 44 25 
51 13 53 67 54 84 55 196 56 274 57 999 58 47 61 168 65 18 66 15 
67 393 68 40 69 73 70 20 77 23 79 67 80 273 81 269 82 411 83 147 
84 18 91 12 93 11 94 12 95 49 96 23 97 17 99 13 111 11 124 119 
125 12 139 68 140 13 142 13 143 14 144 14 
