Name: 1-ACETYL-4-METHYL-3-(2-PYRIDYL)-2-PYRAZOLINE
MW: 203
Formula: C11H13N3O
Synonym: MassBank: JP001995
Synonym: 1-ACETYL-4-METHYL-3-(2-PYRIDYL)-2-PYRAZOLINE
Structure: 312D41434554594C2D342D4D455448594C2D332D28322D5059524944594C292D322D505952415A4F4C494E452E6D6F6C0A20204368656D447261773131313730393231303732440A2031352031362020302020302020302020302020302020302020302020303939392056323030300A2020202D312E3136313720202020302E3237393620202020302E30303030204E202020302020302020302020302020302020302020302020302020302020302020302020300A2020202D302E3337373120202020302E3533343520202020302E30303030204E202020302020302020302020302020302020302020302020302020302020302020302020300A20202020302E313037382020202D302E3133323920202020302E303030302043202020302020302020302020302020302020302020302020302020302020302020302020300A2020202D302E333737312020202D302E3830303420202020302E303030302043202020302020302020302020302020302020302020302020302020302020302020302020300A2020202D312E313631372020202D302E3534353420202020302E303030302043202020302020302020302020302020302020302020302020302020302020302020302020300A20202020302E393332382020202D302E3133323920202020302E303030302043202020302020302020302020302020302020302020302020302020302020302020302020300A20202020312E333435332020202D302E3834373420202020302E303030302043202020302020302020302020302020302020302020302020302020302020302020302020300A20202020322E313730332020202D302E3834373420202020302E303030302043202020302020302020302020302020302020302020302020302020302020302020302020300A20202020322E353832382020202D302E3133323920202020302E303030302043202020302020302020302020302020302020302020302020302020302020302020302020300A20202020322E3137303320202020302E3538313620202020302E303030302043202020302020302020302020302020302020302020302020302020302020302020302020300A20202020312E3334353320202020302E3538313620202020302E30303030204E202020302020302020302020302020302020302020302020302020302020302020302020300A2020202D302E313232322020202D312E3538353020202020302E303030302043202020302020302020302020302020302020302020302020302020302020302020302020300A2020202D312E3832393220202020302E3736343520202020302E303030302043202020302020302020302020302020302020302020302020302020302020302020302020300A2020202D322E3538323820202020302E3432383920202020302E30303030204F202020302020302020302020302020302020302020302020302020302020302020302020300A2020202D312E3734323920202020312E3538353020202020302E303030302043202020302020302020302020302020302020302020302020302020302020302020302020300A2020312020322020312020302020202020200A2020322020332020322020302020202020200A2020332020342020312020302020202020200A2020342020352020312020302020202020200A2020312020352020312020302020202020200A2020362020372020312020302020202020200A2020372020382020322020302020202020200A2020382020392020312020302020202020200A2020392031302020322020302020202020200A2031302031312020312020302020202020200A2020362031312020322020302020202020200A2020332020362020312020302020202020200A2020342031322020312020302020202020200A2031332031342020322020302020202020200A2031332031352020312020302020202020200A2020312031332020312020302020202020200A4D2020454E44
Contributor: SASAKI S, TOYOHASHI UNIV. OF TECH.
InstType: EI
InstName: MX-1303
IoniMethod: _ENERGY 50 eV
IonPolarity: pos
Date: 2010-10-09 19:48:36+02:00
Num Peaks: 14
78 206 79 376 105 35 117 21 118 62 127 47 132 45 133 12 146 462 160 999 
161 595 162 3 202 43 203 285 
