Name: 4-CHLORO-3-BUTEN-2-ONE
MW: 104
Formula: C4H5ClO
Synonym: MassBank: JP009996
Synonym: 4-CHLORO-3-BUTEN-2-ONE
Synonym: -BUTENE-3-ONE-1-CHLORO
Structure: 310A32320A425554454E452D332D4F4E452D312D43484C4F524F2E6D6F6C0A20204368656D447261773130323230393232323832440A2020362020352020302020302020302020302020302020302020302020303939392056323030300A2020202D302E303437392020202D302E3533353920202020302E303030302043202020302020302020302020302020302020302020302020302020302020302020302020300A2020202D302E3436303420202020302E3137383620202020302E303030302043202020302020302020302020302020302020302020302020302020302020302020302020300A2020202D302E3034373920202020302E3839333120202020302E303030302043202020302020302020302020302020302020302020302020302020302020302020302020300A2020202D312E3238353420202020302E3137383620202020302E30303030204F202020302020302020302020302020302020302020302020302020302020302020302020300A20202020302E353730392020202D302E3438303620202020302E303030302043202020302020302020302020302020302020302020302020302020302020302020302020300A20202020312E323835342020202D302E3839333120202020302E3030303020436C2020302020302020302020302020302020302020302020302020302020302020302020300A2020312020322020312020302020202020200A2020322020332020312020302020202020200A2020322020342020322020302020202020200A2020312020352020322020302020202020200A2020352020362020312020302020202020200A4D202053545920203120202031205355500A4D2020534C4220203120202031202020310A4D202053414C2020203120203220202035202020360A4D202053424C20202031202031202020340A4D2020534D5420202031204348436C0A4D2020534256202020312020342020202D362E3436323220202020352E393333380A4D2020454E44
Contributor: KURARAY CO., LTD.
InstType: EI
InstName: JEOL JMS-D-300
IoniMethod: _ENERGY 70 eV
IonPolarity: pos
Date: 2010-10-09 19:48:36+02:00
Num Peaks: 13
26 19 43 306 60 11 61 18 62 11 63 58 89 999 90 3 91 338 92 13 
104 270 105 1 106 90 
