Name: MassBank: JP006340
MW: 166
Formula: C9H10O3
Synonym: MassBank: JP006340
Synonym: 2-HYDROXY-6-METHOXYACETOPHENONE (6,6,6-D3)
Synonym: 2-HYDROXY-6-DEUTEROMETHOXYACETOPHENONE
Structure: 322D485944524F58592D362D4D4554484F5859414345544F5048454E4F4E452028362C362C362D4433292E6D6F6C0A20204368656D447261773031323131303231333432440A2031352031352020302020302020302020302020302020302020302020303939392056323030300A2020202D312E343238392020202D302E3230363220202020302E303030302043202020302020302020302020302020302020302020302020302020302020302020302020300A2020202D312E343238392020202D312E3033313320202020302E303030302043202020302020302020302020302020302020302020302020302020302020302020302020300A2020202D302E373134352020202D312E3434333820202020302E303030302043202020302020302020302020302020302020302020302020302020302020302020302020300A20202020302E303030302020202D312E3033313320202020302E303030302043202020302020302020302020302020302020302020302020302020302020302020302020300A20202020302E303030302020202D302E3230363220202020302E303030302043202020302020302020302020302020302020302020302020302020302020302020302020300A2020202D302E3731343520202020302E3230363220202020302E303030302043202020302020302020302020302020302020302020302020302020302020302020302020300A2020202D302E3731343520202020312E3033313320202020302E303030302043202020302020302020302020302020302020302020302020302020302020302020302020300A2020202D322E3134333420202020302E3230363220202020302E30303030204F202020302020302020302020302020302020302020302020302020302020302020302020300A20202020302E3731343520202020302E3230363220202020302E30303030204F202020302020302020302020302020302020302020302020302020302020302020302020300A20202020302E3030303020202020312E3434333820202020302E303030302043202020302020302020302020302020302020302020302020302020302020302020302020300A2020202D312E3432383920202020312E3434333820202020302E30303030204F202020302020302020302020302020302020302020302020302020302020302020302020300A20202020312E343238392020202D302E3230363220202020302E303030302043202020302020302020302020302020302020302020302020302020302020302020302020300A20202020322E313433342020202D302E3631383720202020302E303030302048202020312020302020302020302020302020302020302020302020302020302020302020300A20202020312E3834313420202020302E3530383220202020302E303030302048202020312020302020302020302020302020302020302020302020302020302020302020300A20202020312E303136342020202D302E3932303720202020302E303030302048202020312020302020302020302020302020302020302020302020302020302020302020300A2020312020322020322020302020202020200A2020322020332020312020302020202020200A2020332020342020322020302020202020200A2020342020352020312020302020202020200A2020352020362020322020302020202020200A2020362020312020312020302020202020200A2020362020372020312020302020202020200A2020312020382020312020302020202020200A2020352020392020312020302020202020200A2020372031302020312020302020202020200A2020372031312020322020302020202020200A2020392031322020312020302020202020200A2031322031332020312020302020202020200A2031322031342020312020302020202020200A2031322031352020312020302020202020200A4D202049534F2020332020313320202032202031342020203220203135202020320A4D2020454E44
Contributor: EGUCHI S, FAC. OF SCIENCE, HIROSHIMA UNIV.
InstType: EI
InstName: HITACHI RMU-7L
IoniMethod: _ENERGY 70 eV
IonPolarity: pos
Date: 2010-10-09 19:48:36+02:00
Num Peaks: 59
40 110 41 75 42 125 43 80 44 55 49 25 50 195 51 50 52 455 53 400 
54 38 55 11 56 25 61 30 62 115 63 20 64 95 65 138 66 345 67 10 
68 55 69 95 70 60 74 4 75 35 76 35 77 165 78 8 79 120 80 145 
81 40 82 2 83 35 91 20 92 30 93 4 94 110 95 39 98 30 105 4 
106 10 107 55 108 195 109 3 121 25 122 40 123 28 136 14 137 38 149 30 
150 35 151 4 152 30 153 60 154 999 155 11 169 340 170 55 171 10 
