Name: 3-METHYLCARBAZOLE
CAS: 4630-20-0
MW: 181
Formula: C13H11N
Synonym: MassBank: JP004328
Synonym: 3-METHYLCARBAZOLE
Structure: 332D4D455448594C43415242415A4F4C452E6D6F6C0A20204368656D447261773033323031303135323932440A2031342031362020302020302020302020302020302020302020302020303939392056323030300A20202020302E343833322020202D312E3032313020202020302E30303030204E202020302020302020302020302020302020302020302020302020302020302020302020300A2020202D302E323730342020202D302E3638353520202020302E303030302043202020302020302020302020302020302020302020302020302020302020302020302020300A2020202D312E303234312020202D312E3032313020202020302E303030302043202020302020302020302020302020302020302020302020302020302020302020302020300A2020202D312E363931362020202D302E3533363120202020302E303030302043202020302020302020302020302020302020302020302020302020302020302020302020300A2020202D312E3630353320202020302E3238343420202020302E303030302043202020302020302020302020302020302020302020302020302020302020302020302020300A2020202D302E3835313620202020302E3631393920202020302E303030302043202020302020302020302020302020302020302020302020302020302020302020302020300A2020202D302E3138343220202020302E3133353020202020302E303030302043202020302020302020302020302020302020302020302020302020302020302020302020300A20202020302E3632323820202020302E3330363520202020302E303030302043202020302020302020302020302020302020302020302020302020302020302020302020300A20202020312E3033353320202020312E3032313020202020302E303030302043202020302020302020302020302020302020302020302020302020302020302020302020300A20202020312E3836303320202020312E3032313020202020302E303030302043202020302020302020302020302020302020302020302020302020302020302020302020300A20202020322E3237323820202020302E3330363520202020302E303030302043202020302020302020302020302020302020302020302020302020302020302020302020300A20202020312E383630332020202D302E3430373920202020302E303030302043202020302020302020302020302020302020302020302020302020302020302020302020300A20202020312E303335332020202D302E3430373920202020302E303030302043202020302020302020302020302020302020302020302020302020302020302020302020300A2020202D322E3237323820202020302E3736393320202020302E303030302043202020302020302020302020302020302020302020302020302020302020302020302020300A2020312020322020312020302020202020200A2020322020332020312020302020202020200A2020332020342020322020302020202020200A2020342020352020312020302020202020200A2020352020362020322020302020202020200A2020362020372020312020302020202020200A2020322020372020322020302020202020200A2020372020382020312020302020202020200A2020382020392020312020302020202020200A2020392031302020322020302020202020200A2031302031312020312020302020202020200A2031312031322020322020302020202020200A2031322031332020312020302020202020200A2020382031332020322020302020202020200A2020312031332020312020302020202020200A2020352031342020312020302020202020200A4D2020454E44
Contributor: SASAKI S, TOYOHASHI UNIV. OF TECH.
InstType: EI
InstName: MX-1303
IoniMethod: _ENERGY 50 eV
IonPolarity: pos
Date: 2010-10-09 19:48:36+02:00
Num Peaks: 45
29 16 39 25 41 10 42 1 50 11 51 23 52 11 62 1 63 29 64 10 
74 17 75 3 75.5 13 76 41 76.5 11 77 8 77.5 14 87 11 89 33 89.5 4 
90 74 90.5 79 91 15 102 2 103 12 113 11 115 10 126 2 127 34 128 23 
139 12 140 2 150 15 151 40 152 120 153 4 154 24 164 10 177 24 178 8 
179 89 180 821 181 999 182 15 183 10 
