Name: MassBank: JP003650
MW: 236
Formula: C16H28O
Synonym: MassBank: JP003650
Synonym: 1,5-DI-TERT-BUTYL-3,3-DIMETHYLBICYCLO(3.1.0)HEXAN-2-ONE
Structure: 312C352D44492D544552542D425554594C2D332C332D44494D455448594C42494359434C4F28332E312E3029484558414E2D322D4F4E452E6D6F6C0A20204368656D447261773131313630393132333332440A2031372031382020302020302020302020302020302020302020302020303939392056323030300A2020202D302E313139352020202D302E3132323320202020302E303030302043202020302020302020302020302020302020302020302020302020302020302020302020300A2020202D302E3033333320202020302E3639383220202020302E303030302043202020302020302020302020302020302020302020302020302020302020302020302020300A20202020302E3737333720202020302E3836393720202020302E303030302043202020302020302020302020302020302020302020302020302020302020302020302020300A20202020312E3138363220202020302E3135353220202020302E303030302043202020302020302020302020302020302020302020302020302020302020302020302020300A20202020302E363334312020202D302E3435373920202020302E303030302043202020302020302020302020302020302020302020302020302020302020302020302020300A2020202D302E303333332020202D302E3934323820202020302E303030302043202020302020302020302020302020302020302020302020302020302020302020302020300A2020202D302E3634363420202020312E3235303220202020302E30303030204F202020302020302020302020302020302020302020302020302020302020302020302020300A20202020302E3531383720202020312E3635343320202020302E303030302043202020302020302020302020302020302020302020302020302020302020302020302020300A20202020312E3532373320202020312E3230353320202020302E303030302043202020302020302020302020302020302020302020302020302020302020302020302020300A20202020312E313836322020202D312E3037313020202020302E303030302043202020302020302020302020302020302020302020302020302020302020302020302020300A20202020302E363032382020202D312E3635343320202020302E303030302043202020302020302020302020302020302020302020302020302020302020302020302020300A20202020312E373639352020202D302E3438373620202020302E303030302043202020302020302020302020302020302020302020302020302020302020302020302020300A20202020312E373639352020202D312E3635343320202020302E303030302043202020302020302020302020302020302020302020302020302020302020302020302020300A2020202D302E393434352020202D302E3132323320202020302E303030302043202020302020302020302020302020302020302020302020302020302020302020302020300A2020202D302E393434352020202D302E3934373320202020302E303030302043202020302020302020302020302020302020302020302020302020302020302020302020300A2020202D312E373639352020202D302E3132323320202020302E303030302043202020302020302020302020302020302020302020302020302020302020302020302020300A2020202D302E3934343520202020302E3730323720202020302E303030302043202020302020302020302020302020302020302020302020302020302020302020302020300A2020312020322020312020302020202020200A2020322020332020312020302020202020200A2020332020342020312020302020202020200A2020342020352020312020302020202020200A2020352020362020312020302020202020200A2020312020362020312020302020202020200A2020312020352020312020302020202020200A2020322020372020322020302020202020200A2020332020382020312020362020202020200A2020332020392020312020312020202020200A2031302031312020312020302020202020200A2031302031332020312020302020202020200A2031302031322020312020302020202020200A2020352031302020312020302020202020200A2031342031352020312020302020202020200A2031342031372020312020302020202020200A2031342031362020312020302020202020200A2020312031342020312020302020202020200A4D2020454E44
Contributor: SASAKI S, TOYOHASHI UNIV. OF TECH.
InstType: EI
InstName: Unknown
IoniMethod: EI
IonPolarity: pos
Date: 2010-10-09 19:48:36+02:00
Num Peaks: 14
41 300 43 100 55 150 57 999 67 60 69 100 81 50 83 1 109 100 123 100 
137 200 165 5 180 770 236 4 
