Name: MassBank: JP001992
MW: 175
Formula: C11H13NO
Synonym: MassBank: JP001992
Synonym: 7-METHOXY-2,3-DIMETHYLINDOLE
Structure: 372D4D4554484F58592D322C332D44494D455448594C494E444F4C452E6D6F6C0A20204368656D447261773035323131303036303332440A2031332031342020302020302020302020302020302020302020302020303939392056323030300A20202020302E3537333220202020302E3937303320202020302E30303030204E202020302020302020302020302020302020302020302020302020302020302020302020300A20202020312E3332363920202020302E3633343820202020302E303030302043202020302020302020302020302020302020302020302020302020302020302020302020300A20202020312E323430362020202D302E3138353720202020302E303030302043202020302020302020302020302020302020302020302020302020302020302020302020300A20202020302E343333372020202D302E3335373220202020302E303030302043202020302020302020302020302020302020302020302020302020302020302020302020300A20202020302E303231322020202D312E3037313720202020302E303030302043202020302020302020302020302020302020302020302020302020302020302020302020300A2020202D302E383033382020202D312E3037313720202020302E303030302043202020302020302020302020302020302020302020302020302020302020302020302020300A2020202D312E323136332020202D302E3335373220202020302E303030302043202020302020302020302020302020302020302020302020302020302020302020302020300A2020202D302E3830333820202020302E3335373220202020302E303030302043202020302020302020302020302020302020302020302020302020302020302020302020300A20202020302E3032313220202020302E3335373220202020302E303030302043202020302020302020302020302020302020302020302020302020302020302020302020300A20202020312E383533372020202D302E3733373720202020302E303030302043202020302020302020302020302020302020302020302020302020302020302020302020300A20202020322E3034313320202020312E3034373320202020302E303030302043202020302020302020302020302020302020302020302020302020302020302020302020300A2020202D312E3231363320202020312E3037313720202020302E30303030204F202020302020302020302020302020302020302020302020302020302020302020302020300A2020202D322E3034313320202020312E3037313720202020302E303030302043202020302020302020302020302020302020302020302020302020302020302020302020300A2020312020322020312020302020202020200A2020322020332020322020302020202020200A2020332020342020312020302020202020200A2020342020352020312020302020202020200A2020352020362020322020302020202020200A2020362020372020312020302020202020200A2020372020382020322020302020202020200A2020382020392020312020302020202020200A2020312020392020312020302020202020200A2020342020392020322020302020202020200A2020332031302020312020302020202020200A2020322031312020312020302020202020200A2031322031332020312020302020202020200A2020382031322020312020302020202020200A4D2020454E44
Contributor: SASAKI S, TOYOHASHI UNIV. OF TECH.
InstType: EI
InstName: MX-1303
IoniMethod: _ENERGY 50 eV
IonPolarity: pos
Date: 2010-10-09 19:48:36+02:00
Num Peaks: 10
45 30 87 30 131 41 132 32 144 36 159 63 160 274 174 30 175 999 176 106 
