Name: DARVON
MW: 339
Formula: C22H29NO2
Synonym: MassBank: JP003834
Synonym: DARVON
Synonym: PROPOXYPHENE
Structure: 303639315F50524F504F58595048454E452E6D6F6C0A20204368656D447261773038323031303037333132440A2032362032372020302020302020302020302020302020302020302020303939392056323030300A2020202D322E383538362020202D302E3232323420202020302E303030302043202020302020302020302020302020302020302020302020302020302020302020302020300A2020202D322E383538362020202D312E3034373420202020302E303030302043202020302020302020302020302020302020302020302020302020302020302020302020300A2020202D322E313434322020202D312E3435393920202020302E303030302043202020302020302020302020302020302020302020302020302020302020302020302020300A2020202D312E343239372020202D312E3034373420202020302E303030302043202020302020302020302020302020302020302020302020302020302020302020302020300A2020202D312E343239372020202D302E3232323420202020302E303030302043202020302020302020302020302020302020302020302020302020302020302020302020300A2020202D322E3134343220202020302E3139303120202020302E303030302043202020302020302020302020302020302020302020302020302020302020302020302020300A2020202D302E3731353220202020302E3139303120202020302E303030302043202020302020302020302020302020302020302020302020302020302020302020302020300A2020202D302E303030382020202D302E3232323420202020302E303030302043202020302020302020302020302020302020302020302020302020302020302020302020300A2020202D302E303030382020202D312E3034373420202020302E303030302043202020302020302020302020302020302020302020302020302020302020302020302020300A2020202D302E373135322020202D312E3435393920202020302E303030302043202020302020302020302020302020302020302020302020302020302020302020302020300A2020202D302E373135322020202D322E3238343920202020302E303030302043202020302020302020302020302020302020302020302020302020302020302020302020300A2020202D302E303030382020202D322E3639373420202020302E303030302043202020302020302020302020302020302020302020302020302020302020302020302020300A20202020302E373133372020202D322E3238343920202020302E303030302043202020302020302020302020302020302020302020302020302020302020302020302020300A20202020302E373133372020202D312E3435393920202020302E303030302043202020302020302020302020302020302020302020302020302020302020302020302020300A20202020302E3431313720202020302E3439323120202020302E30303030204F202020302020302020302020302020302020302020302020302020302020302020302020300A20202020302E373936312020202D302E3433353920202020302E303030302043202020302020302020302020302020302020302020302020302020302020302020302020300A20202020312E3337393520202020302E3134373520202020302E303030302043202020302020302020302020302020302020302020302020302020302020302020302020300A20202020312E323038362020202D312E3135303420202020302E303030302048202020302020302020302020302020302020302020302020302020302020302020302020300A20202020312E363231312020202D302E3433353920202020302E303030302043202020302020302020302020302020302020302020302020302020302020302020302020300A20202020322E303333362020202D312E3135303420202020302E30303030204E202020302020302020302020302020302020302020302020302020302020302020302020300A20202020312E363231312020202D312E3836343820202020302E303030302043202020302020302020302020302020302020302020302020302020302020302020302020300A20202020322E383538362020202D312E3135303420202020302E303030302043202020302020302020302020302020302020302020302020302020302020302020302020300A20202020302E3431313720202020312E3331373120202020302E303030302043202020302020302020302020302020302020302020302020302020302020302020302020300A20202020312E3233363720202020312E3331373120202020302E30303030204F202020302020302020302020302020302020302020302020302020302020302020302020300A2020202D302E3137313620202020312E3930303520202020302E303030302043202020302020302020302020302020302020302020302020302020302020302020302020300A20202020302E3034313920202020322E3639373420202020302E303030302043202020302020302020302020302020302020302020302020302020302020302020302020300A2020312020322020322020302020202020200A2020322020332020312020302020202020200A2020332020342020322020302020202020200A2020342020352020312020302020202020200A2020352020362020322020302020202020200A2020362020312020312020302020202020200A2020352020372020312020302020202020200A2020372020382020312020302020202020200A2020382020392020312020312020202020200A2020392031302020322020302020202020200A2031302031312020312020302020202020200A2031312031322020322020302020202020200A2031322031332020312020302020202020200A2031332031342020322020302020202020200A2031342020392020312020302020202020200A2020382031352020312020312020202020200A2020382031362020312020302020202020200A2031362031372020312020312020202020200A2031362031382020312020312020202020200A2031362031392020312020302020202020200A2031392032302020312020302020202020200A2032302032312020312020302020202020200A2032302032322020312020302020202020200A2031352032332020312020302020202020200A2032332032342020322020302020202020200A2032332032352020312020302020202020200A2032352032362020312020302020202020200A4D2020454E44
Contributor: SASAKI S, TOYOHASHI UNIV. OF TECH.
InstType: EI
InstName: Unknown
IoniMethod: _ENERGY 70 eV
IonPolarity: pos
Date: 2010-10-09 19:48:36+02:00
Num Peaks: 61
26 1 27 6 28 15 29 4 30 13 35 2 36 1 39 0 41 4 42 19 
43 7 44 1 45 3 47 6 48 3 49 4 50 1 51 15 55 2 56 0 
57 49 58 999 59 46 65 1 70 2 71 5 73 1 74 0 77 14 78 1 
85 4 88 0 89 1 91 31 92 2 102 0 103 1 105 16 106 1 115 1 
116 2 117 9 128 2 129 0 130 7 131 1 132 1 133 0 134 2 143 1 
165 1 174 0 178 3 179 3 193 5 197 0 208 10 209 1 250 3 265 1 
266 4 
