Name: MassBank: JP009426
MW: 160
Formula: C10H8O2
Synonym: MassBank: JP009426
Synonym: 3,4-BENZO-2-OXABICYCLO(4.1.0)HEPT-3-EN-5-ONE(7,7-D2)
Synonym: 9,9-DIDEUTEROHOMOCHROMONE
Structure: 332C342D42454E5A4F2D322D4F584142494359434C4F28342E312E3029484550542D332D454E2D352D4F4E4528372C372D4432292E6D6F6C0A20204368656D447261773032323131303232303432440A2031342031362020302020302020302020302020302020302020302020303939392056323030300A2020202D322E3134333320202020302E3832353020202020302E303030302043202020302020302020302020302020302020302020302020302020302020302020302020300A2020202D322E313433332020202D302E3030303020202020302E303030302043202020302020302020302020302020302020302020302020302020302020302020302020300A2020202D312E343238392020202D302E3431323520202020302E303030302043202020302020302020302020302020302020302020302020302020302020302020302020300A2020202D302E373134352020202D302E3030303020202020302E303030302043202020302020302020302020302020302020302020302020302020302020302020302020300A2020202D302E3731343520202020302E3832353020202020302E303030302043202020302020302020302020302020302020302020302020302020302020302020302020300A2020202D312E3432383920202020312E3233373520202020302E303030302043202020302020302020302020302020302020302020302020302020302020302020302020300A2020202D302E303030302020202D302E3431323520202020302E303030302043202020302020302020302020302020302020302020302020302020302020302020302020300A20202020302E373134352020202D302E3030303020202020302E303030302043202020302020302020302020302020302020302020302020302020302020302020302020300A20202020302E3731343520202020302E3832353020202020302E303030302043202020302020302020302020302020302020302020302020302020302020302020302020300A2020202D302E3030303020202020312E3233373520202020302E30303030204F202020302020302020302020302020302020302020302020302020302020302020302020300A20202020312E3432383920202020302E3431323520202020302E303030302043202020302020302020302020302020302020302020302020302020302020302020302020300A20202020322E3134333320202020302E3832353020202020302E303030302048202020312020302020302020302020302020302020302020302020302020302020302020300A20202020322E313433332020202D302E3030303020202020302E303030302048202020312020302020302020302020302020302020302020302020302020302020302020300A2020202D302E303030302020202D312E3233373520202020302E30303030204F202020302020302020302020302020302020302020302020302020302020302020302020300A2020312020322020322020302020202020200A2020322020332020312020302020202020200A2020332020342020322020302020202020200A2020342020352020312020302020202020200A2020352020362020322020302020202020200A2020362020312020312020302020202020200A2020342020372020312020302020202020200A2020372020382020312020302020202020200A2020382020392020312020302020202020200A2020392031302020312020302020202020200A2031302020352020312020302020202020200A2020382031312020312020302020202020200A2031312020392020312020302020202020200A2031312031322020312020312020202020200A2031312031332020312020362020202020200A2020372031342020322020302020202020200A4D202049534F202032202031322020203220203133202020320A4D2020454E44
Contributor: EGUCHI S, FAC. OF SCIENCE, HIROSHIMA UNIV.
InstType: EI
InstName: HITACHI RMU-7L
IoniMethod: _ENERGY 70 eV
IonPolarity: pos
Date: 2010-10-09 19:48:36+02:00
Num Peaks: 44
50 215 51 130 52 100 53 63 55 10 56 49 57 90 58 20 61 20 62 70 
63 173 64 133 65 50 66 35 67 69 68 15 74 95 75 80 76 520 77 140 
78 120 79 110 80 64 81 26 90 150 91 50 103 48 104 530 105 260 106 100 
107 20 120 125 121 43 130 2 131 110 132 552 133 538 134 182 135 60 160 95 
161 448 162 999 163 133 164 19 
