Name: 2-PHENYLETHYLAMINE
MW: 121
Formula: C8H11N
Synonym: MassBank: JP009400
Synonym: 2-PHENYLETHYLAMINE
Structure: 310A32330A322D5048454E594C455448594C414D494E452E6D6F6C0A20204368656D447261773032323131303134323732440A2020392020392020302020302020302020302020302020302020302020303939392056323030300A2020202D312E3835363320202020302E3731343520202020302E30303030204E202020302020302020302020302020302020302020302020302020302020302020302020300A2020202D312E3033313320202020302E3731343520202020302E303030302043202020302020302020302020302020302020302020302020302020302020302020302020300A2020202D302E363138382020202D302E3030303020202020302E303030302043202020302020302020302020302020302020302020302020302020302020302020302020300A20202020302E323036322020202D302E3030303020202020302E303030302043202020302020302020302020302020302020302020302020302020302020302020302020300A20202020302E3631383820202020302E3731343520202020302E303030302043202020302020302020302020302020302020302020302020302020302020302020302020300A20202020312E3434333720202020302E3731343520202020302E303030302043202020302020302020302020302020302020302020302020302020302020302020302020300A20202020312E383536332020202D302E3030303020202020302E303030302043202020302020302020302020302020302020302020302020302020302020302020302020300A20202020312E343433372020202D302E3731343520202020302E303030302043202020302020302020302020302020302020302020302020302020302020302020302020300A20202020302E363138372020202D302E3731343520202020302E303030302043202020302020302020302020302020302020302020302020302020302020302020302020300A2020322020332020312020302020202020200A2020312020322020312020302020202020200A2020342020352020312020302020202020200A2020352020362020322020302020202020200A2020362020372020312020302020202020200A2020372020382020322020302020202020200A2020382020392020312020302020202020200A2020342020392020322020302020202020200A2020332020342020312020302020202020200A4D2020454E44
Contributor: GUNMA COLLEGE OF TECHNOLOGY
InstType: EI
InstName: HITACHI M-80A
IoniMethod: _ENERGY 70 eV
IonPolarity: pos
Date: 2010-10-09 19:48:36+02:00
Num Peaks: 41
15 93 26 18 27 88 28 51 29 58 30 999 31 21 38 16 39 77 40 18 
41 240 42 147 43 85 44 80 45 91 50 24 51 32 52 13 53 11 54 11 
55 10 56 44 57 15 58 914 59 42 63 23 65 48 66 17 70 12 73 24 
74 124 76 12 77 21 86 32 91 65 92 24 94 31 105 11 106 11 107 10 
121 21 
