Name: TETRAHYDROLAVANDULOL
MW: 158
Formula: C10H22O
Synonym: MassBank: JP007029
Synonym: TETRAHYDROLAVANDULOL
Synonym: 5-METHYL-2-ISOPROPYLHEXANOL
Structure: 5445545241485944524F4C4156414E44554C4F4C2E6D6F6C0A20204368656D447261773034323331303037313132440A2031312031302020302020302020302020302020302020302020302020303939392056323030300A2020202D312E3434333820202020302E3335373220202020302E303030302043202020302020302020302020302020302020302020302020302020302020302020302020300A2020202D302E3631383820202020302E3335373220202020302E303030302043202020302020302020302020302020302020302020302020302020302020302020302020300A2020202D302E3230363220202020312E3037313720202020302E303030302043202020302020302020302020302020302020302020302020302020302020302020302020300A20202020302E3631383720202020312E3037313720202020302E303030302043202020302020302020302020302020302020302020302020302020302020302020302020300A2020202D302E3631383820202020312E3738363220202020302E303030302043202020302020302020302020302020302020302020302020302020302020302020302020300A2020202D302E323036322020202D302E3335373220202020302E303030302043202020302020302020302020302020302020302020302020302020302020302020302020300A20202020302E363138372020202D302E3335373220202020302E303030302043202020302020302020302020302020302020302020302020302020302020302020302020300A20202020312E303331332020202D312E3037313720202020302E303030302043202020302020302020302020302020302020302020302020302020302020302020302020300A20202020312E383536332020202D312E3037313720202020302E303030302043202020302020302020302020302020302020302020302020302020302020302020302020300A20202020302E363138382020202D312E3738363220202020302E303030302043202020302020302020302020302020302020302020302020302020302020302020302020300A2020202D312E383536332020202D302E3335373220202020302E30303030204F202020302020302020302020302020302020302020302020302020302020302020302020300A2020312020322020312020302020202020200A2020322020332020312020302020202020200A2020332020342020312020302020202020200A2020332020352020312020302020202020200A2020322020362020312020302020202020200A2020362020372020312020302020202020200A2020372020382020312020302020202020200A2020382020392020312020302020202020200A2020382031302020312020302020202020200A2020312031312020312020302020202020200A4D2020454E44
Contributor: SODA AROMATIC CO., LTD.
InstType: EI
InstName: HITACHI M-80B
IoniMethod: _ENERGY 70 eV
IonPolarity: pos
Date: 2010-10-09 19:48:36+02:00
Num Peaks: 39
27 220 28 22 29 217 31 128 39 163 40 28 41 635 42 93 43 999 44 45 
45 41 53 59 54 31 55 574 56 496 57 861 58 40 59 15 67 40 68 28 
69 486 70 253 71 777 72 44 81 22 82 26 83 129 84 217 85 321 86 17 
96 30 97 186 98 35 112 28 115 22 125 20 126 20 127 40 140 37 
