Name: TRANS-ACONITIC ACID TRIMETHYL ESTER
MW: 216
Formula: C9H12O6
Synonym: MassBank: JP002228
Synonym: TRANS-ACONITIC ACID TRIMETHYL ESTER
Structure: 5452414E532D41434F4E495449432041434944205452494D455448594C2045535445522E6D6F6C0A20204368656D447261773038313231303038303632440A2031352031342020302020302020302020302020302020302020302020303939392056323030300A20202020312E323337352020202D302E3731343520202020302E303030302043202020302020302020302020302020302020302020302020302020302020302020302020300A20202020302E3832353020202020302E3030303020202020302E303030302043202020302020302020302020302020302020302020302020302020302020302020302020300A2020202D302E3030303020202020302E3030303020202020302E303030302043202020302020302020302020302020302020302020302020302020302020302020302020300A2020202D302E3431323520202020302E3731343520202020302E303030302043202020302020302020302020302020302020302020302020302020302020302020302020300A2020202D302E343132352020202D302E3731343520202020302E303030302043202020302020302020302020302020302020302020302020302020302020302020302020300A2020202D312E323337352020202D302E3731343520202020302E303030302043202020302020302020302020302020302020302020302020302020302020302020302020300A20202020302E383235302020202D312E3432383920202020302E30303030204F202020302020302020302020302020302020302020302020302020302020302020302020300A20202020322E303632352020202D302E3731343520202020302E30303030204F202020302020302020302020302020302020302020302020302020302020302020302020300A2020202D312E3233373520202020302E3731343520202020302E30303030204F202020302020302020302020302020302020302020302020302020302020302020302020300A2020202D302E3030303020202020312E3432383920202020302E30303030204F202020302020302020302020302020302020302020302020302020302020302020302020300A2020202D312E3635303020202020302E3030303020202020302E30303030204F202020302020302020302020302020302020302020302020302020302020302020302020300A2020202D312E363530302020202D312E3432383920202020302E30303030204F202020302020302020302020302020302020302020302020302020302020302020302020300A20202020322E343735302020202D312E3432383920202020302E303030302043202020302020302020302020302020302020302020302020302020302020302020302020300A20202020302E3832353020202020312E3432383920202020302E303030302043202020302020302020302020302020302020302020302020302020302020302020302020300A2020202D322E343735302020202D312E3432383920202020302E303030302043202020302020302020302020302020302020302020302020302020302020302020302020300A2020312020322020312020302020202020200A2020322020332020322020302020202020200A2020332020342020312020302020202020200A2020332020352020312020302020202020200A2020352020362020312020302020202020200A2020312020372020322020302020202020200A2020312020382020312020302020202020200A2020342020392020322020302020202020200A2020342031302020312020302020202020200A2020362031312020322020302020202020200A2020362031322020312020302020202020200A2020382031332020312020302020202020200A2031302031342020312020302020202020200A2031322031352020312020302020202020200A4D2020454E44
Contributor: KOGA M, UNIV. OF OCCUPATIONAL AND ENVIRONMENTAL HEALTH
InstType: EI
InstName: JEOL JMS-01-SG
IoniMethod: _ENERGY 70 eV
IonPolarity: pos
Date: 2010-10-09 19:48:36+02:00
Num Peaks: 82
43 7 45 56 47 9 50 3 51 96 52 89 53 380 54 6 55 169 56 7 
58 7 59 48 60 9 61 9 63 11 65 1 66 7 67 86 68 39 69 7 
70 9 71 9 75 75 79 7 80 42 81 93 82 51 83 29 84 46 85 46 
86 11 87 2 89 14 95 28 96 9 97 4 98 7 99 11 101 39 107 2 
108 44 110 98 111 636 112 14 113 49 114 14 115 9 116 1 123 84 124 11 
127 91 129 9 130 9 133 18 136 7 137 1 138 201 139 666 140 75 142 2 
143 75 144 9 147 7 151 3 152 9 155 93 156 25 157 11 166 999 167 530 
168 51 169 1 170 234 171 617 172 61 173 1 183 14 198 319 199 410 200 5 
201 7 215 37 
