Name: MassBank: JP008144
MW: 320
Formula: C23H44
Synonym: MassBank: JP008144
Synonym: (6Z,9Z)-6,9-TRICOSADIENE
Structure: 28365A2C395A292D362C392D545249434F53414449454E452E6D6F6C0A20204368656D447261773130323230393034353132440A2032372032362020302020302020302020302020302020302020302020303939392056323030300A2020202D322E3835373820202020332E3530363220202020302E303030302043202020302020302020302020302020302020302020302020302020302020302020302020300A2020202D322E3134333420202020332E3931383620202020302E303030302043202020302020302020302020302020302020302020302020302020302020302020302020300A2020202D312E3432383920202020332E3530363220202020302E303030302043202020302020302020302020302020302020302020302020302020302020302020302020300A2020202D332E3537323320202020332E3931383620202020302E303030302048202020302020302020302020302020302020302020302020302020302020302020302020300A2020202D322E3835373820202020322E3638313220202020302E303030302043202020302020302020302020302020302020302020302020302020302020302020302020300A2020202D322E3134333420202020342E3734333720202020302E303030302048202020302020302020302020302020302020302020302020302020302020302020302020300A2020202D332E3537323320202020322E3236383720202020302E303030302043202020302020302020302020302020302020302020302020302020302020302020302020300A2020202D332E3537323320202020312E3434333720202020302E303030302043202020302020302020302020302020302020302020302020302020302020302020302020300A2020202D342E3238363820202020312E3033313220202020302E303030302043202020302020302020302020302020302020302020302020302020302020302020302020300A2020202D342E3238363820202020302E3230363120202020302E303030302043202020302020302020302020302020302020302020302020302020302020302020302020300A2020202D302E3731343420202020332E3931383620202020302E303030302043202020302020302020302020302020302020302020302020302020302020302020302020300A20202020302E3030303020202020332E3530363220202020302E303030302043202020302020302020302020302020302020302020302020302020302020302020302020300A2020202D302E3731343420202020342E3734333720202020302E303030302048202020302020302020302020302020302020302020302020302020302020302020302020300A20202020302E3731343420202020332E3931383620202020302E303030302048202020302020302020302020302020302020302020302020302020302020302020302020300A20202020302E3030303020202020322E3638313220202020302E303030302043202020302020302020302020302020302020302020302020302020302020302020302020300A20202020302E3731343420202020322E3236383720202020302E303030302043202020302020302020302020302020302020302020302020302020302020302020302020300A20202020302E3731343420202020312E3434333720202020302E303030302043202020302020302020302020302020302020302020302020302020302020302020302020300A20202020312E3432383920202020312E3033313220202020302E303030302043202020302020302020302020302020302020302020302020302020302020302020302020300A20202020312E3432383920202020302E3230363120202020302E303030302043202020302020302020302020302020302020302020302020302020302020302020302020300A20202020322E313433342020202D302E3230363320202020302E303030302043202020302020302020302020302020302020302020302020302020302020302020302020300A20202020322E313433342020202D312E3033313220202020302E303030302043202020302020302020302020302020302020302020302020302020302020302020302020300A20202020322E383537382020202D312E3434333720202020302E303030302043202020302020302020302020302020302020302020302020302020302020302020302020300A20202020322E383537382020202D322E3236383820202020302E303030302043202020302020302020302020302020302020302020302020302020302020302020302020300A20202020332E353732332020202D322E3638313220202020302E303030302043202020302020302020302020302020302020302020302020302020302020302020302020300A20202020332E353732332020202D332E3530363320202020302E303030302043202020302020302020302020302020302020302020302020302020302020302020302020300A20202020342E323836382020202D332E3931383820202020302E303030302043202020302020302020302020302020302020302020302020302020302020302020302020300A20202020342E323836382020202D342E3734333720202020302E303030302043202020302020302020302020302020302020302020302020302020302020302020302020300A2020312020322020322020302020202020200A2020322020332020312020302020202020200A2020312020342020312020302020202020200A2020312020352020312020302020202020200A2020322020362020312020302020202020200A2020352020372020312020302020202020200A2020372020382020312020302020202020200A2020382020392020312020302020202020200A2020392031302020312020302020202020200A2020332031312020312020302020202020200A2031312031322020322020302020202020200A2031312031332020312020302020202020200A2031322031342020312020302020202020200A2031322031352020312020302020202020200A2031352031362020312020302020202020200A2031362031372020312020302020202020200A2031372031382020312020302020202020200A2031382031392020312020302020202020200A2031392032302020312020302020202020200A2032302032312020312020302020202020200A2032312032322020312020302020202020200A2032322032332020312020302020202020200A2032332032342020312020302020202020200A2032342032352020312020302020202020200A2032352032362020312020302020202020200A2032362032372020312020302020202020200A4D2020454E44
Contributor: YAMAOKA R, KYOTO INSTITUTE OF TECHNOLOGY
InstType: EI
InstName: HITACHI M-80B
IoniMethod: _ENERGY 70 eV
IonPolarity: pos
Date: 2010-10-09 19:48:36+02:00
Num Peaks: 64
41 541 42 77 43 558 51 15 53 92 54 559 55 738 56 80 57 348 58 19 
65 26 66 54 67 999 68 495 69 282 70 53 71 78 77 112 78 28 79 298 
80 251 81 876 82 832 83 331 84 39 85 56 91 77 92 13 93 59 94 45 
95 634 96 807 97 321 98 27 99 11 105 10 107 15 108 10 109 337 110 574 
111 109 121 13 122 11 123 186 124 207 125 60 126 12 137 97 138 185 139 23 
151 52 152 44 165 13 166 59 169 13 179 17 180 36 194 31 208 16 222 38 
223 13 250 10 320 169 321 46 
