Name: MassBank: JP007521
MW: 237
Formula: C8H5Cl3O2
Synonym: MassBank: JP007521
Synonym: 2,3,5-TRICHLOROPHENYL ACETATE
Structure: 322C332C352D54524943484C4F524F5048454E594C20414345544154452E6D6F6C0A20204368656D447261773132323030393038303332440A2031332031332020302020302020302020302020302020302020302020303939392056323030300A20202020302E3731343520202020312E3033313320202020302E303030302043202020302020302020302020302020302020302020302020302020302020302020302020300A20202020312E3432383920202020302E3631383720202020302E303030302043202020302020302020302020302020302020302020302020302020302020302020302020300A20202020302E3731343520202020312E3835363320202020302E30303030204F202020302020302020302020302020302020302020302020302020302020302020302020300A2020202D302E3030303020202020302E3631383820202020302E30303030204F202020302020302020302020302020302020302020302020302020302020302020302020300A2020202D302E303030302020202D302E3230363220202020302E303030302043202020302020302020302020302020302020302020302020302020302020302020302020300A2020202D302E373134352020202D302E3631383720202020302E303030302043202020302020302020302020302020302020302020302020302020302020302020302020300A2020202D302E373134352020202D312E3434333720202020302E303030302043202020302020302020302020302020302020302020302020302020302020302020302020300A20202020302E303030302020202D312E3835363320202020302E303030302043202020302020302020302020302020302020302020302020302020302020302020302020300A20202020302E373134352020202D312E3434333820202020302E303030302043202020302020302020302020302020302020302020302020302020302020302020302020300A20202020302E373134352020202D302E3631383720202020302E303030302043202020302020302020302020302020302020302020302020302020302020302020302020300A20202020312E343238392020202D312E3835363220202020302E3030303020436C2020302020302020302020302020302020302020302020302020302020302020302020300A2020202D312E343238392020202D312E3835363220202020302E3030303020436C2020302020302020302020302020302020302020302020302020302020302020302020300A2020202D312E343238392020202D302E3230363220202020302E3030303020436C2020302020302020302020302020302020302020302020302020302020302020302020300A2020312020322020312020302020202020200A2020312020332020322020302020202020200A2020312020342020312020302020202020200A2020352020362020312020302020202020200A2020362020372020322020302020202020200A2020372020382020312020302020202020200A2020382020392020322020302020202020200A2020392031302020312020302020202020200A2020352031302020322020302020202020200A2020392031312020312020302020202020200A2020372031322020312020302020202020200A2020362031332020312020302020202020200A2020342020352020312020302020202020200A4D2020454E44
Contributor: KOGA M, UNIV. OF OCCUPATIONAL AND ENVIRONMENTAL HEALTH
InstType: EI
InstName: JEOL JMS-01-SG
IoniMethod: _ENERGY 70 eV
IonPolarity: pos
Date: 2010-10-09 19:48:36+02:00
Num Peaks: 39
35 19 37 18 38 8 42 2 43 999 44 26 60 11 61 4 62 46 63 12 
72 14 73 2 74 15 83 14 85 11 96 2 97 83 98 11 99 28 107 2 
109 17 132 12 133 14 134 1 135 7 160 31 162 24 167 4 169 29 171 11 
196 200 197 1 198 185 199 12 200 63 202 0 238 53 240 53 242 14 
