Name: 2-HYDROXYPYRIDINE
CAS: 142-08-5
MW: 95
Formula: C5H5NO
Synonym: MassBank: JP009477
Synonym: 2-HYDROXYPYRIDINE
Synonym: 2-PYRIDINOL
Structure: 310A31390A322D485944524F58595059524944494E452E6D6F6C0A20204368656D447261773031323231303030303132440A2020372020372020302020302020302020302020302020302020302020303939392056323030300A2020202D302E3431323520202020302E3030303020202020302E303030302043202020302020302020302020302020302020302020302020302020302020302020302020300A20202020302E303030302020202D302E3731343520202020302E303030302043202020302020302020302020302020302020302020302020302020302020302020302020300A20202020302E383235302020202D302E3731343520202020302E303030302043202020302020302020302020302020302020302020302020302020302020302020302020300A20202020312E3233373520202020302E3030303020202020302E303030302043202020302020302020302020302020302020302020302020302020302020302020302020300A20202020302E3832353020202020302E3731343520202020302E303030302043202020302020302020302020302020302020302020302020302020302020302020302020300A20202020302E3030303020202020302E3731343520202020302E30303030204E202020302020302020302020302020302020302020302020302020302020302020302020300A2020202D312E3233373520202020302E3030303020202020302E30303030204F202020302020302020302020302020302020302020302020302020302020302020302020300A2020312020322020312020302020202020200A2020322020332020322020302020202020200A2020332020342020312020302020202020200A2020342020352020322020302020202020200A2020352020362020312020302020202020200A2020312020362020322020302020202020200A2020312020372020312020302020202020200A4D2020454E44
Contributor: NARA WOMEN'S UNIVERSITY
InstType: EI
InstName: HITACHI M-80
IoniMethod: _ENERGY 70 eV
IonPolarity: pos
Date: 2010-10-09 19:48:36+02:00
Num Peaks: 29
14 11 18 16 25 13 26 59 27 44 28 284 29 52 36 13 37 112 38 194 
39 462 40 192 41 252 42 47 49 23 50 81 51 84 52 46 53 15 63 13 
64 21 65 16 66 109 67 866 68 70 78 11 94 13 95 999 96 88 
