Name: 4-METHYLTHIAZOLE
CAS: 693-95-8
MW: 99
Formula: C4H5NS
Synonym: MassBank: JP007787
Synonym: 4-METHYLTHIAZOLE
Structure: 310A31370A342D4D455448594C544849415A4F4C452E6D6F6C0A20204368656D447261773034323231303136323732440A2020362020362020302020302020302020302020302020302020302020303939392056323030300A20202020312E3034373320202020302E3431323520202020302E303030302053202020302020302020302020302020302020302020302020302020302020302020302020300A20202020312E303437332020202D302E3431323520202020302E303030302043202020302020302020302020302020302020302020302020302020302020302020302020300A20202020302E323632372020202D302E3636373420202020302E30303030204E202020302020302020302020302020302020302020302020302020302020302020302020300A2020202D302E3232323320202020302E3030303020202020302E303030302043202020302020302020302020302020302020302020302020302020302020302020302020300A20202020302E3236323720202020302E3636373420202020302E303030302043202020302020302020302020302020302020302020302020302020302020302020302020300A2020202D312E3034373320202020302E3030303020202020302E303030302043202020302020302020302020302020302020302020302020302020302020302020302020300A2020312020322020312020302020202020200A2020322020332020322020302020202020200A2020332020342020312020302020202020200A2020342020352020322020302020202020200A2020312020352020312020302020202020200A2020342020362020312020302020202020200A4D2020454E44
Contributor: HASHIMOTO K, KYOTO COLLEGE OF PHARMACY
InstType: EI
InstName: HITACHI M-80
IoniMethod: _ENERGY 20 eV
IonPolarity: pos
Date: 2010-10-09 19:48:36+02:00
Num Peaks: 21
27 30 39 522 40 18 41 18 45 420 46 99 47 18 52 29 54 30 58 59 
59 39 69 18 70 78 71 999 72 826 73 188 74 128 98 100 99 883 100 268 
101 10 
