Name: 4-ALLYLANISOLE
MW: 148
Formula: C10H12O
Synonym: MassBank: JP009447
Synonym: 4-ALLYLANISOLE
Structure: 342D414C4C594C414E49534F4C452E6D6F6C0A20204368656D447261773131313730393231323532440A2031312031312020302020302020302020302020302020302020302020303939392056323030300A2020202D302E373134352020202D322E3437353020202020302E303030302043202020302020302020302020302020302020302020302020302020302020302020302020300A20202020302E303030302020202D322E3036323520202020302E30303030204F202020302020302020302020302020302020302020302020302020302020302020302020300A20202020302E303030302020202D312E3233373520202020302E303030302043202020302020302020302020302020302020302020302020302020302020302020302020300A2020202D302E373134352020202D302E3832353020202020302E303030302043202020302020302020302020302020302020302020302020302020302020302020302020300A2020202D302E3731343520202020302E3030303020202020302E303030302043202020302020302020302020302020302020302020302020302020302020302020302020300A20202020302E3030303020202020302E3431323520202020302E303030302043202020302020302020302020302020302020302020302020302020302020302020302020300A20202020302E3731343520202020302E3030303020202020302E303030302043202020302020302020302020302020302020302020302020302020302020302020302020300A20202020302E373134352020202D302E3832353020202020302E303030302043202020302020302020302020302020302020302020302020302020302020302020302020300A20202020302E3030303020202020312E3233373520202020302E303030302043202020302020302020302020302020302020302020302020302020302020302020302020300A20202020302E3731343520202020312E3635303020202020302E303030302043202020302020302020302020302020302020302020302020302020302020302020302020300A20202020302E3731343520202020322E3437353020202020302E303030302043202020302020302020302020302020302020302020302020302020302020302020302020300A2020312020322020312020302020202020200A2020322020332020312020302020202020200A2020332020342020312020302020202020200A2020342020352020322020302020202020200A2020352020362020312020302020202020200A2020362020372020322020302020202020200A2020372020382020312020302020202020200A2020332020382020322020302020202020200A2020392031302020312020302020202020200A2031302031312020322020302020202020200A2020362020392020312020302020202020200A4D2020454E44
Contributor: EGUCHI S, FAC. OF SCIENCE, HIROSHIMA UNIV.
InstType: EI
InstName: HITACHI RMS-4
IoniMethod: _ENERGY 80 eV
IonPolarity: pos
Date: 2010-10-09 19:48:36+02:00
Num Peaks: 54
40 10 41 50 42 10 43 15 50 80 51 145 52 65 53 35 55 10 56 65 
57 15 58 15 63 95 64 15 65 55 69 15 71 10 75 10 76 15 77 210 
78 105 79 105 83 10 89 30 90 10 91 135 92 20 93 10 102 20 103 60 
104 25 105 135 106 25 107 30 108 15 111 10 115 135 116 65 117 275 118 35 
119 25 121 445 122 25 129 10 131 25 132 40 133 175 134 15 145 10 146 10 
147 425 148 999 149 110 150 15 
