Name: TRIMETHYLENE GLYCOL
MW: 76
Formula: C3H8O2
Synonym: MassBank: JP005855
Synonym: TRIMETHYLENE GLYCOL
Structure: 310A31340A5452494D455448594C454E4520474C59434F4C2E6D6F6C0A20204368656D447261773038313231303038343432440A2020352020342020302020302020302020302020302020302020302020303939392056323030300A2020202D302E3731343520202020302E3230363320202020302E303030302043202020302020302020302020302020302020302020302020302020302020302020302020300A20202020302E303030302020202D302E3230363320202020302E303030302043202020302020302020302020302020302020302020302020302020302020302020302020300A20202020302E3731343520202020302E3230363320202020302E303030302043202020302020302020302020302020302020302020302020302020302020302020302020300A2020202D312E343238392020202D302E3230363320202020302E30303030204F202020302020302020302020302020302020302020302020302020302020302020302020300A20202020312E343238392020202D302E3230363220202020302E30303030204F202020302020302020302020302020302020302020302020302020302020302020302020300A2020312020322020312020302020202020200A2020322020332020312020302020202020200A2020312020342020312020302020202020200A2020332020352020312020302020202020200A4D2020454E44
Contributor: YAMAMOTO M, DEP. CHEMISTRY, FAC. SCIENCE, NARA WOMEN'S UNIV.
InstType: EI
InstName: HITACHI RMU-6M
IoniMethod: _ENERGY 70 eV
IonPolarity: pos
Date: 2010-10-09 19:48:36+02:00
Num Peaks: 25
14 17 15 57 26 57 27 246 28 999 29 229 30 159 31 647 39 32 40 35 
41 32 42 27 43 127 44 27 45 162 46 105 47 30 49 10 56 17 57 12 
58 450 59 754 60 37 75 10 76 5 
