Name: 1-(4-HYDROXY-3-METHOXYPHENYL)DEC-4-EN-3-ONE
CAS: 555-66-8
MW: 276
Formula: C17H24O3
Synonym: MassBank: JP007241
Synonym: 1-(4-HYDROXY-3-METHOXYPHENYL)DEC-4-EN-3-ONE
Synonym: SHOGAOL
Structure: 312D28342D485944524F58592D332D4D4554484F58595048454E594C294445432D342D454E2D332D4F4E452E6D6F6C0A20204368656D447261773131313730393137343332440A2032302032302020302020302020302020302020302020302020302020303939392056323030300A2020202D312E373836322020202D302E3431323520202020302E303030302043202020302020302020302020302020302020302020302020302020302020302020302020300A2020202D312E3037313720202020302E3030303020202020302E303030302043202020302020302020302020302020302020302020302020302020302020302020302020300A2020202D302E333537322020202D302E3431323520202020302E303030302043202020302020302020302020302020302020302020302020302020302020302020302020300A20202020302E3335373220202020302E3030303020202020302E303030302043202020302020302020302020302020302020302020302020302020302020302020302020300A20202020312E303731372020202D302E3431323520202020302E303030302043202020302020302020302020302020302020302020302020302020302020302020302020300A20202020312E3738363220202020302E3030303020202020302E303030302043202020302020302020302020302020302020302020302020302020302020302020302020300A20202020322E353030362020202D302E3431323520202020302E303030302043202020302020302020302020302020302020302020302020302020302020302020302020300A20202020332E3231353120202020302E3030303020202020302E303030302043202020302020302020302020302020302020302020302020302020302020302020302020300A20202020332E393239362020202D302E3431323520202020302E303030302043202020302020302020302020302020302020302020302020302020302020302020302020300A20202020342E3634343120202020302E3030303020202020302E303030302043202020302020302020302020302020302020302020302020302020302020302020302020300A2020202D302E333537322020202D312E3233373520202020302E30303030204F202020302020302020302020302020302020302020302020302020302020302020302020300A2020202D322E3530303620202020302E3030303020202020302E303030302043202020302020302020302020302020302020302020302020302020302020302020302020300A2020202D332E323135312020202D302E3431323520202020302E303030302043202020302020302020302020302020302020302020302020302020302020302020302020300A2020202D332E3932393620202020302E3030303020202020302E303030302043202020302020302020302020302020302020302020302020302020302020302020302020300A2020202D332E3932393620202020302E3832353020202020302E303030302043202020302020302020302020302020302020302020302020302020302020302020302020300A2020202D332E3231353120202020312E3233373520202020302E303030302043202020302020302020302020302020302020302020302020302020302020302020302020300A2020202D322E3530303620202020302E3832353020202020302E303030302043202020302020302020302020302020302020302020302020302020302020302020302020300A2020202D342E363434312020202D302E3431323520202020302E30303030204F202020302020302020302020302020302020302020302020302020302020302020302020300A2020202D342E363434312020202D312E3233373520202020302E303030302043202020302020302020302020302020302020302020302020302020302020302020302020300A2020202D342E3634343120202020312E3233373520202020302E30303030204F202020302020302020302020302020302020302020302020302020302020302020302020300A2020312020322020312020302020202020200A2020322020332020312020302020202020200A2020332020342020312020302020202020200A2020342020352020322020302020202020200A2020352020362020312020302020202020200A2020362020372020312020302020202020200A2020372020382020312020302020202020200A2020382020392020312020302020202020200A2020392031302020312020302020202020200A2020332031312020322020302020202020200A2031322031332020312020302020202020200A2031332031342020322020302020202020200A2031342031352020312020302020202020200A2031352031362020322020302020202020200A2031362031372020312020302020202020200A2031322031372020322020302020202020200A2031382031392020312020302020202020200A2031342031382020312020302020202020200A2031352032302020312020302020202020200A2020312031322020312020302020202020200A4D2020454E44
Contributor: ENDO K, PHARMACEUTICAL INST., TOHOKU UNIV.
InstType: EI
InstName: HITACHI M-52
IoniMethod: _ENERGY 25 eV
IonPolarity: pos
Date: 2010-10-09 19:48:36+02:00
Num Peaks: 110
39 11 41 123 43 68 45 1 51 11 53 25 55 397 56 2 57 27 59 22 
63 8 65 3 66 14 67 27 68 11 69 12 70 11 71 19 77 27 78 1 
79 41 81 66 82 19 83 4 84 8 89 11 91 342 92 5 93 49 94 38 
95 66 96 2 97 36 98 11 103 25 105 3 106 11 107 71 108 33 109 4 
110 8 115 11 117 27 118 1 119 241 120 30 121 47 122 11 123 19 124 88 
125 167 126 2 129 16 131 47 132 16 133 1 134 16 135 96 136 68 137 999 
138 151 139 25 142 8 143 2 144 11 145 60 146 11 147 3 148 22 149 25 
150 205 151 38 152 44 153 11 157 14 159 2 160 11 161 41 162 11 163 3 
164 14 166 11 173 14 174 1 175 33 176 8 177 38 178 1 179 47 187 30 
189 14 190 1 191 25 201 11 202 8 204 1 205 822 206 140 207 19 210 1 
218 19 219 8 220 8 232 1 248 22 259 8 275 11 276 66 277 132 278 52 
