Name: TRIMETHYLOLPROPANE TRIACRYLATE
MW: 296
Formula: C15H20O6
Synonym: MassBank: JP006045
Synonym: TRIMETHYLOLPROPANE TRIACRYLATE
Structure: 5452494D455448594C4F4C50524F50414E4520545249414352594C4154452E6D6F6C0A20204368656D447261773038313231303038343632440A2032312032302020302020302020302020302020302020302020302020303939392056323030300A20202020302E3136353820202020302E3030303020202020302E303030302043202020302020302020302020302020302020302020302020302020302020302020302020300A20202020302E3939303820202020302E3030303020202020302E303030302043202020302020302020302020302020302020302020302020302020302020302020302020300A20202020312E343033332020202D302E3731343520202020302E303030302043202020302020302020302020302020302020302020302020302020302020302020302020300A20202020302E313635382020202D302E3832353020202020302E303030302043202020302020302020302020302020302020302020302020302020302020302020302020300A2020202D302E3635393220202020302E3030303020202020302E303030302043202020302020302020302020302020302020302020302020302020302020302020302020300A20202020302E3136353820202020302E3832353020202020302E303030302043202020302020302020302020302020302020302020302020302020302020302020302020300A20202020302E383830332020202D322E3036323520202020302E303030302043202020302020302020302020302020302020302020302020302020302020302020302020300A20202020312E353934372020202D322E3437353020202020302E303030302043202020302020302020302020302020302020302020302020302020302020302020302020300A20202020322E333039322020202D322E3036323520202020302E303030302043202020302020302020302020302020302020302020302020302020302020302020302020300A20202020302E313635382020202D322E3437353020202020302E30303030204F202020302020302020302020302020302020302020302020302020302020302020302020300A20202020302E383830332020202D312E3233373520202020302E30303030204F202020302020302020302020302020302020302020302020302020302020302020302020300A2020202D312E383936372020202D302E3731343520202020302E303030302043202020302020302020302020302020302020302020302020302020302020302020302020300A2020202D322E333039322020202D312E3432383920202020302E303030302043202020302020302020302020302020302020302020302020302020302020302020302020300A2020202D312E383936372020202D322E3134333420202020302E303030302043202020302020302020302020302020302020302020302020302020302020302020302020300A2020202D322E3330393220202020302E3030303020202020302E30303030204F202020302020302020302020302020302020302020302020302020302020302020302020300A2020202D312E303731372020202D302E3731343520202020302E30303030204F202020302020302020302020302020302020302020302020302020302020302020302020300A2020202D302E3534383720202020322E3036323520202020302E303030302043202020302020302020302020302020302020302020302020302020302020302020302020300A2020202D312E3236333120202020322E3437353020202020302E303030302043202020302020302020302020302020302020302020302020302020302020302020302020300A2020202D312E3937373620202020322E3036323520202020302E303030302043202020302020302020302020302020302020302020302020302020302020302020302020300A20202020302E3136353820202020322E3437353020202020302E30303030204F202020302020302020302020302020302020302020302020302020302020302020302020300A2020202D302E3534383720202020312E3233373520202020302E30303030204F202020302020302020302020302020302020302020302020302020302020302020302020300A2020312020322020312020302020202020200A2020322020332020312020302020202020200A2020312020342020312020302020202020200A2020312020352020312020302020202020200A2020312020362020312020302020202020200A2020372020382020312020302020202020200A2020382020392020322020302020202020200A2020372031302020322020302020202020200A2020372031312020312020302020202020200A2020342031312020312020302020202020200A2031322031332020312020302020202020200A2031332031342020322020302020202020200A2031322031352020322020302020202020200A2031322031362020312020302020202020200A2020352031362020312020302020202020200A2031372031382020312020302020202020200A2031382031392020322020302020202020200A2031372032302020322020302020202020200A2031372032312020312020302020202020200A2020362032312020312020302020202020200A4D2020454E44
Contributor: HASHIMOTO K, KYOTO COLLEGE OF PHARMACY
InstType: EI
InstName: HITACHI M-80
IoniMethod: _ENERGY 20 eV
IonPolarity: pos
Date: 2010-10-09 19:48:36+02:00
Num Peaks: 38
55 999 56 35 67 28 68 164 69 43 70 23 73 17 80 52 81 30 82 32 
83 27 84 17 85 23 94 18 95 35 96 40 97 79 98 43 107 10 108 12 
109 20 110 18 111 14 112 20 122 19 123 43 124 88 125 16 127 157 137 22 
139 51 140 202 141 20 152 178 153 27 169 62 211 29 225 16 
