Name: META-NITROACETOPHENONE
MW: 165
Formula: C8H7NO3
Synonym: MassBank: JP001657
Synonym: META-NITROACETOPHENONE
Structure: 303239365F4D4554412D4E4954524F414345544F5048454E4F4E452E6D6F6C0A20204368656D447261773039303631303136303132440A2031322031322020302020302020302020302020302020302020302020303939392056323030300A2020202D312E3432383920202020302E3230363920202020302E303030302043202020302020302020302020302020302020302020302020302020302020302020302020300A2020202D312E343238392020202D302E3631383120202020302E303030302043202020302020302020302020302020302020302020302020302020302020302020302020300A2020202D302E373134352020202D312E3033303620202020302E303030302043202020302020302020302020302020302020302020302020302020302020302020302020300A20202020302E303030302020202D302E3631383120202020302E303030302043202020302020302020302020302020302020302020302020302020302020302020302020300A20202020302E3030303020202020302E3230363920202020302E303030302043202020302020302020302020302020302020302020302020302020302020302020302020300A2020202D302E3731343520202020302E3631393420202020302E303030302043202020302020302020302020302020302020302020302020302020302020302020302020300A20202020302E373134382020202D312E3835363920202020302E30303030204F202020302020302020302020302020302020302020302020302020302020302020302020300A20202020302E373134352020202D312E3033303620202020302E303030302043202020302020302020302020302020302020302020302020302020302020302020302020300A20202020312E343238392020202D302E3631383120202020302E303030302043202020302020302020302020302020302020302020302020302020302020302020302020300A2020202D302E3731343520202020312E3434343420202020302E30303030204E202020302020332020302020302020302020302020302020302020302020302020302020300A2020202D312E3432383920202020312E3835363920202020302E30303030204F202020302020302020302020302020302020302020302020302020302020302020302020300A2020202D302E3030303020202020312E3835363920202020302E30303030204F202020302020352020302020302020302020302020302020302020302020302020302020300A2020312020322020322020302020202020200A2020322020332020312020302020202020200A2020332020342020322020302020202020200A2020342020352020312020302020202020200A2020352020362020322020302020202020200A2020362020312020312020302020202020200A2020362031302020312020302020202020200A2020342020382020312020302020202020200A2020372020382020322020302020202020200A2020382020392020312020302020202020200A2031302031312020322020302020202020200A2031302031322020312020302020202020200A4D202043484720203220203130202020312020313220202D310A4D2020454E44
Contributor: TAJIMA S, GUNMA COLLEGE OF TECHNOLOGY
InstType: EI
InstName: HITACHI RMU-7M
IoniMethod: _ENERGY 70 eV
IonPolarity: pos
Date: 2010-10-09 19:48:36+02:00
Num Peaks: 24
39 20 43 277 50 104 51 48 62 12 63 30 64 20 65 40 74 41 75 72 
76 218 77 68 89 16 91 62 92 59 104 332 105 23 119 11 120 18 122 22 
150 999 151 80 165 102 166 8 
