Name: 4-BENZOYLOXY-1-(2-BENZOYLOXYETHYL)CYCLOHEXAN-1-OL
MW: 368
Formula: C22H24O5
Synonym: MassBank: JP002071
Synonym: 4-BENZOYLOXY-1-(2-BENZOYLOXYETHYL)CYCLOHEXAN-1-OL
Synonym: RENGYOL DIBENZOATE
Structure: 342D42454E5A4F594C4F58592D312D28322D42454E5A4F594C4F5859455448594C294359434C4F484558414E2D312D4F4C2E6D6F6C0A20204368656D447261773033323531303035333732440A2032372032392020302020302020302020302020302020302020302020303939392056323030300A2020202D302E3737353320202020302E3235373620202020302E303030302043202020302020302020302020302020302020302020302020302020302020302020302020300A2020202D312E343839382020202D302E3135343920202020302E303030302043202020302020302020302020302020302020302020302020302020302020302020302020300A2020202D322E3230343220202020302E3235373620202020302E303030302043202020302020302020302020302020302020302020302020302020302020302020302020300A2020202D322E3230343220202020312E3038323620202020302E303030302043202020302020302020302020302020302020302020302020302020302020302020302020300A2020202D312E3438393820202020312E3439353120202020302E303030302043202020302020302020302020302020302020302020302020302020302020302020302020300A2020202D302E3737353320202020312E3038323620202020302E303030302043202020302020302020302020302020302020302020302020302020302020302020302020300A2020202D302E343933312020202D302E3531373620202020302E30303030204F202020302020302020302020302020302020302020302020302020302020302020302020300A20202020302E3033373220202020302E3430303920202020302E303030302043202020302020302020302020302020302020302020302020302020302020302020302020300A20202020302E353637352020202D302E3233313120202020302E303030302043202020302020302020302020302020302020302020302020302020302020302020302020300A20202020312E333739392020202D302E3038373920202020302E30303030204F202020302020302020302020302020302020302020302020302020302020302020302020300A20202020312E393130322020202D302E3731393920202020302E303030302043202020302020302020302020302020302020302020302020302020302020302020302020300A20202020322E373232372020202D302E3537363620202020302E303030302043202020302020302020302020302020302020302020302020302020302020302020302020300A20202020332E3030343920202020302E3139383720202020302E303030302043202020302020302020302020302020302020302020302020302020302020302020302020300A20202020332E3831373320202020302E3334313920202020302E303030302043202020302020302020302020302020302020302020302020302020302020302020302020300A20202020342E333437362020202D302E3239303120202020302E303030302043202020302020302020302020302020302020302020302020302020302020302020302020300A20202020342E303635352020202D312E3036353320202020302E303030302043202020302020302020302020302020302020302020302020302020302020302020302020300A20202020332E323533302020202D312E3230383620202020302E303030302043202020302020302020302020302020302020302020302020302020302020302020302020300A20202020312E363238312020202D312E3439353120202020302E30303030204F202020302020302020302020302020302020302020302020302020302020302020302020300A2020202D322E3931383720202020312E3439353120202020302E30303030204F202020302020302020302020302020302020302020302020302020302020302020302020300A2020202D332E3633333220202020312E3038323620202020302E303030302043202020302020302020302020302020302020302020302020302020302020302020302020300A2020202D332E3633333220202020302E3235373620202020302E303030302043202020302020302020302020302020302020302020302020302020302020302020302020300A2020202D322E393138372020202D302E3135343920202020302E303030302043202020302020302020302020302020302020302020302020302020302020302020302020300A2020202D322E393138372020202D302E3937393920202020302E303030302043202020302020302020302020302020302020302020302020302020302020302020302020300A2020202D332E363333322020202D312E3339323420202020302E303030302043202020302020302020302020302020302020302020302020302020302020302020302020300A2020202D342E333437362020202D302E3937393920202020302E303030302043202020302020302020302020302020302020302020302020302020302020302020302020300A2020202D342E333437362020202D302E3135343920202020302E303030302043202020302020302020302020302020302020302020302020302020302020302020302020300A2020202D342E3334373620202020312E3439353120202020302E30303030204F202020302020302020302020302020302020302020302020302020302020302020302020300A2020312020322020312020302020202020200A2020322020332020312020302020202020200A2020332020342020312020302020202020200A2020342020352020312020302020202020200A2020352020362020312020302020202020200A2020312020362020312020302020202020200A2020312020372020312020302020202020200A2020382020392020312020302020202020200A2031312031322020312020302020202020200A2031322031332020312020302020202020200A2031332031342020322020302020202020200A2031342031352020312020302020202020200A2031352031362020322020302020202020200A2031362031372020312020302020202020200A2031322031372020322020302020202020200A2031312031382020322020302020202020200A2031302031312020312020302020202020200A2020392031302020312020302020202020200A2020312020382020312020302020202020200A2032302032312020312020302020202020200A2032312032322020312020302020202020200A2032322032332020322020302020202020200A2032332032342020312020302020202020200A2032342032352020322020302020202020200A2032352032362020312020302020202020200A2032312032362020322020302020202020200A2032302032372020322020302020202020200A2031392032302020312020302020202020200A2020342031392020312020302020202020200A4D2020454E44
Contributor: ENDO K, PHARMACEUTICAL INST., TOHOKU UNIV.
InstType: EI
InstName: HITACHI M-52
IoniMethod: _ENERGY 15 eV
IonPolarity: pos
Date: 2010-10-09 19:48:36+02:00
Num Peaks: 43
54 5 55 38 67 7 68 1 69 25 70 72 77 5 78 3 79 9 80 7 
81 11 82 1 83 43 91 11 93 5 94 1 95 74 96 99 97 153 98 2 
105 528 106 270 107 43 109 6 122 160 123 88 124 999 125 12 126 16 127 9 
141 9 148 2 149 49 177 7 192 40 219 8 220 11 228 9 229 14 246 17 
247 22 350 11 368 5 
