Name: 2-BUTANOL
MW: 74
Formula: C4H10O
Synonym: MassBank: JP000274
Synonym: 2-BUTANOL
Synonym: SEC-BUTYL ALCOHOL
Structure: 310A31340A322D425554414E4F4C2E6D6F6C0A20204368656D447261773132323130393233303232440A2020352020342020302020302020302020302020302020302020302020303939392056323030300A2020202D312E3037313720202020302E3631383820202020302E303030302043202020302020302020302020302020302020302020302020302020302020302020302020300A2020202D302E3335373220202020302E3230363220202020302E303030302043202020302020302020302020302020302020302020302020302020302020302020302020300A20202020302E3335373220202020302E3631383820202020302E303030302043202020302020302020302020302020302020302020302020302020302020302020302020300A20202020312E3037313720202020302E3230363220202020302E303030302043202020302020302020302020302020302020302020302020302020302020302020302020300A2020202D302E333537322020202D302E3631383820202020302E30303030204F202020302020302020302020302020302020302020302020302020302020302020302020300A2020312020322020312020302020202020200A2020322020332020312020302020202020200A2020332020342020312020302020202020200A2020322020352020312020302020202020200A4D2020454E44
Contributor: YAMAMOTO M, DEP. CHEMISTRY, FAC. SCIENCE, NARA WOMEN'S UNIV.
InstType: EI
InstName: HITACHI RMU-6M
IoniMethod: _ENERGY 70 eV
IonPolarity: pos
Date: 2010-10-09 19:48:36+02:00
Num Peaks: 15
15 34 19 48 26 25 27 14 28 53 29 72 31 203 39 4 41 127 43 99 
44 100 45 999 59 215 73 15 74 6 
