Name: BETA-CYANOETHANOL
MW: 71
Formula: C3H5NO
Synonym: MassBank: JP002902
Synonym: BETA-CYANOETHANOL
Structure: 310A31340A424554412D4359414E4F455448414E4F4C2E6D6F6C0A20204368656D447261773039303531303132323432440A2020352020342020302020302020302020302020302020302020302020303939392056323030300A20202020302E3631383820202020302E3335373220202020302E303030302043202020302020302020302020302020302020302020302020302020302020302020302020300A20202020302E323036322020202D302E3335373220202020302E303030302043202020302020302020302020302020302020302020302020302020302020302020302020300A2020202D302E363138372020202D302E3335373220202020302E303030302043202020302020302020302020302020302020302020302020302020302020302020302020300A2020202D312E343433372020202D302E3335373220202020302E30303030204E202020302020302020302020302020302020302020302020302020302020302020302020300A20202020312E3434333720202020302E3335373220202020302E30303030204F202020302020302020302020302020302020302020302020302020302020302020302020300A2020312020322020312020302020202020200A2020332020342020332020302020202020200A2020322020332020312020302020202020200A2020312020352020312020302020202020200A4D2020454E44
Contributor: MASS SPECTROSCOPY SOC. OF JAPAN (MSSJ)
InstType: EI
InstName: Unknown
IoniMethod: EI
IonPolarity: pos
Date: 2010-10-09 19:48:36+02:00
Num Peaks: 17
14 36 15 149 17 21 18 76 26 39 27 43 28 46 29 145 31 999 39 25 
40 63 41 690 42 80 43 29 45 27 51 23 52 27 
