Name: FENCHANE
MW: 138
Formula: C10H18
Synonym: MassBank: JP002592
Synonym: FENCHANE
Synonym: 1,3,3-TRIMETHYLBICYCLO(2.2.1)HEPTANE
Structure: 46454E4348414E452E6D6F6C0A20204368656D447261773131313130393137313932440A2031302031312020302020302020302020302020302020302020302020303939392056323030300A2020202D302E3736363220202020302E3232303320202020302E303030302043202020302020302020302020302020302020302020302020302020302020302020302020300A2020202D302E373636322020202D302E3630343720202020302E303030302043202020302020302020302020302020302020302020302020302020302020302020302020300A2020202D302E303531372020202D312E3031373220202020302E303030302043202020302020302020302020302020302020302020302020302020302020302020302020300A20202020302E363632372020202D302E3630343720202020302E303030302043202020302020302020302020302020302020302020302020302020302020302020302020300A20202020302E3636323720202020302E3232303320202020302E303030302043202020302020302020302020302020302020302020302020302020302020302020302020300A2020202D302E3035313720202020302E3633323820202020302E303030302043202020302020302020302020302020302020302020302020302020302020302020302020300A2020202D312E3438303720202020302E3633323820202020302E303030302043202020302020302020302020302020302020302020302020302020302020302020302020300A20202020302E3035383820202020302E3232303320202020302E303030302043202020302020302020302020302020302020302020302020302020302020302020302020300A20202020302E3837363320202020312E3031373220202020302E303030302043202020302020302020302020302020302020302020302020302020302020302020302020300A20202020312E3438303720202020302E3131323620202020302E303030302043202020302020302020302020302020302020302020302020302020302020302020302020300A2020312020322020312020302020202020200A2020322020332020312020302020202020200A2020332020342020312020302020202020200A2020342020352020312020302020202020200A2020352020362020312020302020202020200A2020362020312020312020302020202020200A2020312020372020312020302020202020200A2020312020382020312020302020202020200A2020382020342020312020302020202020200A2020352020392020312020362020202020200A2020352031302020312020312020202020200A4D2020454E44
Contributor: YAMAMOTO M, DEP. CHEMISTRY, FAC. SCIENCE, NARA WOMEN'S UNIV.
InstType: EI
InstName: HITACHI M-80
IoniMethod: _ENERGY 70 eV
IonPolarity: pos
Date: 2010-10-09 19:48:36+02:00
Num Peaks: 41
27 139 28 18 29 91 39 181 40 33 41 378 42 13 43 47 51 34 52 15 
53 124 54 33 55 412 56 28 57 14 65 43 66 21 67 323 68 159 69 234 
70 49 77 73 78 17 79 106 80 40 81 447 82 391 83 123 84 27 91 54 
93 32 94 146 95 999 96 246 97 75 109 394 110 44 123 173 124 17 138 123 
139 16 
