Name: MassBank: JP009943
MW: 288
Formula: C14H24O6
Synonym: MassBank: JP009943
Synonym: 2,2,4-TRIETHOXYCARBONYLPENTANE
Structure: 322C322C342D5452494554484F5859434152424F4E594C50454E54414E452E6D6F6C0A20204368656D447261773132313930393039313932440A2032302031392020302020302020302020302020302020302020302020303939392056323030300A2020202D302E363138382020202D312E3334383020202020302E303030302043202020302020302020302020302020302020302020302020302020302020302020302020300A2020202D302E363138382020202D302E3532333020202020302E303030302043202020302020302020302020302020302020302020302020302020302020302020302020300A20202020302E323036322020202D302E3532333020202020302E303030302043202020302020302020302020302020302020302020302020302020302020302020302020300A20202020302E363138382020202D312E3233373520202020302E303030302043202020302020302020302020302020302020302020302020302020302020302020302020300A20202020302E323036332020202D312E3935323020202020302E303030302043202020302020302020302020302020302020302020302020302020302020302020302020300A20202020312E343433382020202D312E3233373520202020302E303030302043202020302020302020302020302020302020302020302020302020302020302020302020300A20202020312E383536332020202D312E3935323020202020302E30303030204F202020302020302020302020302020302020302020302020302020302020302020302020300A20202020312E383536332020202D302E3532333020202020302E30303030204F202020302020302020302020302020302020302020302020302020302020302020302020300A20202020322E363831322020202D302E3532333020202020302E303030302043202020302020302020302020302020302020302020302020302020302020302020302020300A20202020332E3039333820202020302E3139313420202020302E303030302043202020302020302020302020302020302020302020302020302020302020302020302020300A2020202D312E343433382020202D302E3532333020202020302E303030302043202020302020302020302020302020302020302020302020302020302020302020302020300A2020202D312E3835363320202020302E3139313420202020302E30303030204F202020302020302020302020302020302020302020302020302020302020302020302020300A2020202D312E383536332020202D312E3233373520202020302E30303030204F202020302020302020302020302020302020302020302020302020302020302020302020300A2020202D322E363831322020202D312E3233373520202020302E303030302043202020302020302020302020302020302020302020302020302020302020302020302020300A2020202D332E303933382020202D312E3935323020202020302E303030302043202020302020302020302020302020302020302020302020302020302020302020302020300A2020202D302E3631383820202020302E3330323020202020302E303030302043202020302020302020302020302020302020302020302020302020302020302020302020300A2020202D312E3333333220202020302E3731343520202020302E30303030204F202020302020302020302020302020302020302020302020302020302020302020302020300A20202020302E3039353720202020302E3731343520202020302E30303030204F202020302020302020302020302020302020302020302020302020302020302020302020300A20202020302E3039353720202020312E3533393520202020302E303030302043202020302020302020302020302020302020302020302020302020302020302020302020300A20202020302E3831303220202020312E3935323020202020302E303030302043202020302020302020302020302020302020302020302020302020302020302020302020300A2020312020322020312020302020202020200A2020322020332020312020302020202020200A2020332020342020312020302020202020200A2020342020352020312020302020202020200A2020362020372020322020302020202020200A2020392031302020312020302020202020200A2020382020392020312020302020202020200A2020362020382020312020302020202020200A2020342020362020312020302020202020200A2031312031322020322020302020202020200A2031342031352020312020302020202020200A2031332031342020312020302020202020200A2031312031332020312020302020202020200A2020322031312020312020302020202020200A2031362031372020322020302020202020200A2031392032302020312020302020202020200A2031382031392020312020302020202020200A2031362031382020312020302020202020200A2020322031362020312020302020202020200A4D2020454E44
Contributor: KURARAY CO., LTD.
InstType: EI
InstName: JEOL JMS-D-300
IoniMethod: _ENERGY 70 eV
IonPolarity: pos
Date: 2010-10-09 19:48:36+02:00
Num Peaks: 82
27 58 29 206 31 13 39 2 40 8 41 183 42 16 43 15 44 16 45 70 
53 16 54 1 55 59 56 141 57 63 58 1 59 30 65 5 67 78 68 2 
69 277 70 27 71 16 72 3 73 44 74 109 75 16 82 2 83 33 84 16 
85 47 86 2 87 188 88 16 95 109 96 3 97 40 99 20 100 172 101 3 
102 183 103 31 110 17 111 3 112 25 113 738 114 109 115 21 116 27 123 66 
127 25 128 50 129 69 130 79 139 13 140 4 141 531 142 359 143 164 146 2 
154 16 157 16 159 33 160 2 167 16 168 36 169 300 170 14 171 39 173 22 
174 999 181 1 185 78 187 136 196 9 200 2 201 9 213 19 214 108 215 34 
229 16 243 805 
