Name: MassBank: JP009987
MW: 98
Formula: C6H10O
Synonym: MassBank: JP009987
Synonym: 4-METHYL-5,6-DIHYDRO-2H-PYRAN
Structure: 310A31390A342D4D455448594C2D352C362D4449485944524F2D32482D505952414E2E6D6F6C0A20204368656D447261773034323131303032343332440A2020372020372020302020302020302020302020302020302020302020303939392056323030300A20202020302E383235302020202D302E3731343520202020302E303030302043202020302020302020302020302020302020302020302020302020302020302020302020300A2020202D302E303030302020202D302E3731343520202020302E303030302043202020302020302020302020302020302020302020302020302020302020302020302020300A2020202D302E3431323520202020302E3030303020202020302E303030302043202020302020302020302020302020302020302020302020302020302020302020302020300A2020202D302E3030303020202020302E3731343520202020302E303030302043202020302020302020302020302020302020302020302020302020302020302020302020300A20202020302E3832353020202020302E3731343520202020302E303030302043202020302020302020302020302020302020302020302020302020302020302020302020300A20202020312E323337352020202D302E3030303020202020302E30303030204F202020302020302020302020302020302020302020302020302020302020302020302020300A2020202D312E3233373520202020302E3030303020202020302E303030302043202020302020302020302020302020302020302020302020302020302020302020302020300A2020312020322020312020302020202020200A2020322020332020322020302020202020200A2020332020342020312020302020202020200A2020342020352020312020302020202020200A2020352020362020312020302020202020200A2020312020362020312020302020202020200A2020332020372020312020302020202020200A4D2020454E44
Contributor: KURARAY CO., LTD.
InstType: EI
InstName: JEOL JMS-D-300
IoniMethod: _ENERGY 70 eV
IonPolarity: pos
Date: 2010-10-09 19:48:36+02:00
Num Peaks: 44
26 18 27 164 28 333 29 9 31 12 32 90 36 23 38 2 39 195 40 120 
41 470 42 9 43 133 44 23 49 42 50 2 51 40 52 14 53 187 54 2 
55 284 56 36 57 17 61 2 62 68 63 21 64 23 65 3 66 19 67 313 
68 229 69 33 70 70 71 10 76 12 77 2 79 32 81 23 83 999 84 5 
89 12 97 88 98 610 99 64 
