Name: TERT-BUTANETHIOL
MW: 90
Formula: C4H10S
Synonym: MassBank: JP009155
Synonym: TERT-BUTANETHIOL
Structure: 310A31340A544552542D425554414E455448494F4C2E6D6F6C0A20204368656D447261773038313231303037303332440A2020352020342020302020302020302020302020302020302020302020303939392056323030300A20202020302E3030303020202020302E3030303020202020302E303030302043202020302020302020302020302020302020302020302020302020302020302020302020300A20202020302E303030302020202D302E3832353020202020302E303030302043202020302020302020302020302020302020302020302020302020302020302020302020300A2020202D302E3832353020202020302E3030303020202020302E303030302043202020302020302020302020302020302020302020302020302020302020302020302020300A20202020302E3030303020202020302E3832353020202020302E303030302043202020302020302020302020302020302020302020302020302020302020302020302020300A20202020302E3832353020202020302E3030303020202020302E303030302053202020302020302020302020302020302020302020302020302020302020302020302020300A2020312020322020312020302020202020200A2020312020342020312020302020202020200A2020312020332020312020302020202020200A2020312020352020312020302020202020200A4D2020454E44
Contributor: SODA AROMATIC CO., LTD.
InstType: EI
InstName: HITACHI M-80B
IoniMethod: _ENERGY 70 eV
IonPolarity: pos
Date: 2010-10-09 19:48:36+02:00
Num Peaks: 27
15 54 26 28 27 203 28 31 29 558 33 52 37 16 38 41 39 371 40 41 
41 999 42 46 45 69 47 100 49 29 50 25 51 22 53 25 55 62 56 31 
57 976 58 48 59 107 75 194 90 359 91 14 92 14 
