Name: MassBank: JP003028
MW: 445
Formula: C23H43NOS3
Synonym: MassBank: JP003028
Synonym: 1-ACETYL-4-TERT-BUTYL-2,3,6-TRI-TERT-BUTYLMERCAPTO-1,2,3,6-TETRAHYDROPYRIDINE
Structure: 312D41434554594C2D342D544552542D425554594C2D322C332C362D5452492D544552542D425554594C4D4552434150544F2D312C322C332C362D5445545241485944524F5059524944494E452E6D6F6C0A20204368656D447261773131313730393231313032440A2032392032392020302020302020302020302020302020302020302020303939392056323030300A2020202D302E3731343320202020302E3737393720202020302E303030302043202020302020302020302020302020302020302020302020302020302020302020302020300A2020202D302E373134362020202D302E3034353720202020302E303030302043202020302020302020302020302020302020302020302020302020302020302020302020300A2020202D302E303030312020202D302E3435383220202020302E303030302043202020302020302020302020302020302020302020302020302020302020302020302020300A20202020302E373134342020202D302E3034353720202020302E303030302043202020302020302020302020302020302020302020302020302020302020302020302020300A20202020302E3731343320202020302E3737393420202020302E303030302043202020302020302020302020302020302020302020302020302020302020302020302020300A20202020302E3030303920202020312E3139313020202020302E30303030204E202020302020302020302020302020302020302020302020302020302020302020302020300A20202020312E3432383820202020312E3139313920202020302E303030302053202020302020302020302020302020302020302020302020302020302020302020302020300A20202020322E3134333320202020302E3737393420202020302E303030302043202020302020302020302020302020302020302020302020302020302020302020302020300A20202020322E3835373720202020302E3336363920202020302E303030302043202020302020302020302020302020302020302020302020302020302020302020302020300A20202020322E3535353820202020312E3439333920202020302E303030302043202020302020302020302020302020302020302020302020302020302020302020302020300A20202020312E3733303820202020302E3036343920202020302E303030302043202020302020302020302020302020302020302020302020302020302020302020302020300A2020202D312E363433342020202D302E3538323020202020302E303030302053202020302020302020302020302020302020302020302020302020302020302020302020300A2020202D312E383239362020202D312E3633383220202020302E303030302043202020302020302020302020302020302020302020302020302020302020302020302020300A2020202D322E363332342020202D312E3434373920202020302E303030302043202020302020302020302020302020302020302020302020302020302020302020302020300A2020202D322E303636322020202D322E3432383520202020302E303030302043202020302020302020302020302020302020302020302020302020302020302020302020300A2020202D312E303534342020202D312E3932303420202020302E303030302043202020302020302020302020302020302020302020302020302020302020302020302020300A2020202D312E3432383820202020312E3139323220202020302E303030302053202020302020302020302020302020302020302020302020302020302020302020302020300A2020202D322E3134333320202020302E3737393720202020302E303030302043202020302020302020302020302020302020302020302020302020302020302020302020300A2020202D322E3535353820202020312E3439343120202020302E303030302043202020302020302020302020302020302020302020302020302020302020302020302020300A2020202D322E3835373720202020302E3336373220202020302E303030302043202020302020302020302020302020302020302020302020302020302020302020302020300A2020202D312E3733303820202020302E3036353220202020302E303030302043202020302020302020302020302020302020302020302020302020302020302020302020300A2020202D302E303030312020202D312E3238333220202020302E303030302043202020302020302020302020302020302020302020302020302020302020302020302020300A20202020302E383234392020202D312E3238333220202020302E303030302043202020302020302020302020302020302020302020302020302020302020302020302020300A2020202D302E383235312020202D312E3238333220202020302E303030302043202020302020302020302020302020302020302020302020302020302020302020302020300A2020202D302E303030312020202D322E3130383220202020302E303030302043202020302020302020302020302020302020302020302020302020302020302020302020300A20202020302E3030303920202020322E3031363020202020302E303030302043202020302020302020302020302020302020302020302020302020302020302020302020300A20202020302E3731353420202020322E3432383520202020302E30303030204F202020302020302020302020302020302020302020302020302020302020302020302020300A2020202D302E3731333620202020322E3432383520202020302E303030302043202020302020302020302020302020302020302020302020302020302020302020302020300A20202020312E343238392020202D302E3435383220202020302E303030302048202020302020302020302020302020302020302020302020302020302020302020302020300A2020312020322020312020302020202020200A2020322020332020312020302020202020200A2020332020342020322020302020202020200A2020342020352020312020302020202020200A2020352020362020312020302020202020200A2020312020362020312020302020202020200A2020382020392020312020302020202020200A2020382031312020312020312020202020200A2020382031302020312020312020202020200A2020372020382020312020302020202020200A2020352020372020312020302020202020200A2031332031342020312020312020202020200A2031332031362020312020312020202020200A2031332031352020312020302020202020200A2031322031332020312020302020202020200A2020322031322020312020302020202020200A2031382031392020312020312020202020200A2031382032312020312020312020202020200A2031382032302020312020302020202020200A2031372031382020312020302020202020200A2020312031372020312020302020202020200A2032322032332020312020302020202020200A2032322032352020312020302020202020200A2032322032342020312020302020202020200A2020332032322020312020302020202020200A2032362032372020322020302020202020200A2032362032382020312020302020202020200A2020362032362020312020302020202020200A2020342032392020312020302020202020200A4D2020454E44
Contributor: SASAKI S, TOYOHASHI UNIV. OF TECH.
InstType: EI
InstName: Unknown
IoniMethod: EI
IonPolarity: pos
Date: 2010-10-09 19:48:36+02:00
Num Peaks: 29
29 310 32 150 39 260 40 5 41 670 42 60 43 180 50 1 51 90 55 110 
56 120 57 999 58 50 59 50 65 60 75 1 90 90 92 160 94 50 120 4 
121 70 135 160 136 100 168 1 178 40 185 10 210 40 244 0 356 110 
