Name: LINALYL ISOBUTYRATE
MW: 224
Formula: C14H24O2
Synonym: MassBank: JP006982
Synonym: LINALYL ISOBUTYRATE
Synonym: 3,7-DIMETHYL-1,6-OCTADIEN-3-YL ISOBUTYRATE
Structure: 4C494E414C594C2049534F42555459524154452E6D6F6C0A20204368656D447261773032323231303033343832440A2031362031352020302020302020302020302020302020302020302020303939392056323030300A20202020302E363734302020202D302E3432373320202020302E303030302043202020302020302020302020302020302020302020302020302020302020302020302020300A20202020312E333838352020202D302E3031343820202020302E303030302043202020302020302020302020302020302020302020302020302020302020302020302020300A20202020322E313033302020202D302E3432373320202020302E303030302043202020302020302020302020302020302020302020302020302020302020302020302020300A20202020312E3338383520202020302E3831303220202020302E303030302043202020302020302020302020302020302020302020302020302020302020302020302020300A20202020302E363734302020202D312E3235323320202020302E30303030204F202020302020302020302020302020302020302020302020302020302020302020302020300A2020202D302E303430352020202D302E3031343820202020302E30303030204F202020302020302020302020302020302020302020302020302020302020302020302020300A2020202D302E3034303520202020302E3831303220202020302E303030302043202020302020302020302020302020302020302020302020302020302020302020302020300A2020202D302E3836353520202020302E3831303220202020302E303030302043202020302020302020302020302020302020302020302020302020302020302020302020300A2020202D312E3237383020202020302E3039353720202020302E303030302043202020302020302020302020302020302020302020302020302020302020302020302020300A2020202D302E383635352020202D302E3631383820202020302E303030302043202020302020302020302020302020302020302020302020302020302020302020302020300A2020202D312E323738302020202D312E3333333220202020302E303030302043202020302020302020302020302020302020302020302020302020302020302020302020300A2020202D302E383635352020202D322E3034373720202020302E303030302043202020302020302020302020302020302020302020302020302020302020302020302020300A2020202D322E313033302020202D312E3333333220202020302E303030302043202020302020302020302020302020302020302020302020302020302020302020302020300A2020202D302E3034303520202020312E3633353220202020302E303030302043202020302020302020302020302020302020302020302020302020302020302020302020300A20202020302E3637343020202020322E3034373720202020302E303030302043202020302020302020302020302020302020302020302020302020302020302020302020300A20202020302E3738343520202020302E3831303220202020302E303030302043202020302020302020302020302020302020302020302020302020302020302020302020300A2020312020322020312020302020202020200A2020322020332020312020302020202020200A2020322020342020312020302020202020200A2020312020352020322020302020202020200A2020312020362020312020302020202020200A2020372020382020312020302020202020200A2020382020392020312020302020202020200A2020392031302020312020302020202020200A2031302031312020322020302020202020200A2031312031322020312020302020202020200A2031312031332020312020302020202020200A2020372031342020312020302020202020200A2031342031352020322020302020202020200A2020372031362020312020302020202020200A2020362020372020312020302020202020200A4D2020454E44
Contributor: SODA AROMATIC CO., LTD.
InstType: EI
InstName: HITACHI M-80B
IoniMethod: _ENERGY 70 eV
IonPolarity: pos
Date: 2010-10-09 19:48:36+02:00
Num Peaks: 46
17 19 18 30 27 150 29 50 39 99 40 26 41 532 42 45 43 655 44 24 
51 15 52 12 53 103 54 16 55 141 56 13 57 11 65 18 66 13 67 138 
68 157 69 479 70 34 71 381 72 17 77 41 78 12 79 67 80 420 81 255 
82 27 83 38 91 51 92 157 93 999 94 95 95 39 105 33 107 74 108 21 
109 14 121 344 122 31 136 95 137 49 154 13 
