Name: ALPHA-PINENE OXIDE
MW: 152
Formula: C10H16O
Synonym: MassBank: JP006593
Synonym: ALPHA-PINENE OXIDE
Structure: 414C5048412D50494E454E45204F584944452E6D6F6C0A20204368656D447261773038303631303131303432440A2031312031332020302020302020302020302020302020302020302020303939392056323030300A2020202D312E3031363420202020302E3431323520202020302E303030302043202020302020302020302020302020302020302020302020302020302020302020302020300A2020202D312E303136342020202D302E3431323520202020302E303030302043202020302020302020302020302020302020302020302020302020302020302020302020300A2020202D302E333032302020202D302E3832353020202020302E303030302043202020302020302020302020302020302020302020302020302020302020302020302020300A20202020302E343132352020202D302E3431323520202020302E303030302043202020302020302020302020302020302020302020302020302020302020302020302020300A20202020302E3431323520202020302E3431323520202020302E303030302043202020302020302020302020302020302020302020302020302020302020302020302020300A2020202D302E3330323020202020302E3832353020202020302E303030302043202020302020302020302020302020302020302020302020302020302020302020302020300A2020202D302E3330323020202020302E3030303020202020302E303030302043202020302020302020302020302020302020302020302020302020302020302020302020300A20202020312E313237302020202D302E3832353020202020302E303030302043202020302020302020302020302020302020302020302020302020302020302020302020300A20202020312E3132373020202020302E3030303020202020302E30303030204F202020302020302020302020302020302020302020302020302020302020302020302020300A2020202D312E3132373020202020302E3030303020202020302E303030302043202020302020302020302020302020302020302020302020302020302020302020302020300A20202020302E3131303520202020302E3731343520202020302E303030302043202020302020302020302020302020302020302020302020302020302020302020302020300A2020312020322020312020302020202020200A2020322020332020312020302020202020200A2020332020342020312020302020202020200A2020342020352020312020302020202020200A2020352020362020312020302020202020200A2020362020312020312020302020202020200A2020312020372020312020302020202020200A2020372020332020312020302020202020200A2020342020382020312020302020202020200A2020342020392020312020302020202020200A2020392020352020312020302020202020200A2020372031302020312020312020202020200A2020372031312020312020312020202020200A4D2020454E44
Contributor: HISAHIRO HAGIWARA, CHEMICAL RESEARCH INSTITUTE OF NON-AQUEOUSSOLUTIONS TOHOKU UNIV.
InstType: EI
InstName: HITACHI M-80B
IoniMethod: _ENERGY 70 eV
IonPolarity: pos
Date: 2010-10-09 19:48:36+02:00
Num Peaks: 54
15 37 26 13 27 281 29 124 38 16 39 423 40 57 41 650 42 57 43 557 
44 20 45 18 50 16 51 69 52 26 53 215 54 120 55 314 56 30 57 13 
63 15 65 78 66 26 67 999 68 70 69 258 70 24 71 18 77 113 78 18 
79 143 80 21 81 247 82 315 83 427 84 74 91 104 92 16 93 178 94 108 
95 212 96 81 97 25 98 19 105 13 107 38 108 102 109 501 110 71 111 36 
119 61 123 21 137 282 138 21 
