Name: HEXAMETHYLDISILAZANE
CAS: 999-97-3
MW: 161
Formula: C6H19NSi2
Synonym: MassBank: JP009519
Synonym: HEXAMETHYLDISILAZANE
Structure: 310A32320A303731365F484558414D455448594C444953494C415A414E452E6D6F6C0A20204368656D447261773130313931303232333832440A2020392020382020302020302020302020302020302020302020302020303939392056323030300A20202020302E3330313720202020302E3536333920202020302E303030302053692020302020302020302020302020302020302020302020302020302020302020302020300A20202020302E333032322020202D302E3236313920202020302E30303030204E202020302020302020302020302020302020302020302020302020302020302020302020300A2020202D302E3532333320202020302E3536333920202020302E303030302043202020302020302020302020302020302020302020302020302020302020302020302020300A20202020302E3330313720202020312E3338383920202020302E303030302043202020302020302020302020302020302020302020302020302020302020302020302020300A20202020312E3132363720202020302E3536333920202020302E303030302043202020302020302020302020302020302020302020302020302020302020302020302020300A2020202D302E343132332020202D302E3637343420202020302E303030302053692020302020302020302020302020302020302020302020302020302020302020302020300A20202020302E303030322020202D312E3338383920202020302E303030302043202020302020302020302020302020302020302020302020302020302020302020302020300A2020202D312E313236372020202D312E3038363920202020302E303030302043202020302020302020302020302020302020302020302020302020302020302020302020300A2020202D302E3832343820202020302E3034303120202020302E303030302043202020302020302020302020302020302020302020302020302020302020302020302020300A2020312020322020312020302020202020200A2020322020362020312020302020202020200A2020312020332020312020302020202020200A2020312020342020312020302020202020200A2020312020352020312020302020202020200A2020362020372020312020302020202020200A2020362020382020312020302020202020200A2020362020392020312020302020202020200A4D2020454E44
Contributor: NARA WOMEN'S UNIVERSITY
InstType: EI
InstName: HITACHI M-80
IoniMethod: _ENERGY 16 eV
IonPolarity: pos
Date: 2010-10-09 19:48:36+02:00
Num Peaks: 9
75 11 130 59 131 10 146 999 147 858 148 180 149 60 161 61 162 10 
