Name: MassBank: JP004967
MW: 290
Formula: C10H30N2Si4
Synonym: MassBank: JP004967
Synonym: 2,2,4,4,6,6,8,8-OCTAMETHYL-1,5-DIAZA-2,4,6,8-TETRASILACYCLOOCTANE
Structure: 322C322C342C342C362C362C382C382D4F4354414D455448594C2D312C352D4449415A412D322C342C362C382D544554524153494C414359434C4F4F4354414E452E6D6F6C0A20204368656D447261773132313930393034353332440A2031362031362020302020302020302020302020302020302020302020303939392056323030300A20202020302E3431323520202020302E3939353920202020302E30303030204E202020302020302020302020302020302020302020302020302020302020302020302020300A20202020302E3939353920202020302E3431323520202020302E303030302053692020302020302020302020302020302020302020302020302020302020302020302020300A20202020302E393935392020202D302E3431323520202020302E303030302043202020302020302020302020302020302020302020302020302020302020302020302020300A20202020302E343132352020202D302E3939353920202020302E303030302053692020302020302020302020302020302020302020302020302020302020302020302020300A2020202D302E343132352020202D302E3939353920202020302E30303030204E202020302020302020302020302020302020302020302020302020302020302020302020300A2020202D302E393935392020202D302E3431323520202020302E303030302053692020302020302020302020302020302020302020302020302020302020302020302020300A2020202D302E3939353920202020302E3431323520202020302E303030302043202020302020302020302020302020302020302020302020302020302020302020302020300A2020202D302E3431323520202020302E3939353920202020302E303030302053692020302020302020302020302020302020302020302020302020302020302020302020300A2020202D312E3132373020202020312E3430383420202020302E303030302043202020302020302020302020302020302020302020302020302020302020302020302020300A2020202D302E3139393020202020312E3739323820202020302E303030302043202020302020302020302020302020302020302020302020302020302020302020302020300A2020202D312E343038342020202D312E3132373020202020302E303030302043202020302020302020302020302020302020302020302020302020302020302020302020300A2020202D312E373932382020202D302E3139393020202020302E303030302043202020302020302020302020302020302020302020302020302020302020302020302020300A20202020312E313237302020202D312E3430383420202020302E303030302043202020302020302020302020302020302020302020302020302020302020302020302020300A20202020302E313939302020202D312E3739323820202020302E303030302043202020302020302020302020302020302020302020302020302020302020302020302020300A20202020312E3430383420202020312E3132373020202020302E303030302043202020302020302020302020302020302020302020302020302020302020302020302020300A20202020312E3739323820202020302E3139393020202020302E303030302043202020302020302020302020302020302020302020302020302020302020302020302020300A2020312020322020312020302020202020200A2020322020332020312020302020202020200A2020332020342020312020302020202020200A2020342020352020312020302020202020200A2020352020362020312020302020202020200A2020362020372020312020302020202020200A2020372020382020312020302020202020200A2020312020382020312020302020202020200A2020382020392020312020362020202020200A2020382031302020312020312020202020200A2020362031312020312020362020202020200A2020362031322020312020312020202020200A2020342031332020312020362020202020200A2020342031342020312020312020202020200A2020322031352020312020362020202020200A2020322031362020312020312020202020200A4D2020454E44
Contributor: MASS SPECTROSCOPY SOC. OF JAPAN (MSSJ)
InstType: EI
InstName: JEOL JMS-D-3000
IoniMethod: _ENERGY 70 eV
IonPolarity: pos
Date: 2010-10-09 19:48:36+02:00
Num Peaks: 25
59 15 73 52 74 17 100 33 114 18 116 18 130 115 131 44 170 17 172 13 
186 30 187 52 188 24 189 16 203 36 242 19 243 30 258 66 259 205 260 61 
261 36 275 999 276 324 277 186 278 40 
