Name: 1-METHYL-1-CYCLOHEXANECARBOXYLIC ACID METHYL ESTER
MW: 156
Formula: C9H16O2
Synonym: MassBank: JP004238
Synonym: 1-METHYL-1-CYCLOHEXANECARBOXYLIC ACID METHYL ESTER
Structure: 312D4D455448594C2D312D4359434C4F484558414E45434152424F58594C49432041434944204D455448594C2045535445522E6D6F6C0A20204368656D447261773131313930393136323032440A2031312031312020302020302020302020302020302020302020302020303939392056323030300A2020202D302E3136373220202020302E3038343920202020302E303030302043202020302020302020302020302020302020302020302020302020302020302020302020300A2020202D302E3136373220202020302E3930393920202020302E303030302043202020302020302020302020302020302020302020302020302020302020302020302020300A20202020302E3534373320202020312E3332323420202020302E303030302043202020302020302020302020302020302020302020302020302020302020302020302020300A20202020312E3236313820202020302E3930393920202020302E303030302043202020302020302020302020302020302020302020302020302020302020302020302020300A20202020312E3236313820202020302E3038343920202020302E303030302043202020302020302020302020302020302020302020302020302020302020302020302020300A20202020302E353437332020202D302E3332373620202020302E303030302043202020302020302020302020302020302020302020302020302020302020302020302020300A2020202D302E343439332020202D302E3639303420202020302E303030302043202020302020302020302020302020302020302020302020302020302020302020302020300A2020202D312E323631382020202D302E3833333620202020302E30303030204F202020302020302020302020302020302020302020302020302020302020302020302020300A20202020302E303831302020202D312E3332323420202020302E30303030204F202020302020302020302020302020302020302020302020302020302020302020302020300A2020202D302E3937393620202020302E3232383120202020302E303030302043202020302020302020302020302020302020302020302020302020302020302020302020300A20202020302E383933342020202D312E3137393120202020302E303030302043202020302020302020302020302020302020302020302020302020302020302020302020300A2020312020322020312020302020202020200A2020322020332020312020302020202020200A2020332020342020312020302020202020200A2020342020352020312020302020202020200A2020352020362020312020302020202020200A2020312020362020312020302020202020200A2020372020382020322020302020202020200A2020372020392020312020302020202020200A2020312020372020312020302020202020200A2020312031302020312020302020202020200A2020392031312020312020302020202020200A4D2020454E44
Contributor: KOGA M, UNIV. OF OCCUPATIONAL AND ENVIRONMENTAL HEALTH
InstType: EI
InstName: JEOL JMS-01-SG
IoniMethod: _ENERGY 70 eV
IonPolarity: pos
Date: 2010-10-09 19:48:36+02:00
Num Peaks: 45
38 28 41 268 42 30 43 10 44 26 45 342 46 19 51 2 53 52 54 24 
55 973 56 6 57 26 59 414 60 17 67 8 68 37 69 100 70 93 71 1 
73 61 74 244 75 24 77 3 79 19 81 131 82 45 83 2 87 41 88 220 
95 37 96 20 97 999 98 82 101 458 102 3 109 15 114 15 115 19 124 4 
125 24 127 21 141 69 156 15 157 19 
