Name: 2-METHYL-4-AMINO-5-CYANO PYRIMIDINE
MW: 134
Formula: C6H6N4
Synonym: MassBank: JP002952
Synonym: 2-METHYL-4-AMINO-5-CYANO PYRIMIDINE
Structure: 322D4D455448594C2D342D414D494E4F2D352D4359414E4F20505952494D4944494E452E6D6F6C0A20204368656D447261773031323231303036353332440A2031302031302020302020302020302020302020302020302020302020303939392056323030300A20202020312E323337352020202D302E3335373220202020302E303030302043202020302020302020302020302020302020302020302020302020302020302020302020300A20202020302E3832353020202020302E3335373220202020302E30303030204E202020302020302020302020302020302020302020302020302020302020302020302020300A20202020302E3030303020202020302E3335373220202020302E303030302043202020302020302020302020302020302020302020302020302020302020302020302020300A2020202D302E343132352020202D302E3335373220202020302E303030302043202020302020302020302020302020302020302020302020302020302020302020302020300A2020202D302E303030302020202D312E3037313720202020302E303030302043202020302020302020302020302020302020302020302020302020302020302020302020300A20202020302E383235302020202D312E3037313720202020302E30303030204E202020302020302020302020302020302020302020302020302020302020302020302020300A2020202D312E323337352020202D302E3335373220202020302E303030302043202020302020302020302020302020302020302020302020302020302020302020302020300A2020202D322E303632352020202D302E3335373220202020302E30303030204E202020302020302020302020302020302020302020302020302020302020302020302020300A2020202D302E3431323520202020312E3037313720202020302E30303030204E202020302020302020302020302020302020302020302020302020302020302020302020300A20202020322E303632352020202D302E3335373220202020302E303030302043202020302020302020302020302020302020302020302020302020302020302020302020300A2020312020322020312020302020202020200A2020322020332020322020302020202020200A2020332020342020312020302020202020200A2020342020352020322020302020202020200A2020352020362020312020302020202020200A2020312020362020322020302020202020200A2020372020382020332020302020202020200A2020342020372020312020302020202020200A2020332020392020312020302020202020200A2020312031302020312020302020202020200A4D2020454E44
Contributor: MASS SPECTROSCOPY SOC. OF JAPAN (MSSJ)
InstType: EI
InstName: Unknown
IoniMethod: EI
IonPolarity: pos
Date: 2010-10-09 19:48:36+02:00
Num Peaks: 22
15 65 27 36 28 101 38 36 39 65 40 55 41 96 42 459 43 54 51 82 
52 58 65 64 66 317 67 60 91 22 92 123 93 31 94 731 95 46 107 44 
134 999 135 107 
