Name: MassBank: JP003712
MW: 208
Formula: C14H24O
Synonym: MassBank: JP003712
Synonym: 2-(3-FORMYL)BUTYL-1,3,3-TRIMETHYLCYCLOHEX-1-ENE
Structure: 322D28332D464F524D594C29425554594C2D312C332C332D5452494D455448594C4359434C4F4845582D312D454E452E6D6F6C0A20204368656D447261773132323130393138303732440A2031352031352020302020302020302020302020302020302020302020303939392056323030300A2020202D302E363632372020202D312E3233373520202020302E303030302043202020302020302020302020302020302020302020302020302020302020302020302020300A2020202D302E363632372020202D322E3036323520202020302E303030302043202020302020302020302020302020302020302020302020302020302020302020302020300A20202020302E303531372020202D322E3437353020202020302E303030302043202020302020302020302020302020302020302020302020302020302020302020302020300A20202020302E373636322020202D322E3036323520202020302E303030302043202020302020302020302020302020302020302020302020302020302020302020302020300A20202020302E373636322020202D312E3233373520202020302E303030302043202020302020302020302020302020302020302020302020302020302020302020302020300A20202020302E303531372020202D302E3832353020202020302E303030302043202020302020302020302020302020302020302020302020302020302020302020302020300A20202020312E343830372020202D302E3832353020202020302E303030302043202020302020302020302020302020302020302020302020302020302020302020302020300A20202020302E3035313720202020302E3030303020202020302E303030302043202020302020302020302020302020302020302020302020302020302020302020302020300A2020202D302E383736332020202D302E3434303620202020302E303030302043202020302020302020302020302020302020302020302020302020302020302020302020300A2020202D312E343830372020202D312E3334353220202020302E303030302043202020302020302020302020302020302020302020302020302020302020302020302020300A20202020302E3736363220202020302E3431323520202020302E303030302043202020302020302020302020302020302020302020302020302020302020302020302020300A20202020302E3736363220202020312E3233373520202020302E303030302043202020302020302020302020302020302020302020302020302020302020302020302020300A20202020312E3438303720202020312E3635303020202020302E303030302043202020302020302020302020302020302020302020302020302020302020302020302020300A20202020302E3035313720202020312E3635303020202020302E303030302043202020302020302020302020302020302020302020302020302020302020302020302020300A20202020312E3438303720202020322E3437353020202020302E30303030204F202020302020302020302020302020302020302020302020302020302020302020302020300A2020312020322020312020302020202020200A2020322020332020312020302020202020200A2020332020342020312020302020202020200A2020342020352020312020302020202020200A2020352020362020322020302020202020200A2020362020312020312020302020202020200A2020352020372020312020302020202020200A2020362020382020312020302020202020200A2020312020392020312020312020202020200A2020312031302020312020362020202020200A2020382031312020312020302020202020200A2031312031322020312020302020202020200A2031322031332020312020302020202020200A2031322031342020312020302020202020200A2031332031352020322020302020202020200A4D2020454E44
Contributor: SASAKI S, TOYOHASHI UNIV. OF TECH.
InstType: EI
InstName: Unknown
IoniMethod: EI
IonPolarity: pos
Date: 2010-10-09 19:48:36+02:00
Num Peaks: 105
15 11 17 15 18 45 26 2 27 252 28 122 29 428 30 1 31 25 32 22 
39 263 40 5 41 948 42 98 43 415 44 2 45 17 50 11 51 50 52 3 
53 243 54 35 55 584 56 12 57 246 58 22 59 11 63 2 64 11 65 115 
66 43 67 38 68 210 69 797 70 71 71 13 77 405 78 90 79 712 80 7 
81 836 82 187 83 117 84 1 85 41 86 22 91 285 92 1 93 346 94 302 
95 898 96 11 97 60 98 28 99 17 103 2 104 11 105 238 106 44 107 46 
108 79 109 424 110 78 111 8 112 19 113 11 115 17 116 1 117 18 119 246 
120 45 121 19 122 99 123 999 124 145 125 18 126 22 131 11 133 119 134 4 
135 598 136 84 137 159 138 6 139 37 147 62 148 14 149 6 150 405 151 75 
152 106 153 2 161 20 162 11 163 11 165 5 166 11 175 313 176 46 179 1 
190 39 193 252 194 39 208 29 209 46 
