Name: 3-BROMOPROPYLTRIMETHYLSILANE
MW: 194
Formula: C6H15BrSi
Synonym: MassBank: JP004665
Synonym: 3-BROMOPROPYLTRIMETHYLSILANE
Structure: 310A32300A332D42524F4D4F50524F50594C5452494D455448594C53494C414E452E6D6F6C0A20204368656D447261773032323231303134323632440A2020382020372020302020302020302020302020302020302020302020303939392056323030300A2020202D312E303731372020202D302E3030303020202020302E303030302053692020302020302020302020302020302020302020302020302020302020302020302020300A2020202D312E373836322020202D302E3431323520202020302E303030302043202020302020302020302020302020302020302020302020302020302020302020302020300A2020202D312E3438343220202020302E3731343520202020302E303030302043202020302020302020302020302020302020302020302020302020302020302020302020300A2020202D302E363539322020202D302E3731343520202020302E303030302043202020302020302020302020302020302020302020302020302020302020302020302020300A2020202D302E3335373220202020302E3431323520202020302E303030302043202020302020302020302020302020302020302020302020302020302020302020302020300A20202020302E3335373220202020302E3030303020202020302E303030302043202020302020302020302020302020302020302020302020302020302020302020302020300A20202020312E3037313720202020302E3431323520202020302E303030302043202020302020302020302020302020302020302020302020302020302020302020302020300A20202020312E3738363220202020302E3030303020202020302E303030302042722020302020302020302020302020302020302020302020302020302020302020302020300A2020312020322020312020302020202020200A2020312020332020312020312020202020200A2020312020342020312020312020202020200A2020352020362020312020302020202020200A2020362020372020312020302020202020200A2020372020382020312020302020202020200A2020312020352020312020302020202020200A4D2020454E44
Contributor: MASS SPECTROSCOPY SOC. OF JAPAN (MSSJ)
InstType: EI
InstName: JEOL JMS-D-3000
IoniMethod: _ENERGY 70 eV
IonPolarity: pos
Date: 2010-10-09 19:48:36+02:00
Num Peaks: 27
41 56 42 699 43 162 44 60 45 132 55 35 57 29 58 30 59 49 72 44 
73 972 74 73 75 47 107 39 109 63 111 31 123 33 125 31 137 999 138 103 
139 991 140 83 141 41 152 81 154 83 179 32 181 37 
