Name: VANADIUM(4) OXIDE DIACETYLACETONATE
MW: 265
Formula: C10H14O5V
Synonym: MassBank: JP000339
Synonym: VANADIUM(4) OXIDE DIACETYLACETONATE
Structure: 303032355F56414E414449554D283429204F5849444520444941434554594C414345544F4E4154452E6D6F6C0A20204368656D447261773038313931303232343232440A2037322031352020302020302020302020302020302020302020302020303939392056323030300A20202020372E343530342020202D322E3133363720202020302E303030302043202020302020302020302020302020302020302020302020302020302020302020302020300A2020202D382E3039393420202020372E3734383120202020302E303030302043202020302020302020302020302020302020302020302020302020302020302020302020300A20202020332E323134312020202D362E3032393420202020302E303030302043202020302020302020302020302020302020302020302020302020302020302020302020300A20202020312E343630392020202D322E3433323420202020302E303030302043202020302020302020302020302020302020302020302020302020302020302020302020300A20202020312E383238312020202D312E3037323520202020302E303030302043202020302020302020302020302020302020302020302020302020302020302020302020300A20202020302E333936372020202D392E3533323920202020302E303030302043202020302020302020302020302020302020302020302020302020302020302020302020300A20202020352E333339382020202D322E3530333920202020302E303030302043202020302020302020302020302020302020302020302020302020302020302020302020300A20202020312E373735382020202D312E3039353920202020302E303030302043202020302020302020302020302020302020302020302020302020302020302020302020300A20202031352E3435383420202D31362E3632313020202020302E303030302043202020302020302020302020302020302020302020302020302020302020302020302020300A20202D31312E3231393320202031382E3333353620202020302E303030302043202020302020302020302020302020302020302020302020302020302020302020302020300A20202031352E3838363120202D31342E3834373320202020302E303030302043202020302020302020302020302020302020302020302020302020302020302020302020300A20202031392E3337383620202D31382E3336313720202020302E303030302043202020302020302020302020302020302020302020302020302020302020302020302020300A2020202D342E3930383120202020322E3132303220202020302E303030302043202020302020302020302020302020302020302020302020302020302020302020302020300A2020202D322E3434323720202020342E3933373620202020302E303030302043202020302020302020302020302020302020302020302020302020302020302020302020300A20202020312E3337383420202020322E3832323920202020302E303030302043202020302020302020302020302020302020302020302020302020302020302020302020300A20202D31392E3031313420202031382E3336313720202020302E303030302043202020302020302020302020302020302020302020302020302020302020302020302020300A20202D31312E3236373420202031302E3536393620202020302E303030302043202020302020302020302020302020302020302020302020302020302020302020302020300A20202D31312E3234353420202020342E3935393620202020302E303030302043202020302020302020302020302020302020302020302020302020302020302020302020300A2020202D352E3633353420202031302E3539313620202020302E303030302043202020302020302020302020302020302020302020302020302020302020302020302020300A20202D31312E3236373420202031302E3536393620202020302E303030302043202020302020302020302020302020302020302020302020302020302020302020302020300A20202D31312E3234353420202020342E3935393620202020302E303030302043202020302020302020302020302020302020302020302020302020302020302020302020300A2020202D352E3633353420202031302E3539313620202020302E303030302043202020302020302020302020302020302020302020302020302020302020302020302020300A20202D31312E3236373420202031302E3536393620202020302E303030302043202020302020302020302020302020302020302020302020302020302020302020302020300A2020202D322E3433333120202020342E3932353220202020302E303030302043202020302020302020302020302020302020302020302020302020302020302020302020300A2020202D342E3930393420202031302E3531373420202020302E303030302043202020302020302020302020302020302020302020302020302020302020302020302020300A20202D31372E3938353720202020342E3933373620202020302E303030302043202020302020302020302020302020302020302020302020302020302020302020302020300A20202D31312E323136362020202D352E3234383420202020302E303030302043202020302020302020302020302020302020302020302020302020302020302020302020300A20202D31372E393835372020202D352E3634393920202020302E303030302043202020302020302020302020302020302020302020302020302020302020302020302020300A20202020372E343530342020202D322E3133363720202020302E303030302043202020302020302020302020302020302020302020302020302020302020302020302020300A2020202D382E3039393420202020372E3734383120202020302E303030302043202020302020302020302020302020302020302020302020302020302020302020302020300A20202020332E323134312020202D362E3032393420202020302E303030302043202020302020302020302020302020302020302020302020302020302020302020302020300A20202020312E343630392020202D322E3433323420202020302E303030302043202020302020302020302020302020302020302020302020302020302020302020302020300A20202020312E383238312020202D312E3037323520202020302E303030302043202020302020302020302020302020302020302020302020302020302020302020302020300A20202020302E333936372020202D392E3533323920202020302E303030302043202020302020302020302020302020302020302020302020302020302020302020302020300A20202020352E333339382020202D322E3530333920202020302E303030302043202020302020302020302020302020302020302020302020302020302020302020302020300A20202020312E373735382020202D312E3039353920202020302E303030302043202020302020302020302020302020302020302020302020302020302020302020302020300A20202031352E3435383420202D31362E3632313020202020302E303030302043202020302020302020302020302020302020302020302020302020302020302020302020300A20202D31312E3231393320202031382E3333353620202020302E303030302043202020302020302020302020302020302020302020302020302020302020302020302020300A20202031352E3838363120202D31342E3834373320202020302E303030302043202020302020302020302020302020302020302020302020302020302020302020302020300A20202031392E3337383620202D31382E3336313720202020302E303030302043202020302020302020302020302020302020302020302020302020302020302020302020300A2020202D342E3930383120202020322E3132303220202020302E303030302043202020302020302020302020302020302020302020302020302020302020302020302020300A2020202D322E3434323720202020342E3933373620202020302E303030302043202020302020302020302020302020302020302020302020302020302020302020302020300A20202020312E3337383420202020322E3832323920202020302E303030302043202020302020302020302020302020302020302020302020302020302020302020302020300A20202D31392E3031313420202031382E3336313720202020302E303030302043202020302020302020302020302020302020302020302020302020302020302020302020300A20202D31312E3236373420202031302E3536393620202020302E303030302043202020302020302020302020302020302020302020302020302020302020302020302020300A20202D31312E3234353420202020342E3935393620202020302E303030302043202020302020302020302020302020302020302020302020302020302020302020302020300A2020202D352E3633353420202031302E3539313620202020302E303030302043202020302020302020302020302020302020302020302020302020302020302020302020300A20202D31312E3236373420202031302E3536393620202020302E303030302043202020302020302020302020302020302020302020302020302020302020302020302020300A20202D31312E3234353420202020342E3935393620202020302E303030302043202020302020302020302020302020302020302020302020302020302020302020302020300A2020202D352E3633353420202031302E3539313620202020302E303030302043202020302020302020302020302020302020302020302020302020302020302020302020300A20202D31312E3236373420202031302E3536393620202020302E303030302043202020302020302020302020302020302020302020302020302020302020302020302020300A2020202D322E3433333120202020342E3932353220202020302E303030302043202020302020302020302020302020302020302020302020302020302020302020302020300A2020202D342E3930393420202031302E3531373420202020302E303030302043202020302020302020302020302020302020302020302020302020302020302020302020300A20202D31372E3938353720202020342E3933373620202020302E303030302043202020302020302020302020302020302020302020302020302020302020302020302020300A20202D31312E323136362020202D352E3234383420202020302E303030302043202020302020302020302020302020302020302020302020302020302020302020302020300A20202D31372E393835372020202D352E3634393920202020302E303030302043202020302020302020302020302020302020302020302020302020302020302020302020300A20202D31392E3337383620202031342E3934393020202020302E30303030204F202020302020302020302020302020302020302020302020302020302020302020302020300A20202D31382E3636343120202031352E3336313520202020302E303030302043202020302020302020302020302020302020302020302020302020302020302020302020300A20202D31372E3934393620202031342E3934393020202020302E303030302043202020302020302020302020302020302020302020302020302020302020302020302020300A20202D31372E3233353120202031352E3336313520202020302E303030302043202020302020302020302020302020302020302020302020302020302020302020302020300A20202D31362E3532303720202031342E3934393020202020302E30303030204F202020302020302020302020302020302020302020302020302020302020302020302020300A20202D31352E3830363220202031352E3336313520202020302E303030302056202020302020302020302020302020302020302020302020302020302020302020302020300A20202D31352E3039313720202031342E3934393020202020302E30303030204F202020302020302020302020302020302020302020302020302020302020302020302020300A20202D31342E3337373320202031352E3336313520202020302E303030302043202020302020302020302020302020302020302020302020302020302020302020302020300A20202D31332E3636323820202031342E3934393020202020302E303030302043202020302020302020302020302020302020302020302020302020302020302020302020300A20202D31322E3934383320202031352E3336313520202020302E303030302043202020302020302020302020302020302020302020302020302020302020302020302020300A20202D31322E3233333920202031342E3934393020202020302E30303030204F202020302020302020302020302020302020302020302020302020302020302020302020300A20202D31352E3830363220202031362E3138363520202020302E30303030204F202020302020302020302020302020302020302020302020302020302020302020302020300A20202D31382E3636343120202031362E3138363520202020302E303030302043202020302020302020302020302020302020302020302020302020302020302020302020300A20202D31372E3233353120202031362E3138363520202020302E303030302043202020302020302020302020302020302020302020302020302020302020302020302020300A20202D31322E3934383320202031362E3138363520202020302E303030302043202020302020302020302020302020302020302020302020302020302020302020302020300A20202D31342E3337373320202031362E3138363520202020302E303030302043202020302020302020302020302020302020302020302020302020302020302020302020300A2035372035382020322020302020202020200A2035382035392020312020302020202020200A2035392036302020322020302020202020200A2036302036312020312020302020202020200A2036312036322020312020302020202020200A2036322036332020312020302020202020200A2036332036342020312020302020202020200A2036342036352020322020302020202020200A2036352036362020312020302020202020200A2036362036372020322020302020202020200A2036322036382020322020302020202020200A2035382036392020312020302020202020200A2036302037302020312020302020202020200A2036362037312020312020302020202020200A2036342037322020312020302020202020200A4D2020454E44
Contributor: SASAKI S, TOYOHASHI UNIV. OF TECH.
InstType: EI
InstName: HITACHI RMU-6D
IoniMethod: _ENERGY 70 eV
IonPolarity: pos
Date: 2010-10-09 19:48:36+02:00
Num Peaks: 108
15 70 17 20 18 100 26 1 27 50 28 110 29 20 31 0 38 10 39 50 
40 7 41 5 42 40 43 857 44 30 45 1 50 7 51 7 52 7 53 2 
55 17 56 3 57 6 58 0 65 10 67 130 68 20 69 0 72 20 77 7 
78 7 79 0 81 7 82 40 83 20 84 1 85 150 86 10 94 10 95 3 
96 7 97 10 99 10 100 1 101 10 105 10 106 90 107 3 108 20 109 10 
110 33 111 0 112 10 119 10 120 20 121 1 122 10 123 130 124 50 125 3 
126 123 127 30 132 10 136 0 137 20 139 10 141 30 143 1 147 10 148 100 
149 33 150 2 151 100 152 10 161 10 163 1 164 7 165 80 166 999 167 3 
168 30 181 570 182 10 183 1 184 40 185 10 193 20 195 0 205 4 207 13 
208 10 209 0 222 70 223 150 224 20 225 1 226 20 235 20 236 10 243 2 
248 17 249 300 250 307 251 3 252 7 265 890 266 120 267 20 
