Name: MassBank: JP009427
MW: 174
Formula: C11H10O2
Synonym: MassBank: JP009427
Synonym: 6-METHYL-3,4-BENZO-2-OXABICYCLO(4.1.0)HEPT-3-EN-5-ONE
Synonym: METHYLHOMOCHROMONE
Structure: 362D4D455448594C2D332C342D42454E5A4F2D322D4F584142494359434C4F28342E312E3029484550542D332D454E2D352D4F4E452E6D6F6C0A20204368656D447261773035313731303139313832440A2031332031352020302020302020302020302020302020302020302020303939392056323030300A2020202D312E3738363220202020302E3832353020202020302E303030302043202020302020302020302020302020302020302020302020302020302020302020302020300A2020202D312E3738363220202020302E3030303020202020302E303030302043202020302020302020302020302020302020302020302020302020302020302020302020300A2020202D312E303731372020202D302E3431323520202020302E303030302043202020302020302020302020302020302020302020302020302020302020302020302020300A2020202D302E3335373220202020302E3030303020202020302E303030302043202020302020302020302020302020302020302020302020302020302020302020302020300A2020202D302E3335373220202020302E3832353020202020302E303030302043202020302020302020302020302020302020302020302020302020302020302020302020300A2020202D312E3037313720202020312E3233373520202020302E303030302043202020302020302020302020302020302020302020302020302020302020302020302020300A20202020302E333537322020202D302E3431323520202020302E303030302043202020302020302020302020302020302020302020302020302020302020302020302020300A20202020312E3037313720202020302E3030303020202020302E303030302043202020302020302020302020302020302020302020302020302020302020302020302020300A20202020312E3037313720202020302E3832353020202020302E303030302043202020302020302020302020302020302020302020302020302020302020302020302020300A20202020302E3335373220202020312E3233373520202020302E30303030204F202020302020302020302020302020302020302020302020302020302020302020302020300A20202020312E3738363220202020302E3431323520202020302E303030302043202020302020302020302020302020302020302020302020302020302020302020302020300A20202020312E343834322020202D302E3731343520202020302E303030302043202020302020302020302020302020302020302020302020302020302020302020302020300A20202020302E333537322020202D312E3233373520202020302E30303030204F202020302020302020302020302020302020302020302020302020302020302020302020300A2020312020322020322020302020202020200A2020322020332020312020302020202020200A2020332020342020322020302020202020200A2020342020352020312020302020202020200A2020352020362020322020302020202020200A2020362020312020312020302020202020200A2020342020372020312020302020202020200A2020372020382020312020302020202020200A2020382020392020312020302020202020200A2020392031302020312020302020202020200A2031302020352020312020302020202020200A2020382031312020312020302020202020200A2031312020392020312020302020202020200A2020382031322020312020302020202020200A2020372031332020322020302020202020200A4D2020454E44
Contributor: EGUCHI S, FAC. OF SCIENCE, HIROSHIMA UNIV.
InstType: EI
InstName: HITACHI RMU-7L
IoniMethod: _ENERGY 70 eV
IonPolarity: pos
Date: 2010-10-09 19:48:36+02:00
Num Peaks: 69
50 419 51 399 52 60 53 320 54 50 55 350 56 60 57 625 58 70 63 350 
64 240 65 320 66 50 67 110 68 40 69 400 70 109 71 469 72 25 73 75 
74 20 75 105 76 660 77 420 78 100 79 19 81 175 82 120 83 300 84 100 
85 285 86 15 91 165 92 260 93 80 94 75 95 60 96 180 97 290 98 105 
99 50 103 185 104 630 105 310 106 40 111 110 112 30 115 160 116 50 117 120 
118 45 119 10 120 90 121 229 122 20 123 68 131 670 132 90 133 45 134 470 
135 65 145 500 146 95 159 105 160 20 173 70 174 999 175 263 176 40 
