Name: 3-ETHOXY-4-HYDROXYBENZALDEHYDE
MW: 166
Formula: C9H10O3
Synonym: MassBank: JP008446
Synonym: 3-ETHOXY-4-HYDROXYBENZALDEHYDE
Synonym: ETHYL VANILLIN
Structure: 332D4554484F58592D342D485944524F585942454E5A414C4445485944452E6D6F6C0A20204368656D447261773032323231303137313832440A2031322031322020302020302020302020302020302020302020302020303939392056323030300A20202020312E373836322020202D302E3832353020202020302E303030302043202020302020302020302020302020302020302020302020302020302020302020302020300A20202020312E303731372020202D302E3431323520202020302E303030302043202020302020302020302020302020302020302020302020302020302020302020302020300A20202020302E333537322020202D302E3832353020202020302E303030302043202020302020302020302020302020302020302020302020302020302020302020302020300A2020202D302E333537322020202D302E3431323520202020302E303030302043202020302020302020302020302020302020302020302020302020302020302020302020300A2020202D302E3335373220202020302E3431323520202020302E303030302043202020302020302020302020302020302020302020302020302020302020302020302020300A20202020302E3335373220202020302E3832353020202020302E303030302043202020302020302020302020302020302020302020302020302020302020302020302020300A20202020312E3037313720202020302E3431323520202020302E303030302043202020302020302020302020302020302020302020302020302020302020302020302020300A20202020322E353030362020202D302E3431323520202020302E30303030204F202020302020302020302020302020302020302020302020302020302020302020302020300A2020202D312E3037313720202020302E3832353020202020302E30303030204F202020302020302020302020302020302020302020302020302020302020302020302020300A2020202D312E303731372020202D302E3832353020202020302E30303030204F202020302020302020302020302020302020302020302020302020302020302020302020300A2020202D312E373836322020202D302E3431323520202020302E303030302043202020302020302020302020302020302020302020302020302020302020302020302020300A2020202D322E353030362020202D302E3832353020202020302E303030302043202020302020302020302020302020302020302020302020302020302020302020302020300A2020312020322020312020302020202020200A2020322020332020312020302020202020200A2020332020342020322020302020202020200A2020342020352020312020302020202020200A2020352020362020322020302020202020200A2020362020372020312020302020202020200A2020322020372020322020302020202020200A2020312020382020322020302020202020200A2020352020392020312020302020202020200A2031312031322020312020302020202020200A2031302031312020312020302020202020200A2020342031302020312020302020202020200A4D2020454E44
Contributor: SODA AROMATIC CO., LTD.
InstType: EI
InstName: HITACHI M-80B
IoniMethod: _ENERGY 70 eV
IonPolarity: pos
Date: 2010-10-09 19:48:36+02:00
Num Peaks: 31
26 19 27 121 28 104 29 117 32 21 38 11 39 48 50 39 51 75 52 63 
53 79 55 33 62 20 63 49 64 26 65 32 79 33 80 16 81 130 82 27 
91 15 92 12 108 15 109 116 110 44 136 15 137 999 138 355 139 31 166 493 
167 43 
