Name: ETHYL PIPERATE
MW: 246
Formula: C14H14O4
Synonym: MassBank: JP001405
Synonym: ETHYL PIPERATE
Synonym: ETHYL 5-(3,4-METHYLENEDIOXYPHENYL)-2,4-PENTADIENOATE
Structure: 455448594C20352D28332C342D4D455448594C454E4544494F58595048454E594C292D322C342D50454E54414449454E4F4154452E6D6F6C0A20204368656D447261773038313131303138323132440A2031382031392020302020302020302020302020302020302020302020303939392056323030300A2020202D322E303936362020202D302E3330363520202020302E303030302043202020302020302020302020302020302020302020302020302020302020302020302020300A2020202D312E323731362020202D302E3330363520202020302E303030302043202020302020302020302020302020302020302020302020302020302020302020302020300A2020202D302E383539312020202D312E3032313020202020302E303030302043202020302020302020302020302020302020302020302020302020302020302020302020300A2020202D302E303334312020202D312E3032313020202020302E303030302043202020302020302020302020302020302020302020302020302020302020302020302020300A20202020302E333738342020202D302E3330363520202020302E303030302043202020302020302020302020302020302020302020302020302020302020302020302020300A2020202D322E3530393120202020302E3430373920202020302E30303030204F202020302020302020302020302020302020302020302020302020302020302020302020300A2020202D322E353039312020202D312E3032313020202020302E30303030204F202020302020302020302020302020302020302020302020302020302020302020302020300A20202020312E323033342020202D302E3330363520202020302E303030302043202020302020302020302020302020302020302020302020302020302020302020302020300A20202020312E3631353920202020302E3430373920202020302E303030302043202020302020302020302020302020302020302020302020302020302020302020302020300A20202020322E3434303920202020302E3430373920202020302E303030302043202020302020302020302020302020302020302020302020302020302020302020302020300A20202020322E383533342020202D302E3330363520202020302E303030302043202020302020302020302020302020302020302020302020302020302020302020302020300A20202020322E343430392020202D312E3032313020202020302E303030302043202020302020302020302020302020302020302020302020302020302020302020302020300A20202020312E363135392020202D312E3032313020202020302E303030302043202020302020302020302020302020302020302020302020302020302020302020302020300A20202020332E3734363620202020302E3638353520202020302E303030302043202020302020302020302020302020302020302020302020302020302020302020302020300A20202020322E3939323920202020312E3032313020202020302E30303030204F202020302020302020302020302020302020302020302020302020302020302020302020300A20202020332E363630342020202D302E3133353020202020302E30303030204F202020302020302020302020302020302020302020302020302020302020302020302020300A2020202D332E333334312020202D312E3032313020202020302E303030302043202020302020302020302020302020302020302020302020302020302020302020302020300A2020202D332E373436362020202D302E3330363520202020302E303030302043202020302020302020302020302020302020302020302020302020302020302020302020300A2020312020322020312020302020202020200A2020322020332020322020302020202020200A2020332020342020312020302020202020200A2020342020352020322020302020202020200A2020312020362020322020302020202020200A2020312020372020312020302020202020200A2020382020392020312020302020202020200A2020392031302020322020302020202020200A2031302031312020312020302020202020200A2031312031322020322020302020202020200A2031322031332020312020302020202020200A2020382031332020322020302020202020200A2031342031352020312020302020202020200A2031342031362020312020302020202020200A2031302031352020312020302020202020200A2031312031362020312020302020202020200A2020352020382020312020302020202020200A2031372031382020312020302020202020200A2020372031372020312020302020202020200A4D2020454E44
Contributor: HASHIMOTO K, KYOTO COLLEGE OF PHARMACY
InstType: EI
InstName: HITACHI M-80
IoniMethod: _ENERGY 20 eV
IonPolarity: pos
Date: 2010-10-09 19:48:36+02:00
Num Peaks: 26
29 31 103 17 115 289 116 6 117 33 127 12 131 22 143 28 144 50 145 17 
159 19 171 7 172 281 173 999 174 134 175 2 187 23 199 30 200 13 201 13 
202 18 217 64 218 17 246 71 247 115 248 14 
