Name: MassBank: JP003725
MW: 224
Formula: C13H20O3
Synonym: MassBank: JP003725
Synonym: 1-HYDROXY-1-(3,5-DIMETHOXYPHENYL)-3-METHYLBUTANE
Structure: 312D485944524F58592D312D28332C352D44494D4554484F58595048454E594C292D332D4D455448594C425554414E452E6D6F6C0A20204368656D447261773131313930393134333032440A2031362031362020302020302020302020302020302020302020302020303939392056323030300A2020202D302E3832353020202020302E3030303020202020302E303030302043202020302020302020302020302020302020302020302020302020302020302020302020300A2020202D312E323337352020202D302E3731343520202020302E303030302043202020302020302020302020302020302020302020302020302020302020302020302020300A2020202D322E303632352020202D302E3731343520202020302E303030302043202020302020302020302020302020302020302020302020302020302020302020302020300A2020202D322E343735302020202D312E3432383920202020302E303030302043202020302020302020302020302020302020302020302020302020302020302020302020300A2020202D322E3437353020202020302E3030303020202020302E303030302043202020302020302020302020302020302020302020302020302020302020302020302020300A20202020302E3030303020202020302E3030303020202020302E303030302043202020302020302020302020302020302020302020302020302020302020302020302020300A20202020302E3431323520202020302E3731343520202020302E303030302043202020302020302020302020302020302020302020302020302020302020302020302020300A20202020312E3233373520202020302E3731343520202020302E303030302043202020302020302020302020302020302020302020302020302020302020302020302020300A20202020312E363530302020202D302E3030303020202020302E303030302043202020302020302020302020302020302020302020302020302020302020302020302020300A20202020312E323337352020202D302E3731343520202020302E303030302043202020302020302020302020302020302020302020302020302020302020302020302020300A20202020302E343132352020202D302E3731343520202020302E303030302043202020302020302020302020302020302020302020302020302020302020302020302020300A20202020312E363530302020202D312E3432383920202020302E30303030204F202020302020302020302020302020302020302020302020302020302020302020302020300A20202020322E343735302020202D312E3432383920202020302E303030302043202020302020302020302020302020302020302020302020302020302020302020302020300A20202020312E3635303020202020312E3432383920202020302E30303030204F202020302020302020302020302020302020302020302020302020302020302020302020300A20202020322E3437353020202020312E3432383920202020302E303030302043202020302020302020302020302020302020302020302020302020302020302020302020300A2020202D312E3233373520202020302E3731343520202020302E30303030204F202020302020302020302020302020302020302020302020302020302020302020302020300A2020312020322020312020302020202020200A2020322020332020312020302020202020200A2020332020342020312020302020202020200A2020332020352020312020302020202020200A2020362020372020312020302020202020200A2020372020382020322020302020202020200A2020382020392020312020302020202020200A2020392031302020322020302020202020200A2031302031312020312020302020202020200A2020362031312020322020302020202020200A2031322031332020312020302020202020200A2031302031322020312020302020202020200A2031342031352020312020302020202020200A2020382031342020312020302020202020200A2020312020362020312020302020202020200A2020312031362020312020302020202020200A4D2020454E44
Contributor: SASAKI S, TOYOHASHI UNIV. OF TECH.
InstType: EI
InstName: Unknown
IoniMethod: EI
IonPolarity: pos
Date: 2010-10-09 19:48:36+02:00
Num Peaks: 29
39 70 41 81 43 35 51 2 53 35 55 23 57 23 63 2 65 35 69 23 
77 70 92 4 94 23 95 23 96 35 107 5 108 35 109 35 124 70 139 5 
140 47 151 23 152 47 167 19 168 999 169 93 206 12 224 16 225 23 
