Name: MassBank: JP004418
MW: 276
Formula: C14H16N2O4
Synonym: MassBank: JP004418
Synonym: ETHYL 1,2,5-TRIMETHYL-6-NITROINDOLE-3-CARBOXYLATE
Structure: 455448594C20312C322C352D5452494D455448594C2D362D4E4954524F494E444F4C452D332D434152424F58594C4154452E6D6F6C0A20204368656D447261773038313131303138303432440A2032302032312020302020302020302020302020302020302020302020303939392056323030300A2020202D302E3231353320202020302E3937343820202020302E30303030204E202020302020302020302020302020302020302020302020302020302020302020302020300A20202020302E3533383420202020302E3633393220202020302E303030302043202020302020302020302020302020302020302020302020302020302020302020302020300A20202020302E343532312020202D302E3138313320202020302E303030302043202020302020302020302020302020302020302020302020302020302020302020302020300A2020202D302E333534392020202D302E3335323820202020302E303030302043202020302020302020302020302020302020302020302020302020302020302020302020300A2020202D302E373637342020202D312E3036373320202020302E303030302043202020302020302020302020302020302020302020302020302020302020302020302020300A2020202D312E353932342020202D312E3036373320202020302E303030302043202020302020302020302020302020302020302020302020302020302020302020302020300A2020202D322E303034392020202D302E3335323820202020302E303030302043202020302020302020302020302020302020302020302020302020302020302020302020300A2020202D312E3539323420202020302E3336313720202020302E303030302043202020302020302020302020302020302020302020302020302020302020302020302020300A2020202D302E3736373420202020302E3336313720202020302E303030302043202020302020302020302020302020302020302020302020302020302020302020302020300A20202020312E303635322020202D302E3733333320202020302E303030302043202020302020302020302020302020302020302020302020302020302020302020302020300A20202020302E383531372020202D312E3533303220202020302E30303030204F202020302020302020302020302020302020302020302020302020302020302020302020300A20202020312E383632312020202D302E3531393820202020302E30303030204F202020302020302020302020302020302020302020302020302020302020302020302020300A2020202D322E383239392020202D302E3335323820202020302E30303030204E202020302020332020302020302020302020302020302020302020302020302020302020300A2020202D332E3234323420202020302E3336313720202020302E30303030204F202020302020302020302020302020302020302020302020302020302020302020302020300A2020202D332E323432342020202D312E3036373320202020302E30303030204F202020302020352020302020302020302020302020302020302020302020302020302020300A2020202D322E303034392020202D312E3738313720202020302E303030302043202020302020302020302020302020302020302020302020302020302020302020302020300A20202020312E3235323820202020312E3035313720202020302E303030302043202020302020302020302020302020302020302020302020302020302020302020302020300A2020202D302E3338363820202020312E3738313720202020302E303030302043202020302020302020302020302020302020302020302020302020302020302020302020300A20202020322E343435352020202D312E3130333120202020302E303030302043202020302020302020302020302020302020302020302020302020302020302020302020300A20202020332E323432342020202D302E3838393620202020302E303030302043202020302020302020302020302020302020302020302020302020302020302020302020300A2020312020322020312020302020202020200A2020322020332020322020302020202020200A2020332020342020312020302020202020200A2020342020352020312020302020202020200A2020352020362020322020302020202020200A2020362020372020312020302020202020200A2020372020382020322020302020202020200A2020382020392020312020302020202020200A2020312020392020312020302020202020200A2020342020392020322020302020202020200A2031302031312020322020302020202020200A2031302031322020312020302020202020200A2020332031302020312020302020202020200A2031332031342020322020302020202020200A2031332031352020312020302020202020200A2020372031332020312020302020202020200A2020362031362020312020302020202020200A2020322031372020312020302020202020200A2020312031382020312020302020202020200A2031392032302020312020302020202020200A2031322031392020312020302020202020200A4D202043484720203220203133202020312020313520202D310A4D2020454E44
Contributor: SASAKI S, TOYOHASHI UNIV. OF TECH.
InstType: EI
InstName: MX-1303
IoniMethod: _ENERGY 50 eV
IonPolarity: pos
Date: 2010-10-09 19:48:36+02:00
Num Peaks: 52
39 122 41 96 42 274 45 3 51 41 52 13 53 14 54 2 55 171 56 152 
57 177 67 4 68 20 69 205 71 181 77 2 78 12 79 13 81 98 82 4 
83 69 84 21 90 14 91 3 92 14 93 11 95 36 96 1 97 12 98 19 
99 32 103 4 111 36 115 57 116 59 117 14 118 51 142 89 143 121 157 24 
158 56 185 122 186 14 200 24 203 110 213 60 214 10 230 9 231 451 259 541 
276 999 277 132 
