Name: MassBank: JP008428
MW: 122
Formula: C8H10O
Synonym: MassBank: JP008428
Synonym: 2,4-DIMETHYLPHENOL
Structure: 310A32330A322C342D44494D455448594C5048454E4F4C2E6D6F6C0A20204368656D447261773132323030393139323732440A2020392020392020302020302020302020302020302020302020302020303939392056323030300A20202020302E373134352020202D302E3431323520202020302E303030302043202020302020302020302020302020302020302020302020302020302020302020302020300A20202020302E3731343520202020302E3431323520202020302E303030302043202020302020302020302020302020302020302020302020302020302020302020302020300A2020202D302E3030303020202020302E3832353020202020302E303030302043202020302020302020302020302020302020302020302020302020302020302020302020300A2020202D302E3731343520202020302E3431323520202020302E303030302043202020302020302020302020302020302020302020302020302020302020302020302020300A2020202D302E373134352020202D302E3431323520202020302E303030302043202020302020302020302020302020302020302020302020302020302020302020302020300A20202020302E303030302020202D302E3832353020202020302E303030302043202020302020302020302020302020302020302020302020302020302020302020302020300A2020202D312E3432383920202020302E3832353020202020302E303030302043202020302020302020302020302020302020302020302020302020302020302020302020300A20202020312E3432383920202020302E3832353020202020302E303030302043202020302020302020302020302020302020302020302020302020302020302020302020300A20202020312E343238392020202D302E3832353020202020302E30303030204F202020302020302020302020302020302020302020302020302020302020302020302020300A2020312020322020312020302020202020200A2020322020332020322020302020202020200A2020332020342020312020302020202020200A2020342020352020322020302020202020200A2020352020362020312020302020202020200A2020312020362020322020302020202020200A2020342020372020312020302020202020200A2020322020382020312020302020202020200A2020312020392020312020302020202020200A4D2020454E44
Contributor: SODA AROMATIC CO., LTD.
InstType: EI
InstName: HITACHI M-80B
IoniMethod: _ENERGY 70 eV
IonPolarity: pos
Date: 2010-10-09 19:48:36+02:00
Num Peaks: 47
15 20 26 22 27 125 28 50 29 14 37 13 38 36 39 192 41 57 43 24 
45 11 50 59 51 155 52 54 53 105 55 32 60 23 61 20 62 34 63 64 
64 20 65 105 66 27 67 15 74 17 75 16 76 13 77 300 78 101 79 159 
80 13 81 11 89 14 91 204 92 24 93 35 94 31 102 11 103 40 104 32 
105 31 107 940 108 64 120 11 121 511 122 999 123 70 
