Name: MassBank: JP000387
MW: 116
Formula: C6H16N2
Synonym: MassBank: JP000387
Synonym: 1,1-DIISOPROPYLHYDRAZINE
Structure: 310A32300A312C312D444949534F50524F50594C48594452415A494E452E6D6F6C0A20204368656D447261773130323330393130323532440A2020382020372020302020302020302020302020302020302020302020303939392056323030300A20202020302E3030303020202020302E3230363620202020302E30303030204E202020302020302020302020302020302020302020302020302020302020302020302020300A2020202D302E3030303820202020312E3033313620202020302E30303030204E202020302020302020302020302020302020302020302020302020302020302020302020300A20202020302E373134392020202D302E3230353320202020302E303030302043202020302020302020302020302020302020302020302020302020302020302020302020300A20202020302E373135362020202D312E3033303320202020302E303030302043202020302020302020302020302020302020302020302020302020302020302020302020300A20202020312E3432383920202020302E3230373920202020302E303030302043202020302020302020302020302020302020302020302020302020302020302020302020300A2020202D302E373134312020202D302E3230363620202020302E303030302043202020302020302020302020302020302020302020302020302020302020302020302020300A2020202D302E373133332020202D312E3033313620202020302E303030302043202020302020302020302020302020302020302020302020302020302020302020302020300A2020202D312E3432383920202020302E3230353320202020302E303030302043202020302020302020302020302020302020302020302020302020302020302020302020300A2020312020322020312020302020202020200A2020332020342020312020302020202020200A2020332020352020312020302020202020200A2020312020332020312020302020202020200A2020362020372020312020302020202020200A2020362020382020312020302020202020200A2020312020362020312020302020202020200A4D2020454E44
Contributor: SASAKI S, TOYOHASHI UNIV. OF TECH.
InstType: EI
InstName: SHIMADZU LKB-2091
IoniMethod: _ENERGY 70 eV
IonPolarity: pos
Date: 2010-10-09 19:48:36+02:00
Num Peaks: 25
27 144 28 87 29 52 30 6 31 39 39 78 40 17 41 17 42 261 43 211 
44 73 54 1 55 14 56 193 57 36 58 5 59 999 60 36 70 9 73 4 
84 14 101 389 102 27 116 19 117 22 
