Name: MassBank: JP001888
MW: 368
Formula: C27H44
Synonym: MassBank: JP001888
Synonym: CHOLEST-3,5-DIENE
Structure: 43484F4C4553542D332C352D4449454E452E6D6F6C0A20204368656D447261773039303731303131323332440A2033322033352020302020302020302020302020302020302020302020303939392056323030300A2020202D342E303930392020202D322E3037393520202020302E303030302043202020302020302020302020302020302020302020302020302020302020302020302020300A2020202D342E303930392020202D312E3235343520202020302E303030302043202020302020302020302020302020302020302020302020302020302020302020302020300A2020202D332E333736352020202D302E3834323020202020302E303030302043202020302020302020302020302020302020302020302020302020302020302020302020300A2020202D332E333736352020202D322E3439323020202020302E303030302043202020302020302020302020302020302020302020302020302020302020302020302020300A2020202D322E363632302020202D322E3037393520202020302E303030302043202020302020302020302020302020302020302020302020302020302020302020302020300A2020202D312E393437352020202D322E3439323020202020302E303030302043202020302020302020302020302020302020302020302020302020302020302020302020300A2020202D312E323333302020202D322E3037393520202020302E303030302043202020302020302020302020302020302020302020302020302020302020302020302020300A2020202D312E323333302020202D312E3235343520202020302E303030302043202020302020302020302020302020302020302020302020302020302020302020302020300A2020202D302E353138362020202D302E3834323020202020302E303030302043202020302020302020302020302020302020302020302020302020302020302020302020300A20202020302E323636302020202D312E3039363920202020302E303030302043202020302020302020302020302020302020302020302020302020302020302020302020300A20202020302E373531302020202D302E3432393520202020302E303030302043202020302020302020302020302020302020302020302020302020302020302020302020300A20202020302E3236363020202020302E3233383020202020302E303030302043202020302020302020302020302020302020302020302020302020302020302020302020300A20202020302E3532313020202020312E3032323620202020302E303030302043202020302020302020302020302020302020302020302020302020302020302020302020300A2020202D302E353138362020202D302E3031373020202020302E303030302043202020302020302020302020302020302020302020302020302020302020302020302020300A2020202D302E3531383620202020302E3830383020202020302E303030302043202020302020302020302020302020302020302020302020302020302020302020302020300A2020202D312E3233333020202020302E3339353520202020302E303030302043202020302020302020302020302020302020302020302020302020302020302020302020300A2020202D312E393437352020202D302E3031373020202020302E303030302043202020302020302020302020302020302020302020302020302020302020302020302020300A2020202D312E393437352020202D302E3834323020202020302E303030302043202020302020302020302020302020302020302020302020302020302020302020302020300A2020202D322E363632302020202D312E3235343520202020302E303030302043202020302020302020302020302020302020302020302020302020302020302020302020300A2020202D312E393437352020202D312E3636373020202020302E303030302043202020302020302020302020302020302020302020302020302020302020302020302020300A2020202D322E363632302020202D302E3432393520202020302E303030302048202020302020302020302020302020302020302020302020302020302020302020302020300A2020202D302E353138362020202D312E3636373020202020302E303030302048202020302020302020302020302020302020302020302020302020302020302020302020300A2020202D302E313036312020202D312E3535363420202020302E303030302048202020302020302020302020302020302020302020302020302020302020302020302020300A20202020312E3038303920202020302E3336373020202020302E303030302048202020302020302020302020302020302020302020302020302020302020302020302020300A20202020302E3733343520202020312E3831393520202020302E303030302048202020302020302020302020302020302020302020302020302020302020302020302020300A20202020312E3331323020202020302E3738383320202020302E303030302043202020302020302020302020302020302020302020302020302020302020302020302020300A2020202D302E3237303020202020312E3235363920202020302E303030302043202020302020302020302020302020302020302020302020302020302020302020302020300A20202020312E3931303420202020312E3335363220202020302E303030302043202020302020302020302020302020302020302020302020302020302020302020302020300A20202020322E3730313520202020312E3132313920202020302E303030302043202020302020302020302020302020302020302020302020302020302020302020302020300A20202020332E3239393920202020312E3638393820202020302E303030302043202020302020302020302020302020302020302020302020302020302020302020302020300A20202020342E3039303920202020312E3435353420202020302E303030302043202020302020302020302020302020302020302020302020302020302020302020302020300A20202020332E3130373320202020322E3439323020202020302E303030302043202020302020302020302020302020302020302020302020302020302020302020302020300A2020312020322020312020302020202020200A2020322020332020312020302020202020200A2020312020342020322020302020202020200A2020342020352020312020302020202020200A2020352020362020322020302020202020200A2020362020372020312020302020202020200A2020372020382020312020302020202020200A2020382020392020312020302020202020200A2020392031302020312020302020202020200A2031302031312020312020302020202020200A2031312031322020312020302020202020200A2031322031332020312020302020202020200A2031322031342020312020302020202020200A2020392031342020312020302020202020200A2031342031352020312020312020202020200A2031342031362020312020302020202020200A2031362031372020312020302020202020200A2031372031382020312020302020202020200A2020382031382020312020302020202020200A2031382031392020312020302020202020200A2020332031392020312020302020202020200A2020352031392020312020302020202020200A2031392032302020312020312020202020200A2031382032312020312020362020202020200A2020382032322020312020312020202020200A2020392032332020312020362020202020200A2031322032342020312020362020202020200A2031332032352020312020312020202020200A2031332032362020312020302020202020200A2031332032372020312020302020202020200A2032362032382020312020302020202020200A2032382032392020312020302020202020200A2032392033302020312020302020202020200A2033302033312020312020302020202020200A2033302033322020312020302020202020200A4D2020454E44
Contributor: SEYAMA Y, DEPT. OF PHYSIOL. CHEMISTRY AND NUTRITION, FAC. OF MEDICINE, UNIV. OF TOKYO
InstType: EI
InstName: SHIMADZU LKB-9000B
IoniMethod: _ENERGY 70 eV
IonPolarity: pos
Date: 2010-10-09 19:48:36+02:00
Num Peaks: 178
39 48 40 13 41 479 42 49 43 781 45 18 53 84 54 14 55 547 56 50 
57 440 58 20 59 10 65 5 66 22 67 419 68 51 69 307 70 30 71 225 
72 13 77 160 78 61 79 403 80 69 81 856 82 81 83 195 84 15 85 50 
89 10 90 10 91 527 92 154 93 465 94 134 95 472 96 48 97 119 100 11 
103 46 104 55 105 630 106 206 107 570 108 215 109 289 110 35 111 74 112 11 
113 12 114 12 115 76 116 50 117 218 118 100 119 283 120 373 121 355 122 94 
123 129 124 17 125 23 127 26 128 92 129 155 130 86 131 289 132 84 133 315 
134 89 135 259 136 55 137 54 141 48 142 57 143 296 144 113 145 663 146 229 
147 825 148 186 149 179 150 30 151 42 152 11 153 17 155 39 156 24 157 132 
158 118 159 265 160 200 161 214 162 61 163 113 164 16 165 28 167 12 169 23 
170 11 171 74 172 35 173 73 174 43 175 65 176 23 177 35 179 15 183 19 
184 10 185 76 186 30 187 41 188 10 189 23 190 10 191 34 192 10 193 37 
197 23 198 14 199 86 200 47 201 65 202 16 203 16 205 73 206 53 207 19 
211 10 212 17 213 277 214 75 215 33 216 14 217 36 218 21 219 26 227 28 
228 66 229 38 230 10 231 11 232 12 239 11 241 24 242 11 245 50 246 50 
247 369 248 85 249 14 254 12 255 287 256 64 257 13 258 12 259 44 260 255 
261 88 262 18 274 22 275 13 283 31 284 13 314 10 326 40 327 13 339 22 
340 13 353 311 354 91 355 15 367 26 368 999 369 315 370 48 
