Name: ETHYLENE GLYCOL MONOISOBUTYL ETHER
MW: 118
Formula: C6H14O2
Synonym: MassBank: JP006160
Synonym: ETHYLENE GLYCOL MONOISOBUTYL ETHER
Synonym: 2-ISOBUTOXYETHANOL
Structure: 310A32300A455448594C454E4520474C59434F4C204D4F4E4F49534F425554594C2045544845522E6D6F6C0A20204368656D447261773031323231303030303632440A2020382020372020302020302020302020302020302020302020302020303939392056323030300A20202020302E3731343520202020302E3631383820202020302E303030302043202020302020302020302020302020302020302020302020302020302020302020302020300A20202020312E3432383920202020302E3230363220202020302E303030302043202020302020302020302020302020302020302020302020302020302020302020302020300A2020202D302E3030303020202020302E3230363220202020302E30303030204F202020302020302020302020302020302020302020302020302020302020302020302020300A20202020322E3134333420202020302E3631383820202020302E30303030204F202020302020302020302020302020302020302020302020302020302020302020302020300A2020202D302E3731343520202020302E3631383820202020302E303030302043202020302020302020302020302020302020302020302020302020302020302020302020300A2020202D312E3432383920202020302E3230363220202020302E303030302043202020302020302020302020302020302020302020302020302020302020302020302020300A2020202D312E343238392020202D302E3631383820202020302E303030302043202020302020302020302020302020302020302020302020302020302020302020302020300A2020202D322E3134333420202020302E3631383820202020302E303030302043202020302020302020302020302020302020302020302020302020302020302020302020300A2020312020322020312020302020202020200A2020312020332020312020302020202020200A2020322020342020312020302020202020200A2020352020362020312020302020202020200A2020362020372020312020302020202020200A2020362020382020312020302020202020200A2020332020352020312020302020202020200A4D2020454E44
Contributor: HASHIMOTO K, KYOTO COLLEGE OF PHARMACY
InstType: EI
InstName: HITACHI M-80
IoniMethod: _ENERGY 20 eV
IonPolarity: pos
Date: 2010-10-09 19:48:36+02:00
Num Peaks: 20
18 27 27 49 29 336 31 77 39 11 41 336 42 21 43 55 44 16 45 926 
46 22 55 33 56 99 57 999 58 40 59 31 63 19 71 25 72 12 73 18 
