Name: MassBank: JP004962
MW: 213
Formula: C10H23NSi2
Synonym: MassBank: JP004962
Synonym: 1-ALLYL-2,2,6,6-TETRAMETHYL-2,6-DISILAPIPERIDINE
Structure: 312D414C4C594C2D322C322C362C362D54455452414D455448594C2D322C362D444953494C4150495045524944494E452E6D6F6C0A20204368656D447261773131313730393231313632440A2031332031332020302020302020302020302020302020302020302020303939392056323030300A2020202D302E303030302020202D302E3230363220202020302E30303030204E202020302020302020302020302020302020302020302020302020302020302020302020300A20202020302E373134352020202D302E3631383720202020302E303030302053692020302020302020302020302020302020302020302020302020302020302020302020300A20202020302E373134352020202D312E3434333720202020302E303030302043202020302020302020302020302020302020302020302020302020302020302020302020300A2020202D302E303030302020202D312E3835363320202020302E303030302043202020302020302020302020302020302020302020302020302020302020302020302020300A2020202D302E373134352020202D312E3434333820202020302E303030302043202020302020302020302020302020302020302020302020302020302020302020302020300A2020202D302E373134352020202D302E3631383720202020302E303030302053692020302020302020302020302020302020302020302020302020302020302020302020300A2020202D302E3939363620202020302E3135363520202020302E303030302043202020302020302020302020302020302020302020302020302020302020302020302020300A2020202D312E353236392020202D302E3736323020202020302E303030302043202020302020302020302020302020302020302020302020302020302020302020302020300A20202020302E3939363620202020302E3135363520202020302E303030302043202020302020302020302020302020302020302020302020302020302020302020302020300A20202020312E353236392020202D302E3736323020202020302E303030302043202020302020302020302020302020302020302020302020302020302020302020302020300A2020202D302E3030303020202020302E3631383820202020302E303030302043202020302020302020302020302020302020302020302020302020302020302020302020300A2020202D302E3731343520202020312E3033313320202020302E303030302043202020302020302020302020302020302020302020302020302020302020302020302020300A2020202D302E3731343520202020312E3835363320202020302E303030302043202020302020302020302020302020302020302020302020302020302020302020302020300A2020312020322020312020302020202020200A2020322020332020312020302020202020200A2020332020342020312020302020202020200A2020342020352020312020302020202020200A2020352020362020312020302020202020200A2020312020362020312020302020202020200A2020362020372020312020312020202020200A2020362020382020312020362020202020200A2020322020392020312020362020202020200A2020322031302020312020312020202020200A2031312031322020312020302020202020200A2031322031332020322020302020202020200A2020312031312020312020302020202020200A4D2020454E44
Contributor: MASS SPECTROSCOPY SOC. OF JAPAN (MSSJ)
InstType: EI
InstName: JEOL JMS-D-3000
IoniMethod: _ENERGY 70 eV
IonPolarity: pos
Date: 2010-10-09 19:48:36+02:00
Num Peaks: 26
42 19 43 14 45 144 52 144 58 91 59 220 66 96 69 19 72 100 73 110 
75 139 102 81 117 120 119 43 131 148 132 77 133 144 159 440 160 110 161 91 
174 100 186 77 198 999 199 187 200 139 213 177 
