Name: N-(12-AMINODODECYL)-2-PYRROLIDONE
MW: 268
Formula: C16H32N2O
Synonym: MassBank: JP004186
Synonym: N-(12-AMINODODECYL)-2-PYRROLIDONE
Structure: 4E2D2831322D414D494E4F444F444543594C292D322D505952524F4C49444F4E452E6D6F6C0A20204368656D447261773038313231303031303432440A2031392031392020302020302020302020302020302020302020302020303939392056323030300A20202020332E393931322020202D302E3037353320202020302E30303030204E202020302020302020302020302020302020302020302020302020302020302020302020300A20202020342E3734343920202020302E3236303320202020302E303030302043202020302020302020302020302020302020302020302020302020302020302020302020300A20202020352E323936392020202D302E3335323820202020302E303030302043202020302020302020302020302020302020302020302020302020302020302020302020300A20202020342E383834342020202D312E3036373320202020302E303030302043202020302020302020302020302020302020302020302020302020302020302020302020300A20202020342E303737342020202D302E3839353720202020302E303030302043202020302020302020302020302020302020302020302020302020302020302020302020300A20202020342E3931363420202020312E3036373320202020302E30303030204F202020302020302020302020302020302020302020302020302020302020302020302020300A20202020332E3237363720202020302E3333373220202020302E303030302043202020302020302020302020302020302020302020302020302020302020302020302020300A20202020322E353632332020202D302E3037353320202020302E303030302043202020302020302020302020302020302020302020302020302020302020302020302020300A20202020312E3834373820202020302E3333373220202020302E303030302043202020302020302020302020302020302020302020302020302020302020302020302020300A20202020312E313333332020202D302E3037353320202020302E303030302043202020302020302020302020302020302020302020302020302020302020302020302020300A20202020302E3431383920202020302E3333373220202020302E303030302043202020302020302020302020302020302020302020302020302020302020302020302020300A2020202D302E323935362020202D302E3037353320202020302E303030302043202020302020302020302020302020302020302020302020302020302020302020302020300A2020202D312E3031303120202020302E3333373220202020302E303030302043202020302020302020302020302020302020302020302020302020302020302020302020300A2020202D312E373234362020202D302E3037353320202020302E303030302043202020302020302020302020302020302020302020302020302020302020302020302020300A2020202D322E3433393020202020302E3333373220202020302E303030302043202020302020302020302020302020302020302020302020302020302020302020302020300A2020202D332E313533352020202D302E3037353320202020302E303030302043202020302020302020302020302020302020302020302020302020302020302020302020300A2020202D332E3836383020202020302E3333373220202020302E303030302043202020302020302020302020302020302020302020302020302020302020302020302020300A2020202D342E353832342020202D302E3037353320202020302E303030302043202020302020302020302020302020302020302020302020302020302020302020302020300A2020202D352E3239363920202020302E3333373220202020302E30303030204E202020302020302020302020302020302020302020302020302020302020302020302020300A2020312020322020312020302020202020200A2020322020332020312020302020202020200A2020332020342020312020302020202020200A2020342020352020312020302020202020200A2020312020352020312020302020202020200A2020322020362020322020302020202020200A2020372020382020312020302020202020200A2020382020392020312020302020202020200A2020392031302020312020302020202020200A2031302031312020312020302020202020200A2031312031322020312020302020202020200A2031322031332020312020302020202020200A2031332031342020312020302020202020200A2031342031352020312020302020202020200A2031352031362020312020302020202020200A2031362031372020312020302020202020200A2031372031382020312020302020202020200A2031382031392020312020302020202020200A2020312020372020312020302020202020200A4D2020454E44
Contributor: MASS SPECTROSCOPY SOC. OF JAPAN (MSSJ)
InstType: EI
InstName: HITACHI RMU-6E
IoniMethod: _ENERGY 70 eV
IonPolarity: pos
Date: 2010-10-09 19:48:36+02:00
Num Peaks: 137
26 4 27 36 28 140 29 6 30 656 31 8 32 20 37 0 38 3 39 54 
40 20 41 32 42 100 43 140 44 138 45 3 52 2 53 24 54 26 55 22 
56 120 57 43 58 20 59 3 60 2 65 6 66 6 67 4 68 56 69 190 
70 400 71 4 72 34 73 16 74 2 79 1 80 8 81 22 82 18 83 6 
84 54 85 16 86 140 87 3 88 2 91 6 92 4 93 0 94 4 95 12 
96 28 97 3 98 999 99 600 100 80 101 2 102 3 107 4 108 4 109 1 
110 8 111 10 112 280 113 11 114 40 115 16 116 3 117 0 118 3 119 3 
120 3 121 0 122 1 123 1 124 26 125 1 126 130 127 86 128 42 129 1 
131 3 132 2 137 2 138 1 139 3 140 76 141 46 142 4 143 12 149 14 
150 3 152 1 153 3 154 102 155 44 156 5 157 16 158 4 168 90 169 4 
170 160 171 28 181 2 182 10 183 34 184 20 194 3 195 0 196 120 197 46 
198 8 208 0 209 8 210 100 211 56 212 1 213 2 222 8 223 8 224 10 
225 42 226 14 227 6 228 0 238 32 239 176 240 40 241 0 251 6 252 40 
253 6 254 0 255 2 267 20 268 140 269 4 270 3 
