Name: 2-ISOPROPYL-1-PYRROLINE
MW: 111
Formula: C7H13N
Synonym: MassBank: JP002006
Synonym: 2-ISOPROPYL-1-PYRROLINE
Structure: 310A32310A322D49534F50524F50594C2D312D505952524F4C494E452E6D6F6C0A20204368656D447261773031323231303030353632440A2020382020382020302020302020302020302020302020302020302020303939392056323030300A20202020302E3436383920202020302E3636373420202020302E30303030204E202020302020302020302020302020302020302020302020302020302020302020302020300A2020202D302E3031363020202020302E3030303020202020302E303030302043202020302020302020302020302020302020302020302020302020302020302020302020300A20202020302E343638392020202D302E3636373420202020302E303030302043202020302020302020302020302020302020302020302020302020302020302020302020300A20202020312E323533352020202D302E3431323520202020302E303030302043202020302020302020302020302020302020302020302020302020302020302020302020300A20202020312E3235333520202020302E3431323520202020302E303030302043202020302020302020302020302020302020302020302020302020302020302020302020300A2020202D302E3834313020202020302E3030303020202020302E303030302043202020302020302020302020302020302020302020302020302020302020302020302020300A2020202D312E3235333520202020302E3731343520202020302E303030302043202020302020302020302020302020302020302020302020302020302020302020302020300A2020202D312E323533352020202D302E3731343520202020302E303030302043202020302020302020302020302020302020302020302020302020302020302020302020300A2020312020322020322020302020202020200A2020322020332020312020302020202020200A2020332020342020312020302020202020200A2020342020352020312020302020202020200A2020312020352020312020302020202020200A2020362020372020312020302020202020200A2020362020382020312020302020202020200A2020322020362020312020302020202020200A4D2020454E44
Contributor: SASAKI S, TOYOHASHI UNIV. OF TECH.
InstType: EI
InstName: MX-1303
IoniMethod: _ENERGY 50 eV
IonPolarity: pos
Date: 2010-10-09 19:48:36+02:00
Num Peaks: 54
26 28 27 157 29 23 30 4 31 56 38 23 39 227 40 8 41 727 42 244 
43 292 45 4 50 14 51 30 52 35 53 6 54 119 55 128 56 65 57 2 
58 11 59 28 65 27 66 2 67 24 68 25 69 26 70 2 71 15 74 21 
77 27 78 1 79 35 80 58 81 70 82 14 83 773 84 56 87 15 91 2 
92 11 93 20 94 53 95 2 96 999 97 86 98 12 106 3 107 21 108 72 
109 32 110 16 111 86 112 14 
