Name: MassBank: JP001454
MW: 287
Formula: C15H37NSi2
Synonym: MassBank: JP001454
Synonym: 1,1,3,3-TETRA-ISOPROPYL-1,2,3-TRIMETHYLDISILAZANE
Structure: 312C312C332C332D54455452412D49534F50524F50594C2D312C322C332D5452494D455448594C444953494C415A414E452E6D6F6C0A20204368656D447261773130323330393031343932440A2031382031372020302020302020302020302020302020302020302020303939392056323030300A20202020302E353233302020202D302E3236313520202020302E303030302053692020302020302020302020302020302020302020302020302020302020302020302020300A20202020302E3131303520202020302E3435333020202020302E30303030204E202020302020302020302020302020302020302020302020302020302020302020302020300A2020202D302E3731343520202020302E3435333020202020302E303030302053692020302020302020302020302020302020302020302020302020302020302020302020300A2020202D302E373134352020202D302E3337323020202020302E303030302043202020302020302020302020302020302020302020302020302020302020302020302020300A20202020302E3532333020202020312E3136373420202020302E303030302043202020302020302020302020302020302020302020302020302020302020302020302020300A2020202D302E313931342020202D302E3637343020202020302E303030302043202020302020302020302020302020302020302020302020302020302020302020302020300A2020202D302E3731343520202020312E3237383020202020302E303030302043202020302020302020302020302020302020302020302020302020302020302020302020300A2020202D312E3432383920202020312E3639303520202020302E303030302043202020302020302020302020302020302020302020302020302020302020302020302020300A20202020302E3030303020202020312E3639303520202020302E303030302043202020302020302020302020302020302020302020302020302020302020302020302020300A2020202D312E3533393520202020302E3435333020202020302E303030302043202020302020302020302020302020302020302020302020302020302020302020302020300A2020202D312E3935323020202020312E3136373420202020302E303030302043202020302020302020302020302020302020302020302020302020302020302020302020300A2020202D312E393532302020202D302E3236313520202020302E303030302043202020302020302020302020302020302020302020302020302020302020302020302020300A20202020312E3233373520202020302E3135313020202020302E303030302043202020302020302020302020302020302020302020302020302020302020302020302020300A20202020312E3233373520202020302E3937363020202020302E303030302043202020302020302020302020302020302020302020302020302020302020302020302020300A20202020312E393532302020202D302E3236313520202020302E303030302043202020302020302020302020302020302020302020302020302020302020302020302020300A20202020302E393335352020202D302E3937363020202020302E303030302043202020302020302020302020302020302020302020302020302020302020302020302020300A20202020312E373630352020202D302E3937363020202020302E303030302043202020302020302020302020302020302020302020302020302020302020302020302020300A20202020302E353233302020202D312E3639303520202020302E303030302043202020302020302020302020302020302020302020302020302020302020302020302020300A2020312020322020312020302020202020200A2020322020332020312020302020202020200A2020332020342020312020302020202020200A2020322020352020312020302020202020200A2020312020362020312020302020202020200A2020372020382020312020302020202020200A2020372020392020312020302020202020200A2020332020372020312020302020202020200A2031302031312020312020302020202020200A2031302031322020312020302020202020200A2020332031302020312020302020202020200A2031332031342020312020302020202020200A2031332031352020312020302020202020200A2020312031332020312020302020202020200A2031362031372020312020302020202020200A2031362031382020312020302020202020200A2020312031362020312020302020202020200A4D2020454E44
Contributor: MASS SPECTROSCOPY SOC. OF JAPAN (MSSJ)
InstType: EI
InstName: JEOL JMS-D-3000
IoniMethod: _ENERGY 70 eV
IonPolarity: pos
Date: 2010-10-09 19:48:36+02:00
Num Peaks: 78
42 87 43 86 45 145 58 48 59 701 60 53 61 35 64 19 65 61 71 34 
72 117 73 616 74 71 75 57 80 16 85 55 86 130 87 86 88 67 89 32 
98 11 99 19 100 55 101 86 102 37 103 64 104 16 114 70 115 26 116 169 
117 39 118 151 119 25 120 13 128 10 129 27 130 54 131 31 132 224 133 36 
134 20 135 24 140 11 142 41 143 11 144 39 145 14 146 58 156 13 158 139 
159 50 160 524 161 90 162 45 172 18 174 117 175 17 176 12 186 17 187 13 
188 12 200 48 202 936 203 195 204 85 205 14 216 15 217 40 218 11 228 11 
230 16 244 999 245 229 246 93 247 17 272 12 275 17 287 15 
