Name: MassBank: JP009546
MW: 206
Formula: C14H22O
Synonym: MassBank: JP009546
Synonym: 2,4-DI-TERT-BUTYLPHENOL
Structure: 322C342D44492D544552542D425554594C5048454E4F4C2E6D6F6C0A20204368656D447261773132323030393133343532440A2031352031352020302020302020302020302020302020302020302020303939392056323030300A20202020302E373134352020202D302E3736393720202020302E303030302043202020302020302020302020302020302020302020302020302020302020302020302020300A20202020302E3731343520202020302E3035353320202020302E303030302043202020302020302020302020302020302020302020302020302020302020302020302020300A2020202D302E3030303020202020302E3436373820202020302E303030302043202020302020302020302020302020302020302020302020302020302020302020302020300A2020202D302E3731343520202020302E3035353320202020302E303030302043202020302020302020302020302020302020302020302020302020302020302020302020300A2020202D302E373134352020202D302E3736393720202020302E303030302043202020302020302020302020302020302020302020302020302020302020302020302020300A20202020302E303030302020202D312E3138323220202020302E303030302043202020302020302020302020302020302020302020302020302020302020302020302020300A2020202D312E3432383920202020302E3436373820202020302E303030302043202020302020302020302020302020302020302020302020302020302020302020302020300A2020202D322E3134333420202020302E3838303320202020302E303030302043202020302020302020302020302020302020302020302020302020302020302020302020300A2020202D312E383431342020202D302E3234363720202020302E303030302043202020302020302020302020302020302020302020302020302020302020302020302020300A2020202D312E3031363420202020312E3138323220202020302E303030302043202020302020302020302020302020302020302020302020302020302020302020302020300A20202020312E3432383920202020302E3436373820202020302E303030302043202020302020302020302020302020302020302020302020302020302020302020302020300A20202020312E3031363420202020312E3138323220202020302E303030302043202020302020302020302020302020302020302020302020302020302020302020302020300A20202020312E383431342020202D302E3234363720202020302E303030302043202020302020302020302020302020302020302020302020302020302020302020302020300A20202020322E3134333420202020302E3838303320202020302E303030302043202020302020302020302020302020302020302020302020302020302020302020302020300A20202020312E343238392020202D312E3138323220202020302E30303030204F202020302020302020302020302020302020302020302020302020302020302020302020300A2020312020322020312020302020202020200A2020322020332020322020302020202020200A2020332020342020312020302020202020200A2020342020352020322020302020202020200A2020352020362020312020302020202020200A2020312020362020322020302020202020200A2020372020382020312020302020202020200A2020372031302020312020302020202020200A2020372020392020312020302020202020200A2020342020372020312020302020202020200A2031312031322020312020302020202020200A2031312031342020312020302020202020200A2031312031332020312020302020202020200A2020322031312020312020302020202020200A2020312031352020312020302020202020200A4D2020454E44
Contributor: NARA WOMEN'S UNIVERSITY
InstType: EI
InstName: HITACHI M-80
IoniMethod: _ENERGY 70 eV
IonPolarity: pos
Date: 2010-10-09 19:48:36+02:00
Num Peaks: 55
29 115 39 27 41 241 42 12 43 40 53 13 55 37 57 813 58 39 65 11 
67 12 77 23 79 16 91 46 103 10 105 29 107 29 115 32 116 11 117 18 
119 21 121 19 127 11 128 19 129 16 131 16 133 21 134 11 135 22 141 12 
145 12 147 28 148 12 149 19 153 11 159 10 161 23 163 38 165 13 175 48 
176 25 177 21 179 11 182 16 190 80 191 999 192 150 193 17 197 10 199 10 
205 12 206 446 207 98 208 14 209 11 
