Name: 3-ETHYL-5-METHYLPHENOL
MW: 136
Formula: C9H12O
Synonym: MassBank: JP009218
Synonym: 3-ETHYL-5-METHYLPHENOL
Structure: 332D455448594C2D352D4D455448594C5048454E4F4C2E6D6F6C0A20204368656D447261773032323231303137353532440A2031302031302020302020302020302020302020302020302020302020303939392056323030300A20202020302E373134352020202D312E3033313220202020302E303030302043202020302020302020302020302020302020302020302020302020302020302020302020300A20202020302E373134352020202D302E3230363220202020302E303030302043202020302020302020302020302020302020302020302020302020302020302020302020300A2020202D302E3030303020202020302E3230363320202020302E303030302043202020302020302020302020302020302020302020302020302020302020302020302020300A2020202D302E373134352020202D302E3230363220202020302E303030302043202020302020302020302020302020302020302020302020302020302020302020302020300A2020202D302E373134352020202D312E3033313220202020302E303030302043202020302020302020302020302020302020302020302020302020302020302020302020300A20202020302E303030302020202D312E3434333820202020302E303030302043202020302020302020302020302020302020302020302020302020302020302020302020300A2020202D312E343238392020202D312E3434333720202020302E303030302043202020302020302020302020302020302020302020302020302020302020302020302020300A2020202D302E3030303020202020312E3033313320202020302E303030302043202020302020302020302020302020302020302020302020302020302020302020302020300A20202020302E3731343520202020312E3434333820202020302E303030302043202020302020302020302020302020302020302020302020302020302020302020302020300A20202020312E343238392020202D312E3434333820202020302E30303030204F202020302020302020302020302020302020302020302020302020302020302020302020300A2020312020322020312020302020202020200A2020322020332020322020302020202020200A2020332020342020312020302020202020200A2020342020352020322020302020202020200A2020352020362020312020302020202020200A2020312020362020322020302020202020200A2020352020372020312020302020202020200A2020382020392020312020302020202020200A2020332020382020312020302020202020200A2020312031302020312020302020202020200A4D2020454E44
Contributor: SODA AROMATIC CO., LTD.
InstType: EI
InstName: HITACHI M-80B
IoniMethod: _ENERGY 70 eV
IonPolarity: pos
Date: 2010-10-09 19:48:36+02:00
Num Peaks: 44
15 30 26 14 27 109 29 23 38 23 39 161 40 21 41 62 43 18 50 40 
51 118 52 40 53 83 55 38 62 15 63 41 64 12 65 88 66 29 67 36 
74 11 75 11 77 225 78 47 79 49 81 12 89 14 91 236 92 27 93 30 
94 13 103 31 105 18 107 86 108 76 109 13 115 21 119 13 120 10 121 999 
122 93 135 43 136 546 137 43 
