Name: MassBank: JP007800
MW: 169
Formula: C9H15NS
Synonym: MassBank: JP007800
Synonym: 2-BUTYL-4,5-DIMETHLTHIAZOLE
Structure: 322D425554594C2D342C352D44494D4554484C544849415A4F4C452E6D6F6C0A20204368656D447261773031303331303130313432440A2031312031312020302020302020302020302020302020302020302020303939392056323030300A2020202D312E343137392020202D302E3330313120202020302E303030302043202020302020302020302020302020302020302020302020302020302020302020302020300A2020202D302E353932392020202D302E3330313120202020302E30303030204E202020302020302020302020302020302020302020302020302020302020302020302020300A2020202D302E3333383020202020302E3438333620202020302E303030302043202020302020302020302020302020302020302020302020302020302020302020302020300A2020202D312E3030353420202020302E3936383520202020302E303030302053202020302020302020302020302020302020302020302020302020302020302020302020300A2020202D312E3637323820202020302E3438333620202020302E303030302043202020302020302020302020302020302020302020302020302020302020302020302020300A20202020302E3434363720202020302E3733383520202020302E303030302043202020302020302020302020302020302020302020302020302020302020302020302020300A20202020312E3035393720202020302E3138363520202020302E303030302043202020302020302020302020302020302020302020302020302020302020302020302020300A20202020312E3834343420202020302E3434313420202020302E303030302043202020302020302020302020302020302020302020302020302020302020302020302020300A20202020322E343537352020202D302E3131303620202020302E303030302043202020302020302020302020302020302020302020302020302020302020302020302020300A2020202D322E3435373520202020302E3733383520202020302E303030302043202020302020302020302020302020302020302020302020302020302020302020302020300A2020202D312E393032382020202D302E3936383520202020302E303030302043202020302020302020302020302020302020302020302020302020302020302020302020300A2020312020322020312020302020202020200A2020322020332020322020302020202020200A2020332020342020312020302020202020200A2020342020352020312020302020202020200A2020352020312020322020302020202020200A2020332020362020312020302020202020200A2020362020372020312020302020202020200A2020372020382020312020302020202020200A2020382020392020312020302020202020200A2020352031302020312020302020202020200A2020312031312020312020302020202020200A4D2020454E44
Contributor: HASHIMOTO K, KYOTO COLLEGE OF PHARMACY
InstType: EI
InstName: HITACHI M-80
IoniMethod: _ENERGY 20 eV
IonPolarity: pos
Date: 2010-10-09 19:48:36+02:00
Num Peaks: 23
41 17 42 16 45 25 53 45 59 14 68 49 71 230 85 99 86 290 87 121 
94 21 112 30 126 349 127 999 128 251 129 160 140 381 141 161 142 23 154 122 
168 19 169 190 170 22 
