Name: MassBank: JP005558
MW: 160
Formula: C10H8O2
Synonym: MassBank: JP005558
Synonym: 3,4-BENZO-2-OXABICYCLO(4.1.0)HEPT-3-EN-5-ONE
Structure: 332C342D42454E5A4F2D322D4F584142494359434C4F28342E312E3029484550542D332D454E2D352D4F4E452E6D6F6C0A20204368656D447261773032323131303232303232440A2031322031342020302020302020302020302020302020302020302020303939392056323030300A20202020312E3037313720202020302E3832353020202020302E303030302043202020302020302020302020302020302020302020302020302020302020302020302020300A20202020302E3335373220202020312E3233373520202020302E30303030204F202020302020302020302020302020302020302020302020302020302020302020302020300A2020202D302E3335373220202020302E3832353020202020302E303030302043202020302020302020302020302020302020302020302020302020302020302020302020300A2020202D302E3335373220202020302E3030303020202020302E303030302043202020302020302020302020302020302020302020302020302020302020302020302020300A20202020302E333537322020202D302E3431323520202020302E303030302043202020302020302020302020302020302020302020302020302020302020302020302020300A20202020312E303731372020202D302E3030303020202020302E303030302043202020302020302020302020302020302020302020302020302020302020302020302020300A20202020312E3738363220202020302E3431323520202020302E303030302043202020302020302020302020302020302020302020302020302020302020302020302020300A2020202D312E303731372020202D302E3431323520202020302E303030302043202020302020302020302020302020302020302020302020302020302020302020302020300A2020202D312E3738363220202020302E3030303020202020302E303030302043202020302020302020302020302020302020302020302020302020302020302020302020300A2020202D312E3738363220202020302E3832353020202020302E303030302043202020302020302020302020302020302020302020302020302020302020302020302020300A2020202D312E3037313720202020312E3233373520202020302E303030302043202020302020302020302020302020302020302020302020302020302020302020302020300A20202020302E333537322020202D312E3233373520202020302E30303030204F202020302020302020302020302020302020302020302020302020302020302020302020300A2020312020322020312020302020202020200A2020322020332020312020302020202020200A2020332020342020322020302020202020200A2020342020352020312020302020202020200A2020352020362020312020302020202020200A2020362020372020312020302020202020200A2020312020372020312020302020202020200A2020312020362020312020302020202020200A2020382020392020322020302020202020200A2020392031302020312020302020202020200A2031302031312020322020302020202020200A2020332031312020312020302020202020200A2020342020382020312020302020202020200A2020352031322020322020302020202020200A4D2020454E44
Contributor: MASS SPECTROSCOPY SOC. OF JAPAN (MSSJ)
InstType: EI
InstName: HITACHI RMS-4
IoniMethod: _ENERGY 70 eV
IonPolarity: pos
Date: 2010-10-09 19:48:36+02:00
Num Peaks: 38
39 30 40 290 41 70 42 1 50 190 51 130 52 40 53 0 55 120 60 70 
61 30 62 0 63 120 64 110 65 70 66 1 73 20 74 70 75 80 76 6 
77 200 78 90 79 20 92 0 102 30 103 190 104 430 105 1 119 30 120 90 
121 70 131 7 132 200 133 40 134 30 159 0 160 999 161 150 
