Name: 2-AMINOPYRIMIDINE 1-OXIDE
MW: 111
Formula: C4H5N3O
Synonym: MassBank: JP002032
Synonym: 2-AMINOPYRIMIDINE 1-OXIDE
Structure: 310A32320A322D414D494E4F505952494D4944494E4520312D4F584944452E6D6F6C0A20204368656D447261773132323130393232333132440A2020382020382020302020302020302020302020302020302020302020303939392056323030300A20202020302E3431323520202020302E3335373220202020302E303030302043202020302020302020302020302020302020302020302020302020302020302020302020300A20202020302E3030303020202020312E3037313720202020302E30303030204E202020302020302020302020302020302020302020302020302020302020302020302020300A2020202D302E3832353020202020312E3037313720202020302E303030302043202020302020302020302020302020302020302020302020302020302020302020302020300A2020202D312E3233373520202020302E3335373220202020302E303030302043202020302020302020302020302020302020302020302020302020302020302020302020300A2020202D302E383235302020202D302E3335373220202020302E303030302043202020302020302020302020302020302020302020302020302020302020302020302020300A20202020302E303030302020202D302E3335373220202020302E30303030204E202020302020332020302020302020302020302020302020302020302020302020302020300A20202020312E3233373520202020302E3335373220202020302E30303030204E202020302020302020302020302020302020302020302020302020302020302020302020300A20202020302E343132352020202D312E3037313720202020302E30303030204F202020302020352020302020302020302020302020302020302020302020302020302020300A2020312020322020322020302020202020200A2020322020332020312020302020202020200A2020332020342020322020302020202020200A2020342020352020312020302020202020200A2020352020362020322020302020202020200A2020312020362020312020302020202020200A2020312020372020312020302020202020200A2020362020382020312020302020202020200A4D202043484720203220202036202020312020203820202D310A4D2020454E44
Contributor: SASAKI S, TOYOHASHI UNIV. OF TECH.
InstType: EI
InstName: MS-902
IoniMethod: _ENERGY 70 eV
IonPolarity: pos
Date: 2010-10-09 19:48:36+02:00
Num Peaks: 23
44 41 45 16 47.5 13 51 2 52 60 53 75 54 44 55 1 55.5 13 57 16 
66 33 67 11 68 176 69 28 70 142 77 1 81 17 84 17 94 22 95 25 
96 17 111 999 112 63 
