Name: MassBank: JP009638
MW: 224
Formula: C12H16O2S
Synonym: MassBank: JP009638
Synonym: ETHYL (3,5-DIMETHYL-4-METHYLTHIO)BENZOATE
Structure: 455448594C2028332C352D44494D455448594C2D342D4D455448594C5448494F2942454E5A4F4154452E6D6F6C0A20204368656D447261773038313131303138303232440A2031352031352020302020302020302020302020302020302020302020303939392056323030300A20202020312E303331332020202D302E3030303020202020302E303030302043202020302020302020302020302020302020302020302020302020302020302020302020300A20202020302E323036332020202D302E3030303020202020302E303030302043202020302020302020302020302020302020302020302020302020302020302020302020300A2020202D302E323036332020202D302E3731343520202020302E303030302043202020302020302020302020302020302020302020302020302020302020302020302020300A2020202D312E303331322020202D302E3731343520202020302E303030302043202020302020302020302020302020302020302020302020302020302020302020302020300A2020202D312E3434333820202020302E3030303020202020302E303030302043202020302020302020302020302020302020302020302020302020302020302020302020300A2020202D312E3033313320202020302E3731343520202020302E303030302043202020302020302020302020302020302020302020302020302020302020302020302020300A2020202D302E3230363220202020302E3731343520202020302E303030302043202020302020302020302020302020302020302020302020302020302020302020302020300A20202020312E343433382020202D302E3731343520202020302E30303030204F202020302020302020302020302020302020302020302020302020302020302020302020300A20202020312E3434333820202020302E3731343520202020302E30303030204F202020302020302020302020302020302020302020302020302020302020302020302020300A2020202D322E3236383720202020302E3030303020202020302E303030302053202020302020302020302020302020302020302020302020302020302020302020302020300A2020202D322E363831332020202D302E3731343520202020302E303030302043202020302020302020302020302020302020302020302020302020302020302020302020300A2020202D312E3434333720202020312E3432383920202020302E303030302043202020302020302020302020302020302020302020302020302020302020302020302020300A2020202D312E343433372020202D312E3432383920202020302E303030302043202020302020302020302020302020302020302020302020302020302020302020302020300A20202020322E3236383820202020302E3731343520202020302E303030302043202020302020302020302020302020302020302020302020302020302020302020302020300A20202020322E3638313320202020312E3432383920202020302E303030302043202020302020302020302020302020302020302020302020302020302020302020302020300A2020312020322020312020302020202020200A2020322020332020312020302020202020200A2020332020342020322020302020202020200A2020342020352020312020302020202020200A2020352020362020322020302020202020200A2020362020372020312020302020202020200A2020322020372020322020302020202020200A2020312020382020322020302020202020200A2020312020392020312020302020202020200A2031302031312020312020302020202020200A2020352031302020312020302020202020200A2020362031322020312020302020202020200A2020342031332020312020302020202020200A2031342031352020312020302020202020200A2020392031342020312020302020202020200A4D2020454E44
Contributor: THE INSTITUTE OF SCIENTIFIC AND INDUSTRIALRESEARCH
InstType: EI
InstName: JEOL JMS-DX-300
IoniMethod: _ENERGY 70 eV
IonPolarity: pos
Date: 2010-10-09 19:48:36+02:00
Num Peaks: 84
26 14 27 98 29 171 39 8 41 27 43 32 44 22 45 19 47 20 50 23 
51 76 52 2 53 48 59 74 61 11 62 2 63 67 64 17 65 68 67 2 
69 30 70 14 71 23 74 2 75 23 76 20 77 181 78 6 79 50 82 28 
89 28 90 2 91 223 92 45 93 28 97 2 102 34 103 110 104 48 105 11 
106 18 107 53 109 15 111 2 115 19 117 33 118 24 119 3 120 14 121 86 
122 13 123 2 131 16 132 28 133 43 134 7 135 185 136 140 137 98 138 2 
139 12 147 11 149 57 150 4 151 72 152 21 153 17 163 6 164 18 165 40 
177 37 178 1 179 852 180 133 181 138 182 2 196 232 197 28 198 12 209 9 
210 12 224 999 225 147 226 58 
