Name: ISOPHTHALIC ACID DIMETHYL ESTER (D6)
MW: 194
Formula: C10H10O4
Synonym: MassBank: JP001324
Synonym: ISOPHTHALIC ACID DIMETHYL ESTER (D6)
Synonym: DI(2H3)METHYL ISOPHTHALATE
Structure: 303233395F49534F50485448414C494320414349442044494D455448594C20455354455220284436292E6D6F6C0A20204368656D447261773039303631303135333632440A2032302032302020302020302020302020302020302020302020302020303939392056323030300A20202020312E303731372020202D302E3631383720202020302E303030302043202020302020302020302020302020302020302020302020302020302020302020302020300A20202020302E333537322020202D302E3230363320202020302E303030302043202020302020302020302020302020302020302020302020302020302020302020302020300A2020202D302E333537332020202D302E3631383720202020302E303030302043202020302020302020302020302020302020302020302020302020302020302020302020300A2020202D312E303731372020202D302E3230363320202020302E303030302043202020302020302020302020302020302020302020302020302020302020302020302020300A2020202D312E373836322020202D302E3631383720202020302E303030302043202020302020302020302020302020302020302020302020302020302020302020302020300A2020202D312E3037313720202020302E3631383720202020302E303030302043202020302020302020302020302020302020302020302020302020302020302020302020300A2020202D302E3335373320202020312E3033313220202020302E303030302043202020302020302020302020302020302020302020302020302020302020302020302020300A20202020302E3335373220202020302E3631383720202020302E303030302043202020302020302020302020302020302020302020302020302020302020302020302020300A20202020312E303731372020202D312E3434333720202020302E30303030204F202020302020302020302020302020302020302020302020302020302020302020302020300A20202020312E373836312020202D302E3230363320202020302E30303030204F202020302020302020302020302020302020302020302020302020302020302020302020300A2020202D312E373836322020202D312E3434333720202020302E30303030204F202020302020302020302020302020302020302020302020302020302020302020302020300A2020202D322E353030372020202D302E3230363320202020302E30303030204F202020302020302020302020302020302020302020302020302020302020302020302020300A20202020322E353030362020202D302E3631383720202020302E303030302043202020302020302020302020302020302020302020302020302020302020302020302020300A2020202D322E3530303720202020302E3631383720202020302E303030302043202020302020302020302020302020302020302020302020302020302020302020302020300A20202020332E323135312020202D302E3230363320202020302E303030302048202020312020302020302020302020302020302020302020302020302020302020302020300A20202020322E353030362020202D312E3434333720202020302E303030302048202020312020302020302020302020302020302020302020302020302020302020302020300A20202020332E323133362020202D312E3033333820202020302E303030302048202020312020302020302020302020302020302020302020302020302020302020302020300A2020202D332E3231353120202020312E3033313220202020302E303030302048202020312020302020302020302020302020302020302020302020302020302020302020300A2020202D312E3738363220202020312E3033313220202020302E303030302048202020312020302020302020302020302020302020302020302020302020302020302020300A2020202D322E3530303720202020312E3434333720202020302E303030302048202020312020302020302020302020302020302020302020302020302020302020302020300A2020312020322020312020302020202020200A2020322020332020312020302020202020200A2020332020342020322020302020202020200A2020342020352020312020302020202020200A2020342020362020312020302020202020200A2020362020372020322020302020202020200A2020372020382020312020302020202020200A2020322020382020322020302020202020200A2020312020392020322020302020202020200A2020312031302020312020302020202020200A2020352031312020322020302020202020200A2020352031322020312020302020202020200A2031302031332020312020302020202020200A2031322031342020312020302020202020200A2031332031352020312020302020202020200A2031332031362020312020302020202020200A2031332031372020312020302020202020200A2031342031382020312020302020202020200A2031342031392020312020302020202020200A2031342032302020312020302020202020200A4D202049534F2020362020313520202032202031362020203220203137202020322020313820202032202031392020203220203230202020320A4D2020454E44
Contributor: TAJIMA S, GUNMA COLLEGE OF TECHNOLOGY
InstType: EI
InstName: HITACHI RMU-7M
IoniMethod: _ENERGY 70 eV
IonPolarity: pos
Date: 2010-10-09 19:48:36+02:00
Num Peaks: 26
18 53 50 99 51 11 52 26 62 15 66 23 74 38 75 93 76 135 77 17 
78 52 79 12 92 32 103 102 104 36 110 23 119 53 120 73 138 293 139 24 
165 13 166 999 167 98 199 14 200 221 201 19 
