Name: MassBank: JP004868
MW: 178
Formula: C11H14O2
Synonym: MassBank: JP004868
Synonym: 1-METHOXY-4-METHYLBICYCLO(3.2.2)NONA-3,6-DIEN-2-ONE
Structure: 312D4D4554484F58592D342D4D455448594C42494359434C4F28332E322E32294E4F4E412D332C362D4449454E2D322D4F4E452E6D6F6C0A20204368656D447261773131313930393136313232440A2031362031372020302020302020302020302020302020302020302020303939392056323030300A2020202D302E3437353720202020302E3037303420202020302E303030302043202020302020302020302020302020302020302020302020302020302020302020302020300A20202020302E3332373820202020302E3533343320202020302E303030302043202020302020302020302020302020302020302020302020302020302020302020302020300A20202020312E3134313320202020302E3036343620202020302E303030302043202020302020302020302020302020302020302020302020302020302020302020302020300A20202020312E313431332020202D302E3837393820202020302E303030302043202020302020302020302020302020302020302020302020302020302020302020302020300A20202020302E333239392020202D312E3334383220202020302E303030302043202020302020302020302020302020302020302020302020302020302020302020302020300A20202020302E373431312020202D302E3633363220202020302E303030302043202020302020302020302020302020302020302020302020302020302020302020302020300A20202020302E3333333220202020302E3037303320202020302E303030302043202020302020302020302020302020302020302020302020302020302020302020302020300A2020202D302E383835312020202D302E3633383620202020302E303030302043202020302020302020302020302020302020302020302020302020302020302020302020300A2020202D302E343830302020202D312E3334303320202020302E303030302043202020302020302020302020302020302020302020302020302020302020302020302020300A20202020302E3332373820202020312E3334383220202020302E30303030204F202020302020302020302020302020302020302020302020302020302020302020302020300A20202020312E383438312020202D312E3238373820202020302E303030302043202020302020302020302020302020302020302020302020302020302020302020302020300A2020202D312E3035353320202020302E3637353020202020302E30303030204F202020302020302020302020302020302020302020302020302020302020302020302020300A2020202D312E3835353820202020302E3437353520202020302E303030302043202020302020302020302020302020302020302020302020302020302020302020302020300A20202020312E3835353820202020302E3437373120202020302E303030302048202020302020302020302020302020302020302020302020302020302020302020302020300A20202020302E3734353720202020302E3738343720202020302E303030302048202020302020302020302020302020302020302020302020302020302020302020302020300A20202020312E353636312020202D302E3633363220202020302E303030302048202020302020302020302020302020302020302020302020302020302020302020302020300A2020312020322020312020302020202020200A2020322020332020312020302020202020200A2020332020342020322020302020202020200A2020342020352020312020302020202020200A2020352020362020312020302020202020200A2020362020372020322020302020202020200A2020382020392020312020302020202020200A2020312020372020312020302020202020200A2020312020382020312020302020202020200A2020352020392020312020302020202020200A2020322031302020322020302020202020200A2020342031312020312020302020202020200A2031322031332020312020302020202020200A2020312031322020312020302020202020200A2020332031342020312020302020202020200A2020372031352020312020302020202020200A2020362031362020312020302020202020200A4D2020454E44
Contributor: KATO T, DEPT. OF CHEM., FAC. OF SCI., TOHOKU UNIV.
InstType: EI
InstName: Unknown
IoniMethod: _ENERGY 25 eV
IonPolarity: pos
Date: 2010-10-09 19:48:36+02:00
Num Peaks: 35
55 271 67 77 69 121 77 10 79 144 91 206 92 103 93 8 95 132 103 77 
105 161 107 11 108 312 109 204 110 183 117 10 121 175 122 281 129 103 135 79 
136 103 137 84 145 474 146 10 147 155 149 132 150 103 159 8 160 319 161 103 
163 999 164 13 177 94 178 333 179 77 
