Name: MassBank: JP001396
MW: 329
Formula: C20H27NO3
Synonym: MassBank: JP001396
Synonym: N-PIPEROYL-N,N-DIBUTYLAMINE
Synonym: N,N-DIBUTYL-5-(3,4-METHYLENEDIOXYPHENYL)-2,4-PENTADIENAMIDE
Structure: 4E2C4E2D4449425554594C2D352D28332C342D4D455448594C454E4544494F58595048454E594C292D322C342D50454E54414449454E414D4944452E6D6F6C0A20204368656D447261773038313231303032333132440A2032342032352020302020302020302020302020302020302020302020303939392056323030300A20202020312E343737392020202D312E3432383920202020302E303030302043202020302020302020302020302020302020302020302020302020302020302020302020300A20202020302E363532392020202D312E3432383920202020302E303030302043202020302020302020302020302020302020302020302020302020302020302020302020300A20202020302E323430342020202D302E3731343520202020302E303030302043202020302020302020302020302020302020302020302020302020302020302020302020300A2020202D302E353834362020202D302E3731343520202020302E303030302043202020302020302020302020302020302020302020302020302020302020302020302020300A2020202D302E3939373120202020302E3030303020202020302E303030302043202020302020302020302020302020302020302020302020302020302020302020302020300A20202020312E383930342020202D322E3134333420202020302E30303030204F202020302020302020302020302020302020302020302020302020302020302020302020300A20202020312E383930342020202D302E3731343520202020302E30303030204E202020302020302020302020302020302020302020302020302020302020302020302020300A2020202D312E3832323120202020302E3030303020202020302E303030302043202020302020302020302020302020302020302020302020302020302020302020302020300A2020202D322E3233343620202020302E3731343520202020302E303030302043202020302020302020302020302020302020302020302020302020302020302020302020300A2020202D332E3035393620202020302E3731343520202020302E303030302043202020302020302020302020302020302020302020302020302020302020302020302020300A2020202D332E343732312020202D302E3030303020202020302E303030302043202020302020302020302020302020302020302020302020302020302020302020302020300A2020202D332E303539362020202D302E3731343520202020302E303030302043202020302020302020302020302020302020302020302020302020302020302020302020300A2020202D322E323334362020202D302E3731343520202020302E303030302043202020302020302020302020302020302020302020302020302020302020302020302020300A2020202D342E3336353420202020302E3939323020202020302E303030302043202020302020302020302020302020302020302020302020302020302020302020302020300A2020202D332E3631313720202020312E3332373620202020302E30303030204F202020302020302020302020302020302020302020302020302020302020302020302020300A2020202D342E3237393120202020302E3137313520202020302E30303030204F202020302020302020302020302020302020302020302020302020302020302020302020300A20202020312E3437373920202020302E3030303020202020302E303030302043202020302020302020302020302020302020302020302020302020302020302020302020300A20202020312E3839303420202020302E3731343520202020302E303030302043202020302020302020302020302020302020302020302020302020302020302020302020300A20202020312E3437373920202020312E3432383920202020302E303030302043202020302020302020302020302020302020302020302020302020302020302020302020300A20202020312E3839303420202020322E3134333420202020302E303030302043202020302020302020302020302020302020302020302020302020302020302020302020300A20202020322E373135342020202D302E3731343520202020302E303030302043202020302020302020302020302020302020302020302020302020302020302020302020300A20202020332E313237392020202D312E3432383920202020302E303030302043202020302020302020302020302020302020302020302020302020302020302020302020300A20202020332E393532392020202D312E3432383920202020302E303030302043202020302020302020302020302020302020302020302020302020302020302020302020300A20202020342E333635342020202D322E3134333420202020302E303030302043202020302020302020302020302020302020302020302020302020302020302020302020300A2020312020322020312020302020202020200A2020322020332020322020302020202020200A2020332020342020312020302020202020200A2020342020352020322020302020202020200A2020312020362020322020302020202020200A2020312020372020312020302020202020200A2020382020392020312020302020202020200A2020392031302020322020302020202020200A2031302031312020312020302020202020200A2031312031322020322020302020202020200A2031322031332020312020302020202020200A2020382031332020322020302020202020200A2031342031352020312020302020202020200A2031342031362020312020302020202020200A2031302031352020312020302020202020200A2031312031362020312020302020202020200A2020352020382020312020302020202020200A2031372031382020312020302020202020200A2031382031392020312020302020202020200A2031392032302020312020302020202020200A2020372031372020312020302020202020200A2032312032322020312020302020202020200A2032322032332020312020302020202020200A2032332032342020312020302020202020200A2020372032312020312020302020202020200A4D2020454E44
Contributor: HASHIMOTO K, KYOTO COLLEGE OF PHARMACY
InstType: EI
InstName: HITACHI M-80
IoniMethod: _ENERGY 20 eV
IonPolarity: pos
Date: 2010-10-09 19:48:36+02:00
Num Peaks: 36
114 46 115 50 116 23 128 7 131 18 135 62 143 56 144 3 148 35 152 98 
156 14 161 2 171 50 172 60 173 117 174 15 175 11 180 17 181 13 187 4 
188 21 194 18 200 40 201 999 202 193 203 21 230 26 272 2 273 18 286 72 
287 23 300 2 328 18 329 492 330 109 331 20 
