Name: 2-(2-THIAZOLYLAZO)-PARA-CRESOL
CAS: 1823-44-5
MW: 219
Formula: C10H9N3OS
Synonym: MassBank: JP009904
Synonym: 2-(2-THIAZOLYLAZO)-PARA-CRESOL
Structure: 322D28322D544849415A4F4C594C415A4F292D504152412D435245534F4C2E6D6F6C0A20204368656D447261773132323130393134313132440A2031352031362020302020302020302020302020302020302020302020303939392056323030300A2020202D302E363532392020202D302E3930383520202020302E303030302043202020302020302020302020302020302020302020302020302020302020302020302020300A2020202D302E363532392020202D302E3038333520202020302E303030302043202020302020302020302020302020302020302020302020302020302020302020302020300A2020202D312E3336373320202020302E3332393020202020302E303030302043202020302020302020302020302020302020302020302020302020302020302020302020300A2020202D322E303831382020202D302E3038333520202020302E303030302043202020302020302020302020302020302020302020302020302020302020302020302020300A2020202D322E303831382020202D302E3930383520202020302E303030302043202020302020302020302020302020302020302020302020302020302020302020302020300A2020202D312E333637332020202D312E3332313020202020302E303030302043202020302020302020302020302020302020302020302020302020302020302020302020300A2020202D322E3739363320202020302E3332393020202020302E303030302043202020302020302020302020302020302020302020302020302020302020302020302020300A20202020302E3036313620202020302E3332393020202020302E30303030204E202020302020302020302020302020302020302020302020302020302020302020302020300A20202020302E373736312020202D302E3038333520202020302E30303030204E202020302020302020302020302020302020302020302020302020302020302020302020300A20202020322E323434322020202D302E3030363620202020302E303030302053202020302020302020302020302020302020302020302020302020302020302020302020300A20202020312E3439303620202020302E3332393020202020302E303030302043202020302020302020302020302020302020302020302020302020302020302020302020300A20202020312E3537363820202020312E3134393520202020302E30303030204E202020302020302020302020302020302020302020302020302020302020302020302020300A20202020322E3338333820202020312E3332313020202020302E303030302043202020302020302020302020302020302020302020302020302020302020302020302020300A20202020322E3739363320202020302E3630363520202020302E303030302043202020302020302020302020302020302020302020302020302020302020302020302020300A20202020302E303631362020202D312E3332313020202020302E30303030204F202020302020302020302020302020302020302020302020302020302020302020302020300A2020312020322020312020302020202020200A2020322020332020322020302020202020200A2020332020342020312020302020202020200A2020342020352020322020302020202020200A2020352020362020312020302020202020200A2020312020362020322020302020202020200A2020342020372020312020302020202020200A2020382020392020322020302020202020200A2031302031312020312020302020202020200A2031312031322020322020302020202020200A2031322031332020312020302020202020200A2031332031342020322020302020202020200A2031302031342020312020302020202020200A2020392031312020312020302020202020200A2020322020382020312020302020202020200A2020312031352020312020302020202020200A4D2020454E44
Contributor: KURARAY CO., LTD.
InstType: EI
InstName: JEOL JMS-D-300
IoniMethod: _ENERGY 70 eV
IonPolarity: pos
Date: 2010-10-09 19:48:36+02:00
Num Peaks: 56
26 26 27 75 28 88 38 28 39 196 40 40 43 37 44 68 45 78 50 38 
51 102 52 86 53 147 54 25 55 120 58 120 59 58 63 50 64 32 65 200 
66 103 67 20 77 465 78 268 79 150 84 26 86 95 91 40 92 63 93 20 
95 18 100 40 105 190 106 56 107 999 108 88 117 82 120 25 123 30 133 13 
134 32 135 150 136 17 148 68 162 138 163 43 174 20 176 20 190 115 191 360 
192 48 193 13 204 50 219 712 220 93 221 42 
