Name: PARA-METHYLBENZYL FORMATE
MW: 150
Formula: C9H10O2
Synonym: MassBank: JP008530
Synonym: PARA-METHYLBENZYL FORMATE
Synonym: FORMIC ACID PARA-METHYLBENZYL ESTER
Structure: 464F524D4943204143494420504152412D4D455448594C42454E5A594C2045535445522E6D6F6C0A20204368656D447261773038313131303139333432440A2031312031312020302020302020302020302020302020302020302020303939392056323030300A20202020312E343238392020202D302E3431323520202020302E303030302043202020302020302020302020302020302020302020302020302020302020302020302020300A20202020322E313433342020202D302E3832353020202020302E30303030204F202020302020302020302020302020302020302020302020302020302020302020302020300A20202020312E3432383920202020302E3431323520202020302E30303030204F202020302020302020302020302020302020302020302020302020302020302020302020300A20202020302E3731343520202020302E3832353020202020302E303030302043202020302020302020302020302020302020302020302020302020302020302020302020300A2020202D302E3030303020202020302E3431323520202020302E303030302043202020302020302020302020302020302020302020302020302020302020302020302020300A2020202D302E303030302020202D302E3431323520202020302E303030302043202020302020302020302020302020302020302020302020302020302020302020302020300A2020202D302E373134352020202D302E3832353020202020302E303030302043202020302020302020302020302020302020302020302020302020302020302020302020300A2020202D312E343238392020202D302E3431323520202020302E303030302043202020302020302020302020302020302020302020302020302020302020302020302020300A2020202D312E3432383920202020302E3431323520202020302E303030302043202020302020302020302020302020302020302020302020302020302020302020302020300A2020202D302E3731343520202020302E3832353020202020302E303030302043202020302020302020302020302020302020302020302020302020302020302020302020300A2020202D322E313433342020202D302E3832353020202020302E303030302043202020302020302020302020302020302020302020302020302020302020302020302020300A2020312020322020322020302020202020200A2020312020332020312020302020202020200A2020342020352020312020302020202020200A2020352020362020312020302020202020200A2020362020372020322020302020202020200A2020372020382020312020302020202020200A2020382020392020322020302020202020200A2020392031302020312020302020202020200A2020352031302020322020302020202020200A2020382031312020312020302020202020200A2020332020342020312020302020202020200A4D2020454E44
Contributor: SODA AROMATIC CO., LTD.
InstType: EI
InstName: HITACHI M-80B
IoniMethod: _ENERGY 70 eV
IonPolarity: pos
Date: 2010-10-09 19:48:36+02:00
Num Peaks: 40
27 69 29 134 31 16 38 16 39 141 40 12 41 31 50 55 51 122 52 40 
53 42 62 26 63 87 64 17 65 134 66 11 74 14 75 11 76 13 77 299 
78 249 79 199 80 10 89 43 90 14 91 196 92 18 93 65 102 19 103 241 
104 805 105 999 106 84 107 186 108 12 119 32 121 55 122 96 150 653 151 68 
