Name: ACETIC ACID METHYL ESTER
CAS: 79-20-9
MW: 74
Formula: C3H6O2
Synonym: MassBank: JP004273
Synonym: ACETIC ACID METHYL ESTER
Synonym: METHYL ACETATE
Structure: 310A31340A4143455449432041434944204D455448594C2045535445522E6D6F6C0A20204368656D447261773036323431303136353532440A2020352020342020302020302020302020302020302020302020302020303939392056323030300A20202020302E333537322020202D302E3230363220202020302E303030302043202020302020302020302020302020302020302020302020302020302020302020302020300A20202020312E303731372020202D302E3631383820202020302E303030302043202020302020302020302020302020302020302020302020302020302020302020302020300A20202020302E3335373220202020302E3631383820202020302E30303030204F202020302020302020302020302020302020302020302020302020302020302020302020300A2020202D302E333537322020202D302E3631383820202020302E30303030204F202020302020302020302020302020302020302020302020302020302020302020302020300A2020202D312E303731372020202D302E3230363220202020302E303030302043202020302020302020302020302020302020302020302020302020302020302020302020300A2020312020322020312020302020202020200A2020312020332020322020302020202020200A2020312020342020312020302020202020200A2020342020352020312020302020202020200A4D2020454E44
Contributor: TAJIMA S, GUNMA COLLEGE OF TECHNOLOGY
InstType: EI
InstName: HITACHI RMU-7M
IoniMethod: _ENERGY 70 eV
IonPolarity: pos
Date: 2010-10-09 19:48:36+02:00
Num Peaks: 16
13 14 14 56 15 314 28 17 29 89 30 14 31 51 32 21 41 13 42 99 
43 999 44 28 45 14 59 57 74 125 75 10 
