Name: METHYL TIGLATE
MW: 114
Formula: C6H10O2
Synonym: MassBank: JP006836
Synonym: METHYL TIGLATE
Synonym: METHYL 2-METHYL-2-BUTENOATE
Structure: 310A32300A4D455448594C20322D4D455448594C2D322D425554454E4F4154452E6D6F6C0A20204368656D447261773038313131303233333432440A2020382020372020302020302020302020302020302020302020302020303939392056323030300A2020202D302E323036322020202D302E3731343520202020302E303030302043202020302020302020302020302020302020302020302020302020302020302020302020300A20202020302E3230363220202020302E3030303020202020302E303030302043202020302020302020302020302020302020302020302020302020302020302020302020300A2020202D302E3230363220202020302E3731343520202020302E303030302043202020302020302020302020302020302020302020302020302020302020302020302020300A20202020302E3230363220202020312E3432383920202020302E303030302043202020302020302020302020302020302020302020302020302020302020302020302020300A2020202D312E303331332020202D302E3731343520202020302E30303030204F202020302020302020302020302020302020302020302020302020302020302020302020300A20202020302E323036322020202D312E3432383920202020302E30303030204F202020302020302020302020302020302020302020302020302020302020302020302020300A20202020312E3033313320202020302E3030303020202020302E303030302043202020302020302020302020302020302020302020302020302020302020302020302020300A20202020312E303331332020202D312E3432383920202020302E303030302043202020302020302020302020302020302020302020302020302020302020302020302020300A2020312020322020312020302020202020200A2020322020332020322020302020202020200A2020332020342020312020302020202020200A2020312020352020322020302020202020200A2020312020362020312020302020202020200A2020322020372020312020302020202020200A2020362020382020312020302020202020200A4D2020454E44
Contributor: TAJIMA S, GUNMA COLLEGE OF TECHNOLOGY
InstType: EI
InstName: HITACHI M-80B
IoniMethod: _ENERGY 70 eV
IonPolarity: pos
Date: 2010-10-09 19:48:36+02:00
Num Peaks: 29
15 129 26 32 27 303 29 239 30 13 31 12 38 24 39 246 41 38 42 10 
43 62 45 17 50 49 51 73 52 29 53 170 54 145 55 999 56 55 59 120 
69 15 71 20 81 15 82 106 83 502 84 25 99 128 114 409 115 25 
