Name: ETHYLENE GLYCOL MONO-ISOBUTYL ETHER
MW: 118
Formula: C6H14O2
Synonym: MassBank: JP006770
Synonym: ETHYLENE GLYCOL MONO-ISOBUTYL ETHER
Structure: 310A32300A455448594C454E4520474C59434F4C204D4F4E4F2D49534F425554594C2045544845522E6D6F6C0A20204368656D447261773038313131303139303932440A2020382020372020302020302020302020302020302020302020302020303939392056323030300A2020202D302E373134352020202D302E3631383820202020302E303030302043202020302020302020302020302020302020302020302020302020302020302020302020300A2020202D312E343238392020202D302E3230363220202020302E303030302043202020302020302020302020302020302020302020302020302020302020302020302020300A20202020302E303030302020202D302E3230363220202020302E30303030204F202020302020302020302020302020302020302020302020302020302020302020302020300A2020202D322E313433342020202D302E3631383820202020302E30303030204F202020302020302020302020302020302020302020302020302020302020302020302020300A20202020302E373134352020202D302E3631383720202020302E303030302043202020302020302020302020302020302020302020302020302020302020302020302020300A20202020312E343238392020202D302E3230363220202020302E303030302043202020302020302020302020302020302020302020302020302020302020302020302020300A20202020312E3432383920202020302E3631383820202020302E303030302043202020302020302020302020302020302020302020302020302020302020302020302020300A20202020322E313433342020202D302E3631383720202020302E303030302043202020302020302020302020302020302020302020302020302020302020302020302020300A2020312020322020312020302020202020200A2020312020332020312020302020202020200A2020322020342020312020302020202020200A2020352020362020312020302020202020200A2020362020372020312020302020202020200A2020362020382020312020302020202020200A2020332020352020312020302020202020200A4D2020454E44
Contributor: YAMAMOTO M, DEP. CHEMISTRY, FAC. SCIENCE, NARA WOMEN'S UNIV.
InstType: EI
InstName: HITACHI RMU-6M
IoniMethod: _ENERGY 70 eV
IonPolarity: pos
Date: 2010-10-09 19:48:36+02:00
Num Peaks: 27
15 28 27 119 28 28 29 237 31 87 39 79 40 13 41 318 42 30 43 57 
44 26 45 736 46 23 55 43 56 98 57 999 58 40 62 11 63 13 71 45 
72 19 73 26 75 230 76 11 87 109 100 13 118 4 
