Name: MassBank: JP004765
MW: 229
Formula: C11H27NSi2
Synonym: MassBank: JP004765
Synonym: 1-BUTYL-2,2,6,6-TETRAMETHYL-2,6-DISILAPIPERIDINE
Structure: 312D425554594C2D322C322C362C362D54455452414D455448594C2D322C362D444953494C4150495045524944494E452E6D6F6C0A20204368656D447261773131313730393233343632440A2031342031342020302020302020302020302020302020302020302020303939392056323030300A20202020302E373134352020202D302E3237373920202020302E30303030204E202020302020302020302020302020302020302020302020302020302020302020302020300A20202020302E3731343520202020302E3534373120202020302E303030302053692020302020302020302020302020302020302020302020302020302020302020302020300A20202020312E3432383920202020302E3935393620202020302E303030302043202020302020302020302020302020302020302020302020302020302020302020302020300A20202020322E3134333420202020302E3534373120202020302E303030302043202020302020302020302020302020302020302020302020302020302020302020302020300A20202020322E313433342020202D302E3237373920202020302E303030302043202020302020302020302020302020302020302020302020302020302020302020302020300A20202020312E343238392020202D302E3639303420202020302E303030302053692020302020302020302020302020302020302020302020302020302020302020302020300A20202020302E383938362020202D312E3332323420202020302E303030302043202020302020302020302020302020302020302020302020302020302020302020302020300A20202020312E393539322020202D312E3332323420202020302E303030302043202020302020302020302020302020302020302020302020302020302020302020302020300A2020202D302E3039383020202020302E3430333920202020302E303030302043202020302020302020302020302020302020302020302020302020302020302020302020300A20202020302E3433323320202020312E3332323420202020302E303030302043202020302020302020302020302020302020302020302020302020302020302020302020300A2020202D302E303030302020202D302E3639303420202020302E303030302043202020302020302020302020302020302020302020302020302020302020302020302020300A2020202D302E373134352020202D302E3237373920202020302E303030302043202020302020302020302020302020302020302020302020302020302020302020302020300A2020202D312E343238392020202D302E3639303420202020302E303030302043202020302020302020302020302020302020302020302020302020302020302020302020300A2020202D322E313433342020202D302E3237373920202020302E303030302043202020302020302020302020302020302020302020302020302020302020302020302020300A2020312020322020312020302020202020200A2020322020332020312020302020202020200A2020332020342020312020302020202020200A2020342020352020312020302020202020200A2020352020362020312020302020202020200A2020312020362020312020302020202020200A2020362020372020312020312020202020200A2020362020382020312020362020202020200A2020322020392020312020362020202020200A2020322031302020312020312020202020200A2031312031322020312020302020202020200A2031322031332020312020302020202020200A2031332031342020312020302020202020200A2020312031312020312020302020202020200A4D2020454E44
Contributor: MASS SPECTROSCOPY SOC. OF JAPAN (MSSJ)
InstType: EI
InstName: JEOL JMS-D-3000
IoniMethod: _ENERGY 70 eV
IonPolarity: pos
Date: 2010-10-09 19:48:36+02:00
Num Peaks: 8
59 102 73 56 88 23 186 999 187 203 188 87 214 92 229 50 
