Name: N-(TERT-BUTYLDIMETHYLSILYL)-N-ETHYLANILINE
MW: 235
Formula: C14H25NSi
Synonym: MassBank: JP001354
Synonym: N-(TERT-BUTYLDIMETHYLSILYL)-N-ETHYLANILINE
Structure: 4E2D28544552542D425554594C44494D455448594C53494C594C292D4E2D455448594C414E494C494E452E6D6F6C0A20204368656D447261773038313231303031323432440A2031362031362020302020302020302020302020302020302020302020303939392056323030300A20202020302E323534392020202D302E3436343420202020302E30303030204E202020302020302020302020302020302020302020302020302020302020302020302020300A2020202D302E353730312020202D302E3436343420202020302E303030302043202020302020302020302020302020302020302020302020302020302020302020302020300A2020202D302E393832362020202D312E3137383920202020302E303030302043202020302020302020302020302020302020302020302020302020302020302020302020300A2020202D312E383037362020202D312E3137383920202020302E303030302043202020302020302020302020302020302020302020302020302020302020302020302020300A2020202D322E323230312020202D302E3436343420202020302E303030302043202020302020302020302020302020302020302020302020302020302020302020302020300A2020202D312E3830373620202020302E3235303120202020302E303030302043202020302020302020302020302020302020302020302020302020302020302020302020300A2020202D302E3938323620202020302E3235303120202020302E303030302043202020302020302020302020302020302020302020302020302020302020302020302020300A20202020302E363637342020202D312E3137383920202020302E303030302043202020302020302020302020302020302020302020302020302020302020302020302020300A20202020312E343932342020202D312E3137383920202020302E303030302043202020302020302020302020302020302020302020302020302020302020302020302020300A20202020302E3739313220202020302E3436343420202020302E303030302053692020302020302020302020302020302020302020302020302020302020302020302020300A20202020302E3037363720202020302E3837363920202020302E303030302043202020302020302020302020302020302020302020302020302020302020302020302020300A20202020312E3230333720202020312E3137383920202020302E303030302043202020302020302020302020302020302020302020302020302020302020302020302020300A20202020312E3530353620202020302E3035313920202020302E303030302043202020302020302020302020302020302020302020302020302020302020302020302020300A20202020312E303933312020202D302E3636323620202020302E303030302043202020302020302020302020302020302020302020302020302020302020302020302020300A20202020322E323230312020202D302E3336303620202020302E303030302043202020302020302020302020302020302020302020302020302020302020302020302020300A20202020312E3931383120202020302E3736363420202020302E303030302043202020302020302020302020302020302020302020302020302020302020302020302020300A2020312020322020312020302020202020200A2020322020332020312020302020202020200A2020332020342020322020302020202020200A2020342020352020312020302020202020200A2020352020362020322020302020202020200A2020362020372020312020302020202020200A2020322020372020322020302020202020200A2020382020392020312020302020202020200A2020312020382020312020302020202020200A2031302031312020312020302020202020200A2031302031322020312020302020202020200A2031332031342020312020302020202020200A2031332031362020312020302020202020200A2031332031352020312020302020202020200A2031302031332020312020302020202020200A2020312031302020312020302020202020200A4D2020454E44
Contributor: MASS SPECTROSCOPY SOC. OF JAPAN (MSSJ)
InstType: EI
InstName: JEOL JMS-D-3000
IoniMethod: _ENERGY 70 eV
IonPolarity: pos
Date: 2010-10-09 19:48:36+02:00
Num Peaks: 31
43 34 45 27 51 14 57 12 58 17 59 247 60 20 73 89 74 10 75 23 
77 43 84 15 104 13 106 31 118 71 119 36 120 75 121 44 134 19 135 22 
149 26 150 26 162 12 164 11 176 14 178 999 179 164 180 47 220 17 235 57 
236 13 
