Name: MassBank: JP005836
MW: 145
Formula: C3H5Cl3
Synonym: MassBank: JP005836
Synonym: 1,2,3-TRICHLOROPROPANE
Synonym: GLYCEROL TRICHLOROHYDRIN
Structure: 310A31360A312C322C332D54524943484C4F524F50524F50414E452E6D6F6C0A20204368656D447261773130323330393133323232440A2020362020352020302020302020302020302020302020302020302020303939392056323030300A20202020302E343132352020202D302E3731343520202020302E303030302043202020302020302020302020302020302020302020302020302020302020302020302020300A20202020302E3030303020202020302E3030303020202020302E303030302043202020302020302020302020302020302020302020302020302020302020302020302020300A2020202D302E3832353020202020302E3030303020202020302E303030302043202020302020302020302020302020302020302020302020302020302020302020302020300A2020202D312E323337352020202D302E3731343520202020302E3030303020436C2020302020302020302020302020302020302020302020302020302020302020302020300A20202020302E3431323520202020302E3731343520202020302E3030303020436C2020302020302020302020302020302020302020302020302020302020302020302020300A20202020312E323337352020202D302E3731343520202020302E3030303020436C2020302020302020302020302020302020302020302020302020302020302020302020300A2020312020322020312020302020202020200A2020322020332020312020302020202020200A2020332020342020312020302020202020200A2020322020352020312020302020202020200A2020312020362020312020302020202020200A4D2020454E44
Contributor: HASHIMOTO K, KYOTO COLLEGE OF PHARMACY
InstType: EI
InstName: HITACHI M-80
IoniMethod: _ENERGY 20 eV
IonPolarity: pos
Date: 2010-10-09 19:48:36+02:00
Num Peaks: 24
39 80 41 34 49 97 51 33 61 213 62 94 63 82 64 29 75 999 76 35 
77 303 83 15 85 10 96 30 97 141 98 21 99 89 101 19 109 13 110 448 
111 44 112 290 113 26 114 50 
