Name: 2-METHYL-3-PENTANOL
MW: 102
Formula: C6H14O
Synonym: MassBank: JP005679
Synonym: 2-METHYL-3-PENTANOL
Structure: 310A31380A322D4D455448594C2D332D50454E54414E4F4C2E6D6F6C0A20204368656D447261773031323231303033343032440A2020372020362020302020302020302020302020302020302020302020303939392056323030300A2020202D302E3230363320202020312E3037313720202020302E303030302043202020302020302020302020302020302020302020302020302020302020302020302020300A20202020302E3230363220202020302E3335373220202020302E303030302043202020302020302020302020302020302020302020302020302020302020302020302020300A2020202D302E323036322020202D302E3335373220202020302E303030302043202020302020302020302020302020302020302020302020302020302020302020302020300A20202020302E323036322020202D312E3037313720202020302E303030302043202020302020302020302020302020302020302020302020302020302020302020302020300A20202020312E303331332020202D312E3037313720202020302E303030302043202020302020302020302020302020302020302020302020302020302020302020302020300A2020202D312E303331332020202D302E3335373220202020302E30303030204F202020302020302020302020302020302020302020302020302020302020302020302020300A20202020312E3033313320202020302E3335373220202020302E303030302043202020302020302020302020302020302020302020302020302020302020302020302020300A2020312020322020312020302020202020200A2020322020332020312020302020202020200A2020332020342020312020302020202020200A2020342020352020312020302020202020200A2020332020362020312020302020202020200A2020322020372020312020302020202020200A4D2020454E44
Contributor: HASHIMOTO K, KYOTO COLLEGE OF PHARMACY
InstType: EI
InstName: HITACHI M-80
IoniMethod: _ENERGY 20 eV
IonPolarity: pos
Date: 2010-10-09 19:48:36+02:00
Num Peaks: 20
29 16 31 101 41 92 42 11 43 77 45 64 55 160 56 16 57 53 58 210 
59 999 60 37 69 23 72 20 73 591 74 27 85 191 86 14 101 13 102 3 
