Name: 2-ETHYL IMIDAZOLINE
MW: 98
Formula: C5H10N2
Synonym: MassBank: JP003260
Synonym: 2-ETHYL IMIDAZOLINE
Structure: 310A31390A322D455448594C20494D4944415A4F4C494E452E6D6F6C0A20204368656D447261773031303331303132343032440A2020372020372020302020302020302020302020302020302020302020303939392056323030300A2020202D302E3036313620202020302E3238393820202020302E303030302043202020302020302020302020302020302020302020302020302020302020302020302020300A2020202D302E313437392020202D302E3533303720202020302E30303030204E202020302020302020302020302020302020302020302020302020302020302020302020300A2020202D302E393534382020202D302E3730323320202020302E303030302043202020302020302020302020302020302020302020302020302020302020302020302020300A2020202D312E3336373320202020302E3031323220202020302E303030302043202020302020302020302020302020302020302020302020302020302020302020302020300A2020202D302E3831353320202020302E3632353320202020302E30303030204E202020302020302020302020302020302020302020302020302020302020302020302020300A20202020302E3635323920202020302E3730323320202020302E303030302043202020302020302020302020302020302020302020302020302020302020302020302020300A20202020312E3336373320202020302E3238393820202020302E303030302043202020302020302020302020302020302020302020302020302020302020302020302020300A2020312020322020322020302020202020200A2020322020332020312020302020202020200A2020332020342020312020302020202020200A2020342020352020312020302020202020200A2020312020352020312020302020202020200A2020362020372020312020302020202020200A2020312020362020312020302020202020200A4D2020454E44
Contributor: MASS SPECTROSCOPY SOC. OF JAPAN (MSSJ)
InstType: EI
InstName: HITACHI RMU-7
IoniMethod: _ENERGY 70 eV
IonPolarity: pos
Date: 2010-10-09 19:48:36+02:00
Num Peaks: 26
99 110 98 500 97 310 96 220 95 290 83 100 82 200 81 310 70 140 69 999 
68 200 67 100 58 80 57 120 56 200 55 220 54 730 53 90 52 130 44 160 
43 210 42 410 41 520 40 280 39 250 38 100 
