Name: 4-METHYL-5-THIAZOLEETHANOL
CAS: 137-00-8
MW: 143
Formula: C6H9NOS
Synonym: MassBank: JP007802
Synonym: 4-METHYL-5-THIAZOLEETHANOL
Structure: 310A32330A342D4D455448594C2D352D544849415A4F4C45455448414E4F4C2E6D6F6C0A20204368656D447261773034323131303032343432440A2020392020392020302020302020302020302020302020302020302020303939392056323030300A20202020302E3839353720202020302E3530353120202020302E303030302053202020302020302020302020302020302020302020302020302020302020302020302020300A20202020312E3036373320202020312E3331323120202020302E303030302043202020302020302020302020302020302020302020302020302020302020302020302020300A20202020302E3335323820202020312E3732343620202020302E30303030204E202020302020302020302020302020302020302020302020302020302020302020302020300A2020202D302E3236303320202020312E3137323520202020302E303030302043202020302020302020302020302020302020302020302020302020302020302020302020300A20202020302E3037353320202020302E3431383920202020302E303030302043202020302020302020302020302020302020302020302020302020302020302020302020300A20202020302E303735332020202D312E3031303120202020302E303030302043202020302020302020302020302020302020302020302020302020302020302020302020300A2020202D302E333337322020202D302E3239353620202020302E303030302043202020302020302020302020302020302020302020302020302020302020302020302020300A2020202D302E333337322020202D312E3732343620202020302E30303030204F202020302020302020302020302020302020302020302020302020302020302020302020300A2020202D312E3036373320202020312E3334343120202020302E303030302043202020302020302020302020302020302020302020302020302020302020302020302020300A2020312020322020312020302020202020200A2020322020332020322020302020202020200A2020332020342020312020302020202020200A2020342020352020322020302020202020200A2020312020352020312020302020202020200A2020362020372020312020302020202020200A2020362020382020312020302020202020200A2020352020372020312020302020202020200A2020342020392020312020302020202020200A4D2020454E44
Contributor: HASHIMOTO K, KYOTO COLLEGE OF PHARMACY
InstType: EI
InstName: HITACHI M-80
IoniMethod: _ENERGY 20 eV
IonPolarity: pos
Date: 2010-10-09 19:48:36+02:00
Num Peaks: 22
31 39 45 171 53 31 55 20 68 31 71 32 72 51 80 10 85 322 86 72 
87 21 98 22 99 11 100 40 112 999 113 722 114 107 115 31 125 11 143 444 
144 51 145 23 
