Name: 3-BENZOYL-1-METHYLINDOLE
MW: 235
Formula: C16H13NO
Synonym: MassBank: JP004435
Synonym: 3-BENZOYL-1-METHYLINDOLE
Synonym: 1-METHYL-3-INDOLYL PHENYL KETONE
Structure: 332D42454E5A4F594C2D312D4D455448594C494E444F4C452E6D6F6C0A20204368656D447261773131313930393136333332440A2031392032312020302020302020302020302020302020302020302020303939392056323030300A2020202D302E3934303820202020302E3834393020202020302E30303030204E202020302020302020302020302020302020302020302020302020302020302020302020300A2020202D302E3138373220202020302E3531333420202020302E303030302043202020302020302020302020302020302020302020302020302020302020302020302020300A2020202D302E323733342020202D302E3330373020202020302E303030302043202020302020302020302020302020302020302020302020302020302020302020302020300A2020202D312E303830342020202D302E3437383620202020302E303030302043202020302020302020302020302020302020302020302020302020302020302020302020300A2020202D312E343932392020202D312E3139333020202020302E303030302043202020302020302020302020302020302020302020302020302020302020302020302020300A2020202D322E333137392020202D312E3139333020202020302E303030302043202020302020302020302020302020302020302020302020302020302020302020302020300A2020202D322E373330342020202D302E3437383620202020302E303030302043202020302020302020302020302020302020302020302020302020302020302020302020300A2020202D322E3331373920202020302E3233353920202020302E303030302043202020302020302020302020302020302020302020302020302020302020302020302020300A2020202D312E3439323920202020302E3233353920202020302E303030302043202020302020302020302020302020302020302020302020302020302020302020302020300A2020202D312E3131323420202020312E3635363020202020302E303030302043202020302020302020302020302020302020302020302020302020302020302020302020300A20202020302E333339372020202D302E3835393120202020302E303030302043202020302020302020302020302020302020302020302020302020302020302020302020300A20202020312E313336362020202D302E3634353620202020302E303030302043202020302020302020302020302020302020302020302020302020302020302020302020300A20202020312E3335303120202020302E3135313320202020302E303030302043202020302020302020302020302020302020302020302020302020302020302020302020300A20202020322E3134373020202020302E3336343920202020302E303030302043202020302020302020302020302020302020302020302020302020302020302020302020300A20202020322E373330342020202D302E3231383520202020302E303030302043202020302020302020302020302020302020302020302020302020302020302020302020300A20202020322E353136382020202D312E3031353420202020302E303030302043202020302020302020302020302020302020302020302020302020302020302020302020300A20202020312E373230302020202D312E3232383920202020302E303030302043202020302020302020302020302020302020302020302020302020302020302020302020300A20202020302E313236322020202D312E3635363020202020302E30303030204F202020302020302020302020302020302020302020302020302020302020302020302020300A20202020302E3532373320202020302E3932353920202020302E303030302048202020302020302020302020302020302020302020302020302020302020302020302020300A2020312020322020312020302020202020200A2020322020332020322020302020202020200A2020332020342020312020302020202020200A2020342020352020312020302020202020200A2020352020362020322020302020202020200A2020362020372020312020302020202020200A2020372020382020322020302020202020200A2020382020392020312020302020202020200A2020312020392020312020302020202020200A2020342020392020322020302020202020200A2020312031302020312020302020202020200A2031312031322020312020302020202020200A2031322031332020312020302020202020200A2031332031342020322020302020202020200A2031342031352020312020302020202020200A2031352031362020322020302020202020200A2031362031372020312020302020202020200A2031322031372020322020302020202020200A2031312031382020322020302020202020200A2020332031312020312020302020202020200A2020322031392020312020302020202020200A4D2020454E44
Contributor: SASAKI S, TOYOHASHI UNIV. OF TECH.
InstType: EI
InstName: MX-1303
IoniMethod: _ENERGY 50 eV
IonPolarity: pos
Date: 2010-10-09 19:48:36+02:00
Num Peaks: 41
40 63 42 113 44 41 55 9 56 21 57 160 60 23 67 2 68 13 69 243 
70 28 71 8 73 21 77 93 81 99 82 2 83 57 84 11 85 32 89 1 
95 39 96 13 97 49 99 7 103 40 105 34 109 22 111 3 113 10 123 17 
125 11 129 1 130 36 137 18 149 53 158 999 159 66 167 11 234 30 235 58 
236 65 
