Name: 2-(2-(3-NITROPHENYL)-TRANS-VINYL)PYRIDINE
MW: 226
Formula: C13H10N2O2
Synonym: MassBank: JP005028
Synonym: 2-(2-(3-NITROPHENYL)-TRANS-VINYL)PYRIDINE
Structure: 322D28322D28332D4E4954524F5048454E594C292D5452414E532D56494E594C295059524944494E452E6D6F6C0A20204368656D447261773132323130393130343732440A2031392032302020302020302020302020302020302020302020302020303939392056323030300A20202020312E303731372020202D302E3832353020202020302E303030302043202020302020302020302020302020302020302020302020302020302020302020302020300A20202020312E303731372020202D312E3635303020202020302E303030302043202020302020302020302020302020302020302020302020302020302020302020302020300A20202020312E373836322020202D322E3036323520202020302E303030302043202020302020302020302020302020302020302020302020302020302020302020302020300A20202020322E353030362020202D312E3635303020202020302E303030302043202020302020302020302020302020302020302020302020302020302020302020302020300A20202020322E353030362020202D302E3832353020202020302E303030302043202020302020302020302020302020302020302020302020302020302020302020302020300A20202020312E373836322020202D302E3431323520202020302E30303030204E202020302020302020302020302020302020302020302020302020302020302020302020300A20202020302E333537322020202D302E3431323520202020302E303030302043202020302020302020302020302020302020302020302020302020302020302020302020300A2020202D302E333537322020202D302E3832353020202020302E303030302043202020302020302020302020302020302020302020302020302020302020302020302020300A2020202D312E303731372020202D302E3431323520202020302E303030302043202020302020302020302020302020302020302020302020302020302020302020302020300A2020202D312E3037313720202020302E3431323520202020302E303030302043202020302020302020302020302020302020302020302020302020302020302020302020300A2020202D312E3738363220202020302E3832353020202020302E303030302043202020302020302020302020302020302020302020302020302020302020302020302020300A2020202D322E3530303620202020302E3431323520202020302E303030302043202020302020302020302020302020302020302020302020302020302020302020302020300A2020202D322E353030362020202D302E3431323520202020302E303030302043202020302020302020302020302020302020302020302020302020302020302020302020300A2020202D312E373836322020202D302E3832353020202020302E303030302043202020302020302020302020302020302020302020302020302020302020302020302020300A2020202D312E3738363220202020312E3635303020202020302E30303030204E202020302020332020302020302020302020302020302020302020302020302020302020300A2020202D312E3037313720202020322E3036323520202020302E30303030204F202020302020302020302020302020302020302020302020302020302020302020302020300A2020202D322E3530303620202020322E3036323520202020302E30303030204F202020302020352020302020302020302020302020302020302020302020302020302020300A2020202D302E333537322020202D312E3635303020202020302E303030302048202020302020302020302020302020302020302020302020302020302020302020302020300A20202020302E3335373220202020302E3431323520202020302E303030302048202020302020302020302020302020302020302020302020302020302020302020302020300A2020312020322020312020302020202020200A2020322020332020322020302020202020200A2020332020342020312020302020202020200A2020342020352020322020302020202020200A2020352020362020312020302020202020200A2020312020362020322020302020202020200A2020372020382020322020302020202020200A2020392031302020312020302020202020200A2031302031312020322020302020202020200A2031312031322020312020302020202020200A2031322031332020322020302020202020200A2031332031342020312020302020202020200A2020392031342020322020302020202020200A2031352031362020322020302020202020200A2031352031372020312020302020202020200A2031312031352020312020302020202020200A2020382020392020312020302020202020200A2020312020372020312020302020202020200A2020382031382020312020302020202020200A2020372031392020312020302020202020200A4D202043484720203220203135202020312020313720202D310A4D2020454E44
Contributor: SASAKI S, TOYOHASHI UNIV. OF TECH.
InstType: EI
InstName: MX-1309
IoniMethod: _ENERGY 70 eV
IonPolarity: pos
Date: 2010-10-09 19:48:36+02:00
Num Peaks: 47
62 17 63 59 64 15 75 5 76 94 77 162 78 113 79 1 80 13 87 12 
88 11 89 11 90 72 101 28 102 32 104 3 139 14 140 19 141 44 149 1 
150 30 151 81 152 194 153 9 154 35 165 10 166 16 167 8 168 18 177 25 
178 269 179 11 180 261 181 32 192 10 193 2 194 10 195 26 196 10 209 1 
210 179 211 35 223 46 224 4 225 999 226 656 227 11 
