Name: DICHLORO(CHLOROMETHYL)METHYLSILANE
CAS: 1558-33-4
MW: 161
Formula: C2H5Cl3Si
Synonym: MassBank: JP004658
Synonym: DICHLORO(CHLOROMETHYL)METHYLSILANE
Structure: 310A31360A444943484C4F524F2843484C4F524F4D455448594C294D455448594C53494C414E452E6D6F6C0A20204368656D447261773039323131303138313232440A2020362020352020302020302020302020302020302020302020302020303939392056323030300A2020202D302E3335373220202020302E3030303020202020302E303030302053692020302020302020302020302020302020302020302020302020302020302020302020300A20202020302E303535332020202D302E3731343520202020302E303030302043202020302020302020302020302020302020302020302020302020302020302020302020300A20202020302E3335373220202020302E3431323520202020302E303030302043202020302020302020302020302020302020302020302020302020302020302020302020300A20202020312E3037313720202020302E3030303020202020302E3030303020436C2020302020302020302020302020302020302020302020302020302020302020302020300A2020202D312E303731372020202D302E3431323520202020302E3030303020436C2020302020302020302020302020302020302020302020302020302020302020302020300A2020202D302E3736393720202020302E3731343520202020302E3030303020436C2020302020302020302020302020302020302020302020302020302020302020302020300A2020312020322020312020302020202020200A2020332020342020312020302020202020200A2020312020332020312020302020202020200A2020312020352020312020302020202020200A2020312020362020312020302020202020200A4D2020454E44
Contributor: MASS SPECTROSCOPY SOC. OF JAPAN (MSSJ)
InstType: EI
InstName: JEOL JMS-D-3000
IoniMethod: _ENERGY 70 eV
IonPolarity: pos
Date: 2010-10-09 19:48:36+02:00
Num Peaks: 40
43 13 44 38 49 35 51 11 59 14 63 198 64 20 65 71 77 18 78 11 
79 73 80 11 81 26 95 24 98 38 99 59 100 31 101 43 109 195 110 15 
111 73 112 22 113 999 114 69 115 688 116 41 117 124 123 25 127 31 129 23 
133 19 135 18 143 16 145 13 147 78 149 78 151 31 162 42 164 45 166 18 
