Name: GAMMA-MUUROLENE
MW: 204
Formula: C15H24
Synonym: MassBank: JP002843
Synonym: GAMMA-MUUROLENE
Structure: 303532305F47414D4D412D4D5555524F4C454E452E6D6F6C0A20204368656D447261773039303631303138323232440A2031372031382020302020302020302020302020302020302020302020303939392056323030300A2020202D312E3738363220202020302E3230363220202020302E303030302043202020302020302020302020302020302020302020302020302020302020302020302020300A2020202D312E373836322020202D302E3631383820202020302E303030302043202020302020302020302020302020302020302020302020302020302020302020302020300A2020202D312E303731372020202D312E3033313320202020302E303030302043202020302020302020302020302020302020302020302020302020302020302020302020300A2020202D302E333537322020202D302E3631383820202020302E303030302043202020302020302020302020302020302020302020302020302020302020302020302020300A2020202D302E3335373220202020302E3230363220202020302E303030302043202020302020302020302020302020302020302020302020302020302020302020302020300A2020202D312E3037313720202020302E3631383820202020302E303030302043202020302020302020302020302020302020302020302020302020302020302020302020300A20202020302E333537322020202D312E3033313320202020302E303030302043202020302020302020302020302020302020302020302020302020302020302020302020300A20202020312E303731372020202D302E3631383820202020302E303030302043202020302020302020302020302020302020302020302020302020302020302020302020300A20202020312E3037313720202020302E3230363220202020302E303030302043202020302020302020302020302020302020302020302020302020302020302020302020300A20202020302E3335373220202020302E3631383820202020302E303030302043202020302020302020302020302020302020302020302020302020302020302020302020300A2020202D312E3037313720202020312E3434333820202020302E303030302043202020302020302020302020302020302020302020302020302020302020302020302020300A2020202D312E3738363220202020312E3835363320202020302E303030302043202020302020302020302020302020302020302020302020302020302020302020302020300A2020202D302E3335373220202020312E3835363320202020302E303030302043202020302020302020302020302020302020302020302020302020302020302020302020300A2020202D312E303731372020202D312E3835363320202020302E303030302043202020302020302020302020302020302020302020302020302020302020302020302020300A2020202D302E3335373220202020312E3033313320202020302E303030302048202020302020302020302020302020302020302020302020302020302020302020302020300A2020202D302E333731352020202D312E3434333620202020302E303030302048202020302020302020302020302020302020302020302020302020302020302020302020300A20202020312E3738363220202020302E3631383820202020302E303030302043202020302020302020302020302020302020302020302020302020302020302020302020300A2020312020322020312020302020202020200A2020322020332020312020302020202020200A2020332020342020312020302020202020200A2020342020352020312020302020202020200A2020352020362020312020302020202020200A2020362020312020312020302020202020200A2020342020372020312020302020202020200A2020372020382020312020302020202020200A2020382020392020312020302020202020200A2020392031302020322020302020202020200A2031302020352020312020302020202020200A2020362031312020312020312020202020200A2031312031322020312020302020202020200A2031312031332020312020302020202020200A2020332031342020322020302020202020200A2020352031352020312020362020202020200A2020342031362020312020362020202020200A2020392031372020312020302020202020200A4D2020454E44
Contributor: SASAKI S, TOYOHASHI UNIV. OF TECH.
InstType: EI
InstName: Unknown
IoniMethod: EI
IonPolarity: pos
Date: 2010-10-09 19:48:36+02:00
Num Peaks: 84
26 5 27 47 39 60 40 1 41 207 42 15 43 65 51 0 52 10 53 65 
54 8 55 12 56 10 57 15 63 6 64 1 65 42 66 13 67 100 68 2 
69 121 70 11 77 130 78 3 79 221 80 42 81 195 82 2 83 13 89 5 
91 243 92 12 93 335 94 121 95 73 96 0 103 18 104 16 105 381 106 8 
107 95 108 25 109 30 110 1 115 30 116 12 117 40 118 2 119 347 120 100 
121 100 122 3 123 15 124 5 127 12 128 2 129 15 130 8 131 30 132 1 
133 182 134 100 135 73 136 1 137 6 143 5 145 26 146 1 147 60 148 60 
149 20 150 1 159 20 160 26 161 999 162 14 163 13 175 20 176 15 189 11 
190 15 204 330 205 50 206 5 
