Name: PENTAMETHYLENEHYDRAZONE ACETALDEHYDE
MW: 126
Formula: C7H14N2
Synonym: MassBank: JP000832
Synonym: PENTAMETHYLENEHYDRAZONE ACETALDEHYDE
Synonym: ACETALDEHYDE PENTAMETHYLENEHYDRAZONE
Structure: 310A32330A50454E54414D455448594C454E4548594452415A4F4E452041434554414C4445485944452E6D6F6C0A20204368656D447261773036323431303035343532440A2020392020392020302020302020302020302020302020302020302020303939392056323030300A2020202D312E3033313320202020302E3731343520202020302E303030302043202020302020302020302020302020302020302020302020302020302020302020302020300A2020202D312E3835363320202020302E3731343520202020302E303030302043202020302020302020302020302020302020302020302020302020302020302020302020300A2020202D302E363138372020202D302E3030303020202020302E30303030204E202020302020302020302020302020302020302020302020302020302020302020302020300A20202020302E323036322020202D302E3030303020202020302E30303030204E202020302020302020302020302020302020302020302020302020302020302020302020300A20202020302E3631383820202020302E3731343520202020302E303030302043202020302020302020302020302020302020302020302020302020302020302020302020300A20202020312E3434333720202020302E3731343520202020302E303030302043202020302020302020302020302020302020302020302020302020302020302020302020300A20202020312E383536332020202D302E3030303020202020302E303030302043202020302020302020302020302020302020302020302020302020302020302020302020300A20202020312E343433382020202D302E3731343520202020302E303030302043202020302020302020302020302020302020302020302020302020302020302020302020300A20202020302E363138372020202D302E3731343520202020302E303030302043202020302020302020302020302020302020302020302020302020302020302020302020300A2020312020322020312020302020202020200A2020332020342020312020302020202020200A2020352020362020312020302020202020200A2020362020372020312020302020202020200A2020372020382020312020302020202020200A2020382020392020312020302020202020200A2020342020352020312020302020202020200A2020342020392020312020302020202020200A2020312020332020322020302020202020200A4D2020454E44
Contributor: SASAKI S, TOYOHASHI UNIV. OF TECH.
InstType: EI
InstName: SHIMADZU LKB-2091
IoniMethod: _ENERGY 70 eV
IonPolarity: pos
Date: 2010-10-09 19:48:36+02:00
Num Peaks: 28
29 244 30 137 39 131 40 4 41 311 42 619 43 83 44 17 53 31 54 57 
55 363 56 18 57 101 67 23 68 33 69 36 70 285 71 109 73 32 82 12 
83 155 84 250 85 202 97 27 111 202 125 999 126 810 127 62 
