Name: ISOBUTYL BUTYRATE
MW: 144
Formula: C8H16O2
Synonym: MassBank: JP002548
Synonym: ISOBUTYL BUTYRATE
Structure: 49534F425554594C2042555459524154452E6D6F6C0A20204368656D447261773032313831303137313432440A2031302020392020302020302020302020302020302020302020302020303939392056323030300A2020202D302E3335373220202020302E3230363320202020302E303030302043202020302020302020302020302020302020302020302020302020302020302020302020300A2020202D312E303731372020202D302E3230363320202020302E303030302043202020302020302020302020302020302020302020302020302020302020302020302020300A2020202D312E3738363220202020302E3230363220202020302E303030302043202020302020302020302020302020302020302020302020302020302020302020302020300A2020202D322E353030362020202D302E3230363320202020302E303030302043202020302020302020302020302020302020302020302020302020302020302020302020300A2020202D302E3335373220202020312E3033313220202020302E30303030204F202020302020302020302020302020302020302020302020302020302020302020302020300A20202020302E333537322020202D302E3230363320202020302E30303030204F202020302020302020302020302020302020302020302020302020302020302020302020300A20202020312E3037313720202020302E3230363320202020302E303030302043202020302020302020302020302020302020302020302020302020302020302020302020300A20202020312E373836322020202D302E3230363220202020302E303030302043202020302020302020302020302020302020302020302020302020302020302020302020300A20202020322E3530303620202020302E3230363320202020302E303030302043202020302020302020302020302020302020302020302020302020302020302020302020300A20202020312E373836322020202D312E3033313220202020302E303030302043202020302020302020302020302020302020302020302020302020302020302020302020300A2020312020322020312020302020202020200A2020322020332020312020302020202020200A2020332020342020312020302020202020200A2020312020352020322020302020202020200A2020312020362020312020302020202020200A2020372020382020312020302020202020200A2020382020392020312020302020202020200A2020382031302020312020302020202020200A2020362020372020312020302020202020200A4D2020454E44
Contributor: YAMAMOTO M, DEP. CHEMISTRY, FAC. SCIENCE, NARA WOMEN'S UNIV.
InstType: EI
InstName: HITACHI RMU-6M
IoniMethod: _ENERGY 70 eV
IonPolarity: pos
Date: 2010-10-09 19:48:36+02:00
Num Peaks: 24
15 15 27 139 28 26 29 121 31 14 39 74 40 13 41 237 42 37 43 463 
44 16 55 26 56 458 57 212 60 60 70 17 71 999 72 48 73 36 88 39 
89 173 101 66 114 21 116 15 
