Name: 1-ALLYL-2-PYRAZOLINE
MW: 110
Formula: C6H10N2
Synonym: MassBank: JP000900
Synonym: 1-ALLYL-2-PYRAZOLINE
Structure: 310A32330A312D414C4C594C2D322D505952415A4F4C494E452E6D6F6C0A20204368656D447261773131313730393231313732440A2020392020392020302020302020302020302020302020302020302020303939392056323030300A20202020302E343138392020202D302E3636363620202020302E30303030204E202020302020302020302020302020302020302020302020302020302020302020302020300A20202020302E3530353120202020302E3135333920202020302E30303030204E202020302020302020302020302020302020302020302020302020302020302020302020300A20202020312E3331323120202020302E3332353420202020302E303030302043202020302020302020302020302020302020302020302020302020302020302020302020300A20202020312E373234362020202D302E3338393120202020302E303030302043202020302020302020302020302020302020302020302020302020302020302020302020300A20202020312E313732352020202D312E3030323120202020302E303030302043202020302020302020302020302020302020302020302020302020302020302020302020300A2020202D302E323935362020202D312E3037393120202020302E303030302043202020302020302020302020302020302020302020302020302020302020302020302020300A2020202D312E303130312020202D302E3636363620202020302E303030302043202020302020302020302020302020302020302020302020302020302020302020302020300A2020202D312E373234362020202D312E3037393120202020302E303030302043202020302020302020302020302020302020302020302020302020302020302020302020300A20202020312E3634373620202020312E3037393120202020302E303030302048202020302020302020302020302020302020302020302020302020302020302020302020300A2020312020322020312020302020202020200A2020322020332020322020302020202020200A2020332020342020312020302020202020200A2020342020352020312020302020202020200A2020312020352020312020302020202020200A2020362020372020312020302020202020200A2020372020382020322020302020202020200A2020312020362020312020302020202020200A2020332020392020312020302020202020200A4D2020454E44
Contributor: SASAKI S, TOYOHASHI UNIV. OF TECH.
InstType: EI
InstName: SHIMADZU LKB-2091
IoniMethod: _ENERGY 70 eV
IonPolarity: pos
Date: 2010-10-09 19:48:36+02:00
Num Peaks: 26
29 32 30 36 38 27 39 26 40 49 41 500 42 266 43 4 44 33 52 19 
53 16 54 16 55 191 56 83 57 75 67 7 68 100 69 200 70 18 81 10 
82 92 83 999 84 42 109 18 110 415 111 33 
