Name: OCTANAL
CAS: 124-13-0
MW: 128
Formula: C8H16O
Synonym: MassBank: JP008766
Synonym: OCTANAL
Structure: 310A32320A4F4354594C414C4445485944452E6D6F6C0A20204368656D447261773038313231303033323832440A2020392020382020302020302020302020302020302020302020302020303939392056323030300A2020202D322E3134333420202020302E3230363320202020302E303030302043202020302020302020302020302020302020302020302020302020302020302020302020300A2020202D312E343238392020202D302E3230363320202020302E303030302043202020302020302020302020302020302020302020302020302020302020302020302020300A2020202D302E3731343520202020302E3230363320202020302E303030302043202020302020302020302020302020302020302020302020302020302020302020302020300A20202020302E303030302020202D302E3230363220202020302E303030302043202020302020302020302020302020302020302020302020302020302020302020302020300A20202020302E3731343520202020302E3230363320202020302E303030302043202020302020302020302020302020302020302020302020302020302020302020302020300A20202020312E343238392020202D302E3230363220202020302E303030302043202020302020302020302020302020302020302020302020302020302020302020302020300A20202020322E3134333420202020302E3230363320202020302E303030302043202020302020302020302020302020302020302020302020302020302020302020302020300A20202020322E383537392020202D302E3230363220202020302E303030302043202020302020302020302020302020302020302020302020302020302020302020302020300A2020202D322E383537392020202D302E3230363320202020302E30303030204F202020302020302020302020302020302020302020302020302020302020302020302020300A2020312020322020312020302020202020200A2020322020332020312020302020202020200A2020332020342020312020302020202020200A2020342020352020312020302020202020200A2020352020362020312020302020202020200A2020362020372020312020302020202020200A2020372020382020312020302020202020200A2020312020392020322020302020202020200A4D2020454E44
Contributor: UOEH
InstType: EI
InstName: HP 5970
IoniMethod: _ENERGY 70 eV
IonPolarity: pos
Date: 2010-10-09 19:48:36+02:00
Num Peaks: 27
38 51 39 458 40 94 41 999 42 395 43 794 44 623 45 171 53 83 54 88 
55 525 56 526 57 573 58 64 66 54 67 174 68 206 69 299 71 113 72 110 
81 203 82 229 83 52 84 348 85 88 100 78 110 54 
