Name: 2-(3-(3-TRIMETHYLSILYLOXYBENZOYL)PHENYL)PROPIONIC ACID TRIMETHYLSILYL ESTER
MW: 414
Formula: C22H30O4Si2
Synonym: MassBank: JP003964
Synonym: 2-(3-(3-TRIMETHYLSILYLOXYBENZOYL)PHENYL)PROPIONIC ACID TRIMETHYLSILYL ESTER
Structure: 322D28332D28332D5452494D455448594C53494C594C4F585942454E5A4F594C295048454E594C2950524F50494F4E49432041434944205452494D455448594C53494C594C2045535445522E6D6F6C0A20204368656D447261773132323130393137353032440A2032382032392020302020302020302020302020302020302020302020303939392056323030300A20202020312E343238392020202D312E3434333820202020302E303030302043202020302020302020302020302020302020302020302020302020302020302020302020300A20202020302E373134352020202D312E3033313220202020302E303030302043202020302020302020302020302020302020302020302020302020302020302020302020300A2020202D302E303030302020202D312E3434333820202020302E303030302043202020302020302020302020302020302020302020302020302020302020302020302020300A20202020312E343238392020202D322E3236383720202020302E30303030204F202020302020302020302020302020302020302020302020302020302020302020302020300A20202020322E313433342020202D312E3033313220202020302E30303030204F202020302020302020302020302020302020302020302020302020302020302020302020300A20202020302E373134352020202D302E3230363220202020302E303030302043202020302020302020302020302020302020302020302020302020302020302020302020300A2020202D302E3030303020202020302E3230363320202020302E303030302043202020302020302020302020302020302020302020302020302020302020302020302020300A2020202D302E3030303020202020312E3033313220202020302E303030302043202020302020302020302020302020302020302020302020302020302020302020302020300A20202020302E3731343520202020312E3434333820202020302E303030302043202020302020302020302020302020302020302020302020302020302020302020302020300A20202020312E3432383920202020312E3033313320202020302E303030302043202020302020302020302020302020302020302020302020302020302020302020302020300A20202020312E3432383920202020302E3230363320202020302E303030302043202020302020302020302020302020302020302020302020302020302020302020302020300A2020202D302E3731343520202020312E3434333820202020302E303030302043202020302020302020302020302020302020302020302020302020302020302020302020300A2020202D312E3432383920202020312E3033313220202020302E303030302043202020302020302020302020302020302020302020302020302020302020302020302020300A2020202D312E3432383920202020302E3230363220202020302E303030302043202020302020302020302020302020302020302020302020302020302020302020302020300A2020202D322E313433342020202D302E3230363320202020302E303030302043202020302020302020302020302020302020302020302020302020302020302020302020300A2020202D322E3835373920202020302E3230363220202020302E303030302043202020302020302020302020302020302020302020302020302020302020302020302020300A2020202D322E3835373920202020312E3033313220202020302E303030302043202020302020302020302020302020302020302020302020302020302020302020302020300A2020202D322E3134333420202020312E3434333720202020302E303030302043202020302020302020302020302020302020302020302020302020302020302020302020300A2020202D302E3731343520202020322E3236383720202020302E30303030204F202020302020302020302020302020302020302020302020302020302020302020302020300A2020202D322E313433342020202D312E3033313320202020302E30303030204F202020302020302020302020302020302020302020302020302020302020302020302020300A2020202D322E383537392020202D312E3434333820202020302E303030302053692020302020302020302020302020302020302020302020302020302020302020302020300A2020202D332E323730342020202D302E3732393320202020302E303030302043202020302020302020302020302020302020302020302020302020302020302020302020300A2020202D322E343435342020202D322E3135383220202020302E303030302043202020302020302020302020302020302020302020302020302020302020302020302020300A2020202D332E353732342020202D312E3835363320202020302E303030302043202020302020302020302020302020302020302020302020302020302020302020302020300A20202020322E383537392020202D312E3434333720202020302E303030302053692020302020302020302020302020302020302020302020302020302020302020302020300A20202020332E323730342020202D302E3732393320202020302E303030302043202020302020302020302020302020302020302020302020302020302020302020302020300A20202020332E353732342020202D312E3835363220202020302E303030302043202020302020302020302020302020302020302020302020302020302020302020302020300A20202020322E343435342020202D322E3135383220202020302E303030302043202020302020302020302020302020302020302020302020302020302020302020302020300A2020312020322020312020302020202020200A2020322020332020312020302020202020200A2020312020342020322020302020202020200A2020312020352020312020302020202020200A2020362020372020312020302020202020200A2020372020382020322020302020202020200A2020382020392020312020302020202020200A2020392031302020322020302020202020200A2031302031312020312020302020202020200A2020362031312020322020302020202020200A2031322031332020312020302020202020200A2031332031342020312020302020202020200A2031342031352020322020302020202020200A2031352031362020312020302020202020200A2031362031372020322020302020202020200A2031372031382020312020302020202020200A2031332031382020322020302020202020200A2031322031392020322020302020202020200A2032312032322020312020302020202020200A2032312032332020312020302020202020200A2032312032342020312020302020202020200A2032302032312020312020302020202020200A2031352032302020312020302020202020200A2020382031322020312020302020202020200A2020322020362020312020302020202020200A2032352032362020312020312020202020200A2032352032372020312020302020202020200A2032352032382020312020312020202020200A2020352032352020312020302020202020200A4D2020454E44
Contributor: MASS SPECTROSCOPY SOC. OF JAPAN (MSSJ)
InstType: EI
InstName: HITACHI M-60
IoniMethod: _ENERGY 20 eV
IonPolarity: pos
Date: 2010-10-09 19:48:36+02:00
Num Peaks: 126
43 4 45 4 56 1 57 18 58 3 59 2 71 9 72 2 73 999 74 87 
75 91 76 3 77 9 81 2 82 2 83 3 84 2 85 6 91 2 96 2 
97 4 98 3 99 4 103 8 104 3 105 4 111 4 112 1 113 4 117 22 
118 2 119 2 123 1 129 5 130 2 131 24 132 23 133 7 135 3 137 1 
141 8 142 1 145 9 147 18 148 2 149 7 151 2 155 4 159 4 165 5 
167 1 169 2 177 7 178 1 179 5 180 3 191 3 193 25 194 4 195 1 
205 2 207 3 211 3 221 10 222 2 223 2 239 2 249 8 250 1 251 2 
253 6 254 7 255 2 265 7 266 2 267 7 268 3 270 2 279 2 280 3 
281 22 282 15 283 6 295 8 296 9 298 12 299 13 309 2 312 3 313 3 
314 4 315 4 325 2 326 3 328 6 329 1 330 2 332 38 340 6 341 1 
342 35 343 30 345 2 354 3 355 3 356 13 357 7 358 2 368 233 370 552 
371 239 372 86 373 18 374 3 385 4 386 1 399 131 400 45 401 19 402 4 
408 2 413 5 414 100 415 36 416 14 417 3 
