Name: MassBank: JP004534
MW: 206
Formula: C9H18O5
Synonym: MassBank: JP004534
Synonym: METHYL 2,3,4-TRI-O-METHYLXYLOPYRANOSIDE
Structure: 303836355F4D455448594C20322C332C342D5452492D4F2D4D455448594C58594C4F505952414E4F534944452E6D6F6C0A20204368656D447261773039303631303230323932440A2031342031342020302020302020302020302020302020302020302020303939392056323030300A20202020312E3432383920202020312E3033313220202020302E30303030204F202020302020302020302020302020302020302020302020302020302020302020302020300A20202020302E3731343520202020302E3631383720202020302E303030302043202020302020302020302020302020302020302020302020302020302020302020302020300A20202020302E373134352020202D302E3230363320202020302E303030302043202020302020302020302020302020302020302020302020302020302020302020302020300A20202020312E343238392020202D302E3631383820202020302E30303030204F202020302020302020302020302020302020302020302020302020302020302020302020300A2020202D302E303030302020202D302E3631383820202020302E303030302043202020302020302020302020302020302020302020302020302020302020302020302020300A2020202D302E303030302020202D312E3434333820202020302E30303030204F202020302020302020302020302020302020302020302020302020302020302020302020300A2020202D302E373134352020202D302E3230363220202020302E303030302043202020302020302020302020302020302020302020302020302020302020302020302020300A2020202D312E343238392020202D302E3631383720202020302E30303030204F202020302020302020302020302020302020302020302020302020302020302020302020300A2020202D302E3731343520202020302E3631383820202020302E303030302043202020302020302020302020302020302020302020302020302020302020302020302020300A2020202D302E3030303020202020312E3033313320202020302E30303030204F202020302020302020302020302020302020302020302020302020302020302020302020300A2020202D322E313433332020202D302E3230363220202020302E303030302043202020302020302020302020302020302020302020302020302020302020302020302020300A2020202D302E373134352020202D312E3835363220202020302E303030302043202020302020302020302020302020302020302020302020302020302020302020302020300A20202020322E313433332020202D302E3230363320202020302E303030302043202020302020302020302020302020302020302020302020302020302020302020302020300A20202020312E3432383920202020312E3835363220202020302E303030302043202020302020302020302020302020302020302020302020302020302020302020302020300A2020322020312020312020312020202020200A2020322020332020312020302020202020200A2020332020342020312020362020202020200A2020332020352020312020302020202020200A2020352020362020312020312020202020200A2020352020372020312020302020202020200A2020372020382020312020362020202020200A2020372020392020312020302020202020200A2020392031302020312020302020202020200A2020322031302020312020302020202020200A2020382031312020312020302020202020200A2020362031322020312020302020202020200A2020342031332020312020302020202020200A2020312031342020312020302020202020200A4D2020454E44
Contributor: HAYASHI A, DEPT. OF CHEMISTRY, FAC. OF SCI. AND TECHNOLOGY, KINKI UNIV.
InstType: EI
InstName: SHIMADZU LKB-9000B
IoniMethod: _ENERGY 70 eV
IonPolarity: pos
Date: 2010-10-09 19:48:36+02:00
Num Peaks: 43
41 89 42 18 43 67 44 1 45 297 46 4 47 18 53 2 54 2 55 41 
56 13 57 2 58 103 59 45 61 1 68 1 69 30 71 73 72 8 73 30 
74 30 75 442 76 7 83 3 84 2 85 40 87 19 88 999 89 54 98 2 
99 45 101 95 102 51 103 4 105 5 111 0 114 5 115 57 116 6 131 1 
143 26 175 34 176 68 
