Name: 3-ACETONYL-2-PENTYLCYCLOPENTANONE
MW: 210
Formula: C13H22O2
Synonym: MassBank: JP005640
Synonym: 3-ACETONYL-2-PENTYLCYCLOPENTANONE
Structure: 332D414345544F4E594C2D322D50454E54594C4359434C4F50454E54414E4F4E452E6D6F6C0A20204368656D447261773032323231303133323932440A2031352031352020302020302020302020302020302020302020302020303939392056323030300A2020202D312E333730342020202D302E3239383620202020302E303030302043202020302020302020302020302020302020302020302020302020302020302020302020300A2020202D302E3730323920202020302E3138363420202020302E303030302043202020302020302020302020302020302020302020302020302020302020302020302020300A2020202D302E303335352020202D302E3239383620202020302E303030302043202020302020302020302020302020302020302020302020302020302020302020302020300A2020202D302E323930342020202D312E3038333220202020302E303030302043202020302020302020302020302020302020302020302020302020302020302020302020300A2020202D312E313135342020202D312E3038333220202020302E303030302043202020302020302020302020302020302020302020302020302020302020302020302020300A2020202D302E3730323920202020312E3031313420202020302E303030302043202020302020302020302020302020302020302020302020302020302020302020302020300A20202020302E3031313620202020312E3432333920202020302E303030302043202020302020302020302020302020302020302020302020302020302020302020302020300A20202020302E3732363020202020312E3031313420202020302E303030302043202020302020302020302020302020302020302020302020302020302020302020302020300A20202020312E3434303520202020312E3432333920202020302E303030302043202020302020302020302020302020302020302020302020302020302020302020302020300A20202020322E3135353020202020312E3031313420202020302E303030302043202020302020302020302020302020302020302020302020302020302020302020302020300A20202020302E373439312020202D302E3034333620202020302E303030302043202020302020302020302020302020302020302020302020302020302020302020302020300A20202020312E333332352020202D302E3632373020202020302E303030302043202020302020302020302020302020302020302020302020302020302020302020302020300A20202020312E313139302020202D312E3432333920202020302E30303030204F202020302020302020302020302020302020302020302020302020302020302020302020300A20202020322E313239342020202D302E3431333520202020302E303030302043202020302020302020302020302020302020302020302020302020302020302020302020300A2020202D322E313535302020202D302E3034333620202020302E30303030204F202020302020302020302020302020302020302020302020302020302020302020302020300A2020312020322020312020302020202020200A2020322020332020312020302020202020200A2020332020342020312020302020202020200A2020342020352020312020302020202020200A2020312020352020312020302020202020200A2020362020372020312020302020202020200A2020372020382020312020302020202020200A2020382020392020312020302020202020200A2020392031302020312020302020202020200A2020322020362020312020302020202020200A2031312031322020312020302020202020200A2031322031332020322020302020202020200A2031322031342020312020302020202020200A2020332031312020312020302020202020200A2020312031352020322020302020202020200A4D2020454E44
Contributor: HASHIMOTO K, KYOTO COLLEGE OF PHARMACY
InstType: EI
InstName: HITACHI M-80
IoniMethod: _ENERGY 20 eV
IonPolarity: pos
Date: 2010-10-09 19:48:36+02:00
Num Peaks: 35
41 24 43 470 54 22 55 118 56 10 57 21 58 77 59 49 67 31 68 30 
69 101 70 11 71 19 79 17 80 11 81 42 82 999 83 467 84 39 95 74 
96 64 97 103 98 11 109 34 110 10 111 43 112 11 123 18 125 96 139 10 
140 139 152 85 153 397 154 51 210 20 
