Name: CHLOROTRIETHYLSILANE
CAS: 994-30-9
MW: 150
Formula: C6H15ClSi
Synonym: MassBank: JP004738
Synonym: CHLOROTRIETHYLSILANE
Structure: 310A32300A43484C4F524F545249455448594C53494C414E452E6D6F6C0A20204368656D447261773039303731303034353632440A2020382020372020302020302020302020302020302020302020302020303939392056323030300A20202020302E323036332020202D302E3030303020202020302E303030302053692020302020302020302020302020302020302020302020302020302020302020302020300A20202020302E323036332020202D302E3832353020202020302E303030302043202020302020302020302020302020302020302020302020302020302020302020302020300A20202020302E393230372020202D312E3233373520202020302E303030302043202020302020302020302020302020302020302020302020302020302020302020302020300A2020202D302E363138372020202D302E3030303020202020302E303030302043202020302020302020302020302020302020302020302020302020302020302020302020300A2020202D312E303331332020202D302E3731343520202020302E303030302043202020302020302020302020302020302020302020302020302020302020302020302020300A20202020302E3230363320202020302E3832353020202020302E303030302043202020302020302020302020302020302020302020302020302020302020302020302020300A20202020302E3932303720202020312E3233373520202020302E303030302043202020302020302020302020302020302020302020302020302020302020302020302020300A20202020312E303331332020202D302E3030303020202020302E3030303020436C2020302020302020302020302020302020302020302020302020302020302020302020300A2020322020332020312020302020202020200A2020312020322020312020302020202020200A2020342020352020312020302020202020200A2020312020342020312020302020202020200A2020362020372020312020302020202020200A2020312020362020312020302020202020200A2020312020382020312020302020202020200A4D2020454E44
Contributor: MASS SPECTROSCOPY SOC. OF JAPAN (MSSJ)
InstType: EI
InstName: JEOL JMS-D-3000
IoniMethod: _ENERGY 70 eV
IonPolarity: pos
Date: 2010-10-09 19:48:36+02:00
Num Peaks: 28
43 17 57 16 58 19 59 15 63 86 64 14 65 143 66 12 67 44 79 20 
86 20 87 27 91 27 92 48 93 710 94 69 95 264 96 19 114 22 115 43 
121 999 122 99 123 368 124 34 125 13 150 116 151 15 152 45 
