Name: 2-ALLYLOXYETHANOL
MW: 102
Formula: C5H10O2
Synonym: MassBank: JP005429
Synonym: 2-ALLYLOXYETHANOL
Synonym: ETHYLENE GLYCOL MONOALLYL ETHER
Structure: 310A31380A322D414C4C594C4F5859455448414E4F4C2E6D6F6C0A20204368656D447261773132323130393232303632440A2020372020362020302020302020302020302020302020302020302020303939392056323030300A2020202D312E3432383920202020302E3230363320202020302E303030302043202020302020302020302020302020302020302020302020302020302020302020302020300A2020202D302E373134352020202D302E3230363320202020302E303030302043202020302020302020302020302020302020302020302020302020302020302020302020300A20202020302E3030303020202020302E3230363320202020302E30303030204F202020302020302020302020302020302020302020302020302020302020302020302020300A20202020302E373134352020202D302E3230363220202020302E303030302043202020302020302020302020302020302020302020302020302020302020302020302020300A20202020312E3432383920202020302E3230363320202020302E303030302043202020302020302020302020302020302020302020302020302020302020302020302020300A20202020322E313433342020202D302E3230363220202020302E303030302043202020302020302020302020302020302020302020302020302020302020302020302020300A2020202D322E313433342020202D302E3230363320202020302E30303030204F202020302020302020302020302020302020302020302020302020302020302020302020300A2020312020322020312020302020202020200A2020342020352020312020302020202020200A2020352020362020322020302020202020200A2020332020342020312020302020202020200A2020322020332020312020302020202020200A2020312020372020312020302020202020200A4D2020454E44
Contributor: TAJIMA S, GUNMA COLLEGE OF TECHNOLOGY
InstType: EI
InstName: HITACHI RMU-7M
IoniMethod: _ENERGY 70 eV
IonPolarity: pos
Date: 2010-10-09 19:48:36+02:00
Num Peaks: 28
15 24 19 25 26 14 27 99 28 23 29 90 30 22 31 281 38 17 39 238 
40 40 41 999 42 188 43 141 44 51 45 299 54 10 55 55 56 32 57 188 
58 459 59 165 61 42 69 10 71 148 81 22 83 16 85 29 
