Name: MassBank: JP004503
MW: 335
Formula: C15H29NO7
Synonym: MassBank: JP004503
Synonym: 4-O-ACETYL-1,3,5,6-TETRA-O-METHYL-2-N-METHYLACETAMIDO-2-DEOXYHEXITOL
Synonym: 4-ACETOXY-1,3,5,6-TETRAMETHOXY-2-N-METHYLACETAMIDOHEXANE
Structure: 342D4F2D41434554594C2D312C332C352C362D54455452412D4F2D4D455448594C2D322D4E2D4D455448594C41434554414D49444F2D322D44454F585948455849544F4C2E6D6F6C0A20204368656D447261773033323531303034303932440A2032332032322020302020302020302020302020302020302020302020303939392056323030300A20202020312E323337352020202D302E3030303020202020302E303030302043202020302020302020302020302020302020302020302020302020302020302020302020300A20202020302E3832353020202020302E3731343520202020302E303030302043202020302020302020302020302020302020302020302020302020302020302020302020300A2020202D302E3030303020202020302E3731343520202020302E303030302043202020302020302020302020302020302020302020302020302020302020302020302020300A2020202D302E343132352020202D302E3030303020202020302E303030302043202020302020302020302020302020302020302020302020302020302020302020302020300A2020202D302E303030302020202D302E3731343520202020302E303030302043202020302020302020302020302020302020302020302020302020302020302020302020300A20202020302E383235302020202D302E3731343520202020302E303030302043202020302020302020302020302020302020302020302020302020302020302020302020300A20202020322E3036323520202020312E3432383920202020302E303030302043202020302020302020302020302020302020302020302020302020302020302020302020300A20202020322E3437353020202020322E3134333420202020302E303030302043202020302020302020302020302020302020302020302020302020302020302020302020300A20202020322E3437353020202020302E3731343520202020302E30303030204F202020302020302020302020302020302020302020302020302020302020302020302020300A20202020312E3233373520202020312E3432383920202020302E30303030204E202020302020302020302020302020302020302020302020302020302020302020302020300A20202020302E3832353020202020322E3134333420202020302E303030302043202020302020302020302020302020302020302020302020302020302020302020302020300A20202020312E323337352020202D312E3432383920202020302E30303030204F202020302020302020302020302020302020302020302020302020302020302020302020300A20202020302E383235302020202D322E3134333420202020302E303030302043202020302020302020302020302020302020302020302020302020302020302020302020300A2020202D302E343132352020202D312E3432383920202020302E30303030204F202020302020302020302020302020302020302020302020302020302020302020302020300A2020202D302E303030302020202D322E3134333420202020302E303030302043202020302020302020302020302020302020302020302020302020302020302020302020300A2020202D302E3431323520202020312E3432383920202020302E30303030204F202020302020302020302020302020302020302020302020302020302020302020302020300A2020202D302E3030303020202020322E3134333420202020302E303030302043202020302020302020302020302020302020302020302020302020302020302020302020300A20202020322E303632352020202D302E3030303020202020302E30303030204F202020302020302020302020302020302020302020302020302020302020302020302020300A20202020322E343735302020202D302E3731343520202020302E303030302043202020302020302020302020302020302020302020302020302020302020302020302020300A2020202D312E323337352020202D302E3030303020202020302E30303030204F202020302020302020302020302020302020302020302020302020302020302020302020300A2020202D312E3635303020202020302E3731343520202020302E303030302043202020302020302020302020302020302020302020302020302020302020302020302020300A2020202D322E3437353020202020302E3731343520202020302E30303030204F202020302020302020302020302020302020302020302020302020302020302020302020300A2020202D312E3233373520202020312E3432383920202020302E303030302043202020302020302020302020302020302020302020302020302020302020302020302020300A2020312020322020312020302020202020200A2020322020332020312020302020202020200A2020332020342020312020302020202020200A2020342020352020312020302020202020200A2020352020362020312020302020202020200A2020372020382020312020302020202020200A2020372020392020322020302020202020200A2020372031302020312020302020202020200A2031302031312020312020302020202020200A2020322031302020312020302020202020200A2031322031332020312020302020202020200A2020362031322020312020302020202020200A2031342031352020312020302020202020200A2020352031342020312020302020202020200A2031362031372020312020302020202020200A2020332031362020312020302020202020200A2031382031392020312020302020202020200A2020312031382020312020302020202020200A2032312032322020322020302020202020200A2032312032332020312020302020202020200A2032302032312020312020302020202020200A2020342032302020312020302020202020200A4D2020454E44
Contributor: SEYAMA Y, DEPT. OF PHYSIOL. CHEMISTRY AND NUTRITION, FAC. OF MEDICINE, UNIV. OF TOKYO
InstType: EI
InstName: SHIMADZU LKB-9000B
IoniMethod: _ENERGY 70 eV
IonPolarity: pos
Date: 2010-10-09 19:48:36+02:00
Num Peaks: 62
41 20 42 33 43 183 44 2 45 172 55 10 56 87 57 4 58 28 59 94 
68 11 71 3 72 31 73 13 74 43 75 2 85 20 86 35 87 51 88 999 
89 296 90 15 98 24 99 8 100 43 101 396 102 21 110 1 112 16 113 97 
114 25 115 1 116 11 117 27 118 11 124 8 125 23 126 11 128 29 129 5 
130 873 131 97 132 16 142 20 143 28 145 43 156 106 157 6 170 20 172 14 
173 64 174 5 184 25 188 23 198 36 205 45 206 46 216 17 230 60 248 2 
290 158 291 24 
