Name: MassBank: JP000377
MW: 60
Formula: C2H8N2
Synonym: MassBank: JP000377
Synonym: 1,1-DIMETHYLHYDRAZINE
Structure: 310A31320A312C312D44494D455448594C48594452415A494E452E6D6F6C0A20204368656D447261773130323330393130353432440A2020342020332020302020302020302020302020302020302020302020303939392056323030300A20202020302E3230363220202020302E3030303020202020302E30303030204E202020302020302020302020302020302020302020302020302020302020302020302020300A20202020302E3631383820202020302E3731343520202020302E30303030204E202020302020302020302020302020302020302020302020302020302020302020302020300A20202020302E363138382020202D302E3731343520202020302E303030302043202020302020302020302020302020302020302020302020302020302020302020302020300A2020202D302E3631383820202020302E3030303020202020302E303030302043202020302020302020302020302020302020302020302020302020302020302020302020300A2020312020322020312020302020202020200A2020312020332020312020302020202020200A2020312020342020312020302020202020200A4D2020454E44
Contributor: SASAKI S, TOYOHASHI UNIV. OF TECH.
InstType: EI
InstName: SHIMADZU LKB-2091
IoniMethod: _ENERGY 70 eV
IonPolarity: pos
Date: 2010-10-09 19:48:36+02:00
Num Peaks: 17
27 38 28 275 29 76 30 27 31 46 40 30 41 43 42 62 43 253 44 119 
45 459 46 1 57 15 58 13 59 485 60 999 61 39 
