Name: MassBank: JP003667
MW: 200
Formula: C7H2F6
Synonym: MassBank: JP003667
Synonym: 1,2,3,4,7,7-HEXAFLUOROBICYCLO(2.2.1)HEPTA-2,5-DIENE
Structure: 312C322C332C342C372C372D48455841464C554F524F42494359434C4F28322E322E312948455054412D322C352D4449454E452E6D6F6C0A20204368656D447261773130323330393132343032440A2031352031362020302020302020302020302020302020302020302020303939392056323030300A2020202D302E3731343520202020302E3431323520202020302E303030302043202020302020302020302020302020302020302020302020302020302020302020302020300A2020202D302E373134352020202D302E3431323520202020302E303030302043202020302020302020302020302020302020302020302020302020302020302020302020300A20202020302E303030302020202D302E3832353020202020302E303030302043202020302020302020302020302020302020302020302020302020302020302020302020300A20202020302E373134352020202D302E3431323520202020302E303030302043202020302020302020302020302020302020302020302020302020302020302020302020300A20202020302E3731343520202020302E3431323520202020302E303030302043202020302020302020302020302020302020302020302020302020302020302020302020300A20202020302E3030303020202020302E3832353020202020302E303030302043202020302020302020302020302020302020302020302020302020302020302020302020300A2020202D312E3432383920202020302E3832353020202020302E303030302046202020302020302020302020302020302020302020302020302020302020302020302020300A20202020302E3030303020202020312E3635303020202020302E303030302046202020302020302020302020302020302020302020302020302020302020302020302020300A20202020312E3432383920202020302E3832353020202020302E303030302046202020302020302020302020302020302020302020302020302020302020302020302020300A20202020312E343238392020202D302E3832353020202020302E303030302046202020302020302020302020302020302020302020302020302020302020302020302020300A20202020302E3038323420202020302E3139393020202020302E303030302043202020302020302020302020302020302020302020302020302020302020302020302020300A20202020302E3438393020202020302E3931363820202020302E303030302046202020302020302020302020302020302020302020302020302020302020302020302020300A2020202D302E333234322020202D302E3531383920202020302E303030302046202020302020302020302020302020302020302020302020302020302020302020302020300A2020202D312E343238392020202D302E3832353020202020302E303030302048202020302020302020302020302020302020302020302020302020302020302020302020300A20202020302E303030302020202D312E3635303020202020302E303030302048202020302020302020302020302020302020302020302020302020302020302020302020300A2020312020322020312020302020202020200A2020322020332020322020302020202020200A2020332020342020312020302020202020200A2020342020352020312020302020202020200A2020352020362020322020302020202020200A2020362020312020312020302020202020200A2020312020372020312020302020202020200A2020362020382020312020302020202020200A2020352020392020312020302020202020200A2020342031302020312020302020202020200A2020312031312020312020302020202020200A2031312020342020312020302020202020200A2031312031322020312020312020202020200A2031312031332020312020312020202020200A2020322031342020312020302020202020200A2020332031352020312020302020202020200A4D2020454E44
Contributor: SASAKI S, TOYOHASHI UNIV. OF TECH.
InstType: EI
InstName: Unknown
IoniMethod: EI
IonPolarity: pos
Date: 2010-10-09 19:48:36+02:00
Num Peaks: 10
69 500 74 250 81 430 93 50 124 300 131 180 150 999 174 3 181 600 200 650 
