Name: MassBank: JP006027
MW: 118
Formula: C4H14Si2
Synonym: MassBank: JP006027
Synonym: 1,1,2,2-TETRAMETHYLDISILANE (SI-D2)
Structure: 310A32310A312C312C322C322D54455452414D455448594C444953494C414E45202853492D4432292E6D6F6C0A20204368656D447261773130323330393031323932440A2020382020372020302020302020302020302020302020302020302020303939392056323030300A20202020302E3431323520202020302E3030303020202020302E303030302053692020302020302020302020302020302020302020302020302020302020302020302020300A2020202D302E3431323520202020302E3030303020202020302E303030302053692020302020302020302020302020302020302020302020302020302020302020302020300A2020202D302E343132352020202D302E3832353020202020302E303030302043202020302020302020302020302020302020302020302020302020302020302020302020300A2020202D312E3233373520202020302E3030303020202020302E303030302043202020302020302020302020302020302020302020302020302020302020302020302020300A20202020302E3431323520202020302E3832353020202020302E303030302043202020302020302020302020302020302020302020302020302020302020302020302020300A20202020312E3233373520202020302E3030303020202020302E303030302043202020302020302020302020302020302020302020302020302020302020302020302020300A20202020302E343132352020202D302E3832353020202020302E303030302048202020312020302020302020302020302020302020302020302020302020302020302020300A2020202D302E3431323520202020302E3832353020202020302E303030302048202020312020302020302020302020302020302020302020302020302020302020302020300A2020312020322020312020302020202020200A2020322020332020312020302020202020200A2020322020342020312020302020202020200A2020312020352020312020302020202020200A2020312020362020312020302020202020200A2020312020372020312020302020202020200A2020322020382020312020302020202020200A4D202049534F202032202020372020203220202038202020320A4D2020454E44
Contributor: YAMAMOTO M, DEP. CHEMISTRY, FAC. SCIENCE, NARA WOMEN'S UNIV.
InstType: EI
InstName: HITACHI RMU-6M
IoniMethod: _ENERGY 20 eV
IonPolarity: pos
Date: 2010-10-09 19:48:36+02:00
Num Peaks: 41
28 10 31 17 32 9 39 1 43 176 44 24 45 22 46 1 52 9 57 9 
58 758 59 11 60 999 61 74 62 35 72 2 73 906 74 125 75 39 76 1 
77 12 78 100 79 7 86 1 88 13 89 5 99 5 100 1 101 37 102 30 
103 115 104 3 105 323 106 40 107 24 116 1 118 61 119 19 120 471 121 7 
122 37 
