Name: 3-ACETYL-9-METHYLCARBAZOLE
MW: 223
Formula: C15H13NO
Synonym: MassBank: JP004425
Synonym: 3-ACETYL-9-METHYLCARBAZOLE
Structure: 332D41434554594C2D392D4D455448594C43415242415A4F4C452E6D6F6C0A20204368656D447261773032323231303133333832440A2031372031392020302020302020302020302020302020302020302020303939392056323030300A20202020312E303030382020202D302E3736363420202020302E30303030204E202020302020302020302020302020302020302020302020302020302020302020302020300A20202020302E323136322020202D302E3531313520202020302E303030302043202020302020302020302020302020302020302020302020302020302020302020302020300A2020202D302E343938332020202D302E3932343020202020302E303030302043202020302020302020302020302020302020302020302020302020302020302020302020300A2020202D312E323132382020202D302E3531313520202020302E303030302043202020302020302020302020302020302020302020302020302020302020302020302020300A2020202D312E3231323820202020302E3331333520202020302E303030302043202020302020302020302020302020302020302020302020302020302020302020302020300A2020202D302E3439383320202020302E3732363020202020302E303030302043202020302020302020302020302020302020302020302020302020302020302020302020300A20202020302E3231363220202020302E3331333520202020302E303030302043202020302020302020302020302020302020302020302020302020302020302020302020300A20202020312E3030303820202020302E3536383520202020302E303030302043202020302020302020302020302020302020302020302020302020302020302020302020300A20202020312E3333363320202020312E3332323120202020302E303030302043202020302020302020302020302020302020302020302020302020302020302020302020300A20202020322E3135363820202020312E3430383420202020302E303030302043202020302020302020302020302020302020302020302020302020302020302020302020300A20202020322E3634313720202020302E3734303920202020302E303030302043202020302020302020302020302020302020302020302020302020302020302020302020300A20202020322E333036322020202D302E3031323720202020302E303030302043202020302020302020302020302020302020302020302020302020302020302020302020300A20202020312E343835372020202D302E3039393020202020302E303030302043202020302020302020302020302020302020302020302020302020302020302020302020300A20202020312E323535372020202D312E3535313020202020302E303030302043202020302020302020302020302020302020302020302020302020302020302020302020300A2020202D312E3932373320202020302E3732363020202020302E303030302043202020302020302020302020302020302020302020302020302020302020302020302020300A2020202D312E3932373320202020312E3535313020202020302E30303030204F202020302020302020302020302020302020302020302020302020302020302020302020300A2020202D322E3634313720202020302E3331333520202020302E303030302043202020302020302020302020302020302020302020302020302020302020302020302020300A2020312020322020312020302020202020200A2020322020332020312020302020202020200A2020332020342020322020302020202020200A2020342020352020312020302020202020200A2020352020362020322020302020202020200A2020362020372020312020302020202020200A2020322020372020322020302020202020200A2020372020382020312020302020202020200A2020382020392020312020302020202020200A2020392031302020322020302020202020200A2031302031312020312020302020202020200A2031312031322020322020302020202020200A2031322031332020312020302020202020200A2020382031332020322020302020202020200A2020312031332020312020302020202020200A2020312031342020312020302020202020200A2031352031362020322020302020202020200A2031352031372020312020302020202020200A2020352031352020312020302020202020200A4D2020454E44
Contributor: SASAKI S, TOYOHASHI UNIV. OF TECH.
InstType: EI
InstName: MX-1303
IoniMethod: _ENERGY 50 eV
IonPolarity: pos
Date: 2010-10-09 19:48:36+02:00
Num Peaks: 42
41 39 43 67 44 28 45 2 55 36 57 37 60 13 69 5 71 15 73 11 
76 21 77 2 81 16 83 12 89 10 89.5 1 90 30 97 10 97.5 17 104 8 
127 13 138 11 139 13 149 2 150 11 151 67 152 198 153 4 164 28 165 17 
177 11 178 5 179 63 180 333 181 39 194 2 207 23 208 999 209 222 222 2 
223 778 224 97 
