Name: MassBank: JP009528
MW: 166
Formula: C8H6O4
Synonym: MassBank: JP009528
Synonym: PIPERONYLIC ACID-2,2-D2
Structure: 303734325F50495045524F4E594C494320414349442D322C322D44322E6D6F6C0A20204368656D447261773038323031303039353332440A2031342031352020302020302020302020302020302020302020302020303939392056323030300A2020202D312E383335312020202D302E3535303720202020302E303030302043202020302020302020302020302020302020302020302020302020302020302020302020300A2020202D312E303130312020202D302E3535303720202020302E303030302043202020302020302020302020302020302020302020302020302020302020302020302020300A2020202D302E3539373620202020302E3136333720202020302E303030302043202020302020302020302020302020302020302020302020302020302020302020302020300A20202020302E3232373420202020302E3136333720202020302E303030302043202020302020302020302020302020302020302020302020302020302020302020302020300A20202020302E3737393520202020302E3737363820202020302E30303030204F202020302020302020302020302020302020302020302020302020302020302020302020300A20202020312E3533333220202020302E3434313320202020302E303030302043202020302020302020302020302020302020302020302020302020302020302020302020300A20202020312E343436392020202D302E3337393220202020302E30303030204F202020302020302020302020302020302020302020302020302020302020302020302020300A20202020302E363339392020202D302E3535303720202020302E303030302043202020302020302020302020302020302020302020302020302020302020302020302020300A20202020302E323237342020202D312E3236353220202020302E303030302043202020302020302020302020302020302020302020302020302020302020302020302020300A2020202D302E353937362020202D312E3236353220202020302E303030302043202020302020302020302020302020302020302020302020302020302020302020302020300A2020202D322E323437362020202D312E3236353220202020302E30303030204F202020302020302020302020302020302020302020302020302020302020302020302020300A2020202D322E3234373620202020302E3136333720202020302E30303030204F202020302020302020302020302020302020302020302020302020302020302020302020300A20202020322E3234373620202020302E3835333820202020302E303030302048202020312020302020302020302020302020302020302020302020302020302020302020300A20202020312E3439303020202020312E3236353220202020302E303030302048202020312020302020302020302020302020302020302020302020302020302020302020300A2020312020322020312020302020202020200A2020322020332020312020302020202020200A2020332020342020322020302020202020200A2020342020352020312020302020202020200A2020352020362020312020302020202020200A2020362020372020312020302020202020200A2020342020382020312020302020202020200A2020372020382020312020302020202020200A2020382020392020322020302020202020200A2020392031302020312020302020202020200A2020322031302020322020302020202020200A2020312031312020322020302020202020200A2020312031322020312020302020202020200A2020362031332020312020302020202020200A2020362031342020312020302020202020200A4D202049534F202032202031332020203220203134202020320A4D2020454E44
Contributor: NARA WOMEN'S UNIVERSITY
InstType: EI
InstName: HITACHI M-80
IoniMethod: _ENERGY 25 eV
IonPolarity: pos
Date: 2010-10-09 19:48:36+02:00
Num Peaks: 28
28 16 30 15 52 18 63 30 64 10 66 24 67 40 68 10 69 10 82 18 
83 10 91 38 119 80 120 26 121 10 122 28 123 82 124 10 149 10 150 60 
151 273 152 34 165 80 166 680 167 300 168 999 169 125 170 15 
