Name: 3-ACETYL-N-DODECYL-2-PYRROLIDONE
MW: 295
Formula: C18H33NO2
Synonym: MassBank: JP004136
Synonym: 3-ACETYL-N-DODECYL-2-PYRROLIDONE
Structure: 332D41434554594C2D4E2D444F444543594C2D322D505952524F4C49444F4E452E6D6F6C0A20204368656D447261773032323231303133333932440A2032312032312020302020302020302020302020302020302020302020303939392056323030300A20202020302E303735332020202D322E3938313320202020302E30303030204E202020302020302020302020302020302020302020302020302020302020302020302020300A2020202D302E323630332020202D332E3733343920202020302E303030302043202020302020302020302020302020302020302020302020302020302020302020302020300A20202020302E333532382020202D342E3238373020202020302E303030302043202020302020302020302020302020302020302020302020302020302020302020302020300A20202020312E303637332020202D332E3837343520202020302E303030302043202020302020302020302020302020302020302020302020302020302020302020302020300A20202020302E383935372020202D332E3036373520202020302E303030302043202020302020302020302020302020302020302020302020302020302020302020302020300A2020202D312E303637332020202D332E3930363520202020302E30303030204F202020302020302020302020302020302020302020302020302020302020302020302020300A2020202D302E333337322020202D322E3236363820202020302E303030302043202020302020302020302020302020302020302020302020302020302020302020302020300A20202020302E303735332020202D312E3535323320202020302E303030302043202020302020302020302020302020302020302020302020302020302020302020302020300A2020202D302E333337322020202D302E3833373920202020302E303030302043202020302020302020302020302020302020302020302020302020302020302020302020300A20202020302E303735332020202D302E3132333420202020302E303030302043202020302020302020302020302020302020302020302020302020302020302020302020300A2020202D302E3333373220202020302E3539313120202020302E303030302043202020302020302020302020302020302020302020302020302020302020302020302020300A20202020302E3037353320202020312E3330353620202020302E303030302043202020302020302020302020302020302020302020302020302020302020302020302020300A2020202D302E3333373220202020322E3032303020202020302E303030302043202020302020302020302020302020302020302020302020302020302020302020302020300A20202020302E3037353320202020322E3733343520202020302E303030302043202020302020302020302020302020302020302020302020302020302020302020302020300A2020202D302E3333373220202020332E3434393020202020302E303030302043202020302020302020302020302020302020302020302020302020302020302020302020300A20202020302E3037353320202020342E3136333420202020302E303030302043202020302020302020302020302020302020302020302020302020302020302020302020300A2020202D302E3333373220202020342E3837373920202020302E303030302043202020302020302020302020302020302020302020302020302020302020302020302020300A20202020302E3037353320202020352E3539323420202020302E303030302043202020302020302020302020302020302020302020302020302020302020302020302020300A20202020302E323636362020202D352E3130373520202020302E303030302043202020302020302020302020302020302020302020302020302020302020302020302020300A2020202D302E343837312020202D352E3434333020202020302E30303030204F202020302020302020302020302020302020302020302020302020302020302020302020300A20202020302E393334302020202D352E3539323420202020302E303030302043202020302020302020302020302020302020302020302020302020302020302020302020300A2020312020322020312020302020202020200A2020322020332020312020302020202020200A2020332020342020312020302020202020200A2020342020352020312020302020202020200A2020312020352020312020302020202020200A2020322020362020322020302020202020200A2020372020382020312020302020202020200A2020382020392020312020302020202020200A2020392031302020312020302020202020200A2031302031312020312020302020202020200A2031312031322020312020302020202020200A2031322031332020312020302020202020200A2031332031342020312020302020202020200A2031342031352020312020302020202020200A2031352031362020312020302020202020200A2031362031372020312020302020202020200A2031372031382020312020302020202020200A2020312020372020312020302020202020200A2031392032302020322020302020202020200A2031392032312020312020302020202020200A2020332031392020312020302020202020200A4D2020454E44
Contributor: MASS SPECTROSCOPY SOC. OF JAPAN (MSSJ)
InstType: EI
InstName: HITACHI RMU-6E
IoniMethod: _ENERGY 70 eV
IonPolarity: pos
Date: 2010-10-09 19:48:36+02:00
Num Peaks: 177
27 100 28 84 29 180 30 95 31 25 32 4 37 4 38 1 39 98 40 14 
41 420 42 14 43 420 44 184 45 72 46 0 50 6 51 12 52 8 53 6 
54 50 55 270 56 118 57 11 58 40 59 26 60 70 61 0 65 8 66 8 
67 44 68 4 69 168 70 200 71 36 72 16 73 210 74 10 77 8 78 1 
79 10 80 32 81 25 82 6 83 110 84 130 85 32 86 18 87 56 88 3 
91 4 92 0 93 14 94 138 95 310 96 7 97 60 98 999 99 440 100 13 
101 36 102 3 106 8 107 1 108 70 109 26 110 17 111 2 112 124 113 50 
114 98 115 2 116 2 121 7 122 30 123 2 124 16 125 6 126 104 127 4 
128 40 129 14 130 2 133 0 134 8 135 5 136 32 137 1 138 12 139 3 
140 54 141 2 142 44 143 8 144 2 146 0 148 3 149 3 150 28 151 1 
152 6 153 3 154 34 155 1 156 36 157 7 162 3 163 0 164 24 165 5 
166 6 168 3 169 12 170 28 171 6 178 2 179 5 180 3 181 3 182 3 
183 7 184 32 185 28 186 1 192 16 193 3 194 3 196 3 197 10 198 28 
199 3 206 1 207 3 208 3 210 26 211 1 212 34 213 7 220 12 221 0 
222 2 224 17 225 6 226 1 227 88 228 22 229 3 234 5 235 10 236 14 
237 3 238 12 239 25 240 3 248 22 249 11 250 26 251 8 252 26 253 16 
254 34 255 7 262 5 263 0 264 2 265 2 266 13 267 0 268 2 276 3 
277 7 278 0 279 2 280 3 281 3 294 0 295 2 
