Name: 4-PHENYLPYRIDINE
MW: 155
Formula: C11H9N
Synonym: MassBank: JP002053
Synonym: 4-PHENYLPYRIDINE
Structure: 342D5048454E594C5059524944494E452E6D6F6C0A20204368656D447261773034323231303230353932440A2031322031332020302020302020302020302020302020302020302020303939392056323030300A2020202D312E3635303020202020302E3731343520202020302E303030302043202020302020302020302020302020302020302020302020302020302020302020302020300A2020202D302E3832353020202020302E3731343520202020302E303030302043202020302020302020302020302020302020302020302020302020302020302020302020300A2020202D302E343132352020202D302E3030303020202020302E303030302043202020302020302020302020302020302020302020302020302020302020302020302020300A2020202D302E383235302020202D302E3731343520202020302E303030302043202020302020302020302020302020302020302020302020302020302020302020302020300A2020202D312E363530302020202D302E3731343520202020302E303030302043202020302020302020302020302020302020302020302020302020302020302020302020300A2020202D322E3036323520202020302E3030303020202020302E30303030204E202020302020302020302020302020302020302020302020302020302020302020302020300A20202020302E343132352020202D302E3030303020202020302E303030302043202020302020302020302020302020302020302020302020302020302020302020302020300A20202020302E3832353020202020302E3731343520202020302E303030302043202020302020302020302020302020302020302020302020302020302020302020302020300A20202020312E3635303020202020302E3731343520202020302E303030302043202020302020302020302020302020302020302020302020302020302020302020302020300A20202020322E3036323520202020302E3030303020202020302E303030302043202020302020302020302020302020302020302020302020302020302020302020302020300A20202020312E363530302020202D302E3731343520202020302E303030302043202020302020302020302020302020302020302020302020302020302020302020302020300A20202020302E383235302020202D302E3731343520202020302E303030302043202020302020302020302020302020302020302020302020302020302020302020302020300A2020312020322020322020302020202020200A2020322020332020312020302020202020200A2020332020342020322020302020202020200A2020342020352020312020302020202020200A2020352020362020322020302020202020200A2020312020362020312020302020202020200A2020372020382020312020302020202020200A2020382020392020322020302020202020200A2020392031302020312020302020202020200A2031302031312020322020302020202020200A2031312031322020312020302020202020200A2020372031322020322020302020202020200A2020332020372020312020302020202020200A4D2020454E44
Contributor: SASAKI S, TOYOHASHI UNIV. OF TECH.
InstType: EI
InstName: MX-1303
IoniMethod: _ENERGY 50 eV
IonPolarity: pos
Date: 2010-10-09 19:48:36+02:00
Num Peaks: 64
26 22 27 38 28 52 29 1 38 14 39 48 40 10 41 3 42 12 43 22 
44 91 50 7 51 118 52 40 53 15 55 2 56 11 57 14 61 11 62 3 
63 69 64 50 65 21 67 1 69 10 74 45 75 52 76 6 77 83 77.5 22 
78 42 79 2 86 11 87 18 88 12 89 2 91 35 92 11 93 12 98 2 
99 12 100 12 101 36 102 12 103 22 104 14 105 16 106 15 107 20 115 108 
116 24 117 1 125 10 126 55 127 128 128 14 129 32 140 44 152 14 153 4 
154 310 155 999 156 118 157 11 
