Name: (1R)-(-)-MYRTENOL
CAS: 515-00-4
MW: 152
Formula: C10H16O
Synonym: MassBank: JP005732
Synonym: (1R)-(-)-MYRTENOL
Structure: 283152292D282D292D4D595254454E4F4C2E6D6F6C0A20204368656D447261773130313930393132313532440A2031342031352020302020302020302020302020302020302020302020303939392056323030300A2020202D302E3635383920202020302E3030303020202020302E303030302043202020302020302020302020302020302020302020302020302020302020302020302020300A2020202D302E363538392020202D302E3832353020202020302E303030302043202020302020302020302020302020302020302020302020302020302020302020302020300A20202020302E303535352020202D312E3233373520202020302E303030302043202020302020302020302020302020302020302020302020302020302020302020302020300A20202020302E373730302020202D302E3832353020202020302E303030302043202020302020302020302020302020302020302020302020302020302020302020302020300A20202020302E3737303020202020302E3030303020202020302E303030302043202020302020302020302020302020302020302020302020302020302020302020302020300A20202020302E3035353520202020302E3431323520202020302E303030302043202020302020302020302020302020302020302020302020302020302020302020302020300A20202020302E303535352020202D302E3431323520202020302E303030302043202020302020302020302020302020302020302020302020302020302020302020302020300A20202020302E3035353520202020312E3233373520202020302E303030302043202020302020302020302020302020302020302020302020302020302020302020302020300A20202020312E3438343520202020302E3431323520202020302E303030302048202020302020302020302020302020302020302020302020302020302020302020302020300A20202020302E3035353520202020322E3036323520202020302E30303030204F202020302020302020302020302020302020302020302020302020302020302020302020300A2020202D312E3337333420202020302E3431323520202020302E303030302048202020302020302020302020302020302020302020302020302020302020302020302020300A20202020302E303535352020202D322E3036323520202020302E303030302048202020302020302020302020302020302020302020302020302020302020302020302020300A2020202D312E343834352020202D302E3832353020202020302E303030302043202020302020302020302020302020302020302020302020302020302020302020302020300A2020202D302E383732362020202D312E3632313120202020302E303030302043202020302020302020302020302020302020302020302020302020302020302020302020300A2020312020322020312020302020202020200A2020322020332020312020302020202020200A2020332020342020312020302020202020200A2020342020352020312020302020202020200A2020352020362020322020302020202020200A2020362020312020312020302020202020200A2020312020372020312020312020202020200A2020332020372020312020312020202020200A2020362020382020312020302020202020200A2020352020392020312020302020202020200A2020382031302020322020302020202020200A2020312031312020312020362020202020200A2020332031322020312020362020202020200A2020322031332020312020312020202020200A2020322031342020312020362020202020200A4D202053545920203120202031205355500A4D2020534C4220203120202031202020310A4D202053414C20202031202031202031330A4D202053424C20202031202031202031340A4D2020534D5420202031204D650A4D2020534256202020312031342020202D372E3531343420202020352E353638370A4D202053545920203120202032205355500A4D2020534C4220203120202032202020320A4D202053414C20202032202031202031340A4D202053424C20202032202031202031350A4D2020534D5420202032204D650A4D2020534256202020322031352020202D362E3930323520202020342E373732360A4D2020454E44
Contributor: MASS SPECTROSCOPY SOC. OF JAPAN (MSSJ)
InstType: EI
InstName: HITACHI M-80
IoniMethod: _ENERGY 70 eV
IonPolarity: pos
Date: 2010-10-09 19:48:36+02:00
Num Peaks: 82
14 17 15 34 16 16 17 74 18 293 19 5 26 23 27 286 28 195 29 144 
30 5 31 182 32 53 37 6 38 24 39 356 40 52 41 405 42 37 43 208 
44 9 45 5 50 36 51 107 52 50 53 69 54 29 55 154 56 20 57 23 
58 5 59 30 62 9 63 34 64 8 65 88 66 39 67 159 68 35 69 53 
70 19 71 5 74 4 75 5 76 3 77 215 78 70 79 999 80 100 81 87 
82 25 83 30 84 4 85 23 89 7 90 5 91 420 92 93 93 165 94 25 
95 46 96 27 97 5 98 8 103 20 104 10 105 76 106 30 107 69 108 220 
109 62 110 9 117 15 119 126 120 14 121 65 122 7 123 5 134 13 135 4 
137 7 152 15 
