Name: MassBank: JP005474
MW: 340
Formula: C18H32N2O4
Synonym: MassBank: JP005474
Synonym: MESO-N,N'-DI-TERT-BUTOXYCARBONYL-2,2'-BIPYRROLIDINE
Structure: 313030395F4D45534F2D4E2C4E272D44492D544552542D4255544F5859434152424F4E594C2D322C32272D4249505952524F4C4944494E452E6D6F6C0A20204368656D447261773039303631303231353532440A2032362032372020302020302020302020302020302020302020302020303939392056323030300A2020202D312E353932342020202D322E3035323120202020302E303030302043202020302020302020302020302020302020302020302020302020302020302020302020300A2020202D312E383734352020202D312E3237363920202020302E303030302043202020302020302020302020302020302020302020302020302020302020302020302020300A2020202D312E323232382020202D302E3736363520202020302E30303030204E202020302020302020302020302020302020302020302020302020302020302020302020300A2020202D302E353430352020202D312E3233303320202020302E303030302043202020302020302020302020302020302020302020302020302020302020302020302020300A2020202D302E373637392020202D322E3032333420202020302E303030302043202020302020302020302020302020302020302020302020302020302020302020302020300A20202020302E353332302020202D312E3233303320202020302E303030302043202020302020302020302020302020302020302020302020302020302020302020302020300A20202020302E373539342020202D322E3032333420202020302E303030302043202020302020302020302020302020302020302020302020302020302020302020302020300A20202020312E353833392020202D322E3035323120202020302E303030302043202020302020302020302020302020302020302020302020302020302020302020302020300A20202020312E383636312020202D312E3237363920202020302E303030302043202020302020302020302020302020302020302020302020302020302020302020302020300A20202020312E323135342020202D302E3737323720202020302E30303030204E202020302020302020302020302020302020302020302020302020302020302020302020300A2020202D302E3537343520202020302E3533323320202020302E30303030204F202020302020302020302020302020302020302020302020302020302020302020302020300A2020202D312E3235323020202020302E3035363420202020302E303030302043202020302020302020302020302020302020302020302020302020302020302020302020300A2020202D312E3939373420202020302E3430373820202020302E30303030204F202020302020302020302020302020302020302020302020302020302020302020302020300A20202020302E3536373820202020302E3532343820202020302E30303030204F202020302020302020302020302020302020302020302020302020302020302020302020300A20202020312E3234343220202020302E3035333920202020302E303030302043202020302020302020302020302020302020302020302020302020302020302020302020300A20202020312E3939333420202020302E3339393420202020302E30303030204F202020302020302020302020302020302020302020302020302020302020302020302020300A20202020322E3036363320202020312E3232323720202020302E303030302043202020302020302020302020302020302020302020302020302020302020302020302020300A20202020312E3234343620202020312E3239363420202020302E303030302043202020302020302020302020302020302020302020302020302020302020302020302020300A20202020322E3133393920202020322E3034343420202020302E303030302043202020302020302020302020302020302020302020302020302020302020302020302020300A20202020322E3838383020202020312E3134393020202020302E303030302043202020302020302020302020302020302020302020302020302020302020302020302020300A2020202D322E3036353820202020312E3233303020202020302E303030302043202020302020302020302020302020302020302020302020302020302020302020302020300A2020202D312E3234333720202020312E3239383420202020302E303030302043202020302020302020302020302020302020302020302020302020302020302020302020300A2020202D322E3133343320202020322E3035323120202020302E303030302043202020302020302020302020302020302020302020302020302020302020302020302020300A2020202D322E3838383020202020312E3136313620202020302E303030302043202020302020302020302020302020302020302020302020302020302020302020302020300A2020202D302E323530362020202D302E3435373920202020302E303030302048202020302020302020302020302020302020302020302020302020302020302020302020300A20202020302E323938362020202D302E3433393020202020302E303030302048202020302020302020302020302020302020302020302020302020302020302020302020300A2020312020322020312020302020202020200A2020322020332020312020302020202020200A2020332020342020312020302020202020200A2020342020352020312020302020202020200A2020352020312020312020302020202020200A2020342020362020312020302020202020200A2020332031322020312020302020202020200A2020362020372020312020302020202020200A2020372020382020312020302020202020200A2020382020392020312020302020202020200A2020392031302020312020302020202020200A2031302020362020312020302020202020200A2031302031352020312020302020202020200A2031312031322020322020302020202020200A2031322031332020312020302020202020200A2031342031352020322020302020202020200A2031352031362020312020302020202020200A2031362031372020312020302020202020200A2031372031382020312020302020202020200A2031372031392020312020302020202020200A2031372032302020312020302020202020200A2031332032312020312020302020202020200A2032312032322020312020302020202020200A2032312032332020312020302020202020200A2032312032342020312020302020202020200A2020342032352020312020312020202020200A2020362032362020312020312020202020200A4D2020454E44
Contributor: HIRAMA M, TOHOKU UNIV. FACULTY OF SCIENCE DEPT. OF CHEMISTRY YUKIBUNSEKI
InstType: EI
InstName: HITACHI M-52
IoniMethod: _ENERGY 25 eV
IonPolarity: pos
Date: 2010-10-09 19:48:36+02:00
Num Peaks: 38
18 145 28 135 32 36 39 2 41 46 43 28 55 14 56 3 57 558 58 28 
68 15 69 3 70 681 71 73 83 17 89 1 96 34 110 19 113 94 114 999 
115 140 116 42 167 193 168 2 169 52 170 229 171 28 183 4 184 48 227 20 
239 106 240 27 241 42 283 43 284 43 285 2 340 109 341 38 
