Name: CIS-3-HEXENYL ISOBUTYRATE
MW: 170
Formula: C10H18O2
Synonym: MassBank: JP006973
Synonym: CIS-3-HEXENYL ISOBUTYRATE
Structure: 4349532D332D484558454E594C2049534F42555459524154452E6D6F6C0A20204368656D447261773039303831303134323232440A2031322031312020302020302020302020302020302020302020302020303939392056323030300A2020202D312E3037313720202020302E3030303020202020302E303030302043202020302020302020302020302020302020302020302020302020302020302020302020300A2020202D312E373836322020202D302E3431323520202020302E303030302043202020302020302020302020302020302020302020302020302020302020302020302020300A2020202D322E353030362020202D302E3030303020202020302E303030302043202020302020302020302020302020302020302020302020302020302020302020302020300A2020202D312E373836322020202D312E3233373520202020302E303030302043202020302020302020302020302020302020302020302020302020302020302020302020300A2020202D302E333537322020202D302E3431323520202020302E30303030204F202020302020302020302020302020302020302020302020302020302020302020302020300A2020202D312E3037313720202020302E3832353020202020302E30303030204F202020302020302020302020302020302020302020302020302020302020302020302020300A2020202D302E3335373220202020312E3233373520202020302E303030302043202020302020302020302020302020302020302020302020302020302020302020302020300A20202020302E3335373220202020302E3832353020202020302E303030302043202020302020302020302020302020302020302020302020302020302020302020302020300A20202020312E3037313720202020312E3233373520202020302E303030302043202020302020302020302020302020302020302020302020302020302020302020302020300A20202020312E3738363220202020302E3832353020202020302E303030302043202020302020302020302020302020302020302020302020302020302020302020302020300A20202020312E3738363220202020302E3030303020202020302E303030302043202020302020302020302020302020302020302020302020302020302020302020302020300A20202020322E353030362020202D302E3431323520202020302E303030302043202020302020302020302020302020302020302020302020302020302020302020302020300A2020312020322020312020302020202020200A2020322020332020312020302020202020200A2020322020342020312020302020202020200A2020312020352020322020302020202020200A2020312020362020312020302020202020200A2020372020382020312020302020202020200A2020382020392020312020302020202020200A2020392031302020322020302020202020200A2031302031312020312020302020202020200A2031312031322020312020302020202020200A2020362020372020312020302020202020200A4D2020454E44
Contributor: SODA AROMATIC CO., LTD.
InstType: EI
InstName: HITACHI M-80B
IoniMethod: _ENERGY 70 eV
IonPolarity: pos
Date: 2010-10-09 19:48:36+02:00
Num Peaks: 28
15 13 26 12 27 236 28 25 29 86 39 199 40 25 41 437 42 65 43 999 
44 33 51 14 53 52 54 73 55 187 56 15 66 12 67 831 68 46 69 21 
70 12 71 536 72 21 79 12 81 49 82 865 83 64 89 14 
