Name: 2-NITROFLUORENE
MW: 211
Formula: C13H9NO2
Synonym: MassBank: JP001621
Synonym: 2-NITROFLUORENE
Structure: 322D4E4954524F464C554F52454E452E6D6F6C0A20204368656D447261773032323131303132303132440A2031362031382020302020302020302020302020302020302020302020303939392056323030300A20202020302E343236312020202D312E3032313020202020302E303030302043202020302020302020302020302020302020302020302020302020302020302020302020300A2020202D302E313235392020202D302E3430373920202020302E303030302043202020302020302020302020302020302020302020302020302020302020302020302020300A2020202D302E393530392020202D302E3430373920202020302E303030302043202020302020302020302020302020302020302020302020302020302020302020302020300A2020202D312E3336333420202020302E3330363520202020302E303030302043202020302020302020302020302020302020302020302020302020302020302020302020300A2020202D302E3935303920202020312E3032313020202020302E303030302043202020302020302020302020302020302020302020302020302020302020302020302020300A2020202D302E3132353920202020312E3032313020202020302E303030302043202020302020302020302020302020302020302020302020302020302020302020302020300A20202020302E3238363620202020302E3330363520202020302E303030302043202020302020302020302020302020302020302020302020302020302020302020302020300A20202020312E3039333620202020302E3133353020202020302E303030302043202020302020302020302020302020302020302020302020302020302020302020302020300A20202020312E3736313020202020302E3631393920202020302E303030302043202020302020302020302020302020302020302020302020302020302020302020302020300A20202020322E3531343720202020302E3238343420202020302E303030302043202020302020302020302020302020302020302020302020302020302020302020302020300A20202020322E363030392020202D302E3533363120202020302E303030302043202020302020302020302020302020302020302020302020302020302020302020302020300A20202020312E393333352020202D312E3032313020202020302E303030302043202020302020302020302020302020302020302020302020302020302020302020302020300A20202020312E313739382020202D302E3638353520202020302E303030302043202020302020302020302020302020302020302020302020302020302020302020302020300A2020202D322E3138383420202020302E3330363520202020302E30303030204E202020302020332020302020302020302020302020302020302020302020302020302020300A2020202D322E363030392020202D302E3430373920202020302E30303030204F202020302020302020302020302020302020302020302020302020302020302020302020300A2020202D322E3630303920202020312E3032313020202020302E30303030204F202020302020352020302020302020302020302020302020302020302020302020302020300A2020312020322020312020302020202020200A2020322020332020312020302020202020200A2020332020342020322020302020202020200A2020342020352020312020302020202020200A2020352020362020322020302020202020200A2020362020372020312020302020202020200A2020322020372020322020302020202020200A2020372020382020312020302020202020200A2020382020392020312020302020202020200A2020392031302020322020302020202020200A2031302031312020312020302020202020200A2031312031322020322020302020202020200A2031322031332020312020302020202020200A2020382031332020322020302020202020200A2020312031332020312020302020202020200A2031342031352020322020302020202020200A2031342031362020312020302020202020200A2020342031342020312020302020202020200A4D202043484720203220203134202020312020313620202D310A4D2020454E44
Contributor: KOGA M, UNIV. OF OCCUPATIONAL AND ENVIRONMENTAL HEALTH
InstType: EI
InstName: VARIAN MAT-44
IoniMethod: _ENERGY 70 eV
IonPolarity: pos
Date: 2010-10-09 19:48:36+02:00
Num Peaks: 46
43 11 44 12 50 38 51 44 62 43 63 108 65 15 69 46 70 32 74 39 
75 39 76 29 77 14 81 43 82 63 86 27 87 43 88 16 89 35 98 14 
111 12 113 25 115 72 126 18 127 15 137 23 138 18 139 99 140 12 150 19 
151 44 152 118 153 84 161 13 162 54 163 324 164 486 165 999 166 142 167 11 
181 61 194 308 195 59 210 27 211 735 212 109 
