Name: 2-(N-ACETYL-2-ACETOXYETHYLAMINO)TOLUENE
MW: 235
Formula: C13H17NO3
Synonym: MassBank: JP006681
Synonym: 2-(N-ACETYL-2-ACETOXYETHYLAMINO)TOLUENE
Synonym: 2-(N-ACETYL-2-ACETOXYETHYLAMINO)-1-METHYLBENZENE
Structure: 322D284E2D41434554594C2D322D414345544F5859455448594C414D494E4F29544F4C55454E452E6D6F6C0A20204368656D447261773132323130393231303632440A2031372031372020302020302020302020302020302020302020302020303939392056323030300A20202020302E333537322020202D312E3434333820202020302E303030302043202020302020302020302020302020302020302020302020302020302020302020302020300A2020202D302E333537322020202D312E3033313320202020302E303030302043202020302020302020302020302020302020302020302020302020302020302020302020300A2020202D312E303731372020202D322E3236383720202020302E303030302043202020302020302020302020302020302020302020302020302020302020302020302020300A20202020302E333537322020202D322E3236383720202020302E303030302043202020302020302020302020302020302020302020302020302020302020302020302020300A2020202D312E303731372020202D312E3434333820202020302E303030302043202020302020302020302020302020302020302020302020302020302020302020302020300A2020202D302E333537322020202D322E3638313320202020302E303030302043202020302020302020302020302020302020302020302020302020302020302020302020300A20202020312E303731372020202D312E3033313320202020302E303030302043202020302020302020302020302020302020302020302020302020302020302020302020300A2020202D302E333537322020202D302E3230363220202020302E30303030204E202020302020302020302020302020302020302020302020302020302020302020302020300A2020202D312E3037313720202020302E3230363320202020302E303030302043202020302020302020302020302020302020302020302020302020302020302020302020300A2020202D312E3037313720202020312E3033313320202020302E303030302043202020302020302020302020302020302020302020302020302020302020302020302020300A2020202D302E3335373220202020312E3434333820202020302E30303030204F202020302020302020302020302020302020302020302020302020302020302020302020300A2020202D302E3335373220202020322E3236383720202020302E303030302043202020302020302020302020302020302020302020302020302020302020302020302020300A20202020302E3335373220202020322E3638313220202020302E30303030204F202020302020302020302020302020302020302020302020302020302020302020302020300A2020202D312E3037313720202020322E3638313320202020302E303030302043202020302020302020302020302020302020302020302020302020302020302020302020300A20202020302E3335373220202020302E3230363320202020302E303030302043202020302020302020302020302020302020302020302020302020302020302020302020300A20202020312E303731372020202D302E3230363220202020302E30303030204F202020302020302020302020302020302020302020302020302020302020302020302020300A20202020302E3335373220202020312E3033313320202020302E303030302043202020302020302020302020302020302020302020302020302020302020302020302020300A2020312020322020312020302020202020200A2020312020342020322020302020202020200A2020322020352020322020302020202020200A2020332020352020312020302020202020200A2020332020362020322020302020202020200A2020342020362020312020302020202020200A2020312020372020312020302020202020200A2020392031302020312020302020202020200A2020382020392020312020302020202020200A2031322031332020322020302020202020200A2031322031342020312020302020202020200A2031312031322020312020302020202020200A2031302031312020312020302020202020200A2031352031362020322020302020202020200A2031352031372020312020302020202020200A2020382031352020312020302020202020200A2020322020382020312020302020202020200A4D2020454E44
Contributor: MASS SPECTROSCOPY SOC. OF JAPAN (MSSJ)
InstType: EI
InstName: JEOL JMS-D-300
IoniMethod: _ENERGY 70 eV
IonPolarity: pos
Date: 2010-10-09 19:48:36+02:00
Num Peaks: 38
41 20 43 999 44 20 51 4 63 20 65 155 68 20 77 8 78 35 79 25 
87 325 89 3 90 20 91 375 92 45 93 2 104 30 105 30 106 80 107 20 
117 90 118 790 119 105 120 99 121 360 128 20 132 150 133 65 134 140 149 285 
150 50 160 3 162 120 175 985 176 150 193 5 235 125 236 35 
