Name: 2-OXOPENTANOIC ACID METHYL ESTER
MW: 130
Formula: C6H10O3
Synonym: MassBank: JP004221
Synonym: 2-OXOPENTANOIC ACID METHYL ESTER
Structure: 310A32320A322D4F584F50454E54414E4F49432041434944204D455448594C2045535445522E6D6F6C0A20204368656D447261773032323131303132333432440A2020392020382020302020302020302020302020302020302020302020303939392056323030300A2020202D302E3631383720202020302E3335373220202020302E303030302043202020302020302020302020302020302020302020302020302020302020302020302020300A2020202D302E323036322020202D302E3335373220202020302E303030302043202020302020302020302020302020302020302020302020302020302020302020302020300A20202020302E363138382020202D302E3335373220202020302E303030302043202020302020302020302020302020302020302020302020302020302020302020302020300A20202020312E303331332020202D312E3037313720202020302E303030302043202020302020302020302020302020302020302020302020302020302020302020302020300A20202020312E383536332020202D312E3037313720202020302E303030302043202020302020302020302020302020302020302020302020302020302020302020302020300A2020202D302E3230363220202020312E3037313720202020302E30303030204F202020302020302020302020302020302020302020302020302020302020302020302020300A2020202D312E3434333720202020302E3335373220202020302E30303030204F202020302020302020302020302020302020302020302020302020302020302020302020300A2020202D302E363138372020202D312E3037313720202020302E30303030204F202020302020302020302020302020302020302020302020302020302020302020302020300A2020202D312E383536332020202D302E3335373220202020302E303030302043202020302020302020302020302020302020302020302020302020302020302020302020300A2020312020322020312020302020202020200A2020322020332020312020302020202020200A2020332020342020312020302020202020200A2020342020352020312020302020202020200A2020312020362020322020302020202020200A2020312020372020312020302020202020200A2020322020382020322020302020202020200A2020372020392020312020302020202020200A4D2020454E44
Contributor: KOGA M, UNIV. OF OCCUPATIONAL AND ENVIRONMENTAL HEALTH
InstType: EI
InstName: JEOL JMS-01-SG
IoniMethod: _ENERGY 70 eV
IonPolarity: pos
Date: 2010-10-09 19:48:36+02:00
Num Peaks: 11
38 32 40 333 41 56 43 999 44 23 55 65 69 19 70 4 71 875 72 41 
130 84 
