Name: ALPHA-(TRIMETHYLSILYL)OXY-DIPHENYLACETIC ACID TRIMETHYLSILYL ESTER
MW: 372
Formula: C20H28O3Si2
Synonym: MassBank: JP001057
Synonym: ALPHA-(TRIMETHYLSILYL)OXY-DIPHENYLACETIC ACID TRIMETHYLSILYL ESTER
Synonym: TRIMETHYLSILYL ALPHA,ALPHA-DIPHENYL-ALPHA-TRIMETHYLSILOXYACETATE
Structure: 414C5048412D285452494D455448594C53494C594C294F58592D44495048454E594C4143455449432041434944205452494D455448594C53494C594C2045535445522E6D6F6C0A20204368656D447261773038303631303035313032440A2032352032362020302020302020302020302020302020302020302020303939392056323030300A20202020302E3035303720202020302E3736323020202020302E303030302043202020302020302020302020302020302020302020302020302020302020302020302020300A20202020302E313133312020202D302E3330383720202020302E303030302043202020302020302020302020302020302020302020302020302020302020302020302020300A20202020302E3734303020202020312E3231353420202020302E30303030204F202020302020302020302020302020302020302020302020302020302020302020302020300A2020202D302E3638363520202020312E3133323320202020302E30303030204F202020302020302020302020302020302020302020302020302020302020302020302020300A20202020312E313836372020202D302E3434313820202020302E30303030204F202020302020302020302020302020302020302020302020302020302020302020302020300A20202020312E3737303120202020302E3134313620202020302E303030302053692020302020302020302020302020302020302020302020302020302020302020302020300A20202020312E3139353220202020302E3731363520202020302E303030302043202020302020302020302020302020302020302020302020302020302020302020302020300A20202020322E333631392020202D302E3435303320202020302E303030302043202020302020302020302020302020302020302020302020302020302020302020302020300A20202020322E3335333620202020302E3732353120202020302E303030302043202020302020302020302020302020302020302020302020302020302020302020302020300A20202020302E303635312020202D312E3133323320202020302E303030302043202020302020302020302020302020302020302020302020302020302020302020302020300A20202020302E373534342020202D312E3538353620202020302E303030302043202020302020302020302020302020302020302020302020302020302020302020302020300A20202020302E373036342020202D322E3430393220202020302E303030302043202020302020302020302020302020302020302020302020302020302020302020302020300A2020202D302E303330382020202D322E3737393520202020302E303030302043202020302020302020302020302020302020302020302020302020302020302020302020300A2020202D302E373230312020202D322E3332363120202020302E303030302043202020302020302020302020302020302020302020302020302020302020302020302020300A2020202D302E363732312020202D312E3530323520202020302E303030302043202020302020302020302020302020302020302020302020302020302020302020302020300A2020202D302E373131392020202D302E3330383720202020302E303030302043202020302020302020302020302020302020302020302020302020302020302020302020300A2020202D312E313233342020202D312E3032313320202020302E303030302043202020302020302020302020302020302020302020302020302020302020302020302020300A2020202D312E393438342020202D312E3032323520202020302E303030302043202020302020302020302020302020302020302020302020302020302020302020302020300A2020202D322E333631392020202D302E3330383720202020302E303030302043202020302020302020302020302020302020302020302020302020302020302020302020300A2020202D312E3935303520202020302E3430363420202020302E303030302043202020302020302020302020302020302020302020302020302020302020302020302020300A2020202D312E3132353520202020302E3430373620202020302E303030302043202020302020302020302020302020302020302020302020302020302020302020302020300A2020202D302E3733343520202020312E3935353920202020302E303030302053692020302020302020302020302020302020302020302020302020302020302020302020300A2020202D312E3535383120202020312E3930373920202020302E303030302043202020302020302020302020302020302020302020302020302020302020302020302020300A2020202D302E3738323420202020322E3737393520202020302E303030302043202020302020302020302020302020302020302020302020302020302020302020302020300A20202020302E3038393120202020322E3030333820202020302E303030302043202020302020302020302020302020302020302020302020302020302020302020302020300A2020312020322020312020302020202020200A2020312020332020322020302020202020200A2020312020342020312020302020202020200A2020362020372020312020302020202020200A2020362020382020312020302020202020200A2020362020392020312020302020202020200A2020352020362020312020302020202020200A2020322020352020312020302020202020200A2031302031312020312020302020202020200A2031312031322020322020302020202020200A2031322031332020312020302020202020200A2031332031342020322020302020202020200A2031342031352020312020302020202020200A2031302031352020322020302020202020200A2020322031302020312020302020202020200A2031362031372020312020302020202020200A2031372031382020322020302020202020200A2031382031392020312020302020202020200A2031392032302020322020302020202020200A2032302032312020312020302020202020200A2031362032312020322020302020202020200A2020322031362020312020302020202020200A2032322032332020312020302020202020200A2032322032342020312020302020202020200A2032322032352020312020302020202020200A2020342032322020312020302020202020200A4D2020454E44
Contributor: KOGA M, UNIV. OF OCCUPATIONAL AND ENVIRONMENTAL HEALTH
InstType: EI
InstName: JEOL JMS-01-SG
IoniMethod: _ENERGY 70 eV
IonPolarity: pos
Date: 2010-10-09 19:48:36+02:00
Num Peaks: 16
43 75 45 197 73 856 74 4 75 100 77 104 105 82 147 18 148 17 165 68 
166 21 239 2 255 999 256 223 257 50 329 53 
