Name: MassBank: JP002076
MW: 534
Formula: C27H34O11
Synonym: MassBank: JP002076
Synonym: 2-(3,4-DIMETHOXYPHENYL)ETHYL 4-O-(DI-O-METHYLCAFFEOYL)-1BETA-(D)-GLUCOPYRANOSIDE
Structure: 322D28332C342D44494D4554484F58595048454E594C29455448594C20342D4F2D2844492D4F2D4D455448594C43414646454F594C292D31424554412D2844292D474C55434F505952414E4F534944452E6D6F6C0A20204368656D447261773132323130393134343432440A2033382034302020302020302020302020302020302020302020302020303939392056323030300A2020202D302E3731343520202020302E3431323520202020302E30303030204F202020302020302020302020302020302020302020302020302020302020302020302020300A2020202D302E373134352020202D302E3431323520202020302E303030302043202020302020302020302020302020302020302020302020302020302020302020302020300A20202020302E303030322020202D302E3832353020202020302E303030302043202020302020302020302020302020302020302020302020302020302020302020302020300A20202020302E373134372020202D302E3431323520202020302E30303030204F202020302020302020302020302020302020302020302020302020302020302020302020300A20202020302E303030322020202D312E3635303020202020302E303030302043202020302020302020302020302020302020302020302020302020302020302020302020300A20202020302E373134372020202D322E3036323520202020302E30303030204F202020302020302020302020302020302020302020302020302020302020302020302020300A2020202D302E373134322020202D322E3036323520202020302E303030302043202020302020302020302020302020302020302020302020302020302020302020302020300A2020202D302E373134322020202D322E3838373520202020302E30303030204F202020302020302020302020302020302020302020302020302020302020302020302020300A2020202D312E343238382020202D312E3634393920202020302E303030302043202020302020302020302020302020302020302020302020302020302020302020302020300A2020202D312E343238332020202D302E3832353820202020302E30303030204F202020302020302020302020302020302020302020302020302020302020302020302020300A2020202D322E313433322020202D322E3036323420202020302E303030302043202020302020302020302020302020302020302020302020302020302020302020302020300A2020202D322E313433322020202D322E3838373320202020302E30303030204F202020302020302020302020302020302020302020302020302020302020302020302020300A20202020302E303030322020202D332E3330303020202020302E303030302043202020302020302020302020302020302020302020302020302020302020302020302020300A20202020302E373134372020202D322E3838373520202020302E303030302043202020302020302020302020302020302020302020302020302020302020302020302020300A20202020312E343239322020202D332E3330303020202020302E303030302043202020302020302020302020302020302020302020302020302020302020302020302020300A20202020322E313433362020202D322E3838373520202020302E303030302043202020302020302020302020302020302020302020302020302020302020302020302020300A20202020322E313433362020202D322E3036323520202020302E303030302043202020302020302020302020302020302020302020302020302020302020302020302020300A20202020322E383538312020202D312E3635303020202020302E303030302043202020302020302020302020302020302020302020302020302020302020302020302020300A20202020322E383538312020202D302E3832353020202020302E30303030204F202020302020302020302020302020302020302020302020302020302020302020302020300A20202020332E353732362020202D322E3036323520202020302E303030302043202020302020302020302020302020302020302020302020302020302020302020302020300A20202020342E323837312020202D312E3635303020202020302E30303030204F202020302020302020302020302020302020302020302020302020302020302020302020300A20202020332E353732362020202D322E3838373520202020302E303030302043202020302020302020302020302020302020302020302020302020302020302020302020300A20202020322E383538312020202D332E3330303020202020302E303030302043202020302020302020302020302020302020302020302020302020302020302020302020300A20202020302E303030322020202D342E3132353020202020302E30303030204F202020302020302020302020302020302020302020302020302020302020302020302020300A2020202D312E3432393120202020302E3832353120202020302E303030302043202020302020302020302020302020302020302020302020302020302020302020302020300A2020202D312E3432393120202020312E3635303020202020302E303030302043202020302020302020302020302020302020302020302020302020302020302020302020300A2020202D322E3134333620202020322E3036323520202020302E303030302043202020302020302020302020302020302020302020302020302020302020302020302020300A2020202D322E3835383120202020312E3635303020202020302E303030302043202020302020302020302020302020302020302020302020302020302020302020302020300A2020202D332E3537323620202020322E3036323520202020302E303030302043202020302020302020302020302020302020302020302020302020302020302020302020300A2020202D332E3537323620202020322E3838373520202020302E303030302043202020302020302020302020302020302020302020302020302020302020302020302020300A2020202D322E3835383120202020332E3330303020202020302E303030302043202020302020302020302020302020302020302020302020302020302020302020302020300A2020202D322E3134333620202020322E3838373520202020302E303030302043202020302020302020302020302020302020302020302020302020302020302020302020300A2020202D342E3238373120202020332E3330303020202020302E30303030204F202020302020302020302020302020302020302020302020302020302020302020302020300A2020202D342E3238373120202020342E3132353020202020302E303030302043202020302020302020302020302020302020302020302020302020302020302020302020300A2020202D342E3238373120202020312E3635303020202020302E30303030204F202020302020302020302020302020302020302020302020302020302020302020302020300A2020202D352E3030313520202020322E3036323520202020302E303030302043202020302020302020302020302020302020302020302020302020302020302020302020300A20202020322E313433362020202D302E3431323520202020302E303030302043202020302020302020302020302020302020302020302020302020302020302020302020300A20202020352E303031352020202D322E3036323520202020302E303030302043202020302020302020302020302020302020302020302020302020302020302020302020300A2020312020322020312020302020202020200A2020322020332020312020302020202020200A2020332020342020312020302020202020200A2020332020352020312020302020202020200A2020352020362020312020302020202020200A2020352020372020312020302020202020200A2020372020382020312020302020202020200A2020372020392020312020302020202020200A2020392031302020312020302020202020200A2020392031312020312020302020202020200A2031312031322020312020302020202020200A2020322031302020312020302020202020200A2031332031342020312020302020202020200A2031342031352020322020302020202020200A2031352031362020312020302020202020200A2031362031372020312020302020202020200A2031372031382020322020302020202020200A2031382031392020312020302020202020200A2031382032302020312020302020202020200A2032302032312020312020302020202020200A2032302032322020322020302020202020200A2032322032332020312020302020202020200A2031362032332020322020302020202020200A2031332032342020322020302020202020200A2020382031332020312020302020202020200A2032352032362020312020302020202020200A2032372032382020312020302020202020200A2032382032392020322020302020202020200A2032392033302020312020302020202020200A2033302033312020322020302020202020200A2033312033322020312020302020202020200A2032372033322020322020302020202020200A2033332033342020312020302020202020200A2033302033332020312020302020202020200A2033352033362020312020302020202020200A2032392033352020312020302020202020200A2032362032372020312020302020202020200A2020312032352020312020302020202020200A2031392033372020312020302020202020200A2032312033382020312020302020202020200A4D2020454E44
Contributor: ENDO K, PHARMACEUTICAL INST., TOHOKU UNIV.
InstType: EI
InstName: HITACHI M-52
IoniMethod: _ENERGY 20 eV
IonPolarity: pos
Date: 2010-10-09 19:48:36+02:00
Num Peaks: 59
18 14 28 35 38 61 43 3 45 9 55 9 57 18 60 3 61 9 69 18 
71 18 73 3 77 9 81 9 85 26 87 1 91 18 99 9 103 9 105 2 
107 9 120 9 121 26 133 2 134 9 135 18 137 18 138 5 145 9 147 18 
149 18 150 4 151 237 152 35 161 9 163 1 164 999 165 597 166 123 167 2 
177 18 182 26 191 456 192 8 193 53 194 9 195 9 208 19 209 53 210 53 
267 9 326 2 344 35 353 18 370 53 371 1 534 228 535 79 536 18 
