Name: N-ACETYL-ALANYL-VALYL-LEUCYL-ALANINE METHYL ESTER
MW: 428
Formula: C20H36N4O6
Synonym: MassBank: JP002588
Synonym: N-ACETYL-ALANYL-VALYL-LEUCYL-ALANINE METHYL ESTER
Structure: 303435375F4E2D41434554594C2D414C414E594C2D56414C594C2D4C455543594C2D414C414E494E45204D455448594C2045535445522E6D6F6C0A20204368656D447261773039303631303137323532440A2033342033332020302020302020302020302020302020302020302020303939392056323030300A2020202D312E3035333420202020332E3530363320202020302E303030302043202020302020302020302020302020302020302020302020302020302020302020302020300A2020202D302E3333383920202020322E3236383820202020302E30303030204E202020302020302020302020302020302020302020302020302020302020302020302020300A2020202D302E3333383920202020332E3039333820202020302E303030302043202020302020302020302020302020302020302020302020302020302020302020302020300A20202020302E3239393720202020332E3631363220202020302E303030302043202020302020302020302020302020302020302020302020302020302020302020302020300A2020202D312E3035333420202020342E3333313320202020302E30303030204F202020302020302020302020302020302020302020302020302020302020302020302020300A2020202D312E3736373920202020332E3039333820202020302E30303030204F202020302020302020302020302020302020302020302020302020302020302020302020300A20202020302E3337353520202020312E3835363320202020302E303030302043202020302020302020302020302020302020302020302020302020302020302020302020300A2020202D302E3333383920202020302E3631383820202020302E30303030204E202020302020302020302020302020302020302020302020302020302020302020302020300A20202020302E3337353520202020312E3033313320202020302E303030302043202020302020302020302020302020302020302020302020302020302020302020302020300A20202020312E3039303020202020302E3631383820202020302E303030302043202020302020302020302020302020302020302020302020302020302020302020302020300A20202020312E3830343520202020312E3033313320202020302E303030302043202020302020302020302020302020302020302020302020302020302020302020302020300A20202020312E3830343520202020312E3835363320202020302E303030302043202020302020302020302020302020302020302020302020302020302020302020302020300A20202020322E3531383920202020302E3631383820202020302E303030302043202020302020302020302020302020302020302020302020302020302020302020302020300A20202020312E3039303020202020322E3236383820202020302E30303030204F202020302020302020302020302020302020302020302020302020302020302020302020300A2020202D302E333338392020202D302E3230363220202020302E303030302043202020302020302020302020302020302020302020302020302020302020302020302020300A2020202D312E303533342020202D312E3434333820202020302E30303030204E202020302020302020302020302020302020302020302020302020302020302020302020300A2020202D312E303533342020202D302E3631383820202020302E303030302043202020302020302020302020302020302020302020302020302020302020302020302020300A2020202D312E373637392020202D302E3230363220202020302E303030302043202020302020302020302020302020302020302020302020302020302020302020302020300A2020202D312E3736373920202020302E3631383820202020302E303030302043202020302020302020302020302020302020302020302020302020302020302020302020300A2020202D322E343832332020202D302E3631383820202020302E303030302043202020302020302020302020302020302020302020302020302020302020302020302020300A20202020302E333735352020202D302E3631383820202020302E30303030204F202020302020302020302020302020302020302020302020302020302020302020302020300A2020202D302E333338392020202D312E3835363320202020302E303030302043202020302020302020302020302020302020302020302020302020302020302020302020300A2020202D312E303533342020202D332E3039333820202020302E30303030204E202020302020302020302020302020302020302020302020302020302020302020302020300A2020202D302E333338392020202D322E3638313220202020302E303030302043202020302020302020302020302020302020302020302020302020302020302020302020300A20202020302E333735352020202D332E3039333820202020302E303030302043202020302020302020302020302020302020302020302020302020302020302020302020300A20202020302E333735352020202D312E3434333820202020302E30303030204F202020302020302020302020302020302020302020302020302020302020302020302020300A2020202D312E303533342020202D332E3931383820202020302E303030302043202020302020302020302020302020302020302020302020302020302020302020302020300A2020202D302E333338392020202D342E3333313320202020302E30303030204F202020302020302020302020302020302020302020302020302020302020302020302020300A2020202D312E373637392020202D342E3333313220202020302E303030302043202020302020302020302020302020302020302020302020302020302020302020302020300A2020202D322E3531383920202020332E3433353220202020302E303030302043202020302020302020302020302020302020302020302020302020302020302020302020300A20202020302E3337353620202020302E3230363320202020302E303030302048202020302020302020302020302020302020302020302020302020302020302020302020300A2020202D312E3038373620202020322E3734373320202020302E303030302048202020302020302020302020302020302020302020302020302020302020302020302020300A2020202D312E3032303520202020302E3230353520202020302E303030302048202020302020302020302020302020302020302020302020302020302020302020302020300A20202020302E333830342020202D322E3237373120202020302E303030302048202020302020302020302020302020302020302020302020302020302020302020302020300A2020322020332020312020302020202020200A2020312020332020312020302020202020200A2020332020342020312020312020202020200A2020312020352020322020302020202020200A2020312020362020312020302020202020200A2020392020382020312020302020202020200A2020392020372020312020312020202020200A2020392031302020312020302020202020200A2031302031312020312020302020202020200A2031312031322020312020302020202020200A2031312031332020312020302020202020200A2020372031342020322020302020202020200A2031372031362020312020312020202020200A2031352031372020312020302020202020200A2031372031382020312020302020202020200A2031382031392020312020302020202020200A2031382032302020312020302020202020200A2031352032312020322020302020202020200A2032342032332020312020312020202020200A2032322032342020312020302020202020200A2032342032352020312020302020202020200A2032322032362020322020302020202020200A2031362032322020312020302020202020200A2020382031352020312020302020202020200A2020322020372020312020302020202020200A2032372032382020322020302020202020200A2032372032392020312020302020202020200A2032332032372020312020302020202020200A2020362033302020312020302020202020200A2020392033312020312020312020202020200A2020332033322020312020312020202020200A2031372033332020312020312020202020200A2032342033342020312020312020202020200A4D2020454E44
Contributor: YAMAMOTO M, DEP. CHEMISTRY, FAC. SCIENCE, NARA WOMEN'S UNIV.
InstType: EI
InstName: HITACHI RMU-6M
IoniMethod: _ENERGY 70 eV
IonPolarity: pos
Date: 2010-10-09 19:48:36+02:00
Num Peaks: 141
14 29 15 99 25 10 26 34 27 120 28 66 29 99 30 96 31 32 37 16 
38 31 39 129 40 47 41 267 42 136 43 267 44 637 45 30 50 19 51 32 
52 20 53 30 54 43 55 183 56 89 57 153 58 25 59 29 60 11 65 25 
66 12 67 23 68 30 69 99 70 102 71 116 72 999 73 59 74 14 76 11 
77 33 78 43 79 33 80 21 81 34 82 35 83 63 84 47 85 68 86 605 
87 67 91 77 92 11 93 15 94 12 95 32 96 29 97 55 98 47 99 36 
100 24 101 14 102 33 103 33 104 50 105 174 106 24 107 16 109 21 110 15 
111 27 112 45 113 27 114 68 115 38 116 16 117 50 118 65 119 20 123 19 
125 18 126 15 127 39 128 25 131 30 135 11 137 11 139 11 140 12 141 36 
142 17 143 22 144 13 145 15 150 16 152 21 154 12 155 15 156 15 157 13 
158 34 159 18 165 14 167 44 171 10 173 11 179 11 181 15 182 15 183 27 
184 13 185 70 186 49 187 16 189 11 195 11 197 24 201 15 211 38 212 12 
213 284 214 40 215 18 219 20 221 11 223 17 237 17 239 11 257 10 267 13 
279 23 282 13 297 12 298 194 299 62 300 19 326 25 342 10 372 41 397 13 
428 4 
