Name: 2-METHYLTETRAHYDROFURAN
MW: 86
Formula: C5H10O
Synonym: MassBank: JP009297
Synonym: 2-METHYLTETRAHYDROFURAN
Structure: 310A31370A322D4D455448594C5445545241485944524F465552414E2E6D6F6C0A20204368656D447261773032323131303036303532440A2020362020362020302020302020302020302020302020302020302020303939392056323030300A20202020302E3236323720202020302E3636373420202020302E30303030204F202020302020302020302020302020302020302020302020302020302020302020302020300A2020202D302E3232323320202020302E3030303020202020302E303030302043202020302020302020302020302020302020302020302020302020302020302020302020300A20202020302E323632372020202D302E3636373420202020302E303030302043202020302020302020302020302020302020302020302020302020302020302020302020300A20202020312E303437332020202D302E3431323520202020302E303030302043202020302020302020302020302020302020302020302020302020302020302020302020300A20202020312E3034373320202020302E3431323520202020302E303030302043202020302020302020302020302020302020302020302020302020302020302020302020300A2020202D312E3034373320202020302E3030303020202020302E303030302043202020302020302020302020302020302020302020302020302020302020302020302020300A2020312020322020312020302020202020200A2020322020332020312020302020202020200A2020332020342020312020302020202020200A2020342020352020312020302020202020200A2020312020352020312020302020202020200A2020322020362020312020302020202020200A4D2020454E44
Contributor: YAMAMOTO M, DEP. CHEMISTRY, FAC. SCIENCE, NARA WOMEN'S UNIV.
InstType: EI
InstName: HITACHI RMU-6M
IoniMethod: _ENERGY 20 eV
IonPolarity: pos
Date: 2010-10-09 19:48:36+02:00
Num Peaks: 21
27 55 28 38 29 62 39 2 40 43 41 393 42 441 43 51 44 19 45 211 
55 47 56 21 57 28 58 19 67 12 70 2 71 999 72 52 85 47 86 21 
87 19 
