Name: CHRYSANTHENONE
MW: 150
Formula: C10H14O
Synonym: MassBank: JP006310
Synonym: CHRYSANTHENONE
Structure: 4348525953414E5448454E4F4E452E6D6F6C0A20204368656D447261773039303731303131343332440A2031312031322020302020302020302020302020302020302020302020303939392056323030300A2020202D302E3337313320202020302E3139323220202020302E303030302043202020302020302020302020302020302020302020302020302020302020302020302020300A2020202D302E333731332020202D302E3633323820202020302E303030302043202020302020302020302020302020302020302020302020302020302020302020302020300A20202020302E333433322020202D312E3034353320202020302E303030302043202020302020302020302020302020302020302020302020302020302020302020302020300A20202020312E303537372020202D302E3633323820202020302E303030302043202020302020302020302020302020302020302020302020302020302020302020302020300A20202020312E3035373720202020302E3139323220202020302E303030302043202020302020302020302020302020302020302020302020302020302020302020302020300A20202020302E3334333220202020302E3630343720202020302E303030302043202020302020302020302020302020302020302020302020302020302020302020302020300A20202020302E3334333220202020312E3432393720202020302E303030302043202020302020302020302020302020302020302020302020302020302020302020302020300A20202020302E333433322020202D302E3232303320202020302E303030302043202020302020302020302020302020302020302020302020302020302020302020302020300A20202020312E313638322020202D302E3232303320202020302E30303030204F202020302020302020302020302020302020302020302020302020302020302020302020300A2020202D312E313638322020202D302E3431393320202020302E303030302043202020302020302020302020302020302020302020302020302020302020302020302020300A2020202D302E353834382020202D312E3432393720202020302E303030302043202020302020302020302020302020302020302020302020302020302020302020302020300A2020312020322020312020302020202020200A2020322020332020312020302020202020200A2020332020342020312020302020202020200A2020342020352020312020302020202020200A2020352020362020322020302020202020200A2020362020312020312020302020202020200A2020362020372020312020302020202020200A2020312020382020312020302020202020200A2020382020332020312020302020202020200A2020382020392020322020302020202020200A2020322031302020312020312020202020200A2020322031312020312020362020202020200A4D2020454E44
Contributor: EGUCHI S, FAC. OF SCIENCE, HIROSHIMA UNIV.
InstType: EI
InstName: HITACHI RMS-4
IoniMethod: _ENERGY 70 eV
IonPolarity: pos
Date: 2010-10-09 19:48:36+02:00
Num Peaks: 48
40 60 41 305 42 35 43 6 44 11 50 35 51 110 52 5 53 128 54 27 
55 66 56 1 57 14 62 12 63 39 65 12 66 34 67 82 68 11 69 2 
70 85 77 163 78 41 79 28 80 339 81 60 82 43 83 1 91 543 92 87 
93 90 94 2 95 43 96 14 103 20 105 17 106 32 107 999 108 126 109 4 
120 34 122 271 123 35 135 6 136 5 149 11 150 117 151 14 
