Name: MassBank: JP001631
MW: 121
Formula: C8H11N
Synonym: MassBank: JP001631
Synonym: 2,6-DIMETHYLANILINE
Synonym: 2,6-XYLIDINE
Structure: 310A32330A322C362D44494D455448594C414E494C494E452E6D6F6C0A20204368656D447261773132323130393034343132440A2020392020392020302020302020302020302020302020302020302020303939392056323030300A2020202D312E323337352020202D302E3030303020202020302E30303030204E202020302020302020302020302020302020302020302020302020302020302020302020300A2020202D302E343132352020202D302E3030303020202020302E303030302043202020302020302020302020302020302020302020302020302020302020302020302020300A2020202D302E3030303020202020302E3731343520202020302E303030302043202020302020302020302020302020302020302020302020302020302020302020302020300A20202020302E3832353020202020302E3731343520202020302E303030302043202020302020302020302020302020302020302020302020302020302020302020302020300A20202020312E323337352020202D302E3030303020202020302E303030302043202020302020302020302020302020302020302020302020302020302020302020302020300A20202020302E383235302020202D302E3731343520202020302E303030302043202020302020302020302020302020302020302020302020302020302020302020302020300A2020202D302E303030302020202D302E3731343520202020302E303030302043202020302020302020302020302020302020302020302020302020302020302020302020300A2020202D302E343132352020202D312E3432383920202020302E303030302043202020302020302020302020302020302020302020302020302020302020302020302020300A2020202D302E3431323520202020312E3432383920202020302E303030302043202020302020302020302020302020302020302020302020302020302020302020302020300A2020312020322020312020302020202020200A2020322020332020312020302020202020200A2020332020342020322020302020202020200A2020342020352020312020302020202020200A2020352020362020322020302020202020200A2020362020372020312020302020202020200A2020322020372020322020302020202020200A2020372020382020312020302020202020200A2020332020392020312020302020202020200A4D2020454E44
Contributor: KOGA M, UNIV. OF OCCUPATIONAL AND ENVIRONMENTAL HEALTH
InstType: EI
InstName: VARIAN MAT-44
IoniMethod: _ENERGY 70 eV
IonPolarity: pos
Date: 2010-10-09 19:48:36+02:00
Num Peaks: 47
30 57 37 12 38 39 39 192 41 57 42 100 46 22 50 78 51 127 52 120 
53 93 54 52 58 54 59 96 60 84 61 16 62 38 63 43 64 61 65 100 
66 41 67 17 74 15 75 17 76 31 77 405 78 208 79 206 80 67 89 38 
90 24 91 279 92 83 93 127 94 33 102 28 103 139 104 74 105 57 106 999 
107 97 117 18 118 48 119 32 120 636 121 955 122 87 
