Name: MassBank: JP009775
MW: 168
Formula: C10H16O2
Synonym: MassBank: JP009775
Synonym: 2-HYDROXY-1,7,7-TRIMETHYLBICYCLO(2.2.1)HEPTAN-3-ONE
Structure: 322D485944524F58592D312C372C372D5452494D455448594C42494359434C4F28322E322E312948455054414E2D332D4F4E452E6D6F6C0A20204368656D447261773031323131303134323732440A2031322031332020302020302020302020302020302020302020302020303939392056323030300A2020202D302E3731343520202020302E3030303020202020302E303030302043202020302020302020302020302020302020302020302020302020302020302020302020300A2020202D302E373134352020202D302E3832353020202020302E303030302043202020302020302020302020302020302020302020302020302020302020302020302020300A20202020302E303030302020202D312E3233373520202020302E303030302043202020302020302020302020302020302020302020302020302020302020302020302020300A20202020302E373134352020202D302E3832353020202020302E303030302043202020302020302020302020302020302020302020302020302020302020302020302020300A20202020302E3731343520202020302E3030303020202020302E303030302043202020302020302020302020302020302020302020302020302020302020302020302020300A20202020302E3030303020202020302E3431323520202020302E303030302043202020302020302020302020302020302020302020302020302020302020302020302020300A20202020302E3030303020202020312E3233373520202020302E30303030204F202020302020302020302020302020302020302020302020302020302020302020302020300A20202020312E3432383920202020302E3431323520202020302E30303030204F202020302020302020302020302020302020302020302020302020302020302020302020300A20202020302E303832342020202D302E3231333520202020302E303030302043202020302020302020302020302020302020302020302020302020302020302020302020300A2020202D312E3432383920202020302E3431323520202020302E303030302043202020302020302020302020302020302020302020302020302020302020302020302020300A20202020302E3439343920202020302E3530303920202020302E303030302043202020302020302020302020302020302020302020302020302020302020302020302020300A2020202D302E313331312020202D312E3031303420202020302E303030302043202020302020302020302020302020302020302020302020302020302020302020302020300A2020312020322020312020302020202020200A2020322020332020312020302020202020200A2020332020342020312020302020202020200A2020342020352020312020302020202020200A2020352020362020312020302020202020200A2020362020312020312020302020202020200A2020362020372020312020302020202020200A2020352020382020322020302020202020200A2020312020392020312020302020202020200A2020392020342020312020302020202020200A2020312031302020312020302020202020200A2020392031312020312020312020202020200A2020392031322020312020312020202020200A4D2020454E44
Contributor: KURARAY CO., LTD.
InstType: EI
InstName: JEOL JMS-D-300
IoniMethod: _ENERGY 70 eV
IonPolarity: pos
Date: 2010-10-09 19:48:36+02:00
Num Peaks: 34
27 131 28 50 29 103 39 16 41 460 43 229 53 108 55 54 57 142 67 120 
69 494 70 70 71 481 77 57 79 61 81 7 82 76 83 999 84 646 85 6 
95 265 96 98 97 103 100 8 107 69 109 74 111 50 125 23 138 61 139 76 
140 84 153 8 168 431 169 49 
