Name: 6-TERT-BUTYLMERCAPTO-2-PICOLINE
MW: 181
Formula: C10H15NS
Synonym: MassBank: JP003012
Synonym: 6-TERT-BUTYLMERCAPTO-2-PICOLINE
Structure: 362D544552542D425554594C4D4552434150544F2D322D5049434F4C494E452E6D6F6C0A20204368656D447261773035313931303232353132440A2031322031322020302020302020302020302020302020302020302020303939392056323030300A20202020312E3432383920202020302E3236313520202020302E303030302043202020302020302020302020302020302020302020302020302020302020302020302020300A20202020312E343238392020202D302E3536333520202020302E303030302043202020302020302020302020302020302020302020302020302020302020302020302020300A20202020302E373134352020202D302E3937363020202020302E303030302043202020302020302020302020302020302020302020302020302020302020302020302020300A2020202D302E303030302020202D302E3536333520202020302E303030302043202020302020302020302020302020302020302020302020302020302020302020302020300A2020202D302E3030303020202020302E3236313520202020302E303030302043202020302020302020302020302020302020302020302020302020302020302020302020300A20202020302E3731343520202020302E3637343020202020302E30303030204E202020302020302020302020302020302020302020302020302020302020302020302020300A20202020322E3134333420202020302E3637343020202020302E303030302043202020302020302020302020302020302020302020302020302020302020302020302020300A2020202D302E3731343520202020302E3637343020202020302E303030302053202020302020302020302020302020302020302020302020302020302020302020302020300A2020202D312E3432383920202020302E3236313520202020302E303030302043202020302020302020302020302020302020302020302020302020302020302020302020300A2020202D312E303136342020202D302E3435333020202020302E303030302043202020302020302020302020302020302020302020302020302020302020302020302020300A2020202D322E313433342020202D302E3135313020202020302E303030302043202020302020302020302020302020302020302020302020302020302020302020302020300A2020202D312E3834313420202020302E3937363020202020302E303030302043202020302020302020302020302020302020302020302020302020302020302020302020300A2020312020322020312020302020202020200A2020322020332020322020302020202020200A2020332020342020312020302020202020200A2020342020352020322020302020202020200A2020352020362020312020302020202020200A2020312020362020322020302020202020200A2020312020372020312020302020202020200A2020392031302020312020302020202020200A2020392031322020312020302020202020200A2020392031312020312020302020202020200A2020382020392020312020302020202020200A2020352020382020312020302020202020200A4D2020454E44
Contributor: SASAKI S, TOYOHASHI UNIV. OF TECH.
InstType: EI
InstName: Unknown
IoniMethod: EI
IonPolarity: pos
Date: 2010-10-09 19:48:36+02:00
Num Peaks: 14
29 80 39 140 41 110 57 12 65 70 80 80 81 440 92 1 125 999 126 120 
127 50 166 0 181 70 182 10 
