Name: MassBank: JP002885
MW: 192
Formula: C12H20N2
Synonym: MassBank: JP002885
Synonym: 1,10-DICYANO-DECANE
Structure: 312C31302D44494359414E4F2D444543414E452E6D6F6C0A20204368656D447261773130323330393131323632440A2031342031332020302020302020302020302020302020302020302020303939392056323030300A20202020332E323135312020202D302E3230363320202020302E303030302043202020302020302020302020302020302020302020302020302020302020302020302020300A20202020322E3530303620202020302E3230363320202020302E303030302043202020302020302020302020302020302020302020302020302020302020302020302020300A20202020312E373836322020202D302E3230363320202020302E303030302043202020302020302020302020302020302020302020302020302020302020302020302020300A20202020312E3037313720202020302E3230363220202020302E303030302043202020302020302020302020302020302020302020302020302020302020302020302020300A20202020302E333537322020202D302E3230363320202020302E303030302043202020302020302020302020302020302020302020302020302020302020302020302020300A2020202D302E3335373220202020302E3230363220202020302E303030302043202020302020302020302020302020302020302020302020302020302020302020302020300A2020202D312E303731372020202D302E3230363320202020302E303030302043202020302020302020302020302020302020302020302020302020302020302020302020300A2020202D312E3738363220202020302E3230363220202020302E303030302043202020302020302020302020302020302020302020302020302020302020302020302020300A2020202D322E353030362020202D302E3230363320202020302E303030302043202020302020302020302020302020302020302020302020302020302020302020302020300A2020202D332E3231353120202020302E3230363220202020302E303030302043202020302020302020302020302020302020302020302020302020302020302020302020300A2020202D332E393239362020202D302E3230363320202020302E303030302043202020302020302020302020302020302020302020302020302020302020302020302020300A2020202D342E363434312020202D302E3631383820202020302E30303030204E202020302020302020302020302020302020302020302020302020302020302020302020300A20202020332E3932393620202020302E3230363320202020302E303030302043202020302020302020302020302020302020302020302020302020302020302020302020300A20202020342E3634343120202020302E3631383820202020302E30303030204E202020302020302020302020302020302020302020302020302020302020302020302020300A2020312020322020312020302020202020200A2020322020332020312020302020202020200A2020332020342020312020302020202020200A2020342020352020312020302020202020200A2020352020362020312020302020202020200A2020362020372020312020302020202020200A2020372020382020312020302020202020200A2020382020392020312020302020202020200A2020392031302020312020302020202020200A2031312031322020332020302020202020200A2031302031312020312020302020202020200A2031332031342020332020302020202020200A2020312031332020312020302020202020200A4D2020454E44
Contributor: MASS SPECTROSCOPY SOC. OF JAPAN (MSSJ)
InstType: EI
InstName: Unknown
IoniMethod: EI
IonPolarity: pos
Date: 2010-10-09 19:48:36+02:00
Num Peaks: 41
27 239 28 107 29 291 39 202 40 47 41 833 42 183 43 200 53 91 54 386 
55 619 56 109 57 119 67 116 68 101 69 529 70 71 77 35 79 70 80 41 
81 114 82 705 83 999 84 85 93 37 94 25 95 58 96 628 97 950 98 89 
107 25 109 38 110 321 111 61 124 91 138 28 149 28 152 168 153 24 163 43 
191 23 
