Name: METHYL SEC-BUTYL ETHER
MW: 88
Formula: C5H12O
Synonym: MassBank: JP003904
Synonym: METHYL SEC-BUTYL ETHER
Structure: 310A31360A4D455448594C205345432D425554594C2045544845522E6D6F6C0A20204368656D447261773038313231303030333932440A2020362020352020302020302020302020302020302020302020302020303939392056323030300A20202020302E343132352020202D302E3731343520202020302E30303030204F202020302020302020302020302020302020302020302020302020302020302020302020300A20202020302E303030302020202D302E3030303020202020302E303030302043202020302020302020302020302020302020302020302020302020302020302020302020300A2020202D302E383235302020202D302E3030303020202020302E303030302043202020302020302020302020302020302020302020302020302020302020302020302020300A2020202D312E323337352020202D302E3731343520202020302E303030302043202020302020302020302020302020302020302020302020302020302020302020302020300A20202020302E3431323520202020302E3731343520202020302E303030302043202020302020302020302020302020302020302020302020302020302020302020302020300A20202020312E323337352020202D302E3731343520202020302E303030302043202020302020302020302020302020302020302020302020302020302020302020302020300A2020322020332020312020302020202020200A2020332020342020312020302020202020200A2020322020352020312020302020202020200A2020312020322020312020302020202020200A2020312020362020312020302020202020200A4D2020454E44
Contributor: MASS SPECTROSCOPY SOC. OF JAPAN (MSSJ)
InstType: EI
InstName: Unknown
IoniMethod: EI
IonPolarity: pos
Date: 2010-10-09 19:48:36+02:00
Num Peaks: 25
14 38 15 167 26 31 27 21 28 49 29 348 30 20 31 12 33 20 38 25 
39 76 40 2 41 171 42 26 43 112 45 12 53 32 54 35 55 54 56 3 
57 999 58 37 73 129 87 2 88 20 
