Name: METHACRYLOYL CHLORIDE
MW: 104
Formula: C4H5ClO
Synonym: MassBank: JP001015
Synonym: METHACRYLOYL CHLORIDE
Structure: 310A31360A4D455448414352594C4F594C2043484C4F524944452E6D6F6C0A20204368656D447261773038313131303233303132440A2020362020352020302020302020302020302020302020302020302020303939392056323030300A20202020302E3230363220202020302E3335373220202020302E303030302043202020302020302020302020302020302020302020302020302020302020302020302020300A2020202D302E323036332020202D302E3335373220202020302E303030302043202020302020302020302020302020302020302020302020302020302020302020302020300A20202020302E323036322020202D312E3037313720202020302E303030302043202020302020302020302020302020302020302020302020302020302020302020302020300A2020202D312E303331332020202D302E3335373220202020302E303030302043202020302020302020302020302020302020302020302020302020302020302020302020300A2020202D302E3230363320202020312E3037313720202020302E30303030204F202020302020302020302020302020302020302020302020302020302020302020302020300A20202020312E3033313320202020302E3335373220202020302E3030303020436C2020302020302020302020302020302020302020302020302020302020302020302020300A2020312020322020312020302020202020200A2020322020332020312020302020202020200A2020322020342020322020302020202020200A2020312020352020322020302020202020200A2020312020362020312020302020202020200A4D2020454E44
Contributor: TAJIMA S, GUNMA COLLEGE OF TECHNOLOGY
InstType: EI
InstName: HITACHI RMU-7M
IoniMethod: _ENERGY 70 eV
IonPolarity: pos
Date: 2010-10-09 19:48:36+02:00
Num Peaks: 26
15 25 26 47 27 47 35 22 36 33 37 77 38 116 39 586 40 90 41 760 
42 33 43 40 49 18 50 13 51 14 53 34 55 13 63 37 69 999 70 44 
76 77 77 35 78 25 79 18 81 26 89 12 
