Name: 2-TERT-BUTYLINDOLE
MW: 173
Formula: C12H15N
Synonym: MassBank: JP004319
Synonym: 2-TERT-BUTYLINDOLE
Structure: 322D544552542D425554594C494E444F4C452E6D6F6C0A20204368656D447261773032323131303136313832440A2031332031342020302020302020302020302020302020302020302020303939392056323030300A20202020302E3033393320202020302E3636373420202020302E30303030204E202020302020302020302020302020302020302020302020302020302020302020302020300A20202020302E3532343220202020302E3030303020202020302E303030302043202020302020302020302020302020302020302020302020302020302020302020302020300A20202020302E303339332020202D302E3636373420202020302E303030302043202020302020302020302020302020302020302020302020302020302020302020302020300A2020202D302E373435332020202D302E3431323520202020302E303030302043202020302020302020302020302020302020302020302020302020302020302020302020300A2020202D312E343539382020202D302E3832353020202020302E303030302043202020302020302020302020302020302020302020302020302020302020302020302020300A2020202D322E313734322020202D302E3431323520202020302E303030302043202020302020302020302020302020302020302020302020302020302020302020302020300A2020202D322E3137343220202020302E3431323520202020302E303030302043202020302020302020302020302020302020302020302020302020302020302020302020300A2020202D312E3435393820202020302E3832353020202020302E303030302043202020302020302020302020302020302020302020302020302020302020302020302020300A2020202D302E3734353320202020302E3431323520202020302E303030302043202020302020302020302020302020302020302020302020302020302020302020302020300A20202020312E3334393220202020302E3030303020202020302E303030302043202020302020302020302020302020302020302020302020302020302020302020302020300A20202020312E3334393220202020302E3832353020202020302E303030302043202020302020302020302020302020302020302020302020302020302020302020302020300A20202020322E3137343220202020302E3030303020202020302E303030302043202020302020302020302020302020302020302020302020302020302020302020302020300A20202020312E333439322020202D302E3832353020202020302E303030302043202020302020302020302020302020302020302020302020302020302020302020302020300A2020312020322020312020302020202020200A2020322020332020322020302020202020200A2020332020342020312020302020202020200A2020342020352020312020302020202020200A2020352020362020322020302020202020200A2020362020372020312020302020202020200A2020372020382020322020302020202020200A2020382020392020312020302020202020200A2020312020392020312020302020202020200A2020342020392020322020302020202020200A2031302031312020312020302020202020200A2031302031332020312020302020202020200A2031302031322020312020302020202020200A2020322031302020312020302020202020200A4D2020454E44
Contributor: SASAKI S, TOYOHASHI UNIV. OF TECH.
InstType: EI
InstName: MX-1303
IoniMethod: _ENERGY 50 eV
IonPolarity: pos
Date: 2010-10-09 19:48:36+02:00
Num Peaks: 57
26 13 27 31 29 29 30 5 31 13 39 33 40 16 41 6 42 21 43 56 
45 13 51 1 53 12 55 34 56 19 57 2 60 11 63 13 65 38 67 1 
69 17 70 12 71 14 71.5 1 72.5 12 77 24 78 15 79 5 81 12 83 12 
83.5 12 86.5 2 89 28 90 23 91 36 98 1 101 11 103 12 115 56 117 9 
118 60 128 19 129 20 130 7 131 16 141 17 142 36 143 12 144 22 154 13 
156 28 157 6 158 999 159 128 172 27 173 44 174 63 
