Name: 2-(2-HYDROXYETHOXY)-N-(2-(DIMETHYLAMINO)ETHYL)-4-QUTNOLINECARBOXAMIDE
MW: 303
Formula: C16H21N3O3
Synonym: MassBank: JP003487
Synonym: 2-(2-HYDROXYETHOXY)-N-(2-(DIMETHYLAMINO)ETHYL)-4-QUTNOLINECARBOXAMIDE
Structure: 322D28322D485944524F58594554484F5859292D4E2D28322D2844494D455448594C414D494E4F29455448594C292D342D5155544E4F4C494E45434152424F58414D4944452E6D6F6C0A20204368656D447261773132323130393133353232440A2032322032332020302020302020302020302020302020302020302020303939392056323030300A2020202D322E3835373920202020312E3033313320202020302E303030302043202020302020302020302020302020302020302020302020302020302020302020302020300A2020202D322E3835373920202020302E3230363220202020302E303030302043202020302020302020302020302020302020302020302020302020302020302020302020300A2020202D322E313433342020202D302E3230363220202020302E303030302043202020302020302020302020302020302020302020302020302020302020302020302020300A2020202D312E3432383920202020302E3230363220202020302E303030302043202020302020302020302020302020302020302020302020302020302020302020302020300A2020202D312E3432383920202020312E3033313320202020302E303030302043202020302020302020302020302020302020302020302020302020302020302020302020300A2020202D322E3134333420202020312E3434333820202020302E303030302043202020302020302020302020302020302020302020302020302020302020302020302020300A2020202D302E373134352020202D302E3230363220202020302E303030302043202020302020302020302020302020302020302020302020302020302020302020302020300A20202020302E3030303020202020302E3230363220202020302E303030302043202020302020302020302020302020302020302020302020302020302020302020302020300A20202020302E3030303020202020312E3033313320202020302E303030302043202020302020302020302020302020302020302020302020302020302020302020302020300A2020202D302E3731343520202020312E3434333820202020302E30303030204E202020302020302020302020302020302020302020302020302020302020302020302020300A20202020302E3731343520202020312E3434333820202020302E30303030204F202020302020302020302020302020302020302020302020302020302020302020302020300A20202020312E3432383920202020312E3033313320202020302E303030302043202020302020302020302020302020302020302020302020302020302020302020302020300A20202020322E3134333420202020312E3434333820202020302E303030302043202020302020302020302020302020302020302020302020302020302020302020302020300A20202020322E3835373920202020312E3033313320202020302E30303030204F202020302020302020302020302020302020302020302020302020302020302020302020300A2020202D302E373134352020202D312E3033313320202020302E303030302043202020302020302020302020302020302020302020302020302020302020302020302020300A20202020302E303030302020202D312E3434333820202020302E30303030204E202020302020302020302020302020302020302020302020302020302020302020302020300A2020202D312E343238392020202D312E3434333820202020302E30303030204F202020302020302020302020302020302020302020302020302020302020302020302020300A20202020302E373134352020202D312E3033313320202020302E303030302043202020302020302020302020302020302020302020302020302020302020302020302020300A20202020312E343238392020202D312E3434333820202020302E303030302043202020302020302020302020302020302020302020302020302020302020302020302020300A20202020322E313433342020202D312E3033313320202020302E30303030204E202020302020302020302020302020302020302020302020302020302020302020302020300A20202020322E383537392020202D312E3434333820202020302E303030302043202020302020302020302020302020302020302020302020302020302020302020302020300A20202020322E313433342020202D302E3230363220202020302E303030302043202020302020302020302020302020302020302020302020302020302020302020302020300A2020312020322020322020302020202020200A2020322020332020312020302020202020200A2020332020342020322020302020202020200A2020342020352020312020302020202020200A2020352020362020322020302020202020200A2020362020312020312020302020202020200A2020342020372020312020302020202020200A2020372020382020322020302020202020200A2020382020392020312020302020202020200A2020392031302020322020302020202020200A2031302020352020312020302020202020200A2020392031312020312020302020202020200A2031312031322020312020302020202020200A2031322031332020312020302020202020200A2031332031342020312020302020202020200A2020372031352020312020302020202020200A2031352031362020312020302020202020200A2031352031372020322020302020202020200A2031362031382020312020302020202020200A2031382031392020312020302020202020200A2031392032302020312020302020202020200A2032302032312020312020302020202020200A2032302032322020312020302020202020200A4D2020454E44
Contributor: MASS SPECTROSCOPY SOC. OF JAPAN (MSSJ)
InstType: EI
InstName: HITACHI M-60
IoniMethod: _ENERGY 20 eV
IonPolarity: pos
Date: 2010-10-09 19:48:36+02:00
Num Peaks: 16
43 6 44 3 55 3 56 5 58 999 72 5 73 2 83 1 85 5 113 1 
144 2 145 2 172 1 216 2 258 2 301 1 
