Name: BROMOCHLOROMETHANE
MW: 127
Formula: CH2BrCl
Synonym: MassBank: JP003422
Synonym: BROMOCHLOROMETHANE
Structure: 310A31300A42524F4D4F43484C4F524F4D455448414E452E6D6F6C0A20204368656D447261773039303631303031323032440A2020332020322020302020302020302020302020302020302020302020303939392056323030300A2020202D302E3030303020202020302E3230363320202020302E303030302043202020302020302020302020302020302020302020302020302020302020302020302020300A20202020302E373134352020202D302E3230363320202020302E3030303020436C2020302020302020302020302020302020302020302020302020302020302020302020300A2020202D302E373134352020202D302E3230363320202020302E303030302042722020302020302020302020302020302020302020302020302020302020302020302020300A2020312020322020312020302020202020200A2020312020332020312020302020202020200A4D2020454E44
Contributor: KOGA M, UNIV. OF OCCUPATIONAL AND ENVIRONMENTAL HEALTH
InstType: EI
InstName: JEOL JMS-01-SG-2
IoniMethod: _ENERGY 75 eV
IonPolarity: pos
Date: 2010-10-09 19:48:36+02:00
Num Peaks: 15
44 54 45 253 47 95 49 999 51 325 73 90 74 85 81 9 88 95 89 40 
93 208 95 16 128 520 130 656 132 162 
