Name: TETRA-O-ACETYL-1-DEOXY-D-ARABINO-HEX-1-ENOPYRANOSE
MW: 330
Formula: C14H18O9
Synonym: MassBank: JP002976
Synonym: TETRA-O-ACETYL-1-DEOXY-D-ARABINO-HEX-1-ENOPYRANOSE
Structure: 303437365F54455452412D4F2D41434554594C2D312D44454F58592D442D41524142494E4F2D4845582D312D454E4F505952414E4F53452E6D6F6C0A20204368656D447261773038323031303033353132440A2032372032372020302020302020302020302020302020302020302020303939392056323030300A20202020302E3837323220202020302E3534373220202020302E303030302043202020302020302020302020302020302020302020302020302020302020302020302020300A20202020302E383732322020202D302E3237373820202020302E303030302043202020302020302020302020302020302020302020302020302020302020302020302020300A20202020302E313537372020202D302E3639303320202020302E303030302043202020302020302020302020302020302020302020302020302020302020302020302020300A2020202D302E353536382020202D302E3237373820202020302E303030302043202020302020302020302020302020302020302020302020302020302020302020302020300A2020202D302E3535363820202020302E3534373220202020302E303030302043202020302020302020302020302020302020302020302020302020302020302020302020300A20202020302E3135373720202020302E3935393720202020302E30303030204F202020302020302020302020302020302020302020302020302020302020302020302020300A2020202D312E3335333720202020302E3333333720202020302E303030302048202020302020302020302020302020302020302020302020302020302020302020302020300A2020202D312E333533372020202D302E3036343320202020302E30303030204F202020302020302020302020302020302020302020302020302020302020302020302020300A20202020312E3538363720202020302E3935393720202020302E303030302048202020302020302020302020302020302020302020302020302020302020302020302020300A2020202D302E3837323520202020312E3330393420202020302E303030302043202020302020302020302020302020302020302020302020302020302020302020302020300A2020202D302E383732352020202D312E3034303020202020302E303030302048202020302020302020302020302020302020302020302020302020302020302020302020300A20202020312E353836362020202D302E3639303320202020302E30303030204F202020302020302020302020302020302020302020302020302020302020302020302020300A20202020322E343131362020202D302E3639303320202020302E303030302043202020302020302020302020302020302020302020302020302020302020302020302020300A20202020322E383234312020202D312E3430343720202020302E30303030204F202020302020302020302020302020302020302020302020302020302020302020302020300A20202020322E3832343120202020302E3032343220202020302E303030302043202020302020302020302020302020302020302020302020302020302020302020302020300A2020202D312E393337302020202D302E3634373620202020302E303030302043202020302020302020302020302020302020302020302020302020302020302020302020300A2020202D322E373333392020202D302E3433343120202020302E30303030204F202020302020302020302020302020302020302020302020302020302020302020302020300A2020202D312E373233352020202D312E3434343520202020302E303030302043202020302020302020302020302020302020302020302020302020302020302020302020300A2020202D312E3639303420202020312E3431373120202020302E30303030204F202020302020302020302020302020302020302020302020302020302020302020302020300A2020202D322E3030363220202020322E3137393320202020302E303030302043202020302020302020302020302020302020302020302020302020302020302020302020300A2020202D322E3832343120202020322E3238373020202020302E303030302043202020302020302020302020302020302020302020302020302020302020302020302020300A2020202D312E3530333920202020322E3833333720202020302E30303030204F202020302020302020302020302020302020302020302020302020302020302020302020300A2020202D302E353536382020202D312E3130323820202020302E303030302043202020302020302020302020302020302020302020302020302020302020302020302020300A20202020302E353730322020202D312E3430343820202020302E30303030204F202020302020302020302020302020302020302020302020302020302020302020302020300A20202020302E313537372020202D322E3131393320202020302E303030302043202020302020302020302020302020302020302020302020302020302020302020302020300A20202020302E353730322020202D322E3833333720202020302E30303030204F202020302020302020302020302020302020302020302020302020302020302020302020300A2020202D302E363637332020202D322E3131393320202020302E303030302043202020302020302020302020302020302020302020302020302020302020302020302020300A2020312020322020322020302020202020200A2020322020332020312020302020202020200A2020332020342020312020302020202020200A2020342020352020312020302020202020200A2020352020362020312020302020202020200A2020362020312020312020302020202020200A2020352020372020312020362020202020200A2020342020382020312020362020202020200A2020312020392020312020302020202020200A2020352031302020312020312020202020200A2020342031312020312020312020202020200A2020322031322020312020302020202020200A2031322031332020312020302020202020200A2031332031342020322020302020202020200A2031332031352020312020302020202020200A2020382031362020312020302020202020200A2031362031372020322020302020202020200A2031362031382020312020302020202020200A2031302031392020312020302020202020200A2031392032302020312020302020202020200A2032302032312020312020302020202020200A2032302032322020322020302020202020200A2020332032332020312020362020202020200A2020332032342020312020312020202020200A2032342032352020312020302020202020200A2032352032362020322020302020202020200A2032352032372020312020302020202020200A4D2020454E44
Contributor: SASAKI S, TOYOHASHI UNIV. OF TECH.
InstType: EI
InstName: Unknown
IoniMethod: EI
IonPolarity: pos
Date: 2010-10-09 19:48:36+02:00
Num Peaks: 39
54 40 60 213 64 27 69 37 72 27 75 27 81 160 82 4 88 107 93 40 
94 40 97 93 99 80 101 40 102 133 111 4 113 333 125 80 126 999 127 13 
139 213 141 27 143 67 144 33 145 93 152 53 157 200 167 3 168 200 180 27 
185 213 186 4 197 13 227 53 228 13 245 13 287 160 288 40 330 27 
