Name: CYCLOHEPTENE
MW: 96
Formula: C7H12
Synonym: MassBank: JP008859
Synonym: CYCLOHEPTENE
Structure: 310A31390A4359434C4F48455054454E452E6D6F6C0A20204368656D447261773039313531303035333332440A2020372020372020302020302020302020302020302020302020302020303939392056323030300A2020202D302E343132352020202D302E3930333620202020302E303030302043202020302020302020302020302020302020302020302020302020302020302020302020300A2020202D302E393236392020202D302E3235383620202020302E303030302043202020302020302020302020302020302020302020302020302020302020302020302020300A2020202D302E3734333320202020302E3534353720202020302E303030302043202020302020302020302020302020302020302020302020302020302020302020302020300A2020202D302E3030303020202020302E3930333620202020302E303030302043202020302020302020302020302020302020302020302020302020302020302020302020300A20202020302E3734333320202020302E3534353720202020302E303030302043202020302020302020302020302020302020302020302020302020302020302020302020300A20202020302E393236392020202D302E3235383620202020302E303030302043202020302020302020302020302020302020302020302020302020302020302020302020300A20202020302E343132352020202D302E3930333620202020302E303030302043202020302020302020302020302020302020302020302020302020302020302020302020300A2020312020322020322020302020202020200A2020322020332020312020302020202020200A2020332020342020312020302020202020200A2020342020352020312020302020202020200A2020352020362020312020302020202020200A2020362020372020312020302020202020200A2020312020372020312020302020202020200A4D2020454E44
Contributor: TAJIMA S, GUNMA COLLEGE OF TECHNOLOGY
InstType: EI
InstName: HITACHI RMU-7M
IoniMethod: _ENERGY 70 eV
IonPolarity: pos
Date: 2010-10-09 19:48:36+02:00
Num Peaks: 29
27 205 28 28 29 188 39 391 40 77 41 277 42 75 50 26 51 52 52 26 
53 203 54 976 55 564 56 57 65 68 66 88 67 999 68 586 69 53 70 29 
77 67 79 111 81 710 82 52 91 95 92 52 95 76 96 574 97 51 
