Name: (4-PHENYL-3-BUTENYL)TRIMETHYLSILANE
MW: 204
Formula: C13H20Si
Synonym: MassBank: JP004984
Synonym: (4-PHENYL-3-BUTENYL)TRIMETHYLSILANE
Synonym: 1-PHENYL-4-TRIMETHYLSILYL-1-BUTENE
Structure: 28342D5048454E594C2D332D425554454E594C295452494D455448594C53494C414E452E6D6F6C0A20204368656D447261773130323130393132323732440A2031342031342020302020302020302020302020302020302020302020303939392056323030300A2020202D312E3833313020202020302E3637303320202020302E303030302043202020302020302020302020302020302020302020302020302020302020302020302020300A2020202D312E3131363620202020312E3038323820202020302E303030302043202020302020302020302020302020302020302020302020302020302020302020302020300A2020202D302E3430323120202020302E3637303320202020302E303030302043202020302020302020302020302020302020302020302020302020302020302020302020300A20202020302E3331323320202020312E3038323820202020302E303030302043202020302020302020302020302020302020302020302020302020302020302020302020300A20202020312E3032363820202020302E3637303320202020302E303030302043202020302020302020302020302020302020302020302020302020302020302020302020300A20202020312E3734313220202020312E3038323820202020302E303030302053692020302020302020302020302020302020302020302020302020302020302020302020300A2020202D322E3534353520202020312E3038323820202020302E303030302043202020302020302020302020302020302020302020302020302020302020302020302020300A2020202D332E3235393920202020302E3637303320202020302E303030302043202020302020302020302020302020302020302020302020302020302020302020302020300A2020202D332E323539392020202D302E3135343720202020302E303030302043202020302020302020302020302020302020302020302020302020302020302020302020300A2020202D322E353435352020202D302E3536373120202020302E303030302043202020302020302020302020302020302020302020302020302020302020302020302020300A2020202D312E383331302020202D302E3135343720202020302E303030302043202020302020302020302020302020302020302020302020302020302020302020302020300A20202020332E303734392020202D302E3033383320202020302E303030302043202020302020302020302020302020302020302020302020302020302020302020302020300A20202020322E303135322020202D302E3033383320202020302E303030302043202020302020302020302020302020302020302020302020302020302020302020302020300A20202020332E323539392020202D312E3038323820202020302E303030302043202020302020302020302020302020302020302020302020302020302020302020302020300A2020312020322020312020302020202020200A2020322020332020322020302020202020200A2020332020342020312020302020202020200A2020342020352020312020302020202020200A2020352020362020312020302020202020200A2020312020372020322020302020202020200A2020372020382020312020302020202020200A2020382020392020322020302020202020200A2020392031302020312020302020202020200A2031302031312020322020302020202020200A2031312020312020312020302020202020200A2020362031322020312020302020202020200A2020362031332020312020302020202020200A2020362031342020312020302020202020200A4D202053545920203120202031205355500A4D2020534C4220203120202031202020310A4D202053414C20202031202031202031320A4D202053424C20202031202031202031320A4D2020534D5420202031204D650A4D2020534256202020312031322020202D352E3730373020202020372E333238310A4D202053545920203120202032205355500A4D2020534C4220203120202032202020320A4D202053414C20202032202031202031330A4D202053424C20202032202031202031330A4D2020534D5420202032204D650A4D2020534256202020322031332020202D362E3736363720202020372E333238310A4D202053545920203120202033205355500A4D2020534C4220203120202033202020330A4D202053414C20202033202031202031340A4D202053424C20202033202031202031340A4D2020534D5420202033204D650A4D2020534256202020332031342020202D352E3532323020202020362E323833360A4D2020454E44
Contributor: MASS SPECTROSCOPY SOC. OF JAPAN (MSSJ)
InstType: EI
InstName: JEOL JMS-D-3000
IoniMethod: _ENERGY 70 eV
IonPolarity: pos
Date: 2010-10-09 19:48:36+02:00
Num Peaks: 28
43 30 44 72 45 59 51 13 58 11 59 103 72 15 73 999 74 89 75 45 
77 13 91 27 104 30 105 12 115 46 116 12 117 32 121 12 128 25 129 47 
130 237 131 30 135 40 145 18 161 57 189 24 204 135 205 28 
