Name: MassBank: JP009785
MW: 170
Formula: C10H18O2
Synonym: MassBank: JP009785
Synonym: 3,7-DIMETHYL-2,3-EPOXY-6-OCTEN-1-OL
Structure: 332C372D44494D455448594C2D322C332D45504F58592D362D4F4354454E2D312D4F4C2E6D6F6C0A20204368656D447261773032323231303033353232440A2031322031322020302020302020302020302020302020302020302020303939392056323030300A2020202D312E373538392020202D312E3336383220202020302E303030302043202020302020302020302020302020302020302020302020302020302020302020302020300A2020202D312E333436342020202D302E3635333720202020302E303030302043202020302020302020302020302020302020302020302020302020302020302020302020300A2020202D302E363331392020202D302E3234313220202020302E303030302043202020302020302020302020302020302020302020302020302020302020302020302020300A2020202D302E3130313620202020302E3339303820202020302E303030302043202020302020302020302020302020302020302020302020302020302020302020302020300A20202020302E3731303820202020302E3234373520202020302E303030302043202020302020302020302020302020302020302020302020302020302020302020302020300A20202020312E3234313120202020302E3837393520202020302E303030302043202020302020302020302020302020302020302020302020302020302020302020302020300A20202020322E3035333620202020302E3733363220202020302E303030302043202020302020302020302020302020302020302020302020302020302020302020302020300A20202020322E3538333920202020312E3336383220202020302E303030302043202020302020302020302020302020302020302020302020302020302020302020302020300A2020202D322E353833392020202D312E3336383220202020302E30303030204F202020302020302020302020302020302020302020302020302020302020302020302020300A2020202D312E3334363420202020302E3137313320202020302E30303030204F202020302020302020302020302020302020302020302020302020302020302020302020300A20202020322E333335382020202D302E3033393020202020302E303030302043202020302020302020302020302020302020302020302020302020302020302020302020300A2020202D302E313031362020202D302E3837333220202020302E303030302043202020302020302020302020302020302020302020302020302020302020302020302020300A2020312020322020312020302020202020200A2020322020332020312020302020202020200A2020332020342020312020302020202020200A2020342020352020312020302020202020200A2020352020362020312020302020202020200A2020362020372020322020302020202020200A2020372020382020312020302020202020200A2020312020392020312020302020202020200A2020322031302020312020302020202020200A2020332031302020312020302020202020200A2020372031312020312020302020202020200A2020332031322020312020302020202020200A4D2020454E44
Contributor: KURARAY CO., LTD.
InstType: EI
InstName: JEOL JMS-D-300
IoniMethod: _ENERGY 70 eV
IonPolarity: pos
Date: 2010-10-09 19:48:36+02:00
Num Peaks: 55
27 151 28 39 29 124 31 8 39 252 40 49 41 999 42 9 43 805 44 40 
45 35 51 3 53 157 54 43 55 363 56 6 57 48 58 50 59 120 61 32 
65 33 67 592 68 180 69 82 70 160 71 262 72 36 77 5 79 99 81 277 
82 518 83 19 84 85 85 94 87 27 88 11 91 36 93 92 94 46 95 28 
96 33 97 70 101 22 107 3 108 21 109 966 110 337 111 10 119 32 121 64 
123 16 137 2 139 43 152 17 155 10 
