Name: MassBank: JP002435
MW: 202
Formula: C15H22
Synonym: MassBank: JP002435
Synonym: 2,6,6,9-TETRAMETHYL-5ALPHA,8BETA-TRICYCLO(6.3.0.0(1,5))UNDECA-2,9-DIENE
Structure: 322C362C362C392D54455452414D455448594C2D35414C5048412C38424554412D5452494359434C4F28362E332E302E3028312C352929554E444543412D322C392D4449454E452E6D6F6C0A20204368656D447261773132323130393032313832440A2031392032312020302020302020302020302020302020302020302020303939392056323030300A20202020302E3039343220202020302E3037383820202020302E303030302043202020302020302020302020302020302020302020302020302020302020302020302020300A20202020302E3736313620202020302E3536333720202020302E303030302043202020302020302020302020302020302020302020302020302020302020302020302020300A20202020302E3530363720202020312E3334383320202020302E303030302043202020302020302020302020302020302020302020302020302020302020302020302020300A2020202D302E3331383320202020312E3334383320202020302E303030302043202020302020302020302020302020302020302020302020302020302020302020302020300A2020202D302E3536383120202020302E3536383720202020302E303030302043202020302020302020302020302020302020302020302020302020302020302020302020300A2020202D312E3234343320202020302E3038353020202020302E303030302043202020302020302020302020302020302020302020302020302020302020302020302020300A2020202D302E393835382020202D302E3730353820202020302E303030302043202020302020302020302020302020302020302020302020302020302020302020302020300A2020202D302E313630382020202D302E3730353820202020302E303030302043202020302020302020302020302020302020302020302020302020302020302020302020300A20202020302E353036372020202D312E3139303820202020302E303030302043202020302020302020302020302020302020302020302020302020302020302020302020300A20202020312E313734312020202D302E3730353820202020302E303030302043202020302020302020302020302020302020302020302020302020302020302020302020300A20202020302E3931393220202020302E3037383820202020302E303030302043202020302020302020302020302020302020302020302020302020302020302020302020300A20202020302E353036372020202D322E3031353820202020302E303030302043202020302020302020302020302020302020302020302020302020302020302020302020300A2020202D312E3737313020202020302E3731303820202020302E303030302043202020302020302020302020302020302020302020302020302020302020302020302020300A2020202D312E393538372020202D302E3332373520202020302E303030302043202020302020302020302020302020302020302020302020302020302020302020302020300A20202020312E3534363220202020302E3330383820202020302E303030302043202020302020302020302020302020302020302020302020302020302020302020302020300A2020202D312E3135313520202020312E3135323120202020302E303030302048202020302020302020302020302020302020302020302020302020302020302020302020300A2020202D302E343135372020202D312E3439303520202020302E303030302048202020302020302020302020302020302020302020302020302020302020302020302020300A20202020302E3939313620202020322E3031353820202020302E303030302048202020302020302020302020302020302020302020302020302020302020302020302020300A20202020312E393538372020202D302E3936303820202020302E303030302048202020302020302020302020302020302020302020302020302020302020302020302020300A2020312020322020312020302020202020200A2020322020332020322020302020202020200A2020332020342020312020302020202020200A2020342020352020312020302020202020200A2020352020362020312020302020202020200A2020362020372020312020302020202020200A2020372020382020312020302020202020200A2020382020392020312020302020202020200A2020392031302020322020302020202020200A2031302031312020312020302020202020200A2020312031312020312020302020202020200A2020312020382020312020302020202020200A2020312020352020312020302020202020200A2020392031322020312020302020202020200A2020362031332020312020312020202020200A2020362031342020312020362020202020200A2020322031352020312020302020202020200A2020352031362020312020312020202020200A2020382031372020312020312020202020200A2020332031382020312020302020202020200A2031302031392020312020302020202020200A4D2020454E44
Contributor: ITO S, DEPT. OF CHEM., TOHOKU UNIV.
InstType: EI
InstName: HITACHI M-52
IoniMethod: _ENERGY 25 eV
IonPolarity: pos
Date: 2010-10-09 19:48:36+02:00
Num Peaks: 32
55 30 81 102 91 98 93 9 95 28 105 182 106 33 107 7 109 35 116 30 
117 33 119 19 121 353 122 93 123 28 130 5 131 700 132 56 133 128 134 9 
144 52 145 490 146 180 147 18 148 37 159 171 160 115 173 8 187 529 188 78 
202 999 203 121 
