Name: 2-DIETHYLAMINOETHANOL
MW: 117
Formula: C6H15NO
Synonym: MassBank: JP008078
Synonym: 2-DIETHYLAMINOETHANOL
Structure: 310A32300A322D4449455448594C414D494E4F455448414E4F4C2E6D6F6C0A20204368656D447261773031303331303132313432440A2020382020372020302020302020302020302020302020302020302020303939392056323030300A2020202D302E3030303020202020312E3037313720202020302E303030302043202020302020302020302020302020302020302020302020302020302020302020302020300A20202020302E3431323520202020302E3335373220202020302E303030302043202020302020302020302020302020302020302020302020302020302020302020302020300A2020202D302E303030302020202D302E3335373220202020302E30303030204E202020302020302020302020302020302020302020302020302020302020302020302020300A20202020302E343132352020202D312E3037313720202020302E303030302043202020302020302020302020302020302020302020302020302020302020302020302020300A20202020312E323337352020202D312E3037313720202020302E303030302043202020302020302020302020302020302020302020302020302020302020302020302020300A2020202D302E383235302020202D302E3335373220202020302E303030302043202020302020302020302020302020302020302020302020302020302020302020302020300A2020202D312E323337352020202D312E3037313720202020302E303030302043202020302020302020302020302020302020302020302020302020302020302020302020300A2020202D302E3832353020202020312E3037313720202020302E30303030204F202020302020302020302020302020302020302020302020302020302020302020302020300A2020312020322020312020302020202020200A2020342020352020312020302020202020200A2020332020342020312020302020202020200A2020362020372020312020302020202020200A2020332020362020312020302020202020200A2020322020332020312020302020202020200A2020312020382020312020302020202020200A4D2020454E44
Contributor: YAMAMOTO M, DEP. CHEMISTRY, FAC. SCIENCE, NARA WOMEN'S UNIV.
InstType: EI
InstName: HITACHI RMU-6M
IoniMethod: _ENERGY 20 eV
IonPolarity: pos
Date: 2010-10-09 19:48:36+02:00
Num Peaks: 18
28 12 29 26 30 177 42 17 44 29 45 28 56 32 57 11 58 319 59 14 
70 13 72 32 86 999 87 62 88 23 102 73 116 26 117 59 
