Name: 1-METHYLPROPYLAMINE
MW: 73
Formula: C4H11N
Synonym: MassBank: JP008851
Synonym: 1-METHYLPROPYLAMINE
Synonym: SEC-BUTYLAMINE
Structure: 310A31340A312D4D455448594C50524F50594C414D494E452E6D6F6C0A20204368656D447261773131323130393138333432440A2020352020342020302020302020302020302020302020302020302020303939392056323030300A2020202D302E3335373220202020302E3631383820202020302E30303030204E202020302020302020302020302020302020302020302020302020302020302020302020300A2020202D302E333537322020202D302E3230363220202020302E303030302043202020302020302020302020302020302020302020302020302020302020302020302020300A20202020302E333537322020202D302E3631383820202020302E303030302043202020302020302020302020302020302020302020302020302020302020302020302020300A20202020312E303731372020202D302E3230363220202020302E303030302043202020302020302020302020302020302020302020302020302020302020302020302020300A2020202D312E303731372020202D302E3631383720202020302E303030302043202020302020302020302020302020302020302020302020302020302020302020302020300A2020322020332020312020302020202020200A2020332020342020312020302020202020200A2020312020322020312020302020202020200A2020322020352020312020302020202020200A4D2020454E44
Contributor: TAJIMA S, GUNMA COLLEGE OF TECHNOLOGY
InstType: EI
InstName: HITACHI RMU-7M
IoniMethod: _ENERGY 70 eV
IonPolarity: pos
Date: 2010-10-09 19:48:36+02:00
Num Peaks: 17
15 24 27 52 28 52 29 40 30 47 39 22 41 101 42 69 43 38 44 999 
45 84 55 30 56 24 57 22 58 92 59 11 72 18 
