Name: MassBank: JP000008
MW: 161
Formula: C6H4Cl2O
Synonym: MassBank: JP000008
Synonym: 3,5-DICHLOROPHENOL
Structure: 310A32330A332C352D444943484C4F524F5048454E4F4C2E6D6F6C0A20204368656D447261773032323231303030353332440A2020392020392020302020302020302020302020302020302020302020303939392056323030300A2020202D302E343132352020202D302E3030303020202020302E303030302043202020302020302020302020302020302020302020302020302020302020302020302020300A2020202D302E3030303020202020302E3731343520202020302E303030302043202020302020302020302020302020302020302020302020302020302020302020302020300A20202020302E3832353020202020302E3731343520202020302E303030302043202020302020302020302020302020302020302020302020302020302020302020302020300A20202020312E323337352020202D302E3030303020202020302E303030302043202020302020302020302020302020302020302020302020302020302020302020302020300A20202020302E383235302020202D302E3731343520202020302E303030302043202020302020302020302020302020302020302020302020302020302020302020302020300A2020202D302E303030302020202D302E3731343520202020302E303030302043202020302020302020302020302020302020302020302020302020302020302020302020300A20202020312E323337352020202D312E3432383920202020302E3030303020436C2020302020302020302020302020302020302020302020302020302020302020302020300A20202020312E3233373520202020312E3432383920202020302E3030303020436C2020302020302020302020302020302020302020302020302020302020302020302020300A2020202D312E323337352020202D302E3030303020202020302E30303030204F202020302020302020302020302020302020302020302020302020302020302020302020300A2020312020322020312020302020202020200A2020322020332020322020302020202020200A2020332020342020312020302020202020200A2020342020352020322020302020202020200A2020352020362020312020302020202020200A2020312020362020322020302020202020200A2020352020372020312020302020202020200A2020332020382020312020302020202020200A2020312020392020312020302020202020200A4D2020454E44
Contributor: KOGA M, UNIV. OF OCCUPATIONAL AND ENVIRONMENTAL HEALTH
InstType: EI
InstName: VARIAN MAT-44
IoniMethod: _ENERGY 70 eV
IonPolarity: pos
Date: 2010-10-09 19:48:36+02:00
Num Peaks: 32
51 12 53 42 60 36 61 86 62 164 63 315 64 49 72 49 73 100 74 45 
75 39 81 69 82 44 83 25 97 73 98 279 99 284 100 103 101 99 126 81 
127 45 128 33 133 41 134 66 135 30 136 42 161 33 162 999 163 86 164 601 
165 44 166 97 
