Name: URETHAN
CAS: 51-79-6
MW: 89
Formula: C3H7NO2
Synonym: MassBank: JP004521
Synonym: URETHAN
Synonym: ETHYL CARBAMATE
Structure: 310A31360A455448594C2043415242414D4154452E6D6F6C0A20204368656D447261773038313131303138323532440A2020362020352020302020302020302020302020302020302020302020303939392056323030300A20202020302E373134352020202D302E3230363220202020302E303030302043202020302020302020302020302020302020302020302020302020302020302020302020300A20202020312E343238392020202D302E3631383820202020302E30303030204E202020302020302020302020302020302020302020302020302020302020302020302020300A20202020302E3731343520202020302E3631383820202020302E30303030204F202020302020302020302020302020302020302020302020302020302020302020302020300A2020202D302E303030302020202D302E3631383820202020302E30303030204F202020302020302020302020302020302020302020302020302020302020302020302020300A2020202D302E373134352020202D302E3230363320202020302E303030302043202020302020302020302020302020302020302020302020302020302020302020302020300A2020202D312E343238392020202D302E3631383820202020302E303030302043202020302020302020302020302020302020302020302020302020302020302020302020300A2020312020322020312020302020202020200A2020312020332020322020302020202020200A2020312020342020312020302020202020200A2020352020362020312020302020202020200A2020342020352020312020302020202020200A4D2020454E44
Contributor: SEYAMA Y, DEPT. OF PHYSIOL. CHEMISTRY AND NUTRITION, FAC. OF MEDICINE, UNIV. OF TOKYO
InstType: EI
InstName: SHIMADZU QP-1000
IoniMethod: _ENERGY 70 eV
IonPolarity: pos
Date: 2010-10-09 19:48:36+02:00
Num Peaks: 42
13 0 14 4 15 23 16 32 17 59 18 241 19 31 25 2 26 63 27 374 
28 196 29 419 30 66 31 463 32 22 33 2 40 1 41 3 42 20 43 118 
44 999 45 655 46 93 47 3 48 0 55 1 57 0 59 1 60 1 61 71 
62 571 63 9 64 2 71 7 72 1 74 83 75 2 76 0 88 1 89 17 
90 8 91 0 
