Name: MassBank: JP000722
MW: 268
Formula: C16H12O4
Synonym: MassBank: JP000722
Synonym: 3',4'-METHYLENDIOXYFLAVANONE
Synonym: 2-(3,4-METHYLENEDIOXYPHENYL)CHROMAN-4-ONE
Structure: 33272C34272D4D455448594C454E44494F5859464C4156414E4F4E452E6D6F6C0A20204368656D447261773132323130393137333032440A2032302032332020302020302020302020302020302020302020302020303939392056323030300A20202020302E303530372020202D302E3234303420202020302E303030302043202020302020302020302020302020302020302020302020302020302020302020302020300A20202020302E303530372020202D312E3036353420202020302E303030302043202020302020302020302020302020302020302020302020302020302020302020302020300A2020202D302E363633382020202D312E3437373920202020302E303030302043202020302020302020302020302020302020302020302020302020302020302020302020300A2020202D302E363633382020202D322E3330323920202020302E30303030204F202020302020302020302020302020302020302020302020302020302020302020302020300A2020202D312E333738332020202D312E3036353420202020302E303030302043202020302020302020302020302020302020302020302020302020302020302020302020300A2020202D322E303932372020202D312E3437373920202020302E303030302043202020302020302020302020302020302020302020302020302020302020302020302020300A2020202D322E383037322020202D312E3036353420202020302E303030302043202020302020302020302020302020302020302020302020302020302020302020302020300A2020202D322E383037322020202D302E3234303420202020302E303030302043202020302020302020302020302020302020302020302020302020302020302020302020300A2020202D322E3039323720202020302E3137323120202020302E303030302043202020302020302020302020302020302020302020302020302020302020302020302020300A2020202D312E333738332020202D302E3234303420202020302E303030302043202020302020302020302020302020302020302020302020302020302020302020302020300A2020202D302E3636333820202020302E3137323120202020302E30303030204F202020302020302020302020302020302020302020302020302020302020302020302020300A20202020302E3736353220202020302E3137323120202020302E303030302043202020302020302020302020302020302020302020302020302020302020302020302020300A20202020302E3736353220202020302E3939373120202020302E303030302043202020302020302020302020302020302020302020302020302020302020302020302020300A20202020312E3437393620202020312E3430393620202020302E303030302043202020302020302020302020302020302020302020302020302020302020302020302020300A20202020322E3139343120202020302E3939373120202020302E303030302043202020302020302020302020302020302020302020302020302020302020302020302020300A20202020322E3139343120202020302E3137323120202020302E303030302043202020302020302020302020302020302020302020302020302020302020302020302020300A20202020312E343739362020202D302E3234303420202020302E303030302043202020302020302020302020302020302020302020302020302020302020302020302020300A20202020322E3437313620202020322E3330323920202020302E303030302043202020302020302020302020302020302020302020302020302020302020302020302020300A20202020312E3635313220202020322E3231363620202020302E30303030204F202020302020302020302020302020302020302020302020302020302020302020302020300A20202020322E3830373220202020312E3534393220202020302E30303030204F202020302020302020302020302020302020302020302020302020302020302020302020300A2020312020322020312020302020202020200A2020322020332020312020302020202020200A2020332020342020322020302020202020200A2020332020352020312020302020202020200A2020352020362020312020302020202020200A2020362020372020322020302020202020200A2020372020382020312020302020202020200A2020382020392020322020302020202020200A2020392031302020312020302020202020200A2020352031302020322020302020202020200A2031302031312020312020302020202020200A2020312031312020312020302020202020200A2020312031322020312020302020202020200A2031322031332020312020302020202020200A2031332031342020322020302020202020200A2031342031352020312020302020202020200A2031352031362020322020302020202020200A2031362031372020312020302020202020200A2031322031372020322020302020202020200A2031382031392020312020302020202020200A2031382032302020312020302020202020200A2031342031392020312020302020202020200A2031352032302020312020302020202020200A4D2020454E44
Contributor: TAKATORI M, DEPT. OF CHEMISTRY, FAC. OF EDUC., FUKUSHIMA UNIV.
InstType: EI
InstName: JEOL JMS-06-H
IoniMethod: _ENERGY 75 eV
IonPolarity: pos
Date: 2010-10-09 19:48:36+02:00
Num Peaks: 48
38 17 39 54 40 10 41 3 43 13 44 19 50 21 51 4 53 20 55 30 
57 18 62 3 63 106 64 74 65 46 69 3 70 15 76 17 77 21 78 2 
89 154 90 50 91 62 92 9 93 20 105 15 117 14 118 2 119 19 120 32 
121 51 122 7 135 250 136 20 145 19 146 3 147 399 148 999 149 149 150 2 
175 16 181 12 238 14 251 4 267 236 268 687 269 118 270 14 
