Name: ETHOSUXIMIDE
MW: 141
Formula: C7H11NO2
Synonym: MassBank: JP007971
Synonym: ETHOSUXIMIDE
Synonym: 3-ETHYL-3-METHYL-2,5-PYRROLIDINEDIONE
Structure: 4554484F535558494D4944452E6D6F6C0A20204368656D447261773032323231303137343832440A2031302031302020302020302020302020302020302020302020302020303939392056323030300A2020202D302E3832393920202020302E3236373120202020302E30303030204E202020302020302020302020302020302020302020302020302020302020302020302020300A2020202D302E3030393420202020302E3335333320202020302E303030302043202020302020302020302020302020302020302020302020302020302020302020302020300A20202020302E333236312020202D302E3430303420202020302E303030302043202020302020302020302020302020302020302020302020302020302020302020302020300A2020202D302E323836392020202D302E3935323420202020302E303030302043202020302020302020302020302020302020302020302020302020302020302020302020300A2020202D312E303031342020202D302E3533393920202020302E303030302043202020302020302020302020302020302020302020302020302020302020302020302020300A20202020302E3430333120202020312E3036373820202020302E30303030204F202020302020302020302020302020302020302020302020302020302020302020302020300A2020202D312E373535312020202D302E3837353420202020302E30303030204F202020302020302020302020302020302020302020302020302020302020302020302020300A20202020302E383131312020202D312E3036373820202020302E303030302043202020302020302020302020302020302020302020302020302020302020302020302020300A20202020312E3034303620202020302E3031323120202020302E303030302043202020302020302020302020302020302020302020302020302020302020302020302020300A20202020312E373535312020202D302E3430303420202020302E303030302043202020302020302020302020302020302020302020302020302020302020302020302020300A2020312020322020312020302020202020200A2020322020332020312020302020202020200A2020332020342020312020302020202020200A2020342020352020312020302020202020200A2020312020352020312020302020202020200A2020322020362020322020302020202020200A2020352020372020322020302020202020200A2020332020382020312020302020202020200A2020392031302020312020302020202020200A2020332020392020312020302020202020200A4D2020454E44
Contributor: HAMAMATSU UNIV. SCHOOL OF MEDICINE
InstType: EI
InstName: JEOL JMS-D-300
IoniMethod: _ENERGY 70 eV
IonPolarity: pos
Date: 2010-10-09 19:48:36+02:00
Num Peaks: 14
52 16 54 45 55 947 56 52 67 18 68 21 69 73 70 717 71 45 85 81 
98 25 113 999 114 63 141 27 
