Name: MassBank: JP004408
MW: 200
Formula: C13H16N2
Synonym: MassBank: JP004408
Synonym: 4,4-DIMETHYL-1,2,3,4-TETRAHYDRO-GAMMA-CARBOLINE
Structure: 303231305F342C342D44494D455448594C2D312C322C332C342D5445545241485944524F2D47414D4D412D434152424F4C494E452E6D6F6C0A20204368656D447261773130313931303137343332440A2031352031372020302020302020302020302020302020302020302020303939392056323030300A2020202D312E3932373320202020302E3432313020202020302E303030302043202020302020302020302020302020302020302020302020302020302020302020302020300A2020202D312E393237332020202D302E3430343020202020302E30303030204E202020302020302020302020302020302020302020302020302020302020302020302020300A2020202D312E323132382020202D302E3831363520202020302E303030302043202020302020302020302020302020302020302020302020302020302020302020302020300A2020202D302E343938332020202D302E3430343020202020302E303030302043202020302020302020302020302020302020302020302020302020302020302020302020300A2020202D302E3439383320202020302E3432313020202020302E303030302043202020302020302020302020302020302020302020302020302020302020302020302020300A2020202D312E3231323820202020302E3833333520202020302E303030302043202020302020302020302020302020302020302020302020302020302020302020302020300A20202020302E323836332020202D302E3635383920202020302E303030302043202020302020302020302020302020302020302020302020302020302020302020302020300A20202020302E3737313220202020302E3030383520202020302E303030302043202020302020302020302020302020302020302020302020302020302020302020302020300A20202020302E3238363320202020302E3637363020202020302E30303030204E202020302020302020302020302020302020302020302020302020302020302020302020300A20202020302E363231392020202D312E3431323620202020302E303030302043202020302020302020302020302020302020302020302020302020302020302020302020300A20202020312E343432332020202D312E3439383820202020302E303030302043202020302020302020302020302020302020302020302020302020302020302020302020300A20202020312E393237332020202D302E3833313420202020302E303030302043202020302020302020302020302020302020302020302020302020302020302020302020300A20202020312E353931372020202D302E3037373720202020302E303030302043202020302020302020302020302020302020302020302020302020302020302020302020300A2020202D302E3732343920202020312E3439383820202020302E303030302043202020302020302020302020302020302020302020302020302020302020302020302020300A2020202D312E3736333520202020312E3434373820202020302E303030302043202020302020302020302020302020302020302020302020302020302020302020302020300A2020312020322020312020302020202020200A2020322020332020312020302020202020200A2020332020342020312020302020202020200A2020342020352020312020302020202020200A2020352020362020312020302020202020200A2020362020312020312020302020202020200A2020342020372020312020302020202020200A2020372020382020322020302020202020200A2020382020392020312020302020202020200A2020392020352020312020302020202020200A2020372031302020312020302020202020200A2031302031312020322020302020202020200A2031312031322020312020302020202020200A2031322031332020322020302020202020200A2031332020382020312020302020202020200A2020362031342020312020302020202020200A2020362031352020312020302020202020200A4D2020454E44
Contributor: SASAKI S, TOYOHASHI UNIV. OF TECH.
InstType: EI
InstName: JEOL JMS-01-SG-2
IoniMethod: _ENERGY 75 eV
IonPolarity: pos
Date: 2010-10-09 19:48:36+02:00
Num Peaks: 16
42 35 44 19 51 10 71 1 77 27 91 15 92 8 115 4 128 19 130 10 
143 28 144 1 185 999 186 74 199 6 200 123 
