Name: 2-METHYL-1-PROPANOL
MW: 74
Formula: C4H10O
Synonym: MassBank: JP001278
Synonym: 2-METHYL-1-PROPANOL
Synonym: ISOBUTYL ALCOHOL
Structure: 310A31340A322D4D455448594C2D312D50524F50414E4F4C2E6D6F6C0A20204368656D447261773031323231303032353832440A2020352020342020302020302020302020302020302020302020302020303939392056323030300A2020202D302E333537322020202D302E3631383820202020302E303030302043202020302020302020302020302020302020302020302020302020302020302020302020300A20202020302E333537322020202D302E3230363220202020302E303030302043202020302020302020302020302020302020302020302020302020302020302020302020300A20202020302E3335373220202020302E3631383820202020302E303030302043202020302020302020302020302020302020302020302020302020302020302020302020300A2020202D312E303731372020202D302E3230363220202020302E30303030204F202020302020302020302020302020302020302020302020302020302020302020302020300A20202020312E303731372020202D302E3631383720202020302E303030302043202020302020302020302020302020302020302020302020302020302020302020302020300A2020312020322020312020302020202020200A2020322020332020312020302020202020200A2020312020342020312020302020202020200A2020322020352020312020302020202020200A4D2020454E44
Contributor: TAJIMA S, GUNMA COLLEGE OF TECHNOLOGY
InstType: EI
InstName: HITACHI RMU-7M
IoniMethod: _ENERGY 70 eV
IonPolarity: pos
Date: 2010-10-09 19:48:36+02:00
Num Peaks: 21
15 20 26 13 27 257 28 19 29 118 31 424 33 589 38 14 39 108 40 26 
41 561 42 586 43 999 44 38 45 13 55 46 56 38 57 34 59 31 73 17 
74 78 
