Name: MassBank: JP007284
MW: 324
Formula: C18H32O3Si
Synonym: MassBank: JP007284
Synonym: (2S,3S)-4-BENZYLOXY-1-(TERT-BUTYLDIMETHYLSI1YLOXY)-3-METHYLBUTAN-2-OL
Structure: 2832532C3353292D342D42454E5A594C4F58592D312D28544552542D425554594C44494D455448594C534931594C4F5859292D332D4D455448594C425554414E2D322D4F4C2E6D6F6C0A20204368656D447261773130323030393232313932440A2032342032342020302020302020302020302020302020302020302020303939392056323030300A2020202D322E3835373920202020302E3030303020202020302E303030302043202020302020302020302020302020302020302020302020302020302020302020302020300A2020202D322E3134333420202020302E3431323520202020302E303030302043202020302020302020302020302020302020302020302020302020302020302020302020300A2020202D312E3432383920202020302E3030303020202020302E30303030204F202020302020302020302020302020302020302020302020302020302020302020302020300A2020202D302E3731343520202020302E3431323520202020302E303030302043202020302020302020302020302020302020302020302020302020302020302020302020300A2020202D302E3030303020202020302E3030303020202020302E303030302043202020302020302020302020302020302020302020302020302020302020302020302020300A20202020302E3731343520202020302E3431323520202020302E303030302043202020302020302020302020302020302020302020302020302020302020302020302020300A20202020312E3432383920202020302E3030303020202020302E303030302043202020302020302020302020302020302020302020302020302020302020302020302020300A20202020322E3134333420202020302E3431323520202020302E30303030204F202020302020302020302020302020302020302020302020302020302020302020302020300A20202020322E3835373920202020302E3030303020202020302E303030302053692020302020302020302020302020302020302020302020302020302020302020302020300A20202020332E3537323420202020302E3431323520202020302E303030302043202020302020302020302020302020302020302020302020302020302020302020302020300A20202020342E3238363820202020302E3030303020202020302E303030302043202020302020302020302020302020302020302020302020302020302020302020302020300A2020202D332E3537323420202020302E3431323520202020302E303030302043202020302020302020302020302020302020302020302020302020302020302020302020300A2020202D342E3238363820202020302E3030303020202020302E303030302043202020302020302020302020302020302020302020302020302020302020302020302020300A2020202D342E323836382020202D302E3832353020202020302E303030302043202020302020302020302020302020302020302020302020302020302020302020302020300A2020202D332E353732342020202D312E3233373520202020302E303030302043202020302020302020302020302020302020302020302020302020302020302020302020300A2020202D322E383537392020202D302E3832353020202020302E303030302043202020302020302020302020302020302020302020302020302020302020302020302020300A2020202D302E303030302020202D302E3832353020202020302E303030302048202020302020302020302020302020302020302020302020302020302020302020302020300A2020202D302E3030303020202020302E3832353020202020302E303030302043202020302020302020302020302020302020302020302020302020302020302020302020300A20202020302E3731343520202020312E3233373520202020302E30303030204F202020302020302020302020302020302020302020302020302020302020302020302020300A20202020302E373134352020202D302E3431323520202020302E303030302048202020302020302020302020302020302020302020302020302020302020302020302020300A20202020332E3537323420202020312E3233373520202020302E303030302043202020302020302020302020302020302020302020302020302020302020302020302020300A20202020332E353732342020202D302E3431323520202020302E303030302043202020302020302020302020302020302020302020302020302020302020302020302020300A20202020322E363633332020202D302E3832353020202020302E303030302043202020302020302020302020302020302020302020302020302020302020302020302020300A20202020322E3835363620202020302E3832353020202020302E303030302043202020302020302020302020302020302020302020302020302020302020302020302020300A2020312020322020312020302020202020200A2020322020332020312020302020202020200A2020332020342020312020302020202020200A2020342020352020312020302020202020200A2020352020362020312020302020202020200A2020362020372020312020302020202020200A2020372020382020312020302020202020200A2020382020392020312020302020202020200A2020392031302020312020302020202020200A2031302031312020312020302020202020200A2020312031322020322020302020202020200A2031322031332020312020302020202020200A2031332031342020322020302020202020200A2031342031352020312020302020202020200A2031352031362020322020302020202020200A2031362020312020312020302020202020200A2020352031372020312020312020202020200A2020352031382020312020312020202020200A2020362031392020312020312020202020200A2020362032302020312020312020202020200A2031302032312020312020312020202020200A2031302032322020312020312020202020200A2020392032332020312020302020202020200A2020392032342020312020302020202020200A4D202053545920203120202031205355500A4D2020534C4220203120202031202020310A4D202053414C20202031202031202032330A4D202053424C20202031202031202032330A4D2020534D5420202031204D650A4D2020534256202020312032332020202D382E3638333120202020352E393630360A4D202053545920203120202032205355500A4D2020534C4220203120202032202020320A4D202053414C20202032202031202032340A4D202053424C20202032202031202032340A4D2020534D5420202032204D650A4D2020534256202020322032342020202D382E3438393820202020372E363130360A4D2020454E44
Contributor: ITO S, DEPT. OF CHEM., TOHOKU UNIV.
InstType: EI
InstName: HITACHI M-52
IoniMethod: _ENERGY 14 eV
IonPolarity: pos
Date: 2010-10-09 19:48:36+02:00
Num Peaks: 27
56 25 69 79 75 76 83 4 84 20 85 49 87 35 91 999 92 97 105 197 
106 18 108 2 117 110 118 20 143 51 145 3 157 46 159 97 161 62 173 30 
174 33 175 18 177 20 249 2 267 40 324 4 325 4 
