Name: DIMETHYL(PHENYLETHYNYL)TRIMETHYLSILYLGERMANE
MW: 278
Formula: C13H20GeSi
Synonym: MassBank: JP001349
Synonym: DIMETHYL(PHENYLETHYNYL)TRIMETHYLSILYLGERMANE
Structure: 44494D455448594C285048454E594C455448594E594C295452494D455448594C53494C594C4745524D414E452E6D6F6C0A20204368656D447261773130313831303136333632440A2031352031352020302020302020302020302020302020302020302020303939392056323030300A20202020312E363530302020202D302E3431323520202020302E303030302047652020302020302020302020302020302020302020302020302020302020302020302020300A20202020312E3635303020202020302E3431323520202020302E303030302053692020302020302020302020302020302020302020302020302020302020302020302020300A20202020322E3437353020202020302E3431323520202020302E303030302043202020302020302020302020302020302020302020302020302020302020302020302020300A20202020302E3832353020202020302E3431323520202020302E303030302043202020302020302020302020302020302020302020302020302020302020302020302020300A20202020312E3635303020202020312E3233373520202020302E303030302043202020302020302020302020302020302020302020302020302020302020302020302020300A20202020302E383235302020202D302E3431323520202020302E303030302043202020302020302020302020302020302020302020302020302020302020302020302020300A20202020302E303030302020202D302E3431323520202020302E303030302043202020302020302020302020302020302020302020302020302020302020302020302020300A2020202D302E383235302020202D302E3431323520202020302E303030302043202020302020302020302020302020302020302020302020302020302020302020302020300A2020202D312E323337352020202D312E3132373020202020302E303030302043202020302020302020302020302020302020302020302020302020302020302020302020300A2020202D322E303632352020202D312E3132373020202020302E303030302043202020302020302020302020302020302020302020302020302020302020302020302020300A2020202D322E343735302020202D302E3431323520202020302E303030302043202020302020302020302020302020302020302020302020302020302020302020302020300A2020202D322E3036323520202020302E3330323020202020302E303030302043202020302020302020302020302020302020302020302020302020302020302020302020300A2020202D312E3233373520202020302E3330323020202020302E303030302043202020302020302020302020302020302020302020302020302020302020302020302020300A20202020322E343735302020202D302E3431323520202020302E303030302043202020302020302020302020302020302020302020302020302020302020302020302020300A20202020312E363530302020202D312E3233373520202020302E303030302043202020302020302020302020302020302020302020302020302020302020302020302020300A2020322020332020312020302020202020200A2020322020342020312020302020202020200A2020322020352020312020302020202020200A2020312020322020312020302020202020200A2020362020372020332020302020202020200A2020382020392020312020302020202020200A2020392031302020322020302020202020200A2031302031312020312020302020202020200A2031312031322020322020302020202020200A2031322031332020312020302020202020200A2020382031332020322020302020202020200A2020372020382020312020302020202020200A2020312020362020312020302020202020200A2020312031342020312020302020202020200A2020312031352020312020302020202020200A4D2020454E44
Contributor: MASS SPECTROSCOPY SOC. OF JAPAN (MSSJ)
InstType: EI
InstName: JEOL JMS-D-3000
IoniMethod: _ENERGY 70 eV
IonPolarity: pos
Date: 2010-10-09 19:48:36+02:00
Num Peaks: 60
45 20 73 324 74 29 75 21 85 35 87 42 88 15 89 57 91 14 100 30 
102 48 103 12 104 53 105 21 106 11 119 12 131 23 135 11 145 24 147 130 
149 177 150 64 151 233 152 15 153 53 159 999 160 161 161 48 171 57 173 85 
174 30 175 101 177 22 188 14 189 15 190 14 201 31 203 41 204 17 205 55 
207 18 233 12 245 10 247 13 259 333 260 63 261 464 262 206 263 644 264 126 
265 153 266 28 274 270 275 58 276 367 277 183 278 544 279 107 280 137 281 27 
