Name: 4-CHLOROACETOACETIC ACID ETHYL ESTER
MW: 164
Formula: C6H9ClO3
Synonym: MassBank: JP008883
Synonym: 4-CHLOROACETOACETIC ACID ETHYL ESTER
Synonym: ETHYL 4-CHLOROACETOACETATE
Structure: 342D43484C4F524F414345544F414345544943204143494420455448594C2045535445522E6D6F6C0A20204368656D447261773033323531303130353732440A2031302020392020302020302020302020302020302020302020302020303939392056323030300A2020202D302E3030303020202020302E3230363220202020302E303030302043202020302020302020302020302020302020302020302020302020302020302020302020300A20202020302E373134352020202D302E3230363320202020302E303030302043202020302020302020302020302020302020302020302020302020302020302020302020300A20202020312E3432383920202020302E3230363220202020302E303030302043202020302020302020302020302020302020302020302020302020302020302020302020300A20202020312E3432383920202020312E3033313320202020302E30303030204F202020302020302020302020302020302020302020302020302020302020302020302020300A20202020322E313433342020202D302E3230363220202020302E303030302043202020302020302020302020302020302020302020302020302020302020302020302020300A2020202D302E3030303020202020312E3033313220202020302E30303030204F202020302020302020302020302020302020302020302020302020302020302020302020300A2020202D302E373134352020202D302E3230363320202020302E30303030204F202020302020302020302020302020302020302020302020302020302020302020302020300A20202020322E313433342020202D312E3033313320202020302E3030303020436C2020302020302020302020302020302020302020302020302020302020302020302020300A2020202D312E3432383920202020302E3230363220202020302E303030302043202020302020302020302020302020302020302020302020302020302020302020302020300A2020202D322E313433342020202D302E3230363320202020302E303030302043202020302020302020302020302020302020302020302020302020302020302020302020300A2020312020322020312020302020202020200A2020322020332020312020302020202020200A2020332020342020322020302020202020200A2020332020352020312020302020202020200A2020312020362020322020302020202020200A2020312020372020312020302020202020200A2020352020382020312020302020202020200A2020392031302020312020302020202020200A2020372020392020312020302020202020200A4D2020454E44
Contributor: TAJIMA S, GUNMA COLLEGE OF TECHNOLOGY
InstType: EI
InstName: HITACHI RMU-7M
IoniMethod: _ENERGY 70 eV
IonPolarity: pos
Date: 2010-10-09 19:48:36+02:00
Num Peaks: 42
14 68 15 102 25 34 26 153 27 552 28 104 29 999 30 38 31 398 37 33 
38 34 39 63 41 213 42 463 43 988 44 94 45 205 46 68 49 261 51 83 
53 23 55 62 60 26 69 754 70 46 73 30 76 27 77 262 79 83 83 28 
87 107 92 41 94 15 111 83 115 660 116 43 118 137 119 243 120 59 121 82 
164 58 166 23 
