Name: 4-CHLORO-2-(3-NITROPHENYL)PYRIMIDINE
MW: 235
Formula: C10H6ClN3O2
Synonym: MassBank: JP004494
Synonym: 4-CHLORO-2-(3-NITROPHENYL)PYRIMIDINE
Structure: 342D43484C4F524F2D322D28332D4E4954524F5048454E594C29505952494D4944494E452E6D6F6C0A20204368656D447261773033323531303039303632440A2031362031372020302020302020302020302020302020302020302020303939392056323030300A20202020302E373134352020202D302E3230363320202020302E303030302043202020302020302020302020302020302020302020302020302020302020302020302020300A20202020312E3432383920202020302E3230363320202020302E30303030204E202020302020302020302020302020302020302020302020302020302020302020302020300A20202020322E313433342020202D302E3230363320202020302E303030302043202020302020302020302020302020302020302020302020302020302020302020302020300A20202020322E313433342020202D312E3033313220202020302E303030302043202020302020302020302020302020302020302020302020302020302020302020302020300A20202020312E343238392020202D312E3434333820202020302E303030302043202020302020302020302020302020302020302020302020302020302020302020302020300A20202020302E373134352020202D312E3033313320202020302E30303030204E202020302020302020302020302020302020302020302020302020302020302020302020300A2020202D302E3030303020202020302E3230363220202020302E303030302043202020302020302020302020302020302020302020302020302020302020302020302020300A2020202D302E373134352020202D302E3230363320202020302E303030302043202020302020302020302020302020302020302020302020302020302020302020302020300A2020202D312E3432383920202020302E3230363220202020302E303030302043202020302020302020302020302020302020302020302020302020302020302020302020300A2020202D312E3432383920202020312E3033313220202020302E303030302043202020302020302020302020302020302020302020302020302020302020302020302020300A2020202D302E3731343520202020312E3434333820202020302E303030302043202020302020302020302020302020302020302020302020302020302020302020302020300A20202020302E3030303020202020312E3033313320202020302E303030302043202020302020302020302020302020302020302020302020302020302020302020302020300A2020202D322E313433342020202D302E3230363320202020302E30303030204E202020302020332020302020302020302020302020302020302020302020302020302020300A2020202D322E313433342020202D312E3033313320202020302E30303030204F202020302020302020302020302020302020302020302020302020302020302020302020300A2020202D322E3835373920202020302E3230363220202020302E30303030204F202020302020352020302020302020302020302020302020302020302020302020302020300A20202020322E3835373920202020302E3230363320202020302E3030303020436C2020302020302020302020302020302020302020302020302020302020302020302020300A2020312020322020312020302020202020200A2020322020332020322020302020202020200A2020332020342020312020302020202020200A2020342020352020322020302020202020200A2020352020362020312020302020202020200A2020312020362020322020302020202020200A2020372020382020312020302020202020200A2020382020392020322020302020202020200A2020392031302020312020302020202020200A2031302031312020322020302020202020200A2031312031322020312020302020202020200A2020372031322020322020302020202020200A2031332031342020322020302020202020200A2031332031352020312020302020202020200A2020392031332020312020302020202020200A2020312020372020312020302020202020200A2020332031362020312020302020202020200A4D202043484720203220203133202020312020313520202D310A4D2020454E44
Contributor: SASAKI S, TOYOHASHI UNIV. OF TECH.
InstType: EI
InstName: MS-902
IoniMethod: _ENERGY 70 eV
IonPolarity: pos
Date: 2010-10-09 19:48:36+02:00
Num Peaks: 85
36 22 37 7 38 8 39 1 40 50 41 5 43 3 44 5 49 5 50 69 
51 43 52 4 53 10 57 4 60 5 61 1 62 10 63 17 64 12 65 0 
73 12 74 24 75 105 76 9 76.5 5 77 59 77.5 5 81.5 0 86 7 87 5 
88 5 90 1 94 4 94.5 22 95.5 5 99 1 99.5 3 100 12 101 36 102 21 
104 5 107 5 108 5 111 1 113 5 114 5 115 8 116 1 117.5 3 126 43 
127 64 128 9 129 160 130 12 141 5 142 3 149 5 150 7 153 89 154 13 
155 18 162 38 163 52 164 2 165 18 177 86 178 12 179 3 188 5 189 999 
190 108 191 32 192 31 199 10 200 131 201 2 205 12 218 3 219 2 221 0 
228 3 235 996 236 107 237 32 238 31 
