Name: 4-TERT-BUTYLCYCLOHEXANONE
MW: 154
Formula: C10H18O
Synonym: MassBank: JP006958
Synonym: 4-TERT-BUTYLCYCLOHEXANONE
Synonym: 4-(1,1-DIMETHYLETHYL)CYCLOHEXANONE
Structure: 342D544552542D425554594C4359434C4F484558414E4F4E452E6D6F6C0A20204368656D447261773034323231303231313932440A2031312031312020302020302020302020302020302020302020302020303939392056323030300A2020202D312E3233373520202020302E3030303020202020302E303030302043202020302020302020302020302020302020302020302020302020302020302020302020300A2020202D302E3832353020202020302E3731343520202020302E303030302043202020302020302020302020302020302020302020302020302020302020302020302020300A20202020302E3030303020202020302E3731343520202020302E303030302043202020302020302020302020302020302020302020302020302020302020302020302020300A20202020302E343132352020202D302E3030303020202020302E303030302043202020302020302020302020302020302020302020302020302020302020302020302020300A20202020302E303030302020202D302E3731343520202020302E303030302043202020302020302020302020302020302020302020302020302020302020302020302020300A2020202D302E383235302020202D302E3731343520202020302E303030302043202020302020302020302020302020302020302020302020302020302020302020302020300A20202020312E323337352020202D302E3030303020202020302E303030302043202020302020302020302020302020302020302020302020302020302020302020302020300A20202020312E323337352020202D302E3832353020202020302E303030302043202020302020302020302020302020302020302020302020302020302020302020302020300A20202020312E3233373520202020302E3832353020202020302E303030302043202020302020302020302020302020302020302020302020302020302020302020302020300A20202020322E303632352020202D302E3030303020202020302E303030302043202020302020302020302020302020302020302020302020302020302020302020302020300A2020202D322E3036323520202020302E3030303020202020302E30303030204F202020302020302020302020302020302020302020302020302020302020302020302020300A2020312020322020312020302020202020200A2020322020332020312020302020202020200A2020332020342020312020302020202020200A2020342020352020312020302020202020200A2020352020362020312020302020202020200A2020312020362020312020302020202020200A2020372020382020312020302020202020200A2020372031302020312020302020202020200A2020372020392020312020302020202020200A2020342020372020312020302020202020200A2020312031312020322020302020202020200A4D2020454E44
Contributor: TAJIMA S, GUNMA COLLEGE OF TECHNOLOGY
InstType: EI
InstName: HITACHI M-80B
IoniMethod: _ENERGY 70 eV
IonPolarity: pos
Date: 2010-10-09 19:48:36+02:00
Num Peaks: 36
15 22 27 142 28 68 29 191 32 13 39 181 40 23 41 498 42 64 43 145 
51 17 53 63 54 29 55 234 56 55 57 999 58 40 65 13 67 50 68 20 
69 145 70 68 77 11 79 20 80 12 81 22 83 190 84 10 95 15 97 65 
98 545 99 60 121 11 139 22 154 111 155 12 
