Name: PARA-NITROBENZOIC ACID
MW: 167
Formula: C7H5NO4
Synonym: MassBank: JP009419
Synonym: PARA-NITROBENZOIC ACID
Synonym: 4-NITROBENZOIC ACID
Structure: 504152412D4E4954524F42454E5A4F494320414349442E6D6F6C0A20204368656D447261773034323231303137303832440A2031322031322020302020302020302020302020302020302020302020303939392056323030300A2020202D312E363530302020202D302E3030303020202020302E303030302043202020302020302020302020302020302020302020302020302020302020302020302020300A2020202D302E383235302020202D302E3030303020202020302E303030302043202020302020302020302020302020302020302020302020302020302020302020302020300A2020202D302E3431323520202020302E3731343520202020302E303030302043202020302020302020302020302020302020302020302020302020302020302020302020300A20202020302E3431323520202020302E3731343520202020302E303030302043202020302020302020302020302020302020302020302020302020302020302020302020300A20202020302E383235302020202D302E3030303020202020302E303030302043202020302020302020302020302020302020302020302020302020302020302020302020300A20202020302E343132352020202D302E3731343520202020302E303030302043202020302020302020302020302020302020302020302020302020302020302020302020300A2020202D302E343132352020202D302E3731343520202020302E303030302043202020302020302020302020302020302020302020302020302020302020302020302020300A2020202D322E3036323520202020302E3731343520202020302E30303030204F202020302020302020302020302020302020302020302020302020302020302020302020300A2020202D322E303632352020202D302E3731343520202020302E30303030204F202020302020302020302020302020302020302020302020302020302020302020302020300A20202020312E363530302020202D302E3030303020202020302E30303030204E202020302020332020302020302020302020302020302020302020302020302020302020300A20202020322E3036323520202020302E3731343520202020302E30303030204F202020302020302020302020302020302020302020302020302020302020302020302020300A20202020322E303632352020202D302E3731343520202020302E30303030204F202020302020352020302020302020302020302020302020302020302020302020302020300A2020312020322020312020302020202020200A2020322020332020312020302020202020200A2020332020342020322020302020202020200A2020342020352020312020302020202020200A2020352020362020322020302020202020200A2020362020372020312020302020202020200A2020322020372020322020302020202020200A2020312020382020322020302020202020200A2020312020392020312020302020202020200A2031302031312020322020302020202020200A2031302031322020312020302020202020200A2020352031302020312020302020202020200A4D202043484720203220203130202020312020313220202D310A4D2020454E44
Contributor: GUNMA COLLEGE OF TECHNOLOGY
InstType: EI
InstName: HITACHI M-80A
IoniMethod: _ENERGY 70 eV
IonPolarity: pos
Date: 2010-10-09 19:48:36+02:00
Num Peaks: 45
26 10 27 39 29 13 30 404 37 30 38 51 39 226 45 78 46 61 49 16 
50 261 51 181 52 15 53 65 61 14 62 25 63 63 64 38 65 999 66 57 
73 21 74 145 75 182 76 180 77 28 81 126 92 51 93 53 103 55 104 73 
105 16 109 163 110 11 120 16 121 242 122 25 135 15 137 146 138 15 150 106 
151 162 152 19 167 771 168 146 169 16 
