Name: MassBank: JP002098
MW: 97
Formula: C2H4Cl2
Synonym: MassBank: JP002098
Synonym: 1,2-DICHLOROETHANE
Structure: 310A31320A312C322D444943484C4F524F455448414E452E6D6F6C0A20204368656D447261773131303330393233313032440A2020342020332020302020302020302020302020302020302020302020303939392056323030300A2020202D302E333537322020202D302E3230363320202020302E303030302043202020302020302020302020302020302020302020302020302020302020302020302020300A20202020302E3335373220202020302E3230363320202020302E303030302043202020302020302020302020302020302020302020302020302020302020302020302020300A20202020312E303731372020202D302E3230363220202020302E3030303020436C2020302020302020302020302020302020302020302020302020302020302020302020300A2020202D312E3037313720202020302E3230363320202020302E3030303020436C2020302020302020302020302020302020302020302020302020302020302020302020300A2020312020322020312020302020202020200A2020322020332020312020302020202020200A2020312020342020312020302020202020200A4D2020454E44
Contributor: TAJIMA S, GUNMA COLLEGE OF TECHNOLOGY
InstType: EI
InstName: HITACHI RMU-7M
IoniMethod: _ENERGY 70 eV
IonPolarity: pos
Date: 2010-10-09 19:48:36+02:00
Num Peaks: 20
25 30 26 142 27 772 28 15 35 19 36 17 47 17 48 23 49 413 50 12 
51 129 60 31 61 128 62 999 63 226 64 325 65 61 98 101 100 64 102 11 
