Name: METHYL(BETA-ETHOXYETHYL)HYDRAZONE METHYLETHYLKETONE
MW: 172
Formula: C9H20N2O
Synonym: MassBank: JP000857
Synonym: METHYL(BETA-ETHOXYETHYL)HYDRAZONE METHYLETHYLKETONE
Synonym: 2-BUTANONE (2-ETHOXYETHYL)METHYLHYDRAZONE
Structure: 4D455448594C28424554412D4554484F5859455448594C2948594452415A4F4E45204D455448594C455448594C4B45544F4E452E6D6F6C0A20204368656D447261773132323130393233303632440A2031322031312020302020302020302020302020302020302020302020303939392056323030300A2020202D322E343735302020202D302E3335373220202020302E303030302043202020302020302020302020302020302020302020302020302020302020302020302020300A2020202D312E363530302020202D302E3335373220202020302E303030302043202020302020302020302020302020302020302020302020302020302020302020302020300A2020202D312E323337352020202D312E3037313720202020302E303030302043202020302020302020302020302020302020302020302020302020302020302020302020300A2020202D302E343132352020202D312E3037313720202020302E303030302043202020302020302020302020302020302020302020302020302020302020302020302020300A2020202D312E3233373520202020302E3335373220202020302E30303030204E202020302020302020302020302020302020302020302020302020302020302020302020300A2020202D302E3431323520202020302E3335373220202020302E30303030204E202020302020302020302020302020302020302020302020302020302020302020302020300A20202020302E303030302020202D302E3335373220202020302E303030302043202020302020302020302020302020302020302020302020302020302020302020302020300A2020202D302E3030303020202020312E3037313720202020302E303030302043202020302020302020302020302020302020302020302020302020302020302020302020300A20202020302E3832353020202020312E3037313720202020302E303030302043202020302020302020302020302020302020302020302020302020302020302020302020300A20202020312E3233373520202020302E3335373220202020302E30303030204F202020302020302020302020302020302020302020302020302020302020302020302020300A20202020322E3036323520202020302E3335373220202020302E303030302043202020302020302020302020302020302020302020302020302020302020302020302020300A20202020322E343735302020202D302E3335373220202020302E303030302043202020302020302020302020302020302020302020302020302020302020302020302020300A2020312020322020312020302020202020200A2020322020332020312020302020202020200A2020332020342020312020302020202020200A2020352020362020312020302020202020200A2020362020372020312020302020202020200A2020382020392020312020302020202020200A2031312031322020312020302020202020200A2031302031312020312020302020202020200A2020392031302020312020302020202020200A2020362020382020312020302020202020200A2020322020352020322020302020202020200A4D2020454E44
Contributor: SASAKI S, TOYOHASHI UNIV. OF TECH.
InstType: EI
InstName: SHIMADZU LKB-2091
IoniMethod: _ENERGY 70 eV
IonPolarity: pos
Date: 2010-10-09 19:48:36+02:00
Num Peaks: 29
27 65 28 38 29 104 30 4 31 49 39 15 41 42 42 97 43 78 44 91 
45 40 54 1 55 17 56 27 57 11 58 2 59 15 68 7 70 136 71 2 
72 19 86 8 97 7 99 1 100 41 113 999 114 61 172 9 173 14 
