Name: 5-METHYL-2-PYRAZOLINE
MW: 84
Formula: C4H8N2
Synonym: MassBank: JP000889
Synonym: 5-METHYL-2-PYRAZOLINE
Structure: 310A31370A352D4D455448594C2D322D505952415A4F4C494E452E6D6F6C0A20204368656D447261773034323331303037313632440A2020362020362020302020302020302020302020302020302020302020303939392056323030300A20202020302E3236323720202020302E3636373420202020302E30303030204E202020302020302020302020302020302020302020302020302020302020302020302020300A20202020312E3034373320202020302E3431323520202020302E30303030204E202020302020302020302020302020302020302020302020302020302020302020302020300A20202020312E303437332020202D302E3431323520202020302E303030302043202020302020302020302020302020302020302020302020302020302020302020302020300A20202020302E323632372020202D302E3636373420202020302E303030302043202020302020302020302020302020302020302020302020302020302020302020302020300A2020202D302E3232323320202020302E3030303020202020302E303030302043202020302020302020302020302020302020302020302020302020302020302020302020300A2020202D312E3034373320202020302E3030303020202020302E303030302043202020302020302020302020302020302020302020302020302020302020302020302020300A2020312020322020312020302020202020200A2020322020332020322020302020202020200A2020332020342020312020302020202020200A2020342020352020312020302020202020200A2020312020352020312020302020202020200A2020352020362020312020302020202020200A4D2020454E44
Contributor: SASAKI S, TOYOHASHI UNIV. OF TECH.
InstType: EI
InstName: SHIMADZU LKB-2091
IoniMethod: _ENERGY 70 eV
IonPolarity: pos
Date: 2010-10-09 19:48:36+02:00
Num Peaks: 25
26 43 27 157 28 215 29 9 30 25 38 17 39 86 40 4 41 110 42 761 
43 86 44 2 50 13 51 15 52 11 53 2 54 16 55 28 56 67 68 1 
69 999 70 48 83 72 84 48 85 52 
