Name: MassBank: JP005492
MW: 222
Formula: C14H22O2
Synonym: MassBank: JP005492
Synonym: 8ALPHA-(3-PROPANOYL)-6,6,8BETA-TRIMETHYL-1ALPHA,5ALPHA-BICYCLO(3.3.0)OCTAN-2-ONE
Structure: 38414C5048412D28332D50524F50414E4F594C292D362C362C38424554412D5452494D455448594C2D31414C5048412C35414C5048412D42494359434C4F28332E332E30294F4354414E2D322D4F4E452E6D6F6C0A20204368656D447261773035323431303232323332440A2031392032302020302020302020302020302020302020302020302020303939392056323030300A2020202D302E353532392020202D302E3234353420202020302E303030302043202020302020302020302020302020302020302020302020302020302020302020302020300A2020202D302E303030392020202D302E3835383520202020302E303030302043202020302020302020302020302020302020302020302020302020302020302020302020300A20202020302E373532382020202D302E3532323920202020302E303030302043202020302020302020302020302020302020302020302020302020302020302020302020300A20202020302E3636363620202020302E3239373620202020302E303030302043202020302020302020302020302020302020302020302020302020302020302020302020300A2020202D302E3134303520202020302E3436393220202020302E303030302043202020302020302020302020302020302020302020302020302020302020302020302020300A2020202D302E3730333620202020312E3039333220202020302E303030302043202020302020302020302020302020302020302020302020302020302020302020302020300A2020202D312E3434363120202020302E3734363720202020302E303030302043202020302020302020302020302020302020302020302020302020302020302020302020300A2020202D312E333539392020202D302E3037333820202020302E303030302043202020302020302020302020302020302020302020302020302020302020302020302020300A2020202D302E313732342020202D312E3636353420202020302E30303030204F202020302020302020302020302020302020302020302020302020302020302020302020300A2020202D312E353837332020202D302E3836363920202020302E303030302043202020302020302020302020302020302020302020302020302020302020302020302020300A2020202D312E3137343620202020312E3736303420202020302E303030302043202020302020302020302020302020302020302020302020302020302020302020302020300A2020202D302E3132303320202020312E3637363520202020302E303030302043202020302020302020302020302020302020302020302020302020302020302020302020300A20202020312E343637332020202D302E3933353420202020302E303030302043202020302020302020302020302020302020302020302020302020302020302020302020300A20202020322E313831372020202D302E3532323920202020302E303030302043202020302020302020302020302020302020302020302020302020302020302020302020300A20202020322E3138313720202020302E3330323120202020302E303030302043202020302020302020302020302020302020302020302020302020302020302020302020300A20202020312E343637332020202D312E3736303420202020302E30303030204F202020302020302020302020302020302020302020302020302020302020302020302020300A2020202D302E393635342020202D302E3935393820202020302E303030302048202020302020302020302020302020302020302020302020302020302020302020302020300A20202020302E3237323020202020312E3138333620202020302E303030302048202020302020302020302020302020302020302020302020302020302020302020302020300A2020202D322E313831372020202D302E3030313920202020302E303030302048202020302020302020302020302020302020302020302020302020302020302020302020300A2020312020322020312020302020202020200A2020322020332020312020302020202020200A2020332020342020312020302020202020200A2020342020352020312020302020202020200A2020352020362020312020302020202020200A2020362020372020312020302020202020200A2020372020382020312020302020202020200A2020312020382020312020302020202020200A2020312020352020312020302020202020200A2020322020392020322020302020202020200A2020382031302020312020362020202020200A2020362031312020312020362020202020200A2020362031322020312020312020202020200A2031332031342020312020302020202020200A2031342031352020312020302020202020200A2031332031362020322020302020202020200A2020332031332020312020302020202020200A2020312031372020312020312020202020200A2020352031382020312020312020202020200A2020382031392020312020312020202020200A4D2020454E44
Contributor: HIRAMA M, TOHOKU UNIV. FACULTY OF SCIENCE DEPT. OF CHEMISTRY YUKIBUNSEKI
InstType: EI
InstName: HITACHI M-52
IoniMethod: _ENERGY 14 eV
IonPolarity: pos
Date: 2010-10-09 19:48:36+02:00
Num Peaks: 11
96 10 123 64 124 20 138 3 161 16 165 999 166 199 167 1 179 14 222 224 
223 59 
