Name: MassBank: JP008786
MW: 179
Formula: C13H9N
Synonym: MassBank: JP008786
Synonym: ACRIDINE (1,2,3,4,5,6,7,8,9-D9)
Structure: 4143524944494E452028312C322C332C342C352C362C372C382C392D4439292E6D6F6C0A20204368656D447261773036323431303138333732440A2032332032352020302020302020302020302020302020302020302020303939392056323030300A2020202D312E343238392020202D302E3832353020202020302E303030302043202020302020302020302020302020302020302020302020302020302020302020302020300A2020202D322E313433342020202D302E3431323520202020302E303030302043202020302020302020302020302020302020302020302020302020302020302020302020300A2020202D322E3134333420202020302E3431323520202020302E303030302043202020302020302020302020302020302020302020302020302020302020302020302020300A2020202D312E3432383920202020302E3832353020202020302E303030302043202020302020302020302020302020302020302020302020302020302020302020302020300A2020202D302E3731343520202020302E3431323520202020302E303030302043202020302020302020302020302020302020302020302020302020302020302020302020300A20202020302E3030303020202020302E3832353020202020302E30303030204E202020302020302020302020302020302020302020302020302020302020302020302020300A20202020302E3731343520202020302E3431323520202020302E303030302043202020302020302020302020302020302020302020302020302020302020302020302020300A20202020312E3432383920202020302E3832353020202020302E303030302043202020302020302020302020302020302020302020302020302020302020302020302020300A20202020322E3134333420202020302E3431323520202020302E303030302043202020302020302020302020302020302020302020302020302020302020302020302020300A20202020322E313433342020202D302E3431323520202020302E303030302043202020302020302020302020302020302020302020302020302020302020302020302020300A20202020312E343238392020202D302E3832353020202020302E303030302043202020302020302020302020302020302020302020302020302020302020302020302020300A20202020302E373134352020202D302E3431323520202020302E303030302043202020302020302020302020302020302020302020302020302020302020302020302020300A2020202D302E303030302020202D302E3832353020202020302E303030302043202020302020302020302020302020302020302020302020302020302020302020302020300A2020202D302E373134352020202D302E3431323520202020302E303030302043202020302020302020302020302020302020302020302020302020302020302020302020300A2020202D302E303030302020202D312E3635303020202020302E303030302048202020312020302020302020302020302020302020302020302020302020302020302020300A20202020312E343238392020202D312E3635303020202020302E303030302048202020312020302020302020302020302020302020302020302020302020302020302020300A20202020322E383537392020202D302E3832353020202020302E303030302048202020312020302020302020302020302020302020302020302020302020302020302020300A20202020322E3835373920202020302E3832353020202020302E303030302048202020312020302020302020302020302020302020302020302020302020302020302020300A20202020312E3432383920202020312E3635303020202020302E303030302048202020312020302020302020302020302020302020302020302020302020302020302020300A2020202D312E3432383920202020312E3635303020202020302E303030302048202020312020302020302020302020302020302020302020302020302020302020302020300A2020202D322E3835373920202020302E3832353020202020302E303030302048202020312020302020302020302020302020302020302020302020302020302020302020300A2020202D322E383537392020202D302E3832353020202020302E303030302048202020312020302020302020302020302020302020302020302020302020302020302020300A2020202D312E343238392020202D312E3635303020202020302E303030302048202020312020302020302020302020302020302020302020302020302020302020302020300A2020312020322020312020302020202020200A2020322020332020322020302020202020200A2020332020342020312020302020202020200A2020342020352020322020302020202020200A2020352020362020312020302020202020200A2020362020372020322020302020202020200A2020372020382020312020302020202020200A2020382020392020322020302020202020200A2020392031302020312020302020202020200A2031302031312020322020302020202020200A2031312031322020312020302020202020200A2020372031322020312020302020202020200A2031322031332020322020302020202020200A2031332031342020312020302020202020200A2020352031342020312020302020202020200A2020312031342020322020302020202020200A2031332031352020312020302020202020200A2031312031362020312020302020202020200A2031302031372020312020302020202020200A2020392031382020312020302020202020200A2020382031392020312020302020202020200A2020342032302020312020302020202020200A2020332032312020312020302020202020200A2020322032322020312020302020202020200A2020312032332020312020302020202020200A4D202049534F202038202031352020203220203136202020322020313720202032202031382020203220203139202020322020323020202032202032312020203220203232202020320A4D202049534F20203120203233202020320A4D2020454E44
Contributor: UOEH
InstType: EI
InstName: HP 5970
IoniMethod: _ENERGY 70 eV
IonPolarity: pos
Date: 2010-10-09 19:48:36+02:00
Num Peaks: 32
40 14 42 35 52 45 54 37 64 19 66 61 76 25 78 47 79 25 80 49 
82 12 88 9 90 13 93 99 102 10 106 13 118 14 130 14 132 38 156 28 
157 14 158 98 159 26 160 90 161 13 184 44 185 39 186 199 187 175 188 999 
189 144 190 11 
