Name: MassBank: JP000938
CAS: 72-54-8
MW: 317
Formula: C14H10Cl4
Synonym: MassBank: JP000938
Synonym: 1,1-DICHLORO-2,2-BIS(PARA-CHLOROPHENYL)ETHANE
Synonym: 4,4'-DDD
Structure: 312C312D444943484C4F524F2D322C322D42495328504152412D43484C4F524F5048454E594C29455448414E452E6D6F6C0A20204368656D447261773130323330393033343832440A2031382031392020302020302020302020302020302020302020302020303939392056323030300A2020202D302E3030303020202020312E3033313220202020302E303030302043202020302020302020302020302020302020302020302020302020302020302020302020300A2020202D302E3030303020202020302E3230363220202020302E303030302043202020302020302020302020302020302020302020302020302020302020302020302020300A20202020302E373134352020202D302E3230363320202020302E303030302043202020302020302020302020302020302020302020302020302020302020302020302020300A20202020312E3432383920202020302E3230363220202020302E303030302043202020302020302020302020302020302020302020302020302020302020302020302020300A20202020322E313433342020202D302E3230363320202020302E303030302043202020302020302020302020302020302020302020302020302020302020302020302020300A20202020322E313433342020202D312E3033313220202020302E303030302043202020302020302020302020302020302020302020302020302020302020302020302020300A20202020312E343238392020202D312E3434333820202020302E303030302043202020302020302020302020302020302020302020302020302020302020302020302020300A20202020302E373134352020202D312E3033313320202020302E303030302043202020302020302020302020302020302020302020302020302020302020302020302020300A20202020322E383537392020202D312E3434333720202020302E3030303020436C2020302020302020302020302020302020302020302020302020302020302020302020300A2020202D302E373134352020202D302E3230363320202020302E303030302043202020302020302020302020302020302020302020302020302020302020302020302020300A2020202D302E373134352020202D312E3033313320202020302E303030302043202020302020302020302020302020302020302020302020302020302020302020302020300A2020202D312E343238392020202D312E3434333820202020302E303030302043202020302020302020302020302020302020302020302020302020302020302020302020300A2020202D322E313433342020202D312E3033313320202020302E303030302043202020302020302020302020302020302020302020302020302020302020302020302020300A2020202D322E313433342020202D302E3230363320202020302E303030302043202020302020302020302020302020302020302020302020302020302020302020302020300A2020202D312E3432383920202020302E3230363320202020302E303030302043202020302020302020302020302020302020302020302020302020302020302020302020300A2020202D322E383537392020202D312E3434333820202020302E3030303020436C2020302020302020302020302020302020302020302020302020302020302020302020300A2020202D302E3731343520202020312E3434333820202020302E3030303020436C2020302020302020302020302020302020302020302020302020302020302020302020300A20202020302E3731343520202020312E3434333820202020302E3030303020436C2020302020302020302020302020302020302020302020302020302020302020302020300A2020312020322020312020302020202020200A2020332020342020312020302020202020200A2020342020352020322020302020202020200A2020352020362020312020302020202020200A2020362020372020322020302020202020200A2020372020382020312020302020202020200A2020332020382020322020302020202020200A2020362020392020312020302020202020200A2020322020332020312020302020202020200A2031302031312020312020302020202020200A2031312031322020322020302020202020200A2031322031332020312020302020202020200A2031332031342020322020302020202020200A2031342031352020312020302020202020200A2031302031352020322020302020202020200A2031332031362020312020302020202020200A2020322031302020312020302020202020200A2020312031372020312020302020202020200A2020312031382020312020302020202020200A4D2020454E44
Contributor: KOGA M, UNIV. OF OCCUPATIONAL AND ENVIRONMENTAL HEALTH
InstType: EI
InstName: JEOL JMS-01-SG
IoniMethod: _ENERGY 70 eV
IonPolarity: pos
Date: 2010-10-09 19:48:36+02:00
Num Peaks: 53
50 92 51 92 62 36 63 7 67 34 73 26 74 68 75 21 76 46 77 28 
82 102 83 6 85 39 86 27 87 53 88 12 89 31 93 23 98 20 99 6 
100 48 101 96 102 56 106 4 111 28 136 60 137 55 138 3 139 33 150 22 
151 29 163 8 164 78 165 584 166 83 174 2 175 24 176 92 177 43 178 8 
199 135 200 80 201 55 202 2 212 58 214 21 235 999 236 12 237 570 238 91 
239 100 318 3 320 35 
