Name: MassBank: JP008425
MW: 178
Formula: C11H14O2
Synonym: MassBank: JP008425
Synonym: (E)-1,2-DIMETHOXY-4-(1-PROPENYL)BENZENE
Synonym: TRANS-METHYL ISOEUGENOL
Structure: 2845292D312C322D44494D4554484F58592D342D28312D50524F50454E594C2942454E5A454E452E6D6F6C0A20204368656D447261773130323230393230323832440A2031352031352020302020302020302020302020302020302020302020303939392056323030300A2020202D302E3731343520202020302E3431323520202020302E303030302043202020302020302020302020302020302020302020302020302020302020302020302020300A2020202D302E373134352020202D302E3431323520202020302E303030302043202020302020302020302020302020302020302020302020302020302020302020302020300A2020202D302E303030302020202D302E3832353020202020302E303030302043202020302020302020302020302020302020302020302020302020302020302020302020300A20202020302E373134352020202D302E3431323520202020302E303030302043202020302020302020302020302020302020302020302020302020302020302020302020300A20202020302E3731343520202020302E3431323520202020302E303030302043202020302020302020302020302020302020302020302020302020302020302020302020300A2020202D302E3030303020202020302E3832353020202020302E303030302043202020302020302020302020302020302020302020302020302020302020302020302020300A2020202D302E3030303020202020312E3634393920202020302E30303030204F202020302020302020302020302020302020302020302020302020302020302020302020300A20202020312E3432383920202020302E3832353020202020302E30303030204F202020302020302020302020302020302020302020302020302020302020302020302020300A2020202D302E3731343520202020322E3036323420202020302E303030302043202020302020302020302020302020302020302020302020302020302020302020302020300A20202020322E3134333320202020302E3431323520202020302E303030302043202020302020302020302020302020302020302020302020302020302020302020302020300A2020202D312E343238392020202D302E3832353020202020302E303030302043202020302020302020302020302020302020302020302020302020302020302020302020300A2020202D322E313433332020202D302E3431323520202020302E303030302048202020302020302020302020302020302020302020302020302020302020302020302020300A2020202D312E343238392020202D312E3634393920202020302E303030302043202020302020302020302020302020302020302020302020302020302020302020302020300A2020202D302E373134352020202D322E3036323420202020302E303030302048202020302020302020302020302020302020302020302020302020302020302020302020300A2020202D322E313433332020202D322E3036323420202020302E303030302043202020302020302020302020302020302020302020302020302020302020302020302020300A2020312020322020322020302020202020200A2020322020332020312020302020202020200A2020332020342020322020302020202020200A2020342020352020312020302020202020200A2020352020362020322020302020202020200A2020362020312020312020302020202020200A2020362020372020312020302020202020200A2020352020382020312020302020202020200A2020372020392020312020302020202020200A2020382031302020312020302020202020200A2020322031312020312020302020202020200A2031312031322020312020302020202020200A2031312031332020322020302020202020200A2031332031342020312020302020202020200A2031332031352020312020302020202020200A4D2020454E44
Contributor: SODA AROMATIC CO., LTD.
InstType: EI
InstName: HITACHI M-80B
IoniMethod: _ENERGY 70 eV
IonPolarity: pos
Date: 2010-10-09 19:48:36+02:00
Num Peaks: 55
15 49 18 12 27 28 38 13 39 59 41 64 43 16 50 31 51 58 52 20 
53 29 55 39 57 19 62 14 63 45 64 16 65 71 66 22 67 11 75 12 
76 12 77 94 78 34 79 83 89 32 90 10 91 239 92 38 95 20 102 19 
103 139 104 32 105 57 106 11 107 274 108 17 115 67 116 19 117 30 118 13 
119 23 120 25 121 10 131 24 132 12 133 22 135 82 146 22 147 67 148 13 
162 15 163 361 164 33 178 999 179 101 
