Name: 5-ETHYL-5-(1-METHYLBUTYL)-BARBITURIC ACID
MW: 226
Formula: C11H18N2O3
Synonym: MassBank: JP003839
Synonym: 5-ETHYL-5-(1-METHYLBUTYL)-BARBITURIC ACID
Synonym: PENTOBARBITAL
Structure: 352D455448594C2D352D28312D4D455448594C425554594C292D4241524249545552494320414349442E6D6F6C0A20204368656D447261773034323331303035313732440A2031362031362020302020302020302020302020302020302020302020303939392056323030300A20202020302E3331343120202020322E3032363020202020302E30303030204E202020302020302020302020302020302020302020302020302020302020302020302020300A20202020312E3032383620202020312E3631333520202020302E303030302043202020302020302020302020302020302020302020302020302020302020302020302020300A20202020312E3734333120202020322E3032363020202020302E30303030204F202020302020302020302020302020302020302020302020302020302020302020302020300A20202020312E3032383620202020302E3738383520202020302E30303030204E202020302020302020302020302020302020302020302020302020302020302020302020300A20202020302E3331343120202020302E3337363020202020302E303030302043202020302020302020302020302020302020302020302020302020302020302020302020300A20202020302E333134312020202D302E3434393020202020302E30303030204F202020302020302020302020302020302020302020302020302020302020302020302020300A2020202D302E3430303320202020302E3738383520202020302E303030302043202020302020302020302020302020302020302020302020302020302020302020302020300A2020202D302E3430303320202020312E3631333520202020302E303030302043202020302020302020302020302020302020302020302020302020302020302020302020300A2020202D312E3131343820202020322E3032363020202020302E30303030204F202020302020302020302020302020302020302020302020302020302020302020302020300A2020202D302E3638323520202020302E3031333220202020302E303030302043202020302020302020302020302020302020302020302020302020302020302020302020300A2020202D302E313532322020202D302E3631383820202020302E303030302043202020302020302020302020302020302020302020302020302020302020302020302020300A2020202D302E343334342020202D312E3339343020202020302E303030302043202020302020302020302020302020302020302020302020302020302020302020302020300A20202020302E303935392020202D322E3032363020202020302E303030302043202020302020302020302020302020302020302020302020302020302020302020302020300A2020202D312E343935302020202D302E3133303020202020302E303030302043202020302020302020302020302020302020302020302020302020302020302020302020300A2020202D312E3231323820202020302E3933313720202020302E303030302043202020302020302020302020302020302020302020302020302020302020302020302020300A2020202D312E3734333120202020302E3239393820202020302E303030302043202020302020302020302020302020302020302020302020302020302020302020302020300A2020312020322020312020302020202020200A2020322020332020322020302020202020200A2020322020342020312020302020202020200A2020342020352020312020302020202020200A2020352020362020322020302020202020200A2020352020372020312020302020202020200A2020372020382020312020302020202020200A2020382020392020322020302020202020200A2020312020382020312020302020202020200A2031302031312020312020302020202020200A2031312031322020312020302020202020200A2031322031332020312020302020202020200A2031302031342020312020302020202020200A2020372031302020312020302020202020200A2031352031362020312020302020202020200A2020372031352020312020302020202020200A4D2020454E44
Contributor: SASAKI S, TOYOHASHI UNIV. OF TECH.
InstType: EI
InstName: Unknown
IoniMethod: _ENERGY 70 eV
IonPolarity: pos
Date: 2010-10-09 19:48:36+02:00
Num Peaks: 51
39 74 40 23 41 227 42 5 43 303 44 39 52 11 53 4 54 19 55 109 
56 22 57 1 65 12 66 12 67 31 68 2 69 69 70 31 71 79 72 1 
79 11 80 17 81 14 82 1 83 19 84 14 85 24 94 1 95 14 96 14 
97 36 98 7 109 9 110 9 112 35 113 2 114 12 127 13 128 14 140 1 
141 558 142 42 143 11 154 1 155 69 156 999 157 222 158 3 197 49 198 11 
226 11 
