Name: N-HEXADECYL-5-METHYL-2-PYRROLIDONE
MW: 323
Formula: C21H41NO
Synonym: MassBank: JP004140
Synonym: N-HEXADECYL-5-METHYL-2-PYRROLIDONE
Structure: 4E2D48455841444543594C2D352D4D455448594C2D322D505952524F4C49444F4E452E6D6F6C0A20204368656D447261773038313231303032303732440A2032332032332020302020302020302020302020302020302020302020303939392056323030300A20202020342E363332352020202D302E3031363020202020302E30303030204E202020302020302020302020302020302020302020302020302020302020302020302020300A20202020332E3936353120202020302E3436383920202020302E303030302043202020302020302020302020302020302020302020302020302020302020302020302020300A20202020342E3232303020202020312E3235333520202020302E303030302043202020302020302020302020302020302020302020302020302020302020302020302020300A20202020352E3034353020202020312E3235333520202020302E303030302043202020302020302020302020302020302020302020302020302020302020302020302020300A20202020352E3239393920202020302E3436383920202020302E303030302043202020302020302020302020302020302020302020302020302020302020302020302020300A20202020332E3138303420202020302E3231343020202020302E30303030204F202020302020302020302020302020302020302020302020302020302020302020302020300A20202020362E3038343620202020302E3231343020202020302E303030302043202020302020302020302020302020302020302020302020302020302020302020302020300A20202020342E363332352020202D302E3834313020202020302E303030302043202020302020302020302020302020302020302020302020302020302020302020302020300A20202020332E393138302020202D312E3235333520202020302E303030302043202020302020302020302020302020302020302020302020302020302020302020302020300A20202020332E323033362020202D302E3834313020202020302E303030302043202020302020302020302020302020302020302020302020302020302020302020302020300A20202020322E343839312020202D312E3235333520202020302E303030302043202020302020302020302020302020302020302020302020302020302020302020302020300A20202020312E373734362020202D302E3834313020202020302E303030302043202020302020302020302020302020302020302020302020302020302020302020302020300A20202020312E303630312020202D312E3235333520202020302E303030302043202020302020302020302020302020302020302020302020302020302020302020302020300A20202020302E333435372020202D302E3834313020202020302E303030302043202020302020302020302020302020302020302020302020302020302020302020302020300A2020202D302E333638382020202D312E3235333520202020302E303030302043202020302020302020302020302020302020302020302020302020302020302020302020300A2020202D312E303833332020202D302E3834313020202020302E303030302043202020302020302020302020302020302020302020302020302020302020302020302020300A2020202D312E373937372020202D312E3235333520202020302E303030302043202020302020302020302020302020302020302020302020302020302020302020302020300A2020202D322E353132322020202D302E3834313020202020302E303030302043202020302020302020302020302020302020302020302020302020302020302020302020300A2020202D332E323236372020202D312E3235333520202020302E303030302043202020302020302020302020302020302020302020302020302020302020302020302020300A2020202D332E393431312020202D302E3834313020202020302E303030302043202020302020302020302020302020302020302020302020302020302020302020302020300A2020202D342E363535362020202D312E3235333520202020302E303030302043202020302020302020302020302020302020302020302020302020302020302020302020300A2020202D352E333730312020202D302E3834313020202020302E303030302043202020302020302020302020302020302020302020302020302020302020302020302020300A2020202D362E303834362020202D312E3235333520202020302E303030302043202020302020302020302020302020302020302020302020302020302020302020302020300A2020312020322020312020302020202020200A2020322020332020312020302020202020200A2020332020342020312020302020202020200A2020342020352020312020302020202020200A2020312020352020312020302020202020200A2020322020362020322020302020202020200A2020352020372020312020302020202020200A2020382020392020312020302020202020200A2020392031302020312020302020202020200A2031302031312020312020302020202020200A2031312031322020312020302020202020200A2031322031332020312020302020202020200A2031332031342020312020302020202020200A2031342031352020312020302020202020200A2031352031362020312020302020202020200A2031362031372020312020302020202020200A2031372031382020312020302020202020200A2031382031392020312020302020202020200A2031392032302020312020302020202020200A2032302032312020312020302020202020200A2032312032322020312020302020202020200A2032322032332020312020302020202020200A2020312020382020312020302020202020200A4D2020454E44
Contributor: MASS SPECTROSCOPY SOC. OF JAPAN (MSSJ)
InstType: EI
InstName: HITACHI RMU-6E
IoniMethod: _ENERGY 70 eV
IonPolarity: pos
Date: 2010-10-09 19:48:36+02:00
Num Peaks: 94
26 15 27 48 29 92 30 13 31 8 32 9 39 24 40 1 41 209 42 63 
43 255 44 8 46 10 53 14 54 20 55 27 56 79 57 153 58 19 59 1 
67 17 68 12 69 70 70 5 71 11 81 13 82 54 83 10 84 163 85 34 
86 17 94 1 95 10 96 16 97 27 98 17 99 39 100 79 101 7 110 1 
111 20 112 999 113 940 114 8 115 6 126 190 127 67 128 1 138 22 139 5 
140 228 141 7 142 9 154 100 155 28 156 1 166 8 167 5 168 67 169 3 
170 7 182 43 183 10 196 6 197 22 198 3 208 5 210 5 211 14 212 5 
224 47 225 2 238 49 239 18 252 38 253 2 254 7 266 30 267 13 268 1 
280 45 281 20 294 33 295 4 296 10 306 16 307 7 308 1 309 182 310 7 
322 25 323 28 324 74 325 15 
