Name: CIS-4-HEPTENAL
MW: 112
Formula: C7H12O
Synonym: MassBank: JP008679
Synonym: CIS-4-HEPTENAL
Structure: 310A32300A4349532D342D48455054454E414C2E6D6F6C0A20204368656D447261773039303831303134333032440A2020382020372020302020302020302020302020302020302020302020303939392056323030300A2020202D312E3434333820202020302E3731343520202020302E303030302043202020302020302020302020302020302020302020302020302020302020302020302020300A2020202D312E3033313220202020302E3030303020202020302E303030302043202020302020302020302020302020302020302020302020302020302020302020302020300A2020202D302E3230363220202020302E3030303020202020302E303030302043202020302020302020302020302020302020302020302020302020302020302020302020300A20202020302E323036332020202D302E3731343520202020302E303030302043202020302020302020302020302020302020302020302020302020302020302020302020300A20202020312E303331332020202D302E3731343520202020302E303030302043202020302020302020302020302020302020302020302020302020302020302020302020300A20202020312E3434333820202020302E3030303020202020302E303030302043202020302020302020302020302020302020302020302020302020302020302020302020300A20202020322E3236383820202020302E3030303020202020302E303030302043202020302020302020302020302020302020302020302020302020302020302020302020300A2020202D322E3236383820202020302E3731343520202020302E30303030204F202020302020302020302020302020302020302020302020302020302020302020302020300A2020312020322020312020302020202020200A2020322020332020312020302020202020200A2020332020342020312020302020202020200A2020342020352020322020302020202020200A2020352020362020312020302020202020200A2020362020372020312020302020202020200A2020312020382020322020302020202020200A4D2020454E44
Contributor: SODA AROMATIC CO., LTD.
InstType: EI
InstName: HITACHI M-80B
IoniMethod: _ENERGY 70 eV
IonPolarity: pos
Date: 2010-10-09 19:48:36+02:00
Num Peaks: 40
15 29 26 34 27 365 29 314 31 16 37 11 38 33 39 496 40 85 41 999 
42 277 43 114 44 13 50 39 51 79 52 30 53 226 54 65 55 685 56 283 
57 133 58 11 63 17 65 33 66 27 67 353 68 685 69 171 70 100 71 11 
77 33 79 104 81 38 83 327 84 493 85 22 94 119 95 12 97 27 112 28 
