Name: 2-CHLORO-4-(4-FLUOROPHENYL)PYRIMIDINE
MW: 208
Formula: C10H6ClFN2
Synonym: MassBank: JP004467
Synonym: 2-CHLORO-4-(4-FLUOROPHENYL)PYRIMIDINE
Structure: 322D43484C4F524F2D342D28342D464C554F524F5048454E594C29505952494D4944494E452E6D6F6C0A20204368656D447261773031303331303130343032440A2031342031352020302020302020302020302020302020302020302020303939392056323030300A20202020322E3036323520202020302E3335373220202020302E303030302043202020302020302020302020302020302020302020302020302020302020302020302020300A20202020312E3233373520202020302E3335373220202020302E30303030204E202020302020302020302020302020302020302020302020302020302020302020302020300A20202020302E383235302020202D302E3335373220202020302E303030302043202020302020302020302020302020302020302020302020302020302020302020302020300A20202020312E323337352020202D312E3037313720202020302E303030302043202020302020302020302020302020302020302020302020302020302020302020302020300A20202020322E303632352020202D312E3037313720202020302E303030302043202020302020302020302020302020302020302020302020302020302020302020302020300A20202020322E343735302020202D302E3335373220202020302E30303030204E202020302020302020302020302020302020302020302020302020302020302020302020300A2020202D302E303030302020202D302E3335373220202020302E303030302043202020302020302020302020302020302020302020302020302020302020302020302020300A2020202D302E3431323520202020302E3335373220202020302E303030302043202020302020302020302020302020302020302020302020302020302020302020302020300A2020202D312E3233373520202020302E3335373220202020302E303030302043202020302020302020302020302020302020302020302020302020302020302020302020300A2020202D312E363530302020202D302E3335373220202020302E303030302043202020302020302020302020302020302020302020302020302020302020302020302020300A2020202D312E323337352020202D312E3037313720202020302E303030302043202020302020302020302020302020302020302020302020302020302020302020302020300A2020202D302E343132352020202D312E3037313720202020302E303030302043202020302020302020302020302020302020302020302020302020302020302020302020300A2020202D322E343735302020202D302E3335373220202020302E303030302046202020302020302020302020302020302020302020302020302020302020302020302020300A20202020322E3437353020202020312E3037313720202020302E3030303020436C2020302020302020302020302020302020302020302020302020302020302020302020300A2020312020322020312020302020202020200A2020322020332020322020302020202020200A2020332020342020312020302020202020200A2020342020352020322020302020202020200A2020352020362020312020302020202020200A2020312020362020322020302020202020200A2020372020382020312020302020202020200A2020382020392020322020302020202020200A2020392031302020312020302020202020200A2031302031312020322020302020202020200A2031312031322020312020302020202020200A2020372031322020322020302020202020200A2031302031332020312020302020202020200A2020332020372020312020302020202020200A2020312031342020312020302020202020200A4D2020454E44
Contributor: SASAKI S, TOYOHASHI UNIV. OF TECH.
InstType: EI
InstName: MS-902
IoniMethod: _ENERGY 70 eV
IonPolarity: pos
Date: 2010-10-09 19:48:36+02:00
Num Peaks: 105
32 295 35 6 36 26 37 0 38 8 39 8 40 21 44 1 45 4 46 2 
47 2 49 0 49.5 2 50 30 50.5 2 51 1 52 17 53 19 56 3 57 2 
59 2 60 14 61 5 62 1 63 10 63.5 2 64 3 68 1 69 11 70 14 
71 4 73 1 74 27 75 41 76 9 77 1 78 2 81 8 82 2 83 0 
85 2 86 8 87 30 88 0 89 11 92 4 93 11 94 5 95 71 96 7 
98 4 99 2 100 18 101 30 102 4 103 0 104 9 104.5 2 105 6 106 0 
107 4 113 2 118 8 119 1 120 165 121 112 122 25 123 0 124 2 126 35 
127 7 128 0 132 2 133 2 144 4 145 3 146 76 147 403 148 42 149 0 
153 2 155 2 167 4 169 0 171 8 172 4 173 421 174 4 175 2 179 3 
180 4 181 0 182 2 183 3 190 2 198 0 199 10 200 2 207 20 208 999 
209 96 210 221 211 19 212 0 222 3 
