Name: MassBank: JP002431
MW: 212
Formula: C13H24O2
Synonym: MassBank: JP002431
Synonym: 2,2,4,4-TETRAMETHYL-5-((3S)-3-METHYL-4-PENTENYL)-1,3-DIOXOLANE
Structure: 322C322C342C342D54455452414D455448594C2D352D28283353292D332D4D455448594C2D342D50454E54454E594C292D312C332D44494F584F4C414E452E6D6F6C0A20204368656D447261773132313930393035313432440A2031362031362020302020302020302020302020302020302020302020303939392056323030300A20202020302E373335352020202D312E3034373820202020302E303030302043202020302020302020302020302020302020302020302020302020302020302020302020300A20202020312E353630352020202D312E3034373820202020302E30303030204F202020302020302020302020302020302020302020302020302020302020302020302020300A20202020312E383135352020202D302E3236333220202020302E303030302043202020302020302020302020302020302020302020302020302020302020302020302020300A20202020312E3134383020202020302E3232313720202020302E30303030204F202020302020302020302020302020302020302020302020302020302020302020302020300A20202020302E343830362020202D302E3236333220202020302E303030302043202020302020302020302020302020302020302020302020302020302020302020302020300A2020202D302E333034302020202D302E3030383220202020302E303030302043202020302020302020302020302020302020302020302020302020302020302020302020300A2020202D302E3437353620202020302E3739383720202020302E303030302043202020302020302020302020302020302020302020302020302020302020302020302020300A2020202D312E3236303220202020312E3035333720202020302E303030302043202020302020302020302020302020302020302020302020302020302020302020302020300A2020202D322E3035373120202020312E3236373220202020302E303030302043202020302020302020302020302020302020302020302020302020302020302020302020300A2020202D312E3032353920202020312E3834343720202020302E303030302043202020302020302020302020302020302020302020302020302020302020302020302020300A2020202D312E3439343520202020302E3236323620202020302E303030302043202020302020302020302020302020302020302020302020302020302020302020302020300A2020202D322E3634303520202020302E3638333820202020302E303030302043202020302020302020302020302020302020302020302020302020302020302020302020300A20202020302E303231302020202D312E3436303320202020302E303030302043202020302020302020302020302020302020302020302020302020302020302020302020300A20202020322E363430352020202D302E3236333220202020302E303030302043202020302020302020302020302020302020302020302020302020302020302020302020300A20202020302E393439302020202D312E3834343720202020302E303030302043202020302020302020302020302020302020302020302020302020302020302020302020300A20202020322E3037303420202020302E3532313420202020302E303030302043202020302020302020302020302020302020302020302020302020302020302020302020300A2020312020322020312020302020202020200A2020322020332020312020302020202020200A2020332020342020312020302020202020200A2020342020352020312020302020202020200A2020352020312020312020302020202020200A2020352020362020312020302020202020200A2020362020372020312020302020202020200A2020372020382020312020302020202020200A2020382020392020312020302020202020200A2020382031302020312020312020202020200A2020382031312020312020312020202020200A2020392031322020322020302020202020200A2020312031332020312020312020202020200A2020332031342020312020312020202020200A2020312031352020312020362020202020200A2020332031362020312020362020202020200A4D2020454E44
Contributor: ITO S, DEPT. OF CHEM., TOHOKU UNIV.
InstType: EI
InstName: HITACHI M-52
IoniMethod: _ENERGY 25 eV
IonPolarity: pos
Date: 2010-10-09 19:48:36+02:00
Num Peaks: 36
41 59 43 412 54 62 55 19 57 60 58 210 59 277 67 13 68 126 69 252 
70 39 71 40 72 53 81 999 82 91 83 9 84 55 85 53 86 25 93 2 
95 176 96 151 97 78 99 3 100 73 109 28 111 48 121 3 137 336 138 51 
139 119 154 3 155 252 156 23 197 597 198 76 
