Name: MassBank: JP002969
MW: 149
Formula: CF5N3
Synonym: MassBank: JP002969
Synonym: 3-D1FLUORAMINO-1,2,3-TRIFLUORODIAZIRIDINE
Structure: 310A32390A332D4431464C554F52414D494E4F2D312C322C332D545249464C554F524F4449415A49524944494E452E6D6F6C0A20204368656D447261773032323231303136353832440A2020392020392020302020302020302020302020302020302020302020303939392056323030300A2020202D302E3335373220202020302E3637343020202020302E30303030204E202020302020302020302020302020302020302020302020302020302020302020302020300A2020202D302E333537322020202D302E3135313020202020302E303030302043202020302020302020302020302020302020302020302020302020302020302020302020300A20202020302E3335373220202020302E3236313520202020302E30303030204E202020302020302020302020302020302020302020302020302020302020302020302020300A2020202D302E3736393720202020312E3338383520202020302E303030302046202020302020302020302020302020302020302020302020302020302020302020302020300A20202020312E3138323220202020302E3236313520202020302E303030302046202020302020302020302020302020302020302020302020302020302020302020302020300A2020202D312E313832322020202D302E3135313020202020302E303030302046202020302020302020302020302020302020302020302020302020302020302020302020300A2020202D302E333538332020202D302E3937363020202020302E30303030204E202020302020302020302020302020302020302020302020302020302020302020302020300A20202020302E333536312020202D312E3338383520202020302E303030302046202020302020302020302020302020302020302020302020302020302020302020302020300A2020202D312E303732382020202D312E3338383520202020302E303030302046202020302020302020302020302020302020302020302020302020302020302020302020300A2020312020322020312020302020202020200A2020322020332020312020302020202020200A2020332020312020312020302020202020200A2020312020342020312020302020202020200A2020332020352020312020302020202020200A2020322020362020312020302020202020200A2020322020372020312020302020202020200A2020372020382020312020302020202020200A2020372020392020312020302020202020200A4D202053545920203120202031205355500A4D2020534C4220203120202031202020310A4D202053414C202020312020332020203720202038202020390A4D202053424C20202031202031202020370A4D2020534D5420202031204E46320A4D2020534256202020312020372020202D362E3439333320202020362E313830390A4D2020454E44
Contributor: SASAKI S, TOYOHASHI UNIV. OF TECH.
InstType: EI
InstName: Unknown
IoniMethod: EI
IonPolarity: pos
Date: 2010-10-09 19:48:36+02:00
Num Peaks: 12
19 60 20 190 28 690 31 999 33 260 45 200 50 210 52 1 64 910 69 250 
83 450 97 110 
