Name: 3-ETHOXY-2-HYDROXYBENZALDEHYDE
MW: 166
Formula: C9H10O3
Synonym: MassBank: JP008447
Synonym: 3-ETHOXY-2-HYDROXYBENZALDEHYDE
Synonym: O-ETHYL VANILLIN
Structure: 332D4554484F58592D322D485944524F585942454E5A414C4445485944452E6D6F6C0A20204368656D447261773032323231303137313332440A2031322031322020302020302020302020302020302020302020302020303939392056323030300A2020202D312E3434333820202020312E3037313720202020302E303030302043202020302020302020302020302020302020302020302020302020302020302020302020300A2020202D312E3033313320202020302E3335373220202020302E303030302043202020302020302020302020302020302020302020302020302020302020302020302020300A2020202D302E3230363220202020302E3335373220202020302E303030302043202020302020302020302020302020302020302020302020302020302020302020302020300A20202020302E323036322020202D302E3335373220202020302E303030302043202020302020302020302020302020302020302020302020302020302020302020302020300A2020202D302E323036322020202D312E3037313720202020302E303030302043202020302020302020302020302020302020302020302020302020302020302020302020300A2020202D312E303331332020202D312E3037313720202020302E303030302043202020302020302020302020302020302020302020302020302020302020302020302020300A2020202D312E343433382020202D302E3335373220202020302E303030302043202020302020302020302020302020302020302020302020302020302020302020302020300A2020202D322E3236383720202020312E3037313720202020302E30303030204F202020302020302020302020302020302020302020302020302020302020302020302020300A20202020302E3230363320202020312E3037313720202020302E30303030204F202020302020302020302020302020302020302020302020302020302020302020302020300A20202020312E303331332020202D302E3335373220202020302E30303030204F202020302020302020302020302020302020302020302020302020302020302020302020300A20202020312E343433382020202D312E3037313720202020302E303030302043202020302020302020302020302020302020302020302020302020302020302020302020300A20202020322E323638372020202D312E3037313720202020302E303030302043202020302020302020302020302020302020302020302020302020302020302020302020300A2020312020322020312020302020202020200A2020322020332020312020302020202020200A2020332020342020322020302020202020200A2020342020352020312020302020202020200A2020352020362020322020302020202020200A2020362020372020312020302020202020200A2020322020372020322020302020202020200A2020312020382020322020302020202020200A2020332020392020312020302020202020200A2031312031322020312020302020202020200A2031302031312020312020302020202020200A2020342031302020312020302020202020200A4D2020454E44
Contributor: SODA AROMATIC CO., LTD.
InstType: EI
InstName: HITACHI M-80B
IoniMethod: _ENERGY 70 eV
IonPolarity: pos
Date: 2010-10-09 19:48:36+02:00
Num Peaks: 44
26 46 27 252 29 170 37 11 38 39 39 118 43 13 50 67 51 128 52 117 
53 181 54 29 55 138 61 11 62 33 63 123 64 98 65 85 66 20 75 16 
76 11 77 14 79 46 80 32 81 232 82 36 91 26 92 267 93 46 107 28 
108 52 109 186 110 84 120 285 121 46 122 49 123 12 136 53 137 999 138 966 
139 79 151 23 166 715 167 72 
