Name: PENTANETHIOL
MW: 104
Formula: C5H12S
Synonym: MassBank: JP009158
Synonym: PENTANETHIOL
Structure: 310A31360A50454E54414E455448494F4C2E6D6F6C0A20204368656D447261773038313231303034353632440A2020362020352020302020302020302020302020302020302020302020303939392056323030300A2020202D312E3037313720202020302E3230363220202020302E303030302043202020302020302020302020302020302020302020302020302020302020302020302020300A2020202D302E333537322020202D302E3230363220202020302E303030302043202020302020302020302020302020302020302020302020302020302020302020302020300A20202020302E3335373220202020302E3230363220202020302E303030302043202020302020302020302020302020302020302020302020302020302020302020302020300A20202020312E303731372020202D302E3230363220202020302E303030302043202020302020302020302020302020302020302020302020302020302020302020302020300A20202020312E3738363220202020302E3230363220202020302E303030302043202020302020302020302020302020302020302020302020302020302020302020302020300A2020202D312E373836322020202D302E3230363220202020302E303030302053202020302020302020302020302020302020302020302020302020302020302020302020300A2020312020322020312020302020202020200A2020322020332020312020302020202020200A2020332020342020312020302020202020200A2020342020352020312020302020202020200A2020312020362020312020302020202020200A4D2020454E44
Contributor: SODA AROMATIC CO., LTD.
InstType: EI
InstName: HITACHI M-80B
IoniMethod: _ENERGY 70 eV
IonPolarity: pos
Date: 2010-10-09 19:48:36+02:00
Num Peaks: 32
15 27 26 43 27 273 28 32 29 259 33 11 35 45 39 196 40 47 41 397 
42 999 43 202 45 108 46 58 47 235 49 26 51 12 53 36 55 456 56 48 
57 42 58 15 59 43 60 32 61 134 62 25 69 36 70 380 71 47 104 340 
105 28 106 14 
