Name: ETHYL NITRITE
CAS: 109-95-5
MW: 75
Formula: C2H5NO2
Synonym: MassBank: JP008266
Synonym: ETHYL NITRITE
Structure: 310A31340A455448594C204E4954524954452E6D6F6C0A20204368656D447261773038313131303138333332440A2020352020342020302020302020302020302020302020302020302020303939392056323030300A2020202D302E3731343520202020302E3230363320202020302E30303030204E202020302020302020302020302020302020302020302020302020302020302020302020300A20202020302E303030302020202D302E3230363320202020302E30303030204F202020302020302020302020302020302020302020302020302020302020302020302020300A2020202D312E343238392020202D302E3230363320202020302E30303030204F202020302020302020302020302020302020302020302020302020302020302020302020300A20202020302E3731343520202020302E3230363320202020302E303030302043202020302020302020302020302020302020302020302020302020302020302020302020300A20202020312E343238392020202D302E3230363220202020302E303030302043202020302020302020302020302020302020302020302020302020302020302020302020300A2020312020322020312020302020202020200A2020312020332020322020302020202020200A2020342020352020312020302020202020200A2020322020342020312020302020202020200A4D2020454E44
Contributor: UBE SCIENTIFIC ANALYSIS LABORATORY
InstType: EI
InstName: HITACHI M-60
IoniMethod: _ENERGY 70 eV
IonPolarity: pos
Date: 2010-10-09 19:48:36+02:00
Num Peaks: 16
14 64 15 174 16 9 26 33 27 159 28 35 29 482 30 999 31 82 32 10 
42 15 43 105 44 13 45 107 46 15 60 323 
