Name: MassBank: JP001469
MW: 198
Formula: C12H26Si
Synonym: MassBank: JP001469
Synonym: TRANS-1-TRIETHYLSILYL-3,3-DIMETHYL-1-BUTENE
Structure: 5452414E532D312D545249455448594C53494C594C2D332C332D44494D455448594C2D312D425554454E452E6D6F6C0A20204368656D447261773038313231303037343432440A2031332031322020302020302020302020302020302020302020302020303939392056323030300A20202020302E3030303020202020302E3035353320202020302E303030302043202020302020302020302020302020302020302020302020302020302020302020302020300A2020202D302E373134352020202D302E3335373220202020302E303030302043202020302020302020302020302020302020302020302020302020302020302020302020300A2020202D312E3432383920202020302E3035353320202020302E303030302043202020302020302020302020302020302020302020302020302020302020302020302020300A2020202D312E3031363420202020302E3736393720202020302E303030302043202020302020302020302020302020302020302020302020302020302020302020302020300A2020202D312E383431342020202D302E3635393220202020302E303030302043202020302020302020302020302020302020302020302020302020302020302020302020300A2020202D322E3134333420202020302E3436373820202020302E303030302043202020302020302020302020302020302020302020302020302020302020302020302020300A20202020302E373134352020202D302E3335373220202020302E303030302053692020302020302020302020302020302020302020302020302020302020302020302020300A20202020312E3132373020202020302E3335373220202020302E303030302043202020302020302020302020302020302020302020302020302020302020302020302020300A20202020302E3731343520202020312E3037313720202020302E303030302043202020302020302020302020302020302020302020302020302020302020302020302020300A20202020312E343238392020202D302E3736393720202020302E303030302043202020302020302020302020302020302020302020302020302020302020302020302020300A20202020322E313433342020202D302E3335373220202020302E303030302043202020302020302020302020302020302020302020302020302020302020302020302020300A20202020302E333032302020202D312E3037313720202020302E303030302043202020302020302020302020302020302020302020302020302020302020302020302020300A2020202D302E353233302020202D312E3037313720202020302E303030302043202020302020302020302020302020302020302020302020302020302020302020302020300A2020312020322020322020302020202020200A2020322020332020312020302020202020200A2020332020342020312020302020202020200A2020332020352020312020302020202020200A2020332020362020312020302020202020200A2020382020392020312020302020202020200A2020372020382020312020302020202020200A2031302031312020312020302020202020200A2020372031302020312020302020202020200A2031322031332020312020302020202020200A2020372031322020312020302020202020200A2020312020372020312020302020202020200A4D2020454E44
Contributor: MASS SPECTROSCOPY SOC. OF JAPAN (MSSJ)
InstType: EI
InstName: JEOL JMS-D-3000
IoniMethod: _ENERGY 70 eV
IonPolarity: pos
Date: 2010-10-09 19:48:36+02:00
Num Peaks: 54
41 94 43 115 45 182 46 11 53 23 54 12 55 106 56 33 57 126 58 82 
59 621 60 51 61 24 63 22 67 23 69 69 70 21 71 130 72 18 73 339 
74 22 75 15 81 22 83 70 84 15 85 259 86 34 87 336 88 31 89 13 
95 35 97 77 98 18 99 294 100 32 101 82 109 15 111 76 112 13 113 286 
114 35 115 49 125 12 127 89 128 14 139 55 140 10 141 684 142 98 143 27 
169 999 170 163 171 44 198 29 
