Name: 3-METHOXY-4-(TRIMETHYLSILYL)OXYCINNAMIC ACID TRIMETHYLSILYL ESTER
MW: 338
Formula: C16H26O4Si2
Synonym: MassBank: JP001044
Synonym: 3-METHOXY-4-(TRIMETHYLSILYL)OXYCINNAMIC ACID TRIMETHYLSILYL ESTER
Synonym: TRIMETHYLSILYL 3-METHOXY-4-TRIMETHYLSILOXYCINNAMATE
Structure: 332D4D4554484F58592D342D285452494D455448594C53494C594C294F585943494E4E414D49432041434944205452494D455448594C53494C594C2045535445522E6D6F6C0A20204368656D447261773032323231303233303632440A2032322032322020302020302020302020302020302020302020302020303939392056323030300A20202020312E343834322020202D312E3233373520202020302E303030302043202020302020302020302020302020302020302020302020302020302020302020302020300A20202020302E373639372020202D302E3832353020202020302E303030302043202020302020302020302020302020302020302020302020302020302020302020302020300A20202020302E303535332020202D312E3233373520202020302E303030302043202020302020302020302020302020302020302020302020302020302020302020302020300A2020202D302E363539322020202D302E3832353020202020302E303030302043202020302020302020302020302020302020302020302020302020302020302020302020300A2020202D312E333733372020202D312E3233373520202020302E303030302043202020302020302020302020302020302020302020302020302020302020302020302020300A2020202D322E303838312020202D302E3832353020202020302E303030302043202020302020302020302020302020302020302020302020302020302020302020302020300A2020202D322E3038383120202020302E3030303020202020302E303030302043202020302020302020302020302020302020302020302020302020302020302020302020300A2020202D312E3337333720202020302E3431323520202020302E303030302043202020302020302020302020302020302020302020302020302020302020302020302020300A2020202D302E3635393220202020302E3030303020202020302E303030302043202020302020302020302020302020302020302020302020302020302020302020302020300A20202020312E343834322020202D322E3036323520202020302E30303030204F202020302020302020302020302020302020302020302020302020302020302020302020300A20202020322E313938372020202D302E3832353020202020302E30303030204F202020302020302020302020302020302020302020302020302020302020302020302020300A2020202D322E3830323620202020302E3431323520202020302E30303030204F202020302020302020302020302020302020302020302020302020302020302020302020300A2020202D322E3830323620202020312E3233373520202020302E303030302053692020302020302020302020302020302020302020302020302020302020302020302020300A2020202D322E3830323620202020322E3036323520202020302E303030302043202020302020302020302020302020302020302020302020302020302020302020302020300A2020202D312E3937373620202020312E3233373520202020302E303030302043202020302020302020302020302020302020302020302020302020302020302020302020300A2020202D332E3632373620202020312E3233373520202020302E303030302043202020302020302020302020302020302020302020302020302020302020302020302020300A2020202D322E383032362020202D312E3233373520202020302E30303030204F202020302020302020302020302020302020302020302020302020302020302020302020300A2020202D322E383032362020202D322E3036323520202020302E303030302043202020302020302020302020302020302020302020302020302020302020302020302020300A20202020322E393133312020202D312E3233373520202020302E303030302053692020302020302020302020302020302020302020302020302020302020302020302020300A20202020332E333235362020202D302E3532333020202020302E303030302043202020302020302020302020302020302020302020302020302020302020302020302020300A20202020332E363237362020202D312E3635303020202020302E303030302043202020302020302020302020302020302020302020302020302020302020302020302020300A20202020322E353030362020202D312E3935323020202020302E303030302043202020302020302020302020302020302020302020302020302020302020302020302020300A2020312020322020312020302020202020200A2020322020332020322020302020202020200A2020332020342020312020302020202020200A2020342020352020312020302020202020200A2020352020362020322020302020202020200A2020362020372020312020302020202020200A2020372020382020322020302020202020200A2020382020392020312020302020202020200A2020342020392020322020302020202020200A2020312031302020322020302020202020200A2020312031312020312020302020202020200A2031332031342020312020302020202020200A2031332031352020312020302020202020200A2031332031362020312020302020202020200A2031322031332020312020302020202020200A2020372031322020312020302020202020200A2031372031382020312020302020202020200A2020362031372020312020302020202020200A2031392032302020312020312020202020200A2031392032312020312020302020202020200A2031392032322020312020312020202020200A2031312031392020312020302020202020200A4D2020454E44
Contributor: KOGA M, UNIV. OF OCCUPATIONAL AND ENVIRONMENTAL HEALTH
InstType: EI
InstName: JEOL JMS-01-SG
IoniMethod: _ENERGY 70 eV
IonPolarity: pos
Date: 2010-10-09 19:48:36+02:00
Num Peaks: 35
45 235 47 54 59 104 73 999 74 81 75 231 77 65 89 9 117 69 139 38 
145 73 147 9 154 61 175 65 179 100 190 5 191 88 192 54 218 50 219 15 
249 416 250 88 251 30 279 12 293 293 294 69 308 374 309 10 310 42 323 378 
324 108 325 4 338 432 339 119 340 42 
