Name: DIMETHYLHYDRAZONE HEXANECARBALDEHYDE
MW: 156
Formula: C9H20N2
Synonym: MassBank: JP000841
Synonym: DIMETHYLHYDRAZONE HEXANECARBALDEHYDE
Synonym: HEPTANAL DIMETHYLHYDRAZONE
Structure: 303137335F44494D455448594C48594452415A4F4E4520484558414E4543415242414C4445485944452E6D6F6C0A20204368656D447261773039303331303138333432440A2031302020392020302020302020302020302020302020302020302020303939392056323030300A20202020302E3832353020202020302E3731343520202020302E303030302043202020302020302020302020302020302020302020302020302020302020302020302020300A20202020302E3030303020202020302E3731343520202020302E303030302043202020302020302020302020302020302020302020302020302020302020302020302020300A2020202D302E343132352020202D302E3030303020202020302E303030302043202020302020302020302020302020302020302020302020302020302020302020302020300A2020202D312E323337352020202D302E3030303020202020302E303030302043202020302020302020302020302020302020302020302020302020302020302020302020300A2020202D312E363530302020202D302E3731343520202020302E303030302043202020302020302020302020302020302020302020302020302020302020302020302020300A2020202D322E343735302020202D302E3731343520202020302E303030302043202020302020302020302020302020302020302020302020302020302020302020302020300A20202020312E323337352020202D302E3030303020202020302E30303030204E202020302020302020302020302020302020302020302020302020302020302020302020300A20202020322E303632352020202D302E3030303020202020302E30303030204E202020302020302020302020302020302020302020302020302020302020302020302020300A20202020322E3437353020202020302E3731343520202020302E303030302043202020302020302020302020302020302020302020302020302020302020302020302020300A20202020322E343735302020202D302E3731343520202020302E303030302043202020302020302020302020302020302020302020302020302020302020302020302020300A2020312020322020312020302020202020200A2020322020332020312020302020202020200A2020332020342020312020302020202020200A2020342020352020312020302020202020200A2020352020362020312020302020202020200A2020372020382020312020302020202020200A2020382020392020312020302020202020200A2020382031302020312020302020202020200A2020312020372020322020302020202020200A4D2020454E44
Contributor: SASAKI S, TOYOHASHI UNIV. OF TECH.
InstType: EI
InstName: SHIMADZU LKB-2091
IoniMethod: _ENERGY 70 eV
IonPolarity: pos
Date: 2010-10-09 19:48:36+02:00
Num Peaks: 47
29 128 30 56 39 72 40 2 41 183 42 350 43 445 44 89 45 350 46 42 
53 16 54 2 55 106 56 89 57 30 58 9 59 411 60 333 61 12 67 1 
68 21 69 28 70 39 71 15 72 39 73 72 82 27 83 4 84 27 85 721 
86 999 87 7 95 14 96 11 97 24 98 1 99 205 100 33 112 67 113 12 
114 31 127 119 128 23 141 5 155 19 156 556 157 75 
