Name: MassBank: JP002802
MW: 209
Formula: C12H19NO2
Synonym: MassBank: JP002802
Synonym: 2,5-DIMETHOXY-ALPHA.4-DIMETHYL-BENZENEETHANAMINE
Structure: 322C352D44494D4554484F58592D414C5048412E342D44494D455448594C2D42454E5A454E45455448414E414D494E452E6D6F6C0A20204368656D447261773132323130393031323332440A2031352031352020302020302020302020302020302020302020302020303939392056323030300A2020202D302E333537322020202D302E3832353020202020302E303030302043202020302020302020302020302020302020302020302020302020302020302020302020300A2020202D302E3335373220202020302E3030303020202020302E303030302043202020302020302020302020302020302020302020302020302020302020302020302020300A20202020302E3335373220202020302E3431323520202020302E303030302043202020302020302020302020302020302020302020302020302020302020302020302020300A20202020312E3037313720202020302E3030303020202020302E303030302043202020302020302020302020302020302020302020302020302020302020302020302020300A20202020312E303731372020202D302E3832353020202020302E303030302043202020302020302020302020302020302020302020302020302020302020302020302020300A20202020302E333537322020202D312E3233373520202020302E303030302043202020302020302020302020302020302020302020302020302020302020302020302020300A2020202D312E373836322020202D302E3832353020202020302E303030302043202020302020302020302020302020302020302020302020302020302020302020302020300A2020202D312E303731372020202D312E3233373520202020302E303030302043202020302020302020302020302020302020302020302020302020302020302020302020300A2020202D322E353030362020202D312E3233373520202020302E30303030204E202020302020302020302020302020302020302020302020302020302020302020302020300A20202020312E3738363220202020302E3431323520202020302E303030302043202020302020302020302020302020302020302020302020302020302020302020302020300A2020202D312E3738363220202020302E3030303020202020302E303030302043202020302020302020302020302020302020302020302020302020302020302020302020300A20202020312E373836322020202D312E3233373520202020302E30303030204F202020302020302020302020302020302020302020302020302020302020302020302020300A20202020322E353030362020202D302E3832353020202020302E303030302043202020302020302020302020302020302020302020302020302020302020302020302020300A2020202D312E3037313720202020302E3431323520202020302E30303030204F202020302020302020302020302020302020302020302020302020302020302020302020300A2020202D312E3037313720202020312E3233373520202020302E303030302043202020302020302020302020302020302020302020302020302020302020302020302020300A2020312020322020312020302020202020200A2020322020332020322020302020202020200A2020332020342020312020302020202020200A2020342020352020322020302020202020200A2020352020362020312020302020202020200A2020312020362020322020302020202020200A2020372020382020312020302020202020200A2020372020392020312020302020202020200A2020312020382020312020302020202020200A2020342031302020312020302020202020200A2020372031312020312020302020202020200A2031322031332020312020302020202020200A2020352031322020312020302020202020200A2031342031352020312020302020202020200A2020322031342020312020302020202020200A4D2020454E44
Contributor: SASAKI S, TOYOHASHI UNIV. OF TECH.
InstType: EI
InstName: Unknown
IoniMethod: EI
IonPolarity: pos
Date: 2010-10-09 19:48:36+02:00
Num Peaks: 63
41 4 42 12 43 61 44 999 45 31 46 14 47 2 53 0 54 2 55 20 
56 12 57 8 58 14 59 2 65 19 66 0 67 1 68 4 69 14 70 1 
71 36 72 4 75 2 76 1 77 38 78 15 79 39 80 1 81 2 82 4 
83 4 84 1 85 12 86 4 87 1 90 0 91 59 92 11 93 4 94 0 
135 59 136 11 137 4 151 12 152 11 153 2 165 27 166 40 167 39 168 12 
169 4 175 1 176 3 177 5 178 4 179 0 192 3 193 3 194 7 208 0 
209 44 210 4 211 2 
