Name: MassBank: JP009809
MW: 181
Formula: C12H23N
Synonym: MassBank: JP009809
Synonym: N,N-DIETHYL-2,7-OCTADIENYLAMINE
Structure: 4E2C4E2D4449455448594C2D322C372D4F4354414449454E594C414D494E452E6D6F6C0A20204368656D447261773038313231303032333332440A2031332031322020302020302020302020302020302020302020302020303939392056323030300A20202020322E353030362020202D302E3030303020202020302E30303030204E202020302020302020302020302020302020302020302020302020302020302020302020300A20202020312E3738363220202020302E3431323520202020302E303030302043202020302020302020302020302020302020302020302020302020302020302020302020300A20202020312E303731372020202D302E3030303020202020302E303030302043202020302020302020302020302020302020302020302020302020302020302020302020300A20202020302E3335373220202020302E3431323520202020302E303030302043202020302020302020302020302020302020302020302020302020302020302020302020300A2020202D302E333537322020202D302E3030303020202020302E303030302043202020302020302020302020302020302020302020302020302020302020302020302020300A2020202D312E3037313720202020302E3431323520202020302E303030302043202020302020302020302020302020302020302020302020302020302020302020302020300A2020202D312E373836322020202D302E3030303020202020302E303030302043202020302020302020302020302020302020302020302020302020302020302020302020300A2020202D322E3530303620202020302E3431323520202020302E303030302043202020302020302020302020302020302020302020302020302020302020302020302020300A2020202D332E323135312020202D302E3030303020202020302E303030302043202020302020302020302020302020302020302020302020302020302020302020302020300A20202020332E3231353120202020302E3431323520202020302E303030302043202020302020302020302020302020302020302020302020302020302020302020302020300A20202020332E3231353120202020312E3233373520202020302E303030302043202020302020302020302020302020302020302020302020302020302020302020302020300A20202020322E353030362020202D302E3832353020202020302E303030302043202020302020302020302020302020302020302020302020302020302020302020302020300A20202020332E323135312020202D312E3233373520202020302E303030302043202020302020302020302020302020302020302020302020302020302020302020302020300A2020322020332020312020302020202020200A2020332020342020322020302020202020200A2020342020352020312020302020202020200A2020352020362020312020302020202020200A2020362020372020312020302020202020200A2020372020382020312020302020202020200A2020382020392020322020302020202020200A2020312020322020312020302020202020200A2031302031312020312020302020202020200A2020312031302020312020302020202020200A2031322031332020312020302020202020200A2020312031322020312020302020202020200A4D2020454E44
Contributor: KURARAY CO., LTD.
InstType: EI
InstName: JEOL JMS-D-300
IoniMethod: _ENERGY 70 eV
IonPolarity: pos
Date: 2010-10-09 19:48:36+02:00
Num Peaks: 61
26 42 27 106 28 39 29 16 30 113 39 108 40 30 41 24 42 153 43 466 
44 39 53 8 54 141 55 313 56 176 57 7 58 999 59 59 65 34 66 3 
67 905 68 88 69 28 70 5 71 77 72 172 73 314 74 3 77 30 79 75 
80 63 81 11 82 47 83 16 84 56 85 2 86 509 87 34 91 19 93 4 
94 19 96 38 97 17 98 6 99 78 100 16 107 19 108 4 109 208 110 69 
111 17 112 10 124 23 126 55 138 94 152 2 166 920 167 116 180 84 181 17 
182 30 
