Name: 1-VINYLCYCLOHEXANOL
MW: 126
Formula: C8H14O
Synonym: MassBank: JP008584
Synonym: 1-VINYLCYCLOHEXANOL
Structure: 310A32330A312D56494E594C4359434C4F484558414E4F4C2E6D6F6C0A20204368656D447261773131323230393233303032440A2020392020392020302020302020302020302020302020302020302020303939392056323030300A2020202D302E3132313420202020302E3030303020202020302E303030302043202020302020302020302020302020302020302020302020302020302020302020302020300A20202020302E3239313120202020302E3731343520202020302E303030302043202020302020302020302020302020302020302020302020302020302020302020302020300A20202020312E3131363120202020302E3731343520202020302E303030302043202020302020302020302020302020302020302020302020302020302020302020302020300A20202020312E353238362020202D302E3030303020202020302E303030302043202020302020302020302020302020302020302020302020302020302020302020302020300A20202020312E313136312020202D302E3731343520202020302E303030302043202020302020302020302020302020302020302020302020302020302020302020302020300A20202020302E323931312020202D302E3731343520202020302E303030302043202020302020302020302020302020302020302020302020302020302020302020302020300A2020202D302E373533342020202D302E3533303320202020302E303030302043202020302020302020302020302020302020302020302020302020302020302020302020300A2020202D312E353238362020202D302E3234383120202020302E303030302043202020302020302020302020302020302020302020302020302020302020302020302020300A2020202D302E3735333420202020302E3533303320202020302E30303030204F202020302020302020302020302020302020302020302020302020302020302020302020300A2020312020322020312020302020202020200A2020322020332020312020302020202020200A2020332020342020312020302020202020200A2020342020352020312020302020202020200A2020352020362020312020302020202020200A2020312020362020312020302020202020200A2020372020382020322020302020202020200A2020312020372020312020302020202020200A2020312020392020312020302020202020200A4D2020454E44
Contributor: SODA AROMATIC CO., LTD.
InstType: EI
InstName: HITACHI M-80B
IoniMethod: _ENERGY 70 eV
IonPolarity: pos
Date: 2010-10-09 19:48:36+02:00
Num Peaks: 46
15 12 26 17 27 221 29 100 31 23 38 10 39 171 40 23 41 197 42 84 
43 145 44 12 50 12 51 24 52 15 53 73 54 21 55 497 56 39 57 70 
58 27 65 21 67 59 68 65 69 63 70 427 71 72 72 25 77 23 79 60 
80 14 81 81 82 55 83 999 84 130 85 11 91 13 93 27 95 10 97 123 
98 139 99 55 108 18 111 233 112 15 126 56 
