Name: CHALCOMORACIN
MW: 648
Formula: C39H36O9
Synonym: MassBank: JP000159
Synonym: CHALCOMORACIN
Structure: 4348414C434F4D4F524143494E2E6D6F6C0A20204368656D447261773039303631303232333132440A2034382035332020302020302020302020302020302020302020302020303939392056323030300A2020202D312E3536323220202020302E3130393220202020302E303030302043202020302020302020302020302020302020302020302020302020302020302020302020300A2020202D312E343138392020202D302E3730333320202020302E303030302043202020302020302020302020302020302020302020302020302020302020302020302020300A2020202D302E363433372020202D302E3938353520202020302E303030302043202020302020302020302020302020302020302020302020302020302020302020302020300A2020202D302E303131372020202D302E3435353220202020302E303030302043202020302020302020302020302020302020302020302020302020302020302020302020300A2020202D302E3135353020202020302E3335373320202020302E303030302043202020302020302020302020302020302020302020302020302020302020302020302020300A2020202D302E3933303220202020302E3633393520202020302E303030302043202020302020302020302020302020302020302020302020302020302020302020302020300A2020202D312E3037333520202020312E3435313920202020302E30303030204F202020302020302020302020302020302020302020302020302020302020302020302020300A20202020302E3533343420202020312E3137383920202020302E303030302043202020302020302020302020302020302020302020302020302020302020302020302020300A20202020302E373032382020202D302E3836373720202020302E30303030204F202020302020302020302020302020302020302020302020302020302020302020302020300A2020202D322E303530392020202D312E3233333620202020302E303030302043202020302020302020302020302020302020302020302020302020302020302020302020300A20202020312E3335393420202020312E3137383920202020302E303030302043202020302020302020302020302020302020302020302020302020302020302020302020300A20202020312E3737313920202020312E3839333320202020302E303030302043202020302020302020302020302020302020302020302020302020302020302020302020300A20202020312E3335393420202020322E3630373820202020302E303030302043202020302020302020302020302020302020302020302020302020302020302020302020300A20202020302E3533343420202020322E3630373820202020302E303030302043202020302020302020302020302020302020302020302020302020302020302020302020300A20202020302E3132313920202020312E3839333320202020302E303030302043202020302020302020302020302020302020302020302020302020302020302020302020300A2020202D322E383531342020202D312E3033343020202020302E30303030204F202020302020302020302020302020302020302020302020302020302020302020302020300A2020202D332E323838362020202D312E3733333720202020302E303030302043202020302020302020302020302020302020302020302020302020302020302020302020300A2020202D322E373538332020202D322E3336353620202020302E303030302043202020302020302020302020302020302020302020302020302020302020302020302020300A2020202D312E393933342020202D322E3035363620202020302E303030302043202020302020302020302020302020302020302020302020302020302020302020302020300A20202020312E3839353720202020302E3235303120202020302E303030302043202020302020302020302020302020302020302020302020302020302020302020302020300A20202020322E3539363920202020312E3839333320202020302E303030302043202020302020302020302020302020302020302020302020302020302020302020302020300A20202020312E343833322020202D302E3436343420202020302E30303030204F202020302020302020302020302020302020302020302020302020302020302020302020300A20202020322E3732303720202020302E3235303120202020302E303030302043202020302020302020302020302020302020302020302020302020302020302020302020300A20202020332E3133333220202020302E3936343520202020302E303030302043202020302020302020302020302020302020302020302020302020302020302020302020300A20202020332E3935383220202020302E3936343520202020302E303030302043202020302020302020302020302020302020302020302020302020302020302020302020300A20202020342E3337303720202020302E3235303120202020302E303030302043202020302020302020302020302020302020302020302020302020302020302020302020300A20202020332E393538322020202D302E3436343420202020302E303030302043202020302020302020302020302020302020302020302020302020302020302020302020300A20202020332E313333322020202D302E3436343420202020302E303030302043202020302020302020302020302020302020302020302020302020302020302020302020300A20202020332E3030393420202020312E3137383920202020302E303030302043202020302020302020302020302020302020302020302020302020302020302020302020300A20202020332E3833343420202020312E3137383920202020302E303030302043202020302020302020302020302020302020302020302020302020302020302020302020300A20202020342E3234363920202020312E3839333320202020302E303030302043202020302020302020302020302020302020302020302020302020302020302020302020300A20202020332E3833343420202020322E3630373820202020302E303030302043202020302020302020302020302020302020302020302020302020302020302020302020300A20202020332E3030393420202020322E3630373820202020302E303030302043202020302020302020302020302020302020302020302020302020302020302020302020300A2020202D342E313031312020202D312E3837363920202020302E303030302043202020302020302020302020302020302020302020302020302020302020302020302020300A2020202D342E333833322020202D322E3635323220202020302E303030302043202020302020302020302020302020302020302020302020302020302020302020302020300A2020202D332E383532392020202D332E3238343220202020302E303030302043202020302020302020302020302020302020302020302020302020302020302020302020300A2020202D332E303430352020202D332E3134303920202020302E303030302043202020302020302020302020302020302020302020302020302020302020302020302020300A2020202D352E313935372020202D322E3739353420202020302E30303030204F202020302020302020302020302020302020302020302020302020302020302020302020300A20202020302E3132313920202020332E3332323320202020302E303030302043202020302020302020302020302020302020302020302020302020302020302020302020300A20202020322E3539363920202020332E3332323320202020302E30303030204F202020302020302020302020302020302020302020302020302020302020302020302020300A20202020352E3037313920202020312E3839333320202020302E30303030204F202020302020302020302020302020302020302020302020302020302020302020302020300A20202020322E373230372020202D312E3137383920202020302E30303030204F202020302020302020302020302020302020302020302020302020302020302020302020300A20202020352E3139353720202020302E3235303120202020302E30303030204F202020302020302020302020302020302020302020302020302020302020302020302020300A20202020342E333730372020202D312E3137383920202020302E303030302043202020302020302020302020302020302020302020302020302020302020302020302020300A20202020332E393538322020202D312E3839333320202020302E303030302043202020302020302020302020302020302020302020302020302020302020302020302020300A20202020342E333730372020202D322E3630373820202020302E303030302043202020302020302020302020302020302020302020302020302020302020302020302020300A20202020332E393538322020202D332E3332323320202020302E303030302043202020302020302020302020302020302020302020302020302020302020302020302020300A20202020352E313935372020202D322E3630373820202020302E303030302043202020302020302020302020302020302020302020302020302020302020302020302020300A2020312020322020322020302020202020200A2020322020332020312020302020202020200A2020332020342020322020302020202020200A2020342020352020312020302020202020200A2020352020362020322020302020202020200A2020362020312020312020302020202020200A2020362020372020312020302020202020200A2020352020382020312020302020202020200A2020342020392020312020302020202020200A2020322031302020312020302020202020200A2020382031312020312020302020202020200A2031312031322020312020302020202020200A2031322031332020312020302020202020200A2031332031342020312020302020202020200A2031342031352020322020302020202020200A2031352020382020312020302020202020200A2031302031362020312020302020202020200A2031362031372020312020302020202020200A2031372031382020322020302020202020200A2031382031392020312020302020202020200A2031392031302020322020302020202020200A2031312032302020312020302020202020200A2031322032312020312020302020202020200A2032302032322020322020302020202020200A2032302032332020312020302020202020200A2032332032342020322020302020202020200A2032342032352020312020302020202020200A2032352032362020322020302020202020200A2032362032372020312020302020202020200A2032372032382020322020302020202020200A2032382032332020312020302020202020200A2032312032392020322020302020202020200A2032392033302020312020302020202020200A2033302033312020322020302020202020200A2033312033322020312020302020202020200A2033322033332020322020302020202020200A2033332032312020312020302020202020200A2031372033342020312020302020202020200A2033342033352020322020302020202020200A2033352033362020312020302020202020200A2033362033372020322020302020202020200A2033372031382020312020302020202020200A2033352033382020312020302020202020200A2031342033392020312020302020202020200A2033332034302020312020302020202020200A2033312034312020312020302020202020200A2032382034322020312020302020202020200A2032362034332020312020302020202020200A2032372034342020312020302020202020200A2034342034352020312020302020202020200A2034352034362020322020302020202020200A2034362034372020312020302020202020200A2034362034382020312020302020202020200A4D2020454E44
Contributor: FUKUSHIMA K, INST. FOR CHEMOBIODYNAMICS, CHIBA UNIV.
InstType: EI
InstName: JEOL JMS-01-SG-2
IoniMethod: _ENERGY 70 eV
IonPolarity: pos
Date: 2010-10-09 19:48:36+02:00
Num Peaks: 188
20 54 26 44 28 30 31 20 36 18 38 22 40 51 44 360 46 11 50 35 
51 89 52 35 53 80 54 44 60 46 61 15 62 18 63 53 64 41 65 65 
66 27 67 48 68 31 73 43 74 30 75 27 76 22 77 41 78 39 79 49 
80 19 82 50 84 27 87 21 89 30 91 27 92 28 94 50 96 17 98 29 
99 16 101 26 102 19 103 28 105 50 107 67 110 264 111 22 112 14 113 12 
115 85 116 19 117 20 118 17 119 20 121 141 122 103 123 436 124 38 125 13 
127 35 128 55 129 28 130 16 131 26 133 11 134 47 136 16 137 20 139 39 
140 16 142 14 144 21 145 28 147 44 148 12 149 57 150 21 151 15 152 28 
153 17 155 13 157 42 158 23 159 18 160 12 161 53 163 64 164 12 165 35 
166 37 167 12 168 35 169 28 171 23 173 23 175 11 176 23 177 16 178 205 
179 44 181 14 184 18 185 58 186 35 187 10 189 16 194 17 195 14 197 42 
198 13 199 14 203 17 205 17 210 13 211 116 212 40 213 141 214 18 215 17 
223 23 224 15 225 11 226 17 227 17 228 13 232 12 235 30 239 13 241 46 
242 999 243 149 244 19 249 20 251 13 255 22 262 15 263 26 267 30 268 32 
269 11 278 26 279 25 281 21 287 15 291 11 292 12 293 194 294 35 295 10 
301 21 303 17 304 18 305 10 308 43 309 14 310 22 314 14 315 34 316 13 
317 76 318 18 319 20 323 13 324 36 329 31 330 14 331 76 332 103 333 61 
334 20 343 24 344 12 345 63 346 12 371 34 373 108 374 32 375 10 385 39 
386 31 387 116 388 303 389 86 390 29 449 25 450 13 630 12 
