Name: MassBank: JP004880
MW: 218
Formula: C15H22O
Synonym: MassBank: JP004880
Synonym: 1,9,9-TRIMETHYL-6-METHYLENE-CIS-ANTI-CIS-TRICYCLO(6.3.0.0(3,7))UNDECAN-2-ONE
Structure: 312C392C392D5452494D455448594C2D362D4D455448594C454E452D4349532D414E54492D4349532D5452494359434C4F28362E332E302E3028332C372929554E444543414E2D322D4F4E452E6D6F6C0A20204368656D447261773131313730393135303732440A2031392032312020302020302020302020302020302020302020302020303939392056323030300A2020202D302E3636373420202020302E3339323320202020302E303030302043202020302020302020302020302020302020302020302020302020302020302020302020300A2020202D302E3030303020202020302E3837373220202020302E303030302043202020302020302020302020302020302020302020302020302020302020302020302020300A20202020302E3636373420202020302E3339323320202020302E303030302043202020302020302020302020302020302020302020302020302020302020302020302020300A20202020312E3439323420202020302E3339323320202020302E303030302043202020302020302020302020302020302020302020302020302020302020302020302020300A20202020312E373437342020202D302E3339323320202020302E303030302043202020302020302020302020302020302020302020302020302020302020302020302020300A20202020312E303739392020202D302E3837373220202020302E303030302043202020302020302020302020302020302020302020302020302020302020302020302020300A20202020302E343132352020202D302E3339323320202020302E303030302043202020302020302020302020302020302020302020302020302020302020302020302020300A2020202D302E343132352020202D302E3339323320202020302E303030302043202020302020302020302020302020302020302020302020302020302020302020302020300A2020202D312E303637362020202D302E3836393820202020302E303030302043202020302020302020302020302020302020302020302020302020302020302020302020300A2020202D312E373437342020202D302E3339323320202020302E303030302043202020302020302020302020302020302020302020302020302020302020302020302020300A2020202D312E3439323420202020302E3339323320202020302E303030302043202020302020302020302020302020302020302020302020302020302020302020302020300A2020202D302E3030303020202020312E3730323220202020302E30303030204F202020302020302020302020302020302020302020302020302020302020302020302020300A20202020312E303739392020202D312E3730323220202020302E303030302043202020302020302020302020302020302020302020302020302020302020302020302020300A2020202D302E363535312020202D312E3538343320202020302E303030302043202020302020302020302020302020302020302020302020302020302020302020302020300A2020202D312E363630392020202D312E3436333120202020302E303030302043202020302020302020302020302020302020302020302020302020302020302020302020300A2020202D302E3932323420202020312E3137363920202020302E303030302043202020302020302020302020302020302020302020302020302020302020302020302020300A20202020302E3932323420202020312E3137363920202020302E303030302048202020302020302020302020302020302020302020302020302020302020302020302020300A20202020302E323937372020202D312E3230393320202020302E303030302048202020302020302020302020302020302020302020302020302020302020302020302020300A2020202D302E313537362020202D312E3137363920202020302E303030302048202020302020302020302020302020302020302020302020302020302020302020302020300A2020312020322020312020302020202020200A2020322020332020312020302020202020200A2020332020342020312020302020202020200A2020342020352020312020302020202020200A2020352020362020312020302020202020200A2020362020372020312020302020202020200A2020372020382020312020302020202020200A2020382020392020312020302020202020200A2020392031302020312020302020202020200A2031302031312020312020302020202020200A2020312031312020312020302020202020200A2020312020382020312020302020202020200A2020332020372020312020302020202020200A2020322031322020322020302020202020200A2020362031332020322020302020202020200A2020392031342020312020362020202020200A2020392031352020312020312020202020200A2020312031362020312020362020202020200A2020332031372020312020312020202020200A2020372031382020312020312020202020200A2020382031392020312020362020202020200A4D2020454E44
Contributor: KATO T, DEPT. OF CHEM., FAC. OF SCI., TOHOKU UNIV.
InstType: EI
InstName: Unknown
IoniMethod: _ENERGY 14 eV
IonPolarity: pos
Date: 2010-10-09 19:48:36+02:00
Num Peaks: 34
80 394 81 147 93 18 95 9 96 28 106 50 107 18 108 10 109 353 110 92 
111 18 120 2 121 19 122 18 124 46 136 2 137 28 138 28 139 326 140 4 
147 32 149 32 150 23 162 2 175 18 183 37 200 46 203 7 204 18 216 37 
217 28 218 999 219 124 220 37 
