Name: 3-(1-METHYL-2-PYRROLIDINYL)PYRIDINE
MW: 162
Formula: C10H14N2
Synonym: MassBank: JP003492
Synonym: 3-(1-METHYL-2-PYRROLIDINYL)PYRIDINE
Structure: 332D28312D4D455448594C2D322D505952524F4C4944494E594C295059524944494E452E6D6F6C0A20204368656D447261773032323231303038353732440A2031322031332020302020302020302020302020302020302020302020303939392056323030300A20202020302E3835313420202020302E3635363320202020302E303030302043202020302020302020302020302020302020302020302020302020302020302020302020300A20202020302E3236383120202020302E3037323920202020302E303030302043202020302020302020302020302020302020302020302020302020302020302020302020300A20202020302E343831362020202D302E3732343020202020302E303030302043202020302020302020302020302020302020302020302020302020302020302020302020300A20202020312E323738352020202D302E3933373520202020302E303030302043202020302020302020302020302020302020302020302020302020302020302020302020300A20202020312E383631392020202D302E3335343120202020302E303030302043202020302020302020302020302020302020302020302020302020302020302020302020300A20202020312E3634383320202020302E3434323720202020302E30303030204E202020302020302020302020302020302020302020302020302020302020302020302020300A2020202D312E313730302020202D302E3233323820202020302E30303030204E202020302020302020302020302020302020302020302020302020302020302020302020300A2020202D302E3532383820202020302E3238363420202020302E303030302043202020302020302020302020302020302020302020302020302020302020302020302020300A2020202D302E3832343520202020312E3035363620202020302E303030302043202020302020302020302020302020302020302020302020302020302020302020302020300A2020202D312E3634383320202020312E3031333520202020302E303030302043202020302020302020302020302020302020302020302020302020302020302020302020300A2020202D312E3836313920202020302E3231363620202020302E303030302043202020302020302020302020302020302020302020302020302020302020302020302020300A2020202D312E313236382020202D312E3035363620202020302E303030302043202020302020302020302020302020302020302020302020302020302020302020302020300A2020312020322020312020302020202020200A2020322020332020322020302020202020200A2020332020342020312020302020202020200A2020342020352020322020302020202020200A2020352020362020312020302020202020200A2020312020362020322020302020202020200A2020372020382020312020302020202020200A2020382020392020312020302020202020200A2020392031302020312020302020202020200A2031302031312020312020302020202020200A2020372031312020312020302020202020200A2020372031322020312020302020202020200A2020322020382020312020302020202020200A4D2020454E44
Contributor: MASS SPECTROSCOPY SOC. OF JAPAN (MSSJ)
InstType: EI
InstName: HITACHI M-60
IoniMethod: _ENERGY 20 eV
IonPolarity: pos
Date: 2010-10-09 19:48:36+02:00
Num Peaks: 56
41 9 42 103 43 60 44 20 53 1 55 42 56 5 57 9 58 3 65 13 
66 2 67 1 68 4 69 3 70 1 77 4 78 12 79 8 80 11 81 12 
82 36 83 15 84 999 85 113 86 2 91 9 92 51 93 13 94 3 103 2 
104 9 105 20 106 16 107 10 117 20 118 44 119 95 120 34 121 6 130 38 
131 9 132 21 133 384 134 56 135 4 144 3 145 5 146 2 147 7 158 1 
159 11 160 9 161 245 162 317 163 41 164 2 
