Name: O-HEXYLHYDROXYLAMINE
MW: 117
Formula: C6H15NO
Synonym: MassBank: JP003716
Synonym: O-HEXYLHYDROXYLAMINE
Structure: 310A32300A4F2D484558594C485944524F58594C414D494E452E6D6F6C0A20204368656D447261773038313231303033303832440A2020382020372020302020302020302020302020302020302020302020303939392056323030300A20202020322E3530303620202020302E3230363320202020302E30303030204E202020302020302020302020302020302020302020302020302020302020302020302020300A20202020312E373836322020202D302E3230363320202020302E30303030204F202020302020302020302020302020302020302020302020302020302020302020302020300A20202020312E3037313720202020302E3230363320202020302E303030302043202020302020302020302020302020302020302020302020302020302020302020302020300A20202020302E333537322020202D302E3230363220202020302E303030302043202020302020302020302020302020302020302020302020302020302020302020302020300A2020202D302E3335373220202020302E3230363220202020302E303030302043202020302020302020302020302020302020302020302020302020302020302020302020300A2020202D312E303731372020202D302E3230363320202020302E303030302043202020302020302020302020302020302020302020302020302020302020302020302020300A2020202D312E3738363220202020302E3230363220202020302E303030302043202020302020302020302020302020302020302020302020302020302020302020302020300A2020202D322E353030362020202D302E3230363320202020302E303030302043202020302020302020302020302020302020302020302020302020302020302020302020300A2020312020322020312020302020202020200A2020332020342020312020302020202020200A2020342020352020312020302020202020200A2020352020362020312020302020202020200A2020362020372020312020302020202020200A2020372020382020312020302020202020200A2020322020332020312020302020202020200A4D2020454E44
Contributor: SASAKI S, TOYOHASHI UNIV. OF TECH.
InstType: EI
InstName: Unknown
IoniMethod: EI
IonPolarity: pos
Date: 2010-10-09 19:48:36+02:00
Num Peaks: 29
38 32 39 76 40 14 41 27 42 129 43 999 44 86 45 2 46 35 53 14 
54 14 55 16 56 189 57 149 58 14 67 1 69 54 70 24 71 27 72 1 
79 22 80 62 81 22 82 6 84 49 85 149 86 11 91 2 117 7 
