Name: MassBank: JP005682
MW: 102
Formula: C6H14O
Synonym: MassBank: JP005682
Synonym: 3,3-DIMETHYL-2-BUTANOL
Structure: 310A31380A332C332D44494D455448594C2D322D425554414E4F4C2E6D6F6C0A20204368656D447261773032323131303230313732440A2020372020362020302020302020302020302020302020302020302020303939392056323030300A2020202D302E3731343520202020312E3033313320202020302E303030302043202020302020302020302020302020302020302020302020302020302020302020302020300A20202020302E3030303020202020302E3631383720202020302E303030302043202020302020302020302020302020302020302020302020302020302020302020302020300A20202020302E303030302020202D302E3230363220202020302E303030302043202020302020302020302020302020302020302020302020302020302020302020302020300A20202020302E383235302020202D302E3230363220202020302E303030302043202020302020302020302020302020302020302020302020302020302020302020302020300A20202020302E3731343520202020312E3033313320202020302E30303030204F202020302020302020302020302020302020302020302020302020302020302020302020300A20202020302E303030302020202D312E3033313320202020302E303030302043202020302020302020302020302020302020302020302020302020302020302020302020300A2020202D302E383235302020202D302E3230363220202020302E303030302043202020302020302020302020302020302020302020302020302020302020302020302020300A2020312020322020312020302020202020200A2020322020332020312020302020202020200A2020332020342020312020312020202020200A2020322020352020312020302020202020200A2020332020362020312020302020202020200A2020332020372020312020312020202020200A4D2020454E44
Contributor: HASHIMOTO K, KYOTO COLLEGE OF PHARMACY
InstType: EI
InstName: HITACHI M-80
IoniMethod: _ENERGY 20 eV
IonPolarity: pos
Date: 2010-10-09 19:48:36+02:00
Num Peaks: 24
27 12 29 94 39 11 41 350 42 17 43 97 44 36 45 676 46 16 47 10 
55 37 56 590 57 999 58 47 59 20 69 295 70 18 71 24 85 200 86 16 
87 438 88 24 101 17 102 37 
