Name: LIMONENE DIOXIDE
MW: 168
Formula: C10H16O2
Synonym: MassBank: JP008371
Synonym: LIMONENE DIOXIDE
Synonym: 1,2-EPOXY-4-(1,2-EPOXY-1-METHYLETHYL)-1-METHYLCYCLOHEXANE
Structure: 4C494D4F4E454E452044494F584944452E6D6F6C0A20204368656D447261773131313030393135343332440A2031322031342020302020302020302020302020302020302020302020303939392056323030300A20202020312E323637392020202D302E3030303020202020302E303030302043202020302020302020302020302020302020302020302020302020302020302020302020300A20202020302E383535342020202D302E3731343520202020302E303030302043202020302020302020302020302020302020302020302020302020302020302020302020300A20202020302E303330342020202D302E3731343520202020302E303030302043202020302020302020302020302020302020302020302020302020302020302020302020300A2020202D302E333832312020202D302E3030303020202020302E303030302043202020302020302020302020302020302020302020302020302020302020302020302020300A20202020302E3033303420202020302E3731343520202020302E303030302043202020302020302020302020302020302020302020302020302020302020302020302020300A20202020302E3835353420202020302E3731343520202020302E303030302043202020302020302020302020302020302020302020302020302020302020302020302020300A20202020312E3938323420202020302E3431323520202020302E303030302043202020302020302020302020302020302020302020302020302020302020302020302020300A2020202D312E323037312020202D302E3030303020202020302E303030302043202020302020302020302020302020302020302020302020302020302020302020302020300A2020202D312E3335303420202020302E3831323520202020302E303030302043202020302020302020302020302020302020302020302020302020302020302020302020300A2020202D312E333530342020202D302E3831323520202020302E303030302043202020302020302020302020302020302020302020302020302020302020302020302020300A2020202D312E3938323420202020302E3238323220202020302E30303030204F202020302020302020302020302020302020302020302020302020302020302020302020300A20202020312E363830342020202D302E3731343520202020302E30303030204F202020302020302020302020302020302020302020302020302020302020302020302020300A2020312020322020312020302020202020200A2020322020332020312020302020202020200A2020332020342020312020302020202020200A2020342020352020312020302020202020200A2020352020362020312020302020202020200A2020312020362020312020302020202020200A2020312020372020312020302020202020200A2020382020392020312020302020202020200A2020382031302020312020302020202020200A2020382031312020312020302020202020200A2020392031312020312020302020202020200A2020342020382020312020302020202020200A2020312031322020312020302020202020200A2020322031322020312020302020202020200A4D2020454E44
Contributor: SODA AROMATIC CO., LTD.
InstType: EI
InstName: HITACHI M-80B
IoniMethod: _ENERGY 70 eV
IonPolarity: pos
Date: 2010-10-09 19:48:36+02:00
Num Peaks: 57
14 12 15 27 27 138 29 108 31 26 39 148 40 13 41 204 42 27 43 999 
44 50 45 37 51 25 53 93 54 31 55 169 56 21 57 48 58 82 59 22 
65 25 66 14 67 169 68 41 69 74 70 20 71 83 77 54 79 110 80 41 
81 99 82 107 83 89 84 37 85 35 91 54 92 65 93 137 94 69 95 215 
96 22 97 65 98 19 105 30 106 11 107 161 108 42 109 57 110 41 111 41 
121 30 122 15 123 78 125 25 135 15 137 23 138 19 
