Name: MassBank: JP004437
MW: 172
Formula: C5HCl2N3
Synonym: MassBank: JP004437
Synonym: 4,6-DICHLORO-5-CYANOPYRIMIDINE
Structure: 342C362D444943484C4F524F2D352D4359414E4F505952494D4944494E452E6D6F6C0A20204368656D447261773130313831303136353232440A2031302031302020302020302020302020302020302020302020302020303939392056323030300A20202020312E3635303020202020302E3030303020202020302E303030302043202020302020302020302020302020302020302020302020302020302020302020302020300A20202020312E323337352020202D302E3731343520202020302E30303030204E202020302020302020302020302020302020302020302020302020302020302020302020300A20202020302E343132352020202D302E3731343520202020302E303030302043202020302020302020302020302020302020302020302020302020302020302020302020300A2020202D302E3030303020202020302E3030303020202020302E303030302043202020302020302020302020302020302020302020302020302020302020302020302020300A20202020302E3431323520202020302E3731343520202020302E303030302043202020302020302020302020302020302020302020302020302020302020302020302020300A20202020312E3233373520202020302E3731343520202020302E30303030204E202020302020302020302020302020302020302020302020302020302020302020302020300A2020202D302E3832353020202020302E3030303020202020302E303030302043202020302020302020302020302020302020302020302020302020302020302020302020300A2020202D312E3635303020202020302E3030303020202020302E30303030204E202020302020302020302020302020302020302020302020302020302020302020302020300A2020202D302E3030303020202020312E3432383920202020302E3030303020436C2020302020302020302020302020302020302020302020302020302020302020302020300A20202020302E303030302020202D312E3432383920202020302E3030303020436C2020302020302020302020302020302020302020302020302020302020302020302020300A2020312020322020322020302020202020200A2020322020332020312020302020202020200A2020332020342020322020302020202020200A2020342020352020312020302020202020200A2020352020362020322020302020202020200A2020312020362020312020302020202020200A2020372020382020332020302020202020200A2020342020372020312020302020202020200A2020352020392020312020302020202020200A2020332031302020312020302020202020200A4D2020454E44
Contributor: SASAKI S, TOYOHASHI UNIV. OF TECH.
InstType: EI
InstName: MS-902
IoniMethod: _ENERGY 70 eV
IonPolarity: pos
Date: 2010-10-09 19:48:36+02:00
Num Peaks: 61
39 17 40 3 41 3 42 1 44 15 47 61 48 11 49 2 50 74 51 45 
52 15 53 1 56 15 57 5 59 7 61 2 62 29 63 5 64 9 67 1 
71 5 72 6 73 38 74 2 75 5 76 299 77 526 78 2 79 3 85 237 
86 13 87 9 88 5 89 4 94 9 95 1 102 7 104 3 105 2 106 0 
107 3 111 207 112 57 113 7 114 17 123 6 124 12 138 67 139 49 140 229 
141 13 142 0 153 10 154 1 155 4 173 999 174 77 175 657 176 50 177 11 
178 7 
