Name: MassBank: JP001206
MW: 130
Formula: C7H14O2
Synonym: MassBank: JP001206
Synonym: 2,2-DIMETHYLPROPYL ACETATE
Structure: 310A32320A322C322D44494D455448594C50524F50594C20414345544154452E6D6F6C0A20204368656D447261773132323030393036353632440A2020392020382020302020302020302020302020302020302020302020303939392056323030300A20202020312E3037313720202020302E3135313020202020302E303030302043202020302020302020302020302020302020302020302020302020302020302020302020300A20202020312E373836322020202D302E3236313520202020302E303030302043202020302020302020302020302020302020302020302020302020302020302020302020300A20202020312E3037313720202020302E3937363020202020302E30303030204F202020302020302020302020302020302020302020302020302020302020302020302020300A20202020302E333537322020202D302E3236313520202020302E30303030204F202020302020302020302020302020302020302020302020302020302020302020302020300A2020202D302E3335373220202020302E3135313020202020302E303030302043202020302020302020302020302020302020302020302020302020302020302020302020300A2020202D312E303731372020202D302E3236313520202020302E303030302043202020302020302020302020302020302020302020302020302020302020302020302020300A2020202D302E363539322020202D302E3937363020202020302E303030302043202020302020302020302020302020302020302020302020302020302020302020302020300A2020202D312E373836322020202D302E3637343020202020302E303030302043202020302020302020302020302020302020302020302020302020302020302020302020300A2020202D312E3438343220202020302E3435333020202020302E303030302043202020302020302020302020302020302020302020302020302020302020302020302020300A2020312020322020312020302020202020200A2020312020332020322020302020202020200A2020312020342020312020302020202020200A2020352020362020312020302020202020200A2020362020372020312020312020202020200A2020362020382020312020302020202020200A2020362020392020312020312020202020200A2020342020352020312020302020202020200A4D2020454E44
Contributor: SASAKI S, TOYOHASHI UNIV. OF TECH.
InstType: EI
InstName: HITACHI RMU-6D
IoniMethod: _ENERGY 70 eV
IonPolarity: pos
Date: 2010-10-09 19:48:36+02:00
Num Peaks: 24
14 15 15 35 18 30 25 6 26 999 27 135 29 200 38 6 40 265 42 30 
43 975 44 3 54 115 55 165 57 715 58 3 66 40 68 35 71 50 72 3 
73 280 98 15 115 35 129 10 
