Name: CHLOROACETIC ACID ETHYL ESTER
MW: 122
Formula: C4H7ClO2
Synonym: MassBank: JP005276
Synonym: CHLOROACETIC ACID ETHYL ESTER
Synonym: ETHYL CHLOROACETATE
Structure: 310A31380A43484C4F524F414345544943204143494420455448594C2045535445522E6D6F6C0A20204368656D447261773039303731303034313532440A2020372020362020302020302020302020302020302020302020302020303939392056323030300A2020202D302E3230363220202020302E3030303020202020302E303030302043202020302020302020302020302020302020302020302020302020302020302020302020300A2020202D312E3033313320202020302E3030303020202020302E303030302043202020302020302020302020302020302020302020302020302020302020302020302020300A20202020302E3230363320202020302E3731343520202020302E30303030204F202020302020302020302020302020302020302020302020302020302020302020302020300A20202020302E323036332020202D302E3731343520202020302E30303030204F202020302020302020302020302020302020302020302020302020302020302020302020300A2020202D312E343433382020202D302E3731343520202020302E3030303020436C2020302020302020302020302020302020302020302020302020302020302020302020300A20202020312E303331332020202D302E3731343520202020302E303030302043202020302020302020302020302020302020302020302020302020302020302020302020300A20202020312E3434333820202020302E3030303020202020302E303030302043202020302020302020302020302020302020302020302020302020302020302020302020300A2020312020322020312020302020202020200A2020312020332020322020302020202020200A2020312020342020312020302020202020200A2020322020352020312020302020202020200A2020362020372020312020302020202020200A2020342020362020312020302020202020200A4D2020454E44
Contributor: YAMAMOTO M, DEP. CHEMISTRY, FAC. SCIENCE, NARA WOMEN'S UNIV.
InstType: EI
InstName: HITACHI RMU-6M
IoniMethod: _ENERGY 70 eV
IonPolarity: pos
Date: 2010-10-09 19:48:36+02:00
Num Peaks: 25
14 26 15 29 26 26 27 194 28 233 29 999 30 22 31 13 42 77 43 32 
45 41 48 14 49 144 51 44 60 13 73 17 76 12 77 298 78 10 79 97 
94 40 95 18 96 12 107 19 122 14 
