Name: 3-NITROPHENOL
CAS: 554-84-7
MW: 139
Formula: C6H5NO3
Synonym: MassBank: JP008236
Synonym: 3-NITROPHENOL
Synonym: 3-HYDROXYNITROBENZENE
Structure: 332D4E4954524F5048454E4F4C2E6D6F6C0A20204368656D447261773032323231303231333932440A2031302031302020302020302020302020302020302020302020302020303939392056323030300A2020202D302E333537322020202D312E3033313220202020302E303030302043202020302020302020302020302020302020302020302020302020302020302020302020300A2020202D302E333537322020202D302E3230363220202020302E303030302043202020302020302020302020302020302020302020302020302020302020302020302020300A20202020302E3335373220202020302E3230363320202020302E303030302043202020302020302020302020302020302020302020302020302020302020302020302020300A20202020312E303731372020202D302E3230363220202020302E303030302043202020302020302020302020302020302020302020302020302020302020302020302020300A20202020312E303731372020202D312E3033313220202020302E303030302043202020302020302020302020302020302020302020302020302020302020302020302020300A20202020302E333537322020202D312E3434333820202020302E303030302043202020302020302020302020302020302020302020302020302020302020302020302020300A20202020302E3335373220202020312E3033313320202020302E30303030204E202020302020332020302020302020302020302020302020302020302020302020302020300A20202020312E3037313720202020312E3434333820202020302E30303030204F202020302020302020302020302020302020302020302020302020302020302020302020300A2020202D302E3335373220202020312E3434333820202020302E30303030204F202020302020352020302020302020302020302020302020302020302020302020302020300A2020202D312E303731372020202D312E3434333820202020302E30303030204F202020302020302020302020302020302020302020302020302020302020302020302020300A2020312020322020312020302020202020200A2020322020332020322020302020202020200A2020332020342020312020302020202020200A2020342020352020322020302020202020200A2020352020362020312020302020202020200A2020312020362020322020302020202020200A2020372020382020322020302020202020200A2020372020392020312020302020202020200A2020332020372020312020302020202020200A2020312031302020312020302020202020200A4D202043484720203220202037202020312020203920202D310A4D2020454E44
Contributor: UBE SCIENTIFIC ANALYSIS LABORATORY
InstType: EI
InstName: HITACHI M-60
IoniMethod: _ENERGY 70 eV
IonPolarity: pos
Date: 2010-10-09 19:48:36+02:00
Num Peaks: 30
27 62 28 14 29 36 30 106 37 38 38 119 39 704 40 19 43 22 50 52 
51 41 53 171 55 16 61 27 62 74 63 173 64 89 65 782 66 69 74 23 
75 19 81 188 92 19 93 623 94 41 109 62 123 22 139 999 140 72 141 15 
