Name: MassBank: JP008480
MW: 158
Formula: C9H18O2
Synonym: MassBank: JP008480
Synonym: 3,5,5-TRIMETHYLHEXANOIC ACID
Structure: 332C352C352D5452494D455448594C484558414E4F494320414349442E6D6F6C0A20204368656D447261773032323231303030333032440A2031312031302020302020302020302020302020302020302020302020303939392056323030300A20202020312E3432383920202020302E3035353320202020302E303030302043202020302020302020302020302020302020302020302020302020302020302020302020300A20202020302E3731343520202020302E3436373820202020302E303030302043202020302020302020302020302020302020302020302020302020302020302020302020300A2020202D302E3030303020202020302E3035353320202020302E303030302043202020302020302020302020302020302020302020302020302020302020302020302020300A2020202D302E3731343520202020302E3436373820202020302E303030302043202020302020302020302020302020302020302020302020302020302020302020302020300A2020202D312E3432383920202020302E3035353320202020302E303030302043202020302020302020302020302020302020302020302020302020302020302020302020300A2020202D312E303136342020202D302E3635393220202020302E303030302043202020302020302020302020302020302020302020302020302020302020302020302020300A20202020312E343238392020202D302E3736393720202020302E30303030204F202020302020302020302020302020302020302020302020302020302020302020302020300A20202020322E3134333420202020302E3436373820202020302E30303030204F202020302020302020302020302020302020302020302020302020302020302020302020300A2020202D322E313433342020202D302E3335373220202020302E303030302043202020302020302020302020302020302020302020302020302020302020302020302020300A2020202D312E3834313420202020302E3736393720202020302E303030302043202020302020302020302020302020302020302020302020302020302020302020302020300A2020202D302E303030302020202D302E3736393720202020302E303030302043202020302020302020302020302020302020302020302020302020302020302020302020300A2020312020322020312020302020202020200A2020322020332020312020302020202020200A2020332020342020312020302020202020200A2020342020352020312020302020202020200A2020352020362020312020312020202020200A2020312020372020322020302020202020200A2020312020382020312020302020202020200A2020352020392020312020302020202020200A2020352031302020312020312020202020200A2020332031312020312020302020202020200A4D2020454E44
Contributor: SODA AROMATIC CO., LTD.
InstType: EI
InstName: HITACHI M-80B
IoniMethod: _ENERGY 70 eV
IonPolarity: pos
Date: 2010-10-09 19:48:36+02:00
Num Peaks: 29
15 19 27 117 29 185 31 10 39 139 41 420 42 35 43 136 45 95 53 23 
55 153 56 243 57 999 58 35 59 83 60 187 61 13 67 12 69 33 83 362 
84 22 87 12 97 34 99 11 101 42 102 50 103 148 125 36 143 34 
