Name: DIETHYLHYDRAZONE TRIMETHYLACRYLALDEHYDE
MW: 168
Formula: C10H20N2
Synonym: MassBank: JP000883
Synonym: DIETHYLHYDRAZONE TRIMETHYLACRYLALDEHYDE
Synonym: 2,3-DIMETHYL-2-BUTENAL DIETHYLHYDRAZONE
Structure: 4449455448594C48594452415A4F4E45205452494D455448594C414352594C414C4445485944452E6D6F6C0A20204368656D447261773132323030393131343132440A2031322031312020302020302020302020302020302020302020302020303939392056323030300A2020202D312E3434333820202020302E3335373220202020302E303030302043202020302020302020302020302020302020302020302020302020302020302020302020300A2020202D312E303331332020202D302E3335373220202020302E303030302043202020302020302020302020302020302020302020302020302020302020302020302020300A2020202D312E343433382020202D312E3037313720202020302E303030302043202020302020302020302020302020302020302020302020302020302020302020302020300A2020202D302E323036322020202D302E3335373220202020302E303030302043202020302020302020302020302020302020302020302020302020302020302020302020300A2020202D312E303331332020202D312E3738363220202020302E303030302043202020302020302020302020302020302020302020302020302020302020302020302020300A2020202D322E323638382020202D312E3037313720202020302E303030302043202020302020302020302020302020302020302020302020302020302020302020302020300A20202020302E3230363320202020302E3335373220202020302E30303030204E202020302020302020302020302020302020302020302020302020302020302020302020300A20202020312E3033313320202020302E3335373220202020302E30303030204E202020302020302020302020302020302020302020302020302020302020302020302020300A20202020312E3434333820202020312E3037313720202020302E303030302043202020302020302020302020302020302020302020302020302020302020302020302020300A20202020312E3033313320202020312E3738363220202020302E303030302043202020302020302020302020302020302020302020302020302020302020302020302020300A20202020312E343433382020202D302E3335373220202020302E303030302043202020302020302020302020302020302020302020302020302020302020302020302020300A20202020322E323638382020202D302E3335373220202020302E303030302043202020302020302020302020302020302020302020302020302020302020302020302020300A2020312020322020312020302020202020200A2020322020332020322020302020202020200A2020322020342020312020302020202020200A2020332020352020312020302020202020200A2020332020362020312020302020202020200A2020372020382020312020302020202020200A2020392031302020312020302020202020200A2020382020392020312020302020202020200A2031312031322020312020302020202020200A2020382031312020312020302020202020200A2020342020372020322020302020202020200A4D2020454E44
Contributor: SASAKI S, TOYOHASHI UNIV. OF TECH.
InstType: EI
InstName: SHIMADZU LKB-2091
IoniMethod: _ENERGY 70 eV
IonPolarity: pos
Date: 2010-10-09 19:48:36+02:00
Num Peaks: 60
29 420 30 309 31 25 39 21 40 37 41 999 42 407 43 19 44 395 51 34 
52 28 53 16 54 67 55 167 56 309 57 19 58 962 59 78 65 44 67 21 
68 79 69 370 70 148 71 4 72 333 73 49 74 111 79 8 80 84 81 346 
82 93 83 6 84 186 85 42 86 62 87 9 94 185 95 197 96 827 97 41 
98 80 108 41 109 58 110 10 111 259 112 173 113 6 122 4 123 48 124 111 
125 69 136 3 137 27 138 99 139 481 140 5 155 333 154 34 168 839 169 99 
