Name: MassBank: JP001382
MW: 172
Formula: C8H20Si2
Synonym: MassBank: JP001382
Synonym: 1,1-BIS(TRIMETHYLSILYL)ETHYLENE
Structure: 312C312D424953285452494D455448594C53494C594C29455448594C454E452E6D6F6C0A20204368656D447261773130323330393033333632440A2031302020392020302020302020302020302020302020302020302020303939392056323030300A2020202D302E3030303020202020302E3135313020202020302E303030302043202020302020302020302020302020302020302020302020302020302020302020302020300A2020202D302E3030303020202020302E3937363020202020302E303030302043202020302020302020302020302020302020302020302020302020302020302020302020300A20202020302E373134352020202D302E3236313520202020302E303030302053692020302020302020302020302020302020302020302020302020302020302020302020300A20202020302E333032302020202D302E3937363020202020302E303030302043202020302020302020302020302020302020302020302020302020302020302020302020300A20202020312E3132373020202020302E3435333020202020302E303030302043202020302020302020302020302020302020302020302020302020302020302020302020300A20202020312E343238392020202D302E3637343020202020302E303030302043202020302020302020302020302020302020302020302020302020302020302020302020300A2020202D302E373134352020202D302E3236313520202020302E303030302053692020302020302020302020302020302020302020302020302020302020302020302020300A2020202D302E333032302020202D302E3937363020202020302E303030302043202020302020302020302020302020302020302020302020302020302020302020302020300A2020202D312E343238392020202D302E3637343020202020302E303030302043202020302020302020302020302020302020302020302020302020302020302020302020300A2020202D312E3132373020202020302E3435333020202020302E303030302043202020302020302020302020302020302020302020302020302020302020302020302020300A2020312020322020322020302020202020200A2020332020342020312020302020202020200A2020332020352020312020302020202020200A2020332020362020312020302020202020200A2020312020332020312020302020202020200A2020372020382020312020302020202020200A2020372020392020312020302020202020200A2020372031302020312020302020202020200A2020312020372020312020302020202020200A4D2020454E44
Contributor: MASS SPECTROSCOPY SOC. OF JAPAN (MSSJ)
InstType: EI
InstName: JEOL JMS-D-3000
IoniMethod: _ENERGY 70 eV
IonPolarity: pos
Date: 2010-10-09 19:48:36+02:00
Num Peaks: 19
43 55 45 121 55 15 58 26 59 49 69 10 73 999 74 87 75 39 83 47 
84 64 85 12 98 12 99 27 157 239 158 42 159 19 172 72 173 14 
