Name: MassBank: JP005615
MW: 198
Formula: C8H7FN2O3
Synonym: MassBank: JP005615
Synonym: 1-(3,4-DEHYDROTETRAHYDRO-2-FURANYL)-5-FLUOROURACIL
Structure: 312D28332C342D4445485944524F5445545241485944524F2D322D465552414E594C292D352D464C554F524F55524143494C2E6D6F6C0A20204368656D447261773131313730393137323032440A2031372031382020302020302020302020302020302020302020302020303939392056323030300A2020202D302E373032392020202D302E3535363020202020302E303030302043202020302020302020302020302020302020302020302020302020302020302020302020300A2020202D302E373032392020202D312E3338313020202020302E303030302043202020302020302020302020302020302020302020302020302020302020302020302020300A20202020302E303131362020202D312E3739333520202020302E303030302043202020302020302020302020302020302020302020302020302020302020302020302020300A20202020302E373236302020202D312E3338313020202020302E30303030204E202020302020302020302020302020302020302020302020302020302020302020302020300A20202020302E373236302020202D302E3535363020202020302E303030302043202020302020302020302020302020302020302020302020302020302020302020302020300A20202020302E303131362020202D302E3134333520202020302E30303030204E202020302020302020302020302020302020302020302020302020302020302020302020300A20202020302E3031313620202020302E3638313520202020302E303030302043202020302020302020302020302020302020302020302020302020302020302020302020300A20202020312E343430352020202D302E3134333520202020302E30303030204F202020302020302020302020302020302020302020302020302020302020302020302020300A20202020302E303131362020202D322E3631383520202020302E30303030204F202020302020302020302020302020302020302020302020302020302020302020302020300A2020202D312E343137342020202D312E3739333520202020302E303030302046202020302020302020302020302020302020302020302020302020302020302020302020300A2020202D312E343137342020202D302E3134333520202020302E303030302048202020302020302020302020302020302020302020302020302020302020302020302020300A20202020302E3637393020202020312E3136363420202020302E30303030204F202020302020302020302020302020302020302020302020302020302020302020302020300A20202020302E3432343120202020312E3935313120202020302E303030302043202020302020302020302020302020302020302020302020302020302020302020302020300A2020202D302E3430303920202020312E3935313120202020302E303030302043202020302020302020302020302020302020302020302020302020302020302020302020300A2020202D302E3635353920202020312E3136363420202020302E303030302043202020302020302020302020302020302020302020302020302020302020302020302020300A2020202D312E3434303520202020302E3931313520202020302E303030302048202020302020302020302020302020302020302020302020302020302020302020302020300A2020202D302E3838353920202020322E3631383520202020302E303030302048202020302020302020302020302020302020302020302020302020302020302020302020300A2020312020322020322020302020202020200A2020322020332020312020302020202020200A2020332020342020312020302020202020200A2020342020352020312020302020202020200A2020352020362020312020302020202020200A2020362020312020312020302020202020200A2020362020372020312020302020202020200A2020352020382020322020302020202020200A2020332020392020322020302020202020200A2020322031302020312020302020202020200A2020312031312020312020302020202020200A2020372031322020312020302020202020200A2031322031332020312020302020202020200A2031332031342020312020302020202020200A2031342031352020322020302020202020200A2031352020372020312020302020202020200A2031352031362020312020302020202020200A2031342031372020312020302020202020200A4D2020454E44
Contributor: MASS SPECTROSCOPY SOC. OF JAPAN (MSSJ)
InstType: EI
InstName: JEOL JMS-D-300
IoniMethod: _ENERGY 24 eV
IonPolarity: pos
Date: 2010-10-09 19:48:36+02:00
Num Peaks: 26
39 370 40 190 41 410 51 0 52 10 57 40 58 150 59 1 60 250 68 690 
69 999 70 3 71 100 79 20 86 40 87 4 88 120 98 60 99 60 125 0 
126 120 127 10 130 590 131 1 198 150 199 30 
