Name: 1-PROPANOL
MW: 60
Formula: C3H8O
Synonym: MassBank: JP000270
Synonym: 1-PROPANOL
Synonym: PROPYL ALCOHOL
Structure: 310A31320A50524F50594C20414C434F484F4C2E6D6F6C0A20204368656D447261773038313231303036313132440A2020342020332020302020302020302020302020302020302020302020303939392056323030300A2020202D302E333537322020202D302E3230363220202020302E303030302043202020302020302020302020302020302020302020302020302020302020302020302020300A20202020302E3335373220202020302E3230363220202020302E303030302043202020302020302020302020302020302020302020302020302020302020302020302020300A20202020312E303731372020202D302E3230363220202020302E303030302043202020302020302020302020302020302020302020302020302020302020302020302020300A2020202D312E3037313720202020302E3230363220202020302E30303030204F202020302020302020302020302020302020302020302020302020302020302020302020300A2020312020322020312020302020202020200A2020322020332020312020302020202020200A2020312020342020312020302020202020200A4D2020454E44
Contributor: YAMAMOTO M, DEP. CHEMISTRY, FAC. SCIENCE, NARA WOMEN'S UNIV.
InstType: EI
InstName: HITACHI RMU-6M
IoniMethod: _ENERGY 70 eV
IonPolarity: pos
Date: 2010-10-09 19:48:36+02:00
Num Peaks: 18
15 22 26 34 27 129 28 5 29 72 30 17 31 999 32 2 33 11 38 12 
39 42 40 1 41 69 42 109 43 21 45 2 59 106 60 93 
