Name: CIS-3-HEXENAL
MW: 98
Formula: C6H10O
Synonym: MassBank: JP008675
Synonym: CIS-3-HEXENAL
Structure: 310A31380A4349532D332D484558454E414C2E6D6F6C0A20204368656D447261773039303831303039353632440A2020372020362020302020302020302020302020302020302020302020303939392056323030300A20202020312E3434333720202020302E3030303020202020302E303030302043202020302020302020302020302020302020302020302020302020302020302020302020300A20202020302E3631383720202020302E3030303020202020302E303030302043202020302020302020302020302020302020302020302020302020302020302020302020300A20202020302E323036322020202D302E3731343520202020302E303030302043202020302020302020302020302020302020302020302020302020302020302020302020300A2020202D302E363138372020202D302E3731343520202020302E303030302043202020302020302020302020302020302020302020302020302020302020302020302020300A2020202D312E3033313320202020302E3030303020202020302E303030302043202020302020302020302020302020302020302020302020302020302020302020302020300A2020202D312E3835363320202020302E3030303020202020302E303030302043202020302020302020302020302020302020302020302020302020302020302020302020300A20202020312E3835363320202020302E3731343520202020302E30303030204F202020302020302020302020302020302020302020302020302020302020302020302020300A2020312020322020312020302020202020200A2020322020332020312020302020202020200A2020332020342020322020302020202020200A2020342020352020312020302020202020200A2020352020362020312020302020202020200A2020312020372020322020302020202020200A4D2020454E44
Contributor: SODA AROMATIC CO., LTD.
InstType: EI
InstName: HITACHI M-80B
IoniMethod: _ENERGY 70 eV
IonPolarity: pos
Date: 2010-10-09 19:48:36+02:00
Num Peaks: 29
15 18 26 25 27 244 28 18 29 160 37 12 38 31 39 338 40 34 41 999 
42 176 43 95 50 22 51 27 52 11 53 89 54 32 55 230 56 32 57 13 
65 13 67 27 68 309 70 80 79 11 80 57 83 72 97 11 98 56 
