Name: CYCLOBARBITAL
MW: 236
Formula: C12H16N2O3
Synonym: MassBank: JP004101
Synonym: CYCLOBARBITAL
Structure: 4359434C4F424152424954414C2E6D6F6C0A20204368656D447261773039313531303035313432440A2031372031382020302020302020302020302020302020302020302020303939392056323030300A20202020302E3836313520202020312E3233373520202020302E30303030204E202020302020302020302020302020302020302020302020302020302020302020302020300A20202020312E3537353920202020302E3832353020202020302E303030302043202020302020302020302020302020302020302020302020302020302020302020302020300A20202020322E3239303420202020312E3233373520202020302E30303030204F202020302020302020302020302020302020302020302020302020302020302020302020300A20202020312E3537353920202020302E3030303020202020302E30303030204E202020302020302020302020302020302020302020302020302020302020302020302020300A20202020302E383631352020202D302E3431323520202020302E303030302043202020302020302020302020302020302020302020302020302020302020302020302020300A20202020302E383631352020202D312E3233373520202020302E30303030204F202020302020302020302020302020302020302020302020302020302020302020302020300A20202020302E313437302020202D302E3030303020202020302E303030302043202020302020302020302020302020302020302020302020302020302020302020302020300A20202020302E3134373020202020302E3832353020202020302E303030302043202020302020302020302020302020302020302020302020302020302020302020302020300A2020202D302E3536373520202020312E3233373520202020302E30303030204F202020302020302020302020302020302020302020302020302020302020302020302020300A2020202D302E313335322020202D302E3737353220202020302E303030302043202020302020302020302020302020302020302020302020302020302020302020302020300A2020202D302E393437362020202D302E3931383520202020302E303030302043202020302020302020302020302020302020302020302020302020302020302020302020300A2020202D302E3636353520202020302E3134333320202020302E303030302043202020302020302020302020302020302020302020302020302020302020302020302020300A2020202D312E313935382020202D302E3438383720202020302E303030302043202020302020302020302020302020302020302020302020302020302020302020302020300A2020202D322E303038322020202D302E3334353520202020302E303030302043202020302020302020302020302020302020302020302020302020302020302020302020300A2020202D322E3239303420202020302E3432393820202020302E303030302043202020302020302020302020302020302020302020302020302020302020302020302020300A2020202D312E3736303120202020312E3036313820202020302E303030302043202020302020302020302020302020302020302020302020302020302020302020302020300A2020202D302E3934373620202020302E3931383520202020302E303030302043202020302020302020302020302020302020302020302020302020302020302020302020300A2020312020322020312020302020202020200A2020322020332020322020302020202020200A2020322020342020312020302020202020200A2020342020352020312020302020202020200A2020352020362020322020302020202020200A2020352020372020312020302020202020200A2020372020382020312020302020202020200A2020382020392020322020302020202020200A2020312020382020312020302020202020200A2031302031312020312020302020202020200A2020372031302020312020302020202020200A2031322031332020322020302020202020200A2031332031342020312020302020202020200A2031342031352020312020302020202020200A2031352031362020312020302020202020200A2031362031372020312020302020202020200A2031322031372020312020302020202020200A2020372031322020312020302020202020200A4D2020454E44
Contributor: YAMAMOTO M, DEP. CHEMISTRY, FAC. SCIENCE, NARA WOMEN'S UNIV.
InstType: EI
InstName: HITACHI RMU-6E
IoniMethod: _ENERGY 70 eV
IonPolarity: pos
Date: 2010-10-09 19:48:36+02:00
Num Peaks: 52
39 98 40 19 41 130 43 17 44 32 51 40 52 33 53 7 54 18 55 47 
65 51 66 2 67 256 68 23 70 21 77 10 78 30 79 199 80 151 81 27 
82 21 91 79 92 15 93 4 94 15 96 22 97 20 98 6 105 18 107 17 
108 13 119 2 121 35 122 23 136 21 137 2 141 313 142 19 146 15 147 6 
148 13 150 11 154 10 157 7 164 59 165 19 179 14 207 999 208 123 209 14 
235 12 236 10 
