Name: ISOPROPYL ISOPROPOXYACETATE
MW: 160
Formula: C8H16O3
Synonym: MassBank: JP003695
Synonym: ISOPROPYL ISOPROPOXYACETATE
Structure: 49534F50524F50594C2049534F50524F504F5859414345544154452E6D6F6C0A20204368656D447261773038313131303231343232440A2031312031302020302020302020302020302020302020302020302020303939392056323030300A2020202D302E333537322020202D302E3230363320202020302E303030302043202020302020302020302020302020302020302020302020302020302020302020302020300A20202020302E3335373220202020302E3230363320202020302E303030302043202020302020302020302020302020302020302020302020302020302020302020302020300A2020202D302E333537322020202D312E3033313320202020302E30303030204F202020302020302020302020302020302020302020302020302020302020302020302020300A2020202D312E3037313720202020302E3230363220202020302E30303030204F202020302020302020302020302020302020302020302020302020302020302020302020300A20202020312E303731372020202D302E3230363320202020302E30303030204F202020302020302020302020302020302020302020302020302020302020302020302020300A20202020312E3738363220202020302E3230363320202020302E303030302043202020302020302020302020302020302020302020302020302020302020302020302020300A20202020312E3738363220202020312E3033313320202020302E303030302043202020302020302020302020302020302020302020302020302020302020302020302020300A20202020322E353030362020202D302E3230363220202020302E303030302043202020302020302020302020302020302020302020302020302020302020302020302020300A2020202D312E373836322020202D302E3230363320202020302E303030302043202020302020302020302020302020302020302020302020302020302020302020302020300A2020202D312E373836322020202D312E3033313320202020302E303030302043202020302020302020302020302020302020302020302020302020302020302020302020300A2020202D322E3530303620202020302E3230363220202020302E303030302043202020302020302020302020302020302020302020302020302020302020302020302020300A2020312020322020312020302020202020200A2020312020332020322020302020202020200A2020312020342020312020302020202020200A2020362020372020312020302020202020200A2020362020382020312020302020202020200A2020352020362020312020302020202020200A2020322020352020312020302020202020200A2020392031302020312020302020202020200A2020392031312020312020302020202020200A2020342020392020312020302020202020200A4D2020454E44
Contributor: SASAKI S, TOYOHASHI UNIV. OF TECH.
InstType: EI
InstName: Unknown
IoniMethod: EI
IonPolarity: pos
Date: 2010-10-09 19:48:36+02:00
Num Peaks: 70
14 3 15 19 16 1 17 0 18 4 19 3 26 6 27 11 28 46 29 67 
30 4 31 16 32 10 33 3 36 1 37 0 38 2 39 34 40 9 41 16 
42 60 43 999 44 34 45 21 46 4 47 2 49 7 51 1 55 17 56 2 
57 7 58 1 59 310 60 201 61 31 62 0 65 5 69 2 70 3 71 0 
72 2 73 319 74 13 75 5 76 3 77 17 78 1 79 1 83 1 85 1 
86 1 87 1 88 20 89 8 90 1 95 0 100 1 101 2 102 118 103 9 
104 5 105 1 117 17 118 0 121 7 122 1 123 2 129 0 131 3 145 1 
