Name: 3-CHLORO-1-PROPYNE
CAS: 624-65-7
MW: 73
Formula: C3H3Cl
Synonym: MassBank: JP004270
Synonym: 3-CHLORO-1-PROPYNE
Synonym: PROPARGYL CHLORIDE
Structure: 310A31320A332D43484C4F524F2D312D50524F50594E452E6D6F6C0A20204368656D447261773032323231303134343932440A2020342020332020302020302020302020302020302020302020302020303939392056323030300A20202020312E3033313320202020302E3335373220202020302E303030302043202020302020302020302020302020302020302020302020302020302020302020302020300A20202020302E3230363320202020302E3335373220202020302E303030302043202020302020302020302020302020302020302020302020302020302020302020302020300A2020202D302E3631383720202020302E3335373220202020302E303030302043202020302020302020302020302020302020302020302020302020302020302020302020300A2020202D312E303331332020202D302E3335373220202020302E3030303020436C2020302020302020302020302020302020302020302020302020302020302020302020300A2020312020322020332020302020202020200A2020322020332020312020302020202020200A2020332020342020312020302020202020200A4D2020454E44
Contributor: TAJIMA S, GUNMA COLLEGE OF TECHNOLOGY
InstType: EI
InstName: HITACHI RMU-7M
IoniMethod: _ENERGY 70 eV
IonPolarity: pos
Date: 2010-10-09 19:48:36+02:00
Num Peaks: 17
25 17 26 14 27 13 35 19 36 45 37 208 38 269 39 999 40 37 44 81 
47 35 49 18 73 63 74 430 75 65 76 136 77 20 
