Name: MassBank: JP003684
MW: 148
Formula: C7H16O3
Synonym: MassBank: JP003684
Synonym: 2-HYDROXYMETHYL-1,3-DIMETHOXY-2-METHYLPROPANE
Structure: 322D485944524F58594D455448594C2D312C332D44494D4554484F58592D322D4D455448594C50524F50414E452E6D6F6C0A20204368656D447261773031323131303233323832440A2031302020392020302020302020302020302020302020302020302020303939392056323030300A2020202D302E3732393320202020302E3039353720202020302E303030302043202020302020302020302020302020302020302020302020302020302020302020302020300A20202020302E3039353720202020302E3039353720202020302E303030302043202020302020302020302020302020302020302020302020302020302020302020302020300A20202020302E3039353720202020302E3932303720202020302E303030302043202020302020302020302020302020302020302020302020302020302020302020302020300A20202020302E303935372020202D302E3732393320202020302E303030302043202020302020302020302020302020302020302020302020302020302020302020302020300A2020202D302E3631383820202020312E3333333220202020302E30303030204F202020302020302020302020302020302020302020302020302020302020302020302020300A2020202D312E3333333220202020302E3932303720202020302E303030302043202020302020302020302020302020302020302020302020302020302020302020302020300A2020202D312E313431382020202D302E3631383820202020302E30303030204F202020302020302020302020302020302020302020302020302020302020302020302020300A2020202D302E373239332020202D312E3333333220202020302E303030302043202020302020302020302020302020302020302020302020302020302020302020302020300A20202020302E3932303720202020302E3039353720202020302E303030302043202020302020302020302020302020302020302020302020302020302020302020302020300A20202020312E333333322020202D302E3631383820202020302E30303030204F202020302020302020302020302020302020302020302020302020302020302020302020300A2020312020322020312020302020202020200A2020322020332020312020302020202020200A2020322020342020312020302020202020200A2020352020362020312020302020202020200A2020332020352020312020302020202020200A2020372020382020312020302020202020200A2020312020372020312020302020202020200A2020392031302020312020302020202020200A2020322020392020312020302020202020200A4D2020454E44
Contributor: SASAKI S, TOYOHASHI UNIV. OF TECH.
InstType: EI
InstName: Unknown
IoniMethod: EI
IonPolarity: pos
Date: 2010-10-09 19:48:36+02:00
Num Peaks: 50
38 5 39 83 41 214 42 4 43 103 45 999 46 24 47 2 53 32 54 32 
55 203 56 33 57 192 58 43 59 39 60 0 61 310 62 6 67 12 68 0 
69 39 70 24 71 519 72 8 73 43 74 3 75 278 76 1 77 1 82 2 
83 28 84 7 85 328 86 193 87 38 88 0 91 2 93 3 95 1 97 0 
98 14 99 8 100 2 101 2 102 2 103 3 115 3 116 1 117 2 118 3 
