Name: MassBank: JP005052
MW: 242
Formula: C16H22N2
Synonym: MassBank: JP005052
Synonym: 1,1,2,3,3-PENTAMETHYL-1,2,3,4-TETRAHYDRO-GAMMA-CARBOLINE
Structure: 312C312C322C332C332D50454E54414D455448594C2D312C322C332C342D5445545241485944524F2D47414D4D412D434152424F4C494E452E6D6F6C0A20204368656D447261773130323330393031333132440A2031382032302020302020302020302020302020302020302020302020303939392056323030300A2020202D312E3537303020202020302E3232303320202020302E30303030204E202020302020302020302020302020302020302020302020302020302020302020302020300A2020202D312E353730302020202D302E3630343720202020302E303030302043202020302020302020302020302020302020302020302020302020302020302020302020300A2020202D302E383535362020202D312E3031373220202020302E303030302043202020302020302020302020302020302020302020302020302020302020302020302020300A2020202D302E313431312020202D302E3630343720202020302E303030302043202020302020302020302020302020302020302020302020302020302020302020302020300A2020202D302E3134313120202020302E3232303320202020302E303030302043202020302020302020302020302020302020302020302020302020302020302020302020300A2020202D302E3835353620202020302E3633323820202020302E303030302043202020302020302020302020302020302020302020302020302020302020302020302020300A20202020302E363433352020202D302E3835393620202020302E30303030204E202020302020302020302020302020302020302020302020302020302020302020302020300A20202020312E313238352020202D302E3139323220202020302E303030302043202020302020302020302020302020302020302020302020302020302020302020302020300A20202020302E3634333520202020302E3437353220202020302E303030302043202020302020302020302020302020302020302020302020302020302020302020302020300A20202020312E393438392020202D302E3130363020202020302E303030302043202020302020302020302020302020302020302020302020302020302020302020302020300A20202020322E3238343520202020302E3634373720202020302E303030302043202020302020302020302020302020302020302020302020302020302020302020302020300A20202020312E3739393620202020312E3331353220202020302E303030302043202020302020302020302020302020302020302020302020302020302020302020302020300A20202020302E3937393120202020312E3232383920202020302E303030302043202020302020302020302020302020302020302020302020302020302020302020302020300A2020202D302E3634323020202020312E3432393720202020302E303030302043202020302020302020302020302020302020302020302020302020302020302020302020300A2020202D322E323834352020202D312E3031373220202020302E303030302043202020302020302020302020302020302020302020302020302020302020302020302020300A2020202D322E3238343520202020302E3633323820202020302E303030302043202020302020302020302020302020302020302020302020302020302020302020302020300A2020202D312E3236383120202020312E3334373320202020302E303030302043202020302020302020302020302020302020302020302020302020302020302020302020300A2020202D312E353730302020202D312E3432393720202020302E303030302043202020302020302020302020302020302020302020302020302020302020302020302020300A2020312020322020312020302020202020200A2020322020332020312020302020202020200A2020332020342020312020302020202020200A2020342020352020322020302020202020200A2020352020362020312020302020202020200A2020362020312020312020302020202020200A2020342020372020312020302020202020200A2020372020382020312020302020202020200A2020382020392020322020302020202020200A2020392020352020312020302020202020200A2020382031302020312020302020202020200A2031302031312020322020302020202020200A2031312031322020312020302020202020200A2031322031332020322020302020202020200A2031332020392020312020302020202020200A2020362031342020312020312020202020200A2020322031352020312020312020202020200A2020312031362020312020302020202020200A2020362031372020312020362020202020200A2020322031382020312020362020202020200A4D2020454E44
Contributor: SASAKI S, TOYOHASHI UNIV. OF TECH.
InstType: EI
InstName: Unknown
IoniMethod: _ENERGY 75 eV
IonPolarity: pos
Date: 2010-10-09 19:48:36+02:00
Num Peaks: 22
41 60 42 81 43 110 55 5 56 61 57 42 69 31 71 12 72 150 73 31 
77 29 78 3 128 81 129 90 130 64 154 10 156 540 170 92 171 999 172 9 
227 660 228 72 
