Name: PYRROBUTAMINE
MW: 311
Formula: C20H22ClN
Synonym: MassBank: JP003851
Synonym: PYRROBUTAMINE
Structure: 303632315F505952524F425554414D494E452E6D6F6C0A20204368656D447261773038323031303037313132440A2032322032342020302020302020302020302020302020302020302020303939392056323030300A2020202D322E393032392020202D312E3139383320202020302E303030302043202020302020302020302020302020302020302020302020302020302020302020302020300A2020202D322E393032392020202D322E3032333320202020302E303030302043202020302020302020302020302020302020302020302020302020302020302020302020300A2020202D322E313838342020202D322E3433353820202020302E303030302043202020302020302020302020302020302020302020302020302020302020302020302020300A2020202D312E343733392020202D322E3032333320202020302E303030302043202020302020302020302020302020302020302020302020302020302020302020302020300A2020202D312E343733392020202D312E3139383320202020302E303030302043202020302020302020302020302020302020302020302020302020302020302020302020300A2020202D322E313838342020202D302E3738353820202020302E303030302043202020302020302020302020302020302020302020302020302020302020302020302020300A2020202D302E363438392020202D312E3139383320202020302E303030302043202020302020302020302020302020302020302020302020302020302020302020302020300A2020202D302E363438392020202D302E3337333320202020302E303030302043202020302020302020302020302020302020302020302020302020302020302020302020300A2020202D312E3036313420202020302E3334313220202020302E303030302043202020302020302020302020302020302020302020302020302020302020302020302020300A2020202D312E3036313420202020312E3136363220202020302E30303030204E202020302020302020302020302020302020302020302020302020302020302020302020300A2020202D302E3339343020202020312E3635313120202020302E303030302043202020302020302020302020302020302020302020302020302020302020302020302020300A2020202D302E3634383920202020322E3433353820202020302E303030302043202020302020302020302020302020302020302020302020302020302020302020302020300A2020202D312E3437333920202020322E3433353820202020302E303030302043202020302020302020302020302020302020302020302020302020302020302020302020300A2020202D312E3732383920202020312E3635313120202020302E303030302043202020302020302020302020302020302020302020302020302020302020302020302020300A2020202D302E303635362020202D312E3738313620202020302E303030302043202020302020302020302020302020302020302020302020302020302020302020302020300A20202020302E373539342020202D312E3738313620202020302E303030302043202020302020302020302020302020302020302020302020302020302020302020302020300A20202020312E343733392020202D322E3139343120202020302E303030302043202020302020302020302020302020302020302020302020302020302020302020302020300A20202020322E313838342020202D312E3738313620202020302E303030302043202020302020302020302020302020302020302020302020302020302020302020302020300A20202020322E313838342020202D302E3935363620202020302E303030302043202020302020302020302020302020302020302020302020302020302020302020302020300A20202020312E343733392020202D302E3534343120202020302E303030302043202020302020302020302020302020302020302020302020302020302020302020302020300A20202020302E373539342020202D302E3935363620202020302E303030302043202020302020302020302020302020302020302020302020302020302020302020302020300A20202020322E393032392020202D302E3534343120202020302E3030303020436C2020302020302020302020302020302020302020302020302020302020302020302020300A2020312020322020322020302020202020200A2020322020332020312020302020202020200A2020332020342020322020302020202020200A2020342020352020312020302020202020200A2020352020362020322020302020202020200A2020362020312020312020302020202020200A2020352020372020312020302020202020200A2020372020382020322020302020202020200A2020382020392020312020302020202020200A2020392031302020312020302020202020200A2031302031312020312020302020202020200A2031312031322020312020302020202020200A2031322031332020312020302020202020200A2031332031342020312020302020202020200A2031342031302020312020302020202020200A2020372031352020312020302020202020200A2031352031362020312020302020202020200A2031362031372020322020302020202020200A2031372031382020312020302020202020200A2031382031392020322020302020202020200A2031392032302020312020302020202020200A2032302032312020322020302020202020200A2032312031362020312020302020202020200A2031392032322020312020302020202020200A4D2020454E44
Contributor: SASAKI S, TOYOHASHI UNIV. OF TECH.
InstType: EI
InstName: Unknown
IoniMethod: _ENERGY 70 eV
IonPolarity: pos
Date: 2010-10-09 19:48:36+02:00
Num Peaks: 86
55 79 56 44 57 44 58 7 67 19 68 34 69 59 70 15 71 124 72 19 
75 19 76 2 77 104 78 24 82 29 83 3 84 174 85 24 89 69 90 2 
91 259 92 29 96 84 97 2 98 29 101 49 102 49 103 6 104 24 105 159 
106 19 115 16 116 54 117 94 118 19 125 28 126 39 127 134 128 109 129 17 
130 59 131 29 132 9 162 3 163 39 164 26 165 54 166 2 176 24 177 24 
178 59 179 2 184 59 185 24 186 199 187 3 188 4 189 29 190 29 191 4 
192 24 200 19 201 24 202 6 203 79 204 99 205 999 206 17 207 39 208 9 
238 16 239 3 240 544 241 119 242 249 243 5 244 21 306 4 307 14 308 1 
309 29 310 44 311 89 312 3 313 34 314 14 
