Name: ETHYLENE TRIDECANEDIOATE
MW: 270
Formula: C15H26O4
Synonym: MassBank: JP008722
Synonym: ETHYLENE TRIDECANEDIOATE
Structure: 455448594C454E4520545249444543414E4544494F4154452E6D6F6C0A20204368656D447261773038313131303139313232440A2031392031392020302020302020302020302020302020302020302020303939392056323030300A20202020312E383133332020202D302E3335383720202020302E303030302043202020302020302020302020302020302020302020302020302020302020302020302020300A20202020312E363530382020202D312E3136333120202020302E303030302043202020302020302020302020302020302020302020302020302020302020302020302020300A20202020312E323338332020202D312E3837373620202020302E303030302043202020302020302020302020302020302020302020302020302020302020302020302020300A20202020302E353639302020202D322E3336383220202020302E303030302043202020302020302020302020302020302020302020302020302020302020302020302020300A2020202D302E323234352020202D322E3539343020202020302E303030302043202020302020302020302020302020302020302020302020302020302020302020302020300A2020202D312E303436302020202D322E3531373920202020302E303030302043202020302020302020302020302020302020302020302020302020302020302020302020300A2020202D312E373834352020202D322E3135303220202020302E303030302043202020302020302020302020302020302020302020302020302020302020302020302020300A2020202D322E333430332020202D312E3534303520202020302E303030302043202020302020302020302020302020302020302020302020302020302020302020302020300A2020202D322E363338332020202D302E3737313220202020302E303030302043202020302020302020302020302020302020302020302020302020302020302020302020300A2020202D322E3633383320202020302E3035333820202020302E303030302043202020302020302020302020302020302020302020302020302020302020302020302020300A2020202D322E3334303320202020302E3832333120202020302E303030302043202020302020302020302020302020302020302020302020302020302020302020302020300A2020202D312E3738343520202020312E3433323820202020302E303030302043202020302020302020302020302020302020302020302020302020302020302020302020300A2020202D312E3034363020202020312E3830303520202020302E303030302043202020302020302020302020302020302020302020302020302020302020302020302020300A20202020322E363338332020202D302E3335383720202020302E30303030204F202020302020302020302020302020302020302020302020302020302020302020302020300A20202020312E3635303820202020302E3434353720202020302E30303030204F202020302020302020302020302020302020302020302020302020302020302020302020300A2020202D312E3237313720202020322E3539343020202020302E30303030204F202020302020302020302020302020302020302020302020302020302020302020302020300A2020202D302E3232343520202020312E3837363620202020302E30303030204F202020302020302020302020302020302020302020302020302020302020302020302020300A20202020312E3233383320202020312E3136303220202020302E303030302043202020302020302020302020302020302020302020302020302020302020302020302020300A20202020302E3536393020202020312E3635303920202020302E303030302043202020302020302020302020302020302020302020302020302020302020302020302020300A2020312020322020312020302020202020200A2020322020332020312020302020202020200A2020332020342020312020302020202020200A2020342020352020312020302020202020200A2020352020362020312020302020202020200A2020362020372020312020302020202020200A2020372020382020312020302020202020200A2020382020392020312020302020202020200A2020392031302020312020302020202020200A2031302031312020312020302020202020200A2031312031322020312020302020202020200A2031322031332020312020302020202020200A2020312031342020322020302020202020200A2020312031352020312020302020202020200A2031332031362020322020302020202020200A2031332031372020312020302020202020200A2031382031392020312020302020202020200A2031352031382020312020302020202020200A2031372031392020312020302020202020200A4D2020454E44
Contributor: SODA AROMATIC CO., LTD.
InstType: EI
InstName: HITACHI M-80B
IoniMethod: _ENERGY 70 eV
IonPolarity: pos
Date: 2010-10-09 19:48:36+02:00
Num Peaks: 93
15 34 26 18 27 283 28 111 29 372 30 12 31 40 39 224 41 999 42 335 
43 348 44 42 45 106 51 11 53 66 54 79 55 909 56 161 57 92 58 55 
59 24 60 37 61 24 65 11 66 12 67 184 68 78 69 314 70 67 71 63 
73 33 74 12 77 11 79 41 80 29 81 117 82 49 83 195 84 322 85 49 
86 480 87 131 91 11 93 31 94 27 95 62 96 47 97 141 98 602 99 320 
100 29 101 16 104 20 105 13 107 31 108 17 109 26 110 22 111 65 112 181 
113 32 117 17 121 20 122 13 123 24 124 23 125 76 126 20 127 16 135 12 
137 17 138 15 139 19 141 21 149 27 152 18 155 38 159 19 163 12 166 14 
167 10 173 28 180 22 181 13 187 81 188 11 208 24 209 11 211 78 212 10 
227 201 228 23 270 17 
