Name: CIS-L-CARVYL ACETATE
MW: 194
Formula: C12H18O2
Synonym: MassBank: JP007156
Synonym: CIS-L-CARVYL ACETATE
Structure: 4349532D4C2D43415256594C20414345544154452E6D6F6C0A20204368656D447261773039313331303133353532440A2031362031362020302020302020302020302020302020302020302020303939392056323030300A2020202D312E323530372020202D312E3132303720202020302E303030302043202020302020302020302020302020302020302020302020302020302020302020302020300A2020202D302E343735352020202D312E3430323920202020302E303030302043202020302020302020302020302020302020302020302020302020302020302020302020300A2020202D312E383832372020202D312E3635313020202020302E30303030204F202020302020302020302020302020302020302020302020302020302020302020302020300A2020202D312E333934302020202D302E3330383220202020302E30303030204F202020302020302020302020302020302020302020302020302020302020302020302020300A2020202D302E3736323020202020302E3232323120202020302E303030302043202020302020302020302020302020302020302020302020302020302020302020302020300A2020202D302E333439352020202D302E3439323420202020302E303030302043202020302020302020302020302020302020302020302020302020302020302020302020300A20202020302E343735352020202D302E3439323420202020302E303030302043202020302020302020302020302020302020302020302020302020302020302020302020300A20202020312E323530372020202D302E3737343620202020302E303030302043202020302020302020302020302020302020302020302020302020302020302020302020300A20202020312E333934302020202D312E3538373020202020302E303030302043202020302020302020302020302020302020302020302020302020302020302020302020300A20202020312E383832372020202D302E3234343320202020302E303030302043202020302020302020302020302020302020302020302020302020302020302020302020300A20202020302E3838383020202020302E3232323120202020302E303030302043202020302020302020302020302020302020302020302020302020302020302020302020300A20202020302E3437353520202020302E3933363520202020302E303030302043202020302020302020302020302020302020302020302020302020302020302020302020300A2020202D302E3334393520202020302E3933363520202020302E303030302043202020302020302020302020302020302020302020302020302020302020302020302020300A2020202D302E3736323020202020312E3635313020202020302E303030302043202020302020302020302020302020302020302020302020302020302020302020302020300A2020202D312E3339343020202020302E3735323420202020302E303030302048202020302020302020302020302020302020302020302020302020302020302020302020300A20202020302E333332322020202D312E3330343920202020302E303030302048202020302020302020302020302020302020302020302020302020302020302020302020300A2020312020322020312020302020202020200A2020312020332020322020302020202020200A2020312020342020312020302020202020200A2020352020362020312020302020202020200A2020362020372020312020302020202020200A2020372020382020312020312020202020200A2020382020392020322020302020202020200A2020382031302020312020302020202020200A2020372031312020312020302020202020200A2031312031322020312020302020202020200A2031322031332020322020302020202020200A2031332031342020312020302020202020200A2020352031332020312020302020202020200A2020352020342020312020312020202020200A2020352031352020312020362020202020200A2020372031362020312020362020202020200A4D2020454E44
Contributor: SODA AROMATIC CO., LTD.
InstType: EI
InstName: HITACHI M-80B
IoniMethod: _ENERGY 70 eV
IonPolarity: pos
Date: 2010-10-09 19:48:36+02:00
Num Peaks: 72
15 36 27 125 29 77 38 10 39 300 40 38 41 360 42 33 43 978 44 26 
45 11 50 18 51 61 52 39 53 188 54 181 55 208 56 36 58 30 61 18 
63 17 65 80 66 36 67 122 68 64 69 74 71 11 72 11 77 186 78 49 
79 261 80 119 81 103 82 384 83 96 84 999 85 53 89 10 91 457 92 300 
93 367 94 79 95 64 96 45 97 37 103 28 104 16 105 233 106 127 107 184 
108 213 109 659 110 65 111 14 115 24 117 54 118 13 119 830 120 75 121 19 
122 19 123 45 124 24 126 37 133 41 134 506 135 67 137 52 150 43 151 101 
152 572 153 60 
