Name: MassBank: JP001623
CAS: 602-38-0
MW: 218
Formula: C10H6N2O4
Synonym: MassBank: JP001623
Synonym: 1,8-DINITRONAPHTHALENE
Structure: 312C382D44494E4954524F4E4150485448414C454E452E6D6F6C0A20204368656D447261773131313730393135303632440A2031362031372020302020302020302020302020302020302020302020303939392056323030300A2020202D302E373336302020202D302E3033313720202020302E303030302043202020302020302020302020302020302020302020302020302020302020302020302020300A2020202D312E3435303420202020302E3338303820202020302E303030302043202020302020302020302020302020302020302020302020302020302020302020302020300A2020202D312E3435303420202020312E3230353820202020302E303030302043202020302020302020302020302020302020302020302020302020302020302020302020300A2020202D302E3733363020202020312E3631383320202020302E303030302043202020302020302020302020302020302020302020302020302020302020302020302020300A2020202D302E3032313520202020312E3230353820202020302E303030302043202020302020302020302020302020302020302020302020302020302020302020302020300A20202020302E3639333020202020312E3631383320202020302E303030302043202020302020302020302020302020302020302020302020302020302020302020302020300A20202020312E3430373520202020312E3230353820202020302E303030302043202020302020302020302020302020302020302020302020302020302020302020302020300A20202020312E3430373520202020302E3338303820202020302E303030302043202020302020302020302020302020302020302020302020302020302020302020302020300A20202020302E363933302020202D302E3033313720202020302E303030302043202020302020302020302020302020302020302020302020302020302020302020302020300A2020202D302E3032313520202020302E3338303820202020302E303030302043202020302020302020302020302020302020302020302020302020302020302020302020300A20202020302E383739322020202D312E3038383020202020302E30303030204E202020302020332020302020302020302020302020302020302020302020302020302020300A20202020302E323437322020202D312E3631383320202020302E30303030204F202020302020302020302020302020302020302020302020302020302020302020302020300A20202020312E363534352020202D312E3337303120202020302E30303030204F202020302020352020302020302020302020302020302020302020302020302020302020300A2020202D302E383739322020202D302E3834343220202020302E30303030204E202020302020332020302020302020302020302020302020302020302020302020302020300A2020202D302E323437322020202D312E3337343520202020302E30303030204F202020302020302020302020302020302020302020302020302020302020302020302020300A2020202D312E363534352020202D312E3132363420202020302E30303030204F202020302020352020302020302020302020302020302020302020302020302020302020300A2020312020322020312020302020202020200A2020322020332020322020302020202020200A2020332020342020312020302020202020200A2020342020352020322020302020202020200A2020352020362020312020302020202020200A2020362020372020322020302020202020200A2020372020382020312020302020202020200A2020382020392020322020302020202020200A2020392031302020312020302020202020200A2020312031302020322020302020202020200A2020352031302020312020302020202020200A2031312031322020322020302020202020200A2031312031332020312020302020202020200A2020392031312020312020302020202020200A2031342031352020322020302020202020200A2031342031362020312020302020202020200A2020312031342020312020302020202020200A4D202043484720203420203131202020312020313320202D3120203134202020312020313620202D310A4D2020454E44
Contributor: KOGA M, UNIV. OF OCCUPATIONAL AND ENVIRONMENTAL HEALTH
InstType: EI
InstName: VARIAN MAT-44
IoniMethod: _ENERGY 70 eV
IonPolarity: pos
Date: 2010-10-09 19:48:36+02:00
Num Peaks: 63
43 11 46 26 50 153 51 106 52 43 53 11 55 14 61 31 62 123 63 207 
64 63 65 11 73 11 74 212 75 231 76 136 77 50 78 11 85 11 86 52 
87 101 88 240 89 188 90 52 91 49 98 54 99 63 100 68 101 68 102 165 
103 22 104 68 105 31 113 256 114 999 115 86 116 204 117 33 118 20 119 121 
120 29 122 11 125 52 126 323 128 30 129 25 130 81 132 52 142 167 143 23 
144 36 146 11 156 13 158 68 159 15 160 13 171 21 172 518 173 44 188 21 
217 27 218 591 219 72 
