Name: MassBank: JP000892
MW: 98
Formula: C5H10N2
Synonym: MassBank: JP000892
Synonym: 5,5-DIMETHYL-2-PYRAZOLINE
Structure: 310A31390A352C352D44494D455448594C2D322D505952415A4F4C494E452E6D6F6C0A20204368656D447261773034323331303032313832440A2020372020372020302020302020302020302020302020302020302020303939392056323030300A2020202D302E3238333520202020302E3635323720202020302E30303030204E202020302020302020302020302020302020302020302020302020302020302020302020300A20202020302E3437303220202020302E3938383320202020302E30303030204E202020302020302020302020302020302020302020302020302020302020302020302020300A20202020312E3032323220202020302E3337353220202020302E303030302043202020302020302020302020302020302020302020302020302020302020302020302020300A20202020302E363039372020202D302E3333393320202020302E303030302043202020302020302020302020302020302020302020302020302020302020302020302020300A2020202D302E313937322020202D302E3136373820202020302E303030302043202020302020302020302020302020302020302020302020302020302020302020302020300A2020202D302E323833352020202D302E3938383320202020302E303030302043202020302020302020302020302020302020302020302020302020302020302020302020300A2020202D312E303232322020202D302E3136373820202020302E303030302043202020302020302020302020302020302020302020302020302020302020302020302020300A2020312020322020312020302020202020200A2020322020332020322020302020202020200A2020332020342020312020302020202020200A2020342020352020312020302020202020200A2020312020352020312020302020202020200A2020352020362020312020362020202020200A2020352020372020312020312020202020200A4D2020454E44
Contributor: SASAKI S, TOYOHASHI UNIV. OF TECH.
InstType: EI
InstName: SHIMADZU LKB-2091
IoniMethod: _ENERGY 70 eV
IonPolarity: pos
Date: 2010-10-09 19:48:36+02:00
Num Peaks: 30
26 19 27 100 28 244 29 7 30 36 38 15 39 110 40 3 41 166 42 500 
43 75 50 1 51 13 52 8 53 26 54 3 55 19 56 234 57 24 58 1 
66 9 67 10 68 12 81 2 82 5 83 999 84 52 97 1 98 301 99 26 
