Name: MassBank: JP004732
MW: 233
Formula: C5H13Cl3Si2
Synonym: MassBank: JP004732
Synonym: 2,2,5-TRICHLORO-5-METHYL-2,5-DISILAHEXANE
Structure: 322C322C352D54524943484C4F524F2D352D4D455448594C2D322C352D444953494C41484558414E452E6D6F6C0A20204368656D447261773132313930393134353532440A2031302020392020302020302020302020302020302020302020302020303939392056323030300A2020202D302E363539322020202D302E3932303720202020302E3030303020436C2020302020302020302020302020302020302020302020302020302020302020302020300A2020202D312E303731372020202D302E3230363320202020302E303030302053692020302020302020302020302020302020302020302020302020302020302020302020300A2020202D302E3335373220202020302E3230363320202020302E303030302043202020302020302020302020302020302020302020302020302020302020302020302020300A20202020302E333537322020202D302E3230363320202020302E303030302043202020302020302020302020302020302020302020302020302020302020302020302020300A20202020312E3037313720202020302E3230363220202020302E303030302053692020302020302020302020302020302020302020302020302020302020302020302020300A20202020302E3635393220202020302E3932303720202020302E303030302043202020302020302020302020302020302020302020302020302020302020302020302020300A20202020312E3738363220202020302E3631383720202020302E3030303020436C2020302020302020302020302020302020302020302020302020302020302020302020300A20202020312E343834322020202D302E3530383220202020302E303030302043202020302020302020302020302020302020302020302020302020302020302020302020300A2020202D312E373836322020202D302E3631383820202020302E303030302043202020302020302020302020302020302020302020302020302020302020302020302020300A2020202D312E3438343220202020302E3530383220202020302E3030303020436C2020302020302020302020302020302020302020302020302020302020302020302020300A2020322020312020312020312020202020200A2020322020332020312020302020202020200A2020332020342020312020302020202020200A2020342020352020312020302020202020200A2020352020362020312020302020202020200A2020352020372020312020302020202020200A2020352020382020312020302020202020200A2020322020392020312020302020202020200A2020322031302020312020312020202020200A4D2020454E44
Contributor: MASS SPECTROSCOPY SOC. OF JAPAN (MSSJ)
InstType: EI
InstName: JEOL JMS-D-3000
IoniMethod: _ENERGY 70 eV
IonPolarity: pos
Date: 2010-10-09 19:48:36+02:00
Num Peaks: 13
59 160 79 201 94 677 96 245 105 188 106 999 107 140 108 349 221 121 222 16 
223 45 234 16 236 15 
