Name: 3-(BENZYLAMINO)PENTADECANOIC ACID
MW: 347
Formula: C22H37NO2
Synonym: MassBank: JP007925
Synonym: 3-(BENZYLAMINO)PENTADECANOIC ACID
Structure: 332D2842454E5A594C414D494E4F2950454E5441444543414E4F494320414349442E6D6F6C0A20204368656D447261773032323231303130323932440A2032352032352020302020302020302020302020302020302020302020303939392056323030300A2020202D312E3738363220202020312E3033313320202020302E303030302043202020302020302020302020302020302020302020302020302020302020302020302020300A2020202D322E3530303620202020302E3631383720202020302E303030302043202020302020302020302020302020302020302020302020302020302020302020302020300A2020202D322E353030362020202D302E3230363220202020302E303030302043202020302020302020302020302020302020302020302020302020302020302020302020300A2020202D312E373836322020202D302E3631383820202020302E303030302043202020302020302020302020302020302020302020302020302020302020302020302020300A2020202D312E303731372020202D302E3230363320202020302E303030302043202020302020302020302020302020302020302020302020302020302020302020302020300A2020202D302E333537322020202D302E3631383820202020302E303030302043202020302020302020302020302020302020302020302020302020302020302020302020300A20202020302E333537322020202D302E3230363220202020302E303030302043202020302020302020302020302020302020302020302020302020302020302020302020300A20202020312E303731372020202D302E3631383820202020302E303030302043202020302020302020302020302020302020302020302020302020302020302020302020300A20202020312E373836322020202D302E3230363220202020302E303030302043202020302020302020302020302020302020302020302020302020302020302020302020300A20202020322E353030362020202D302E3631383820202020302E303030302043202020302020302020302020302020302020302020302020302020302020302020302020300A20202020332E323135312020202D302E3230363220202020302E303030302043202020302020302020302020302020302020302020302020302020302020302020302020300A20202020332E393239362020202D302E3631383820202020302E303030302043202020302020302020302020302020302020302020302020302020302020302020302020300A20202020342E363434312020202D302E3230363220202020302E303030302043202020302020302020302020302020302020302020302020302020302020302020302020300A20202020352E333538352020202D302E3631383720202020302E303030302043202020302020302020302020302020302020302020302020302020302020302020302020300A20202020362E303733302020202D302E3230363220202020302E303030302043202020302020302020302020302020302020302020302020302020302020302020302020300A2020202D312E3738363220202020312E3835363320202020302E30303030204F202020302020302020302020302020302020302020302020302020302020302020302020300A2020202D312E3037313720202020302E3631383820202020302E30303030204F202020302020302020302020302020302020302020302020302020302020302020302020300A2020202D332E323135312020202D302E3631383820202020302E30303030204E202020302020302020302020302020302020302020302020302020302020302020302020300A2020202D332E393239362020202D302E3230363320202020302E303030302043202020302020302020302020302020302020302020302020302020302020302020302020300A2020202D342E363434312020202D302E3631383820202020302E303030302043202020302020302020302020302020302020302020302020302020302020302020302020300A2020202D342E363434312020202D312E3434333820202020302E303030302043202020302020302020302020302020302020302020302020302020302020302020302020300A2020202D352E333538352020202D312E3835363320202020302E303030302043202020302020302020302020302020302020302020302020302020302020302020302020300A2020202D362E303733302020202D312E3434333820202020302E303030302043202020302020302020302020302020302020302020302020302020302020302020302020300A2020202D362E303733302020202D302E3631383820202020302E303030302043202020302020302020302020302020302020302020302020302020302020302020302020300A2020202D352E333538352020202D302E3230363220202020302E303030302043202020302020302020302020302020302020302020302020302020302020302020302020300A2020312020322020312020302020202020200A2020322020332020312020302020202020200A2020332020342020312020302020202020200A2020342020352020312020302020202020200A2020352020362020312020302020202020200A2020362020372020312020302020202020200A2020372020382020312020302020202020200A2020382020392020312020302020202020200A2020392031302020312020302020202020200A2031302031312020312020302020202020200A2031312031322020312020302020202020200A2031322031332020312020302020202020200A2031332031342020312020302020202020200A2031342031352020312020302020202020200A2020312031362020322020302020202020200A2020312031372020312020302020202020200A2031392032302020312020302020202020200A2032302032312020312020302020202020200A2032312032322020322020302020202020200A2032322032332020312020302020202020200A2032332032342020322020302020202020200A2032342032352020312020302020202020200A2032302032352020322020302020202020200A2031382031392020312020302020202020200A2020332031382020312020302020202020200A4D2020454E44
Contributor: MASS SPECTROSCOPY SOC. OF JAPAN (MSSJ)
InstType: EI
InstName: JEOL JMS-DX-300
IoniMethod: _ENERGY 70 eV
IonPolarity: pos
Date: 2010-10-09 19:48:36+02:00
Num Peaks: 14
55 90 92 87 106 296 107 161 57 80 132 230 133 936 134 102 79 81 146 158 
178 724 179 81 91 999 274 111 
