Name: ISOPROPYL CHLORIDE
MW: 78
Formula: C3H7Cl
Synonym: MassBank: JP005281
Synonym: ISOPROPYL CHLORIDE
Structure: 310A31320A49534F50524F50594C2043484C4F524944452E6D6F6C0A20204368656D447261773038313131303231333932440A2020342020332020302020302020302020302020302020302020302020303939392056323030300A20202020302E323036322020202D302E3030303020202020302E303030302043202020302020302020302020302020302020302020302020302020302020302020302020300A20202020302E3631383820202020302E3731343520202020302E303030302043202020302020302020302020302020302020302020302020302020302020302020302020300A20202020302E363138382020202D302E3731343520202020302E303030302043202020302020302020302020302020302020302020302020302020302020302020302020300A2020202D302E363138382020202D302E3030303020202020302E3030303020436C2020302020302020302020302020302020302020302020302020302020302020302020300A2020312020322020312020302020202020200A2020312020332020312020302020202020200A2020312020342020312020302020202020200A4D2020454E44
Contributor: YAMAMOTO M, DEP. CHEMISTRY, FAC. SCIENCE, NARA WOMEN'S UNIV.
InstType: EI
InstName: HITACHI RMU-6M
IoniMethod: _ENERGY 70 eV
IonPolarity: pos
Date: 2010-10-09 19:48:36+02:00
Num Peaks: 17
15 17 26 30 27 334 28 15 37 21 38 31 39 102 40 18 41 215 42 57 
43 999 44 32 62 20 63 209 65 67 78 203 80 64 
