Name: 2-CHLORO-4-NITROBENZOIC ACID METHYL ESTER
MW: 214
Formula: C8H6ClNO4
Synonym: MassBank: JP002649
Synonym: 2-CHLORO-4-NITROBENZOIC ACID METHYL ESTER
Structure: 322D43484C4F524F2D342D4E4954524F42454E5A4F49432041434944204D455448594C2045535445522E6D6F6C0A20204368656D447261773031303331303130343232440A2031342031342020302020302020302020302020302020302020302020303939392056323030300A2020202D302E3030303020202020312E3635303020202020302E303030302043202020302020302020302020302020302020302020302020302020302020302020302020300A2020202D302E3030303020202020302E3832353020202020302E303030302043202020302020302020302020302020302020302020302020302020302020302020302020300A20202020302E3731343520202020302E3431323520202020302E303030302043202020302020302020302020302020302020302020302020302020302020302020302020300A20202020302E373134352020202D302E3431323520202020302E303030302043202020302020302020302020302020302020302020302020302020302020302020302020300A2020202D302E303030302020202D302E3832353020202020302E303030302043202020302020302020302020302020302020302020302020302020302020302020302020300A2020202D302E373134352020202D302E3431323520202020302E303030302043202020302020302020302020302020302020302020302020302020302020302020302020300A2020202D302E3731343520202020302E3431323520202020302E303030302043202020302020302020302020302020302020302020302020302020302020302020302020300A20202020302E3731343520202020322E3036323520202020302E30303030204F202020302020302020302020302020302020302020302020302020302020302020302020300A2020202D302E3731343520202020322E3036323520202020302E30303030204F202020302020302020302020302020302020302020302020302020302020302020302020300A2020202D302E303030302020202D312E3635303020202020302E30303030204E202020302020332020302020302020302020302020302020302020302020302020302020300A2020202D302E373134352020202D322E3036323520202020302E30303030204F202020302020302020302020302020302020302020302020302020302020302020302020300A20202020302E373134352020202D322E3036323520202020302E30303030204F202020302020352020302020302020302020302020302020302020302020302020302020300A20202020312E3432383920202020302E3832353020202020302E3030303020436C2020302020302020302020302020302020302020302020302020302020302020302020300A2020202D312E3432383920202020312E3635303020202020302E303030302043202020302020302020302020302020302020302020302020302020302020302020302020300A2020312020322020312020302020202020200A2020322020332020312020302020202020200A2020332020342020322020302020202020200A2020342020352020312020302020202020200A2020352020362020322020302020202020200A2020362020372020312020302020202020200A2020322020372020322020302020202020200A2020312020382020322020302020202020200A2020312020392020312020302020202020200A2031302031312020322020302020202020200A2031302031322020312020302020202020200A2020352031302020312020302020202020200A2020332031332020312020302020202020200A2020392031342020312020302020202020200A4D202043484720203220203130202020312020313220202D310A4D2020454E44
Contributor: KOGA M, UNIV. OF OCCUPATIONAL AND ENVIRONMENTAL HEALTH
InstType: EI
InstName: JEOL JMS-01-SG
IoniMethod: _ENERGY 70 eV
IonPolarity: pos
Date: 2010-10-09 19:48:36+02:00
Num Peaks: 30
50 47 51 29 59 77 63 10 73 35 74 233 75 371 76 3 77 41 84 29 
109 35 110 16 111 29 112 29 119 71 126 15 128 47 137 47 138 299 139 4 
140 95 154 215 156 35 184 999 185 95 186 329 187 29 198 4 215 269 217 71 
