Name: MassBank: JP002066
MW: 182
Formula: C10H14O3
Synonym: MassBank: JP002066
Synonym: 2-(3,4-DIMETHOXYPHENYL)ETHANOL
Structure: 322D28332C342D44494D4554484F58595048454E594C29455448414E4F4C2E6D6F6C0A20204368656D447261773132323130393134313832440A2031332031332020302020302020302020302020302020302020302020303939392056323030300A2020202D312E363530302020202D312E3037313720202020302E303030302043202020302020302020302020302020302020302020302020302020302020302020302020300A2020202D312E323337352020202D302E3335373220202020302E303030302043202020302020302020302020302020302020302020302020302020302020302020302020300A2020202D302E343132352020202D302E3335373220202020302E303030302043202020302020302020302020302020302020302020302020302020302020302020302020300A20202020302E3030303020202020302E3335373220202020302E303030302043202020302020302020302020302020302020302020302020302020302020302020302020300A20202020302E3832353020202020302E3335373220202020302E303030302043202020302020302020302020302020302020302020302020302020302020302020302020300A20202020312E323337352020202D302E3335373220202020302E303030302043202020302020302020302020302020302020302020302020302020302020302020302020300A20202020302E383235302020202D312E3037313720202020302E303030302043202020302020302020302020302020302020302020302020302020302020302020302020300A20202020302E303030302020202D312E3037313720202020302E303030302043202020302020302020302020302020302020302020302020302020302020302020302020300A20202020322E303632352020202D302E3335373220202020302E30303030204F202020302020302020302020302020302020302020302020302020302020302020302020300A20202020322E343735302020202D312E3037313720202020302E303030302043202020302020302020302020302020302020302020302020302020302020302020302020300A20202020312E3233373520202020312E3037313720202020302E30303030204F202020302020302020302020302020302020302020302020302020302020302020302020300A20202020322E3036323520202020312E3037313720202020302E303030302043202020302020302020302020302020302020302020302020302020302020302020302020300A2020202D322E343735302020202D312E3037313720202020302E30303030204F202020302020302020302020302020302020302020302020302020302020302020302020300A2020312020322020312020302020202020200A2020332020342020312020302020202020200A2020342020352020322020302020202020200A2020352020362020312020302020202020200A2020362020372020322020302020202020200A2020372020382020312020302020202020200A2020332020382020322020302020202020200A2020392031302020312020302020202020200A2020362020392020312020302020202020200A2031312031322020312020302020202020200A2020352031312020312020302020202020200A2020322020332020312020302020202020200A2020312031332020312020302020202020200A4D2020454E44
Contributor: ENDO K, PHARMACEUTICAL INST., TOHOKU UNIV.
InstType: EI
InstName: HITACHI M-52
IoniMethod: _ENERGY 25 eV
IonPolarity: pos
Date: 2010-10-09 19:48:36+02:00
Num Peaks: 76
18 6 28 51 29 45 31 5 32 11 33 23 39 9 41 5 42 25 43 42 
45 147 47 2 48 6 53 17 55 34 57 6 58 6 59 153 60 11 61 3 
65 42 66 9 67 6 69 1 71 122 72 398 73 294 74 98 75 328 76 14 
77 59 78 10 79 25 80 11 83 76 85 8 87 153 88 949 89 107 90 4 
91 59 93 9 94 23 97 2 99 48 101 249 102 138 103 2 105 42 106 68 
107 102 108 5 109 20 111 11 114 14 115 2 117 11 118 9 119 14 121 127 
122 20 131 20 134 6 135 4 136 14 137 45 138 9 143 2 149 20 151 999 
152 161 153 1 175 25 181 14 182 390 183 42 
