Name: MassBank: JP003288
MW: 102
Formula: C4H10N2O
Synonym: MassBank: JP003288
Synonym: N,N-DIETHYLNITROSOAMINE
Structure: 310A31380A4E2C4E2D4449455448594C4E4954524F534F414D494E452E6D6F6C0A20204368656D447261773038313231303032333532440A2020372020362020302020302020302020302020302020302020302020303939392056323030300A2020202D302E303030302020202D302E3335373220202020302E30303030204E202020302020302020302020302020302020302020302020302020302020302020302020300A20202020302E3431323520202020302E3335373220202020302E30303030204E202020302020302020302020302020302020302020302020302020302020302020302020300A2020202D302E3030303020202020312E3037313720202020302E30303030204F202020302020302020302020302020302020302020302020302020302020302020302020300A20202020302E343132352020202D312E3037313720202020302E303030302043202020302020302020302020302020302020302020302020302020302020302020302020300A20202020312E323337352020202D312E3037313720202020302E303030302043202020302020302020302020302020302020302020302020302020302020302020302020300A2020202D302E383235302020202D302E3335373220202020302E303030302043202020302020302020302020302020302020302020302020302020302020302020302020300A2020202D312E323337352020202D312E3037313720202020302E303030302043202020302020302020302020302020302020302020302020302020302020302020302020300A2020322020332020322020302020202020200A2020312020322020312020302020202020200A2020342020352020312020302020202020200A2020312020342020312020302020202020200A2020362020372020312020302020202020200A2020312020362020312020302020202020200A4D2020454E44
Contributor: KOGA M, UNIV. OF OCCUPATIONAL AND ENVIRONMENTAL HEALTH
InstType: EI
InstName: VARIAN MAT-44
IoniMethod: _ENERGY 70 eV
IonPolarity: pos
Date: 2010-10-09 19:48:36+02:00
Num Peaks: 10
54 34 55 55 56 999 57 997 70 38 71 57 85 50 87 33 102 515 103 28 
