Name: MassBank: JP000441
MW: 190
Formula: C10H10N2O2
Synonym: MassBank: JP000441
Synonym: 2,3-DIMETHYL-4-NITROINDOLE
Structure: 322C332D44494D455448594C2D342D4E4954524F494E444F4C452E6D6F6C0A20204368656D447261773132323030393131343532440A2031342031352020302020302020302020302020302020302020302020303939392056323030300A2020202D302E343531382020202D312E3238363220202020302E30303030204E202020302020302020302020302020302020302020302020302020302020302020302020300A2020202D302E393336372020202D302E3631383820202020302E303030302043202020302020302020302020302020302020302020302020302020302020302020302020300A2020202D302E3435313820202020302E3034383720202020302E303030302043202020302020302020302020302020302020302020302020302020302020302020302020300A20202020302E333332382020202D302E3230363220202020302E303030302043202020302020302020302020302020302020302020302020302020302020302020302020300A20202020312E3034373320202020302E3230363220202020302E303030302043202020302020302020302020302020302020302020302020302020302020302020302020300A20202020312E373631372020202D302E3230363220202020302E303030302043202020302020302020302020302020302020302020302020302020302020302020302020300A20202020312E373631372020202D312E3033313320202020302E303030302043202020302020302020302020302020302020302020302020302020302020302020302020300A20202020312E303437332020202D312E3434333820202020302E303030302043202020302020302020302020302020302020302020302020302020302020302020302020300A20202020302E333332382020202D312E3033313320202020302E303030302043202020302020302020302020302020302020302020302020302020302020302020302020300A20202020312E3034373320202020312E3033313320202020302E30303030204E202020302020332020302020302020302020302020302020302020302020302020302020300A20202020302E3333323820202020312E3434333820202020302E30303030204F202020302020302020302020302020302020302020302020302020302020302020302020300A20202020312E3736313720202020312E3434333820202020302E30303030204F202020302020352020302020302020302020302020302020302020302020302020302020300A2020202D302E3730363820202020302E3833333320202020302E303030302043202020302020302020302020302020302020302020302020302020302020302020302020300A2020202D312E373631372020202D302E3631383820202020302E303030302043202020302020302020302020302020302020302020302020302020302020302020302020300A2020312020322020312020302020202020200A2020322020332020322020302020202020200A2020332020342020312020302020202020200A2020342020352020312020302020202020200A2020352020362020322020302020202020200A2020362020372020312020302020202020200A2020372020382020322020302020202020200A2020382020392020312020302020202020200A2020312020392020312020302020202020200A2020342020392020322020302020202020200A2031302031312020322020302020202020200A2031302031322020312020302020202020200A2020352031302020312020302020202020200A2020332031332020312020302020202020200A2020322031342020312020302020202020200A4D202043484720203220203130202020312020313220202D310A4D2020454E44
Contributor: SASAKI S, TOYOHASHI UNIV. OF TECH.
InstType: EI
InstName: MX-1303
IoniMethod: _ENERGY 50 eV
IonPolarity: pos
Date: 2010-10-09 19:48:36+02:00
Num Peaks: 76
45 246 51 69 53 43 54 6 55 688 56 229 57 938 60 65 61 106 63 59 
65 35 67 19 68 146 69 679 70 208 71 54 73 42 74 45 75 50 76 4 
77 122 78 38 79 40 80 3 81 479 82 167 83 356 84 17 85 313 87 66 
89 97 90 7 91 76 93 64 94 40 95 19 96 94 97 271 98 108 99 7 
101 63 102 59 103 43 105 3 107 35 109 82 110 43 111 11 112 40 113 56 
116 61 117 6 121 45 123 71 125 42 127 4 128 70 129 188 135 30 136 5 
137 89 141 38 142 132 143 999 144 354 145 73 149 167 159 3 160 70 173 729 
174 59 178 3 185 36 189 30 190 917 191 87 
