Name: PARA-METHYLHIPPURIC ACID
MW: 193
Formula: C10H11NO3
Synonym: MassBank: JP002238
Synonym: PARA-METHYLHIPPURIC ACID
Structure: 504152412D4D455448594C484950505552494320414349442E6D6F6C0A20204368656D447261773038313231303034333232440A2031342031342020302020302020302020302020302020302020302020303939392056323030300A2020202D322E3134333420202020302E3030303020202020302E303030302043202020302020302020302020302020302020302020302020302020302020302020302020300A2020202D312E3432383920202020302E3431323520202020302E303030302043202020302020302020302020302020302020302020302020302020302020302020302020300A2020202D302E3731343520202020302E3030303020202020302E30303030204E202020302020302020302020302020302020302020302020302020302020302020302020300A20202020302E3030303020202020302E3431323520202020302E303030302043202020302020302020302020302020302020302020302020302020302020302020302020300A20202020302E3030303020202020312E3233373520202020302E30303030204F202020302020302020302020302020302020302020302020302020302020302020302020300A20202020302E3731343520202020302E3030303020202020302E303030302043202020302020302020302020302020302020302020302020302020302020302020302020300A20202020312E3432383920202020302E3431323520202020302E303030302043202020302020302020302020302020302020302020302020302020302020302020302020300A20202020322E3134333420202020302E3030303020202020302E303030302043202020302020302020302020302020302020302020302020302020302020302020302020300A20202020322E313433342020202D302E3832353020202020302E303030302043202020302020302020302020302020302020302020302020302020302020302020302020300A20202020312E343238392020202D312E3233373520202020302E303030302043202020302020302020302020302020302020302020302020302020302020302020302020300A20202020302E373134352020202D302E3832353020202020302E303030302043202020302020302020302020302020302020302020302020302020302020302020302020300A2020202D322E313433342020202D302E3832353020202020302E30303030204F202020302020302020302020302020302020302020302020302020302020302020302020300A2020202D322E3835373920202020302E3431323520202020302E30303030204F202020302020302020302020302020302020302020302020302020302020302020302020300A20202020322E383537392020202D312E3233373520202020302E303030302043202020302020302020302020302020302020302020302020302020302020302020302020300A2020312020322020312020302020202020200A2020322020332020312020302020202020200A2020332020342020312020302020202020200A2020342020352020322020302020202020200A2020342020362020312020302020202020200A2020362020372020312020302020202020200A2020372020382020322020302020202020200A2020382020392020312020302020202020200A2020392031302020322020302020202020200A2031302031312020312020302020202020200A2020362031312020322020302020202020200A2020312031322020322020302020202020200A2020312031332020312020302020202020200A2020392031342020312020302020202020200A4D2020454E44
Contributor: KOGA M, UNIV. OF OCCUPATIONAL AND ENVIRONMENTAL HEALTH
InstType: EI
InstName: VARIAN MAT-44
IoniMethod: _ENERGY 70 eV
IonPolarity: pos
Date: 2010-10-09 19:48:36+02:00
Num Peaks: 22
51 41 56 16 62 25 63 77 64 32 65 301 66 19 73 13 74 16 77 16 
89 83 90 90 91 177 92 61 105 13 118 115 119 999 120 100 148 109 149 171 
150 16 193 13 
