Name: MassBank: JP004465
MW: 207
Formula: C6H4F3N3O2
Synonym: MassBank: JP004465
Synonym: 4-NITROSOMETHYL-6-TRIFLUOROMETHYL-1,2-DIHYDROPYRIMIDIN-2-ONE
Structure: 342D4E4954524F534F4D455448594C2D362D545249464C554F524F4D455448594C2D312C322D4449485944524F505952494D4944494E2D322D4F4E452E6D6F6C0A20204368656D447261773034323231303137353532440A2031342031342020302020302020302020302020302020302020302020303939392056323030300A20202020312E3037313720202020302E3631383720202020302E303030302043202020302020302020302020302020302020302020302020302020302020302020302020300A20202020302E3335373220202020312E3033313320202020302E30303030204E202020302020302020302020302020302020302020302020302020302020302020302020300A2020202D302E3335373220202020302E3631383820202020302E303030302043202020302020302020302020302020302020302020302020302020302020302020302020300A2020202D302E333537322020202D302E3230363320202020302E303030302043202020302020302020302020302020302020302020302020302020302020302020302020300A20202020302E333537322020202D302E3631383820202020302E303030302043202020302020302020302020302020302020302020302020302020302020302020302020300A20202020312E303731372020202D302E3230363320202020302E30303030204E202020302020302020302020302020302020302020302020302020302020302020302020300A20202020312E3738363220202020312E3033313220202020302E30303030204F202020302020302020302020302020302020302020302020302020302020302020302020300A20202020302E333537322020202D312E3434333820202020302E303030302043202020302020302020302020302020302020302020302020302020302020302020302020300A20202020312E313832322020202D312E3434333820202020302E303030302046202020302020302020302020302020302020302020302020302020302020302020302020300A2020202D302E343637382020202D312E3434333820202020302E303030302046202020302020302020302020302020302020302020302020302020302020302020302020300A20202020302E333537322020202D322E3236383820202020302E303030302046202020302020302020302020302020302020302020302020302020302020302020302020300A2020202D312E3037313720202020312E3033313320202020302E303030302043202020302020302020302020302020302020302020302020302020302020302020302020300A2020202D312E3037313720202020312E3835363320202020302E30303030204E202020302020302020302020302020302020302020302020302020302020302020302020300A2020202D312E3738363220202020322E3236383820202020302E30303030204F202020302020302020302020302020302020302020302020302020302020302020302020300A2020312020322020312020302020202020200A2020322020332020322020302020202020200A2020332020342020312020302020202020200A2020342020352020322020302020202020200A2020352020362020312020302020202020200A2020312020362020312020302020202020200A2020312020372020322020302020202020200A2020382020392020312020312020202020200A2020382031302020312020312020202020200A2020382031312020312020302020202020200A2020352020382020312020302020202020200A2031332031342020322020302020202020200A2031322031332020312020302020202020200A2020332031322020312020302020202020200A4D2020454E44
Contributor: SASAKI S, TOYOHASHI UNIV. OF TECH.
InstType: EI
InstName: Unknown
IoniMethod: _ENERGY 50 eV
IonPolarity: pos
Date: 2010-10-09 19:48:36+02:00
Num Peaks: 32
65 710 66 730 67 530 68 25 69 715 70 99 75 111 76 6 77 148 79 221 
92 148 93 36 95 118 100 111 101 43 102 8 108 123 120 308 136 195 138 11 
143 212 149 114 150 148 163 10 164 203 176 9 178 203 184 8 188 136 189 96 
207 999 208 157 
