Name: METHACRYLIC ACID ISOPROPYL ESTER-D7
MW: 128
Formula: C7H12O2
Synonym: MassBank: JP000991
Synonym: METHACRYLIC ACID ISOPROPYL ESTER-D7
Synonym: ISOPROPYL METHACRYLATE-D7
Structure: 303138395F4D455448414352594C494320414349442049534F50524F50594C2045535445522D44372E6D6F6C0A20204368656D447261773039303631303134333732440A2031362031352020302020302020302020302020302020302020302020303939392056323030300A2020202D302E363138372020202D302E3030303020202020302E303030302043202020302020302020302020302020302020302020302020302020302020302020302020300A2020202D312E3333333220202020302E3431323620202020302E303030302043202020302020302020302020302020302020302020302020302020302020302020302020300A2020202D312E3333333220202020312E3233373620202020302E303030302043202020302020302020302020302020302020302020302020302020302020302020302020300A2020202D322E303437372020202D302E3030303020202020302E303030302043202020302020302020302020302020302020302020302020302020302020302020302020300A2020202D302E363138372020202D302E3832353020202020302E30303030204F202020302020302020302020302020302020302020302020302020302020302020302020300A20202020302E3039353820202020302E3431323620202020302E30303030204F202020302020302020302020302020302020302020302020302020302020302020302020300A20202020302E383130322020202D302E3030303020202020302E303030302043202020302020302020302020302020302020302020302020302020302020302020302020300A20202020312E3232323720202020302E3731343520202020302E303030302043202020302020302020302020302020302020302020302020302020302020302020302020300A20202020312E353234372020202D302E3431323520202020302E303030302048202020312020302020302020302020302020302020302020302020302020302020302020300A20202020302E333937372020202D302E3731343420202020302E303030302043202020302020302020302020302020302020302020302020302020302020302020302020300A20202020322E3034373720202020302E3731343520202020302E303030302048202020312020302020302020302020302020302020302020302020302020302020302020300A20202020302E3831303220202020312E3432383920202020302E303030302048202020312020302020302020302020302020302020302020302020302020302020302020300A20202020312E3633353220202020312E3432383920202020302E303030302048202020312020302020302020302020302020302020302020302020302020302020302020300A20202020302E383130322020202D312E3432383920202020302E303030302048202020312020302020302020302020302020302020302020302020302020302020302020300A2020202D302E323735382020202D312E3139303920202020302E303030302048202020312020302020302020302020302020302020302020302020302020302020302020300A20202020312E323232332020202D302E3638383920202020302E303030302048202020312020302020302020302020302020302020302020302020302020302020302020300A2020312020322020312020302020202020200A2020322020332020312020302020202020200A2020322020342020322020302020202020200A2020312020352020322020302020202020200A2020312020362020312020302020202020200A2020372020382020312020302020202020200A2020372020392020312020302020202020200A2020362020372020312020302020202020200A2020372031302020312020302020202020200A2020382031312020312020302020202020200A2020382031322020312020302020202020200A2020382031332020312020302020202020200A2031302031342020312020302020202020200A2031302031352020312020302020202020200A2031302031362020312020302020202020200A4D202049534F20203720202039202020322020313120202032202031322020203220203133202020322020313420202032202031352020203220203136202020320A4D2020454E44
Contributor: TAJIMA S, GUNMA COLLEGE OF TECHNOLOGY
InstType: EI
InstName: HITACHI RMU-5B
IoniMethod: _ENERGY 70 eV
IonPolarity: pos
Date: 2010-10-09 19:48:36+02:00
Num Peaks: 35
15 9 18 42 26 12 27 12 28 16 30 263 37 18 38 48 39 411 40 105 
41 767 42 141 43 43 44 28 45 16 46 325 47 16 48 105 49 87 50 999 
51 29 59 16 61 20 65 30 66 117 69 797 70 40 71 42 72 20 87 48 
88 23 89 330 90 28 117 26 135 51 
