Name: BARBITAL
MW: 184
Formula: C8H12N2O3
Synonym: MassBank: JP003206
Synonym: BARBITAL
Structure: 424152424954414C2E6D6F6C0A20204368656D447261773038313331303133313032440A2031332031332020302020302020302020302020302020302020302020303939392056323030300A20202020302E3331343120202020312E3233373520202020302E30303030204E202020302020302020302020302020302020302020302020302020302020302020302020300A20202020312E3032383620202020302E3832353020202020302E303030302043202020302020302020302020302020302020302020302020302020302020302020302020300A20202020312E3734333120202020312E3233373520202020302E30303030204F202020302020302020302020302020302020302020302020302020302020302020302020300A20202020312E3032383620202020302E3030303020202020302E30303030204E202020302020302020302020302020302020302020302020302020302020302020302020300A2020202D302E3430303320202020302E3832353020202020302E303030302043202020302020302020302020302020302020302020302020302020302020302020302020300A2020202D312E3131343820202020312E3233373520202020302E30303030204F202020302020302020302020302020302020302020302020302020302020302020302020300A2020202D302E343030332020202D302E3030303020202020302E303030302043202020302020302020302020302020302020302020302020302020302020302020302020300A20202020302E333134312020202D302E3431323520202020302E303030302043202020302020302020302020302020302020302020302020302020302020302020302020300A20202020302E333134312020202D312E3233373520202020302E30303030204F202020302020302020302020302020302020302020302020302020302020302020302020300A2020202D302E363832352020202D302E3737353220202020302E303030302043202020302020302020302020302020302020302020302020302020302020302020302020300A2020202D312E343935302020202D302E3931383520202020302E303030302043202020302020302020302020302020302020302020302020302020302020302020302020300A2020202D312E3231323820202020302E3134333320202020302E303030302043202020302020302020302020302020302020302020302020302020302020302020302020300A2020202D312E373433312020202D302E3438383720202020302E303030302043202020302020302020302020302020302020302020302020302020302020302020302020300A2020312020322020312020302020202020200A2020322020332020322020302020202020200A2020322020342020312020302020202020200A2020352020362020322020302020202020200A2020352020372020312020302020202020200A2020372020382020312020302020202020200A2020382020392020322020302020202020200A2031302031312020312020302020202020200A2020372031302020312020302020202020200A2031322031332020312020302020202020200A2020372031322020312020302020202020200A2020312020352020312020302020202020200A2020342020382020312020302020202020200A4D2020454E44
Contributor: NAKATA H, DEPT. OF CHEMISTRY, AICHI KYOIKU UNIV.
InstType: EI
InstName: HITACHI RMU-6D
IoniMethod: _ENERGY 70 eV
IonPolarity: pos
Date: 2010-10-09 19:48:36+02:00
Num Peaks: 26
37 60 38 100 39 850 40 160 41 880 42 120 43 150 44 390 52 60 53 260 
54 220 55 650 56 120 68 60 69 330 70 270 83 320 85 130 98 300 112 270 
141 850 142 60 155 460 156 999 157 80 184 70 
