Name: PHENELZINE
MW: 136
Formula: C8H12N2
Synonym: MassBank: JP003847
Synonym: PHENELZINE
Synonym: (2-PHENETHYL)HYDRAZINE
Structure: 28322D5048454E455448594C2948594452415A494E452E6D6F6C0A20204368656D447261773130313930393138303732440A2031302031302020302020302020302020302020302020302020302020303939392056323030300A2020202D302E343132352020202D302E3335373220202020302E303030302043202020302020302020302020302020302020302020302020302020302020302020302020300A2020202D302E383235302020202D312E3037313720202020302E303030302043202020302020302020302020302020302020302020302020302020302020302020302020300A2020202D302E343132352020202D312E3738363220202020302E303030302043202020302020302020302020302020302020302020302020302020302020302020302020300A20202020302E343132352020202D312E3738363220202020302E303030302043202020302020302020302020302020302020302020302020302020302020302020302020300A20202020302E383235302020202D312E3037313720202020302E303030302043202020302020302020302020302020302020302020302020302020302020302020302020300A20202020302E343132352020202D302E3335373220202020302E303030302043202020302020302020302020302020302020302020302020302020302020302020302020300A20202020302E3832353020202020302E3335373220202020302E303030302043202020302020302020302020302020302020302020302020302020302020302020302020300A20202020302E3431323520202020312E3037313720202020302E303030302043202020302020302020302020302020302020302020302020302020302020302020302020300A2020202D302E3431323520202020312E3037313720202020302E30303030204E202020302020302020302020302020302020302020302020302020302020302020302020300A2020202D302E3832353020202020312E3738363220202020302E30303030204E202020302020302020302020302020302020302020302020302020302020302020302020300A2020312020322020322020302020202020200A2020322020332020312020302020202020200A2020332020342020322020302020202020200A2020342020352020312020302020202020200A2020352020362020322020302020202020200A2020362020312020312020302020202020200A2020362020372020312020302020202020200A2020372020382020312020302020202020200A2020382020392020312020302020202020200A2020392031302020312020302020202020200A4D2020454E44
Contributor: SASAKI S, TOYOHASHI UNIV. OF TECH.
InstType: EI
InstName: Unknown
IoniMethod: _ENERGY 70 eV
IonPolarity: pos
Date: 2010-10-09 19:48:36+02:00
Num Peaks: 51
51 119 52 29 53 19 55 3 56 9 57 9 58 59 62 2 63 54 64 19 
65 119 66 1 71 14 72 9 73 44 74 2 75 14 76 29 77 324 78 8 
79 94 80 9 89 59 90 6 91 764 92 164 93 24 100 1 101 9 102 69 
103 109 104 48 105 999 106 104 107 49 108 0 115 34 116 29 117 94 118 6 
119 44 120 59 121 19 122 4 130 24 131 109 132 44 133 25 134 69 135 19 
136 9 
