Name: N-ACETYL-ALANYL-LEUCYL-ALANINE METHYLESTER
MW: 329
Formula: C15H27N3O5
Synonym: MassBank: JP000114
Synonym: N-ACETYL-ALANYL-LEUCYL-ALANINE METHYLESTER
Structure: 303035365F4E2D41434554594C2D414C414E594C2D4C455543594C2D414C414E494E45204D455448594C45535445522E6D6F6C0A20204368656D447261773039303331303137313732440A2032362032352020302020302020302020302020302020302020302020303939392056323030300A2020202D322E303632352020202D312E3037313720202020302E303030302043202020302020302020302020302020302020302020302020302020302020302020302020300A2020202D302E383235302020202D302E3335373220202020302E30303030204E202020302020302020302020302020302020302020302020302020302020302020302020300A2020202D312E363530302020202D302E3335373220202020302E303030302043202020302020302020302020302020302020302020302020302020302020302020302020300A2020202D322E3036323520202020302E3335373220202020302E303030302043202020302020302020302020302020302020302020302020302020302020302020302020300A2020202D322E383837352020202D312E3037313720202020302E30303030204F202020302020302020302020302020302020302020302020302020302020302020302020300A2020202D312E363530302020202D312E3738363220202020302E30303030204F202020302020302020302020302020302020302020302020302020302020302020302020300A2020202D302E3431323520202020302E3335373220202020302E303030302043202020302020302020302020302020302020302020302020302020302020302020302020300A20202020302E3832353020202020312E3037313720202020302E30303030204E202020302020302020302020302020302020302020302020302020302020302020302020300A20202020302E3431323520202020302E3335373220202020302E303030302043202020302020302020302020302020302020302020302020302020302020302020302020300A20202020302E383235302020202D302E3335373220202020302E303030302043202020302020302020302020302020302020302020302020302020302020302020302020300A20202020302E343132352020202D312E3037313720202020302E303030302043202020302020302020302020302020302020302020302020302020302020302020302020300A20202020302E383235302020202D312E3738363220202020302E303030302043202020302020302020302020302020302020302020302020302020302020302020302020300A2020202D302E343132352020202D312E3037313720202020302E303030302043202020302020302020302020302020302020302020302020302020302020302020302020300A2020202D302E3832353020202020312E3037313720202020302E30303030204F202020302020302020302020302020302020302020302020302020302020302020302020300A20202020312E3635303020202020312E3037313720202020302E303030302043202020302020302020302020302020302020302020302020302020302020302020302020300A20202020312E363530302020202D302E3335373220202020302E30303030204E202020302020302020302020302020302020302020302020302020302020302020302020300A20202020322E3036323520202020302E3335373220202020302E303030302043202020302020302020302020302020302020302020302020302020302020302020302020300A20202020322E3838373520202020302E3335373220202020302E303030302043202020302020302020302020302020302020302020302020302020302020302020302020300A20202020322E3036323520202020312E3738363220202020302E30303030204F202020302020302020302020302020302020302020302020302020302020302020302020300A20202020322E303632352020202D312E3037313720202020302E303030302043202020302020302020302020302020302020302020302020302020302020302020302020300A20202020322E383837352020202D312E3037313720202020302E30303030204F202020302020302020302020302020302020302020302020302020302020302020302020300A20202020312E363530302020202D312E3738363220202020302E303030302043202020302020302020302020302020302020302020302020302020302020302020302020300A2020202D302E383235302020202D312E3738363220202020302E303030302043202020302020302020302020302020302020302020302020302020302020302020302020300A20202020302E303030302020202D302E3335373320202020302E303030302048202020302020302020302020302020302020302020302020302020302020302020302020300A2020202D312E323337352020202D312E3037313720202020302E303030302048202020302020302020302020302020302020302020302020302020302020302020302020300A20202020322E3435393620202020312E3038303320202020302E303030302048202020302020302020302020302020302020302020302020302020302020302020302020300A2020322020332020312020302020202020200A2020312020332020312020302020202020200A2020332020342020312020312020202020200A2020312020352020322020302020202020200A2020312020362020312020302020202020200A2020392020382020312020312020202020200A2020372020392020312020302020202020200A2020392031302020312020302020202020200A2031302031312020312020302020202020200A2031312031322020312020302020202020200A2031312031332020312020302020202020200A2020372031342020322020302020202020200A2031372031362020312020312020202020200A2031352031372020312020302020202020200A2031372031382020312020302020202020200A2031352031392020322020302020202020200A2020382031352020312020302020202020200A2020322020372020312020302020202020200A2032302032312020322020302020202020200A2032302032322020312020302020202020200A2031362032302020312020302020202020200A2020362032332020312020302020202020200A2020392032342020312020312020202020200A2020332032352020312020312020202020200A2031372032362020312020312020202020200A4D2020454E44
Contributor: YAMAMOTO M, DEP. CHEMISTRY, FAC. SCIENCE, NARA WOMEN'S UNIV.
InstType: EI
InstName: HITACHI RMU-6M
IoniMethod: _ENERGY 70 eV
IonPolarity: pos
Date: 2010-10-09 19:48:36+02:00
Num Peaks: 35
15 22 27 16 28 22 29 1 30 76 41 29 42 32 43 8 44 480 45 16 
55 35 56 1 57 10 59 13 69 15 70 4 72 25 84 13 86 999 87 12 
98 16 99 11 102 13 104 2 126 11 141 16 158 35 183 3 199 45 200 22 
201 16 227 3 243 22 273 10 329 5 
