Name: P-CHLOROBENZALDEHYDE
MW: 140
Formula: C7H5ClO
Synonym: MassBank: JP005273
Synonym: P-CHLOROBENZALDEHYDE
Synonym: 4-CHLOROBENZALDEHYDE
Structure: 310A32330A502D43484C4F524F42454E5A414C4445485944452E6D6F6C0A20204368656D447261773033323531303131303732440A2020392020392020302020302020302020302020302020302020302020303939392056323030300A20202020302E3030303020202020312E3434333820202020302E303030302043202020302020302020302020302020302020302020302020302020302020302020302020300A20202020302E3030303020202020302E3631383820202020302E303030302043202020302020302020302020302020302020302020302020302020302020302020302020300A20202020302E3731343520202020302E3230363220202020302E303030302043202020302020302020302020302020302020302020302020302020302020302020302020300A20202020302E373134352020202D302E3631383820202020302E303030302043202020302020302020302020302020302020302020302020302020302020302020302020300A2020202D302E303030302020202D312E3033313320202020302E303030302043202020302020302020302020302020302020302020302020302020302020302020302020300A2020202D302E373134352020202D302E3631383820202020302E303030302043202020302020302020302020302020302020302020302020302020302020302020302020300A2020202D302E3731343520202020302E3230363220202020302E303030302043202020302020302020302020302020302020302020302020302020302020302020302020300A20202020302E3731343520202020312E3835363320202020302E30303030204F202020302020302020302020302020302020302020302020302020302020302020302020300A2020202D302E303030302020202D312E3835363320202020302E3030303020436C2020302020302020302020302020302020302020302020302020302020302020302020300A2020312020322020312020302020202020200A2020322020332020312020302020202020200A2020332020342020322020302020202020200A2020342020352020312020302020202020200A2020352020362020322020302020202020200A2020362020372020312020302020202020200A2020322020372020322020302020202020200A2020312020382020322020302020202020200A2020352020392020312020302020202020200A4D2020454E44
Contributor: YAMAMOTO M, DEP. CHEMISTRY, FAC. SCIENCE, NARA WOMEN'S UNIV.
InstType: EI
InstName: HITACHI RMU-6M
IoniMethod: _ENERGY 70 eV
IonPolarity: pos
Date: 2010-10-09 19:48:36+02:00
Num Peaks: 37
26 10 27 20 29 35 37 47 37.5 16 38 67 39 22 44 12 49 35 50 259 
51 185 52 48 55 12 60 10 61 23 62 20 63 18 73 42 74 146 75 289 
76 86 77 171 78 13 84 16 85 39 86 10 87 13 110 11 111 555 112 85 
113 184 114 27 139 999 140 710 141 377 142 244 143 15 
