Name: DEOXYCORTICOSTERONE
MW: 330
Formula: C21H30O3
Synonym: MassBank: JP009696
Synonym: DEOXYCORTICOSTERONE
Synonym: 21-HYDROXYPREGN-4-ENE-3,20-DIONE
Structure: 44454F5859434F525449434F535445524F4E452E6D6F6C0A20204368656D447261773032323131303137303732440A2032372033302020302020302020302020302020302020302020302020303939392056323030300A2020202D322E333532322020202D312E3633363520202020302E303030302043202020302020302020302020302020302020302020302020302020302020302020302020300A2020202D322E333532322020202D302E3831313520202020302E303030302043202020302020302020302020302020302020302020302020302020302020302020302020300A2020202D312E363337372020202D302E3339393020202020302E303030302043202020302020302020302020302020302020302020302020302020302020302020302020300A2020202D312E363337372020202D322E3034393020202020302E303030302043202020302020302020302020302020302020302020302020302020302020302020302020300A2020202D302E393233332020202D312E3633363520202020302E303030302043202020302020302020302020302020302020302020302020302020302020302020302020300A2020202D302E323038382020202D322E3034393020202020302E303030302043202020302020302020302020302020302020302020302020302020302020302020302020300A20202020302E353035372020202D312E3633363520202020302E303030302043202020302020302020302020302020302020302020302020302020302020302020302020300A20202020302E353035372020202D302E3831313520202020302E303030302043202020302020302020302020302020302020302020302020302020302020302020302020300A20202020312E323230312020202D302E3339393020202020302E303030302043202020302020302020302020302020302020302020302020302020302020302020302020300A20202020322E303034382020202D302E3635333920202020302E303030302043202020302020302020302020302020302020302020302020302020302020302020302020300A20202020322E3438393720202020302E3031333520202020302E303030302043202020302020302020302020302020302020302020302020302020302020302020302020300A20202020322E3030343820202020302E3638313020202020302E303030302043202020302020302020302020302020302020302020302020302020302020302020302020300A20202020322E3235393720202020312E3436353620202020302E303030302043202020302020302020302020302020302020302020302020302020302020302020302020300A20202020312E3637363320202020322E3034393020202020302E303030302043202020302020302020302020302020302020302020302020302020302020302020302020300A20202020312E3232303120202020302E3432363020202020302E303030302043202020302020302020302020302020302020302020302020302020302020302020302020300A20202020312E3232303120202020312E3235313020202020302E303030302043202020302020302020302020302020302020302020302020302020302020302020302020300A20202020302E3530353720202020302E3833383520202020302E303030302043202020302020302020302020302020302020302020302020302020302020302020302020300A2020202D302E3230383820202020302E3432363020202020302E303030302043202020302020302020302020302020302020302020302020302020302020302020302020300A2020202D302E323038382020202D302E3339393020202020302E303030302043202020302020302020302020302020302020302020302020302020302020302020302020300A2020202D302E393233332020202D302E3831313520202020302E303030302043202020302020302020302020302020302020302020302020302020302020302020302020300A2020202D302E333339392020202D312E3339343820202020302E303030302043202020302020302020302020302020302020302020302020302020302020302020302020300A2020202D332E303636372020202D322E3034393020202020302E30303030204F202020302020302020302020302020302020302020302020302020302020302020302020300A20202020332E3036363720202020312E3633373120202020302E30303030204F202020302020302020302020302020302020302020302020302020302020302020302020300A20202020302E3837393520202020312E3833353420202020302E30303030204F202020302020302020302020302020302020302020302020302020302020302020302020300A2020202D302E3739323220202020302E3138343420202020302E303030302048202020302020302020302020302020302020302020302020302020302020302020302020300A20202020312E303839302020202D312E3339343820202020302E303030302048202020302020302020302020302020302020302020302020302020302020302020302020300A20202020312E343333372020202D312E3139353920202020302E303030302048202020302020302020302020302020302020302020302020302020302020302020302020300A2020312020322020312020302020202020200A2020322020332020312020302020202020200A2020312020342020312020302020202020200A2020342020352020322020302020202020200A2020352020362020312020302020202020200A2020362020372020312020302020202020200A2020372020382020312020302020202020200A2020382020392020312020302020202020200A2020392031302020312020302020202020200A2031302031312020312020302020202020200A2031312031322020312020302020202020200A2031322031332020312020312020202020200A2031332031342020312020302020202020200A2031322031352020312020302020202020200A2020392031352020312020302020202020200A2031352031362020312020312020202020200A2031352031372020312020302020202020200A2031372031382020312020302020202020200A2031382031392020312020302020202020200A2020382031392020312020302020202020200A2031392032302020312020302020202020200A2020332032302020312020302020202020200A2020352032302020312020302020202020200A2032302032312020312020312020202020200A2020312032322020322020302020202020200A2031332032332020322020302020202020200A2031342032342020312020302020202020200A2031392032352020312020362020202020200A2020382032362020312020312020202020200A2020392032372020312020362020202020200A4D2020454E44
Contributor: HASHIMOTO K, KYOTO COLLEGE OF PHARMACY
InstType: EI
InstName: HITACHI M-80
IoniMethod: _ENERGY 20 eV
IonPolarity: pos
Date: 2010-10-09 19:48:36+02:00
Num Peaks: 55
55 12 81 33 93 20 95 50 97 14 105 20 107 42 109 33 119 18 121 55 
122 18 123 59 124 18 131 16 133 45 135 85 136 11 137 29 143 11 145 49 
147 18 148 26 149 91 150 10 157 25 159 37 161 87 162 14 163 31 171 22 
173 22 175 40 177 10 187 16 189 12 197 17 201 12 213 10 215 19 225 12 
227 24 229 52 230 11 243 21 244 13 253 279 254 59 271 461 272 103 273 12 
299 999 300 214 301 40 315 13 330 22 
