Name: ISOBUTYRONITRILE
MW: 69
Formula: C4H7N
Synonym: MassBank: JP004002
Synonym: ISOBUTYRONITRILE
Structure: 310A31340A49534F42555459524F4E495452494C452E6D6F6C0A20204368656D447261773038313131303231313832440A2020352020342020302020302020302020302020302020302020302020303939392056323030300A2020202D302E3431323520202020302E3335373220202020302E303030302043202020302020302020302020302020302020302020302020302020302020302020302020300A20202020302E303030302020202D302E3335373220202020302E303030302043202020302020302020302020302020302020302020302020302020302020302020302020300A20202020302E383235302020202D302E3335373220202020302E303030302043202020302020302020302020302020302020302020302020302020302020302020302020300A2020202D302E343132352020202D312E3037313720202020302E303030302043202020302020302020302020302020302020302020302020302020302020302020302020300A2020202D302E3832353020202020312E3037313720202020302E30303030204E202020302020302020302020302020302020302020302020302020302020302020302020300A2020312020322020312020302020202020200A2020322020332020312020302020202020200A2020322020342020312020302020202020200A2020312020352020332020302020202020200A4D2020454E44
Contributor: MASS SPECTROSCOPY SOC. OF JAPAN (MSSJ)
InstType: EI
InstName: HITACHI RMU-6L
IoniMethod: _ENERGY 70 eV
IonPolarity: pos
Date: 2010-10-09 19:48:36+02:00
Num Peaks: 23
13 15 14 23 15 104 25 1 26 120 27 200 28 315 29 2 37 40 38 50 
39 133 40 6 41 122 42 999 43 35 51 4 52 90 53 90 54 230 55 1 
64 11 66 12 68 469 
