Name: MassBank: JP008018
MW: 290
Formula: C19H30O2
Synonym: MassBank: JP008018
Synonym: (2XI,4AS,5S,8AS)-(-)-2,5BETA-DIMETHYL-8ABETA-FORMYL-5ALPHA-(4-METHYL-3-PENTENYL)-3,4,4A,5,6,7,8,8A-OCTAHYDRONAPHTHALEN-1(2H)-ONE
Structure: 283258492C3441532C35532C384153292D282D292D322C35424554412D44494D455448594C2D3841424554412D464F524D594C2D35414C5048412D28342D4D455448594C2D332D50454E54454E594C292D332C342C34412C352C362C372C382C38412D4F435441485944524F4E4150485448414C454E2D31283248292D4F4E452E6D6F6C0A20204368656D447261773130323030393232333932440A2032322032332020302020302020302020302020302020302020302020303939392056323030300A20202020302E333032342020202D322E3631313120202020302E303030302043202020302020302020302020302020302020302020302020302020302020302020302020300A2020202D312E313236362020202D302E3936313220202020302E303030302043202020302020302020302020302020302020302020302020302020302020302020302020300A2020202D312E313236362020202D312E3738363120202020302E303030302043202020302020302020302020302020302020302020302020302020302020302020302020300A2020202D302E343132312020202D322E3139383620202020302E303030302043202020302020302020302020302020302020302020302020302020302020302020302020300A20202020302E333032342020202D312E3738363120202020302E303030302043202020302020302020302020302020302020302020302020302020302020302020302020300A20202020302E333032342020202D302E3936313220202020302E303030302043202020302020302020302020302020302020302020302020302020302020302020302020300A2020202D302E343132312020202D302E3534383720202020302E303030302043202020302020302020302020302020302020302020302020302020302020302020302020300A20202020312E303136382020202D322E3139383620202020302E303030302043202020302020302020302020302020302020302020302020302020302020302020302020300A20202020312E373331322020202D312E3738363120202020302E303030302043202020302020302020302020302020302020302020302020302020302020302020302020300A20202020312E373331322020202D302E3936313220202020302E303030302043202020302020302020302020302020302020302020302020302020302020302020302020300A20202020312E303136382020202D302E3534383720202020302E303030302043202020302020302020302020302020302020302020302020302020302020302020302020300A2020202D302E343132312020202D332E3032333620202020302E30303030204F202020302020302020302020302020302020302020302020302020302020302020302020300A20202020302E313539312020202D302E3134383720202020302E303030302048202020302020302020302020302020302020302020302020302020302020302020302020300A20202020302E3630343320202020302E3136353820202020302E303030302043202020302020302020302020302020302020302020302020302020302020302020302020300A20202020312E3031363820202020302E3838303320202020302E303030302043202020302020302020302020302020302020302020302020302020302020302020302020300A20202020302E3630343320202020312E3539343720202020302E303030302043202020302020302020302020302020302020302020302020302020302020302020302020300A20202020312E3031363820202020322E3330393120202020302E303030302043202020302020302020302020302020302020302020302020302020302020302020302020300A20202020302E3630343320202020332E3032333620202020302E303030302043202020302020302020302020302020302020302020302020302020302020302020302020300A20202020312E3834313720202020322E3330393120202020302E303030302043202020302020302020302020302020302020302020302020302020302020302020302020300A20202020312E303136392020202D332E3032333620202020302E30303030204F202020302020302020302020302020302020302020302020302020302020302020302020300A2020202D312E383431372020202D322E3139383120202020302E303030302043202020302020302020302020302020302020302020302020302020302020302020302020300A20202020312E3539383520202020302E3033363120202020302E303030302043202020302020302020302020302020302020302020302020302020302020302020302020300A2020322020332020312020302020202020200A2020332020342020312020302020202020200A2020342020352020312020302020202020200A2020352020362020312020302020202020200A2020362020372020312020302020202020200A2020372020322020312020302020202020200A2020352020382020312020302020202020200A2020382020392020312020302020202020200A2020392031302020312020302020202020200A2031302031312020312020302020202020200A2031312020362020312020302020202020200A2020342031322020322020302020202020200A2020362031332020312020362020202020200A2031312031342020312020362020202020200A2031342031352020312020302020202020200A2031352031362020312020302020202020200A2031362031372020322020302020202020200A2031372031382020312020302020202020200A2031372031392020312020302020202020200A2020352020312020312020312020202020200A2020312032302020322020302020202020200A2020332032312020312020302020202020200A2031312032322020312020312020202020200A4D202053545920203120202031205355500A4D2020534C4220203120202031202020310A4D202053414C20202031202031202032310A4D202053424C20202031202031202032320A4D2020534D5420202031204D650A4D2020534256202020312032322020202D372E3531393320202020372E333830350A4D202053545920203120202032205355500A4D2020534C4220203120202032202020320A4D202053414C20202032202031202032320A4D202053424C20202032202031202032330A4D2020534D5420202032204D650A4D2020534256202020322032332020202D362E3232323520202020382E333737330A4D2020454E44
Contributor: HISAHIRO HAGIWARA, CHEMICAL RESEARCH INSTITUTE OF NON-AQUEOUSSOLUTIONS TOHOKU UNIV.
InstType: EI
InstName: JEOL JMS-DX-300
IoniMethod: _ENERGY 70 eV
IonPolarity: pos
Date: 2010-10-09 19:48:36+02:00
Num Peaks: 49
40 999 43 352 44 260 55 299 57 392 69 542 70 266 71 296 81 338 82 179 
83 313 88 24 93 159 95 241 96 144 97 16 101 127 105 157 107 164 109 266 
110 115 111 116 112 144 113 158 119 106 121 275 122 121 123 157 125 140 133 115 
135 210 136 110 137 127 148 121 149 967 150 143 159 116 161 213 163 134 167 416 
177 199 178 462 179 239 189 102 207 240 261 191 262 166 279 200 290 207 
