Name: MassBank: JP005056
MW: 242
Formula: C16H22N2
Synonym: MassBank: JP005056
Synonym: 2-SEC-BUTYL-8-METHYL-1,2,3,4-TETRAHYDRO-GAMMA-CARBOLINE
Structure: 322D5345432D425554594C2D382D4D455448594C2D312C322C332C342D5445545241485944524F2D47414D4D412D434152424F4C494E452E6D6F6C0A20204368656D447261773032323131303136303232440A2031382032302020302020302020302020302020302020302020302020303939392056323030300A2020202D312E323132382020202D302E3330353520202020302E30303030204E202020302020302020302020302020302020302020302020302020302020302020302020300A2020202D312E323132382020202D312E3133303520202020302E303030302043202020302020302020302020302020302020302020302020302020302020302020302020300A2020202D302E343938332020202D312E3534333020202020302E303030302043202020302020302020302020302020302020302020302020302020302020302020302020300A20202020302E323136322020202D312E3133303520202020302E303030302043202020302020302020302020302020302020302020302020302020302020302020302020300A20202020302E323136322020202D302E3330353520202020302E303030302043202020302020302020302020302020302020302020302020302020302020302020302020300A2020202D302E3439383320202020302E3130373020202020302E303030302043202020302020302020302020302020302020302020302020302020302020302020302020300A20202020312E303030382020202D312E3338353520202020302E30303030204E202020302020302020302020302020302020302020302020302020302020302020302020300A20202020312E343835372020202D302E3731383020202020302E303030302043202020302020302020302020302020302020302020302020302020302020302020302020300A20202020312E303030382020202D302E3035303620202020302E303030302043202020302020302020302020302020302020302020302020302020302020302020302020300A20202020322E333036322020202D302E3633313820202020302E303030302043202020302020302020302020302020302020302020302020302020302020302020302020300A20202020322E3634313720202020302E3132313920202020302E303030302043202020302020302020302020302020302020302020302020302020302020302020302020300A20202020322E3135363820202020302E3738393320202020302E303030302043202020302020302020302020302020302020302020302020302020302020302020302020300A20202020312E3333363320202020302E3730333120202020302E303030302043202020302020302020302020302020302020302020302020302020302020302020302020300A20202020322E3439323420202020312E3534333020202020302E303030302043202020302020302020302020302020302020302020302020302020302020302020302020300A2020202D312E3932373320202020302E3130373020202020302E303030302043202020302020302020302020302020302020302020302020302020302020302020302020300A2020202D312E3932373320202020302E3933323020202020302E303030302043202020302020302020302020302020302020302020302020302020302020302020302020300A2020202D322E363431372020202D302E3330353520202020302E303030302043202020302020302020302020302020302020302020302020302020302020302020302020300A2020202D322E363431372020202D312E3133303520202020302E303030302043202020302020302020302020302020302020302020302020302020302020302020302020300A2020312020322020312020302020202020200A2020322020332020312020302020202020200A2020332020342020312020302020202020200A2020342020352020322020302020202020200A2020352020362020312020302020202020200A2020362020312020312020302020202020200A2020342020372020312020302020202020200A2020372020382020312020302020202020200A2020382020392020322020302020202020200A2020392020352020312020302020202020200A2020382031302020312020302020202020200A2031302031312020322020302020202020200A2031312031322020312020302020202020200A2031322031332020322020302020202020200A2031332020392020312020302020202020200A2031322031342020312020302020202020200A2020312031352020312020302020202020200A2031352031362020312020302020202020200A2031352031372020312020302020202020200A2031372031382020312020302020202020200A4D2020454E44
Contributor: SASAKI S, TOYOHASHI UNIV. OF TECH.
InstType: EI
InstName: Unknown
IoniMethod: _ENERGY 75 eV
IonPolarity: pos
Date: 2010-10-09 19:48:36+02:00
Num Peaks: 19
42 32 43 12 44 11 56 20 57 16 77 12 115 26 128 1 154 17 155 13 
156 128 157 999 158 150 170 16 185 21 213 15 227 13 241 28 242 100 
