Name: MassBank: JP002086
MW: 218
Formula: C15H22O
Synonym: MassBank: JP002086
Synonym: EUDESMA-4(14),7(11)-DIEN-8-ONE
Synonym: 4-ISOPROPYLIDENE-1-METHYL-7-METHYLENE-TRANS-DECALIN-3-ONE
Structure: 45554445534D412D34283134292C37283131292D4449454E2D382D4F4E452E6D6F6C0A20204368656D447261773034323031303131313632440A2031372031382020302020302020302020302020302020302020302020303939392056323030300A20202020312E343238392020202D312E3033313320202020302E303030302043202020302020302020302020302020302020302020302020302020302020302020302020300A20202020322E313433342020202D302E3631383720202020302E303030302043202020302020302020302020302020302020302020302020302020302020302020302020300A20202020322E3134333420202020302E3230363220202020302E303030302043202020302020302020302020302020302020302020302020302020302020302020302020300A20202020312E3432383920202020302E3631383820202020302E303030302043202020302020302020302020302020302020302020302020302020302020302020302020300A20202020302E3731343520202020302E3230363320202020302E303030302043202020302020302020302020302020302020302020302020302020302020302020302020300A2020202D302E3030303020202020302E3631383820202020302E303030302043202020302020302020302020302020302020302020302020302020302020302020302020300A2020202D302E3731343520202020302E3230363320202020302E303030302043202020302020302020302020302020302020302020302020302020302020302020302020300A2020202D302E373134352020202D302E3631383720202020302E303030302043202020302020302020302020302020302020302020302020302020302020302020302020300A20202020302E303030302020202D312E3033313320202020302E303030302043202020302020302020302020302020302020302020302020302020302020302020302020300A20202020302E373134352020202D302E3631383820202020302E303030302043202020302020302020302020302020302020302020302020302020302020302020302020300A2020202D312E343238392020202D312E3033313220202020302E30303030204F202020302020302020302020302020302020302020302020302020302020302020302020300A20202020312E3432383920202020312E3434333820202020302E303030302043202020302020302020302020302020302020302020302020302020302020302020302020300A20202020302E3731343520202020312E3033313320202020302E303030302048202020302020302020302020302020302020302020302020302020302020302020302020300A20202020302E373134352020202D312E3434333820202020302E303030302043202020302020302020302020302020302020302020302020302020302020302020302020300A2020202D312E3432383920202020302E3631383820202020302E303030302043202020302020302020302020302020302020302020302020302020302020302020302020300A2020202D312E3432383920202020312E3434333820202020302E303030302043202020302020302020302020302020302020302020302020302020302020302020302020300A2020202D322E3134333420202020302E3230363320202020302E303030302043202020302020302020302020302020302020302020302020302020302020302020302020300A2020312020322020312020302020202020200A2020322020332020312020302020202020200A2020332020342020312020302020202020200A2020342020352020312020302020202020200A2020352020362020312020302020202020200A2020362020372020312020302020202020200A2020372020382020312020302020202020200A2020382020392020312020302020202020200A2020392031302020312020302020202020200A2020312031302020312020302020202020200A2020352031302020312020302020202020200A2020382031312020322020302020202020200A2020342031322020322020302020202020200A2020352031332020312020362020202020200A2031302031342020312020312020202020200A2020372031352020322020302020202020200A2031352031362020312020302020202020200A2031352031372020312020302020202020200A4D2020454E44
Contributor: ENDO K, PHARMACEUTICAL INST., TOHOKU UNIV.
InstType: EI
InstName: HITACHI RMU-7
IoniMethod: _ENERGY 60 eV
IonPolarity: pos
Date: 2010-10-09 19:48:36+02:00
Num Peaks: 117
15 75 17 32 18 129 26 4 27 204 28 312 29 398 32 8 36 22 38 22 
39 495 40 13 41 999 42 108 43 452 44 5 45 32 50 22 51 97 52 4 
53 344 54 75 55 495 56 5 57 65 58 86 59 22 63 3 64 32 65 215 
66 75 67 53 68 226 69 194 70 54 71 4 77 323 78 97 79 495 80 14 
81 237 82 86 83 86 84 2 91 538 92 118 93 452 94 9 95 280 96 129 
97 54 98 2 99 22 103 54 104 22 105 30 106 86 107 344 108 290 109 14 
110 32 111 22 115 54 116 3 117 75 118 43 119 237 120 8 121 247 122 129 
123 75 124 2 127 22 128 32 129 43 131 9 132 22 133 376 134 108 135 24 
137 65 141 108 142 22 144 2 145 65 146 43 147 355 148 12 149 183 150 43 
151 22 155 4 157 22 159 65 160 22 161 16 162 108 163 54 164 22 167 2 
169 22 173 22 174 22 175 20 176 54 177 32 179 22 185 2 189 32 190 43 
203 118 204 2 216 32 218 914 219 118 220 2 136 86 
