Name: MassBank: JP004344
MW: 208
Formula: C13H24N2
Synonym: MassBank: JP004344
Synonym: 3,5-DIMETHYL-1-OCTYLPYRAZOLE
Structure: 332C352D44494D455448594C2D312D4F4354594C505952415A4F4C452E6D6F6C0A20204368656D447261773032323231303031313832440A2031352031352020302020302020302020302020302020302020302020303939392056323030300A2020202D312E3739343820202020302E3438303020202020302E30303030204E202020302020302020302020302020302020302020302020302020302020302020302020300A2020202D322E3534383520202020302E3831353620202020302E30303030204E202020302020302020302020302020302020302020302020302020302020302020302020300A2020202D332E3130303520202020302E3230323520202020302E303030302043202020302020302020302020302020302020302020302020302020302020302020302020300A2020202D322E363838302020202D302E3531323020202020302E303030302043202020302020302020302020302020302020302020302020302020302020302020302020300A2020202D312E383831302020202D302E3334303520202020302E303030302043202020302020302020302020302020302020302020302020302020302020302020302020300A2020202D312E3038303320202020302E3839323520202020302E303030302043202020302020302020302020302020302020302020302020302020302020302020302020300A2020202D302E3336353820202020302E3438303020202020302E303030302043202020302020302020302020302020302020302020302020302020302020302020302020300A20202020302E3334383620202020302E3839323520202020302E303030302043202020302020302020302020302020302020302020302020302020302020302020302020300A20202020312E3036333120202020302E3438303020202020302E303030302043202020302020302020302020302020302020302020302020302020302020302020302020300A20202020312E3737373620202020302E3839323520202020302E303030302043202020302020302020302020302020302020302020302020302020302020302020302020300A20202020322E3439323020202020302E3438303020202020302E303030302043202020302020302020302020302020302020302020302020302020302020302020302020300A20202020332E3230363520202020302E3839323520202020302E303030302043202020302020302020302020302020302020302020302020302020302020302020302020300A20202020332E3932313020202020302E3438303020202020302E303030302043202020302020302020302020302020302020302020302020302020302020302020302020300A2020202D312E323637392020202D302E3839323520202020302E303030302043202020302020302020302020302020302020302020302020302020302020302020302020300A2020202D332E3932313020202020302E3238383720202020302E303030302043202020302020302020302020302020302020302020302020302020302020302020302020300A2020312020322020312020302020202020200A2020322020332020322020302020202020200A2020332020342020312020302020202020200A2020342020352020322020302020202020200A2020312020352020312020302020202020200A2020362020372020312020302020202020200A2020372020382020312020302020202020200A2020382020392020312020302020202020200A2020392031302020312020302020202020200A2031302031312020312020302020202020200A2031312031322020312020302020202020200A2031322031332020312020302020202020200A2020312020362020312020302020202020200A2020352031342020312020302020202020200A2020332031352020312020302020202020200A4D2020454E44
Contributor: SASAKI S, TOYOHASHI UNIV. OF TECH.
InstType: EI
InstName: MX-1303
IoniMethod: _ENERGY 50 eV
IonPolarity: pos
Date: 2010-10-09 19:48:36+02:00
Num Peaks: 48
26 19 27 90 28 163 29 11 39 98 40 32 41 292 42 15 43 75 52 11 
53 38 54 4 55 148 56 48 57 20 65 2 66 21 67 33 68 54 69 8 
70 14 79 17 80 22 81 3 82 30 83 16 94 10 95 12 96 435 97 197 
98 13 108 3 109 999 110 244 111 19 123 5 124 82 137 41 138 13 151 19 
152 25 165 166 166 24 179 5 193 37 207 19 208 134 209 23 
