Name: 2-ISOPROPYLPYRROLIDINE
MW: 113
Formula: C7H15N
Synonym: MassBank: JP002008
Synonym: 2-ISOPROPYLPYRROLIDINE
Structure: 310A32310A322D49534F50524F50594C505952524F4C4944494E452E6D6F6C0A20204368656D447261773031323231303031353532440A2020382020382020302020302020302020302020302020302020302020303939392056323030300A20202020302E363637342020202D302E3436383920202020302E30303030204E202020302020302020302020302020302020302020302020302020302020302020302020300A2020202D302E3030303020202020302E3031363020202020302E303030302043202020302020302020302020302020302020302020302020302020302020302020302020300A2020202D302E363637342020202D302E3436383920202020302E303030302043202020302020302020302020302020302020302020302020302020302020302020302020300A2020202D302E343132352020202D312E3235333520202020302E303030302043202020302020302020302020302020302020302020302020302020302020302020302020300A20202020302E343132352020202D312E3235333520202020302E303030302043202020302020302020302020302020302020302020302020302020302020302020302020300A2020202D302E3030303020202020302E3834313020202020302E303030302043202020302020302020302020302020302020302020302020302020302020302020302020300A20202020302E3731343520202020312E3235333520202020302E303030302043202020302020302020302020302020302020302020302020302020302020302020302020300A2020202D302E3731343520202020312E3235333520202020302E303030302043202020302020302020302020302020302020302020302020302020302020302020302020300A2020312020322020312020302020202020200A2020322020332020312020302020202020200A2020332020342020312020302020202020200A2020342020352020312020302020202020200A2020312020352020312020302020202020200A2020362020372020312020302020202020200A2020362020382020312020302020202020200A2020322020362020312020302020202020200A4D2020454E44
Contributor: SASAKI S, TOYOHASHI UNIV. OF TECH.
InstType: EI
InstName: MX-1303
IoniMethod: _ENERGY 50 eV
IonPolarity: pos
Date: 2010-10-09 19:48:36+02:00
Num Peaks: 57
26 56 27 265 29 169 30 15 31 21 38 19 39 193 40 7 41 529 42 471 
43 294 45 2 51 18 52 24 53 58 54 9 55 261 56 196 57 153 58 15 
59 24 65 22 66 14 67 6 68 185 69 316 70 706 71 7 72 41 77 14 
78 17 79 2 80 86 81 38 82 107 83 12 84 218 85 112 86 24 87 3 
93 16 94 67 95 17 96 23 97 27 98 999 99 74 100 2 106 11 108 78 
109 77 110 13 111 251 112 316 113 882 114 8 115 12 
