Name: 4-ETHYL-5-METHYLTHIAZOLE
CAS: 52414-91-2
MW: 127
Formula: C6H9NS
Synonym: MassBank: JP007793
Synonym: 4-ETHYL-5-METHYLTHIAZOLE
Structure: 310A32310A342D455448594C2D352D4D455448594C544849415A4F4C452E6D6F6C0A20204368656D447261773033323531303232303132440A2020382020382020302020302020302020302020302020302020302020303939392056323030300A20202020312E3235333520202020302E3034333720202020302E303030302053202020302020302020302020302020302020302020302020302020302020302020302020300A20202020312E323533352020202D302E3738313320202020302E303030302043202020302020302020302020302020302020302020302020302020302020302020302020300A20202020302E343638392020202D312E3033363220202020302E30303030204E202020302020302020302020302020302020302020302020302020302020302020302020300A2020202D302E303136302020202D302E3336383820202020302E303030302043202020302020302020302020302020302020302020302020302020302020302020302020300A20202020302E3436383920202020302E3239383620202020302E303030302043202020302020302020302020302020302020302020302020302020302020302020302020300A20202020302E3231343020202020312E3038333320202020302E303030302043202020302020302020302020302020302020302020302020302020302020302020302020300A2020202D302E383431302020202D302E3336383820202020302E303030302043202020302020302020302020302020302020302020302020302020302020302020302020300A2020202D312E323533352020202D312E3038333320202020302E303030302043202020302020302020302020302020302020302020302020302020302020302020302020300A2020312020322020312020302020202020200A2020322020332020322020302020202020200A2020332020342020312020302020202020200A2020342020352020322020302020202020200A2020312020352020312020302020202020200A2020352020362020312020302020202020200A2020372020382020312020302020202020200A2020342020372020312020302020202020200A4D2020454E44
Contributor: HASHIMOTO K, KYOTO COLLEGE OF PHARMACY
InstType: EI
InstName: HITACHI M-80
IoniMethod: _ENERGY 20 eV
IonPolarity: pos
Date: 2010-10-09 19:48:36+02:00
Num Peaks: 43
27 11 29 33 39 40 41 200 42 30 45 330 46 10 47 20 53 31 54 31 
55 40 56 10 58 30 59 311 60 19 61 10 64 30 65 106 66 52 67 140 
68 40 71 73 72 180 73 20 74 11 84 20 85 782 86 80 87 70 98 51 
99 460 100 80 101 20 112 812 113 133 114 111 124 10 125 101 126 869 127 999 
128 351 129 202 130 10 
