Name: O-PENTYLHYDROXYLAMINE
MW: 103
Formula: C5H13NO
Synonym: MassBank: JP003720
Synonym: O-PENTYLHYDROXYLAMINE
Structure: 310A31380A4F2D50454E54594C485944524F58594C414D494E452E6D6F6C0A20204368656D447261773038313231303033313132440A2020372020362020302020302020302020302020302020302020302020303939392056323030300A2020202D322E313433342020202D302E3230363320202020302E30303030204E202020302020302020302020302020302020302020302020302020302020302020302020300A2020202D312E3432383920202020302E3230363320202020302E30303030204F202020302020302020302020302020302020302020302020302020302020302020302020300A2020202D302E373134352020202D302E3230363320202020302E303030302043202020302020302020302020302020302020302020302020302020302020302020302020300A20202020302E3030303020202020302E3230363320202020302E303030302043202020302020302020302020302020302020302020302020302020302020302020302020300A20202020302E373134352020202D302E3230363220202020302E303030302043202020302020302020302020302020302020302020302020302020302020302020302020300A20202020312E3432383920202020302E3230363320202020302E303030302043202020302020302020302020302020302020302020302020302020302020302020302020300A20202020322E313433342020202D302E3230363220202020302E303030302043202020302020302020302020302020302020302020302020302020302020302020302020300A2020312020322020312020302020202020200A2020332020342020312020302020202020200A2020342020352020312020302020202020200A2020352020362020312020302020202020200A2020362020372020312020302020202020200A2020322020332020312020302020202020200A4D2020454E44
Contributor: SASAKI S, TOYOHASHI UNIV. OF TECH.
InstType: EI
InstName: Unknown
IoniMethod: EI
IonPolarity: pos
Date: 2010-10-09 19:48:36+02:00
Num Peaks: 19
38 164 39 117 41 391 42 30 43 999 44 195 45 39 46 4 53 23 55 273 
56 59 57 6 58 70 69 23 70 195 71 3 72 16 86 8 103 12 
