Name: 8-(2-NAPHTHYL)MENTHOL
MW: 282
Formula: C20H26O
Synonym: MassBank: JP008841
Synonym: 8-(2-NAPHTHYL)MENTHOL
Structure: 382D28322D4E4150485448594C294D454E54484F4C2E6D6F6C0A20204368656D447261773035323431303138353632440A2032312032332020302020302020302020302020302020302020302020303939392056323030300A20202020312E3337333720202020302E3832353020202020302E303030302043202020302020302020302020302020302020302020302020302020302020302020302020300A20202020302E3936313220202020302E3131303520202020302E303030302043202020302020302020302020302020302020302020302020302020302020302020302020300A20202020302E3133363220202020302E3131303520202020302E303030302043202020302020302020302020302020302020302020302020302020302020302020302020300A2020202D302E3237363320202020302E3832353020202020302E303030302043202020302020302020302020302020302020302020302020302020302020302020302020300A20202020302E3133363220202020312E3533393520202020302E303030302043202020302020302020302020302020302020302020302020302020302020302020302020300A20202020302E3936313220202020312E3533393520202020302E303030302043202020302020302020302020302020302020302020302020302020302020302020302020300A2020202D302E3237363320202020322E3235333920202020302E303030302043202020302020302020302020302020302020302020302020302020302020302020302020300A20202020312E333733372020202D302E3630333920202020302E303030302043202020302020302020302020302020302020302020302020302020302020302020302020300A20202020322E303838312020202D302E3139313420202020302E303030302043202020302020302020302020302020302020302020302020302020302020302020302020300A20202020312E373836322020202D312E3331383420202020302E303030302043202020302020302020302020302020302020302020302020302020302020302020302020300A2020202D302E303535332020202D302E3630333920202020302E303030302043202020302020302020302020302020302020302020302020302020302020302020302020300A20202020302E363539322020202D312E3031363420202020302E303030302043202020302020302020302020302020302020302020302020302020302020302020302020300A20202020302E363539322020202D312E3834313420202020302E303030302043202020302020302020302020302020302020302020302020302020302020302020302020300A2020202D302E303535332020202D322E3235333920202020302E303030302043202020302020302020302020302020302020302020302020302020302020302020302020300A2020202D302E373639372020202D312E3834313420202020302E303030302043202020302020302020302020302020302020302020302020302020302020302020302020300A2020202D312E343834322020202D322E3235333920202020302E303030302043202020302020302020302020302020302020302020302020302020302020302020302020300A2020202D322E313938372020202D312E3834313420202020302E303030302043202020302020302020302020302020302020302020302020302020302020302020302020300A2020202D322E313938372020202D312E3031363420202020302E303030302043202020302020302020302020302020302020302020302020302020302020302020302020300A2020202D312E343834322020202D302E3630333920202020302E303030302043202020302020302020302020302020302020302020302020302020302020302020302020300A2020202D302E373639372020202D312E3031363420202020302E303030302043202020302020302020302020302020302020302020302020302020302020302020302020300A20202020322E3139383720202020302E3832353020202020302E30303030204F202020302020302020302020302020302020302020302020302020302020302020302020300A2020312020322020312020302020202020200A2020322020332020312020302020202020200A2020332020342020312020302020202020200A2020342020352020312020302020202020200A2020352020362020312020302020202020200A2020312020362020312020302020202020200A2020352020372020312020302020202020200A2020382020392020312020302020202020200A2020382031302020312020302020202020200A2020322020382020312020302020202020200A2031312031322020312020302020202020200A2031322031332020322020302020202020200A2031332031342020312020302020202020200A2031342031352020322020302020202020200A2031352031362020312020302020202020200A2031362031372020322020302020202020200A2031372031382020312020302020202020200A2031382031392020322020302020202020200A2031392032302020312020302020202020200A2031312032302020322020302020202020200A2031352032302020312020302020202020200A2020382031322020312020302020202020200A2020312032312020312020302020202020200A4D2020454E44
Contributor: HISAHIRO HAGIWARA, CHEMICAL RESEARCH INSTITUTE OF NON-AQUEOUSSOLUTIONS TOHOKU UNIV.
InstType: EI
InstName: JEOL JMS-DX-300
IoniMethod: _ENERGY 70 eV
IonPolarity: pos
Date: 2010-10-09 19:48:36+02:00
Num Peaks: 46
37 16 38 14 39 33 40 32 41 30 42 42 43 999 44 36 45 26 58 458 
59 28 67 42 69 23 71 10 77 11 81 22 82 96 91 11 95 35 107 15 
109 33 124 14 126 13 127 19 128 41 129 32 134 12 141 198 142 12 148 19 
150 43 152 19 153 49 155 54 156 18 164 15 168 102 170 580 171 42 178 12 
182 11 264 15 280 31 281 13 282 54 283 18 
