Name: ORTHO-METHYLPHENOL
MW: 108
Formula: C7H8O
Synonym: MassBank: JP004014
Synonym: ORTHO-METHYLPHENOL
Structure: 310A32310A4F5254484F2D4D455448594C5048454E4F4C2E6D6F6C0A20204368656D447261773038313231303033343132440A2020382020382020302020302020302020302020302020302020302020303939392056323030300A2020202D302E343132352020202D302E3335373220202020302E303030302043202020302020302020302020302020302020302020302020302020302020302020302020300A20202020302E3030303020202020302E3335373220202020302E303030302043202020302020302020302020302020302020302020302020302020302020302020302020300A20202020302E3832353020202020302E3335373220202020302E303030302043202020302020302020302020302020302020302020302020302020302020302020302020300A20202020312E323337352020202D302E3335373220202020302E303030302043202020302020302020302020302020302020302020302020302020302020302020302020300A20202020302E383235302020202D312E3037313720202020302E303030302043202020302020302020302020302020302020302020302020302020302020302020302020300A20202020302E303030302020202D312E3037313720202020302E303030302043202020302020302020302020302020302020302020302020302020302020302020302020300A2020202D302E3431323520202020312E3037313720202020302E303030302043202020302020302020302020302020302020302020302020302020302020302020302020300A2020202D312E323337352020202D302E3335373220202020302E30303030204F202020302020302020302020302020302020302020302020302020302020302020302020300A2020312020322020312020302020202020200A2020322020332020322020302020202020200A2020332020342020312020302020202020200A2020342020352020322020302020202020200A2020352020362020312020302020202020200A2020312020362020322020302020202020200A2020322020372020312020302020202020200A2020312020382020312020302020202020200A4D2020454E44
Contributor: MASS SPECTROSCOPY SOC. OF JAPAN (MSSJ)
InstType: EI
InstName: HITACHI RMU-6L
IoniMethod: _ENERGY 70 eV
IonPolarity: pos
Date: 2010-10-09 19:48:36+02:00
Num Peaks: 42
29 130 31 15 32 11 36 3 37 130 38 191 39 422 40 6 41 31 42 20 
43 38 48 2 49 50 50 242 51 322 52 14 53 226 54 65 55 53 61 4 
62 62 63 139 64 79 65 7 66 62 67 13 68 39 73 2 74 41 75 45 
76 19 77 46 78 140 79 420 80 188 81 4 89 142 90 280 91 88 107 89 
108 999 109 67 
