Name: MassBank: JP004629
MW: 148
Formula: C10H12O
Synonym: MassBank: JP004629
Synonym: 4-METHYLBICYCLO(3.2.2)NONA-3,6-DIEN-2-ONE
Structure: 342D4D455448594C42494359434C4F28332E322E32294E4F4E412D332C362D4449454E2D322D4F4E452E6D6F6C0A20204368656D447261773034323231303133313532440A2031312031322020302020302020302020302020302020302020302020303939392056323030300A2020202D312E333437332020202D302E3134313020202020302E303030302043202020302020302020302020302020302020302020302020302020302020302020302020300A2020202D302E3838333220202020302E3636323820202020302E303030302043202020302020302020302020302020302020302020302020302020302020302020302020300A20202020302E3035333320202020302E3636323820202020302E303030302043202020302020302020302020302020302020302020302020302020302020302020302020300A20202020302E353232302020202D302E3134393020202020302E303030302043202020302020302020302020302020302020302020302020302020302020302020302020300A20202020302E303538312020202D302E3935323520202020302E303030302043202020302020302020302020302020302020302020302020302020302020302020302020300A20202020302E303538312020202D302E3133363120202020302E303030302043202020302020302020302020302020302020302020302020302020302020302020302020300A2020202D302E3634353020202020302E3236393820202020302E303030302043202020302020302020302020302020302020302020302020302020302020302020302020300A2020202D312E333437332020202D302E3936313120202020302E303030302043202020302020302020302020302020302020302020302020302020302020302020302020300A2020202D302E363339302020202D312E3337303020202020302E303030302043202020302020302020302020302020302020302020302020302020302020302020302020300A2020202D312E3239313520202020312E3337303020202020302E30303030204F202020302020302020302020302020302020302020302020302020302020302020302020300A20202020312E333437332020202D302E3134393020202020302E303030302043202020302020302020302020302020302020302020302020302020302020302020302020300A2020312020322020312020302020202020200A2020322020332020312020302020202020200A2020332020342020322020302020202020200A2020342020352020312020302020202020200A2020352020362020312020302020202020200A2020362020372020322020302020202020200A2020382020392020312020302020202020200A2020312020372020312020302020202020200A2020312020382020312020302020202020200A2020352020392020312020302020202020200A2020322031302020322020302020202020200A2020342031312020312020302020202020200A4D2020454E44
Contributor: KATO T, DEPT. OF CHEM., FAC. OF SCI., TOHOKU UNIV.
InstType: EI
InstName: HITACHI M-52
IoniMethod: _ENERGY 14 eV
IonPolarity: pos
Date: 2010-10-09 19:48:36+02:00
Num Peaks: 18
69 34 78 35 80 32 89 4 90 92 105 228 106 129 115 7 119 51 120 39 
129 38 130 27 131 35 133 868 134 74 147 11 148 999 149 180 
