Name: MassBank: JP008093
MW: 371
Formula: C24H37NO2
Synonym: MassBank: JP008093
Synonym: 3-PYRIDYLMETHYL OCTADECA-9,12-DIENOATE
Synonym: LINOLEIC ACID PICOLINYL ESTER
Structure: 332D5059524944594C4D455448594C204F435441444543412D392C31322D4449454E4F4154452E6D6F6C0A20204368656D447261773033323331303136343232440A2032372032372020302020302020302020302020302020302020302020303939392056323030300A20202020312E343238392020202D312E3434333720202020302E303030302043202020302020302020302020302020302020302020302020302020302020302020302020300A20202020312E343238392020202D322E3236383720202020302E303030302043202020302020302020302020302020302020302020302020302020302020302020302020300A20202020302E373134352020202D322E3638313220202020302E303030302043202020302020302020302020302020302020302020302020302020302020302020302020300A2020202D302E303030302020202D322E3236383720202020302E303030302043202020302020302020302020302020302020302020302020302020302020302020302020300A2020202D302E373134352020202D322E3638313220202020302E303030302043202020302020302020302020302020302020302020302020302020302020302020302020300A2020202D312E343238392020202D322E3236383720202020302E303030302043202020302020302020302020302020302020302020302020302020302020302020302020300A2020202D322E313433342020202D322E3638313220202020302E303030302043202020302020302020302020302020302020302020302020302020302020302020302020300A2020202D322E383537392020202D322E3236383720202020302E303030302043202020302020302020302020302020302020302020302020302020302020302020302020300A2020202D332E353732342020202D322E3638313220202020302E303030302043202020302020302020302020302020302020302020302020302020302020302020302020300A2020202D342E323836382020202D322E3236383820202020302E303030302043202020302020302020302020302020302020302020302020302020302020302020302020300A2020202D342E323836382020202D312E3434333820202020302E303030302043202020302020302020302020302020302020302020302020302020302020302020302020300A2020202D352E303031332020202D312E3033313320202020302E303030302043202020302020302020302020302020302020302020302020302020302020302020302020300A2020202D352E303031332020202D302E3230363320202020302E303030302043202020302020302020302020302020302020302020302020302020302020302020302020300A2020202D342E3238363820202020302E3230363320202020302E303030302043202020302020302020302020302020302020302020302020302020302020302020302020300A2020202D342E3238363820202020312E3033313220202020302E303030302043202020302020302020302020302020302020302020302020302020302020302020302020300A2020202D332E3537323420202020312E3434333720202020302E303030302043202020302020302020302020302020302020302020302020302020302020302020302020300A2020202D332E3537323420202020322E3236383720202020302E303030302043202020302020302020302020302020302020302020302020302020302020302020302020300A2020202D322E3835373920202020322E3638313220202020302E303030302043202020302020302020302020302020302020302020302020302020302020302020302020300A20202020302E373134352020202D312E3033313220202020302E30303030204F202020302020302020302020302020302020302020302020302020302020302020302020300A20202020322E313433342020202D312E3033313220202020302E30303030204F202020302020302020302020302020302020302020302020302020302020302020302020300A20202020322E383537392020202D312E3434333720202020302E303030302043202020302020302020302020302020302020302020302020302020302020302020302020300A20202020342E323836382020202D312E3434333720202020302E303030302043202020302020302020302020302020302020302020302020302020302020302020302020300A20202020332E353732342020202D312E3033313220202020302E303030302043202020302020302020302020302020302020302020302020302020302020302020302020300A20202020332E353732342020202D302E3230363220202020302E303030302043202020302020302020302020302020302020302020302020302020302020302020302020300A20202020342E3238363820202020302E3230363320202020302E303030302043202020302020302020302020302020302020302020302020302020302020302020302020300A20202020352E303031332020202D302E3230363220202020302E303030302043202020302020302020302020302020302020302020302020302020302020302020302020300A20202020352E303031332020202D312E3033313220202020302E30303030204E202020302020302020302020302020302020302020302020302020302020302020302020300A2020312020322020312020302020202020200A2020322020332020312020302020202020200A2020332020342020312020302020202020200A2020342020352020312020302020202020200A2020352020362020312020302020202020200A2020362020372020312020302020202020200A2020372020382020312020302020202020200A2020382020392020312020302020202020200A2020392031302020322020302020202020200A2031302031312020312020302020202020200A2031312031322020312020302020202020200A2031322031332020322020302020202020200A2031332031342020312020302020202020200A2031342031352020312020302020202020200A2031352031362020312020302020202020200A2031362031372020312020302020202020200A2031372031382020312020302020202020200A2020312031392020322020302020202020200A2020312032302020312020302020202020200A2032322032332020312020302020202020200A2032332032342020322020302020202020200A2032342032352020312020302020202020200A2032352032362020322020302020202020200A2032362032372020312020302020202020200A2032322032372020322020302020202020200A2032312032332020312020302020202020200A2032302032312020312020302020202020200A4D2020454E44
Contributor: YAMAMOTO M, DEP. CHEMISTRY, FAC. SCIENCE, NARA WOMEN'S UNIV.
InstType: EI
InstName: JEOL JMS-HX-100
IoniMethod: _ENERGY 70 eV
IonPolarity: pos
Date: 2010-10-09 19:48:36+02:00
Num Peaks: 236
35 3 37 5 38 5 39 77 40 6 41 235 42 24 43 100 44 18 45 0 
50 3 51 13 52 12 53 47 54 108 55 274 56 33 57 38 58 2 59 3 
60 3 63 12 64 18 65 138 66 30 67 358 68 65 69 132 70 15 71 10 
73 2 74 1 75 3 76 0 77 40 78 24 79 143 80 92 81 252 82 42 
83 51 84 6 85 6 87 2 89 2 91 81 92 999 93 420 94 65 95 155 
96 6 97 28 98 9 99 1 101 7 104 1 105 13 106 17 107 34 108 559 
109 232 110 85 111 13 112 2 113 2 115 1 116 5 117 8 118 13 119 10 
120 11 121 34 122 9 123 23 124 10 125 2 127 6 129 2 130 9 131 8 
132 8 133 5 134 9 135 21 136 12 137 27 138 8 139 6 141 6 143 5 
144 7 145 6 146 5 147 6 148 18 149 11 150 8 151 208 152 28 153 8 
157 4 158 7 159 8 160 8 161 8 162 7 163 5 164 607 165 90 166 10 
167 8 170 8 171 5 172 10 173 9 174 5 175 5 178 122 179 21 180 5 
181 9 184 6 185 6 186 9 188 8 189 3 190 25 192 40 193 4 194 1 
195 7 200 6 202 8 203 5 204 42 205 10 206 104 207 32 208 1 209 2 
210 1 211 2 214 5 216 8 218 12 219 9 220 121 221 30 222 8 228 5 
230 7 232 10 233 10 234 53 235 14 236 5 242 7 243 6 244 12 245 7 
246 23 247 58 248 37 249 4 250 2 251 3 256 10 258 16 259 9 260 185 
261 107 262 42 263 13 264 6 266 0 267 3 268 2 269 4 270 5 272 29 
273 19 274 207 275 70 276 18 277 5 278 5 279 32 280 10 281 10 283 4 
286 41 287 13 288 95 289 26 290 6 295 3 296 12 297 5 298 6 299 5 
300 88 301 32 302 31 303 9 304 6 310 7 313 3 314 185 315 61 316 44 
317 11 325 2 327 1 328 139 329 38 330 31 331 7 341 2 342 45 343 14 
344 17 345 8 355 3 356 8 357 2 358 6 366 5 367 1 368 3 369 13 
370 90 371 832 372 238 373 146 374 38 375 6 
