Name: GLYCEROL-1-(O-TOLYL) ETHER
MW: 182
Formula: C10H14O3
Synonym: MassBank: JP003815
Synonym: GLYCEROL-1-(O-TOLYL) ETHER
Synonym: MEPHENESIN
Structure: 474C594345524F4C2D312D284F2D544F4C594C292045544845522E6D6F6C0A20204368656D447261773038313131303139353332440A2031332031332020302020302020302020302020302020302020302020303939392056323030300A20202020302E3030303020202020302E3431323520202020302E30303030204F202020302020302020302020302020302020302020302020302020302020302020302020300A2020202D302E3731343520202020302E3030303020202020302E303030302043202020302020302020302020302020302020302020302020302020302020302020302020300A2020202D312E3432383920202020302E3431323520202020302E303030302043202020302020302020302020302020302020302020302020302020302020302020302020300A2020202D312E3432383920202020312E3233373520202020302E30303030204F202020302020302020302020302020302020302020302020302020302020302020302020300A2020202D322E3134333420202020302E3030303020202020302E303030302043202020302020302020302020302020302020302020302020302020302020302020302020300A2020202D322E313433342020202D302E3832353020202020302E30303030204F202020302020302020302020302020302020302020302020302020302020302020302020300A20202020302E3731343520202020302E3030303020202020302E303030302043202020302020302020302020302020302020302020302020302020302020302020302020300A20202020312E3432383920202020302E3431323520202020302E303030302043202020302020302020302020302020302020302020302020302020302020302020302020300A20202020322E313433342020202D302E3832353020202020302E303030302043202020302020302020302020302020302020302020302020302020302020302020302020300A20202020302E373134352020202D302E3832353020202020302E303030302043202020302020302020302020302020302020302020302020302020302020302020302020300A20202020322E3134333420202020302E3030303020202020302E303030302043202020302020302020302020302020302020302020302020302020302020302020302020300A20202020312E343238392020202D312E3233373520202020302E303030302043202020302020302020302020302020302020302020302020302020302020302020302020300A20202020312E3432383920202020312E3233373520202020302E303030302043202020302020302020302020302020302020302020302020302020302020302020302020300A2020312020322020312020302020202020200A2020322020332020312020302020202020200A2020332020342020312020302020202020200A2020332020352020312020302020202020200A2020352020362020312020302020202020200A2020372020382020312020302020202020200A2020372031302020322020302020202020200A2020382031312020322020302020202020200A2020392031312020312020302020202020200A2020392031322020322020302020202020200A2031302031322020312020302020202020200A2020382031332020312020302020202020200A2020312020372020312020302020202020200A4D2020454E44
Contributor: SASAKI S, TOYOHASHI UNIV. OF TECH.
InstType: EI
InstName: Unknown
IoniMethod: _ENERGY 70 eV
IonPolarity: pos
Date: 2010-10-09 19:48:36+02:00
Num Peaks: 31
51 74 52 39 53 34 54 0 55 24 56 14 57 79 61 2 62 14 63 39 
65 109 77 12 78 59 79 94 80 49 89 3 90 74 91 229 92 39 93 2 
105 39 106 14 107 239 108 999 109 129 121 59 122 29 133 5 151 14 182 189 
183 24 
