Name: MassBank: JP004455
MW: 190
Formula: C5H3Cl2N3O
Synonym: MassBank: JP004455
Synonym: 5-CARBAMOYL-4,6-DICHLOROPYRIMIDINE
Structure: 352D43415242414D4F594C2D342C362D444943484C4F524F505952494D4944494E452E6D6F6C0A20204368656D447261773034323331303034333532440A2031312031312020302020302020302020302020302020302020302020303939392056323030300A20202020312E3434333820202020302E3030303020202020302E303030302043202020302020302020302020302020302020302020302020302020302020302020302020300A20202020312E303331332020202D302E3731343520202020302E30303030204E202020302020302020302020302020302020302020302020302020302020302020302020300A20202020302E323036332020202D302E3731343520202020302E303030302043202020302020302020302020302020302020302020302020302020302020302020302020300A2020202D302E3230363220202020302E3030303020202020302E303030302043202020302020302020302020302020302020302020302020302020302020302020302020300A20202020302E3230363220202020302E3731343520202020302E303030302043202020302020302020302020302020302020302020302020302020302020302020302020300A20202020312E3033313320202020302E3731343520202020302E30303030204E202020302020302020302020302020302020302020302020302020302020302020302020300A2020202D302E3230363220202020312E3432383920202020302E3030303020436C2020302020302020302020302020302020302020302020302020302020302020302020300A2020202D302E323036322020202D312E3432383920202020302E3030303020436C2020302020302020302020302020302020302020302020302020302020302020302020300A2020202D312E3033313220202020302E3030303020202020302E303030302043202020302020302020302020302020302020302020302020302020302020302020302020300A2020202D312E343433382020202D302E3731343520202020302E30303030204E202020302020302020302020302020302020302020302020302020302020302020302020300A2020202D312E3434333820202020302E3731343520202020302E30303030204F202020302020302020302020302020302020302020302020302020302020302020302020300A2020312020322020322020302020202020200A2020322020332020312020302020202020200A2020332020342020322020302020202020200A2020342020352020312020302020202020200A2020352020362020322020302020202020200A2020312020362020312020302020202020200A2020352020372020312020302020202020200A2020332020382020312020302020202020200A2020392031302020312020302020202020200A2020392031312020322020302020202020200A2020342020392020312020302020202020200A4D2020454E44
Contributor: SASAKI S, TOYOHASHI UNIV. OF TECH.
InstType: EI
InstName: MS-902
IoniMethod: _ENERGY 70 eV
IonPolarity: pos
Date: 2010-10-09 19:48:36+02:00
Num Peaks: 113
35 27 36 151 37 8 38 5 39 18 40 11 41 9 42 0 43 24 44 321 
45 5 48 0 49 11 50 32 51 98 52 2 53 5 55 4 56 7 57 0 
58 2 59 12 60 14 61 1 62 11 63 53 64 3 65 2 66 11 67 2 
68 3 69 0 71 3 73 6 74 6 75 1 76 31 77 39 78 10 79 0 
83 5 84 183 85 313 86 15 87 102 88 27 89 5 90 0 91 2 92 2 
93 6 99 1 100 3 101 6 102 9 103 0 104 6 105 3 106 3 111 1 
112 4 113 53 114 15 115 2 116 4 117 3 119 3 120 5 121 6 122 30 
123 4 124 1 126 6 127 7 128 5 129 1 130 6 131 3 132 3 138 1 
139 3 140 6 141 3 142 0 143 2 147 77 148 49 149 5 150 32 151 9 
152 5 156 0 157 3 158 6 159 2 160 0 161 6 170 8 171 2 173 2 
175 999 176 57 177 606 178 4 179 98 180 6 188 2 191 51 192 36 193 328 
194 20 195 5 196 4 
