Name: MassBank: JP002011
MW: 136
Formula: C8H12N2
Synonym: MassBank: JP002011
Synonym: 4-ALLYL-3,5-DIMETHYLPYRAZOLE
Structure: 342D414C4C594C2D332C352D44494D455448594C505952415A4F4C452E6D6F6C0A20204368656D447261773033323531303034323832440A2031302031302020302020302020302020302020302020302020302020303939392056323030300A20202020312E3636363020202020302E3431323520202020302E30303030204E202020302020302020302020302020302020302020302020302020302020302020302020300A20202020312E363636302020202D302E3431323520202020302E30303030204E202020302020302020302020302020302020302020302020302020302020302020302020300A20202020302E383831342020202D302E3636373420202020302E303030302043202020302020302020302020302020302020302020302020302020302020302020302020300A20202020302E333936352020202D302E3030303020202020302E303030302043202020302020302020302020302020302020302020302020302020302020302020302020300A20202020302E3838313420202020302E3636373420202020302E303030302043202020302020302020302020302020302020302020302020302020302020302020302020300A20202020302E3632363520202020312E3435323120202020302E303030302043202020302020302020302020302020302020302020302020302020302020302020302020300A20202020302E363236352020202D312E3435323120202020302E303030302043202020302020302020302020302020302020302020302020302020302020302020302020300A2020202D302E343238352020202D302E3030303020202020302E303030302043202020302020302020302020302020302020302020302020302020302020302020302020300A2020202D302E383431302020202D302E3731343520202020302E303030302043202020302020302020302020302020302020302020302020302020302020302020302020300A2020202D312E363636302020202D302E3731343520202020302E303030302043202020302020302020302020302020302020302020302020302020302020302020302020300A2020312020322020312020302020202020200A2020322020332020322020302020202020200A2020332020342020312020302020202020200A2020342020352020322020302020202020200A2020312020352020312020302020202020200A2020352020362020312020302020202020200A2020332020372020312020302020202020200A2020382020392020312020302020202020200A2020392031302020322020302020202020200A2020342020382020312020302020202020200A4D2020454E44
Contributor: SASAKI S, TOYOHASHI UNIV. OF TECH.
InstType: EI
InstName: MX-1303
IoniMethod: _ENERGY 50 eV
IonPolarity: pos
Date: 2010-10-09 19:48:36+02:00
Num Peaks: 65
26 45 27 221 28 156 29 5 30 30 31 17 38 29 39 28 40 87 41 280 
42 608 43 9 50 37 51 100 52 156 53 20 54 68 55 81 56 40 57 5 
60 33 63 40 64 18 65 1 66 90 67 122 68 255 69 6 70 15 71 21 
73 25 77 9 78 47 79 55 80 193 81 6 82 30 83 35 84 12 85 1 
91 66 92 43 93 52 94 37 95 153 96 33 97 22 104 3 105 25 106 40 
107 32 108 7 109 944 110 84 111 11 118 3 119 43 120 34 121 383 122 4 
133 25 134 21 135 346 136 999 137 96 
