Name: BIS(2-CYANOETHYL)ETHER
MW: 124
Formula: C6H8N2O
Synonym: MassBank: JP008332
Synonym: BIS(2-CYANOETHYL)ETHER
Structure: 310A32320A42495328322D4359414E4F455448594C2945544845522E6D6F6C0A20204368656D447261773039303531303231343432440A2020392020382020302020302020302020302020302020302020302020303939392056323030300A2020202D302E303030302020202D302E3431323520202020302E30303030204F202020302020302020302020302020302020302020302020302020302020302020302020300A20202020302E3731343520202020302E3030303020202020302E303030302043202020302020302020302020302020302020302020302020302020302020302020302020300A20202020312E343238392020202D302E3431323520202020302E303030302043202020302020302020302020302020302020302020302020302020302020302020302020300A20202020322E3134333420202020302E3030303020202020302E303030302043202020302020302020302020302020302020302020302020302020302020302020302020300A20202020322E3835373920202020302E3431323520202020302E30303030204E202020302020302020302020302020302020302020302020302020302020302020302020300A2020202D302E373134352020202D302E3030303020202020302E303030302043202020302020302020302020302020302020302020302020302020302020302020302020300A2020202D312E343238392020202D302E3431323520202020302E303030302043202020302020302020302020302020302020302020302020302020302020302020302020300A2020202D322E313433342020202D302E3030303020202020302E303030302043202020302020302020302020302020302020302020302020302020302020302020302020300A2020202D322E3835373920202020302E3431323520202020302E30303030204E202020302020302020302020302020302020302020302020302020302020302020302020300A2020322020332020312020302020202020200A2020342020352020332020302020202020200A2020332020342020312020302020202020200A2020312020322020312020302020202020200A2020362020372020312020302020202020200A2020382020392020332020302020202020200A2020372020382020312020302020202020200A2020312020362020312020302020202020200A4D2020454E44
Contributor: UBE SCIENTIFIC ANALYSIS LABORATORY
InstType: EI
InstName: HITACHI M-60
IoniMethod: _ENERGY 70 eV
IonPolarity: pos
Date: 2010-10-09 19:48:36+02:00
Num Peaks: 39
13 3 14 18 15 46 16 1 25 3 26 53 27 128 28 242 29 69 30 10 
31 213 32 2 35 14 37 2 38 10 39 17 40 42 41 51 42 51 43 8 
44 6 50 1 51 17 52 53 53 13 54 999 55 64 56 1 57 7 67 1 
68 7 70 8 84 252 85 13 86 1 97 35 98 2 123 2 125 1 
