Name: 6-HYDROXYQUINOLINE
MW: 145
Formula: C9H7NO
Synonym: MassBank: JP000496
Synonym: 6-HYDROXYQUINOLINE
Structure: 362D485944524F58595155494E4F4C494E452E6D6F6C0A20204368656D447261773035313731303138353332440A2031312031322020302020302020302020302020302020302020302020303939392056323030300A20202020312E3037313720202020302E3832353020202020302E30303030204E202020302020302020302020302020302020302020302020302020302020302020302020300A20202020312E3738363220202020302E3431323520202020302E303030302043202020302020302020302020302020302020302020302020302020302020302020302020300A20202020312E373836322020202D302E3431323520202020302E303030302043202020302020302020302020302020302020302020302020302020302020302020302020300A20202020312E303731372020202D302E3832353020202020302E303030302043202020302020302020302020302020302020302020302020302020302020302020302020300A20202020302E333537322020202D302E3431323520202020302E303030302043202020302020302020302020302020302020302020302020302020302020302020302020300A2020202D302E333537322020202D302E3832353020202020302E303030302043202020302020302020302020302020302020302020302020302020302020302020302020300A2020202D312E303731372020202D302E3431323520202020302E303030302043202020302020302020302020302020302020302020302020302020302020302020302020300A2020202D312E3037313720202020302E3431323520202020302E303030302043202020302020302020302020302020302020302020302020302020302020302020302020300A2020202D302E3335373220202020302E3832353020202020302E303030302043202020302020302020302020302020302020302020302020302020302020302020302020300A20202020302E3335373220202020302E3431323520202020302E303030302043202020302020302020302020302020302020302020302020302020302020302020302020300A2020202D312E373836322020202D302E3832353020202020302E30303030204F202020302020302020302020302020302020302020302020302020302020302020302020300A2020312020322020322020302020202020200A2020322020332020312020302020202020200A2020332020342020322020302020202020200A2020342020352020312020302020202020200A2020352020362020322020302020202020200A2020362020372020312020302020202020200A2020372020382020322020302020202020200A2020382020392020312020302020202020200A2020392031302020322020302020202020200A2020312031302020312020302020202020200A2020352031302020312020302020202020200A2020372031312020312020302020202020200A4D2020454E44
Contributor: SASAKI S, TOYOHASHI UNIV. OF TECH.
InstType: EI
InstName: MX-1303
IoniMethod: _ENERGY 50 eV
IonPolarity: pos
Date: 2010-10-09 19:48:36+02:00
Num Peaks: 47
30 35 31 69 38 63 39 13 40 378 41 81 42 46 43 12 45 67 50 60 
51 58 52 5 53 63 54 32 55 48 56 4 57 48 59 39 62 67 63 18 
64 76 65 38 66 30 67 3 68 23 69 32 70 21 71 2 72 19 74 32 
75 42 76 2 77 30 79 30 87 25 88 3 89 224 90 234 91 67 92 3 
116 130 117 282 118 79 119 3 144 81 145 999 146 111 
