Name: FENCHYL ALCOHOL
CAS: 1632-73-1
MW: 154
Formula: C10H18O
Synonym: MassBank: JP007654
Synonym: FENCHYL ALCOHOL
Synonym: 1,3,3-TRIMETHYLBICYCLO(2.2.1)HEPTAN-2-OL
Structure: 46454E4348594C20414C434F484F4C2E6D6F6C0A20204368656D447261773131313030393135343932440A2031312031322020302020302020302020302020302020302020302020303939392056323030300A2020202D302E3231393420202020302E3434373720202020302E303030302043202020302020302020302020302020302020302020302020302020302020302020302020300A20202020302E3537333420202020302E3335353620202020302E303030302043202020302020302020302020302020302020302020302020302020302020302020302020300A20202020302E3537333420202020312E3138303620202020302E303030302043202020302020302020302020302020302020302020302020302020302020302020302020300A20202020312E3339333620202020302E3434373920202020302E303030302043202020302020302020302020302020302020302020302020302020302020302020302020300A20202020302E373532302020202D302E3432383820202020302E303030302043202020302020302020302020302020302020302020302020302020302020302020302020300A20202020302E343132322020202D312E3138303620202020302E303030302043202020302020302020302020302020302020302020302020302020302020302020302020300A2020202D302E343037382020202D312E3038393720202020302E303030302043202020302020302020302020302020302020302020302020302020302020302020302020300A2020202D302E353733362020202D302E3238333820202020302E303030302043202020302020302020302020302020302020302020302020302020302020302020302020300A2020202D312E333933362020202D302E3138313320202020302E303030302043202020302020302020302020302020302020302020302020302020302020302020302020300A20202020302E3134303920202020302E3132383720202020302E303030302043202020302020302020302020302020302020302020302020302020302020302020302020300A2020202D302E3633313920202020312E3136323220202020302E30303030204F202020302020302020302020302020302020302020302020302020302020302020302020300A2020312020322020312020302020202020200A2020322020332020312020362020202020200A2020322020342020312020312020202020200A2020322020352020312020302020202020200A2020352020362020312020302020202020200A2020362020372020312020302020202020200A2020372020382020312020302020202020200A2020382020392020312020302020202020200A2020312020382020312020302020202020200A2020352031302020312020302020202020200A2020382031302020312020302020202020200A2020312031312020312020302020202020200A4D2020454E44
Contributor: YAMAMOTO M, DEP. CHEMISTRY, FAC. SCIENCE, NARA WOMEN'S UNIV.
InstType: EI
InstName: HITACHI RMU-6M
IoniMethod: _ENERGY 15 eV
IonPolarity: pos
Date: 2010-10-09 19:48:36+02:00
Num Peaks: 41
43 54 55 17 56 17 57 18 67 28 68 13 69 89 70 26 71 110 72 207 
73 23 80 999 81 809 82 190 83 106 84 157 85 34 86 12 92 37 93 95 
94 18 95 28 96 68 97 32 98 43 99 17 107 90 108 20 109 15 110 19 
111 156 112 26 121 89 122 12 123 61 125 36 136 68 137 12 139 60 154 75 
155 12 
