Name: MassBank: JP004428
MW: 228
Formula: C15H20N2
Synonym: MassBank: JP004428
Synonym: 2,4,5,7-TETRAMETHYL-1,2,3,4-TETRAHYDROPYRIMIDO(1,6-A)INDOLE
Structure: 322C342C352C372D54455452414D455448594C2D312C322C332C342D5445545241485944524F505952494D49444F28312C362D4129494E444F4C452E6D6F6C0A20204368656D447261773132323030393133323432440A2031372031392020302020302020302020302020302020302020302020303939392056323030300A20202020302E3539363720202020302E3534353320202020302E30303030204E202020302020302020302020302020302020302020302020302020302020302020302020300A20202020302E363832392020202D302E3237353220202020302E303030302043202020302020302020302020302020302020302020302020302020302020302020302020300A2020202D302E303730372020202D302E3631303820202020302E303030302043202020302020302020302020302020302020302020302020302020302020302020302020300A2020202D302E3632323820202020302E3030323320202020302E303030302043202020302020302020302020302020302020302020302020302020302020302020302020300A2020202D312E3434373820202020302E3030323320202020302E303030302043202020302020302020302020302020302020302020302020302020302020302020302020300A2020202D312E3836303320202020302E3731363820202020302E303030302043202020302020302020302020302020302020302020302020302020302020302020302020300A2020202D312E3434373820202020312E3433313320202020302E303030302043202020302020302020302020302020302020302020302020302020302020302020302020300A2020202D302E3632323820202020312E3433313320202020302E303030302043202020302020302020302020302020302020302020302020302020302020302020302020300A2020202D302E3231303320202020302E3731363820202020302E303030302043202020302020302020302020302020302020302020302020302020302020302020302020300A20202020312E3236343120202020312E3033303220202020302E303030302043202020302020302020302020302020302020302020302020302020302020302020302020300A20202020322E3031373820202020302E3639343620202020302E30303030204E202020302020302020302020302020302020302020302020302020302020302020302020300A20202020322E313034312020202D302E3132353920202020302E303030302043202020302020302020302020302020302020302020302020302020302020302020302020300A20202020312E343336362020202D302E3631303820202020302E303030302043202020302020302020302020302020302020302020302020302020302020302020302020300A2020202D322E3638353320202020302E3731363820202020302E303030302043202020302020302020302020302020302020302020302020302020302020302020302020300A2020202D302E323432332020202D312E3431373720202020302E303030302043202020302020302020302020302020302020302020302020302020302020302020302020300A20202020312E353232392020202D312E3433313320202020302E303030302043202020302020302020302020302020302020302020302020302020302020302020302020300A20202020322E3638353320202020312E3137393520202020302E303030302043202020302020302020302020302020302020302020302020302020302020302020302020300A2020312020322020312020302020202020200A2020322020332020322020302020202020200A2020332020342020312020302020202020200A2020342020352020312020302020202020200A2020352020362020322020302020202020200A2020362020372020312020302020202020200A2020372020382020322020302020202020200A2020382020392020312020302020202020200A2020312020392020312020302020202020200A2020342020392020322020302020202020200A2031302031312020312020302020202020200A2031312031322020312020302020202020200A2031322031332020312020302020202020200A2020312031302020312020302020202020200A2020322031332020312020302020202020200A2020362031342020312020302020202020200A2020332031352020312020302020202020200A2031332031362020312020302020202020200A2031312031372020312020302020202020200A4D2020454E44
Contributor: SASAKI S, TOYOHASHI UNIV. OF TECH.
InstType: EI
InstName: JEOL JMS-01-SG-2
IoniMethod: _ENERGY 75 eV
IonPolarity: pos
Date: 2010-10-09 19:48:36+02:00
Num Peaks: 15
41 12 42 14 55 32 77 1 115 42 128 12 130 10 158 5 168 15 170 32 
184 239 185 999 186 84 227 16 228 310 
