Name: 1-BUTANOL
MW: 74
Formula: C4H10O
Synonym: MassBank: JP000272
Synonym: 1-BUTANOL
Synonym: BUTYL ALCOHOL
Structure: 310A31340A312D425554414E4F4C2E6D6F6C0A20204368656D447261773131313730393233343032440A2020352020342020302020302020302020302020302020302020302020303939392056323030300A2020202D302E3731343520202020302E3230363320202020302E303030302043202020302020302020302020302020302020302020302020302020302020302020302020300A20202020302E303030302020202D302E3230363320202020302E303030302043202020302020302020302020302020302020302020302020302020302020302020302020300A20202020302E3731343520202020302E3230363320202020302E303030302043202020302020302020302020302020302020302020302020302020302020302020302020300A20202020312E343238392020202D302E3230363220202020302E303030302043202020302020302020302020302020302020302020302020302020302020302020302020300A2020202D312E343238392020202D302E3230363320202020302E30303030204F202020302020302020302020302020302020302020302020302020302020302020302020300A2020312020322020312020302020202020200A2020322020332020312020302020202020200A2020332020342020312020302020202020200A2020312020352020312020302020202020200A4D2020454E44
Contributor: YAMAMOTO M, DEP. CHEMISTRY, FAC. SCIENCE, NARA WOMEN'S UNIV.
InstType: EI
InstName: HITACHI RMU-6M
IoniMethod: _ENERGY 70 eV
IonPolarity: pos
Date: 2010-10-09 19:48:36+02:00
Num Peaks: 27
15 42 19 35 26 44 27 40 28 138 29 180 30 12 31 84 32 18 33 82 
37 13 38 2 39 154 40 49 41 706 42 32 43 552 44 23 45 65 50 1 
51 10 53 13 55 144 56 999 57 58 73 18 74 13 
