Name: ETHYL 2-PYRROLIDONYLACETATE
MW: 171
Formula: C8H13NO3
Synonym: MassBank: JP009789
Synonym: ETHYL 2-PYRROLIDONYLACETATE
Synonym: N-ETHOXYCARBONYLMETHYL-2-PYRROLIDONE
Structure: 4E2D4554484F5859434152424F4E594C4D455448594C2D322D505952524F4C49444F4E452E6D6F6C0A20204368656D447261773038313231303032303232440A2031322031322020302020302020302020302020302020302020302020303939392056323030300A20202020302E373537352020202D302E3036313620202020302E30303030204E202020302020302020302020302020302020302020302020302020302020302020302020300A20202020312E353738302020202D302E3134373920202020302E303030302043202020302020302020302020302020302020302020302020302020302020302020302020300A20202020312E373439352020202D302E3935343820202020302E303030302043202020302020302020302020302020302020302020302020302020302020302020302020300A20202020312E303335302020202D312E3336373320202020302E303030302043202020302020302020302020302020302020302020302020302020302020302020302020300A20202020302E343231392020202D302E3831353320202020302E303030302043202020302020302020302020302020302020302020302020302020302020302020302020300A20202020322E3133303020202020302E3436353220202020302E30303030204F202020302020302020302020302020302020302020302020302020302020302020302020300A20202020302E3334353020202020302E3635323920202020302E303030302043202020302020302020302020302020302020302020302020302020302020302020302020300A2020202D302E3438303020202020302E3635323920202020302E303030302043202020302020302020302020302020302020302020302020302020302020302020302020300A2020202D302E3839323520202020312E3336373320202020302E30303030204F202020302020302020302020302020302020302020302020302020302020302020302020300A2020202D302E383932352020202D302E3036313620202020302E30303030204F202020302020302020302020302020302020302020302020302020302020302020302020300A2020202D312E373137352020202D302E3036313620202020302E303030302043202020302020302020302020302020302020302020302020302020302020302020302020300A2020202D322E313330302020202D302E3737363120202020302E303030302043202020302020302020302020302020302020302020302020302020302020302020302020300A2020312020322020312020302020202020200A2020322020332020312020302020202020200A2020332020342020312020302020202020200A2020342020352020312020302020202020200A2020312020352020312020302020202020200A2020322020362020322020302020202020200A2020382020392020322020302020202020200A2031312031322020312020302020202020200A2031302031312020312020302020202020200A2020382031302020312020302020202020200A2020372020382020312020302020202020200A2020312020372020312020302020202020200A4D2020454E44
Contributor: KURARAY CO., LTD.
InstType: EI
InstName: JEOL JMS-D-300
IoniMethod: _ENERGY 70 eV
IonPolarity: pos
Date: 2010-10-09 19:48:36+02:00
Num Peaks: 19
27 32 28 58 29 31 30 1 39 23 41 118 42 88 43 4 68 34 69 112 
70 276 71 2 84 171 97 12 98 999 99 7 126 48 171 214 172 22 
