Name: 1-METHOXY-1-METHYLCYCLODODECANE
MW: 212
Formula: C14H28O
Synonym: MassBank: JP007216
Synonym: 1-METHOXY-1-METHYLCYCLODODECANE
Structure: 312D4D4554484F58592D312D4D455448594C4359434C4F444F444543414E452E6D6F6C0A20204368656D447261773131313930393136303532440A2031352031352020302020302020302020302020302020302020302020303939392056323030300A2020202D312E3337373420202020302E3137303720202020302E303030302043202020302020302020302020302020302020302020302020302020302020302020302020300A2020202D312E333737342020202D302E3635343320202020302E303030302043202020302020302020302020302020302020302020302020302020302020302020302020300A2020202D302E363633302020202D312E3036363820202020302E303030302043202020302020302020302020302020302020302020302020302020302020302020302020300A20202020302E303531352020202D302E3635343320202020302E303030302043202020302020302020302020302020302020302020302020302020302020302020302020300A20202020302E3035313520202020302E3137303720202020302E303030302043202020302020302020302020302020302020302020302020302020302020302020302020300A2020202D302E3636333020202020302E3538333220202020302E303030302043202020302020302020302020302020302020302020302020302020302020302020302020300A20202020302E363334392020202D312E3233373720202020302E303030302043202020302020302020302020302020302020302020302020302020302020302020302020300A20202020312E343539392020202D312E3233373720202020302E303030302043202020302020302020302020302020302020302020302020302020302020302020302020300A20202020322E303433322020202D302E3635343320202020302E303030302043202020302020302020302020302020302020302020302020302020302020302020302020300A20202020322E3034333220202020302E3137303720202020302E303030302043202020302020302020302020302020302020302020302020302020302020302020302020300A20202020312E3435393920202020302E3735343020202020302E303030302043202020302020302020302020302020302020302020302020302020302020302020302020300A20202020302E3633343920202020302E3735343020202020302E303030302043202020302020302020302020302020302020302020302020302020302020302020302020300A2020202D312E3234363320202020312E3136363520202020302E30303030204F202020302020302020302020302020302020302020302020302020302020302020302020300A2020202D302E3136303720202020312E3233373720202020302E303030302043202020302020302020302020302020302020302020302020302020302020302020302020300A2020202D322E3034333220202020302E3935333020202020302E303030302043202020302020302020302020302020302020302020302020302020302020302020302020300A2020312020322020312020302020202020200A2020322020332020312020302020202020200A2020332020342020312020302020202020200A2020352020362020312020302020202020200A2020362020312020312020302020202020200A2020342020372020312020302020202020200A2020372020382020312020302020202020200A2020382020392020312020302020202020200A2020392031302020312020302020202020200A2031302031312020312020302020202020200A2031312031322020312020302020202020200A2031322020352020312020302020202020200A2020362031332020312020302020202020200A2020362031342020312020302020202020200A2031332031352020312020302020202020200A4D2020454E44
Contributor: SODA AROMATIC CO., LTD.
InstType: EI
InstName: HITACHI M-80B
IoniMethod: _ENERGY 70 eV
IonPolarity: pos
Date: 2010-10-09 19:48:36+02:00
Num Peaks: 34
27 37 29 81 39 42 41 197 42 74 43 83 45 34 53 19 54 12 55 172 
56 18 57 14 59 74 67 49 68 14 69 47 71 17 72 524 73 67 81 36 
82 36 83 28 85 999 86 68 95 31 96 26 97 14 99 27 127 16 138 18 
141 29 169 19 197 61 212 39 
