Name: MassBank: JP004333
MW: 200
Formula: C13H16N2
Synonym: MassBank: JP004333
Synonym: 4-BENZYL-1,3,5-TRIMETHYLPYRAZOLE
Structure: 342D42454E5A594C2D312C332C352D5452494D455448594C505952415A4F4C452E6D6F6C0A20204368656D447261773033323531303035343132440A2031352031362020302020302020302020302020302020302020302020303939392056323030300A20202020312E363731362020202D302E3136323520202020302E30303030204E202020302020302020302020302020302020302020302020302020302020302020302020300A20202020312E323539312020202D302E3837373020202020302E30303030204E202020302020302020302020302020302020302020302020302020302020302020302020300A20202020302E343532312020202D302E3730353520202020302E303030302043202020302020302020302020302020302020302020302020302020302020302020302020300A20202020302E3336353820202020302E3131353020202020302E303030302043202020302020302020302020302020302020302020302020302020302020302020302020300A20202020312E3131393520202020302E3435303520202020302E303030302043202020302020302020302020302020302020302020302020302020302020302020302020300A20202020312E3239313120202020312E3235373520202020302E303030302043202020302020302020302020302020302020302020302020302020302020302020302020300A2020202D302E313631302020202D312E3235373520202020302E303030302043202020302020302020302020302020302020302020302020302020302020302020302020300A20202020322E343932302020202D302E3037363320202020302E303030302043202020302020302020302020302020302020302020302020302020302020302020302020300A2020202D302E3334383620202020302E3532373520202020302E303030302043202020302020302020302020302020302020302020302020302020302020302020302020300A2020202D312E3036333120202020302E3131353020202020302E303030302043202020302020302020302020302020302020302020302020302020302020302020302020300A2020202D312E303633312020202D302E3731303020202020302E303030302043202020302020302020302020302020302020302020302020302020302020302020302020300A2020202D312E373737362020202D312E3132323520202020302E303030302043202020302020302020302020302020302020302020302020302020302020302020302020300A2020202D322E343932302020202D302E3731303020202020302E303030302043202020302020302020302020302020302020302020302020302020302020302020302020300A2020202D322E3439323020202020302E3131353020202020302E303030302043202020302020302020302020302020302020302020302020302020302020302020302020300A2020202D312E3737373620202020302E3532373520202020302E303030302043202020302020302020302020302020302020302020302020302020302020302020302020300A2020312020322020312020302020202020200A2020322020332020322020302020202020200A2020332020342020312020302020202020200A2020342020352020322020302020202020200A2020312020352020312020302020202020200A2020352020362020312020302020202020200A2020332020372020312020302020202020200A2020312020382020312020302020202020200A2020392031302020312020302020202020200A2031302031312020312020302020202020200A2031312031322020322020302020202020200A2031322031332020312020302020202020200A2031332031342020322020302020202020200A2031342031352020312020302020202020200A2031302031352020322020302020202020200A2020342020392020312020302020202020200A4D2020454E44
Contributor: SASAKI S, TOYOHASHI UNIV. OF TECH.
InstType: EI
InstName: MX-1303
IoniMethod: _ENERGY 50 eV
IonPolarity: pos
Date: 2010-10-09 19:48:36+02:00
Num Peaks: 70
27 52 28 56 29 28 30 1 38 11 39 104 40 32 41 5 42 137 43 25 
50 35 51 11 52 33 53 37 54 24 55 4 56 388 57 17 63 44 64 2 
65 75 66 62 67 15 68 1 74 12 75 17 76 24 77 10 78 38 79 12 
80 21 81 3 82 38 87 13 89 27 90 1 91 93 92 26 100 41 102 4 
103 30 109 38 110 3 115 8 116 22 117 13 122 45 123 999 124 89 127 30 
128 47 129 3 141 23 142 22 143 20 144 5 156 10 158 55 168 10 169 2 
170 11 182 17 183 20 184 1 185 630 186 91 199 297 200 74 201 114 202 8 
