Name: SERICENINE
MW: 260
Formula: C16H20O3
Synonym: MassBank: JP003658
Synonym: SERICENINE
Structure: 303537305F5345524943454E494E452E6D6F6C0A20204368656D447261773038323031303035343732440A2031392032302020302020302020302020302020302020302020302020303939392056323030300A2020202D312E373036352020202D302E3038353420202020302E303030302043202020302020302020302020302020302020302020302020302020302020302020302020300A2020202D312E373036352020202D302E3931303420202020302E303030302043202020302020302020302020302020302020302020302020302020302020302020302020300A2020202D302E393932302020202D312E3332323920202020302E303030302043202020302020302020302020302020302020302020302020302020302020302020302020300A2020202D302E323737352020202D302E3931303420202020302E303030302043202020302020302020302020302020302020302020302020302020302020302020302020300A2020202D302E323737352020202D302E3038353420202020302E303030302043202020302020302020302020302020302020302020302020302020302020302020302020300A2020202D302E3939323020202020302E3332373120202020302E303030302043202020302020302020302020302020302020302020302020302020302020302020302020300A20202020302E343336392020202D312E3332323920202020302E303030302043202020302020302020302020302020302020302020302020302020302020302020302020300A20202020312E313531342020202D302E3931303420202020302E303030302043202020302020302020302020302020302020302020302020302020302020302020302020300A20202020312E313531342020202D302E3038353420202020302E303030302043202020302020302020302020302020302020302020302020302020302020302020302020300A20202020302E3433363920202020302E3332373120202020302E303030302043202020302020302020302020302020302020302020302020302020302020302020302020300A20202020312E393336302020202D312E3136353420202020302E30303030204F202020302020302020302020302020302020302020302020302020302020302020302020300A20202020322E343230392020202D302E3439373920202020302E303030302043202020302020302020302020302020302020302020302020302020302020302020302020300A20202020312E3933363020202020302E3136393520202020302E303030302043202020302020302020302020302020302020302020302020302020302020302020302020300A20202020322E3139313020202020302E3935343120202020302E303030302043202020302020302020302020302020302020302020302020302020302020302020302020300A2020202D302E323737352020202D312E3733353420202020302E303030302043202020302020302020302020302020302020302020302020302020302020302020302020300A2020202D302E3939323020202020312E3135323120202020302E303030302043202020302020302020302020302020302020302020302020302020302020302020302020300A2020202D302E3430383620202020312E3733353420202020302E30303030204F202020302020302020302020302020302020302020302020302020302020302020302020300A2020202D312E3730363520202020312E3536343620202020302E30303030204F202020302020302020302020302020302020302020302020302020302020302020302020300A2020202D322E3432303920202020312E3135323120202020302E303030302043202020302020302020302020302020302020302020302020302020302020302020302020300A2020312020322020312020302020202020200A2020322020332020312020302020202020200A2020332020342020322020302020202020200A2020352020362020322020302020202020200A2020362020312020312020302020202020200A2020342020372020312020302020202020200A2020372020382020312020302020202020200A2020382020392020322020302020202020200A2020392031302020312020302020202020200A2031302020352020312020302020202020200A2020382031312020312020302020202020200A2031312031322020312020302020202020200A2031322031332020322020302020202020200A2031332020392020312020302020202020200A2031332031342020312020302020202020200A2020342031352020312020302020202020200A2020362031362020312020302020202020200A2031362031372020322020302020202020200A2031362031382020312020302020202020200A2031382031392020312020302020202020200A4D2020454E44
Contributor: SASAKI S, TOYOHASHI UNIV. OF TECH.
InstType: EI
InstName: Unknown
IoniMethod: EI
IonPolarity: pos
Date: 2010-10-09 19:48:36+02:00
Num Peaks: 43
67 1 77 28 78 1 79 0 91 19 93 15 95 13 105 3 108 999 109 72 
110 14 117 1 119 22 121 19 131 1 133 4 134 11 135 27 143 13 145 4 
146 11 147 19 148 6 149 0 157 10 159 17 160 11 161 5 171 11 172 1 
173 14 185 1 191 1 192 66 193 1 200 2 201 35 202 11 205 17 228 1 
229 17 260 164 261 27 
