Name: MassBank: JP009797
MW: 174
Formula: C10H22O2
Synonym: MassBank: JP009797
Synonym: 1,1-DIISOBUTOXYETHANE
Synonym: ACETALDEHYDE DIISOBUTYL ACETAL
Structure: 312C312D444949534F4255544F5859455448414E452E6D6F6C0A20204368656D447261773130323330393130323232440A2031322031312020302020302020302020302020302020302020302020303939392056323030300A2020202D302E3030303020202020302E3230363320202020302E303030302043202020302020302020302020302020302020302020302020302020302020302020302020300A2020202D302E3030303020202020312E3033313320202020302E303030302043202020302020302020302020302020302020302020302020302020302020302020302020300A20202020302E373134352020202D302E3230363320202020302E30303030204F202020302020302020302020302020302020302020302020302020302020302020302020300A20202020312E3432383920202020302E3230363220202020302E303030302043202020302020302020302020302020302020302020302020302020302020302020302020300A20202020322E313433342020202D302E3230363220202020302E303030302043202020302020302020302020302020302020302020302020302020302020302020302020300A20202020322E3835373920202020302E3230363320202020302E303030302043202020302020302020302020302020302020302020302020302020302020302020302020300A20202020322E313433342020202D312E3033313220202020302E303030302043202020302020302020302020302020302020302020302020302020302020302020302020300A2020202D302E373134352020202D302E3230363320202020302E30303030204F202020302020302020302020302020302020302020302020302020302020302020302020300A2020202D312E3432383920202020302E3230363220202020302E303030302043202020302020302020302020302020302020302020302020302020302020302020302020300A2020202D322E313433342020202D302E3230363320202020302E303030302043202020302020302020302020302020302020302020302020302020302020302020302020300A2020202D322E313433342020202D312E3033313320202020302E303030302043202020302020302020302020302020302020302020302020302020302020302020302020300A2020202D322E3835373920202020302E3230363220202020302E303030302043202020302020302020302020302020302020302020302020302020302020302020302020300A2020312020322020312020302020202020200A2020342020352020312020302020202020200A2020352020362020312020302020202020200A2020352020372020312020302020202020200A2020332020342020312020302020202020200A2020312020332020312020302020202020200A2020392031302020312020302020202020200A2031302031312020312020302020202020200A2031302031322020312020302020202020200A2020382020392020312020302020202020200A2020312020382020312020302020202020200A4D2020454E44
Contributor: KURARAY CO., LTD.
InstType: EI
InstName: JEOL JMS-D-300
IoniMethod: _ENERGY 70 eV
IonPolarity: pos
Date: 2010-10-09 19:48:36+02:00
Num Peaks: 19
27 39 29 169 31 20 33 2 39 33 41 266 42 39 43 8 45 450 55 23 
56 92 57 999 58 78 59 14 83 31 101 80 102 47 131 17 159 48 
