Name: MassBank: JP007757
MW: 153
Formula: C9H15NO
Synonym: MassBank: JP007757
Synonym: 2-ISOBUTYL-4,5-DIMETHYLOXAZOLE
Structure: 322D49534F425554594C2D342C352D44494D455448594C4F58415A4F4C452E6D6F6C0A20204368656D447261773031323231303030303832440A2031312031312020302020302020302020302020302020302020302020303939392056323030300A2020202D302E3736323320202020312E3030323120202020302E30303030204F202020302020302020302020302020302020302020302020302020302020302020302020300A2020202D302E3030383620202020302E3636363620202020302E303030302043202020302020302020302020302020302020302020302020302020302020302020302020300A2020202D302E303934382020202D302E3135333920202020302E30303030204E202020302020302020302020302020302020302020302020302020302020302020302020300A2020202D302E393031382020202D302E3332353420202020302E303030302043202020302020302020302020302020302020302020302020302020302020302020302020300A2020202D312E3331343320202020302E3338393120202020302E303030302043202020302020302020302020302020302020302020302020302020302020302020302020300A2020202D322E3133343820202020302E3437353320202020302E303030302043202020302020302020302020302020302020302020302020302020302020302020302020300A2020202D312E323337342020202D312E3037393120202020302E303030302043202020302020302020302020302020302020302020302020302020302020302020302020300A20202020302E3730353920202020312E3037393120202020302E303030302043202020302020302020302020302020302020302020302020302020302020302020302020300A20202020312E3432303320202020302E3636363620202020302E303030302043202020302020302020302020302020302020302020302020302020302020302020302020300A20202020322E3133343820202020312E3037393120202020302E303030302043202020302020302020302020302020302020302020302020302020302020302020302020300A20202020312E343230332020202D302E3135383420202020302E303030302043202020302020302020302020302020302020302020302020302020302020302020302020300A2020312020322020312020302020202020200A2020322020332020322020302020202020200A2020332020342020312020302020202020200A2020342020352020322020302020202020200A2020312020352020312020302020202020200A2020352020362020312020302020202020200A2020342020372020312020302020202020200A2020382020392020312020302020202020200A2020392031302020312020302020202020200A2020392031312020312020302020202020200A2020322020382020312020302020202020200A4D2020454E44
Contributor: HASHIMOTO K, KYOTO COLLEGE OF PHARMACY
InstType: EI
InstName: HITACHI M-80
IoniMethod: _ENERGY 20 eV
IonPolarity: pos
Date: 2010-10-09 19:48:36+02:00
Num Peaks: 20
41 141 42 280 43 445 54 20 55 121 68 411 69 360 70 261 81 30 82 121 
84 20 96 31 110 830 111 999 112 230 138 371 139 50 152 205 153 479 154 139 
