Name: 4-TERT-BUTYLBENZOIC ACID METHYL ESTER
MW: 192
Formula: C12H16O2
Synonym: MassBank: JP002203
Synonym: 4-TERT-BUTYLBENZOIC ACID METHYL ESTER
Structure: 342D544552542D425554594C42454E5A4F49432041434944204D455448594C2045535445522E6D6F6C0A20204368656D447261773034323231303231313732440A2031342031342020302020302020302020302020302020302020302020303939392056323030300A20202020312E383536322020202D302E3330323020202020302E303030302043202020302020302020302020302020302020302020302020302020302020302020302020300A20202020312E303331322020202D302E3330323020202020302E303030302043202020302020302020302020302020302020302020302020302020302020302020302020300A20202020302E363138372020202D312E3031363420202020302E303030302043202020302020302020302020302020302020302020302020302020302020302020302020300A2020202D302E323036332020202D312E3031363420202020302E303030302043202020302020302020302020302020302020302020302020302020302020302020302020300A2020202D302E363138382020202D302E3330323020202020302E303030302043202020302020302020302020302020302020302020302020302020302020302020302020300A2020202D302E3230363320202020302E3431323520202020302E303030302043202020302020302020302020302020302020302020302020302020302020302020302020300A20202020302E3631383720202020302E3431323520202020302E303030302043202020302020302020302020302020302020302020302020302020302020302020302020300A20202020322E323638382020202D312E3031363420202020302E30303030204F202020302020302020302020302020302020302020302020302020302020302020302020300A20202020322E3236383820202020302E3431323520202020302E30303030204F202020302020302020302020302020302020302020302020302020302020302020302020300A2020202D312E343433382020202D302E3330323020202020302E303030302043202020302020302020302020302020302020302020302020302020302020302020302020300A2020202D312E343433382020202D312E3132373020202020302E303030302043202020302020302020302020302020302020302020302020302020302020302020302020300A2020202D322E323638382020202D302E3330323020202020302E303030302043202020302020302020302020302020302020302020302020302020302020302020302020300A2020202D312E3434333820202020302E3532333020202020302E303030302043202020302020302020302020302020302020302020302020302020302020302020302020300A20202020312E3835363220202020312E3132373020202020302E303030302043202020302020302020302020302020302020302020302020302020302020302020302020300A2020312020322020312020302020202020200A2020322020332020312020302020202020200A2020332020342020322020302020202020200A2020342020352020312020302020202020200A2020352020362020322020302020202020200A2020362020372020312020302020202020200A2020322020372020322020302020202020200A2020312020382020322020302020202020200A2020312020392020312020302020202020200A2031302031312020312020302020202020200A2031302031332020312020302020202020200A2031302031322020312020302020202020200A2020352031302020312020302020202020200A2020392031342020312020302020202020200A4D2020454E44
Contributor: KOGA M, UNIV. OF OCCUPATIONAL AND ENVIRONMENTAL HEALTH
InstType: EI
InstName: JEOL JMS-01-SG
IoniMethod: _ENERGY 70 eV
IonPolarity: pos
Date: 2010-10-09 19:48:36+02:00
Num Peaks: 51
44 11 45 19 50 22 51 5 55 19 57 11 58 34 59 8 63 15 64 11 
65 26 72 2 77 53 78 19 80 19 90 3 91 133 92 11 93 64 102 3 
103 22 104 22 105 160 106 3 107 11 110 11 115 57 116 3 117 76 118 49 
119 22 121 2 122 19 132 15 133 15 135 2 145 38 146 38 149 221 150 1 
151 11 161 80 162 15 177 999 178 118 179 22 191 15 192 16 193 34 203 11 
276 15 
