Name: MassBank: JP000010
MW: 195
Formula: C6H3Cl3O
Synonym: MassBank: JP000010
Synonym: 2,4,6-TRICHLOROPHENOL
Structure: 322C342C362D54524943484C4F524F5048454E4F4C2E6D6F6C0A20204368656D447261773132323030393133333532440A2031302031302020302020302020302020302020302020302020302020303939392056323030300A20202020302E3832353020202020302E3030303020202020302E303030302043202020302020302020302020302020302020302020302020302020302020302020302020300A20202020302E343132352020202D302E3731343520202020302E303030302043202020302020302020302020302020302020302020302020302020302020302020302020300A2020202D302E343132352020202D302E3731343520202020302E303030302043202020302020302020302020302020302020302020302020302020302020302020302020300A2020202D302E3832353020202020302E3030303020202020302E303030302043202020302020302020302020302020302020302020302020302020302020302020302020300A2020202D302E3431323520202020302E3731343520202020302E303030302043202020302020302020302020302020302020302020302020302020302020302020302020300A20202020302E3431323520202020302E3731343520202020302E303030302043202020302020302020302020302020302020302020302020302020302020302020302020300A20202020302E3832353020202020312E3432383920202020302E3030303020436C2020302020302020302020302020302020302020302020302020302020302020302020300A2020202D312E3635303020202020302E3030303020202020302E3030303020436C2020302020302020302020302020302020302020302020302020302020302020302020300A20202020302E383235302020202D312E3432383920202020302E3030303020436C2020302020302020302020302020302020302020302020302020302020302020302020300A20202020312E3635303020202020302E3030303020202020302E30303030204F202020302020302020302020302020302020302020302020302020302020302020302020300A2020312020322020312020302020202020200A2020322020332020322020302020202020200A2020332020342020312020302020202020200A2020342020352020322020302020202020200A2020352020362020312020302020202020200A2020312020362020322020302020202020200A2020362020372020312020302020202020200A2020342020382020312020302020202020200A2020322020392020312020302020202020200A2020312031302020312020302020202020200A4D2020454E44
Contributor: KOGA M, UNIV. OF OCCUPATIONAL AND ENVIRONMENTAL HEALTH
InstType: EI
InstName: VARIAN MAT-44
IoniMethod: _ENERGY 70 eV
IonPolarity: pos
Date: 2010-10-09 19:48:36+02:00
Num Peaks: 66
53 146 55 25 57 22 60 122 61 321 62 422 63 369 64 43 65 84 66 230 
67 127 68 27 71 68 72 137 73 176 74 88 75 56 80 99 81 88 82 42 
83 86 84 62 85 58 87 39 89 22 90 29 91 21 95 48 96 341 97 708 
98 397 99 382 100 106 101 26 106 25 107 91 108 38 109 72 111 22 125 34 
126 89 127 21 128 35 131 185 132 580 133 221 134 407 135 105 136 78 160 318 
161 52 162 505 163 52 164 228 166 56 167 41 168 26 169 36 195 36 196 999 
197 97 198 913 199 71 200 284 201 21 202 30 
