Name: HEPTANAL
MW: 114
Formula: C7H14O
Synonym: MassBank: JP008680
Synonym: HEPTANAL
Structure: 310A32300A48455054594C414C4445485944452E6D6F6C0A20204368656D447261773038313131303230313432440A2020382020372020302020302020302020302020302020302020302020303939392056323030300A20202020312E373836322020202D302E3230363320202020302E303030302043202020302020302020302020302020302020302020302020302020302020302020302020300A20202020312E3037313720202020302E3230363320202020302E303030302043202020302020302020302020302020302020302020302020302020302020302020302020300A20202020302E333537322020202D302E3230363320202020302E303030302043202020302020302020302020302020302020302020302020302020302020302020302020300A2020202D302E3335373220202020302E3230363220202020302E303030302043202020302020302020302020302020302020302020302020302020302020302020302020300A2020202D312E303731372020202D302E3230363320202020302E303030302043202020302020302020302020302020302020302020302020302020302020302020302020300A2020202D312E3738363220202020302E3230363220202020302E303030302043202020302020302020302020302020302020302020302020302020302020302020302020300A2020202D322E353030362020202D302E3230363320202020302E303030302043202020302020302020302020302020302020302020302020302020302020302020302020300A20202020322E3530303620202020302E3230363320202020302E30303030204F202020302020302020302020302020302020302020302020302020302020302020302020300A2020312020322020312020302020202020200A2020322020332020312020302020202020200A2020332020342020312020302020202020200A2020342020352020312020302020202020200A2020352020362020312020302020202020200A2020362020372020312020302020202020200A2020312020382020322020302020202020200A4D2020454E44
Contributor: SODA AROMATIC CO., LTD.
InstType: EI
InstName: HITACHI M-80B
IoniMethod: _ENERGY 70 eV
IonPolarity: pos
Date: 2010-10-09 19:48:36+02:00
Num Peaks: 37
15 41 26 46 27 619 28 62 29 614 30 17 31 22 38 21 39 383 40 43 
41 892 42 536 43 797 44 999 45 217 50 13 51 25 52 11 53 51 54 59 
55 536 56 60 57 464 58 44 67 67 68 155 69 41 70 790 71 226 72 68 
81 166 82 11 85 29 86 133 95 13 96 88 114 11 
