Name: N-ACETYL-METHIONINE METHYLESTER
MW: 205
Formula: C8H15NO3S
Synonym: MassBank: JP000092
Synonym: N-ACETYL-METHIONINE METHYLESTER
Structure: 303034305F4E2D41434554594C2D4D455448494F4E494E45204D455448594C45535445522E6D6F6C0A20204368656D447261773039303331303137303432440A2031342031332020302020302020302020302020302020302020302020303939392056323030300A20202020302E3335373220202020302E3431323520202020302E303030302043202020302020302020302020302020302020302020302020302020302020302020302020300A20202020312E303731372020202D302E3832353020202020302E30303030204E202020302020302020302020302020302020302020302020302020302020302020302020300A20202020302E333537322020202D302E3431323520202020302E303030302043202020302020302020302020302020302020302020302020302020302020302020302020300A2020202D302E333537322020202D302E3832353020202020302E303030302043202020302020302020302020302020302020302020302020302020302020302020302020300A2020202D312E303731372020202D302E3431323520202020302E303030302043202020302020302020302020302020302020302020302020302020302020302020302020300A2020202D312E373836312020202D302E3832353020202020302E303030302053202020302020302020302020302020302020302020302020302020302020302020302020300A2020202D322E353030352020202D302E3431323520202020302E303030302043202020302020302020302020302020302020302020302020302020302020302020302020300A20202020312E3037313720202020302E3832353020202020302E30303030204F202020302020302020302020302020302020302020302020302020302020302020302020300A2020202D302E3335373220202020302E3832353020202020302E30303030204F202020302020302020302020302020302020302020302020302020302020302020302020300A20202020312E373836312020202D302E3431323520202020302E303030302043202020302020302020302020302020302020302020302020302020302020302020302020300A20202020312E3738363120202020302E3431323520202020302E30303030204F202020302020302020302020302020302020302020302020302020302020302020302020300A20202020322E353030352020202D302E3832353020202020302E303030302043202020302020302020302020302020302020302020302020302020302020302020302020300A2020202D312E3037313720202020302E3431323520202020302E303030302043202020302020302020302020302020302020302020302020302020302020302020302020300A2020202D302E333537332020202D302E3030303020202020302E303030302048202020302020302020302020302020302020302020302020302020302020302020302020300A2020332020322020312020312020202020200A2020312020332020312020302020202020200A2020332020342020312020302020202020200A2020342020352020312020302020202020200A2020352020362020312020302020202020200A2020362020372020312020302020202020200A2020312020382020322020302020202020200A2020312020392020312020302020202020200A2031302031312020322020302020202020200A2031302031322020312020302020202020200A2020322031302020312020302020202020200A2020392031332020312020302020202020200A2020332031342020312020312020202020200A4D2020454E44
Contributor: YAMAMOTO M, DEP. CHEMISTRY, FAC. SCIENCE, NARA WOMEN'S UNIV.
InstType: EI
InstName: HITACHI RMU-6M
IoniMethod: _ENERGY 70 eV
IonPolarity: pos
Date: 2010-10-09 19:48:36+02:00
Num Peaks: 78
14 31 15 147 26 48 27 147 28 278 29 52 30 86 31 47 32 25 33 85 
35 72 39 52 40 14 41 143 42 121 43 999 44 49 45 132 46 56 47 146 
48 75 49 30 54 72 55 52 56 680 57 188 58 20 59 74 60 69 61 774 
62 41 63 40 68 18 70 16 71 123 72 17 74 112 75 155 76 12 77 10 
83 40 84 41 85 26 86 25 87 49 88 353 89 307 90 17 97 13 98 108 
99 851 100 72 101 17 102 178 103 14 104 282 105 19 106 14 109 14 112 136 
113 19 114 79 115 25 116 68 125 35 126 22 130 13 131 916 132 60 144 165 
145 16 146 91 158 58 162 58 163 15 173 19 205 85 206 13 
