Name: MassBank: JP004710
MW: 400
Formula: C20H48Si4
Synonym: MassBank: JP004710
Synonym: 1,1-BIS(TERT-BUTYLDIMETHYLSILYL)-2,2-BIS(TRIMETHYLSILYL)ETHYLENE
Structure: 312C312D42495328544552542D425554594C44494D455448594C53494C594C292D322C322D424953285452494D455448594C53494C594C29455448594C454E452E6D6F6C0A20204368656D447261773130323330393033333432440A2032342032332020302020302020302020302020302020302020302020303939392056323030300A20202020302E3236383120202020302E3130373220202020302E303030302043202020302020302020302020302020302020302020302020302020302020302020302020300A2020202D302E3830343420202020302E3130373220202020302E303030302043202020302020302020302020302020302020302020302020302020302020302020302020300A2020202D312E333430362020202D302E3832313620202020302E303030302053692020302020302020302020302020302020302020302020302020302020302020302020300A2020202D302E363236322020202D312E3233343120202020302E303030302043202020302020302020302020302020302020302020302020302020302020302020302020300A2020202D312E373533312020202D312E3533363120202020302E303030302043202020302020302020302020302020302020302020302020302020302020302020302020300A2020202D322E303535312020202D302E3430393120202020302E303030302043202020302020302020302020302020302020302020302020302020302020302020302020300A2020202D312E3231363920202020302E3832313620202020302E303030302053692020302020302020302020302020302020302020302020302020302020302020302020300A2020202D312E3933313320202020302E3430393120202020302E303030302043202020302020302020302020302020302020302020302020302020302020302020302020300A2020202D312E3632393420202020312E3533363120202020302E303030302043202020302020302020302020302020302020302020302020302020302020302020302020300A2020202D302E3530323420202020312E3233343120202020302E303030302043202020302020302020302020302020302020302020302020302020302020302020302020300A20202020302E3830343420202020312E3033363020202020302E303030302053692020302020302020302020302020302020302020302020302020302020302020302020300A20202020302E3038393920202020312E3434383520202020302E303030302043202020302020302020302020302020302020302020302020302020302020302020302020300A20202020312E3231363920202020312E3735303520202020302E303030302043202020302020302020302020302020302020302020302020302020302020302020302020300A20202020312E3531383820202020302E3632333520202020302E303030302043202020302020302020302020302020302020302020302020302020302020302020302020300A20202020302E393238312020202D312E3033363020202020302E303030302053692020302020302020302020302020302020302020302020302020302020302020302020300A20202020312E333430362020202D312E3735303520202020302E303030302043202020302020302020302020302020302020302020302020302020302020302020302020300A20202020312E363432362020202D302E3632333520202020302E303030302043202020302020302020302020302020302020302020302020302020302020302020302020300A20202020302E323133372020202D312E3434383520202020302E303030302043202020302020302020302020302020302020302020302020302020302020302020302020300A20202020312E373533312020202D322E3436343920202020302E303030302043202020302020302020302020302020302020302020302020302020302020302020302020300A20202020312E3632393420202020322E3436343920202020302E303030302043202020302020302020302020302020302020302020302020302020302020302020302020300A20202020302E3530323420202020322E3136333020202020302E303030302043202020302020302020302020302020302020302020302020302020302020302020302020300A20202020312E3933313320202020312E3333383020202020302E303030302043202020302020302020302020302020302020302020302020302020302020302020302020300A20202020322E303535312020202D312E3333383020202020302E303030302043202020302020302020302020302020302020302020302020302020302020302020302020300A20202020302E363236322020202D322E3136333020202020302E303030302043202020302020302020302020302020302020302020302020302020302020302020302020300A2020312020322020322020302020202020200A2020332020342020312020302020202020200A2020332020352020312020302020202020200A2020332020362020312020302020202020200A2020322020332020312020302020202020200A2020372020382020312020302020202020200A2020372020392020312020302020202020200A2020372031302020312020302020202020200A2020322020372020312020302020202020200A2031312031322020312020302020202020200A2031312031332020312020302020202020200A2031312031342020312020302020202020200A2020312031312020312020302020202020200A2031352031362020312020302020202020200A2031352031372020312020302020202020200A2031352031382020312020302020202020200A2020312031352020312020302020202020200A2031362031392020312020302020202020200A2031332032302020312020302020202020200A2031332032312020312020302020202020200A2031332032322020312020302020202020200A2031362032332020312020302020202020200A2031362032342020312020302020202020200A4D2020454E44
Contributor: MASS SPECTROSCOPY SOC. OF JAPAN (MSSJ)
InstType: EI
InstName: JEOL JMS-D-3000
IoniMethod: _ENERGY 20 eV
IonPolarity: pos
Date: 2010-10-09 19:48:36+02:00
Num Peaks: 37
73 999 74 89 75 43 85 234 86 21 93 30 99 53 115 323 116 45 117 35 
131 184 132 30 133 16 155 388 156 74 157 33 173 133 174 27 175 12 197 381 
198 82 199 36 213 108 214 31 215 17 227 12 255 42 256 12 269 17 270 22 
285 192 286 59 287 28 327 13 343 27 344 11 400 2 
