Name: 3-PHENYLPROPANOL
MW: 136
Formula: C9H12O
Synonym: MassBank: JP006574
Synonym: 3-PHENYLPROPANOL
Synonym: 3-PHENYLPROPYL ALCOHOL
Structure: 332D5048454E594C50524F50414E4F4C2E6D6F6C0A20204368656D447261773033323331303132343132440A2031302031302020302020302020302020302020302020302020302020303939392056323030300A2020202D312E343238392020202D302E3832353020202020302E303030302043202020302020302020302020302020302020302020302020302020302020302020302020300A2020202D302E373134352020202D302E3431323520202020302E303030302043202020302020302020302020302020302020302020302020302020302020302020302020300A20202020302E303030302020202D302E3832353020202020302E303030302043202020302020302020302020302020302020302020302020302020302020302020302020300A20202020302E373134352020202D302E3431323520202020302E303030302043202020302020302020302020302020302020302020302020302020302020302020302020300A20202020302E3731343520202020302E3431323520202020302E303030302043202020302020302020302020302020302020302020302020302020302020302020302020300A20202020312E3432383920202020302E3832353020202020302E303030302043202020302020302020302020302020302020302020302020302020302020302020302020300A20202020322E3134333420202020302E3431323520202020302E303030302043202020302020302020302020302020302020302020302020302020302020302020302020300A20202020322E313433342020202D302E3431323520202020302E303030302043202020302020302020302020302020302020302020302020302020302020302020302020300A20202020312E343238392020202D302E3832353020202020302E303030302043202020302020302020302020302020302020302020302020302020302020302020302020300A2020202D322E313433342020202D302E3431323520202020302E30303030204F202020302020302020302020302020302020302020302020302020302020302020302020300A2020312020322020312020302020202020200A2020322020332020312020302020202020200A2020342020352020312020302020202020200A2020352020362020322020302020202020200A2020362020372020312020302020202020200A2020372020382020322020302020202020200A2020382020392020312020302020202020200A2020342020392020322020302020202020200A2020332020342020312020302020202020200A2020312031302020312020302020202020200A4D2020454E44
Contributor: HISAHIRO HAGIWARA, CHEMICAL RESEARCH INSTITUTE OF NON-AQUEOUSSOLUTIONS TOHOKU UNIV.
InstType: EI
InstName: HITACHI M-80B
IoniMethod: _ENERGY 70 eV
IonPolarity: pos
Date: 2010-10-09 19:48:36+02:00
Num Peaks: 51
15 11 17 15 18 97 26 15 27 91 29 58 31 130 38 21 39 135 41 33 
43 18 45 22 50 66 51 192 52 46 53 24 55 13 57 14 58 11 62 23 
63 83 64 18 65 222 66 22 74 22 75 21 76 19 77 245 78 153 79 123 
80 11 89 42 90 20 91 999 92 531 93 31 94 32 102 16 103 111 104 59 
105 133 106 18 107 12 115 42 116 27 117 723 118 567 119 47 134 33 136 249 
137 19 
