Name: CIS-9-OCTADECENOIC ACID BUTYL ESTER
MW: 338
Formula: C22H42O2
Synonym: MassBank: JP001789
Synonym: CIS-9-OCTADECENOIC ACID BUTYL ESTER
Structure: 4349532D392D4F435441444543454E4F4943204143494420425554594C2045535445522E6D6F6C0A20204368656D447261773039313331303131343132440A2032342032332020302020302020302020302020302020302020302020303939392056323030300A2020202D332E393138372020202D312E3037313720202020302E303030302043202020302020302020302020302020302020302020302020302020302020302020302020300A2020202D332E303933372020202D312E3037313720202020302E303030302043202020302020302020302020302020302020302020302020302020302020302020302020300A2020202D322E363831322020202D302E3335373220202020302E303030302043202020302020302020302020302020302020302020302020302020302020302020302020300A2020202D312E383536322020202D302E3335373220202020302E303030302043202020302020302020302020302020302020302020302020302020302020302020302020300A2020202D312E3434333720202020302E3335373220202020302E303030302043202020302020302020302020302020302020302020302020302020302020302020302020300A2020202D302E3631383820202020302E3335373220202020302E303030302043202020302020302020302020302020302020302020302020302020302020302020302020300A2020202D302E3230363320202020312E3037313720202020302E303030302043202020302020302020302020302020302020302020302020302020302020302020302020300A20202020302E3631383720202020312E3037313720202020302E303030302043202020302020302020302020302020302020302020302020302020302020302020302020300A20202020312E3033313220202020312E3738363220202020302E303030302043202020302020302020302020302020302020302020302020302020302020302020302020300A20202020312E3835363220202020312E3738363220202020302E303030302043202020302020302020302020302020302020302020302020302020302020302020302020300A20202020322E3236383820202020312E3037313720202020302E303030302043202020302020302020302020302020302020302020302020302020302020302020302020300A20202020332E3039333720202020312E3037313720202020302E303030302043202020302020302020302020302020302020302020302020302020302020302020302020300A20202020332E3530363220202020302E3335373220202020302E303030302043202020302020302020302020302020302020302020302020302020302020302020302020300A20202020342E3333313220202020302E3335373220202020302E303030302043202020302020302020302020302020302020302020302020302020302020302020302020300A20202020342E373433372020202D302E3335373220202020302E303030302043202020302020302020302020302020302020302020302020302020302020302020302020300A20202020352E353638372020202D302E3335373220202020302E303030302043202020302020302020302020302020302020302020302020302020302020302020302020300A20202020352E393831322020202D312E3037313720202020302E303030302043202020302020302020302020302020302020302020302020302020302020302020302020300A20202020362E383036332020202D312E3037313720202020302E303030302043202020302020302020302020302020302020302020302020302020302020302020302020300A2020202D342E333331332020202D302E3335373220202020302E30303030204F202020302020302020302020302020302020302020302020302020302020302020302020300A2020202D342E333331332020202D312E3738363220202020302E30303030204F202020302020302020302020302020302020302020302020302020302020302020302020300A2020202D352E313536322020202D312E3738363220202020302E303030302043202020302020302020302020302020302020302020302020302020302020302020302020300A2020202D352E353638382020202D312E3037313720202020302E303030302043202020302020302020302020302020302020302020302020302020302020302020302020300A2020202D362E333933372020202D312E3037313720202020302E303030302043202020302020302020302020302020302020302020302020302020302020302020302020300A2020202D362E383036332020202D302E3335373220202020302E303030302043202020302020302020302020302020302020302020302020302020302020302020302020300A2020312020322020312020302020202020200A2020322020332020312020302020202020200A2020332020342020312020302020202020200A2020342020352020312020302020202020200A2020352020362020312020302020202020200A2020362020372020312020302020202020200A2020372020382020312020302020202020200A2020382020392020312020302020202020200A2020392031302020322020302020202020200A2031302031312020312020302020202020200A2031312031322020312020302020202020200A2031322031332020312020302020202020200A2031332031342020312020302020202020200A2031342031352020312020302020202020200A2031352031362020312020302020202020200A2031362031372020312020302020202020200A2031372031382020312020302020202020200A2020312031392020322020302020202020200A2020312032302020312020302020202020200A2032312032322020312020302020202020200A2032322032332020312020302020202020200A2032332032342020312020302020202020200A2032302032312020312020302020202020200A4D2020454E44
Contributor: MASS SPECTROSCOPY SOC. OF JAPAN (MSSJ)
InstType: EI
InstName: Unknown
IoniMethod: EI
IonPolarity: pos
Date: 2010-10-09 19:48:36+02:00
Num Peaks: 133
4 103 29 28 41 86 43 199 54 33 55 306 56 811 57 899 58 33 60 76 
61 98 67 108 68 171 69 709 70 369 71 218 73 182 80 27 81 238 82 328 
83 999 84 951 85 190 86 14 87 78 93 27 94 69 95 229 96 605 97 981 
98 851 99 121 100 57 101 143 102 14 105 14 107 39 108 53 109 199 110 356 
111 508 112 225 113 75 114 125 115 89 116 52 117 39 119 47 121 62 122 30 
123 233 124 163 125 267 126 109 127 127 128 35 129 157 130 17 133 57 134 51 
135 67 136 24 137 148 138 125 139 146 140 66 141 67 142 14 143 49 147 55 
148 38 149 49 150 20 151 130 152 119 153 92 154 44 155 54 156 17 157 31 
161 33 162 11 163 34 164 20 165 130 166 101 167 63 168 27 169 66 170 20 
171 25 172 6 175 23 177 11 179 79 180 189 181 70 182 18 183 82 184 19 
185 33 186 5 189 7 193 43 194 36 195 20 197 16 199 22 207 42 208 29 
209 14 211 14 213 5 220 68 221 57 222 200 223 44 235 25 236 33 239 5 
245 35 246 45 247 28 263 72 264 662 265 382 266 72 267 5 281 4 282 12 
283 32 338 95 339 27 
