Name: 2-PROPANOL
MW: 60
Formula: C3H8O
Synonym: MassBank: JP000271
Synonym: 2-PROPANOL
Synonym: ISO-PROPYL ALCOHOL
Structure: 310A31320A322D50524F50414E4F4C2E6D6F6C0A20204368656D447261773032323131303134343332440A2020342020332020302020302020302020302020302020302020302020303939392056323030300A20202020302E3631383820202020302E3731343520202020302E303030302043202020302020302020302020302020302020302020302020302020302020302020302020300A20202020302E323036322020202D302E3030303020202020302E303030302043202020302020302020302020302020302020302020302020302020302020302020302020300A20202020302E363138382020202D302E3731343520202020302E303030302043202020302020302020302020302020302020302020302020302020302020302020302020300A2020202D302E363138382020202D302E3030303020202020302E30303030204F202020302020302020302020302020302020302020302020302020302020302020302020300A2020312020322020312020302020202020200A2020322020332020312020302020202020200A2020322020342020312020302020202020200A4D2020454E44
Contributor: YAMAMOTO M, DEP. CHEMISTRY, FAC. SCIENCE, NARA WOMEN'S UNIV.
InstType: EI
InstName: HITACHI RMU-6M
IoniMethod: _ENERGY 70 eV
IonPolarity: pos
Date: 2010-10-09 19:48:36+02:00
Num Peaks: 19
14 16 15 57 19 75 26 2 27 127 28 37 29 79 31 6 37 10 38 16 
39 53 41 7 42 20 43 109 44 42 45 999 46 23 59 37 60 7 
