Name: 1-METHYL-1-PROPYLHYDRAZINE
MW: 88
Formula: C4H12N2
Synonym: MassBank: JP000378
Synonym: 1-METHYL-1-PROPYLHYDRAZINE
Structure: 310A31360A312D4D455448594C2D312D50524F50594C48594452415A494E452E6D6F6C0A20204368656D447261773131313930393136323232440A2020362020352020302020302020302020302020302020302020302020303939392056323030300A20202020302E373134352020202D302E3230363220202020302E30303030204E202020302020302020302020302020302020302020302020302020302020302020302020300A20202020312E343238392020202D302E3631383820202020302E30303030204E202020302020302020302020302020302020302020302020302020302020302020302020300A2020202D302E303030302020202D302E3631383820202020302E303030302043202020302020302020302020302020302020302020302020302020302020302020302020300A2020202D302E373134352020202D302E3230363220202020302E303030302043202020302020302020302020302020302020302020302020302020302020302020302020300A2020202D312E343238392020202D302E3631383820202020302E303030302043202020302020302020302020302020302020302020302020302020302020302020302020300A20202020302E3731343520202020302E3631383820202020302E303030302043202020302020302020302020302020302020302020302020302020302020302020302020300A2020312020322020312020302020202020200A2020332020342020312020302020202020200A2020342020352020312020302020202020200A2020312020332020312020302020202020200A2020312020362020312020302020202020200A4D2020454E44
Contributor: SASAKI S, TOYOHASHI UNIV. OF TECH.
InstType: EI
InstName: SHIMADZU LKB-2091
IoniMethod: _ENERGY 70 eV
IonPolarity: pos
Date: 2010-10-09 19:48:36+02:00
Num Peaks: 24
27 75 28 21 29 31 30 15 31 30 39 37 40 7 41 6 42 277 43 91 
44 49 45 11 46 15 56 13 57 11 58 1 59 999 60 31 70 10 71 1 
72 5 73 3 88 172 89 12 
