Name: 4-HYDROXY-3-METHOXYMANDELIC ACID-TRI-TMS
MW: 414
Formula: C18H34O5Si3
Synonym: MassBank: JP002725
Synonym: 4-HYDROXY-3-METHOXYMANDELIC ACID-TRI-TMS
Structure: 342D485944524F58592D332D4D4554484F58594D414E44454C494320414349442D5452492D544D532E6D6F6C0A20204368656D447261773034313231303139313532440A2032362032362020302020302020302020302020302020302020302020303939392056323030300A2020202D302E373134352020202D302E3230363320202020302E303030302043202020302020302020302020302020302020302020302020302020302020302020302020300A2020202D302E373134352020202D312E3033313320202020302E303030302043202020302020302020302020302020302020302020302020302020302020302020302020300A20202020302E303030302020202D312E3434333820202020302E303030302043202020302020302020302020302020302020302020302020302020302020302020302020300A20202020302E373134352020202D312E3033313320202020302E303030302043202020302020302020302020302020302020302020302020302020302020302020302020300A20202020302E373134352020202D302E3230363320202020302E303030302043202020302020302020302020302020302020302020302020302020302020302020302020300A20202020302E3030303020202020302E3230363220202020302E303030302043202020302020302020302020302020302020302020302020302020302020302020302020300A20202020302E3030303020202020312E3033313220202020302E303030302043202020302020302020302020302020302020302020302020302020302020302020302020300A2020202D302E3731343520202020312E3434333720202020302E30303030204F202020302020302020302020302020302020302020302020302020302020302020302020300A20202020302E3731343520202020312E3434333720202020302E303030302043202020302020302020302020302020302020302020302020302020302020302020302020300A2020202D302E3731343520202020322E3236383720202020302E303030302053692020302020302020302020302020302020302020302020302020302020302020302020300A20202020302E3731343520202020322E3236383720202020302E30303030204F202020302020302020302020302020302020302020302020302020302020302020302020300A20202020312E3432383920202020312E3033313220202020302E30303030204F202020302020302020302020302020302020302020302020302020302020302020302020300A20202020312E3432383920202020322E3638313220202020302E303030302053692020302020302020302020302020302020302020302020302020302020302020302020300A20202020322E3134333420202020332E3039333720202020302E303030302043202020302020302020302020302020302020302020302020302020302020302020302020300A20202020312E3031363420202020332E3339353720202020302E303030302043202020302020302020302020302020302020302020302020302020302020302020302020300A20202020312E3834313420202020312E3936363820202020302E303030302043202020302020302020302020302020302020302020302020302020302020302020302020300A2020202D302E3731343520202020332E3039333720202020302E303030302043202020302020302020302020302020302020302020302020302020302020302020302020300A20202020302E3131303520202020322E3236383720202020302E303030302043202020302020302020302020302020302020302020302020302020302020302020302020300A2020202D312E3533393520202020322E3236383720202020302E303030302043202020302020302020302020302020302020302020302020302020302020302020302020300A2020202D312E343238392020202D312E3434333820202020302E30303030204F202020302020302020302020302020302020302020302020302020302020302020302020300A2020202D322E313433342020202D312E3033313320202020302E303030302043202020302020302020302020302020302020302020302020302020302020302020302020300A20202020302E303030302020202D322E3236383820202020302E30303030204F202020302020302020302020302020302020302020302020302020302020302020302020300A20202020302E373134352020202D322E3638313320202020302E303030302053692020302020302020302020302020302020302020302020302020302020302020302020300A20202020312E343238392020202D332E3039333820202020302E303030302043202020302020302020302020302020302020302020302020302020302020302020302020300A20202020312E313237302020202D312E3936363820202020302E303030302043202020302020302020302020302020302020302020302020302020302020302020302020300A20202020302E333032302020202D332E3339353720202020302E303030302043202020302020302020302020302020302020302020302020302020302020302020302020300A2020312020322020322020302020202020200A2020322020332020312020302020202020200A2020332020342020322020302020202020200A2020342020352020312020302020202020200A2020352020362020322020302020202020200A2020362020312020312020302020202020200A2020362020372020312020302020202020200A2020372020382020312020302020202020200A2020372020392020312020302020202020200A2020382031302020312020302020202020200A2020392031312020312020302020202020200A2020392031322020322020302020202020200A2031312031332020312020302020202020200A2031332031342020312020302020202020200A2031332031352020312020312020202020200A2031332031362020312020312020202020200A2031302031372020312020302020202020200A2031302031382020312020302020202020200A2031302031392020312020302020202020200A2020322032302020312020302020202020200A2032302032312020312020302020202020200A2020332032322020312020302020202020200A2032322032332020312020302020202020200A2032332032342020312020302020202020200A2032332032352020312020312020202020200A2032332032362020312020312020202020200A4D2020454E44
Contributor: HAYASHI A, DEPT. OF CHEMISTRY, FAC. OF SCI. AND TECHNOLOGY, KINKI UNIV.
InstType: EI
InstName: SHIMADZU LKB-9000B
IoniMethod: _ENERGY 70 eV
IonPolarity: pos
Date: 2010-10-09 19:48:36+02:00
Num Peaks: 175
41 16 42 12 43 31 44 3 45 75 46 5 47 9 50 0 51 1 53 1 
55 11 56 0 57 22 58 4 59 46 60 0 61 3 62 1 64 1 67 0 
68 2 69 11 70 2 71 1 72 7 73 668 74 78 75 9 76 5 77 1 
79 2 81 1 83 5 84 2 85 4 87 1 88 1 89 9 90 2 91 0 
92 4 93 5 94 1 97 0 98 1 103 2 104 1 108 0 111 1 113 4 
116 1 117 1 124 2 125 3 129 7 130 0 131 6 132 6 133 15 135 1 
137 6 138 1 139 2 141 0 142 1 143 2 145 3 147 8 148 14 149 11 
150 2 153 0 159 1 161 2 162 2 163 1 164 2 165 3 166 1 167 0 
175 6 176 1 177 4 179 1 180 1 181 3 185 1 192 1 193 22 194 26 
195 6 196 0 198 1 200 1 203 1 206 1 207 5 208 2 209 11 210 0 
217 1 221 4 222 2 223 3 225 4 227 2 228 2 235 0 236 5 237 8 
238 1 239 0 240 1 242 1 244 1 246 0 249 2 250 2 251 7 252 0 
253 4 254 2 262 1 263 0 264 2 265 10 266 4 267 5 268 10 269 4 
270 2 271 0 273 1 275 1 278 1 279 0 281 5 282 4 283 3 289 0 
292 1 294 2 295 7 296 2 297 999 298 249 299 108 300 2 301 2 307 2 
308 2 309 0 311 6 312 3 313 2 323 0 325 4 326 12 328 2 341 0 
342 1 343 2 355 1 356 0 370 2 371 44 372 15 373 1 399 41 400 14 
401 6 402 0 413 5 414 1 415 3 
