Name: 3-PYRIDYLMETHYL OCTADEC-9-ENOATE
MW: 373
Formula: C24H39NO2
Synonym: MassBank: JP008098
Synonym: 3-PYRIDYLMETHYL OCTADEC-9-ENOATE
Synonym: OLEIC ACID PICOLINYL ESTER
Structure: 332D5059524944594C4D455448594C204F4354414445432D392D454E4F4154452E6D6F6C0A20204368656D447261773033323331303136333832440A2032372032372020302020302020302020302020302020302020302020303939392056323030300A20202020322E353030362020202D312E3434333720202020302E303030302043202020302020302020302020302020302020302020302020302020302020302020302020300A20202020322E353030362020202D322E3236383720202020302E303030302043202020302020302020302020302020302020302020302020302020302020302020302020300A20202020312E373836322020202D322E3638313220202020302E303030302043202020302020302020302020302020302020302020302020302020302020302020302020300A20202020312E303731372020202D322E3236383720202020302E303030302043202020302020302020302020302020302020302020302020302020302020302020302020300A20202020302E333537322020202D322E3638313220202020302E303030302043202020302020302020302020302020302020302020302020302020302020302020302020300A2020202D302E333537322020202D322E3236383720202020302E303030302043202020302020302020302020302020302020302020302020302020302020302020302020300A2020202D312E303731372020202D322E3638313220202020302E303030302043202020302020302020302020302020302020302020302020302020302020302020302020300A2020202D312E373836322020202D322E3236383720202020302E303030302043202020302020302020302020302020302020302020302020302020302020302020302020300A2020202D322E353030362020202D322E3638313220202020302E303030302043202020302020302020302020302020302020302020302020302020302020302020302020300A2020202D332E323135312020202D322E3236383720202020302E303030302043202020302020302020302020302020302020302020302020302020302020302020302020300A2020202D332E323135312020202D312E3434333720202020302E303030302043202020302020302020302020302020302020302020302020302020302020302020302020300A2020202D332E393239362020202D312E3033313220202020302E303030302043202020302020302020302020302020302020302020302020302020302020302020302020300A2020202D332E393239362020202D302E3230363320202020302E303030302043202020302020302020302020302020302020302020302020302020302020302020302020300A2020202D342E3634343120202020302E3230363220202020302E303030302043202020302020302020302020302020302020302020302020302020302020302020302020300A2020202D342E3634343120202020312E3033313220202020302E303030302043202020302020302020302020302020302020302020302020302020302020302020302020300A2020202D352E3335383520202020312E3434333720202020302E303030302043202020302020302020302020302020302020302020302020302020302020302020302020300A2020202D352E3335383520202020322E3236383720202020302E303030302043202020302020302020302020302020302020302020302020302020302020302020302020300A2020202D362E3037333020202020322E3638313220202020302E303030302043202020302020302020302020302020302020302020302020302020302020302020302020300A20202020312E373836322020202D312E3033313220202020302E30303030204F202020302020302020302020302020302020302020302020302020302020302020302020300A20202020332E323135312020202D312E3033313220202020302E30303030204F202020302020302020302020302020302020302020302020302020302020302020302020300A20202020332E393239362020202D312E3434333720202020302E303030302043202020302020302020302020302020302020302020302020302020302020302020302020300A20202020352E333538352020202D312E3434333720202020302E303030302043202020302020302020302020302020302020302020302020302020302020302020302020300A20202020342E363434312020202D312E3033313220202020302E303030302043202020302020302020302020302020302020302020302020302020302020302020302020300A20202020342E363434312020202D302E3230363220202020302E303030302043202020302020302020302020302020302020302020302020302020302020302020302020300A20202020352E3335383520202020302E3230363320202020302E303030302043202020302020302020302020302020302020302020302020302020302020302020302020300A20202020362E303733302020202D302E3230363220202020302E303030302043202020302020302020302020302020302020302020302020302020302020302020302020300A20202020362E303733302020202D312E3033313220202020302E30303030204E202020302020302020302020302020302020302020302020302020302020302020302020300A2020312020322020312020302020202020200A2020322020332020312020302020202020200A2020332020342020312020302020202020200A2020342020352020312020302020202020200A2020352020362020312020302020202020200A2020362020372020312020302020202020200A2020372020382020312020302020202020200A2020382020392020312020302020202020200A2020392031302020322020302020202020200A2031302031312020312020302020202020200A2031312031322020312020302020202020200A2031322031332020312020302020202020200A2031332031342020312020302020202020200A2031342031352020312020302020202020200A2031352031362020312020302020202020200A2031362031372020312020302020202020200A2031372031382020312020302020202020200A2020312031392020322020302020202020200A2020312032302020312020302020202020200A2032322032332020312020302020202020200A2032332032342020322020302020202020200A2032342032352020312020302020202020200A2032352032362020322020302020202020200A2032362032372020312020302020202020200A2032322032372020322020302020202020200A2032312032332020312020302020202020200A2032302032312020312020302020202020200A4D2020454E44
Contributor: YAMAMOTO M, DEP. CHEMISTRY, FAC. SCIENCE, NARA WOMEN'S UNIV.
InstType: EI
InstName: JEOL JMS-HX-100
IoniMethod: _ENERGY 70 eV
IonPolarity: pos
Date: 2010-10-09 19:48:36+02:00
Num Peaks: 183
35 7 38 9 39 73 40 4 41 238 42 37 43 180 44 9 45 2 50 4 
51 13 52 8 53 35 54 84 55 337 56 58 57 93 58 9 59 6 60 4 
63 8 64 19 65 121 66 14 67 121 68 42 69 190 70 32 71 29 73 4 
75 3 77 10 78 22 79 36 80 30 81 90 82 29 83 104 84 12 85 19 
87 3 91 39 92 999 93 482 94 55 95 58 96 4 97 61 98 21 99 3 
101 10 104 4 105 9 106 20 107 16 108 694 109 296 110 87 111 26 112 11 
113 6 115 5 117 2 118 14 119 6 120 14 121 14 122 9 123 8 124 9 
125 7 126 8 127 7 129 1 130 9 131 5 132 10 133 5 134 16 135 14 
136 9 137 12 138 7 139 9 144 11 145 9 146 8 147 11 148 20 150 10 
151 285 152 43 153 9 159 8 161 11 163 1 164 765 165 113 166 15 167 9 
175 9 177 3 178 135 179 32 180 8 181 8 183 8 190 13 192 46 193 6 
194 8 202 7 204 27 205 9 206 121 207 14 208 2 209 6 210 0 218 14 
219 7 220 165 221 55 222 15 223 8 230 7 232 18 233 14 234 59 235 14 
244 8 245 13 246 39 247 41 248 37 249 2 256 11 260 102 261 70 262 26 
263 14 265 4 269 5 270 8 272 10 274 427 275 127 276 34 283 3 284 2 
288 477 289 148 290 26 298 8 300 8 302 124 303 41 304 11 313 4 314 8 
316 129 317 43 318 10 328 7 330 114 331 31 332 16 342 3 343 8 344 98 
345 35 346 9 354 9 355 5 356 3 358 27 359 11 367 6 371 2 372 106 
373 890 374 230 375 42 
