Name: MassBank: JP004409
MW: 200
Formula: C13H16N2
Synonym: MassBank: JP004409
Synonym: 2,2-DIMETHYL-1,2,3,4-TETRAHYDRO-GAMMA-CARBOLINE
Structure: 322C322D44494D455448594C2D312C322C332C342D5445545241485944524F2D47414D4D412D434152424F4C494E452E6D6F6C0A20204368656D447261773132323030393036333632440A2031352031372020302020302020302020302020302020302020302020303939392056323030300A2020202D312E3532383820202020302E3630323720202020302E303030302043202020302020302020302020302020302020302020302020302020302020302020302020300A2020202D312E353238382020202D302E3232323320202020302E30303030204E202020302020302020302020302020302020302020302020302020302020302020302020300A2020202D302E383134332020202D302E3633343820202020302E303030302043202020302020302020302020302020302020302020302020302020302020302020302020300A2020202D302E303939392020202D302E3232323320202020302E303030302043202020302020302020302020302020302020302020302020302020302020302020302020300A2020202D302E3039393920202020302E3630323720202020302E303030302043202020302020302020302020302020302020302020302020302020302020302020302020300A2020202D302E3831343320202020312E3031353220202020302E303030302043202020302020302020302020302020302020302020302020302020302020302020302020300A20202020302E363834372020202D302E3437373220202020302E303030302043202020302020302020302020302020302020302020302020302020302020302020302020300A20202020312E3136393720202020302E3139303220202020302E303030302043202020302020302020302020302020302020302020302020302020302020302020302020300A20202020302E3638343720202020302E3835373620202020302E30303030204E202020302020302020302020302020302020302020302020302020302020302020302020300A20202020312E303230332020202D312E3233303920202020302E303030302043202020302020302020302020302020302020302020302020302020302020302020302020300A20202020312E383430382020202D312E3331373220202020302E303030302043202020302020302020302020302020302020302020302020302020302020302020302020300A20202020322E333235372020202D302E3634393720202020302E303030302043202020302020302020302020302020302020302020302020302020302020302020302020300A20202020312E3939303120202020302E3130343020202020302E303030302043202020302020302020302020302020302020302020302020302020302020302020302020300A2020202D312E3934313320202020312E3331373220202020302E303030302043202020302020302020302020302020302020302020302020302020302020302020302020300A2020202D322E3332353720202020302E3338393220202020302E303030302043202020302020302020302020302020302020302020302020302020302020302020302020300A2020312020322020312020302020202020200A2020322020332020312020302020202020200A2020332020342020312020302020202020200A2020342020352020322020302020202020200A2020352020362020312020302020202020200A2020362020312020312020302020202020200A2020342020372020312020302020202020200A2020372020382020322020302020202020200A2020382020392020312020302020202020200A2020392020352020312020302020202020200A2020372031302020312020302020202020200A2031302031312020322020302020202020200A2031312031322020312020302020202020200A2031322031332020322020302020202020200A2031332020382020312020302020202020200A2020312031342020312020312020202020200A2020312031352020312020362020202020200A4D2020454E44
Contributor: SASAKI S, TOYOHASHI UNIV. OF TECH.
InstType: EI
InstName: JEOL JMS-01-SG-2
IoniMethod: _ENERGY 75 eV
IonPolarity: pos
Date: 2010-10-09 19:48:36+02:00
Num Peaks: 20
42 30 44 12 51 10 57 5 71 10 77 19 87 10 91 1 92 10 101 10 
115 49 128 2 130 15 142 20 143 999 144 12 145 11 185 10 199 8 200 154 
