Name: TRANS-BICYCLO(4.3.0)NONANE
MW: 124
Formula: C9H16
Synonym: MassBank: JP000134
Synonym: TRANS-BICYCLO(4.3.0)NONANE
Synonym: TRANS-HEXAHYDROINDANE
Structure: 5452414E532D42494359434C4F28342E332E30294E4F4E414E452E6D6F6C0A20204368656D447261773038313231303038303632440A2031312031322020302020302020302020302020302020302020302020303939392056323030300A2020202D302E343132352020202D302E3037393720202020302E303030302043202020302020302020302020302020302020302020302020302020302020302020302020300A2020202D302E3832353020202020302E3633343820202020302E303030302043202020302020302020302020302020302020302020302020302020302020302020302020300A2020202D302E3431323520202020312E3334393220202020302E303030302043202020302020302020302020302020302020302020302020302020302020302020302020300A20202020302E3431323520202020312E3334393220202020302E303030302043202020302020302020302020302020302020302020302020302020302020302020302020300A20202020302E3832353020202020302E3633343820202020302E303030302043202020302020302020302020302020302020302020302020302020302020302020302020300A20202020302E343132352020202D302E3037393720202020302E303030302043202020302020302020302020302020302020302020302020302020302020302020302020300A20202020302E363637342020202D302E3836343320202020302E303030302043202020302020302020302020302020302020302020302020302020302020302020302020300A20202020302E303030302020202D312E3334393220202020302E303030302043202020302020302020302020302020302020302020302020302020302020302020302020300A2020202D302E363637342020202D302E3836343320202020302E303030302043202020302020302020302020302020302020302020302020302020302020302020302020300A2020202D312E323333302020202D302E3136353920202020302E303030302048202020302020302020302020302020302020302020302020302020302020302020302020300A20202020312E323333302020202D302E3136353920202020302E303030302048202020302020302020302020302020302020302020302020302020302020302020302020300A2020312020322020312020302020202020200A2020322020332020312020302020202020200A2020332020342020312020302020202020200A2020342020352020312020302020202020200A2020352020362020312020302020202020200A2020362020372020312020302020202020200A2020372020382020312020302020202020200A2020382020392020312020302020202020200A2020312020392020312020302020202020200A2020312020362020312020302020202020200A2020312031302020312020362020202020200A2020362031312020312020312020202020200A4D2020454E44
Contributor: YAMAMOTO M, DEP. CHEMISTRY, FAC. SCIENCE, NARA WOMEN'S UNIV.
InstType: EI
InstName: HITACHI M-80
IoniMethod: _ENERGY 70 eV
IonPolarity: pos
Date: 2010-10-09 19:48:36+02:00
Num Peaks: 36
26 20 27 329 28 220 29 219 32 31 38 13 39 409 40 60 41 516 42 52 
43 26 50 16 51 38 52 22 53 136 54 254 55 299 56 18 65 39 66 194 
67 999 68 261 69 47 77 37 79 62 80 26 81 371 82 464 83 55 91 13 
94 10 95 118 96 402 97 29 124 143 125 13 
