Name: PROPYLENE GLYCOL DIACETATE
MW: 160
Formula: C7H12O4
Synonym: MassBank: JP005874
Synonym: PROPYLENE GLYCOL DIACETATE
Synonym: 1,2-DIACETHOXYPROPANE
Structure: 50524F50594C454E4520474C59434F4C204449414345544154452E6D6F6C0A20204368656D447261773131303330393232353932440A2031312031302020302020302020302020302020302020302020302020303939392056323030300A20202020302E3335373220202020302E3230363320202020302E303030302043202020302020302020302020302020302020302020302020302020302020302020302020300A2020202D302E333537322020202D302E3230363320202020302E303030302043202020302020302020302020302020302020302020302020302020302020302020302020300A2020202D302E333537322020202D312E3033313320202020302E303030302043202020302020302020302020302020302020302020302020302020302020302020302020300A20202020312E3738363220202020302E3230363320202020302E303030302043202020302020302020302020302020302020302020302020302020302020302020302020300A20202020322E353030362020202D302E3230363220202020302E303030302043202020302020302020302020302020302020302020302020302020302020302020302020300A20202020312E3738363220202020312E3033313320202020302E30303030204F202020302020302020302020302020302020302020302020302020302020302020302020300A20202020312E303731372020202D302E3230363320202020302E30303030204F202020302020302020302020302020302020302020302020302020302020302020302020300A2020202D312E373836322020202D302E3230363320202020302E303030302043202020302020302020302020302020302020302020302020302020302020302020302020300A2020202D322E3530303620202020302E3230363220202020302E303030302043202020302020302020302020302020302020302020302020302020302020302020302020300A2020202D312E373836322020202D312E3033313320202020302E30303030204F202020302020302020302020302020302020302020302020302020302020302020302020300A2020202D312E3037313720202020302E3230363220202020302E30303030204F202020302020302020302020302020302020302020302020302020302020302020302020300A2020312020322020312020302020202020200A2020322020332020312020302020202020200A2020342020352020312020302020202020200A2020342020362020322020302020202020200A2020342020372020312020302020202020200A2020312020372020312020302020202020200A2020382020392020312020302020202020200A2020382031302020322020302020202020200A2020382031312020312020302020202020200A2020322031312020312020302020202020200A4D2020454E44
Contributor: YAMAMOTO M, DEP. CHEMISTRY, FAC. SCIENCE, NARA WOMEN'S UNIV.
InstType: EI
InstName: HITACHI RMU-6M
IoniMethod: _ENERGY 70 eV
IonPolarity: pos
Date: 2010-10-09 19:48:36+02:00
Num Peaks: 20
15 54 27 13 28 27 29 12 31 11 39 12 41 14 42 19 43 999 44 25 
45 23 58 33 73 23 74 15 86 38 87 105 100 51 103 12 116 50 117 20 
