Name: 15-CROWN-5
CAS: 33100-27-5
MW: 220
Formula: C10H20O5
Synonym: MassBank: JP006268
Synonym: 15-CROWN-5
Synonym: 1,4,7,10,13-PENTAOXACYCLOPENTADECANE
Structure: 31352D43524F574E2D352E6D6F6C0A20204368656D447261773131313430393232303132440A2031352031352020302020302020302020302020302020302020302020303939392056323030300A2020202D322E3333323620202020302E3431323520202020302E303030302043202020302020302020302020302020302020302020302020302020302020302020302020300A2020202D322E333332362020202D302E3431323520202020302E303030302043202020302020302020302020302020302020302020302020302020302020302020302020300A2020202D312E363138312020202D302E3832353020202020302E30303030204F202020302020302020302020302020302020302020302020302020302020302020302020300A2020202D302E393033362020202D302E3431323520202020302E303030302043202020302020302020302020302020302020302020302020302020302020302020302020300A2020202D302E3930333620202020302E3431323520202020302E303030302043202020302020302020302020302020302020302020302020302020302020302020302020300A2020202D312E3631383120202020302E3832353020202020302E30303030204F202020302020302020302020302020302020302020302020302020302020302020302020300A2020202D302E313839322020202D302E3832353020202020302E303030302043202020302020302020302020302020302020302020302020302020302020302020302020300A20202020302E353235332020202D302E3431323520202020302E30303030204F202020302020302020302020302020302020302020302020302020302020302020302020300A20202020302E3532353320202020302E3431323520202020302E30303030204F202020302020302020302020302020302020302020302020302020302020302020302020300A2020202D302E3138393220202020302E3832353020202020302E303030302043202020302020302020302020302020302020302020302020302020302020302020302020300A20202020312E313730332020202D302E3932363920202020302E303030302043202020302020302020302020302020302020302020302020302020302020302020302020300A20202020312E393734362020202D302E3734333320202020302E303030302043202020302020302020302020302020302020302020302020302020302020302020302020300A20202020322E333332362020202D302E3030303020202020302E30303030204F202020302020302020302020302020302020302020302020302020302020302020302020300A20202020312E3937343620202020302E3734333320202020302E303030302043202020302020302020302020302020302020302020302020302020302020302020302020300A20202020312E3137303320202020302E3932363920202020302E303030302043202020302020302020302020302020302020302020302020302020302020302020302020300A2020312020322020312020302020202020200A2020322020332020312020302020202020200A2020332020342020312020302020202020200A2020352020362020312020302020202020200A2020362020312020312020302020202020200A2020342020372020312020302020202020200A2020372020382020312020302020202020200A2020392031302020312020302020202020200A2031302020352020312020302020202020200A2020382031312020312020302020202020200A2031312031322020312020302020202020200A2031322031332020312020302020202020200A2031332031342020312020302020202020200A2031342031352020312020302020202020200A2031352020392020312020302020202020200A4D2020454E44
Contributor: MASS SPECTROSCOPY SOC. OF JAPAN (MSSJ)
InstType: EI
InstName: HITACHI M-80
IoniMethod: _ENERGY 70 eV
IonPolarity: pos
Date: 2010-10-09 19:48:36+02:00
Num Peaks: 53
15 54 19 15 26 18 27 112 28 362 29 221 30 52 31 278 32 93 41 54 
42 139 43 602 44 401 45 999 46 27 56 20 57 112 58 229 59 205 60 15 
61 13 69 10 70 62 71 93 72 160 73 326 74 16 75 43 86 57 87 308 
88 257 89 573 90 30 91 7 99 9 100 8 101 101 102 28 103 27 104 7 
105 14 114 9 115 17 116 9 117 48 118 13 119 11 131 48 132 7 133 280 
134 18 177 24 221 6 
