Name: ETHYL PARA TOLUATE
MW: 164
Formula: C10H12O2
Synonym: MassBank: JP000049
Synonym: ETHYL PARA TOLUATE
Synonym: PARA TOLUIC ACID ETHYL ESTER
Structure: 5041524120544F4C554943204143494420455448594C2045535445522E6D6F6C0A20204368656D447261773038313231303034343432440A2031322031322020302020302020302020302020302020302020302020303939392056323030300A20202020302E303030302020202D302E3335373220202020302E303030302043202020302020302020302020302020302020302020302020302020302020302020302020300A2020202D302E343132352020202D312E3037313720202020302E303030302043202020302020302020302020302020302020302020302020302020302020302020302020300A2020202D312E363530302020202D302E3335373220202020302E303030302043202020302020302020302020302020302020302020302020302020302020302020302020300A2020202D302E3431323520202020302E3335373220202020302E303030302043202020302020302020302020302020302020302020302020302020302020302020302020300A2020202D312E323337352020202D312E3037313720202020302E303030302043202020302020302020302020302020302020302020302020302020302020302020302020300A2020202D312E3233373520202020302E3335373220202020302E303030302043202020302020302020302020302020302020302020302020302020302020302020302020300A2020202D322E343735302020202D302E3335373220202020302E303030302043202020302020302020302020302020302020302020302020302020302020302020302020300A20202020302E383235302020202D302E3335373220202020302E303030302043202020302020302020302020302020302020302020302020302020302020302020302020300A20202020312E323337352020202D312E3037313720202020302E30303030204F202020302020302020302020302020302020302020302020302020302020302020302020300A20202020312E3233373520202020302E3335373220202020302E30303030204F202020302020302020302020302020302020302020302020302020302020302020302020300A20202020322E3036323520202020302E3335373220202020302E303030302043202020302020302020302020302020302020302020302020302020302020302020302020300A20202020322E3437353020202020312E3037313720202020302E303030302043202020302020302020302020302020302020302020302020302020302020302020302020300A2020312020322020312020302020202020200A2020312020342020322020302020202020200A2020322020352020322020302020202020200A2020332020352020312020302020202020200A2020332020362020322020302020202020200A2020342020362020312020302020202020200A2020332020372020312020302020202020200A2020312020382020312020302020202020200A2020382020392020322020302020202020200A2020382031302020312020302020202020200A2031312031322020312020302020202020200A2031302031312020312020302020202020200A4D2020454E44
Contributor: TAJIMA S, GUNMA COLLEGE OF TECHNOLOGY
InstType: EI
InstName: HITACHI RMU-7M
IoniMethod: _ENERGY 70 eV
IonPolarity: pos
Date: 2010-10-09 19:48:36+02:00
Num Peaks: 32
15 86 26 73 27 429 29 358 38 74 39 616 40 46 41 140 43 34 45 32 
50 139 51 207 52 53 53 33 61 19 62 93 63 299 64 83 65 803 66 41 
77 54 89 139 90 80 91 934 92 108 119 999 120 101 136 159 137 12 149 15 
164 74 165 9 
