Name: MassBank: JP009539
CAS: 121-72-2
MW: 135
Formula: C9H13N
Synonym: MassBank: JP009539
Synonym: N,N-DIMETHYL-META-TOLUIDINE
Structure: 4E2C4E2D44494D455448594C2D4D4554412D544F4C554944494E452E6D6F6C0A20204368656D447261773038313231303032333732440A2031302031302020302020302020302020302020302020302020302020303939392056323030300A2020202D312E303331322020202D302E3335373220202020302E30303030204E202020302020302020302020302020302020302020302020302020302020302020302020300A2020202D302E323036322020202D302E3335373220202020302E303030302043202020302020302020302020302020302020302020302020302020302020302020302020300A20202020302E3230363320202020302E3335373220202020302E303030302043202020302020302020302020302020302020302020302020302020302020302020302020300A20202020312E3033313220202020302E3335373220202020302E303030302043202020302020302020302020302020302020302020302020302020302020302020302020300A20202020312E343433382020202D302E3335373220202020302E303030302043202020302020302020302020302020302020302020302020302020302020302020302020300A20202020312E303331332020202D312E3037313720202020302E303030302043202020302020302020302020302020302020302020302020302020302020302020302020300A20202020302E323036332020202D312E3037313720202020302E303030302043202020302020302020302020302020302020302020302020302020302020302020302020300A20202020312E3434333720202020312E3037313720202020302E303030302043202020302020302020302020302020302020302020302020302020302020302020302020300A2020202D312E343433382020202D312E3037313720202020302E303030302043202020302020302020302020302020302020302020302020302020302020302020302020300A2020202D312E3434333820202020302E3335373220202020302E303030302043202020302020302020302020302020302020302020302020302020302020302020302020300A2020312020322020312020302020202020200A2020322020332020312020302020202020200A2020332020342020322020302020202020200A2020342020352020312020302020202020200A2020352020362020322020302020202020200A2020362020372020312020302020202020200A2020322020372020322020302020202020200A2020342020382020312020302020202020200A2020312020392020312020302020202020200A2020312031302020312020302020202020200A4D2020454E44
Contributor: NARA WOMEN'S UNIVERSITY
InstType: EI
InstName: HITACHI M-80
IoniMethod: _ENERGY 70 eV
IonPolarity: pos
Date: 2010-10-09 19:48:36+02:00
Num Peaks: 29
15 13 28 19 39 23 42 38 44 14 51 13 63 16 65 53 67 13 77 36 
78 14 79 12 89 15 90 10 91 153 92 30 93 16 104 11 105 19 106 12 
118 90 119 90 120 58 121 16 132 14 133 14 134 999 135 839 136 74 
