Name: 2-(1-METHOXYBENZYL)CYCLOPENTANONE
MW: 204
Formula: C13H16O2
Synonym: MassBank: JP002256
Synonym: 2-(1-METHOXYBENZYL)CYCLOPENTANONE
Structure: 322D28312D4D4554484F585942454E5A594C294359434C4F50454E54414E4F4E452E6D6F6C0A20204368656D447261773132323130393035353132440A2031352031362020302020302020302020302020302020302020302020303939392056323030300A20202020312E303230362020202D312E3039303520202020302E303030302043202020302020302020302020302020302020302020302020302020302020302020302020300A20202020302E333337302020202D302E3630303920202020302E303030302043202020302020302020302020302020302020302020302020302020302020302020302020300A2020202D302E333237382020202D312E3038353920202020302E303030302043202020302020302020302020302020302020302020302020302020302020302020302020300A2020202D302E303732392020202D312E3837303520202020302E303030302043202020302020302020302020302020302020302020302020302020302020302020302020300A20202020302E373338352020202D312E3836353820202020302E303030302043202020302020302020302020302020302020302020302020302020302020302020302020300A20202020302E3333373020202020302E3232333220202020302E303030302043202020302020302020302020302020302020302020302020302020302020302020302020300A2020202D302E3337373520202020302E3633353720202020302E303030302043202020302020302020302020302020302020302020302020302020302020302020302020300A2020202D312E3039313420202020302E3232303520202020302E303030302043202020302020302020302020302020302020302020302020302020302020302020302020300A2020202D312E3830363920202020302E3633313220202020302E303030302043202020302020302020302020302020302020302020302020302020302020302020302020300A2020202D312E3830393020202020312E3435363220202020302E303030302043202020302020302020302020302020302020302020302020302020302020302020302020300A2020202D312E3039353620202020312E3837303520202020302E303030302043202020302020302020302020302020302020302020302020302020302020302020302020300A2020202D302E3338303120202020312E3435393820202020302E303030302043202020302020302020302020302020302020302020302020302020302020302020302020300A20202020312E383039302020202D302E3834373420202020302E30303030204F202020302020302020302020302020302020302020302020302020302020302020302020300A20202020312E3035323320202020302E3633363120202020302E30303030204F202020302020302020302020302020302020302020302020302020302020302020302020300A20202020312E3035323320202020312E3436333420202020302E303030302043202020302020302020302020302020302020302020302020302020302020302020302020300A2020312020322020312020302020202020200A2020322020332020312020302020202020200A2020332020342020312020302020202020200A2020342020352020312020302020202020200A2020312020352020312020302020202020200A2020362020372020312020302020202020200A2020372020382020312020302020202020200A2020382020392020322020302020202020200A2020392031302020312020302020202020200A2031302031312020322020302020202020200A2031312031322020312020302020202020200A2020372031322020322020302020202020200A2020322020362020312020302020202020200A2020312031332020322020302020202020200A2020362031342020312020302020202020200A2031342031352020312020302020202020200A4D2020454E44
Contributor: MASS SPECTROSCOPY SOC. OF JAPAN (MSSJ)
InstType: EI
InstName: JEOL JMS-D-3000
IoniMethod: _ENERGY 70 eV
IonPolarity: pos
Date: 2010-10-09 19:48:36+02:00
Num Peaks: 21
40 28 42 17 44 11 51 23 55 11 65 17 77 99 78 20 91 81 105 40 
115 42 116 22 117 26 121 999 122 93 128 15 129 23 130 28 171 24 172 28 
204 6 
