Name: BUTYL N-TRIFLUOROACETYL 1-AMINOBUTYLPHOSPHONATE
MW: 361
Formula: C14H27F3NO4P
Synonym: MassBank: JP002727
Synonym: BUTYL N-TRIFLUOROACETYL 1-AMINOBUTYLPHOSPHONATE
Structure: 425554594C204E2D545249464C554F524F41434554594C20312D414D494E4F425554594C50484F5350484F4E4154452E6D6F6C0A20204368656D447261773039303631303033353532440A2032332032322020302020302020302020302020302020302020302020303939392056323030300A2020202D302E3337323020202020302E3234363720202020302E303030302043202020302020302020302020302020302020302020302020302020302020302020302020300A2020202D302E3337323020202020312E3037313720202020302E303030302043202020302020302020302020302020302020302020302020302020302020302020302020300A2020202D312E3038363520202020312E3438343220202020302E303030302043202020302020302020302020302020302020302020302020302020302020302020302020300A2020202D312E3038363520202020322E3330393220202020302E303030302043202020302020302020302020302020302020302020302020302020302020302020302020300A20202020302E333432342020202D302E3136353820202020302E303030302050202020302020302020302020302020302020302020302020302020302020302020302020300A20202020312E303536392020202D302E3537383320202020302E30303030204F202020302020302020302020302020302020302020302020302020302020302020302020300A20202020302E3735343920202020302E3534383720202020302E30303030204F202020302020302020302020302020302020302020302020302020302020302020302020300A2020202D302E303730312020202D302E3838303320202020302E30303030204F202020302020302020302020302020302020302020302020302020302020302020302020300A2020202D312E303836352020202D302E3136353820202020302E30303030204E202020302020302020302020302020302020302020302020302020302020302020302020300A2020202D312E3830313020202020302E3234363720202020302E303030302043202020302020302020302020302020302020302020302020302020302020302020302020300A2020202D312E3830313020202020312E3037313720202020302E30303030204F202020302020302020302020302020302020302020302020302020302020302020302020300A2020202D322E353135352020202D302E3136353820202020302E303030302043202020302020302020302020302020302020302020302020302020302020302020302020300A2020202D332E323239392020202D302E3537383320202020302E303030302046202020302020302020302020302020302020302020302020302020302020302020302020300A2020202D322E3932383020202020302E3534383720202020302E303030302046202020302020302020302020302020302020302020302020302020302020302020302020300A2020202D322E313033302020202D302E3838303320202020302E303030302046202020302020302020302020302020302020302020302020302020302020302020302020300A20202020312E3537393920202020302E3534383720202020302E303030302043202020302020302020302020302020302020302020302020302020302020302020302020300A20202020312E393932342020202D302E3136353820202020302E303030302043202020302020302020302020302020302020302020302020302020302020302020302020300A20202020322E383137342020202D302E3136353820202020302E303030302043202020302020302020302020302020302020302020302020302020302020302020302020300A20202020332E323239392020202D302E3838303320202020302E303030302043202020302020302020302020302020302020302020302020302020302020302020302020300A20202020302E333432342020202D312E3539343720202020302E303030302043202020302020302020302020302020302020302020302020302020302020302020302020300A20202020312E313637342020202D312E3539343720202020302E303030302043202020302020302020302020302020302020302020302020302020302020302020302020300A20202020312E353739392020202D322E3330393220202020302E303030302043202020302020302020302020302020302020302020302020302020302020302020302020300A20202020322E343034392020202D322E3330393220202020302E303030302043202020302020302020302020302020302020302020302020302020302020302020302020300A2020312020322020312020302020202020200A2020322020332020312020302020202020200A2020332020342020312020302020202020200A2020352020362020322020302020202020200A2020352020372020312020302020202020200A2020352020382020312020302020202020200A2020312020352020312020302020202020200A2020312020392020312020302020202020200A2031302031312020322020302020202020200A2031302031322020312020302020202020200A2031322031332020312020302020202020200A2031322031342020312020312020202020200A2031322031352020312020312020202020200A2020392031302020312020302020202020200A2031362031372020312020302020202020200A2031372031382020312020302020202020200A2031382031392020312020302020202020200A2020372031362020312020302020202020200A2020382032302020312020302020202020200A2032302032312020312020302020202020200A2032312032322020312020302020202020200A2032322032332020312020302020202020200A4D2020454E44
Contributor: HAYASHI A, DEPT. OF CHEMISTRY, FAC. OF SCI. AND TECHNOLOGY, KINKI UNIV.
InstType: EI
InstName: SHIMADZU LKB-9000B
IoniMethod: _ENERGY 70 eV
IonPolarity: pos
Date: 2010-10-09 19:48:36+02:00
Num Peaks: 63
55 83 56 59 57 49 65 14 69 54 70 20 72 13 78 2 82 62 83 694 
96 26 97 2 98 27 99 60 106 12 109 5 110 39 111 13 114 51 122 2 
123 170 124 15 126 225 127 1 134 12 136 31 137 69 138 44 139 999 140 83 
141 11 149 2 150 44 151 28 152 57 154 1 155 38 164 17 165 15 166 4 
167 22 168 247 169 37 179 3 180 34 189 32 194 97 195 2 202 10 206 38 
207 91 208 7 211 29 220 37 232 95 249 1 250 113 264 35 288 17 306 2 
319 14 361 4 362 2 
