Name: MassBank: JP002790
MW: 351
Formula: C14H9Cl5
Synonym: MassBank: JP002790
Synonym: 1,1-BIS(4-CHLOROPHENYL)-2,2,2-TRICHLOROETHANE
Structure: 312C312D42495328342D43484C4F524F5048454E594C292D322C322C322D54524943484C4F524F455448414E452E6D6F6C0A20204368656D447261773130323330393033323932440A2031392032302020302020302020302020302020302020302020302020303939392056323030300A2020202D302E3030303020202020302E3030303020202020302E303030302043202020302020302020302020302020302020302020302020302020302020302020302020300A2020202D302E3030303020202020302E3832353020202020302E303030302043202020302020302020302020302020302020302020302020302020302020302020302020300A2020202D302E3030303020202020312E3635303020202020302E3030303020436C2020302020302020302020302020302020302020302020302020302020302020302020300A20202020302E3832353020202020302E3832353020202020302E3030303020436C2020302020302020302020302020302020302020302020302020302020302020302020300A2020202D302E3832353020202020302E3832353020202020302E3030303020436C2020302020302020302020302020302020302020302020302020302020302020302020300A20202020302E373134352020202D302E3431323520202020302E303030302043202020302020302020302020302020302020302020302020302020302020302020302020300A20202020312E3432383920202020302E3030303020202020302E303030302043202020302020302020302020302020302020302020302020302020302020302020302020300A20202020322E313433342020202D302E3431323520202020302E303030302043202020302020302020302020302020302020302020302020302020302020302020302020300A20202020322E313433342020202D312E3233373520202020302E303030302043202020302020302020302020302020302020302020302020302020302020302020302020300A20202020312E343238392020202D312E3635303020202020302E303030302043202020302020302020302020302020302020302020302020302020302020302020302020300A20202020302E373134352020202D312E3233373520202020302E303030302043202020302020302020302020302020302020302020302020302020302020302020302020300A20202020322E383537392020202D312E3635303020202020302E3030303020436C2020302020302020302020302020302020302020302020302020302020302020302020300A2020202D302E373134352020202D302E3431323520202020302E303030302043202020302020302020302020302020302020302020302020302020302020302020302020300A2020202D302E373134352020202D312E3233373520202020302E303030302043202020302020302020302020302020302020302020302020302020302020302020302020300A2020202D312E343238392020202D312E3635303020202020302E303030302043202020302020302020302020302020302020302020302020302020302020302020302020300A2020202D322E313433342020202D312E3233373520202020302E303030302043202020302020302020302020302020302020302020302020302020302020302020302020300A2020202D322E313433342020202D302E3431323520202020302E303030302043202020302020302020302020302020302020302020302020302020302020302020302020300A2020202D312E3432383920202020302E3030303020202020302E303030302043202020302020302020302020302020302020302020302020302020302020302020302020300A2020202D322E383537392020202D312E3635303020202020302E3030303020436C2020302020302020302020302020302020302020302020302020302020302020302020300A2020312020322020312020302020202020200A2020322020332020312020302020202020200A2020322020342020312020302020202020200A2020322020352020312020302020202020200A2020362020372020312020302020202020200A2020372020382020322020302020202020200A2020382020392020312020302020202020200A2020392031302020322020302020202020200A2031302031312020312020302020202020200A2020362031312020322020302020202020200A2020392031322020312020302020202020200A2020312020362020312020302020202020200A2031332031342020312020302020202020200A2031342031352020322020302020202020200A2031352031362020312020302020202020200A2031362031372020322020302020202020200A2031372031382020312020302020202020200A2031332031382020322020302020202020200A2031362031392020312020302020202020200A2020312031332020312020302020202020200A4D2020454E44
Contributor: SASAKI S, TOYOHASHI UNIV. OF TECH.
InstType: EI
InstName: Unknown
IoniMethod: EI
IonPolarity: pos
Date: 2010-10-09 19:48:36+02:00
Num Peaks: 197
35 30 36 155 37 15 38 6 39 42 40 2 41 7 42 0 43 3 44 3 
47 8 49 1 50 100 51 100 52 8 53 0 55 5 56 2 57 3 60 0 
61 17 62 35 63 67 64 1 65 5 67 2 68 5 69 1 70 3 71 1 
72 1 73 3 74 71 75 159 76 30 77 2 78 2 79 1 80 2 81 2 
82 62 83 3 84 7 85 0 86 21 87 50 88 90 89 2 90 1 91 1 
92 7 93 1 94 3 96 1 97 9 98 2 99 55 100 27 101 33 102 1 
104 3 105 41 106 30 107 1 108 2 109 9 110 15 111 3 112 8 113 15 
114 9 115 1 117 5 119 6 120 1 121 0 122 9 123 41 124 24 125 2 
126 13 127 4 128 2 132 0 133 3 134 5 135 21 136 6 137 23 138 27 
139 17 140 0 141 6 142 1 146 5 147 0 148 7 149 23 150 29 151 2 
152 8 153 1 158 1 159 1 160 10 161 8 162 9 163 6 164 58 165 404 
166 67 167 1 169 1 170 15 171 21 172 2 173 23 174 27 175 41 176 16 
177 47 178 18 179 3 180 0 183 1 184 8 185 4 186 1 187 2 188 1 
195 1 196 0 197 6 198 7 199 141 200 10 201 79 202 38 203 12 204 0 
205 1 206 17 207 4 208 2 209 3 210 34 211 28 212 24 213 43 214 74 
215 13 233 1 234 7 235 999 236 151 237 66 238 103 239 119 240 19 241 0 
244 3 245 3 246 163 247 9 248 127 249 58 250 31 251 1 252 2 262 1 
264 1 280 1 281 24 282 107 283 39 284 10 285 23 286 34 287 9 288 1 
289 1 316 27 317 16 318 4 319 18 320 19 321 11 322 1 323 4 324 1 
352 12 353 0 354 15 355 3 356 9 357 0 358 5 
