Name: 2-METHYLCARBAZOLE
CAS: 3652-91-3
MW: 181
Formula: C13H11N
Synonym: MassBank: JP004329
Synonym: 2-METHYLCARBAZOLE
Structure: 322D4D455448594C43415242415A4F4C452E6D6F6C0A20204368656D447261773031323231303037343732440A2031342031362020302020302020302020302020302020302020302020303939392056323030300A20202020302E353639352020202D312E3032313020202020302E30303030204E202020302020302020302020302020302020302020302020302020302020302020302020300A2020202D302E313834322020202D302E3638353520202020302E303030302043202020302020302020302020302020302020302020302020302020302020302020302020300A2020202D302E393337392020202D312E3032313020202020302E303030302043202020302020302020302020302020302020302020302020302020302020302020302020300A2020202D312E363035332020202D302E3533363120202020302E303030302043202020302020302020302020302020302020302020302020302020302020302020302020300A2020202D312E3531393120202020302E3238343420202020302E303030302043202020302020302020302020302020302020302020302020302020302020302020302020300A2020202D302E3736353420202020302E3631393920202020302E303030302043202020302020302020302020302020302020302020302020302020302020302020302020300A2020202D302E3039383020202020302E3133353020202020302E303030302043202020302020302020302020302020302020302020302020302020302020302020302020300A20202020302E3730393020202020302E3330363520202020302E303030302043202020302020302020302020302020302020302020302020302020302020302020302020300A20202020312E3132313520202020312E3032313020202020302E303030302043202020302020302020302020302020302020302020302020302020302020302020302020300A20202020312E3934363520202020312E3032313020202020302E303030302043202020302020302020302020302020302020302020302020302020302020302020302020300A20202020322E3335393020202020302E3330363520202020302E303030302043202020302020302020302020302020302020302020302020302020302020302020302020300A20202020312E393436352020202D302E3430373920202020302E303030302043202020302020302020302020302020302020302020302020302020302020302020302020300A20202020312E313231352020202D302E3430373920202020302E303030302043202020302020302020302020302020302020302020302020302020302020302020302020300A2020202D322E333539302020202D302E3837313720202020302E303030302043202020302020302020302020302020302020302020302020302020302020302020302020300A2020312020322020312020302020202020200A2020322020332020312020302020202020200A2020332020342020322020302020202020200A2020342020352020312020302020202020200A2020352020362020322020302020202020200A2020362020372020312020302020202020200A2020322020372020322020302020202020200A2020372020382020312020302020202020200A2020382020392020312020302020202020200A2020392031302020322020302020202020200A2031302031312020312020302020202020200A2031312031322020322020302020202020200A2031322031332020312020302020202020200A2020382031332020322020302020202020200A2020312031332020312020302020202020200A2020342031342020312020302020202020200A4D2020454E44
Contributor: SASAKI S, TOYOHASHI UNIV. OF TECH.
InstType: EI
InstName: MX-1303
IoniMethod: _ENERGY 50 eV
IonPolarity: pos
Date: 2010-10-09 19:48:36+02:00
Num Peaks: 42
27 10 39 18 41 10 50 1 51 21 62 10 63 31 64 1 74 12 75 23 
75.5 10 76 4 76.5 10 77 73 77.5 14 87 1 89 28 89.5 26 90 63 90.5 7 
91 13 101 13 113 11 126 2 127 34 128 22 139 14 140 2 150 16 151 47 
152 114 153 4 154 23 164 11 166 10 177 2 178 64 179 77 180 742 181 999 
182 141 183 11 
