Name: RUTIN
MW: 610
Formula: C27H30O16
Synonym: MassBank: JP000631
Synonym: RUTIN
Synonym: QUERCETIN RUTINOSIDE
Structure: 303630305F51554552434554494E20525554494E4F534944452E6D6F6C0A20204368656D447261773038323031303036323232440A2034332034372020302020302020302020302020302020302020302020303939392056323030300A20202020332E3531323020202020302E3536333520202020302E303030302043202020302020302020302020302020302020302020302020302020302020302020302020300A20202020332E353132302020202D302E3236313520202020302E303030302043202020302020302020302020302020302020302020302020302020302020302020302020300A20202020322E373937352020202D302E3637343020202020302E303030302043202020302020302020302020302020302020302020302020302020302020302020302020300A20202020322E303833312020202D302E3236313520202020302E303030302043202020302020302020302020302020302020302020302020302020302020302020302020300A20202020322E3038333120202020302E3536333520202020302E303030302043202020302020302020302020302020302020302020302020302020302020302020302020300A20202020322E3739373520202020302E3937363020202020302E303030302043202020302020302020302020302020302020302020302020302020302020302020302020300A20202020312E333638362020202D302E3637343020202020302E303030302043202020302020302020302020302020302020302020302020302020302020302020302020300A20202020302E363534312020202D302E3236313520202020302E303030302043202020302020302020302020302020302020302020302020302020302020302020302020300A20202020302E3635343120202020302E3536333520202020302E303030302043202020302020302020302020302020302020302020302020302020302020302020302020300A20202020312E3336383620202020302E3937363020202020302E30303030204F202020302020302020302020302020302020302020302020302020302020302020302020300A20202020322E373937352020202D312E3439393020202020302E30303030204F202020302020302020302020302020302020302020302020302020302020302020302020300A20202020342E3232363520202020302E3937363020202020302E30303030204F202020302020302020302020302020302020302020302020302020302020302020302020300A20202020312E333638362020202D312E3439393020202020302E30303030204F202020302020302020302020302020302020302020302020302020302020302020302020300A2020202D302E303630342020202D302E3637343020202020302E30303030204F202020302020302020302020302020302020302020302020302020302020302020302020300A2020202D302E3036303420202020302E3937363020202020302E303030302043202020302020302020302020302020302020302020302020302020302020302020302020300A2020202D302E3737343820202020302E3536333520202020302E303030302043202020302020302020302020302020302020302020302020302020302020302020302020300A2020202D312E3438393320202020302E3937363020202020302E303030302043202020302020302020302020302020302020302020302020302020302020302020302020300A2020202D312E3438393320202020312E3830313020202020302E303030302043202020302020302020302020302020302020302020302020302020302020302020302020300A2020202D302E3737343820202020322E3231333520202020302E303030302043202020302020302020302020302020302020302020302020302020302020302020302020300A2020202D302E3036303420202020312E3830313020202020302E303030302043202020302020302020302020302020302020302020302020302020302020302020302020300A2020202D302E3737343820202020332E3033383520202020302E30303030204F202020302020302020302020302020302020302020302020302020302020302020302020300A2020202D322E3230333820202020322E3231333520202020302E30303030204F202020302020302020302020302020302020302020302020302020302020302020302020300A2020202D302E303630342020202D312E3439393020202020302E303030302043202020302020302020302020302020302020302020302020302020302020302020302020300A2020202D302E343732392020202D302E3738343520202020302E30303030204F202020302020302020302020302020302020302020302020302020302020302020302020300A2020202D312E323937392020202D302E3738343520202020302E303030302043202020302020302020302020302020302020302020302020302020302020302020302020300A2020202D312E373130342020202D312E3439393020202020302E303030302043202020302020302020302020302020302020302020302020302020302020302020302020300A2020202D312E323937392020202D322E3231333520202020302E303030302043202020302020302020302020302020302020302020302020302020302020302020302020300A2020202D302E343732392020202D322E3231333520202020302E303030302043202020302020302020302020302020302020302020302020302020302020302020302020300A2020202D312E333532332020202D302E3234303920202020302E303030302043202020302020302020302020302020302020302020302020302020302020302020302020300A2020202D322E343636312020202D302E3234303920202020302E30303030204F202020302020302020302020302020302020302020302020302020302020302020302020300A2020202D322E353736352020202D312E3035383420202020302E303030302043202020302020302020302020302020302020302020302020302020302020302020302020300A2020202D302E343732392020202D332E3033383520202020302E30303030204F202020302020302020302020302020302020302020302020302020302020302020302020300A2020202D312E323937392020202D312E3338383520202020302E30303030204F202020302020302020302020302020302020302020302020302020302020302020302020300A2020202D312E373130342020202D322E3332343020202020302E30303030204F202020302020302020302020302020302020302020302020302020302020302020302020300A2020202D322E393839302020202D302E3334333920202020302E30303030204F202020302020302020302020302020302020302020302020302020302020302020302020300A2020202D332E383134302020202D302E3334333920202020302E303030302043202020302020302020302020302020302020302020302020302020302020302020302020300A2020202D342E323236352020202D312E3035383420202020302E303030302043202020302020302020302020302020302020302020302020302020302020302020302020300A2020202D332E383134302020202D312E3737323920202020302E303030302043202020302020302020302020302020302020302020302020302020302020302020302020300A2020202D322E393839302020202D312E3737323920202020302E303030302043202020302020302020302020302020302020302020302020302020302020302020302020300A2020202D332E383134302020202D312E3136383920202020302E303030302043202020302020302020302020302020302020302020302020302020302020302020302020300A2020202D342E323236352020202D302E3233333420202020302E30303030204F202020302020302020302020302020302020302020302020302020302020302020302020300A2020202D332E383134302020202D322E3539373920202020302E30303030204F202020302020302020302020302020302020302020302020302020302020302020302020300A2020202D322E393839302020202D322E3539373920202020302E30303030204F202020302020302020302020302020302020302020302020302020302020302020302020300A2020312020322020322020302020202020200A2020322020332020312020302020202020200A2020332020342020322020302020202020200A2020342020352020312020302020202020200A2020352020362020322020302020202020200A2020362020312020312020302020202020200A2020342020372020312020302020202020200A2020372020382020312020302020202020200A2020382020392020322020302020202020200A2020392031302020312020302020202020200A2031302020352020312020302020202020200A2020332031312020312020302020202020200A2020312031322020312020302020202020200A2020372031332020322020302020202020200A2020382031342020312020302020202020200A2020392031352020312020302020202020200A2031352031362020322020302020202020200A2031362031372020312020302020202020200A2031372031382020322020302020202020200A2031382031392020312020302020202020200A2031392032302020322020302020202020200A2032302031352020312020302020202020200A2031392032312020312020302020202020200A2031382032322020312020302020202020200A2031342032332020312020302020202020200A2032332032342020312020302020202020200A2032342032352020312020302020202020200A2032352032362020312020302020202020200A2032362032372020312020302020202020200A2032372032382020312020302020202020200A2032382032332020312020302020202020200A2032352032392020312020302020202020200A2032392033302020312020302020202020200A2033302033312020312020302020202020200A2032382033322020312020302020202020200A2032372033332020312020302020202020200A2032362033342020312020302020202020200A2033312033352020312020302020202020200A2033352033362020312020302020202020200A2033362033372020312020302020202020200A2033372033382020312020302020202020200A2033382033392020312020302020202020200A2033392033312020312020302020202020200A2033362034302020312020302020202020200A2033372034312020312020302020202020200A2033382034322020312020302020202020200A2033392034332020312020302020202020200A4D2020454E44
Contributor: TAKATORI M, DEPT. OF CHEMISTRY, FAC. OF EDUC., FUKUSHIMA UNIV.
InstType: EI
InstName: JEOL JMS-06-H
IoniMethod: _ENERGY 75 eV
IonPolarity: pos
Date: 2010-10-09 19:48:36+02:00
Num Peaks: 103
26 43 27 203 28 494 29 31 30 38 31 187 32 15 36 2 38 27 39 207 
40 49 41 25 42 174 43 602 44 174 45 25 47 29 50 32 51 71 52 4 
53 124 54 26 55 270 56 13 57 373 58 129 59 76 60 83 61 120 63 46 
65 35 66 1 67 73 68 46 69 299 70 11 71 187 72 61 73 365 74 7 
75 57 76 20 77 28 79 2 80 24 81 77 82 22 83 2 84 22 85 216 
86 56 87 7 89 21 91 30 95 11 96 5 97 80 98 72 99 56 100 2 
101 17 102 56 103 17 108 4 109 86 110 64 111 18 113 8 114 28 115 44 
121 44 123 2 124 14 126 62 127 63 128 23 129 67 136 39 137 166 142 5 
144 76 145 23 147 49 149 7 150 23 151 12 153 116 173 1 200 11 217 12 
228 35 229 5 245 46 257 20 273 74 274 6 285 21 286 91 301 191 302 999 
303 207 304 17 316 46 
