Name: MassBank: JP003683
MW: 190
Formula: C9H18O4
Synonym: MassBank: JP003683
Synonym: 2-HYDROXYMETHYL-2-METHYLPROPANE-1,3DIOL DIMETHYL ETHER MONOACETATE
Structure: 322D485944524F58594D455448594C2D322D4D455448594C50524F50414E452D312C3344494F4C2044494D455448594C204554484552204D4F4E4F414345544154452E6D6F6C0A20204368656D447261773031323131303233343832440A2031332031322020302020302020302020302020302020302020302020303939392056323030300A2020202D312E303331332020202D302E3039353720202020302E303030302043202020302020302020302020302020302020302020302020302020302020302020302020300A2020202D302E323036332020202D302E3039353720202020302E303030302043202020302020302020302020302020302020302020302020302020302020302020302020300A2020202D302E323036332020202D302E3932303720202020302E303030302043202020302020302020302020302020302020302020302020302020302020302020302020300A2020202D312E3434333820202020302E3631383820202020302E30303030204F202020302020302020302020302020302020302020302020302020302020302020302020300A20202020302E353038322020202D312E3333333220202020302E30303030204F202020302020302020302020302020302020302020302020302020302020302020302020300A2020202D302E3230363320202020302E3732393320202020302E303030302043202020302020302020302020302020302020302020302020302020302020302020302020300A20202020302E363138372020202D302E3039353720202020302E303030302043202020302020302020302020302020302020302020302020302020302020302020302020300A2020202D322E3236383820202020302E3631383820202020302E303030302043202020302020302020302020302020302020302020302020302020302020302020302020300A20202020312E323232372020202D302E3932303720202020302E303030302043202020302020302020302020302020302020302020302020302020302020302020302020300A20202020312E3835363220202020302E3631383820202020302E303030302043202020302020302020302020302020302020302020302020302020302020302020302020300A20202020322E3236383720202020312E3333333220202020302E303030302043202020302020302020302020302020302020302020302020302020302020302020302020300A20202020322E323638382020202D302E3039353720202020302E30303030204F202020302020302020302020302020302020302020302020302020302020302020302020300A20202020312E3033313320202020302E3631383820202020302E30303030204F202020302020302020302020302020302020302020302020302020302020302020302020300A2020312020322020312020302020202020200A2020322020332020312020302020202020200A2020312020342020312020302020202020200A2020332020352020312020302020202020200A2020322020362020312020302020202020200A2020322020372020312020302020202020200A2020342020382020312020302020202020200A2020352020392020312020302020202020200A2031302031312020312020302020202020200A2031302031322020322020302020202020200A2031302031332020312020302020202020200A2020372031332020312020302020202020200A4D2020454E44
Contributor: SASAKI S, TOYOHASHI UNIV. OF TECH.
InstType: EI
InstName: Unknown
IoniMethod: EI
IonPolarity: pos
Date: 2010-10-09 19:48:36+02:00
Num Peaks: 44
39 59 41 140 42 38 43 999 45 933 46 20 47 9 53 3 54 48 55 252 
56 48 57 4 58 43 59 32 61 18 67 4 68 14 69 47 70 21 71 45 
72 463 73 43 75 931 76 3 77 7 83 121 84 86 85 90 86 228 87 28 
98 407 99 1 100 8 101 30 102 8 103 11 104 5 105 9 113 8 114 4 
115 18 116 11 117 6 130 6 
