Name: ISOPROPYL BROMIDE
MW: 121
Formula: C3H7Br
Synonym: MassBank: JP005877
Synonym: ISOPROPYL BROMIDE
Structure: 310A31320A49534F50524F50594C2042524F4D4944452E6D6F6C0A20204368656D447261773038313131303231333832440A2020342020332020302020302020302020302020302020302020302020303939392056323030300A20202020302E323036322020202D302E3030303020202020302E303030302043202020302020302020302020302020302020302020302020302020302020302020302020300A20202020302E3631383820202020302E3731343520202020302E303030302043202020302020302020302020302020302020302020302020302020302020302020302020300A20202020302E363138382020202D302E3731343520202020302E303030302043202020302020302020302020302020302020302020302020302020302020302020302020300A2020202D302E363138382020202D302E3030303020202020302E303030302042722020302020302020302020302020302020302020302020302020302020302020302020300A2020312020322020312020302020202020200A2020312020332020312020302020202020200A2020312020342020312020302020202020200A4D2020454E44
Contributor: YAMAMOTO M, DEP. CHEMISTRY, FAC. SCIENCE, NARA WOMEN'S UNIV.
InstType: EI
InstName: HITACHI RMU-6M
IoniMethod: _ENERGY 70 eV
IonPolarity: pos
Date: 2010-10-09 19:48:36+02:00
Num Peaks: 16
15 17 26 27 27 293 28 20 38 20 39 27 40 115 41 20 42 323 43 34 
44 999 45 34 106 17 108 14 121 118 123 115 
