Name: 4-CHLORO-1-BUTENE
MW: 90
Formula: C4H7Cl
Synonym: MassBank: JP009980
Synonym: 4-CHLORO-1-BUTENE
Structure: 310A31340A342D43484C4F524F2D312D425554454E452E6D6F6C0A20204368656D447261773033323531303038353332440A2020352020342020302020302020302020302020302020302020302020303939392056323030300A2020202D312E343238392020202D302E3230363320202020302E303030302043202020302020302020302020302020302020302020302020302020302020302020302020300A2020202D302E3731343520202020302E3230363320202020302E303030302043202020302020302020302020302020302020302020302020302020302020302020302020300A20202020302E303030302020202D302E3230363320202020302E303030302043202020302020302020302020302020302020302020302020302020302020302020302020300A20202020302E3731343520202020302E3230363220202020302E303030302043202020302020302020302020302020302020302020302020302020302020302020302020300A20202020312E343238392020202D302E3230363320202020302E3030303020436C2020302020302020302020302020302020302020302020302020302020302020302020300A2020312020322020322020302020202020200A2020322020332020312020302020202020200A2020332020342020312020302020202020200A2020342020352020312020302020202020200A4D2020454E44
Contributor: KURARAY CO., LTD.
InstType: EI
InstName: JEOL JMS-D-300
IoniMethod: _ENERGY 70 eV
IonPolarity: pos
Date: 2010-10-09 19:48:36+02:00
Num Peaks: 22
26 16 27 106 28 35 29 4 39 76 41 207 49 57 51 2 53 35 54 108 
55 999 56 4 61 11 62 157 63 65 64 6 65 16 75 65 77 25 90 27 
91 16 92 91 
