Name: 2-ISOBUTYL-4-METHYLTHIAZOLE
MW: 155
Formula: C8H13NS
Synonym: MassBank: JP007798
Synonym: 2-ISOBUTYL-4-METHYLTHIAZOLE
Structure: 322D49534F425554594C2D342D4D455448594C544849415A4F4C452E6D6F6C0A20204368656D447261773031323231303030303832440A2031302031302020302020302020302020302020302020302020302020303939392056323030300A2020202D302E3039343820202020302E3533303720202020302E303030302053202020302020302020302020302020302020302020302020302020302020302020302020300A2020202D302E303038362020202D302E3238393820202020302E303030302043202020302020302020302020302020302020302020302020302020302020302020302020300A2020202D302E373632332020202D302E3632353320202020302E30303030204E202020302020302020302020302020302020302020302020302020302020302020302020300A2020202D312E333134332020202D302E3031323220202020302E303030302043202020302020302020302020302020302020302020302020302020302020302020302020300A2020202D302E3930313820202020302E3730323320202020302E303030302043202020302020302020302020302020302020302020302020302020302020302020302020300A2020202D322E313334382020202D302E3039383520202020302E303030302043202020302020302020302020302020302020302020302020302020302020302020302020300A20202020302E373035392020202D302E3730323320202020302E303030302043202020302020302020302020302020302020302020302020302020302020302020302020300A20202020312E343230332020202D302E3238393820202020302E303030302043202020302020302020302020302020302020302020302020302020302020302020302020300A20202020312E3432303320202020302E3533353220202020302E303030302043202020302020302020302020302020302020302020302020302020302020302020302020300A20202020322E313334382020202D302E3730323320202020302E303030302043202020302020302020302020302020302020302020302020302020302020302020302020300A2020312020322020312020302020202020200A2020322020332020322020302020202020200A2020332020342020312020302020202020200A2020342020352020322020302020202020200A2020312020352020312020302020202020200A2020342020362020312020302020202020200A2020372020382020312020302020202020200A2020382020392020312020302020202020200A2020382031302020312020302020202020200A2020322020372020312020302020202020200A4D2020454E44
Contributor: HASHIMOTO K, KYOTO COLLEGE OF PHARMACY
InstType: EI
InstName: HITACHI M-80
IoniMethod: _ENERGY 20 eV
IonPolarity: pos
Date: 2010-10-09 19:48:36+02:00
Num Peaks: 27
27 11 39 30 41 110 42 20 43 240 45 60 46 10 47 10 68 199 71 170 
72 419 73 229 74 29 75 10 85 20 100 10 112 323 113 999 114 216 115 176 
139 10 140 380 141 20 142 10 154 128 155 260 156 39 
