Name: MassBank: JP004401
MW: 262
Formula: C13H14N2O4
Synonym: MassBank: JP004401
Synonym: ETHYL 1,2-DIMETHYL-4-NITROINDOLE-3-CARBOXYLATE
Structure: 455448594C20312C322D44494D455448594C2D342D4E4954524F494E444F4C452D332D434152424F58594C4154452E6D6F6C0A20204368656D447261773038313131303138303432440A2031392032302020302020302020302020302020302020302020302020303939392056323030300A2020202D302E3030353320202020312E3032353320202020302E30303030204E202020302020302020302020302020302020302020302020302020302020302020302020300A20202020302E3437393620202020302E3335373920202020302E303030302043202020302020302020302020302020302020302020302020302020302020302020302020300A2020202D302E303137392020202D302E3331363620202020302E303030302043202020302020302020302020302020302020302020302020302020302020302020302020300A2020202D302E373839392020202D302E3035343620202020302E303030302043202020302020302020302020302020302020302020302020302020302020302020302020300A2020202D312E353034342020202D302E3436373120202020302E303030302043202020302020302020302020302020302020302020302020302020302020302020302020300A2020202D322E323138392020202D302E3035343620202020302E303030302043202020302020302020302020302020302020302020302020302020302020302020302020300A2020202D322E3231383920202020302E3737303420202020302E303030302043202020302020302020302020302020302020302020302020302020302020302020302020300A2020202D312E3530343420202020312E3138323920202020302E303030302043202020302020302020302020302020302020302020302020302020302020302020302020300A2020202D302E3738393920202020302E3737303420202020302E303030302043202020302020302020302020302020302020302020302020302020302020302020302020300A20202020302E333934362020202D312E3033313020202020302E303030302043202020302020302020302020302020302020302020302020302020302020302020302020300A2020202D302E303931322020202D312E3731333820202020302E30303030204F202020302020302020302020302020302020302020302020302020302020302020302020300A20202020312E323037302020202D312E3033313020202020302E30303030204F202020302020302020302020302020302020302020302020302020302020302020302020300A2020202D312E363437362020202D312E3237393620202020302E30303030204E202020302020332020302020302020302020302020302020302020302020302020302020300A2020202D312E303135372020202D312E3830393920202020302E30303030204F202020302020302020302020302020302020302020302020302020302020302020302020300A2020202D322E343434352020202D312E3439333120202020302E30303030204F202020302020352020302020302020302020302020302020302020302020302020302020300A20202020312E3330343620202020302E3335373920202020302E303030302043202020302020302020302020302020302020302020302020302020302020302020302020300A20202020302E3234393720202020312E3830393920202020302E303030302043202020302020302020302020302020302020302020302020302020302020302020302020300A20202020312E363232362020202D312E3735303820202020302E303030302043202020302020302020302020302020302020302020302020302020302020302020302020300A20202020322E343434352020202D312E3735303820202020302E303030302043202020302020302020302020302020302020302020302020302020302020302020302020300A2020312020322020312020302020202020200A2020322020332020322020302020202020200A2020332020342020312020302020202020200A2020342020352020312020302020202020200A2020352020362020322020302020202020200A2020362020372020312020302020202020200A2020372020382020322020302020202020200A2020382020392020312020302020202020200A2020312020392020312020302020202020200A2020342020392020322020302020202020200A2031302031312020322020302020202020200A2031302031322020312020302020202020200A2020332031302020312020302020202020200A2031332031342020322020302020202020200A2031332031352020312020302020202020200A2020352031332020312020302020202020200A2020322031362020312020302020202020200A2020312031372020312020302020202020200A2031382031392020312020302020202020200A2031322031382020312020302020202020200A4D202043484720203220203133202020312020313520202D310A4D2020454E44
Contributor: SASAKI S, TOYOHASHI UNIV. OF TECH.
InstType: EI
InstName: MX-1303
IoniMethod: _ENERGY 50 eV
IonPolarity: pos
Date: 2010-10-09 19:48:36+02:00
Num Peaks: 89
41 139 42 38 43 243 44 4 45 37 51 22 54 11 55 21 56 139 57 218 
60 25 63 2 67 47 68 29 69 310 70 4 71 90 73 29 75 25 76 2 
77 53 79 19 81 107 82 4 83 89 84 36 85 44 89 3 91 25 93 15 
95 40 96 3 97 70 98 26 99 11 101 4 102 26 103 42 104 17 105 2 
109 20 110 13 111 26 114 1 115 123 116 42 117 44 118 2 121 11 123 15 
125 11 127 2 128 16 129 36 130 46 131 2 132 25 137 16 141 13 142 5 
143 143 144 77 145 12 149 1 157 16 158 45 159 52 160 2 170 139 171 282 
172 57 174 2 181 19 186 21 187 75 188 11 189 26 190 119 204 15 205 3 
216 357 217 762 218 61 231 1 232 22 233 175 234 82 262 999 263 108 
