Name: METHYLHYDRAZONE ACETONE
MW: 86
Formula: C4H10N2
Synonym: MassBank: JP000819
Synonym: METHYLHYDRAZONE ACETONE
Synonym: ACETONE METHYLHYDRAZONE
Structure: 310A31360A4D455448594C48594452415A4F4E4520414345544F4E452E6D6F6C0A20204368656D447261773036323431303138313432440A2020362020352020302020302020302020302020302020302020302020303939392056323030300A2020202D312E343238392020202D302E3631383820202020302E303030302043202020302020302020302020302020302020302020302020302020302020302020302020300A2020202D302E373134352020202D302E3230363220202020302E303030302043202020302020302020302020302020302020302020302020302020302020302020302020300A2020202D302E3731343520202020302E3631383820202020302E303030302043202020302020302020302020302020302020302020302020302020302020302020302020300A20202020302E303030302020202D302E3631383820202020302E30303030204E202020302020302020302020302020302020302020302020302020302020302020302020300A20202020302E373134352020202D302E3230363220202020302E30303030204E202020302020302020302020302020302020302020302020302020302020302020302020300A20202020312E343238392020202D302E3631383820202020302E303030302043202020302020302020302020302020302020302020302020302020302020302020302020300A2020312020322020312020302020202020200A2020322020332020312020302020202020200A2020342020352020312020302020202020200A2020352020362020312020302020202020200A2020322020342020322020302020202020200A4D2020454E44
Contributor: SASAKI S, TOYOHASHI UNIV. OF TECH.
InstType: EI
InstName: SHIMADZU LKB-2091
IoniMethod: _ENERGY 70 eV
IonPolarity: pos
Date: 2010-10-09 19:48:36+02:00
Num Peaks: 25
26 35 27 117 28 369 29 15 30 999 31 113 38 24 39 8 40 57 41 178 
42 539 43 9 44 78 45 35 54 108 55 8 56 456 57 130 58 30 69 7 
71 339 72 16 85 57 86 87 87 65 
