Name: MassBank: JP002088
MW: 232
Formula: C15H20O2
Synonym: MassBank: JP002088
Synonym: 8,12-EPOXYEUDESMA-4(14),7(11)-DIEN-12-ONE
Synonym: ATRACTYLENOLIDE 2
Structure: 382C31322D45504F585945554445534D412D34283134292C37283131292D4449454E2D31322D4F4E452E6D6F6C0A20204368656D447261773035323431303138333332440A2031392032312020302020302020302020302020302020302020302020303939392056323030300A2020202D322E3437363220202020302E3631383720202020302E303030302043202020302020302020302020302020302020302020302020302020302020302020302020300A2020202D322E343736322020202D302E3230363320202020302E303030302043202020302020302020302020302020302020302020302020302020302020302020302020300A2020202D312E373631372020202D302E3631383720202020302E303030302043202020302020302020302020302020302020302020302020302020302020302020302020300A2020202D312E303437332020202D302E3230363320202020302E303030302043202020302020302020302020302020302020302020302020302020302020302020302020300A2020202D312E3034373320202020302E3631383720202020302E303030302043202020302020302020302020302020302020302020302020302020302020302020302020300A2020202D312E3736313720202020312E3033313220202020302E303030302043202020302020302020302020302020302020302020302020302020302020302020302020300A2020202D302E333332382020202D302E3631383720202020302E303030302043202020302020302020302020302020302020302020302020302020302020302020302020300A20202020302E333831372020202D302E3230363320202020302E303030302043202020302020302020302020302020302020302020302020302020302020302020302020300A20202020302E3338313720202020302E3631383720202020302E303030302043202020302020302020302020302020302020302020302020302020302020302020302020300A2020202D302E3333323820202020312E3033313220202020302E303030302043202020302020302020302020302020302020302020302020302020302020302020302020300A20202020312E313636332020202D302E3436313120202020302E303030302043202020302020302020302020302020302020302020302020302020302020302020302020300A20202020312E3635313220202020302E3230363220202020302E303030302043202020302020302020302020302020302020302020302020302020302020302020302020300A20202020312E3136363320202020302E3837333620202020302E30303030204F202020302020302020302020302020302020302020302020302020302020302020302020300A20202020322E3437363220202020302E3230363220202020302E30303030204F202020302020302020302020302020302020302020302020302020302020302020302020300A20202020312E343231322020202D312E3234353820202020302E303030302043202020302020302020302020302020302020302020302020302020302020302020302020300A2020202D312E373631372020202D312E3434333720202020302E303030302043202020302020302020302020302020302020302020302020302020302020302020302020300A2020202D312E3034373320202020312E3434333720202020302E303030302043202020302020302020302020302020302020302020302020302020302020302020302020300A2020202D312E303437332020202D312E3033313220202020302E303030302048202020302020302020302020302020302020302020302020302020302020302020302020300A20202020302E3338313720202020312E3434333720202020302E303030302048202020302020302020302020302020302020302020302020302020302020302020302020300A2020312020322020312020302020202020200A2020322020332020312020302020202020200A2020332020342020312020302020202020200A2020342020352020312020302020202020200A2020352020362020312020302020202020200A2020362020312020312020302020202020200A2020342020372020312020302020202020200A2020372020382020312020302020202020200A2020382020392020312020302020202020200A2020392031302020312020302020202020200A2031302020352020312020302020202020200A2020382031312020322020302020202020200A2031312031322020312020302020202020200A2031322031332020312020302020202020200A2031332020392020312020302020202020200A2031322031342020322020302020202020200A2031312031352020312020302020202020200A2020332031362020322020302020202020200A2020352031372020312020312020202020200A2020342031382020312020362020202020200A2020392031392020312020312020202020200A4D2020454E44
Contributor: ENDO K, PHARMACEUTICAL INST., TOHOKU UNIV.
InstType: EI
InstName: HITACHI M-52
IoniMethod: _ENERGY 25 eV
IonPolarity: pos
Date: 2010-10-09 19:48:36+02:00
Num Peaks: 117
17 43 18 273 28 38 29 4 32 14 39 19 41 120 43 11 53 62 54 48 
55 129 56 3 57 244 58 24 65 24 67 13 68 62 69 134 70 48 71 14 
77 96 78 24 79 163 80 7 81 182 82 105 83 110 84 3 85 124 91 177 
92 43 93 28 94 91 95 158 96 62 97 6 98 19 99 48 105 201 106 7 
107 273 108 172 109 177 110 18 111 124 112 62 113 53 117 5 118 34 119 139 
120 62 121 40 122 479 123 67 124 43 125 4 126 29 127 29 129 29 132 4 
133 124 134 77 135 110 136 6 137 43 140 19 141 19 143 4 144 19 145 86 
146 53 147 12 148 96 149 72 150 67 151 2 152 29 153 19 157 29 158 4 
159 86 160 38 161 153 162 9 163 53 164 53 165 34 171 3 172 19 173 24 
174 19 175 11 176 101 177 57 178 34 179 3 183 19 185 19 186 24 187 11 
188 34 189 105 190 153 191 3 199 62 200 24 203 201 204 22 205 19 214 24 
215 19 217 29 218 53 232 999 233 144 234 19 235 24 
