Name: MassBank: JP000785
MW: 168
Formula: C11H8N2
Synonym: MassBank: JP000785
Synonym: 9H-PYRIDO(3,4-B)INDOLE
Synonym: N0RHARMAN
Structure: 39482D50595249444F28332C342D4229494E444F4C452E6D6F6C0A20204368656D447261773036323431303031313232440A2031332031352020302020302020302020302020302020302020302020303939392056323030300A20202020302E3139323620202020312E3032313020202020302E30303030204E202020302020302020302020302020302020302020302020302020302020302020302020300A2020202D302E3536313020202020302E3638353520202020302E303030302043202020302020302020302020302020302020302020302020302020302020302020302020300A2020202D302E343734382020202D302E3133353020202020302E303030302043202020302020302020302020302020302020302020302020302020302020302020302020300A20202020302E333332322020202D302E3330363520202020302E303030302043202020302020302020302020302020302020302020302020302020302020302020302020300A20202020302E373434372020202D312E3032313020202020302E303030302043202020302020302020302020302020302020302020302020302020302020302020302020300A20202020312E353639372020202D312E3032313020202020302E303030302043202020302020302020302020302020302020302020302020302020302020302020302020300A20202020312E393832322020202D302E3330363520202020302E303030302043202020302020302020302020302020302020302020302020302020302020302020302020300A20202020312E3536393720202020302E3430373920202020302E303030302043202020302020302020302020302020302020302020302020302020302020302020302020300A20202020302E3734343720202020302E3430373920202020302E303030302043202020302020302020302020302020302020302020302020302020302020302020302020300A2020202D312E3331343720202020312E3032313020202020302E303030302043202020302020302020302020302020302020302020302020302020302020302020302020300A2020202D312E313432322020202D302E3631393920202020302E303030302043202020302020302020302020302020302020302020302020302020302020302020302020300A2020202D312E383935392020202D302E3238343420202020302E303030302043202020302020302020302020302020302020302020302020302020302020302020302020300A2020202D312E3938323220202020302E3533363120202020302E30303030204E202020302020302020302020302020302020302020302020302020302020302020302020300A2020312020322020312020302020202020200A2020322020332020312020302020202020200A2020332020342020312020302020202020200A2020342020352020312020302020202020200A2020352020362020322020302020202020200A2020362020372020312020302020202020200A2020372020382020322020302020202020200A2020382020392020312020302020202020200A2020312020392020312020302020202020200A2020342020392020322020302020202020200A2031312031322020312020302020202020200A2031322031332020322020302020202020200A2031302031332020312020302020202020200A2020322031302020322020302020202020200A2020332031312020322020302020202020200A4D2020454E44
Contributor: MASS SPECTROSCOPY SOC. OF JAPAN (MSSJ)
InstType: EI
InstName: VARIAN MAT-44S
IoniMethod: _ENERGY 75 eV
IonPolarity: pos
Date: 2010-10-09 19:48:36+02:00
Num Peaks: 66
41 45 42 16 43 45 44 59 45 16 50 54 51 59 52 31 55 38 56 37 
57 74 61 28 62 76 63 126 64 41 65 26 66 11 67 14 69 23 70 100 
71 13 73 17 74 50 75 6 76 37 77 34 78 13 83 23 84 195 85 38 
86 42 87 61 88 82 89 41 90 30 91 18 98 13 99 14 100 14 101 2 
102 18 110 11 111 13 112 20 113 158 114 231 115 71 116 18 117 42 127 16 
128 50 129 13 138 14 139 42 140 321 141 147 142 47 143 13 154 13 166 21 
167 117 168 999 169 134 170 28 181 11 182 31 
