Name: MassBank: JP004702
CAS: 576-83-0
MW: 198
Formula: C9H11Br
Synonym: MassBank: JP004702
Synonym: 2-BROMO-1,3,5-TRIMETHYLBENZENE
Synonym: MESITYLBROMIDE
Structure: 322D42524F4D4F2D312C332C352D5452494D455448594C42454E5A454E452E6D6F6C0A20204368656D447261773132323130393232353232440A2031302031302020302020302020302020302020302020302020302020303939392056323030300A2020202D302E343132352020202D302E3731343520202020302E303030302043202020302020302020302020302020302020302020302020302020302020302020302020300A2020202D302E3832353020202020302E3030303020202020302E303030302043202020302020302020302020302020302020302020302020302020302020302020302020300A2020202D302E3431323520202020302E3731343520202020302E303030302043202020302020302020302020302020302020302020302020302020302020302020302020300A20202020302E3431323520202020302E3731343520202020302E303030302043202020302020302020302020302020302020302020302020302020302020302020302020300A20202020302E383235302020202D302E3030303020202020302E303030302043202020302020302020302020302020302020302020302020302020302020302020302020300A20202020302E343132352020202D302E3731343520202020302E303030302043202020302020302020302020302020302020302020302020302020302020302020302020300A20202020312E363530302020202D302E3030303020202020302E303030302043202020302020302020302020302020302020302020302020302020302020302020302020300A2020202D302E3832353020202020312E3432383920202020302E303030302043202020302020302020302020302020302020302020302020302020302020302020302020300A2020202D302E383235302020202D312E3432383920202020302E303030302043202020302020302020302020302020302020302020302020302020302020302020302020300A2020202D312E3635303020202020302E3030303020202020302E303030302042722020302020302020302020302020302020302020302020302020302020302020302020300A2020312020322020312020302020202020200A2020322020332020322020302020202020200A2020332020342020312020302020202020200A2020342020352020322020302020202020200A2020352020362020312020302020202020200A2020312020362020322020302020202020200A2020352020372020312020302020202020200A2020332020382020312020302020202020200A2020312020392020312020302020202020200A2020322031302020312020302020202020200A4D2020454E44
Contributor: MASS SPECTROSCOPY SOC. OF JAPAN (MSSJ)
InstType: EI
InstName: JEOL JMS-D-3000
IoniMethod: _ENERGY 70 eV
IonPolarity: pos
Date: 2010-10-09 19:48:36+02:00
Num Peaks: 45
50 26 51 71 52 24 53 29 57 45 58 85 59 20 62 14 63 42 64 10 
65 54 74 13 75 16 76 12 77 106 78 48 79 41 89 17 91 227 92 27 
93 33 98 25 99 31 102 22 103 107 104 71 105 101 107 73 115 81 116 23 
117 149 118 89 119 999 120 302 121 52 135 13 149 22 164 28 183 59 185 58 
197 45 198 669 199 113 200 661 201 22 
