Name: MassBank: JP001344
MW: 370
Formula: C10H30Ge2OSi2
Synonym: MassBank: JP001344
Synonym: 1,1,3,3-TETRAMETHYL-1,3-BIS(TRIMETHYLSILYL)DIGERMOXANE
Structure: 312C312C332C332D54455452414D455448594C2D312C332D424953285452494D455448594C53494C594C2944494745524D4F58414E452E6D6F6C0A20204368656D447261773130323330393031353432440A2031352031342020302020302020302020302020302020302020302020303939392056323030300A2020202D302E3832353020202020302E3030303020202020302E303030302047652020302020302020302020302020302020302020302020302020302020302020302020300A20202020302E3030303020202020302E3030303020202020302E30303030204F202020302020302020302020302020302020302020302020302020302020302020302020300A20202020302E3832353020202020302E3030303020202020302E303030302047652020302020302020302020302020302020302020302020302020302020302020302020300A20202020302E3832353020202020302E3832353020202020302E303030302043202020302020302020302020302020302020302020302020302020302020302020302020300A20202020302E383235302020202D302E3832353020202020302E303030302043202020302020302020302020302020302020302020302020302020302020302020302020300A20202020312E3635303020202020302E3030303020202020302E303030302053692020302020302020302020302020302020302020302020302020302020302020302020300A20202020322E3437353020202020302E3030303020202020302E303030302043202020302020302020302020302020302020302020302020302020302020302020302020300A20202020312E3635303020202020302E3832353020202020302E303030302043202020302020302020302020302020302020302020302020302020302020302020302020300A20202020312E363530302020202D302E3832353020202020302E303030302043202020302020302020302020302020302020302020302020302020302020302020302020300A2020202D312E3635303020202020302E3030303020202020302E303030302053692020302020302020302020302020302020302020302020302020302020302020302020300A2020202D302E3832353020202020302E3832353020202020302E303030302043202020302020302020302020302020302020302020302020302020302020302020302020300A2020202D302E383235302020202D302E3832353020202020302E303030302043202020302020302020302020302020302020302020302020302020302020302020302020300A2020202D322E3437353020202020302E3030303020202020302E303030302043202020302020302020302020302020302020302020302020302020302020302020302020300A2020202D312E3635303020202020302E3832353020202020302E303030302043202020302020302020302020302020302020302020302020302020302020302020302020300A2020202D312E363530302020202D302E3832353020202020302E303030302043202020302020302020302020302020302020302020302020302020302020302020302020300A2020312020322020312020302020202020200A2020322020332020312020302020202020200A2020332020342020312020302020202020200A2020332020352020312020302020202020200A2020332020362020312020302020202020200A2020362020372020312020302020202020200A2020362020382020312020302020202020200A2020362020392020312020302020202020200A2020312031302020312020302020202020200A2020312031312020312020302020202020200A2020312031322020312020302020202020200A2031302031332020312020302020202020200A2031302031342020312020302020202020200A2031302031352020312020302020202020200A4D2020454E44
Contributor: MASS SPECTROSCOPY SOC. OF JAPAN (MSSJ)
InstType: EI
InstName: JEOL JMS-D-3000
IoniMethod: _ENERGY 70 eV
IonPolarity: pos
Date: 2010-10-09 19:48:36+02:00
Num Peaks: 102
45 26 52 15 58 10 63 17 71 15 73 999 74 93 75 51 76 36 85 93 
87 108 88 38 89 137 102 169 103 16 115 108 117 106 118 29 119 150 121 40 
145 24 147 40 149 49 150 15 151 52 153 16 158 15 159 270 160 54 161 26 
162 16 171 45 173 223 174 40 175 294 176 99 177 354 178 43 179 88 180 17 
181 19 185 19 187 38 188 15 189 49 190 15 191 53 192 16 193 41 200 71 
201 55 202 166 203 119 204 366 205 157 206 371 207 104 208 243 209 36 229 25 
231 31 232 15 233 38 247 16 259 51 260 16 261 65 262 30 263 82 264 24 
265 18 273 14 275 31 276 18 277 36 278 17 279 26 303 16 305 35 307 19 
308 15 309 17 359 18 361 30 362 19 363 65 364 26 365 73 366 29 367 53 
368 19 369 19 374 25 376 66 377 36 378 130 379 51 380 132 381 61 382 100 
383 31 384 43 
