Name: ALPHA-ACETYL-DELTA-VALEROLACTONE
MW: 142
Formula: C7H10O3
Synonym: MassBank: JP008277
Synonym: ALPHA-ACETYL-DELTA-VALEROLACTONE
Structure: 414C5048412D41434554594C2D44454C54412D56414C45524F4C4143544F4E452E6D6F6C0A20204368656D447261773038303631303035353332440A2031302031302020302020302020302020302020302020302020302020303939392056323030300A2020202D302E3230363320202020302E3335373220202020302E303030302043202020302020302020302020302020302020302020302020302020302020302020302020300A20202020302E323036332020202D302E3335373220202020302E303030302043202020302020302020302020302020302020302020302020302020302020302020302020300A2020202D302E323036322020202D312E3037313720202020302E303030302043202020302020302020302020302020302020302020302020302020302020302020302020300A2020202D312E303331322020202D312E3037313720202020302E303030302043202020302020302020302020302020302020302020302020302020302020302020302020300A2020202D312E343433382020202D302E3335373220202020302E303030302043202020302020302020302020302020302020302020302020302020302020302020302020300A20202020312E303331332020202D302E3335373220202020302E303030302043202020302020302020302020302020302020302020302020302020302020302020302020300A20202020312E3434333820202020302E3335373220202020302E30303030204F202020302020302020302020302020302020302020302020302020302020302020302020300A20202020312E343433382020202D312E3037313720202020302E303030302043202020302020302020302020302020302020302020302020302020302020302020302020300A20202020302E3230363320202020312E3037313720202020302E30303030204F202020302020302020302020302020302020302020302020302020302020302020302020300A2020202D312E3033313220202020302E3335373220202020302E30303030204F202020302020302020302020302020302020302020302020302020302020302020302020300A2020312020322020312020302020202020200A2020322020332020312020302020202020200A2020332020342020312020302020202020200A2020342020352020312020302020202020200A2020362020372020322020302020202020200A2020362020382020312020302020202020200A2020322020362020312020302020202020200A2020312020392020322020302020202020200A2020312031302020312020302020202020200A2020352031302020312020302020202020200A4D2020454E44
Contributor: UBE SCIENTIFIC ANALYSIS LABORATORY
InstType: EI
InstName: HITACHI M-60
IoniMethod: _ENERGY 70 eV
IonPolarity: pos
Date: 2010-10-09 19:48:36+02:00
Num Peaks: 46
15 100 26 24 27 144 28 70 29 99 31 22 38 13 39 120 40 25 41 106 
42 66 43 999 44 61 45 41 51 12 53 73 54 80 55 276 56 67 57 23 
58 53 67 12 68 12 69 70 70 21 71 30 72 26 73 76 81 52 82 72 
83 25 84 47 85 29 95 11 96 57 97 26 98 9 99 208 100 545 101 33 
109 123 124 67 127 163 128 13 142 145 143 14 
