Name: O-CHLOROANILINE
MW: 127
Formula: C6H6ClN
Synonym: MassBank: JP005268
Synonym: O-CHLOROANILINE
Synonym: 2-CHLOROANILINE
Structure: 310A32310A4F2D43484C4F524F414E494C494E452E6D6F6C0A20204368656D447261773031303331303130343632440A2020382020382020302020302020302020302020302020302020302020303939392056323030300A20202020312E323337352020202D302E3335373220202020302E30303030204E202020302020302020302020302020302020302020302020302020302020302020302020300A20202020302E343132352020202D302E3335373220202020302E303030302043202020302020302020302020302020302020302020302020302020302020302020302020300A20202020302E3030303020202020302E3335373220202020302E303030302043202020302020302020302020302020302020302020302020302020302020302020302020300A2020202D302E3832353020202020302E3335373220202020302E303030302043202020302020302020302020302020302020302020302020302020302020302020302020300A2020202D312E323337352020202D302E3335373220202020302E303030302043202020302020302020302020302020302020302020302020302020302020302020302020300A2020202D302E383235302020202D312E3037313720202020302E303030302043202020302020302020302020302020302020302020302020302020302020302020302020300A20202020302E303030302020202D312E3037313720202020302E303030302043202020302020302020302020302020302020302020302020302020302020302020302020300A20202020302E3431323520202020312E3037313720202020302E3030303020436C2020302020302020302020302020302020302020302020302020302020302020302020300A2020312020322020312020302020202020200A2020322020332020312020302020202020200A2020332020342020322020302020202020200A2020342020352020312020302020202020200A2020352020362020322020302020202020200A2020362020372020312020302020202020200A2020322020372020322020302020202020200A2020332020382020312020302020202020200A4D2020454E44
Contributor: YAMAMOTO M, DEP. CHEMISTRY, FAC. SCIENCE, NARA WOMEN'S UNIV.
InstType: EI
InstName: HITACHI RMU-6M
IoniMethod: _ENERGY 70 eV
IonPolarity: pos
Date: 2010-10-09 19:48:36+02:00
Num Peaks: 34
37 29 38 48 39 81 40 11 41 38 42 12 44.5 20 45.5 90 50 19 51 19 
52 56 61 21 62 31 63 82 63.5 65 64 97 64.5 21 65 181 66 25 73 30 
75 12 90 25 91 82 92 174 93 15 99 41 100 54 101 21 102 18 126 18 
127 999 128 77 129 325 130 24 
