Name: MassBank: JP009478
CAS: 617-84-5
MW: 101
Formula: C5H11NO
Synonym: MassBank: JP009478
Synonym: N,N-DIETHYLFORMAMIDE
Structure: 310A31380A4E2C4E2D4449455448594C464F524D414D4944452E6D6F6C0A20204368656D447261773038313231303032333432440A2020372020362020302020302020302020302020302020302020302020303939392056323030300A20202020302E3431323520202020302E3335373220202020302E303030302043202020302020302020302020302020302020302020302020302020302020302020302020300A2020202D302E3030303020202020312E3037313720202020302E30303030204F202020302020302020302020302020302020302020302020302020302020302020302020300A2020202D302E303030302020202D302E3335373220202020302E30303030204E202020302020302020302020302020302020302020302020302020302020302020302020300A20202020302E343132352020202D312E3037313720202020302E303030302043202020302020302020302020302020302020302020302020302020302020302020302020300A20202020312E323337352020202D312E3037313720202020302E303030302043202020302020302020302020302020302020302020302020302020302020302020302020300A2020202D302E383235302020202D302E3335373220202020302E303030302043202020302020302020302020302020302020302020302020302020302020302020302020300A2020202D312E323337352020202D312E3037313720202020302E303030302043202020302020302020302020302020302020302020302020302020302020302020302020300A2020312020322020322020302020202020200A2020312020332020312020302020202020200A2020342020352020312020302020202020200A2020332020342020312020302020202020200A2020362020372020312020302020202020200A2020332020362020312020302020202020200A4D2020454E44
Contributor: NARA WOMEN'S UNIVERSITY
InstType: EI
InstName: HITACHI M-80
IoniMethod: _ENERGY 70 eV
IonPolarity: pos
Date: 2010-10-09 19:48:36+02:00
Num Peaks: 34
14 10 15 94 17 15 18 126 26 54 27 297 28 304 29 358 30 852 31 14 
39 13 40 28 41 65 42 175 43 34 44 453 45 23 46 23 52 11 54 16 
56 71 57 14 58 999 59 38 70 18 72 182 73 47 79 11 86 388 87 18 
100 19 101 915 102 199 103 12 
