Name: TRANS-BICYCLO(4.4.0)DECANE-2-ONE
MW: 152
Formula: C10H16O
Synonym: MassBank: JP000132
Synonym: TRANS-BICYCLO(4.4.0)DECANE-2-ONE
Synonym: TRANS-DECAHYDRO-2-NAPHTHALENONE
Structure: 5452414E532D42494359434C4F28342E342E3029444543414E452D322D4F4E452E6D6F6C0A20204368656D447261773038313231303038303632440A2031332031342020302020302020302020302020302020302020302020303939392056323030300A20202020302E3230363220202020302E3030303020202020302E303030302043202020302020302020302020302020302020302020302020302020302020302020302020300A20202020302E363138382020202D302E3731343520202020302E303030302043202020302020302020302020302020302020302020302020302020302020302020302020300A20202020302E323036322020202D312E3432383920202020302E303030302043202020302020302020302020302020302020302020302020302020302020302020302020300A2020202D302E363138372020202D312E3432383920202020302E303030302043202020302020302020302020302020302020302020302020302020302020302020302020300A2020202D312E303331332020202D302E3731343520202020302E303030302043202020302020302020302020302020302020302020302020302020302020302020302020300A2020202D302E3631383820202020302E3030303020202020302E303030302043202020302020302020302020302020302020302020302020302020302020302020302020300A2020202D312E3033313320202020302E3731343520202020302E303030302043202020302020302020302020302020302020302020302020302020302020302020302020300A2020202D302E3631383820202020312E3432383920202020302E303030302043202020302020302020302020302020302020302020302020302020302020302020302020300A20202020302E3230363220202020312E3432383920202020302E303030302043202020302020302020302020302020302020302020302020302020302020302020302020300A20202020302E3631383820202020302E3731343520202020302E303030302043202020302020302020302020302020302020302020302020302020302020302020302020300A20202020312E343433382020202D302E3731343520202020302E30303030204F202020302020302020302020302020302020302020302020302020302020302020302020300A20202020312E3033313320202020302E3030303020202020302E303030302048202020302020302020302020302020302020302020302020302020302020302020302020300A2020202D312E3434333820202020302E3030303020202020302E303030302048202020302020302020302020302020302020302020302020302020302020302020302020300A2020312020322020312020302020202020200A2020322020332020312020302020202020200A2020332020342020312020302020202020200A2020342020352020312020302020202020200A2020352020362020312020302020202020200A2020362020372020312020302020202020200A2020372020382020312020302020202020200A2020382020392020312020302020202020200A2020392031302020312020302020202020200A2020312031302020312020302020202020200A2020312020362020312020302020202020200A2020322031312020322020302020202020200A2020312031322020312020362020202020200A2020362031332020312020312020202020200A4D2020454E44
Contributor: YAMAMOTO M, DEP. CHEMISTRY, FAC. SCIENCE, NARA WOMEN'S UNIV.
InstType: EI
InstName: HITACHI RMU-6M
IoniMethod: _ENERGY 70 eV
IonPolarity: pos
Date: 2010-10-09 19:48:36+02:00
Num Peaks: 67
26 27 27 368 28 133 29 19 32 44 38 23 39 481 40 9 41 677 42 89 
43 70 44 4 47 11 50 25 51 74 52 5 53 245 54 302 55 835 56 7 
57 38 62 11 63 23 65 7 66 67 67 669 68 291 69 12 70 110 71 70 
77 89 78 7 79 266 80 105 81 842 82 35 83 101 84 30 91 61 92 4 
93 177 94 137 95 451 96 41 97 255 98 36 105 44 106 4 107 30 108 999 
109 249 110 41 111 38 119 70 120 11 121 2 123 143 124 67 133 15 134 13 
135 21 136 38 137 72 138 1 151 34 152 729 153 82 
