Name: MassBank: JP005366
MW: 182
Formula: C12H22O
Synonym: MassBank: JP005366
Synonym: (E,E)-8,10-DODECADIEN-1-OL
Structure: 28452C45292D382C31302D444F444543414449454E2D312D4F4C2E6D6F6C0A20204368656D447261773130323230393137303532440A2031372031362020302020302020302020302020302020302020302020303939392056323030300A2020202D342E323836382020202D302E3230363220202020302E30303030204F202020302020302020302020302020302020302020302020302020302020302020302020300A2020202D332E3537323420202020302E3230363220202020302E303030302043202020302020302020302020302020302020302020302020302020302020302020302020300A2020202D322E383537392020202D302E3230363220202020302E303030302043202020302020302020302020302020302020302020302020302020302020302020302020300A2020202D322E3134333420202020302E3230363220202020302E303030302043202020302020302020302020302020302020302020302020302020302020302020302020300A2020202D312E343238392020202D302E3230363220202020302E303030302043202020302020302020302020302020302020302020302020302020302020302020302020300A2020202D302E3731343520202020302E3230363220202020302E303030302043202020302020302020302020302020302020302020302020302020302020302020302020300A20202020302E303030302020202D302E3230363220202020302E303030302043202020302020302020302020302020302020302020302020302020302020302020302020300A20202020302E3731343520202020302E3230363220202020302E303030302043202020302020302020302020302020302020302020302020302020302020302020302020300A20202020312E343238392020202D302E3230363220202020302E303030302043202020302020302020302020302020302020302020302020302020302020302020302020300A20202020322E3134333420202020302E3230363220202020302E303030302043202020302020302020302020302020302020302020302020302020302020302020302020300A20202020312E343238392020202D312E3033313320202020302E303030302048202020302020302020302020302020302020302020302020302020302020302020302020300A20202020322E383537392020202D302E3230363220202020302E303030302043202020302020302020302020302020302020302020302020302020302020302020302020300A20202020322E3134333420202020312E3033313320202020302E303030302048202020302020302020302020302020302020302020302020302020302020302020302020300A20202020332E3537323420202020302E3230363220202020302E303030302043202020302020302020302020302020302020302020302020302020302020302020302020300A20202020322E383537392020202D312E3033313320202020302E303030302048202020302020302020302020302020302020302020302020302020302020302020302020300A20202020342E323836382020202D302E3230363220202020302E303030302043202020302020302020302020302020302020302020302020302020302020302020302020300A20202020332E3537323420202020312E3033313320202020302E303030302048202020302020302020302020302020302020302020302020302020302020302020302020300A2020312020322020312020302020202020200A2020322020332020312020302020202020200A2020332020342020312020302020202020200A2020342020352020312020302020202020200A2020352020362020312020302020202020200A2020362020372020312020302020202020200A2020372020382020312020302020202020200A2020382020392020312020302020202020200A2020392031302020322020302020202020200A2020392031312020312020302020202020200A2031302031322020312020302020202020200A2031302031332020312020302020202020200A2031322031342020322020302020202020200A2031322031352020312020302020202020200A2031342031362020312020302020202020200A2031342031372020312020302020202020200A4D2020454E44
Contributor: YAMAOKA R, KYOTO INSTITUTE OF TECHNOLOGY
InstType: EI
InstName: SHIMADZU QP-1000
IoniMethod: _ENERGY 70 eV
IonPolarity: pos
Date: 2010-10-09 19:48:36+02:00
Num Peaks: 72
41 148 42 36 43 421 44 23 45 160 46 999 47 26 52 2 53 16 54 157 
55 237 56 3 57 59 58 82 59 129 60 1 65 40 66 46 67 361 68 59 
69 78 70 35 71 35 72 4 73 281 74 13 75 21 77 6 78 18 79 316 
80 85 81 46 82 140 83 30 84 13 86 2 87 88 88 35 89 158 91 3 
92 16 93 88 94 67 95 9 96 70 97 25 98 28 101 3 102 21 103 61 
105 11 107 5 108 27 109 34 110 13 111 2 117 24 119 13 121 58 122 2 
123 11 131 23 133 59 135 4 136 10 147 13 149 12 164 4 177 10 181 13 
182 105 183 14 
