Name: (5R)-5-(TERT-BUTYLDIMETHYLSILOXY)-2-METHYL-1-OCTEN-7-YNE
MW: 252
Formula: C15H28OSi
Synonym: MassBank: JP002432
Synonym: (5R)-5-(TERT-BUTYLDIMETHYLSILOXY)-2-METHYL-1-OCTEN-7-YNE
Structure: 283552292D352D28544552542D425554594C44494D455448594C53494C4F5859292D322D4D455448594C2D312D4F4354454E2D372D594E452E6D6F6C0A20204368656D447261773130323230393034323132440A2031382031372020302020302020302020302020302020302020302020303939392056323030300A2020202D322E3835373920202020302E3431323520202020302E303030302043202020302020302020302020302020302020302020302020302020302020302020302020300A2020202D322E3134333420202020302E3832353020202020302E303030302043202020302020302020302020302020302020302020302020302020302020302020302020300A2020202D312E3432383920202020302E3431323520202020302E303030302053692020302020302020302020302020302020302020302020302020302020302020302020300A2020202D302E3731343520202020302E3832353020202020302E30303030204F202020302020302020302020302020302020302020302020302020302020302020302020300A2020202D302E3030303020202020302E3431323520202020302E303030302043202020302020302020302020302020302020302020302020302020302020302020302020300A20202020302E3731343520202020302E3832353020202020302E303030302043202020302020302020302020302020302020302020302020302020302020302020302020300A20202020312E3432383920202020302E3431323520202020302E303030302043202020302020302020302020302020302020302020302020302020302020302020302020300A20202020322E3134333420202020302E3832353020202020302E303030302043202020302020302020302020302020302020302020302020302020302020302020302020300A20202020322E3835373920202020302E3431323520202020302E303030302043202020302020302020302020302020302020302020302020302020302020302020302020300A2020202D322E3134333420202020312E3635303020202020302E303030302043202020302020302020302020302020302020302020302020302020302020302020302020300A2020202D322E3134333420202020302E3030303020202020302E303030302043202020302020302020302020302020302020302020302020302020302020302020302020300A2020202D302E303030302020202D302E3431323520202020302E303030302043202020302020302020302020302020302020302020302020302020302020302020302020300A2020202D302E3030303020202020312E3233373520202020302E303030302048202020302020302020302020302020302020302020302020302020302020302020302020300A20202020302E373134352020202D302E3832353020202020302E303030302043202020302020302020302020302020302020302020302020302020302020302020302020300A20202020302E373134352020202D312E3635303020202020302E303030302043202020302020302020302020302020302020302020302020302020302020302020302020300A20202020322E3134333420202020312E3635303020202020302E303030302043202020302020302020302020302020302020302020302020302020302020302020302020300A2020202D312E3432393320202020312E3233373520202020302E303030302043202020302020302020302020302020302020302020302020302020302020302020302020300A2020202D312E343239332020202D302E3431323520202020302E303030302043202020302020302020302020302020302020302020302020302020302020302020302020300A2020312020322020312020302020202020200A2020322020332020312020302020202020200A2020332020342020312020302020202020200A2020342020352020312020302020202020200A2020352020362020312020302020202020200A2020362020372020312020302020202020200A2020372020382020312020302020202020200A2020382020392020322020302020202020200A2020322031302020312020312020202020200A2020322031312020312020312020202020200A2020352031322020312020312020202020200A2020352031332020312020312020202020200A2031322031342020312020302020202020200A2031342031352020332020302020202020200A2020382031362020312020302020202020200A2020332031372020312020302020202020200A2020332031382020312020302020202020200A4D202053545920203120202031205355500A4D2020534C4220203120202031202020310A4D202053414C20202031202031202031370A4D202053424C20202031202031202031360A4D2020534D5420202031204D650A4D2020534256202020312031362020202D372E3437383220202020372E383136390A4D202053545920203120202032205355500A4D2020534C4220203120202032202020320A4D202053414C20202032202031202031380A4D202053424C20202032202031202031370A4D2020534D5420202032204D650A4D2020534256202020322031372020202D372E3437383220202020362E313636390A4D2020454E44
Contributor: ITO S, DEPT. OF CHEM., TOHOKU UNIV.
InstType: EI
InstName: HITACHI M-52
IoniMethod: _ENERGY 25 eV
IonPolarity: pos
Date: 2010-10-09 19:48:36+02:00
Num Peaks: 27
41 22 43 22 56 17 69 2 73 157 75 542 76 37 78 2 81 999 82 70 
97 215 98 3 99 19 101 25 105 21 115 2 119 46 127 17 139 23 155 41 
156 62 157 22 177 46 183 2 194 132 195 24 196 17 
