Name: DIMETHYLHYDRAZONE FORMALDEHYDE
MW: 72
Formula: C3H8N2
Synonym: MassBank: JP000825
Synonym: DIMETHYLHYDRAZONE FORMALDEHYDE
Synonym: FORMALDEHYDE DIMETHYLHYDRAZONE
Structure: 310A31340A303136395F44494D455448594C48594452415A4F4E4520464F524D414C4445485944452E6D6F6C0A20204368656D447261773039303331303138333232440A2020352020342020302020302020302020302020302020302020302020303939392056323030300A2020202D312E303731372020202D302E3230363220202020302E303030302043202020302020302020302020302020302020302020302020302020302020302020302020300A2020202D302E333537322020202D302E3631383820202020302E30303030204E202020302020302020302020302020302020302020302020302020302020302020302020300A20202020302E333537332020202D302E3230363320202020302E30303030204E202020302020302020302020302020302020302020302020302020302020302020302020300A20202020302E3335373320202020302E3631383820202020302E303030302043202020302020302020302020302020302020302020302020302020302020302020302020300A20202020312E303731372020202D302E3631383720202020302E303030302043202020302020302020302020302020302020302020302020302020302020302020302020300A2020322020332020312020302020202020200A2020332020342020312020302020202020200A2020332020352020312020302020202020200A2020312020322020322020302020202020200A4D2020454E44
Contributor: SASAKI S, TOYOHASHI UNIV. OF TECH.
InstType: EI
InstName: SHIMADZU LKB-2091
IoniMethod: _ENERGY 70 eV
IonPolarity: pos
Date: 2010-10-09 19:48:36+02:00
Num Peaks: 14
27 88 28 22 29 43 30 36 40 34 41 50 42 978 43 19 44 42 57 266 
58 7 71 52 72 999 73 46 
