Name: METHDILAZINE
MW: 296
Formula: C18H20N2S
Synonym: MassBank: JP003816
Synonym: METHDILAZINE
Structure: 303731365F4D45544844494C415A494E452E6D6F6C0A20204368656D447261773039303631303139353432440A2032312032342020302020302020302020302020302020302020302020303939392056323030300A2020202D322E3439323020202020312E3532373320202020302E303030302043202020302020302020302020302020302020302020302020302020302020302020302020300A2020202D322E3439323020202020302E3730323320202020302E303030302043202020302020302020302020302020302020302020302020302020302020302020302020300A2020202D312E3737373620202020302E3238393820202020302E303030302043202020302020302020302020302020302020302020302020302020302020302020302020300A2020202D312E3036333120202020302E3730323320202020302E303030302043202020302020302020302020302020302020302020302020302020302020302020302020300A2020202D312E3036333120202020312E3532373320202020302E303030302043202020302020302020302020302020302020302020302020302020302020302020302020300A2020202D312E3737373620202020312E3933393820202020302E303030302043202020302020302020302020302020302020302020302020302020302020302020302020300A2020202D302E3334383620202020302E3238393820202020302E30303030204E202020302020302020302020302020302020302020302020302020302020302020302020300A20202020302E3336353820202020302E3730323320202020302E303030302043202020302020302020302020302020302020302020302020302020302020302020302020300A20202020302E3336353820202020312E3532373320202020302E303030302043202020302020302020302020302020302020302020302020302020302020302020302020300A2020202D302E3334383620202020312E3933393820202020302E303030302053202020302020302020302020302020302020302020302020302020302020302020302020300A20202020312E3038303320202020302E3238393820202020302E303030302043202020302020302020302020302020302020302020302020302020302020302020302020300A20202020312E3739343820202020302E3730323320202020302E303030302043202020302020302020302020302020302020302020302020302020302020302020302020300A20202020312E3739343820202020312E3532373320202020302E303030302043202020302020302020302020302020302020302020302020302020302020302020302020300A20202020312E3038303320202020312E3933393820202020302E303030302043202020302020302020302020302020302020302020302020302020302020302020302020300A2020202D302E333438362020202D302E3533353220202020302E303030302043202020302020302020302020302020302020302020302020302020302020302020302020300A20202020302E333635382020202D302E3934373720202020302E303030302043202020302020302020302020302020302020302020302020302020302020302020302020300A20202020302E343532312020202D312E3736383220202020302E303030302043202020302020302020302020302020302020302020302020302020302020302020302020300A20202020312E323539312020202D312E3933393820202020302E303030302043202020302020302020302020302020302020302020302020302020302020302020302020300A20202020312E363731362020202D312E3232353320202020302E30303030204E202020302020302020302020302020302020302020302020302020302020302020302020300A20202020312E313139352020202D302E3631323220202020302E303030302043202020302020302020302020302020302020302020302020302020302020302020302020300A20202020322E343932302020202D312E3133393020202020302E303030302043202020302020302020302020302020302020302020302020302020302020302020302020300A2020312020322020322020302020202020200A2020322020332020312020302020202020200A2020332020342020322020302020202020200A2020342020352020312020302020202020200A2020352020362020322020302020202020200A2020362020312020312020302020202020200A2020342020372020312020302020202020200A2020372020382020312020302020202020200A2020382020392020322020302020202020200A2020392031302020312020302020202020200A2031302020352020312020302020202020200A2020382031312020312020302020202020200A2031312031322020322020302020202020200A2031322031332020312020302020202020200A2031332031342020322020302020202020200A2031342020392020312020302020202020200A2020372031352020312020302020202020200A2031352031362020312020302020202020200A2031362031372020312020302020202020200A2031372031382020312020302020202020200A2031382031392020312020302020202020200A2031392032302020312020302020202020200A2032302031362020312020302020202020200A2031392032312020312020302020202020200A4D2020454E44
Contributor: SASAKI S, TOYOHASHI UNIV. OF TECH.
InstType: EI
InstName: Unknown
IoniMethod: _ENERGY 70 eV
IonPolarity: pos
Date: 2010-10-09 19:48:36+02:00
Num Peaks: 47
55 940 56 89 57 149 58 5 70 199 77 69 82 449 83 21 84 149 89 19 
96 29 97 999 98 950 99 69 108 39 109 5 127 59 128 39 139 49 140 4 
151 29 152 69 153 49 154 9 155 19 166 59 167 49 168 4 179 69 180 319 
181 59 182 1 184 39 196 29 197 49 198 34 199 369 200 69 212 279 213 12 
214 39 238 49 239 19 252 2 296 319 297 79 298 29 
