Name: CYCLOHEPTANOL
MW: 114
Formula: C7H14O
Synonym: MassBank: JP009294
Synonym: CYCLOHEPTANOL
Structure: 310A32310A4359434C4F48455054414E4F4C2E6D6F6C0A20204368656D447261773039313531303035333132440A2020382020382020302020302020302020302020302020302020302020303939392056323030300A2020202D302E343931312020202D302E3030303020202020302E303030302043202020302020302020302020302020302020302020302020302020302020302020302020300A2020202D302E3133333220202020302E3734333320202020302E303030302043202020302020302020302020302020302020302020302020302020302020302020302020300A20202020302E3637313120202020302E3932363920202020302E303030302043202020302020302020302020302020302020302020302020302020302020302020302020300A20202020312E3331363120202020302E3431323520202020302E303030302043202020302020302020302020302020302020302020302020302020302020302020302020300A20202020312E333136312020202D302E3431323520202020302E303030302043202020302020302020302020302020302020302020302020302020302020302020302020300A20202020302E363731312020202D302E3932363920202020302E303030302043202020302020302020302020302020302020302020302020302020302020302020302020300A2020202D302E313333322020202D302E3734333320202020302E303030302043202020302020302020302020302020302020302020302020302020302020302020302020300A2020202D312E333136312020202D302E3030303020202020302E30303030204F202020302020302020302020302020302020302020302020302020302020302020302020300A2020312020322020312020302020202020200A2020322020332020312020302020202020200A2020332020342020312020302020202020200A2020342020352020312020302020202020200A2020352020362020312020302020202020200A2020362020372020312020302020202020200A2020312020372020312020302020202020200A2020312020382020312020302020202020200A4D2020454E44
Contributor: SODA AROMATIC CO., LTD.
InstType: EI
InstName: HITACHI M-80B
IoniMethod: _ENERGY 70 eV
IonPolarity: pos
Date: 2010-10-09 19:48:36+02:00
Num Peaks: 37
15 13 26 15 27 171 28 5 29 148 30 10 31 70 39 17 40 30 41 330 
42 161 43 15 44 260 45 58 51 12 53 6 54 138 55 235 56 31 57 999 
58 88 66 15 67 182 68 36 69 31 70 125 71 129 72 6 81 321 82 19 
83 11 85 5 86 32 95 18 96 186 97 2 114 14 
