Name: 3-DODECYL-GAMMA-BUTYROLACTONE
MW: 254
Formula: C16H30O2
Synonym: MassBank: JP004175
Synonym: 3-DODECYL-GAMMA-BUTYROLACTONE
Structure: 332D444F444543594C2D47414D4D412D42555459524F4C4143544F4E452E6D6F6C0A20204368656D447261773032323231303137303532440A2031382031382020302020302020302020302020302020302020302020303939392056323030300A2020202D332E3839333420202020302E3931393820202020302E303030302043202020302020302020302020302020302020302020302020302020302020302020302020300A2020202D342E3134383320202020302E3133353220202020302E303030302043202020302020302020302020302020302020302020302020302020302020302020302020300A2020202D332E343830392020202D302E3334393720202020302E303030302043202020302020302020302020302020302020302020302020302020302020302020302020300A2020202D322E3831333420202020302E3133353220202020302E303030302043202020302020302020302020302020302020302020302020302020302020302020302020300A2020202D332E343830392020202D312E3137343720202020302E303030302043202020302020302020302020302020302020302020302020302020302020302020302020300A2020202D322E373636342020202D312E3538373220202020302E303030302043202020302020302020302020302020302020302020302020302020302020302020302020300A2020202D322E303531392020202D312E3137343720202020302E303030302043202020302020302020302020302020302020302020302020302020302020302020302020300A2020202D312E333337352020202D312E3538373220202020302E303030302043202020302020302020302020302020302020302020302020302020302020302020302020300A2020202D302E363233302020202D312E3137343720202020302E303030302043202020302020302020302020302020302020302020302020302020302020302020302020300A20202020302E303931352020202D312E3538373220202020302E303030302043202020302020302020302020302020302020302020302020302020302020302020302020300A20202020302E383035392020202D312E3137343720202020302E303030302043202020302020302020302020302020302020302020302020302020302020302020302020300A20202020312E353230342020202D312E3538373220202020302E303030302043202020302020302020302020302020302020302020302020302020302020302020302020300A20202020322E323334392020202D312E3137343720202020302E303030302043202020302020302020302020302020302020302020302020302020302020302020302020300A20202020322E393439342020202D312E3538373220202020302E303030302043202020302020302020302020302020302020302020302020302020302020302020302020300A20202020332E363633382020202D312E3137343720202020302E303030302043202020302020302020302020302020302020302020302020302020302020302020302020300A20202020342E333738332020202D312E3538373220202020302E303030302043202020302020302020302020302020302020302020302020302020302020302020302020300A2020202D342E3337383320202020312E3538373220202020302E30303030204F202020302020302020302020302020302020302020302020302020302020302020302020300A2020202D332E3036383420202020302E3931393820202020302E30303030204F202020302020302020302020302020302020302020302020302020302020302020302020300A2020312020322020312020302020202020200A2020322020332020312020302020202020200A2020332020342020312020302020202020200A2020352020362020312020302020202020200A2020362020372020312020302020202020200A2020372020382020312020302020202020200A2020382020392020312020302020202020200A2020392031302020312020302020202020200A2031302031312020312020302020202020200A2031312031322020312020302020202020200A2031322031332020312020302020202020200A2031332031342020312020302020202020200A2031342031352020312020302020202020200A2031352031362020312020302020202020200A2020332020352020312020302020202020200A2020312031372020322020302020202020200A2020312031382020312020302020202020200A2020342031382020312020302020202020200A4D2020454E44
Contributor: MASS SPECTROSCOPY SOC. OF JAPAN (MSSJ)
InstType: EI
InstName: HITACHI RMU-6E
IoniMethod: _ENERGY 70 eV
IonPolarity: pos
Date: 2010-10-09 19:48:36+02:00
Num Peaks: 164
26 12 27 140 28 116 29 26 30 9 31 35 32 13 38 0 39 102 40 22 
41 480 42 15 43 404 44 31 45 41 46 0 47 1 48 1 49 1 50 0 
51 6 52 4 53 54 54 7 55 436 56 138 57 270 58 6 59 14 60 22 
61 6 64 0 65 8 66 8 67 90 68 6 69 170 70 80 71 118 72 2 
73 44 74 12 75 9 76 0 77 7 78 3 79 17 80 1 81 78 82 56 
83 128 84 4 85 104 86 960 87 80 88 1 89 17 90 1 91 7 92 0 
93 8 94 6 95 45 96 3 97 76 98 29 99 999 100 9 101 88 102 5 
103 6 104 0 105 4 106 1 107 4 108 0 109 22 110 16 111 35 112 1 
113 27 114 8 115 8 116 0 117 2 118 1 119 3 120 0 121 5 122 2 
123 10 124 1 125 16 126 11 127 15 128 1 129 11 130 2 135 3 136 0 
137 7 138 8 139 7 140 1 141 25 142 9 143 10 144 0 145 1 151 7 
152 4 153 0 154 6 155 12 156 6 157 1 158 2 164 2 165 4 166 1 
167 8 168 5 169 11 170 0 171 8 172 4 179 4 180 0 181 1 182 5 
183 5 184 0 185 2 186 3 187 1 191 0 192 3 193 3 194 2 195 0 
196 3 197 6 198 3 199 0 207 2 208 2 209 1 210 1 211 3 212 1 
224 1 225 0 226 1 227 1 235 1 236 0 239 2 240 1 252 2 253 0 
254 208 255 33 256 4 257 1 
