Name: OXANAMIDE QUINACTIN
MW: 157
Formula: C8H15NO2
Synonym: MassBank: JP003952
Synonym: OXANAMIDE QUINACTIN
Structure: 303138395F4F58414E414D494445205155494E414354494E2E6D6F6C0A20204368656D447261773130313931303137333832440A2031312031312020302020302020302020302020302020302020302020303939392056323030300A20202020302E3336393720202020302E3831373420202020302E30303030204F202020302020302020302020302020302020302020302020302020302020302020302020300A2020202D302E3034393120202020302E3130363620202020302E303030302043202020302020302020302020302020302020302020302020302020302020302020302020300A20202020302E3737353920202020302E3130363620202020302E303030302043202020302020302020302020302020302020302020302020302020302020302020302020300A20202020312E3533343920202020302E3432393820202020302E303030302043202020302020302020302020302020302020302020302020302020302020302020302020300A20202020302E393430382020202D302E3730313820202020302E303030302043202020302020302020302020302020302020302020302020302020302020302020302020300A20202020322E313934332020202D302E3036353920202020302E30303030204F202020302020302020302020302020302020302020302020302020302020302020302020300A20202020312E3633343520202020312E3234383820202020302E30303030204E202020302020302020302020302020302020302020302020302020302020302020302020300A20202020302E333233322020202D312E3234383820202020302E303030302043202020302020302020302020302020302020302020302020302020302020302020302020300A2020202D302E373635342020202D302E3330323720202020302E303030302043202020302020302020302020302020302020302020302020302020302020302020302020300A2020202D312E3437383020202020302E3131323920202020302E303030302043202020302020302020302020302020302020302020302020302020302020302020302020300A2020202D322E313934332020202D302E3239363420202020302E303030302043202020302020302020302020302020302020302020302020302020302020302020302020300A2020312020322020312020302020202020200A2020322020332020312020302020202020200A2020332020312020312020302020202020200A2020332020342020312020302020202020200A2020332020352020312020302020202020200A2020342020362020322020302020202020200A2020342020372020312020302020202020200A2020352020382020312020302020202020200A2020322020392020312020302020202020200A2020392031302020312020302020202020200A2031302031312020312020302020202020200A4D2020454E44
Contributor: SASAKI S, TOYOHASHI UNIV. OF TECH.
InstType: EI
InstName: Unknown
IoniMethod: EI
IonPolarity: pos
Date: 2010-10-09 19:48:36+02:00
Num Peaks: 127
33 17 34 69 35 194 36 999 37 63 38 673 39 550 40 84 41 836 42 297 
43 511 44 73 45 57 46 19 47 23 48 2 49 19 50 77 51 115 52 11 
53 185 54 141 55 655 56 20 57 1000 58 135 59 44 60 4 61 13 62 17 
63 43 64 3 65 84 66 78 67 217 68 8 69 179 70 122 71 169 72 22 
73 59 74 26 75 33 76 3 77 125 78 83 79 145 80 9 81 149 82 241 
83 161 84 6 85 182 86 36 87 52 88 2 89 22 90 15 91 103 92 6 
94 52 95 79 96 51 97 8 98 46 99 19 100 27 101 3 102 16 103 19 
104 25 105 4 106 49 107 36 108 36 109 5 110 38 111 30 112 87 113 6 
114 45 115 35 116 18 117 2 118 18 119 25 120 27 121 4 122 23 123 30 
124 41 125 0 126 61 127 19 128 30 129 3 130 12 131 15 132 11 133 2 
134 11 135 30 136 12 137 2 138 13 139 28 140 31 141 4 142 50 143 21 
144 9 145 1 146 8 147 15 148 10 149 5 150 15 151 12 152 19 153 2 
154 11 155 12 156 10 157 2 158 15 159 12 160 2 
