Name: BETA-SANTALENE
MW: 204
Formula: C15H24
Synonym: MassBank: JP002846
Synonym: BETA-SANTALENE
Structure: 424554412D53414E54414C454E452E6D6F6C0A20204368656D447261773031323231303037313032440A2031352031362020302020302020302020302020302020302020302020303939392056323030300A20202020302E3538373620202020312E3631353120202020302E303030302043202020302020302020302020302020302020302020302020302020302020302020302020300A20202020302E3538373620202020302E3739303120202020302E303030302043202020302020302020302020302020302020302020302020302020302020302020302020300A20202020312E3330323120202020302E3337373620202020302E303030302043202020302020302020302020302020302020302020302020302020302020302020302020300A20202020322E3031363620202020302E3739303120202020302E303030302043202020302020302020302020302020302020302020302020302020302020302020302020300A20202020322E3031363620202020312E3631353120202020302E303030302043202020302020302020302020302020302020302020302020302020302020302020302020300A20202020312E3330323120202020322E3032373620202020302E303030302043202020302020302020302020302020302020302020302020302020302020302020302020300A20202020312E3338343520202020312E3430313620202020302E303030302043202020302020302020302020302020302020302020302020302020302020302020302020300A2020202D302E3233373420202020302E3739303120202020302E303030302043202020302020302020302020302020302020302020302020302020302020302020302020300A20202020302E333734312020202D302E3030363820202020302E303030302043202020302020302020302020302020302020302020302020302020302020302020302020300A20202020312E333032312020202D302E3434373420202020302E303030302043202020302020302020302020302020302020302020302020302020302020302020302020300A2020202D302E343232382020202D302E3232303320202020302E303030302043202020302020302020302020302020302020302020302020302020302020302020302020300A2020202D302E363336332020202D312E3031373220202020302E303030302043202020302020302020302020302020302020302020302020302020302020302020302020300A2020202D312E343333322020202D312E3233303720202020302E303030302043202020302020302020302020302020302020302020302020302020302020302020302020300A2020202D312E363436372020202D322E3032373620202020302E303030302043202020302020302020302020302020302020302020302020302020302020302020302020300A2020202D322E303136362020202D302E3634373420202020302E303030302043202020302020302020302020302020302020302020302020302020302020302020302020300A2020312020322020312020302020202020200A2020322020332020312020302020202020200A2020332020342020312020302020202020200A2020342020352020312020302020202020200A2020352020362020312020302020202020200A2020362020312020312020302020202020200A2020312020372020312020362020202020200A2020342020372020312020362020202020200A2020322020382020312020312020202020200A2020322020392020312020362020202020200A2020332031302020322020302020202020200A2020392031312020312020302020202020200A2031312031322020312020302020202020200A2031322031332020322020302020202020200A2031332031342020312020302020202020200A2031332031352020312020302020202020200A4D2020454E44
Contributor: SASAKI S, TOYOHASHI UNIV. OF TECH.
InstType: EI
InstName: Unknown
IoniMethod: EI
IonPolarity: pos
Date: 2010-10-09 19:48:36+02:00
Num Peaks: 60
27 50 28 11 29 40 39 7 40 12 41 281 42 11 43 4 51 15 52 10 
53 56 54 1 55 185 56 10 63 5 65 3 66 15 67 107 68 15 69 1 
70 6 75 5 77 106 78 3 79 191 80 18 81 47 82 1 83 71 84 6 
91 110 92 3 93 225 94 999 95 100 96 1 103 5 105 47 106 26 107 5 
108 8 109 6 117 5 119 3 120 20 121 96 122 333 123 4 133 20 134 11 
135 16 136 1 137 8 147 13 148 6 161 3 162 5 176 5 189 8 204 8 
