Name: DIMETHYL(PHENYLETHYNYL)SILANE (SID)
MW: 160
Formula: C10H12Si
Synonym: MassBank: JP001343
Synonym: DIMETHYL(PHENYLETHYNYL)SILANE (SID)
Synonym: DIMETHYL(PHENYLETHYNYL)(2HI)SILANE
Structure: 310A350A44494D455448594C285048454E594C455448594E594C2953494C414E452028534944292E6D6F6C0A20204368656D447261773130313831303136333532440A2020302020302020302020302020302020302020302020302020302020303939392056323030300A4D2020454E44
Contributor: MASS SPECTROSCOPY SOC. OF JAPAN (MSSJ)
InstType: EI
InstName: JEOL JMS-D-3000
IoniMethod: _ENERGY 70 eV
IonPolarity: pos
Date: 2010-10-09 19:48:36+02:00
Num Peaks: 23
43 120 58 79 102 27 103 28 105 94 106 17 117 10 120 12 129 65 130 28 
131 18 132 17 143 16 144 28 145 55 146 999 147 160 148 45 159 65 160 48 
161 426 162 75 163 21 
