Name: PROPARGYL ALCOHOL
MW: 56
Formula: C3H4O
Synonym: MassBank: JP005857
Synonym: PROPARGYL ALCOHOL
Structure: 310A31320A50524F50415247594C20414C434F484F4C2E6D6F6C0A20204368656D447261773038313231303036303232440A2020342020332020302020302020302020302020302020302020302020303939392056323030300A20202020302E363138382020202D302E3335373220202020302E303030302043202020302020302020302020302020302020302020302020302020302020302020302020300A2020202D302E323036322020202D302E3335373220202020302E303030302043202020302020302020302020302020302020302020302020302020302020302020302020300A2020202D312E303331332020202D302E3335373220202020302E303030302043202020302020302020302020302020302020302020302020302020302020302020302020300A20202020312E3033313320202020302E3335373220202020302E30303030204F202020302020302020302020302020302020302020302020302020302020302020302020300A2020312020322020312020302020202020200A2020322020332020332020302020202020200A2020312020342020312020302020202020200A4D2020454E44
Contributor: YAMAMOTO M, DEP. CHEMISTRY, FAC. SCIENCE, NARA WOMEN'S UNIV.
InstType: EI
InstName: HITACHI RMU-6M
IoniMethod: _ENERGY 70 eV
IonPolarity: pos
Date: 2010-10-09 19:48:36+02:00
Num Peaks: 18
24 16 25 47 26 82 27 166 28 184 29 148 30 24 31 18 36 22 37 82 
38 117 39 245 40 11 52 11 53 75 54 16 55 999 56 35 
