Name: SALICYLALDEHYDE
MW: 122
Formula: C7H6O2
Synonym: MassBank: JP008920
Synonym: SALICYLALDEHYDE
Structure: 310A32330A53414C4943594C414C4445485944452E6D6F6C0A20204368656D447261773038313231303036333832440A2020392020392020302020302020302020302020302020302020302020303939392056323030300A2020202D312E303331332020202D302E3335373220202020302E303030302043202020302020302020302020302020302020302020302020302020302020302020302020300A2020202D302E323036322020202D302E3335373220202020302E303030302043202020302020302020302020302020302020302020302020302020302020302020302020300A20202020302E3230363220202020302E3335373220202020302E303030302043202020302020302020302020302020302020302020302020302020302020302020302020300A2020202D302E3230363220202020312E3037313720202020302E30303030204F202020302020302020302020302020302020302020302020302020302020302020302020300A20202020312E3033313220202020302E3335373220202020302E303030302043202020302020302020302020302020302020302020302020302020302020302020302020300A20202020312E343433382020202D302E3335373220202020302E303030302043202020302020302020302020302020302020302020302020302020302020302020302020300A20202020312E303331332020202D312E3037313720202020302E303030302043202020302020302020302020302020302020302020302020302020302020302020302020300A20202020302E323036322020202D312E3037313720202020302E303030302043202020302020302020302020302020302020302020302020302020302020302020302020300A2020202D312E343433382020202D312E3037313720202020302E30303030204F202020302020302020302020302020302020302020302020302020302020302020302020300A2020312020322020312020302020202020200A2020322020332020312020302020202020200A2020332020342020312020302020202020200A2020332020352020322020302020202020200A2020352020362020312020302020202020200A2020362020372020322020302020202020200A2020372020382020312020302020202020200A2020322020382020322020302020202020200A2020312020392020322020302020202020200A4D2020454E44
Contributor: YAMAMOTO M, DEP. CHEMISTRY, FAC. SCIENCE, NARA WOMEN'S UNIV.
InstType: EI
InstName: HITACHI RMU-6M
IoniMethod: _ENERGY 70 eV
IonPolarity: pos
Date: 2010-10-09 19:48:36+02:00
Num Peaks: 47
25 10 26 29 27 57 28 3 29 86 31 14 37 84 38 16 39 539 40 98 
41 14 42 1 43 19 46 14 47 45 49 3 50 137 51 87 52 12 53 10 
54 10 55 39 60 10 61 6 62 79 63 149 64 68 65 45 66 154 67 17 
68 14 70 1 73 17 74 48 75 33 76 27 77 33 92 43 93 243 94 10 
104 171 105 17 120 50 121 95 122 999 123 77 124 10 
