Name: MassBank: JP005072
MW: 335
Formula: C14H7Cl3N4
Synonym: MassBank: JP005072
Synonym: 2,4',6'-TRICHLORO-6-PHENYL-4,5'-BIPYRIMIDINE
Structure: 322C34272C36272D54524943484C4F524F2D362D5048454E594C2D342C35272D4249505952494D4944494E452E6D6F6C0A20204368656D447261773132323030393132323632440A2032312032332020302020302020302020302020302020302020302020303939392056323030300A2020202D302E3030303020202020312E3033313320202020302E303030302043202020302020302020302020302020302020302020302020302020302020302020302020300A20202020302E3731343520202020302E3631383820202020302E30303030204E202020302020302020302020302020302020302020302020302020302020302020302020300A20202020302E373134352020202D302E3230363220202020302E303030302043202020302020302020302020302020302020302020302020302020302020302020302020300A2020202D302E303030302020202D302E3631383820202020302E303030302043202020302020302020302020302020302020302020302020302020302020302020302020300A2020202D302E373134352020202D302E3230363220202020302E303030302043202020302020302020302020302020302020302020302020302020302020302020302020300A2020202D302E3731343520202020302E3631383820202020302E30303030204E202020302020302020302020302020302020302020302020302020302020302020302020300A20202020322E383537392020202D312E3434333720202020302E303030302043202020302020302020302020302020302020302020302020302020302020302020302020300A20202020322E313433342020202D312E3835363220202020302E30303030204E202020302020302020302020302020302020302020302020302020302020302020302020300A20202020312E343238392020202D312E3434333720202020302E303030302043202020302020302020302020302020302020302020302020302020302020302020302020300A20202020312E343238392020202D302E3631383720202020302E303030302043202020302020302020302020302020302020302020302020302020302020302020302020300A20202020322E313433342020202D302E3230363220202020302E303030302043202020302020302020302020302020302020302020302020302020302020302020302020300A20202020322E383537392020202D302E3631383720202020302E30303030204E202020302020302020302020302020302020302020302020302020302020302020302020300A2020202D312E343238392020202D302E3631383720202020302E303030302043202020302020302020302020302020302020302020302020302020302020302020302020300A2020202D312E343238392020202D312E3434333720202020302E303030302043202020302020302020302020302020302020302020302020302020302020302020302020300A2020202D322E313433342020202D312E3835363220202020302E303030302043202020302020302020302020302020302020302020302020302020302020302020302020300A2020202D322E383537392020202D312E3434333720202020302E303030302043202020302020302020302020302020302020302020302020302020302020302020302020300A2020202D322E383537392020202D302E3631383720202020302E303030302043202020302020302020302020302020302020302020302020302020302020302020302020300A2020202D322E313433342020202D302E3230363220202020302E303030302043202020302020302020302020302020302020302020302020302020302020302020302020300A20202020322E3134333420202020302E3631383820202020302E3030303020436C2020302020302020302020302020302020302020302020302020302020302020302020300A20202020302E373134352020202D312E3835363320202020302E3030303020436C2020302020302020302020302020302020302020302020302020302020302020302020300A2020202D302E3030303020202020312E3835363320202020302E3030303020436C2020302020302020302020302020302020302020302020302020302020302020302020300A2020312020322020312020302020202020200A2020322020332020322020302020202020200A2020332020342020312020302020202020200A2020342020352020322020302020202020200A2020352020362020312020302020202020200A2020312020362020322020302020202020200A2020372020382020322020302020202020200A2020382020392020312020302020202020200A2020392031302020322020302020202020200A2031302031312020312020302020202020200A2031312031322020322020302020202020200A2020372031322020312020302020202020200A2020332031302020312020302020202020200A2031332031342020312020302020202020200A2031342031352020322020302020202020200A2031352031362020312020302020202020200A2031362031372020322020302020202020200A2031372031382020312020302020202020200A2031332031382020322020302020202020200A2020352031332020312020302020202020200A2031312031392020312020302020202020200A2020392032302020312020302020202020200A2020312032312020312020302020202020200A4D2020454E44
Contributor: SASAKI S, TOYOHASHI UNIV. OF TECH.
InstType: EI
InstName: MS-902
IoniMethod: _ENERGY 70 eV
IonPolarity: pos
Date: 2010-10-09 19:48:36+02:00
Num Peaks: 88
51 59 52 43 63 18 64 2 75 31 77 128 78 72 83 1 84 18 85 14 
86 17 87 2 88 10 89 19 94.5 16 95.5 1 101 28 102 68 103 64 104 3 
106 77 106.5 22 107 12 107.5 2 110 17 111 18 112 11 119.5 4 120 17 120.5 47 
121 13 127 2 128 75 129 100 130 49 137 5 137.5 34 138 66 138.5 39 139 3 
151 18 151.5 10 152 14 153 1 154.5 11 169 21 170 12 171 1 172 21 173 16 
174 14 177 3 178 29 179 16 186 10 189 1 199 16 201 10 203 12 204 4 
212 10 213 29 238 61 239 2 240 63 241 11 242 15 265 3 266 24 267 12 
274 553 275 12 276 361 277 82 278 68 279 1 301 461 302 82 303 305 304 5 
305 53 335 12 336 999 337 20 338 974 339 184 340 353 342 42 
