Name: MassBank: JP001991
MW: 220
Formula: C11H12N2O3
Synonym: MassBank: JP001991
Synonym: 6-METHOXY-2,3-DIMETHYL-7-NITROINDOLE
Structure: 362D4D4554484F58592D322C332D44494D455448594C2D372D4E4954524F494E444F4C452E6D6F6C0A20204368656D447261773035313731303139303632440A2031362031372020302020302020302020302020302020302020302020303939392056323030300A2020202D302E3737393420202020302E3631333120202020302E30303030204E202020302020302020302020302020302020302020302020302020302020302020302020300A2020202D312E3533333120202020302E3237373520202020302E303030302043202020302020302020302020302020302020302020302020302020302020302020302020300A2020202D312E343436392020202D302E3534323920202020302E303030302043202020302020302020302020302020302020302020302020302020302020302020302020300A2020202D302E363339392020202D302E3731343520202020302E303030302043202020302020302020302020302020302020302020302020302020302020302020302020300A2020202D302E323237342020202D312E3432383920202020302E303030302043202020302020302020302020302020302020302020302020302020302020302020302020300A20202020302E353937362020202D312E3432383920202020302E303030302043202020302020302020302020302020302020302020302020302020302020302020302020300A20202020312E303130312020202D302E3731343520202020302E303030302043202020302020302020302020302020302020302020302020302020302020302020302020300A20202020302E3539373620202020302E3030303020202020302E303030302043202020302020302020302020302020302020302020302020302020302020302020302020300A2020202D302E3232373420202020302E3030303020202020302E303030302043202020302020302020302020302020302020302020302020302020302020302020302020300A20202020312E3031303120202020302E3731343520202020302E30303030204E202020302020332020302020302020302020302020302020302020302020302020302020300A20202020302E3539373620202020312E3432383920202020302E30303030204F202020302020302020302020302020302020302020302020302020302020302020302020300A20202020312E3833353120202020302E3731343520202020302E30303030204F202020302020352020302020302020302020302020302020302020302020302020302020300A2020202D322E303630302020202D312E3039353020202020302E303030302043202020302020302020302020302020302020302020302020302020302020302020302020300A2020202D322E3234373620202020302E3639303020202020302E303030302043202020302020302020302020302020302020302020302020302020302020302020302020300A20202020312E383335312020202D302E3731343520202020302E30303030204F202020302020302020302020302020302020302020302020302020302020302020302020300A20202020322E323437362020202D312E3432383920202020302E303030302043202020302020302020302020302020302020302020302020302020302020302020302020300A2020312020322020312020302020202020200A2020322020332020322020302020202020200A2020332020342020312020302020202020200A2020342020352020312020302020202020200A2020352020362020322020302020202020200A2020362020372020312020302020202020200A2020372020382020322020302020202020200A2020382020392020312020302020202020200A2020312020392020312020302020202020200A2020342020392020322020302020202020200A2031302031312020322020302020202020200A2031302031322020312020302020202020200A2020382031302020312020302020202020200A2020332031332020312020302020202020200A2020322031342020312020302020202020200A2031352031362020312020302020202020200A2020372031352020312020302020202020200A4D202043484720203220203130202020312020313220202D310A4D2020454E44
Contributor: SASAKI S, TOYOHASHI UNIV. OF TECH.
InstType: EI
InstName: MX-1303
IoniMethod: _ENERGY 50 eV
IonPolarity: pos
Date: 2010-10-09 19:48:36+02:00
Num Peaks: 52
39 59 41 59 42 104 43 12 44 15 45 18 51 36 52 2 53 17 55 41 
57 52 60 1 63 63 64 15 65 15 69 1 71 19 73 11 75 12 76 1 
77 87 78 13 81 45 87 2 89 59 90 18 91 11 95 1 103 66 104 16 
110 14 115 1 116 13 129 16 130 86 131 19 132 10 142 10 143 12 144 7 
147 10 158 39 159 469 160 3 174 196 188 23 190 10 201 3 205 480 219 121 
220 999 221 116 
