Name: (3-PHENYLTHIOPROPYL)TRIMETHYLSILANE
MW: 224
Formula: C12H20SSi
Synonym: MassBank: JP004978
Synonym: (3-PHENYLTHIOPROPYL)TRIMETHYLSILANE
Synonym: PHENYL-3-TRIMETHYLSILYLPROPYL SULFIDE
Structure: 28332D5048454E594C5448494F50524F50594C295452494D455448594C53494C414E452E6D6F6C0A20204368656D447261773130323030393233313132440A2031342031342020302020302020302020302020302020302020302020303939392056323030300A2020202D312E3037313120202020302E3236313520202020302E303030302043202020302020302020302020302020302020302020302020302020302020302020302020300A2020202D312E3738353520202020302E3637343020202020302E303030302043202020302020302020302020302020302020302020302020302020302020302020302020300A2020202D322E3530303020202020302E3236313520202020302E303030302043202020302020302020302020302020302020302020302020302020302020302020302020300A2020202D322E353030302020202D302E3536333520202020302E303030302043202020302020302020302020302020302020302020302020302020302020302020302020300A2020202D312E373835352020202D302E3937363020202020302E303030302043202020302020302020302020302020302020302020302020302020302020302020302020300A2020202D312E303731312020202D302E3536333520202020302E303030302043202020302020302020302020302020302020302020302020302020302020302020302020300A2020202D302E333536362020202D302E3937363020202020302E303030302053202020302020302020302020302020302020302020302020302020302020302020302020300A20202020302E333537392020202D302E3536333520202020302E303030302043202020302020302020302020302020302020302020302020302020302020302020302020300A20202020302E3335373920202020302E3236313520202020302E303030302043202020302020302020302020302020302020302020302020302020302020302020302020300A20202020312E3037323420202020302E3637343020202020302E303030302043202020302020302020302020302020302020302020302020302020302020302020302020300A20202020312E3738363820202020302E3236313520202020302E303030302053692020302020302020302020302020302020302020302020302020302020302020302020300A20202020322E3139393320202020302E3937363020202020302E303030302043202020302020302020302020302020302020302020302020302020302020302020302020300A20202020312E333733392020202D302E3435323120202020302E303030302043202020302020302020302020302020302020302020302020302020302020302020302020300A20202020322E353030302020202D302E3135313020202020302E303030302043202020302020302020302020302020302020302020302020302020302020302020302020300A2020312020322020322020302020202020200A2020322020332020312020302020202020200A2020332020342020322020302020202020200A2020342020352020312020302020202020200A2020352020362020322020302020202020200A2020362020312020312020302020202020200A2020362020372020312020302020202020200A2020372020382020312020302020202020200A2020382020392020312020302020202020200A2020392031302020312020302020202020200A2031302031312020312020302020202020200A2031312031322020312020302020202020200A2031312031332020312020302020202020200A2031312031342020312020302020202020200A4D202053545920203120202031205355500A4D2020534C4220203120202031202020310A4D202053414C20202031202031202031320A4D202053424C20202031202031202031320A4D2020534D5420202031204D650A4D2020534256202020312031322020202D362E3232363020202020382E353530330A4D202053545920203120202032205355500A4D2020534C4220203120202032202020320A4D202053414C20202032202031202031330A4D202053424C20202032202031202031330A4D2020534D5420202032204D650A4D2020534256202020322031332020202D372E3035313420202020372E313232320A4D202053545920203120202033205355500A4D2020534C4220203120202033202020330A4D202053414C20202033202031202031340A4D202053424C20202033202031202031340A4D2020534D5420202033204D650A4D2020534256202020332031342020202D352E3932353320202020372E343233330A4D2020454E44
Contributor: MASS SPECTROSCOPY SOC. OF JAPAN (MSSJ)
InstType: EI
InstName: JEOL JMS-D-3000
IoniMethod: _ENERGY 70 eV
IonPolarity: pos
Date: 2010-10-09 19:48:36+02:00
Num Peaks: 27
42 28 43 51 44 33 45 141 51 31 59 80 65 28 72 33 73 999 74 90 
75 53 77 51 91 50 109 37 110 34 118 55 151 59 167 323 168 45 169 30 
181 30 182 59 209 559 210 105 211 56 224 143 225 30 
