Name: CIS-ROSE OXIDE
MW: 154
Formula: C10H18O
Synonym: MassBank: JP008361
Synonym: CIS-ROSE OXIDE
Synonym: 4-METHYL-CIS-2-(2-METHYL-1-PROPENYL)PERHYDROPYRAN
Structure: 4349532D524F5345204F584944452E6D6F6C0A20204368656D447261773034323131303032353032440A2031332031332020302020302020302020302020302020302020302020303939392056323030300A20202020302E333038322020202D302E3135363520202020302E303030302043202020302020302020302020302020302020302020302020302020302020302020302020300A20202020302E333038322020202D302E3938313520202020302E303030302043202020302020302020302020302020302020302020302020302020302020302020302020300A2020202D302E343036332020202D312E3339343020202020302E303030302043202020302020302020302020302020302020302020302020302020302020302020302020300A2020202D312E313230372020202D302E3938313520202020302E303030302043202020302020302020302020302020302020302020302020302020302020302020302020300A2020202D312E313230372020202D302E3135363520202020302E303030302043202020302020302020302020302020302020302020302020302020302020302020302020300A2020202D302E3430363220202020302E3235353320202020302E30303030204F202020302020302020302020302020302020302020302020302020302020302020302020300A20202020302E3539303020202020302E3631383920202020302E303030302043202020302020302020302020302020302020302020302020302020302020302020302020300A20202020302E3035393420202020312E3235303620202020302E303030302043202020302020302020302020302020302020302020302020302020302020302020302020300A20202020302E3334313220202020322E3032363020202020302E303030302043202020302020302020302020302020302020302020302020302020302020302020302020300A2020202D302E3735333020202020312E3130373020202020302E303030302043202020302020302020302020302020302020302020302020302020302020302020302020300A2020202D302E393336362020202D322E3032363020202020302E303030302048202020302020302020302020302020302020302020302020302020302020302020302020300A20202020302E313234302020202D322E3032363020202020302E303030302043202020302020302020302020302020302020302020302020302020302020302020302020300A20202020312E313230372020202D302E3239393620202020302E303030302048202020302020302020302020302020302020302020302020302020302020302020302020300A2020312020322020312020302020202020200A2020322020332020312020302020202020200A2020332020342020312020302020202020200A2020342020352020312020302020202020200A2020352020362020312020302020202020200A2020312020362020312020302020202020200A2020372020382020322020302020202020200A2020382020392020312020302020202020200A2020382031302020312020302020202020200A2020312020372020312020362020202020200A2020332031312020312020312020202020200A2020332031322020312020362020202020200A2020312031332020312020312020202020200A4D2020454E44
Contributor: SODA AROMATIC CO., LTD.
InstType: EI
InstName: HITACHI M-80B
IoniMethod: _ENERGY 70 eV
IonPolarity: pos
Date: 2010-10-09 19:48:36+02:00
Num Peaks: 38
15 10 27 101 29 101 31 14 32 18 39 174 40 22 41 318 42 129 43 65 
51 19 52 12 53 72 54 20 55 269 56 76 57 19 65 18 67 93 68 14 
69 545 70 32 77 16 79 22 81 26 82 35 83 260 84 132 85 145 93 11 
97 32 109 12 112 18 139 999 140 87 153 14 154 139 155 13 
