Name: (-)-MENTHYL ACRYLATE
MW: 210
Formula: C13H22O2
Synonym: MassBank: JP006367
Synonym: (-)-MENTHYL ACRYLATE
Structure: 282D292D4D454E5448594C20414352594C4154452E6D6F6C0A20204368656D447261773130303630393134333332440A2031382031382020302020302020302020302020302020302020302020303939392056323030300A2020202D302E3034333120202020302E3039363520202020302E303030302043202020302020302020302020302020302020302020302020302020302020302020302020300A2020202D302E303433312020202D302E3732383520202020302E303030302043202020302020302020302020302020302020302020302020302020302020302020302020300A20202020302E363731342020202D312E3134313020202020302E303030302043202020302020302020302020302020302020302020302020302020302020302020302020300A20202020312E333835392020202D302E3732383520202020302E303030302043202020302020302020302020302020302020302020302020302020302020302020302020300A20202020312E3338353920202020302E3039363520202020302E303030302043202020302020302020302020302020302020302020302020302020302020302020302020300A20202020302E3637313420202020302E3530393020202020302E303030302043202020302020302020302020302020302020302020302020302020302020302020302020300A2020202D302E3332353320202020302E3837313820202020302E303030302048202020302020302020302020302020302020302020302020302020302020302020302020300A20202020322E313938332020202D302E3034363820202020302E303030302048202020302020302020302020302020302020302020302020302020302020302020302020300A2020202D302E333235332020202D312E3530333720202020302E303030302043202020302020302020302020302020302020302020302020302020302020302020302020300A2020202D302E383535362020202D302E3034363820202020302E30303030204F202020302020302020302020302020302020302020302020302020302020302020302020300A2020202D302E383535362020202D302E3538353220202020302E303030302048202020302020302020302020302020302020302020302020302020302020302020302020300A20202020302E323035302020202D322E3133353720202020302E303030302043202020302020302020302020302020302020302020302020302020302020302020302020300A2020202D312E313337372020202D312E3634373020202020302E303030302043202020302020302020302020302020302020302020302020302020302020302020302020300A2020202D312E3338353920202020302E3538353220202020302E303030302043202020302020302020302020302020302020302020302020302020302020302020302020300A2020202D312E3130333720202020312E3336303520202020302E303030302043202020302020302020302020302020302020302020302020302020302020302020302020300A2020202D322E3139383320202020302E3434323020202020302E30303030204F202020302020302020302020302020302020302020302020302020302020302020302020300A2020202D302E3832313520202020322E3133353720202020302E303030302043202020302020302020302020302020302020302020302020302020302020302020302020300A20202020312E3636363820202020302E3837323420202020302E303030302043202020302020302020302020302020302020302020302020302020302020302020302020300A2020312020322020312020302020202020200A2020322020332020312020302020202020200A2020332020342020312020302020202020200A2020342020352020312020302020202020200A2020352020362020312020302020202020200A2020362020312020312020302020202020200A2020312020372020312020312020202020200A2020352020382020312020312020202020200A2020322020392020312020312020202020200A2020312031302020312020362020202020200A2020322031312020312020362020202020200A2020392031322020312020302020202020200A2020392031332020312020302020202020200A2031302031342020312020302020202020200A2031342031352020312020302020202020200A2031342031362020322020302020202020200A2031352031372020322020302020202020200A2020352031382020312020362020202020200A4D202053545920203120202031205355500A4D2020534C4220203120202031202020310A4D202053414C20202031202031202031380A4D202053424C20202031202031202031380A4D2020534D5420202031204D650A4D2020534256202020312031382020202D372E3039313420202020372E363738360A4D2020454E44
Contributor: HISAHIRO HAGIWARA, CHEMICAL RESEARCH INSTITUTE OF NON-AQUEOUSSOLUTIONS TOHOKU UNIV.
InstType: EI
InstName: JEOL JMS-DX-300
IoniMethod: _ENERGY 70 eV
IonPolarity: pos
Date: 2010-10-09 19:48:36+02:00
Num Peaks: 43
32 198 39 53 40 19 41 215 42 25 43 196 44 14 53 34 54 34 55 898 
56 66 57 103 58 49 65 11 67 171 68 75 69 194 70 37 71 35 73 15 
77 15 79 40 80 84 81 662 82 322 83 131 84 20 93 18 94 116 95 999 
96 278 97 57 98 12 109 100 110 55 111 24 123 389 124 42 125 25 137 38 
138 853 139 99 167 11 
