Name: 3-(2-AMINOETHYL)-2-METHYL-1-PHENYLINDOLE
MW: 250
Formula: C17H18N2
Synonym: MassBank: JP007874
Synonym: 3-(2-AMINOETHYL)-2-METHYL-1-PHENYLINDOLE
Structure: 332D28322D414D494E4F455448594C292D322D4D455448594C2D312D5048454E594C494E444F4C452E6D6F6C0A20204368656D447261773032323231303039343032440A2031392032312020302020302020302020302020302020302020302020303939392056323030300A20202020302E353732392020202D302E3434383420202020302E30303030204E202020302020302020302020302020302020302020302020302020302020302020302020300A2020202D302E303934352020202D302E3933333320202020302E303030302043202020302020302020302020302020302020302020302020302020302020302020302020300A2020202D302E373631392020202D302E3434383420202020302E303030302043202020302020302020302020302020302020302020302020302020302020302020302020300A2020202D302E3530373020202020302E3333363320202020302E303030302043202020302020302020302020302020302020302020302020302020302020302020302020300A2020202D302E3931393520202020312E3035303720202020302E303030302043202020302020302020302020302020302020302020302020302020302020302020302020300A2020202D302E3530373020202020312E3736353220202020302E303030302043202020302020302020302020302020302020302020302020302020302020302020302020300A20202020302E3331383020202020312E3736353220202020302E303030302043202020302020302020302020302020302020302020302020302020302020302020302020300A20202020302E3733303520202020312E3035303720202020302E303030302043202020302020302020302020302020302020302020302020302020302020302020302020300A20202020302E3331383020202020302E3333363320202020302E303030302043202020302020302020302020302020302020302020302020302020302020302020302020300A20202020312E333537362020202D302E3730333320202020302E303030302043202020302020302020302020302020302020302020302020302020302020302020302020300A20202020312E393730372020202D302E3135313320202020302E303030302043202020302020302020302020302020302020302020302020302020302020302020302020300A20202020322E373535332020202D302E3430363220202020302E303030302043202020302020302020302020302020302020302020302020302020302020302020302020300A20202020322E393236382020202D312E3231333220202020302E303030302043202020302020302020302020302020302020302020302020302020302020302020302020300A20202020322E333133372020202D312E3736353220202020302E303030302043202020302020302020302020302020302020302020302020302020302020302020302020300A20202020312E353239312020202D312E3531303320202020302E303030302043202020302020302020302020302020302020302020302020302020302020302020302020300A2020202D302E303934352020202D312E3735383320202020302E303030302043202020302020302020302020302020302020302020302020302020302020302020302020300A2020202D312E353436362020202D302E3730333320202020302E303030302043202020302020302020302020302020302020302020302020302020302020302020302020300A2020202D322E313239392020202D302E3131393920202020302E303030302043202020302020302020302020302020302020302020302020302020302020302020302020300A2020202D322E393236382020202D302E3333333520202020302E30303030204E202020302020302020302020302020302020302020302020302020302020302020302020300A2020312020322020312020302020202020200A2020322020332020322020302020202020200A2020332020342020312020302020202020200A2020342020352020312020302020202020200A2020352020362020322020302020202020200A2020362020372020312020302020202020200A2020372020382020322020302020202020200A2020382020392020312020302020202020200A2020312020392020312020302020202020200A2020342020392020322020302020202020200A2031302031312020312020302020202020200A2031312031322020322020302020202020200A2031322031332020312020302020202020200A2031332031342020322020302020202020200A2031342031352020312020302020202020200A2031302031352020322020302020202020200A2020312031302020312020302020202020200A2020322031362020312020302020202020200A2031372031382020312020302020202020200A2031382031392020312020302020202020200A2020332031372020312020302020202020200A4D2020454E44
Contributor: SASAKI S, TOYOHASHI UNIV. OF TECH.
InstType: EI
InstName: MX-1303
IoniMethod: _ENERGY 50 eV
IonPolarity: pos
Date: 2010-10-09 19:48:36+02:00
Num Peaks: 30
30 15 51 21 77 40 91 1 102 15 103 13 115 34 116 1 128 11 142 12 
143 11 169 1 178 29 203 10 204 99 205 4 206 35 207 12 216 15 217 5 
218 76 219 40 220 999 221 31 222 34 232 11 233 10 248 1 250 130 251 22 
