Name: MassBank: JP004429
MW: 228
Formula: C15H20N2
Synonym: MassBank: JP004429
Synonym: 6-METHYL-3-PROPYL-1,2,3,4-TETRAHYDRO-GAMMA-CARBOLINE
Structure: 362D4D455448594C2D332D50524F50594C2D312C322C332C342D5445545241485944524F2D47414D4D412D434152424F4C494E452E6D6F6C0A20204368656D447261773035313931303131353032440A2031372031392020302020302020302020302020302020302020302020303939392056323030300A2020202D322E3939303220202020302E3438333820202020302E303030302043202020302020302020302020302020302020302020302020302020302020302020302020300A2020202D322E393930322020202D302E3334313220202020302E303030302043202020302020302020302020302020302020302020302020302020302020302020302020300A2020202D322E323735372020202D302E3735333720202020302E303030302043202020302020302020302020302020302020302020302020302020302020302020302020300A2020202D312E353631332020202D302E3334313220202020302E303030302043202020302020302020302020302020302020302020302020302020302020302020302020300A2020202D312E3536313320202020302E3438333820202020302E303030302043202020302020302020302020302020302020302020302020302020302020302020302020300A2020202D322E3237353720202020302E3839363320202020302E303030302043202020302020302020302020302020302020302020302020302020302020302020302020300A2020202D302E373736362020202D302E3539363120202020302E30303030204E202020302020302020302020302020302020302020302020302020302020302020302020300A2020202D302E3239313720202020302E3037313320202020302E303030302043202020302020302020302020302020302020302020302020302020302020302020302020300A2020202D302E3737363620202020302E3733383820202020302E303030302043202020302020302020302020302020302020302020302020302020302020302020302020300A20202020302E3532383820202020302E3135373620202020302E303030302043202020302020302020302020302020302020302020302020302020302020302020302020300A20202020302E3836343320202020302E3931313220202020302E303030302043202020302020302020302020302020302020302020302020302020302020302020302020300A20202020302E3337393420202020312E3537383720202020302E30303030204E202020302020302020302020302020302020302020302020302020302020302020302020300A2020202D302E3434313120202020312E3439323420202020302E303030302043202020302020302020302020302020302020302020302020302020302020302020302020300A20202020312E3638343820202020302E3939373520202020302E303030302043202020302020302020302020302020302020302020302020302020302020302020302020300A20202020322E3136393720202020302E3333303020202020302E303030302043202020302020302020302020302020302020302020302020302020302020302020302020300A20202020322E3939303220202020302E3431363320202020302E303030302043202020302020302020302020302020302020302020302020302020302020302020302020300A2020202D322E323735372020202D312E3537383720202020302E303030302043202020302020302020302020302020302020302020302020302020302020302020302020300A2020312020322020322020302020202020200A2020322020332020312020302020202020200A2020332020342020322020302020202020200A2020342020352020312020302020202020200A2020352020362020322020302020202020200A2020362020312020312020302020202020200A2020342020372020312020302020202020200A2020372020382020312020302020202020200A2020382020392020322020302020202020200A2020392020352020312020302020202020200A2020382031302020312020302020202020200A2031302031312020312020302020202020200A2031312031322020312020302020202020200A2031322031332020312020302020202020200A2031332020392020312020302020202020200A2031312031342020312020302020202020200A2031342031352020312020302020202020200A2031352031362020312020302020202020200A2020332031372020312020302020202020200A4D2020454E44
Contributor: SASAKI S, TOYOHASHI UNIV. OF TECH.
InstType: EI
InstName: JEOL JMS-01-SG-2
IoniMethod: _ENERGY 75 eV
IonPolarity: pos
Date: 2010-10-09 19:48:36+02:00
Num Peaks: 14
42 33 56 12 77 13 102 1 115 14 128 10 156 93 157 999 158 135 170 93 
171 13 199 2 227 109 228 177 
