Name: BUTYRIC ACID
MW: 88
Formula: C4H8O2
Synonym: MassBank: JP009177
Synonym: BUTYRIC ACID
Structure: 310A31360A4255545952494320414349442E6D6F6C0A20204368656D447261773039303631303035303332440A2020362020352020302020302020302020302020302020302020302020303939392056323030300A2020202D302E3731343520202020302E3230363220202020302E303030302043202020302020302020302020302020302020302020302020302020302020302020302020300A20202020302E3030303020202020302E3631383820202020302E303030302043202020302020302020302020302020302020302020302020302020302020302020302020300A20202020302E3731343520202020302E3230363220202020302E303030302043202020302020302020302020302020302020302020302020302020302020302020302020300A20202020312E3432383920202020302E3631383720202020302E303030302043202020302020302020302020302020302020302020302020302020302020302020302020300A2020202D302E373134352020202D302E3631383820202020302E30303030204F202020302020302020302020302020302020302020302020302020302020302020302020300A2020202D312E3432383920202020302E3631383720202020302E30303030204F202020302020302020302020302020302020302020302020302020302020302020302020300A2020312020322020312020302020202020200A2020322020332020312020302020202020200A2020332020342020312020302020202020200A2020312020352020322020302020202020200A2020312020362020312020302020202020200A4D2020454E44
Contributor: SODA AROMATIC CO., LTD.
InstType: EI
InstName: HITACHI M-80B
IoniMethod: _ENERGY 70 eV
IonPolarity: pos
Date: 2010-10-09 19:48:36+02:00
Num Peaks: 24
14 11 15 26 26 40 27 326 28 59 29 142 31 17 37 18 38 30 39 170 
40 22 41 244 42 217 43 165 45 195 55 58 60 999 61 20 69 14 71 22 
73 303 74 12 87 12 88 20 
