Name: ANILERIDINE
MW: 352
Formula: C22H28N2O2
Synonym: MassBank: JP003844
Synonym: ANILERIDINE
Structure: 414E494C45524944494E452E6D6F6C0A20204368656D447261773038313331303132313832440A2032362032382020302020302020302020302020302020302020302020303939392056323030300A2020202D312E303737352020202D302E3432373320202020302E303030302043202020302020302020302020302020302020302020302020302020302020302020302020300A2020202D312E303737352020202D312E3235323320202020302E303030302043202020302020302020302020302020302020302020302020302020302020302020302020300A2020202D302E333633312020202D312E3636343820202020302E303030302043202020302020302020302020302020302020302020302020302020302020302020302020300A20202020302E333531342020202D312E3235323320202020302E303030302043202020302020302020302020302020302020302020302020302020302020302020302020300A20202020302E333531342020202D302E3432373320202020302E303030302043202020302020302020302020302020302020302020302020302020302020302020302020300A2020202D302E333633312020202D302E3031343820202020302E30303030204E202020302020302020302020302020302020302020302020302020302020302020302020300A2020202D302E3336333120202020302E3831303220202020302E303030302043202020302020302020302020302020302020302020302020302020302020302020302020300A2020202D302E373735362020202D322E3337393320202020302E303030302043202020302020302020302020302020302020302020302020302020302020302020302020300A20202020302E323230332020202D322E3234383220202020302E303030302043202020302020302020302020302020302020302020302020302020302020302020302020300A20202020302E303036382020202D332E3034353120202020302E303030302043202020302020302020302020302020302020302020302020302020302020302020302020300A20202020302E353930312020202D332E3632383420202020302E303030302043202020302020302020302020302020302020302020302020302020302020302020302020300A20202020312E333837302020202D332E3431343920202020302E303030302043202020302020302020302020302020302020302020302020302020302020302020302020300A20202020312E363030362020202D322E3631383020202020302E303030302043202020302020302020302020302020302020302020302020302020302020302020302020300A20202020312E303137322020202D322E3033343620202020302E303030302043202020302020302020302020302020302020302020302020302020302020302020302020300A20202020302E3335313420202020312E3232323720202020302E303030302043202020302020302020302020302020302020302020302020302020302020302020302020300A20202020302E3335313420202020322E3034373720202020302E303030302043202020302020302020302020302020302020302020302020302020302020302020302020300A20202020312E3036353920202020322E3436303220202020302E303030302043202020302020302020302020302020302020302020302020302020302020302020302020300A20202020312E3036353920202020332E3238353220202020302E303030302043202020302020302020302020302020302020302020302020302020302020302020302020300A20202020302E3335313420202020332E3639373720202020302E303030302043202020302020302020302020302020302020302020302020302020302020302020302020300A2020202D302E3336333120202020332E3238353220202020302E303030302043202020302020302020302020302020302020302020302020302020302020302020302020300A2020202D302E3336333120202020322E3436303220202020302E303030302043202020302020302020302020302020302020302020302020302020302020302020302020300A20202020302E3335313420202020342E3532323720202020302E30303030204E202020302020302020302020302020302020302020302020302020302020302020302020300A2020202D302E333633312020202D332E3039333820202020302E30303030204F202020302020302020302020302020302020302020302020302020302020302020302020300A2020202D312E363030362020202D322E3337393320202020302E30303030204F202020302020302020302020302020302020302020302020302020302020302020302020300A2020202D302E373735362020202D332E3830383220202020302E303030302043202020302020302020302020302020302020302020302020302020302020302020302020300A2020202D302E333633312020202D342E3532323720202020302E303030302043202020302020302020302020302020302020302020302020302020302020302020302020300A2020312020322020312020302020202020200A2020322020332020312020302020202020200A2020332020342020312020302020202020200A2020342020352020312020302020202020200A2020352020362020312020302020202020200A2020362020312020312020302020202020200A2020362020372020312020302020202020200A2020332020382020312020302020202020200A2020332020392020312020302020202020200A2020392031302020322020302020202020200A2031302031312020312020302020202020200A2031312031322020322020302020202020200A2031322031332020312020302020202020200A2031332031342020322020302020202020200A2031342020392020312020302020202020200A2020372031352020312020302020202020200A2031352031362020312020302020202020200A2031362031372020322020302020202020200A2031372031382020312020302020202020200A2031382031392020322020302020202020200A2031392032302020312020302020202020200A2032302032312020322020302020202020200A2032312031362020312020302020202020200A2031392032322020312020302020202020200A2020382032332020312020302020202020200A2020382032342020322020302020202020200A2032332032352020312020302020202020200A2032352032362020312020302020202020200A4D2020454E44
Contributor: SASAKI S, TOYOHASHI UNIV. OF TECH.
InstType: EI
InstName: Unknown
IoniMethod: _ENERGY 70 eV
IonPolarity: pos
Date: 2010-10-09 19:48:36+02:00
Num Peaks: 149
26 2 27 9 28 12 29 2 30 12 31 11 39 10 40 0 41 18 42 124 
43 15 44 2 45 4 50 2 51 7 52 1 53 11 54 8 55 7 56 2 
57 10 58 4 59 28 60 1 61 1 62 1 63 3 64 0 65 16 66 6 
67 10 68 1 69 17 70 16 71 4 72 0 76 1 77 41 78 14 79 2 
80 9 81 12 83 6 84 0 85 2 86 10 87 1 88 0 89 6 90 4 
91 60 92 0 93 14 94 11 95 3 96 0 97 1 98 1 99 4 100 0 
101 3 102 8 103 52 104 2 105 17 106 65 107 11 111 0 112 14 113 1 
114 1 115 3 116 16 117 25 118 24 119 2 120 88 121 12 126 1 127 1 
128 20 129 26 130 13 131 2 132 9 133 4 134 1 140 0 141 6 142 3 
143 19 144 1 145 12 146 4 147 2 153 0 154 2 155 5 156 4 157 0 
158 21 159 9 160 7 161 0 162 3 170 7 171 11 172 1 173 21 174 24 
175 7 176 0 188 4 189 2 190 36 191 0 192 2 200 6 201 2 202 0 
216 7 217 3 218 72 219 1 220 3 232 8 233 4 234 0 244 10 245 6 
246 999 247 2 248 24 249 4 276 2 277 1 278 8 279 20 280 7 281 0 
307 10 308 4 309 1 350 0 351 6 352 5 353 5 354 0 355 2 
