Name: MassBank: JP006642
MW: 327
Formula: C20H29N3O
Synonym: MassBank: JP006642
Synonym: 2-(3-DIETHYLAMINOPROPIONYL)-5,7-DIMETHYL-1,2,3,4-TETRAHYDROPYRIMIDO(1,6-A)INDOLE
Structure: 322D28332D4449455448594C414D494E4F50524F50494F4E594C292D352C372D44494D455448594C2D312C322C332C342D5445545241485944524F505952494D49444F28312C362D4129494E444F4C452E6D6F6C0A20204368656D447261773132323130393138303332440A2032342032362020302020302020302020302020302020302020302020303939392056323030300A2020202D312E3233343920202020302E3331333520202020302E30303030204E202020302020302020302020302020302020302020302020302020302020302020302020300A2020202D312E323334392020202D302E3531313520202020302E303030302043202020302020302020302020302020302020302020302020302020302020302020302020300A2020202D322E303139352020202D302E3736363420202020302E303030302043202020302020302020302020302020302020302020302020302020302020302020302020300A2020202D322E353034342020202D302E3039393020202020302E303030302043202020302020302020302020302020302020302020302020302020302020302020302020300A2020202D332E333234392020202D302E3031323720202020302E303030302043202020302020302020302020302020302020302020302020302020302020302020302020300A2020202D332E3636303420202020302E3734303920202020302E303030302043202020302020302020302020302020302020302020302020302020302020302020302020300A2020202D332E3137353520202020312E3430383420202020302E303030302043202020302020302020302020302020302020302020302020302020302020302020302020300A2020202D322E3335353020202020312E3332323120202020302E303030302043202020302020302020302020302020302020302020302020302020302020302020302020300A2020202D322E3031393520202020302E3536383520202020302E303030302043202020302020302020302020302020302020302020302020302020302020302020302020300A2020202D302E3532303420202020302E3732363020202020302E303030302043202020302020302020302020302020302020302020302020302020302020302020302020300A20202020302E3139343120202020302E3331333520202020302E30303030204E202020302020302020302020302020302020302020302020302020302020302020302020300A20202020302E313934312020202D302E3531313520202020302E303030302043202020302020302020302020302020302020302020302020302020302020302020302020300A2020202D302E353230342020202D302E3932343020202020302E303030302043202020302020302020302020302020302020302020302020302020302020302020302020300A2020202D342E3438303920202020302E3832373220202020302E303030302043202020302020302020302020302020302020302020302020302020302020302020302020300A2020202D322E323734342020202D312E3535313020202020302E303030302043202020302020302020302020302020302020302020302020302020302020302020302020300A20202020302E3930383620202020302E3732363020202020302E303030302043202020302020302020302020302020302020302020302020302020302020302020302020300A20202020302E3930383620202020312E3535313020202020302E30303030204F202020302020302020302020302020302020302020302020302020302020302020302020300A20202020312E3632333020202020302E3331333520202020302E303030302043202020302020302020302020302020302020302020302020302020302020302020302020300A20202020322E3333373520202020302E3732363020202020302E303030302043202020302020302020302020302020302020302020302020302020302020302020302020300A20202020332E3035323020202020302E3331333520202020302E30303030204E202020302020302020302020302020302020302020302020302020302020302020302020300A20202020332E303532302020202D302E3531313520202020302E303030302043202020302020302020302020302020302020302020302020302020302020302020302020300A20202020322E333337352020202D302E3932343020202020302E303030302043202020302020302020302020302020302020302020302020302020302020302020302020300A20202020332E3736363420202020302E3732363020202020302E303030302043202020302020302020302020302020302020302020302020302020302020302020302020300A20202020342E3438303920202020302E3331333520202020302E303030302043202020302020302020302020302020302020302020302020302020302020302020302020300A2020312020322020312020302020202020200A2020322020332020322020302020202020200A2020332020342020312020302020202020200A2020342020352020312020302020202020200A2020352020362020322020302020202020200A2020362020372020312020302020202020200A2020372020382020322020302020202020200A2020382020392020312020302020202020200A2020312020392020312020302020202020200A2020342020392020322020302020202020200A2031302031312020312020302020202020200A2031312031322020312020302020202020200A2031322031332020312020302020202020200A2020312031302020312020302020202020200A2020322031332020312020302020202020200A2020362031342020312020302020202020200A2020332031352020312020302020202020200A2031362031372020322020302020202020200A2031362031382020312020302020202020200A2031382031392020312020302020202020200A2032312032322020312020302020202020200A2032302032312020312020302020202020200A2032332032342020312020302020202020200A2032302032332020312020302020202020200A2031392032302020312020302020202020200A2031312031362020312020302020202020200A4D2020454E44
Contributor: SASAKI S, TOYOHASHI UNIV. OF TECH.
InstType: EI
InstName: JEOL JMS-01-SG-2
IoniMethod: _ENERGY 75 eV
IonPolarity: pos
Date: 2010-10-09 19:48:36+02:00
Num Peaks: 26
58 214 72 34 86 999 87 6 101 75 115 18 126 20 127 3 128 30 143 23 
144 15 155 2 156 141 157 62 158 111 170 6 171 327 172 83 198 48 199 71 
200 100 212 20 241 77 312 2 326 13 327 510 
