Name: N-METHYLACETAMIDE
CAS: 79-16-3
MW: 73
Formula: C3H7NO
Synonym: MassBank: JP009522
Synonym: N-METHYLACETAMIDE
Structure: 310A31340A4E2D4D455448594C41434554414D4944452E6D6F6C0A20204368656D447261773038313231303032313432440A2020352020342020302020302020302020302020302020302020302020303939392056323030300A20202020302E333537322020202D302E3230363220202020302E303030302043202020302020302020302020302020302020302020302020302020302020302020302020300A20202020312E303731372020202D302E3631383820202020302E303030302043202020302020302020302020302020302020302020302020302020302020302020302020300A20202020302E3335373220202020302E3631383820202020302E30303030204F202020302020302020302020302020302020302020302020302020302020302020302020300A2020202D302E333537322020202D302E3631383820202020302E30303030204E202020302020302020302020302020302020302020302020302020302020302020302020300A2020202D312E303731372020202D302E3230363220202020302E303030302043202020302020302020302020302020302020302020302020302020302020302020302020300A2020312020322020312020302020202020200A2020312020332020322020302020202020200A2020312020342020312020302020202020200A2020342020352020312020302020202020200A4D2020454E44
Contributor: NARA WOMEN'S UNIVERSITY
InstType: EI
InstName: HITACHI M-80
IoniMethod: _ENERGY 70 eV
IonPolarity: pos
Date: 2010-10-09 19:48:36+02:00
Num Peaks: 26
12 18 13 98 15 289 16 13 25 29 26 71 27 478 28 108 30 383 31 84 
32 23 38 13 39 22 40 32 41 60 42 165 43 999 44 51 45 47 54 12 
55 14 56 14 58 423 59 10 73 385 74 53 
