Name: (16R)-ENT-KAURAN-15-ONE
MW: 288
Formula: C20H32O
Synonym: MassBank: JP006329
Synonym: (16R)-ENT-KAURAN-15-ONE
Structure: 28313652292D454E542D4B415552414E2D31352D4F4E452E6D6F6C0A20204368656D447261773130303630393135353932440A2032352032382020302020302020302020302020302020302020302020303939392056323030300A2020202D312E383239322020202D302E3230343820202020302E303030302043202020302020302020302020302020302020302020302020302020302020302020302020300A2020202D312E383239322020202D312E3032393820202020302E303030302043202020302020302020302020302020302020302020302020302020302020302020302020300A2020202D312E313134382020202D312E3434323320202020302E303030302043202020302020302020302020302020302020302020302020302020302020302020302020300A2020202D302E343030322020202D312E3032393820202020302E303030302043202020302020302020302020302020302020302020302020302020302020302020302020300A2020202D302E343030322020202D302E3230343820202020302E303030302043202020302020302020302020302020302020302020302020302020302020302020302020300A2020202D312E3131343820202020302E3230373720202020302E303030302043202020302020302020302020302020302020302020302020302020302020302020302020300A20202020302E333134332020202D312E3434323320202020302E303030302043202020302020302020302020302020302020302020302020302020302020302020302020300A20202020312E303238382020202D312E3032393820202020302E303030302043202020302020302020302020302020302020302020302020302020302020302020302020300A20202020312E303238382020202D302E3230343820202020302E303030302043202020302020302020302020302020302020302020302020302020302020302020302020300A20202020302E3331343320202020302E3230373720202020302E303030302043202020302020302020302020302020302020302020302020302020302020302020302020300A20202020312E3734333320202020302E3230373720202020302E303030302043202020302020302020302020302020302020302020302020302020302020302020302020300A20202020312E3734333320202020312E3033323820202020302E303030302043202020302020302020302020302020302020302020302020302020302020302020302020300A20202020312E3032383820202020312E3434353420202020302E303030302043202020302020302020302020302020302020302020302020302020302020302020302020300A20202020302E3331343320202020312E3033323820202020302E303030302043202020302020302020302020302020302020302020302020302020302020302020302020300A2020202D302E3339343920202020302E3631393820202020302E303030302048202020302020302020302020302020302020302020302020302020302020302020302020300A2020202D322E353339382020202D312E3434353420202020302E303030302048202020302020302020302020302020302020302020302020302020302020302020302020300A2020202D302E383132372020202D302E3331353420202020302E303030302043202020302020302020302020302020302020302020302020302020302020302020302020300A2020202D312E343136382020202D302E3331353420202020302E303030302043202020302020302020302020302020302020302020302020302020302020302020302020300A2020202D312E3832363220202020302E3339343020202020302E303030302048202020302020302020302020302020302020302020302020302020302020302020302020300A2020202D302E3830373020202020302E3530363820202020302E30303030204F202020302020302020302020302020302020302020302020302020302020302020302020300A20202020312E363136352020202D302E3739303620202020302E303030302048202020302020302020302020302020302020302020302020302020302020302020302020300A20202020322E333235332020202D302E3337343620202020302E303030302043202020302020302020302020302020302020302020302020302020302020302020302020300A2020202D312E323034372020202D312E3131313220202020302E303030302043202020302020302020302020302020302020302020302020302020302020302020302020300A20202020322E3533393820202020302E3432313520202020302E303030302043202020302020302020302020302020302020302020302020302020302020302020302020300A2020202D302E3130303220202020302E3932333420202020302E303030302043202020302020302020302020302020302020302020302020302020302020302020302020300A2020312020322020312020302020202020200A2020322020332020312020302020202020200A2020332020342020312020302020202020200A2020342020352020312020302020202020200A2020352020362020312020302020202020200A2020362020312020312020302020202020200A2020342020372020312020302020202020200A2020372020382020312020302020202020200A2020382020392020312020302020202020200A2020392031302020312020302020202020200A2031302020352020312020302020202020200A2020392031312020312020302020202020200A2031312031322020312020302020202020200A2031322031332020312020302020202020200A2031332031342020312020302020202020200A2031342031302020312020302020202020200A2020322031362020312020362020202020200A2020342031372020312020312020202020200A2020322031382020312020312020202020200A2031382031372020312020302020202020200A2031382031392020312020312020202020200A2031372032302020322020302020202020200A2020352031352020312020312020202020200A2020392032312020312020312020202020200A2031312032322020312020362020202020200A2031382032332020312020302020202020200A2031312032342020312020312020202020200A2031302032352020312020362020202020200A4D202053545920203120202031205355500A4D2020534C4220203120202031202020310A4D202053414C20202031202031202032320A4D202053424C20202031202031202032350A4D2020534D5420202031204D650A4D2020534256202020312032352020202D362E3730313220202020372E323137350A4D202053545920203120202032205355500A4D2020534C4220203120202032202020320A4D202053414C20202032202031202032330A4D202053424C20202032202031202032360A4D2020534D5420202032204D650A4D2020534256202020322032362020202D372E3037313120202020372E303033390A4D202053545920203120202033205355500A4D2020534C4220203120202033202020330A4D202053414C20202033202031202032340A4D202053424C20202033202031202032370A4D2020534D5420202033204D650A4D2020534256202020332032372020202D362E3438363720202020382E303133360A4D202053545920203120202034205355500A4D2020534C4220203120202034202020340A4D202053414C20202034202031202032350A4D202053424C20202034202031202032380A4D2020534D5420202034204D650A4D2020534256202020342032382020202D372E3639373720202020382E353135350A4D2020454E44
Contributor: EGUCHI S, FAC. OF SCIENCE, HIROSHIMA UNIV.
InstType: EI
InstName: HITACHI RMU-7L
IoniMethod: _ENERGY 15 eV
IonPolarity: pos
Date: 2010-10-09 19:48:36+02:00
Num Peaks: 72
79 35 80 10 81 10 91 18 92 57 93 50 94 129 95 3 96 10 97 25 
105 30 106 9 107 93 108 43 109 121 110 3 111 25 120 39 121 36 122 5 
123 300 124 86 125 61 126 1 135 54 136 164 137 243 138 14 139 25 146 7 
147 36 148 1 149 79 150 100 151 75 152 3 153 11 159 14 160 11 161 3 
162 14 163 39 164 64 165 2 166 5 167 11 213 43 214 1 215 200 216 39 
217 18 218 1 228 18 229 20 230 999 231 18 232 61 233 11 245 91 246 2 
255 34 256 7 260 14 261 1 270 29 271 11 274 157 275 4 276 4 288 379 
289 86 290 14 
