Name: 3-AMINO-1-PROPENE
MW: 57
Formula: C3H7N
Synonym: MassBank: JP009381
Synonym: 3-AMINO-1-PROPENE
Synonym: ALLYLAMINE
Structure: 310A31320A332D414D494E4F2D312D50524F50454E452E6D6F6C0A20204368656D447261773032323231303133343432440A2020342020332020302020302020302020302020302020302020302020303939392056323030300A20202020312E303731372020202D302E3230363220202020302E303030302043202020302020302020302020302020302020302020302020302020302020302020302020300A20202020302E3335373220202020302E3230363220202020302E303030302043202020302020302020302020302020302020302020302020302020302020302020302020300A2020202D302E333537322020202D302E3230363220202020302E303030302043202020302020302020302020302020302020302020302020302020302020302020302020300A2020202D312E3037313720202020302E3230363220202020302E30303030204E202020302020302020302020302020302020302020302020302020302020302020302020300A2020312020322020322020302020202020200A2020322020332020312020302020202020200A2020332020342020312020302020202020200A4D2020454E44
Contributor: GUNMA COLLEGE OF TECHNOLOGY
InstType: EI
InstName: HITACHI RMU-7M
IoniMethod: _ENERGY 70 eV
IonPolarity: pos
Date: 2010-10-09 19:48:36+02:00
Num Peaks: 23
14 42 15 27 25 23 26 104 26.5 17 27 151 28 626 29 189 30 999 31 24 
37 30 38 53 39 211 40 31 41 97 42 34 51 24 52 47 54 68 55 27 
56 983 57 388 58 15 
