Name: M-BROMOACETOPHENONE
MW: 197
Formula: C8H7BrO
Synonym: MassBank: JP006756
Synonym: M-BROMOACETOPHENONE
Structure: 4D2D42524F4D4F414345544F5048454E4F4E452E6D6F6C0A20204368656D447261773038313131303232323432440A2031302031302020302020302020302020302020302020302020302020303939392056323030300A2020202D312E303331322020202D302E3335373220202020302E303030302043202020302020302020302020302020302020302020302020302020302020302020302020300A2020202D312E3434333820202020302E3335373220202020302E303030302043202020302020302020302020302020302020302020302020302020302020302020302020300A2020202D312E343433382020202D312E3037313720202020302E30303030204F202020302020302020302020302020302020302020302020302020302020302020302020300A2020202D302E323036322020202D302E3335373220202020302E303030302043202020302020302020302020302020302020302020302020302020302020302020302020300A20202020302E3230363320202020302E3335373220202020302E303030302043202020302020302020302020302020302020302020302020302020302020302020302020300A20202020312E3033313220202020302E3335373220202020302E303030302043202020302020302020302020302020302020302020302020302020302020302020302020300A20202020312E343433382020202D302E3335373220202020302E303030302043202020302020302020302020302020302020302020302020302020302020302020302020300A20202020312E303331332020202D312E3037313720202020302E303030302043202020302020302020302020302020302020302020302020302020302020302020302020300A20202020302E323036332020202D312E3037313720202020302E303030302043202020302020302020302020302020302020302020302020302020302020302020302020300A20202020312E3434333820202020312E3037313720202020302E303030302042722020302020302020302020302020302020302020302020302020302020302020302020300A2020312020322020312020302020202020200A2020342020352020312020302020202020200A2020352020362020322020302020202020200A2020362020372020312020302020202020200A2020372020382020322020302020202020200A2020382020392020312020302020202020200A2020342020392020322020302020202020200A2020312020332020322020302020202020200A2020312020342020312020302020202020200A2020362031302020312020302020202020200A4D2020454E44
Contributor: MASS SPECTROSCOPY SOC. OF JAPAN (MSSJ)
InstType: EI
InstName: HITACHI RMS-4
IoniMethod: _ENERGY 70 eV
IonPolarity: pos
Date: 2010-10-09 19:48:36+02:00
Num Peaks: 56
39 90 40 10 41 10 42 5 43 999 44 20 45 10 48 1 49 50 50 920 
51 210 52 2 53 20 60 10 61 40 62 6 63 90 64 30 65 30 73 5 
74 390 75 560 76 680 77 8 78 10 79 20 80 10 81 2 82 10 84 10 
85 10 86 2 87 20 88 10 89 50 90 3 91 30 101 10 102 10 103 1 
104 50 105 10 106 10 107 1 155 120 156 20 157 110 158 2 183 130 184 20 
185 130 186 2 198 50 199 10 200 50 201 10 
