Name: MassBank: JP006669
MW: 326
Formula: C16H22O7
Synonym: MassBank: JP006669
Synonym: (2R,4R)-4-ACETOXY-5-METHOXY-2,4-DIMETHYL-2-((2R)-2-METHYLBUTYRYLOXY)-5-CYCLOHEXEN-1,3-DIONE
Structure: 2832522C3452292D342D414345544F58592D352D4D4554484F58592D322C342D44494D455448594C2D322D28283252292D322D4D455448594C4255545952594C4F5859292D352D4359434C4F484558454E2D312C332D44494F4E452E6D6F6C0A20204368656D447261773130323030393133353732440A2032362032362020302020302020302020302020302020302020302020303939392056323030300A2020202D312E3338333820202020302E3132373620202020302E303030302043202020302020302020302020302020302020302020302020302020302020302020302020300A2020202D312E333833382020202D302E3639373420202020302E303030302043202020302020302020302020302020302020302020302020302020302020302020302020300A2020202D302E363639332020202D312E3130393920202020302E303030302043202020302020302020302020302020302020302020302020302020302020302020302020300A20202020302E303435322020202D302E3639373420202020302E303030302043202020302020302020302020302020302020302020302020302020302020302020302020300A20202020302E3034353220202020302E3132373620202020302E303030302043202020302020302020302020302020302020302020302020302020302020302020302020300A2020202D302E3636393320202020302E3534303120202020302E303030302043202020302020302020302020302020302020302020302020302020302020302020302020300A20202020302E373539372020202D312E3130393920202020302E30303030204F202020302020302020302020302020302020302020302020302020302020302020302020300A2020202D322E303938322020202D312E3130393920202020302E30303030204F202020302020302020302020302020302020302020302020302020302020302020302020300A2020202D302E363639332020202D312E3933343920202020302E303030302048202020302020302020302020302020302020302020302020302020302020302020302020300A2020202D322E3230383820202020302E3132373620202020302E30303030204F202020302020302020302020302020302020302020302020302020302020302020302020300A2020202D302E3636393320202020312E3336353120202020302E30303030204F202020302020302020302020302020302020302020302020302020302020302020302020300A20202020302E3235383720202020302E3932343520202020302E30303030204F202020302020302020302020302020302020302020302020302020302020302020302020300A20202020312E3035353620202020312E3133383020202020302E303030302043202020302020302020302020302020302020302020302020302020302020302020302020300A20202020312E3633393020202020302E3535343620202020302E303030302043202020302020302020302020302020302020302020302020302020302020302020302020300A20202020312E3236393120202020312E3933343920202020302E30303030204F202020302020302020302020302020302020302020302020302020302020302020302020300A20202020322E3433353820202020302E3736383220202020302E303030302043202020302020302020302020302020302020302020302020302020302020302020302020300A20202020332E3233323720202020302E3938313720202020302E303030302043202020302020302020302020302020302020302020302020302020302020302020302020300A20202020332E3434363320202020312E3737383620202020302E303030302043202020302020302020302020302020302020302020302020302020302020302020302020300A20202020322E3232323320202020312E3536353120202020302E303030302043202020302020302020302020302020302020302020302020302020302020302020302020300A20202020322E363439342020202D302E3032383720202020302E303030302048202020302020302020302020302020302020302020302020302020302020302020302020300A2020202D322E3632313320202020302E3834323120202020302E303030302043202020302020302020302020302020302020302020302020302020302020302020302020300A2020202D322E3230383820202020312E3535363520202020302E303030302043202020302020302020302020302020302020302020302020302020302020302020302020300A2020202D332E3434363320202020302E3834323120202020302E30303030204F202020302020302020302020302020302020302020302020302020302020302020302020300A2020202D322E303938322020202D312E3933343920202020302E303030302043202020302020302020302020302020302020302020302020302020302020302020302020300A20202020302E3836393320202020302E3132373620202020302E303030302043202020302020302020302020302020302020302020302020302020302020302020302020300A2020202D312E3539373420202020302E3932353120202020302E303030302043202020302020302020302020302020302020302020302020302020302020302020302020300A2020312020322020312020302020202020200A2020322020332020322020302020202020200A2020332020342020312020302020202020200A2020342020352020312020302020202020200A2020352020362020312020302020202020200A2020362020312020312020302020202020200A2020342020372020322020302020202020200A2020322020382020312020302020202020200A2020332020392020312020302020202020200A2020312031302020312020312020202020200A2020362031312020322020302020202020200A2020352031322020312020362020202020200A2031322031332020312020302020202020200A2031332031342020312020302020202020200A2031332031352020322020302020202020200A2031342031362020312020302020202020200A2031362031372020312020302020202020200A2031372031382020312020302020202020200A2031362031392020312020312020202020200A2031362032302020312020312020202020200A2031302032312020312020302020202020200A2032312032322020312020302020202020200A2032312032332020322020302020202020200A2020382032342020312020302020202020200A2020352032352020312020312020202020200A2020312032362020312020362020202020200A4D202053545920203120202031205355500A4D2020534C4220203120202031202020310A4D202053414C20202031202031202032350A4D202053424C20202031202031202032350A4D2020534D5420202031204D650A4D2020534256202020312032352020202D352E3134353820202020362E383932360A4D202053545920203120202032205355500A4D2020534C4220203120202032202020320A4D202053414C20202032202031202032360A4D202053424C20202032202031202032360A4D2020534D5420202032204D650A4D2020534256202020322032362020202D362E3138333620202020372E363930310A4D2020454E44
Contributor: MASS SPECTROSCOPY SOC. OF JAPAN (MSSJ)
InstType: EI
InstName: JEOL JMS-D-300
IoniMethod: _ENERGY 70 eV
IonPolarity: pos
Date: 2010-10-09 19:48:36+02:00
Num Peaks: 37
53 30 55 60 56 30 57 999 58 50 69 50 70 60 83 1 85 240 95 10 
97 10 111 0 127 50 128 140 129 70 139 9 140 180 141 60 154 30 155 1 
157 340 158 20 160 30 172 0 176 50 182 460 183 490 184 1 188 20 199 100 
200 10 237 0 239 10 241 30 242 10 267 0 283 10 
