Name: PHTHALIC ACID DIMETHYL ESTER (D6)
MW: 194
Formula: C10H10O4
Synonym: MassBank: JP001323
Synonym: PHTHALIC ACID DIMETHYL ESTER (D6)
Synonym: DI(2H3)METHYL PHTHALATE
Structure: 303735385F50485448414C494320414349442044494D455448594C20455354455220284436292E6D6F6C0A20204368656D447261773038323031303130313132440A2032302032302020302020302020302020302020302020302020302020303939392056323030300A2020202D302E343132352020202D312E3037313420202020302E303030302043202020302020302020302020302020302020302020302020302020302020302020302020300A20202020302E343132352020202D312E3037313420202020302E303030302043202020302020302020302020302020302020302020302020302020302020302020302020300A20202020302E383235302020202D302E3335373020202020302E303030302043202020302020302020302020302020302020302020302020302020302020302020302020300A20202020302E3431323520202020302E3335373520202020302E303030302043202020302020302020302020302020302020302020302020302020302020302020302020300A20202020312E363439392020202D302E3335373020202020302E303030302043202020302020302020302020302020302020302020302020302020302020302020302020300A20202020322E303632342020202D312E3037313420202020302E303030302043202020302020302020302020302020302020302020302020302020302020302020302020300A20202020312E363439392020202D312E3738353820202020302E303030302043202020302020302020302020302020302020302020302020302020302020302020302020300A20202020302E383235302020202D312E3738353820202020302E303030302043202020302020302020302020302020302020302020302020302020302020302020302020300A2020202D302E383234332020202D302E3335373520202020302E30303030204F202020302020302020302020302020302020302020302020302020302020302020302020300A2020202D302E383234332020202D312E3738363920202020302E30303030204F202020302020302020302020302020302020302020302020302020302020302020302020300A2020202D302E3431323520202020302E3335363520202020302E30303030204F202020302020302020302020302020302020302020302020302020302020302020302020300A20202020302E3832353720202020312E3037323020202020302E30303030204F202020302020302020302020302020302020302020302020302020302020302020302020300A2020202D312E363439392020202D312E3738353820202020302E303030302043202020302020302020302020302020302020302020302020302020302020302020302020300A2020202D322E303632342020202D322E3530303920202020302E303030302048202020312020302020302020302020302020302020302020302020302020302020302020300A2020202D322E303632342020202D312E3037313420202020302E303030302048202020312020302020302020302020302020302020302020302020302020302020302020300A2020202D312E323336352020202D312E3037313820202020302E303030302048202020312020302020302020302020302020302020302020302020302020302020302020300A20202020302E3431333220202020312E3738363420202020302E303030302043202020302020302020302020302020302020302020302020302020302020302020302020300A2020202D302E3330313320202020312E3337333920202020302E303030302048202020312020302020302020302020302020302020302020302020302020302020302020300A20202020302E3030303720202020322E3530303920202020302E303030302048202020312020302020302020302020302020302020302020302020302020302020302020300A20202020312E3132373620202020322E3139383920202020302E303030302048202020312020302020302020302020302020302020302020302020302020302020302020300A2020312020322020312020302020202020200A2020322020332020312020302020202020200A2020332020342020312020302020202020200A2020332020352020322020302020202020200A2020352020362020312020302020202020200A2020362020372020322020302020202020200A2020372020382020312020302020202020200A2020322020382020322020302020202020200A2020312020392020322020302020202020200A2020312031302020312020302020202020200A2020342031312020322020302020202020200A2020342031322020312020302020202020200A2031302031332020312020302020202020200A2031322031372020312020302020202020200A2031332031342020312020302020202020200A2031332031352020312020302020202020200A2031332031362020312020302020202020200A2031372031382020312020302020202020200A2031372031392020312020302020202020200A2031372032302020312020302020202020200A4D202049534F2020362020313420202032202031352020203220203136202020322020313820202032202031392020203220203230202020320A4D2020454E44
Contributor: TAJIMA S, GUNMA COLLEGE OF TECHNOLOGY
InstType: EI
InstName: HITACHI RMU-7M
IoniMethod: _ENERGY 70 eV
IonPolarity: pos
Date: 2010-10-09 19:48:36+02:00
Num Peaks: 24
18 44 28 25 31 16 32 13 50 61 52 12 64 17 74 16 75 17 76 63 
77 11 78 181 79 14 82 14 92 71 104 25 106 14 120 11 134 39 138 77 
165 11 166 999 167 94 200 68 
