Name: L-PROLINE
CAS: 147-85-3
MW: 115
Formula: C5H9NO2
Synonym: MassBank: JP009492
Synonym: L-PROLINE
Synonym: (S)-(-)-PROLINE
Structure: 310A32390A2853292D282D292D50524F4C494E452E6D6F6C0A20204368656D447261773130323230393138303332440A2020392020392020302020302020302020302020302020302020302020303939392056323030300A2020202D302E313230382020202D302E3537313520202020302E303030302043202020302020302020302020302020302020302020302020302020302020302020302020300A20202020302E373034322020202D302E3537313520202020302E303030302043202020302020302020302020302020302020302020302020302020302020302020302020300A20202020302E3935393120202020302E3231333120202020302E303030302043202020302020302020302020302020302020302020302020302020302020302020302020300A20202020302E3239313720202020302E3639383020202020302E30303030204E202020302020302020302020302020302020302020302020302020302020302020302020300A2020202D302E3337353720202020302E3231333120202020302E303030302043202020302020302020302020302020302020302020302020302020302020302020302020300A2020202D302E3935393120202020302E3739363420202020302E303030302048202020302020302020302020302020302020302020302020302020302020302020302020300A2020202D302E393539312020202D302E3231333120202020302E303030302043202020302020302020302020302020302020302020302020302020302020302020302020300A2020202D302E3734353620202020302E3538333820202020302E30303030204F202020302020302020302020302020302020302020302020302020302020302020302020300A2020202D302E333735382020202D302E3739363420202020302E30303030204F202020302020302020302020302020302020302020302020302020302020302020302020300A2020312020322020312020302020202020200A2020322020332020312020302020202020200A2020332020342020312020302020202020200A2020342020352020312020302020202020200A2020352020312020312020302020202020200A2020352020362020312020362020202020200A2020352020372020312020312020202020200A2020372020382020322020302020202020200A2020372020392020312020302020202020200A4D202053545920203120202031205355500A4D2020534C4220203120202031202020310A4D202053414C202020312020332020203720202038202020390A4D202053424C20202031202031202020370A4D2020534D542020203120434F4F480A4D2020534256202020312020372020202D362E3734373320202020362E363534320A4D2020454E44
Contributor: NARA WOMEN'S UNIVERSITY
InstType: EI
InstName: HITACHI M-80
IoniMethod: _ENERGY 70 eV
IonPolarity: pos
Date: 2010-10-09 19:48:36+02:00
Num Peaks: 27
14 12 15 50 17 10 18 33 26 32 27 119 28 437 29 42 30 55 37 13 
38 29 39 151 40 46 41 319 42 101 43 265 44 26 45 184 53 12 54 11 
67 13 68 138 69 52 70 999 71 51 115 10 116 9 
