Name: META-METHYLPHENETOLE
MW: 136
Formula: C9H12O
Synonym: MassBank: JP004024
Synonym: META-METHYLPHENETOLE
Structure: 4D4554412D4D455448594C5048454E45544F4C452E6D6F6C0A20204368656D447261773038313131303232343932440A2031302031302020302020302020302020302020302020302020302020303939392056323030300A20202020322E313433342020202D302E3832353020202020302E303030302043202020302020302020302020302020302020302020302020302020302020302020302020300A20202020312E343238392020202D302E3431323520202020302E303030302043202020302020302020302020302020302020302020302020302020302020302020302020300A20202020302E373134352020202D302E3832353020202020302E30303030204F202020302020302020302020302020302020302020302020302020302020302020302020300A2020202D302E303030302020202D302E3431323520202020302E303030302043202020302020302020302020302020302020302020302020302020302020302020302020300A2020202D302E373134352020202D302E3832353020202020302E303030302043202020302020302020302020302020302020302020302020302020302020302020302020300A2020202D312E343238392020202D302E3431323520202020302E303030302043202020302020302020302020302020302020302020302020302020302020302020302020300A2020202D312E3432383920202020302E3431323520202020302E303030302043202020302020302020302020302020302020302020302020302020302020302020302020300A2020202D302E3731343520202020302E3832353020202020302E303030302043202020302020302020302020302020302020302020302020302020302020302020302020300A20202020302E3030303020202020302E3431323520202020302E303030302043202020302020302020302020302020302020302020302020302020302020302020302020300A2020202D322E313433342020202D302E3832353020202020302E303030302043202020302020302020302020302020302020302020302020302020302020302020302020300A2020312020322020312020302020202020200A2020322020332020312020302020202020200A2020332020342020312020302020202020200A2020342020352020312020302020202020200A2020352020362020322020302020202020200A2020362020372020312020302020202020200A2020372020382020322020302020202020200A2020382020392020312020302020202020200A2020342020392020322020302020202020200A2020362031302020312020302020202020200A4D2020454E44
Contributor: MASS SPECTROSCOPY SOC. OF JAPAN (MSSJ)
InstType: EI
InstName: HITACHI RMU-6L
IoniMethod: _ENERGY 70 eV
IonPolarity: pos
Date: 2010-10-09 19:48:36+02:00
Num Peaks: 47
26 63 27 331 28 82 29 29 31 95 37 12 38 43 39 20 40 21 41 43 
43 32 45 4 50 23 51 15 52 72 55 1 59 32 62 26 63 70 64 2 
65 103 66 11 74 10 75 1 76 10 77 152 78 102 79 19 80 102 81 11 
87 11 89 4 90 93 91 132 92 11 93 1 99 14 105 14 106 51 107 57 
108 999 109 69 111 9 121 1 125 16 136 505 137 16 
