Name: BENZYLAMINE
MW: 107
Formula: C7H9N
Synonym: MassBank: JP001514
Synonym: BENZYLAMINE
Structure: 310A32310A42454E5A594C414D494E452E6D6F6C0A20204368656D447261773039303531303131333232440A2020382020382020302020302020302020302020302020302020302020303939392056323030300A2020202D312E3434333820202020302E3731343520202020302E30303030204E202020302020302020302020302020302020302020302020302020302020302020302020300A2020202D312E303331332020202D302E3030303020202020302E303030302043202020302020302020302020302020302020302020302020302020302020302020302020300A2020202D302E323036322020202D302E3030303020202020302E303030302043202020302020302020302020302020302020302020302020302020302020302020302020300A20202020302E3230363320202020302E3731343520202020302E303030302043202020302020302020302020302020302020302020302020302020302020302020302020300A20202020312E3033313320202020302E3731343520202020302E303030302043202020302020302020302020302020302020302020302020302020302020302020302020300A20202020312E343433382020202D302E3030303020202020302E303030302043202020302020302020302020302020302020302020302020302020302020302020302020300A20202020312E303331332020202D302E3731343520202020302E303030302043202020302020302020302020302020302020302020302020302020302020302020302020300A20202020302E323036322020202D302E3731343520202020302E303030302043202020302020302020302020302020302020302020302020302020302020302020302020300A2020322020332020312020302020202020200A2020332020342020312020302020202020200A2020342020352020322020302020202020200A2020352020362020312020302020202020200A2020362020372020322020302020202020200A2020372020382020312020302020202020200A2020332020382020322020302020202020200A2020312020322020312020302020202020200A4D2020454E44
Contributor: YAMAMOTO M, DEP. CHEMISTRY, FAC. SCIENCE, NARA WOMEN'S UNIV.
InstType: EI
InstName: HITACHI RMU-6M
IoniMethod: _ENERGY 70 eV
IonPolarity: pos
Date: 2010-10-09 19:48:36+02:00
Num Peaks: 38
26 10 27 41 28 292 29 65 30 396 37 14 38 27 39 95 40 10 41 17 
49 11 50 93 51 183 52 68 52.5 34 53 49 53.5 18 54 14 61 10 62 21 
63 49 64 15 65 63 74 25 75 18 76 23 77 239 78 157 79 435 89 41 
90 24 91 152 92 16 104 49 105 21 106 999 107 698 108 57 
