Name: MassBank: JP005147
MW: 247
Formula: C14H17NOS
Synonym: MassBank: JP005147
Synonym: 2-(2,2-DIMETHYL-4-OXOPENTYL)BENZOTHIAZOLE
Structure: 322D28322C322D44494D455448594C2D342D4F584F50454E54594C2942454E5A4F544849415A4F4C452E6D6F6C0A20204368656D447261773132323130393036303032440A2031372031382020302020302020302020302020302020302020302020303939392056323030300A2020202D302E3537393420202020302E3030383220202020302E303030302053202020302020302020302020302020302020302020302020302020302020302020302020300A2020202D302E303934352020202D302E3635393220202020302E303030302043202020302020302020302020302020302020302020302020302020302020302020302020300A2020202D302E353739342020202D312E3332363620202020302E30303030204E202020302020302020302020302020302020302020302020302020302020302020302020300A2020202D312E333634312020202D312E3037313720202020302E303030302043202020302020302020302020302020302020302020302020302020302020302020302020300A2020202D312E333634312020202D302E3234363720202020302E303030302043202020302020302020302020302020302020302020302020302020302020302020302020300A2020202D322E303738352020202D312E3438343220202020302E303030302043202020302020302020302020302020302020302020302020302020302020302020302020300A2020202D322E373933302020202D312E3037313720202020302E303030302043202020302020302020302020302020302020302020302020302020302020302020302020300A2020202D322E373933302020202D302E3234363720202020302E303030302043202020302020302020302020302020302020302020302020302020302020302020302020300A2020202D322E3037383520202020302E3136353820202020302E303030302043202020302020302020302020302020302020302020302020302020302020302020302020300A20202020302E373330352020202D302E3635393220202020302E303030302043202020302020302020302020302020302020302020302020302020302020302020302020300A20202020312E3134333020202020302E3035353320202020302E303030302043202020302020302020302020302020302020302020302020302020302020302020302020300A20202020312E3535353520202020302E3736393720202020302E303030302043202020302020302020302020302020302020302020302020302020302020302020302020300A20202020322E3338303520202020302E3736393720202020302E303030302043202020302020302020302020302020302020302020302020302020302020302020302020300A20202020322E3739333020202020312E3438343220202020302E303030302043202020302020302020302020302020302020302020302020302020302020302020302020300A20202020322E3739333020202020302E3035353320202020302E30303030204F202020302020302020302020302020302020302020302020302020302020302020302020300A20202020312E383537352020202D302E3335373220202020302E303030302043202020302020302020302020302020302020302020302020302020302020302020302020300A20202020302E3432383520202020302E3436373820202020302E303030302043202020302020302020302020302020302020302020302020302020302020302020302020300A2020312020322020312020302020202020200A2020322020332020322020302020202020200A2020332020342020312020302020202020200A2020342020352020312020302020202020200A2020312020352020312020302020202020200A2020362020372020312020302020202020200A2020372020382020322020302020202020200A2020382020392020312020302020202020200A2020352020392020322020302020202020200A2020342020362020322020302020202020200A2031302031312020312020302020202020200A2031312031322020312020302020202020200A2031322031332020312020302020202020200A2031332031342020312020302020202020200A2031332031352020322020302020202020200A2031312031362020312020312020202020200A2031312031372020312020312020202020200A2020322031302020312020302020202020200A4D2020454E44
Contributor: HAYASHI A, FAC. OF SCIENCE AND TECHNOLOGY, KINKI UNIV.
InstType: EI
InstName: JEOL JMS-HX-100
IoniMethod: _ENERGY 70 eV
IonPolarity: pos
Date: 2010-10-09 19:48:36+02:00
Num Peaks: 50
39 58 40 32 41 68 42 12 43 701 44 39 45 93 51 18 53 16 55 47 
56 15 57 35 58 25 61 14 63 30 65 34 69 69 71 15 77 31 81 13 
82 24 83 37 85 11 97 12 104 33 108 80 109 48 116 11 117 11 121 24 
136 18 148 95 149 666 150 86 151 39 162 15 173 24 174 57 175 20 177 13 
188 24 189 145 190 999 191 165 192 65 232 79 233 13 247 192 248 34 249 13 
