Name: N-METHYL-2-PYRROLIDONE
MW: 99
Formula: C5H9NO
Synonym: MassBank: JP004940
Synonym: N-METHYL-2-PYRROLIDONE
Structure: 310A31390A4E2D4D455448594C2D322D505952524F4C49444F4E452E6D6F6C0A20204368656D447261773038313231303032313132440A2020372020372020302020302020302020302020302020302020302020303939392056323030300A2020202D302E323232332020202D302E3339323320202020302E30303030204E202020302020302020302020302020302020302020302020302020302020302020302020300A20202020302E3236323720202020302E3237353120202020302E303030302043202020302020302020302020302020302020302020302020302020302020302020302020300A20202020312E3034373320202020302E3032303220202020302E303030302043202020302020302020302020302020302020302020302020302020302020302020302020300A20202020312E303437332020202D302E3830343820202020302E303030302043202020302020302020302020302020302020302020302020302020302020302020302020300A20202020302E323632372020202D312E3035393720202020302E303030302043202020302020302020302020302020302020302020302020302020302020302020302020300A20202020302E3030373720202020312E3035393720202020302E30303030204F202020302020302020302020302020302020302020302020302020302020302020302020300A2020202D312E303437332020202D302E3339323320202020302E303030302043202020302020302020302020302020302020302020302020302020302020302020302020300A2020312020322020312020302020202020200A2020322020332020312020302020202020200A2020332020342020312020302020202020200A2020342020352020312020302020202020200A2020312020352020312020302020202020200A2020322020362020322020302020202020200A2020312020372020312020302020202020200A4D2020454E44
Contributor: MASS SPECTROSCOPY SOC. OF JAPAN (MSSJ)
InstType: EI
InstName: JEOL JMS-D-3000
IoniMethod: _ENERGY 70 eV
IonPolarity: pos
Date: 2010-10-09 19:48:36+02:00
Num Peaks: 20
40 385 42 517 43 173 44 654 45 29 52 11 54 23 55 34 56 73 57 23 
58 54 62 19 68 38 69 43 70 79 71 112 97 16 98 693 99 999 100 61 
