Name: ETHYLHYDRAZONE ACETALDEHYDE
MW: 86
Formula: C4H10N2
Synonym: MassBank: JP000519
Synonym: ETHYLHYDRAZONE ACETALDEHYDE
Synonym: ACETALDEHYDE ETHYLHYDRAZONE
Structure: 310A31360A455448594C48594452415A4F4E452041434554414C4445485944452E6D6F6C0A20204368656D447261773036323431303035333932440A2020362020352020302020302020302020302020302020302020302020303939392056323030300A20202020312E3037313720202020302E3230363220202020302E303030302043202020302020302020302020302020302020302020302020302020302020302020302020300A20202020312E373836322020202D302E3230363220202020302E303030302043202020302020302020302020302020302020302020302020302020302020302020302020300A20202020302E333537322020202D302E3230363220202020302E30303030204E202020302020302020302020302020302020302020302020302020302020302020302020300A2020202D302E3335373220202020302E3230363220202020302E30303030204E202020302020302020302020302020302020302020302020302020302020302020302020300A2020202D312E303731372020202D302E3230363220202020302E303030302043202020302020302020302020302020302020302020302020302020302020302020302020300A2020202D312E3738363220202020302E3230363220202020302E303030302043202020302020302020302020302020302020302020302020302020302020302020302020300A2020312020322020312020302020202020200A2020332020342020312020302020202020200A2020352020362020312020302020202020200A2020342020352020312020302020202020200A2020312020332020322020302020202020200A4D2020454E44
Contributor: SASAKI S, TOYOHASHI UNIV. OF TECH.
InstType: EI
InstName: SHIMADZU LKB-2091
IoniMethod: _ENERGY 70 eV
IonPolarity: pos
Date: 2010-10-09 19:48:36+02:00
Num Peaks: 17
27 230 28 229 29 167 30 97 31 36 40 46 41 84 42 48 43 86 44 167 
57 84 58 3 71 999 72 40 85 45 86 56 87 32 
