Name: METHYL 2-TRIMETHYLSILOXY-OCTADECANOATE
MW: 386
Formula: C22H46O3Si
Synonym: MassBank: JP002743
Synonym: METHYL 2-TRIMETHYLSILOXY-OCTADECANOATE
Structure: 4D455448594C20322D5452494D455448594C53494C4F58592D4F435441444543414E4F4154452E6D6F6C0A20204368656D447261773038313131303233333832440A2032362032352020302020302020302020302020302020302020302020303939392056323030300A2020202D342E3538383820202020312E3233373520202020302E303030302043202020302020302020302020302020302020302020302020302020302020302020302020300A2020202D342E3538383820202020302E3431323520202020302E303030302043202020302020302020302020302020302020302020302020302020302020302020302020300A2020202D332E383734332020202D302E3030303020202020302E303030302043202020302020302020302020302020302020302020302020302020302020302020302020300A2020202D332E383734332020202D302E3832353020202020302E303030302043202020302020302020302020302020302020302020302020302020302020302020302020300A2020202D332E313539392020202D312E3233373520202020302E303030302043202020302020302020302020302020302020302020302020302020302020302020302020300A2020202D322E343435342020202D302E3832353020202020302E303030302043202020302020302020302020302020302020302020302020302020302020302020302020300A2020202D312E373330392020202D312E3233373520202020302E303030302043202020302020302020302020302020302020302020302020302020302020302020302020300A2020202D312E303136342020202D302E3832353020202020302E303030302043202020302020302020302020302020302020302020302020302020302020302020302020300A2020202D302E333032302020202D312E3233373520202020302E303030302043202020302020302020302020302020302020302020302020302020302020302020302020300A20202020302E343132352020202D302E3832353020202020302E303030302043202020302020302020302020302020302020302020302020302020302020302020302020300A20202020312E313237302020202D312E3233373520202020302E303030302043202020302020302020302020302020302020302020302020302020302020302020302020300A20202020312E383431342020202D302E3832353020202020302E303030302043202020302020302020302020302020302020302020302020302020302020302020302020300A20202020322E353535392020202D312E3233373520202020302E303030302043202020302020302020302020302020302020302020302020302020302020302020302020300A20202020332E323730342020202D302E3832353020202020302E303030302043202020302020302020302020302020302020302020302020302020302020302020302020300A20202020332E393834392020202D312E3233373520202020302E303030302043202020302020302020302020302020302020302020302020302020302020302020302020300A20202020342E363939332020202D302E3832353020202020302E303030302043202020302020302020302020302020302020302020302020302020302020302020302020300A20202020352E343133382020202D312E3233373520202020302E303030302043202020302020302020302020302020302020302020302020302020302020302020302020300A20202020362E313238332020202D302E3832353020202020302E303030302043202020302020302020302020302020302020302020302020302020302020302020302020300A2020202D332E3837343320202020312E3635303020202020302E30303030204F202020302020302020302020302020302020302020302020302020302020302020302020300A2020202D352E3330333320202020312E3635303020202020302E30303030204F202020302020302020302020302020302020302020302020302020302020302020302020300A2020202D352E333033332020202D302E3030303020202020302E30303030204F202020302020302020302020302020302020302020302020302020302020302020302020300A2020202D352E333033332020202D302E3832353020202020302E303030302053692020302020302020302020302020302020302020302020302020302020302020302020300A2020202D342E343738332020202D302E3832353020202020302E303030302043202020302020302020302020302020302020302020302020302020302020302020302020300A2020202D352E333033332020202D312E3635303020202020302E303030302043202020302020302020302020302020302020302020302020302020302020302020302020300A2020202D362E313238332020202D302E3832353020202020302E303030302043202020302020302020302020302020302020302020302020302020302020302020302020300A2020202D362E3031373720202020312E3233373520202020302E303030302043202020302020302020302020302020302020302020302020302020302020302020302020300A2020312020322020312020302020202020200A2020322020332020312020302020202020200A2020332020342020312020302020202020200A2020342020352020312020302020202020200A2020352020362020312020302020202020200A2020362020372020312020302020202020200A2020372020382020312020302020202020200A2020382020392020312020302020202020200A2020392031302020312020302020202020200A2031302031312020312020302020202020200A2031312031322020312020302020202020200A2031322031332020312020302020202020200A2031332031342020312020302020202020200A2031342031352020312020302020202020200A2031352031362020312020302020202020200A2031362031372020312020302020202020200A2031372031382020312020302020202020200A2020312031392020322020302020202020200A2020312032302020312020302020202020200A2032312032322020312020302020202020200A2032322032332020312020302020202020200A2032322032342020312020302020202020200A2032322032352020312020302020202020200A2020322032312020312020302020202020200A2032302032362020312020302020202020200A4D2020454E44
Contributor: HAYASHI A, DEPT. OF CHEMISTRY, FAC. OF SCI. AND TECHNOLOGY, KINKI UNIV.
InstType: EI
InstName: SHIMADZU LKB-9000B
IoniMethod: _ENERGY 70 eV
IonPolarity: pos
Date: 2010-10-09 19:48:36+02:00
Num Peaks: 108
39 5 40 46 41 98 42 13 43 187 44 19 45 38 47 3 48 15 53 16 
54 20 55 11 56 12 57 125 58 13 59 8 61 18 66 10 67 56 68 3 
69 114 70 23 71 81 72 2 73 536 74 64 75 151 76 2 77 18 79 18 
80 11 81 6 82 31 83 147 84 21 85 6 87 23 88 12 89 263 90 3 
91 47 92 9 93 11 95 6 96 14 97 127 98 22 99 2 101 33 102 12 
103 153 104 2 105 24 107 22 108 13 109 3 110 13 111 53 112 12 113 1 
115 32 116 26 117 17 119 3 121 10 123 16 124 12 125 2 127 11 129 109 
130 22 131 2 135 10 137 10 139 11 143 2 145 25 146 28 147 5 149 1 
157 9 159 78 160 15 161 2 162 19 171 9 185 15 199 1 201 9 253 13 
257 9 271 1 311 12 325 14 326 26 327 999 328 280 329 72 330 14 343 5 
344 17 369 15 370 25 371 37 372 112 373 30 374 9 386 16 
