Name: 1-METHYLBICYCLO(4.4.0)DECANE(TRANS)
MW: 152
Formula: C11H20
Synonym: MassBank: JP009337
Synonym: 1-METHYLBICYCLO(4.4.0)DECANE(TRANS)
Synonym: METHYLDECALIN(TRANS)
Structure: 312D4D455448594C42494359434C4F28342E342E3029444543414E45285452414E53292E6D6F6C0A20204368656D447261773131323030393135353332440A2031322031332020302020302020302020302020302020302020302020303939392056323030300A20202020302E3431323520202020302E3030303020202020302E303030302043202020302020302020302020302020302020302020302020302020302020302020302020300A20202020302E383235302020202D302E3731343520202020302E303030302043202020302020302020302020302020302020302020302020302020302020302020302020300A20202020302E343132352020202D312E3432383920202020302E303030302043202020302020302020302020302020302020302020302020302020302020302020302020300A2020202D302E343132352020202D312E3432383920202020302E303030302043202020302020302020302020302020302020302020302020302020302020302020302020300A2020202D302E383235302020202D302E3731343520202020302E303030302043202020302020302020302020302020302020302020302020302020302020302020302020300A2020202D302E3431323520202020302E3030303020202020302E303030302043202020302020302020302020302020302020302020302020302020302020302020302020300A2020202D302E3832353020202020302E3731343520202020302E303030302043202020302020302020302020302020302020302020302020302020302020302020302020300A2020202D302E3431323520202020312E3432383920202020302E303030302043202020302020302020302020302020302020302020302020302020302020302020302020300A20202020302E3431323520202020312E3432383920202020302E303030302043202020302020302020302020302020302020302020302020302020302020302020302020300A20202020302E3832353020202020302E3731343520202020302E303030302043202020302020302020302020302020302020302020302020302020302020302020302020300A20202020312E3233373520202020302E3030303020202020302E303030302043202020302020302020302020302020302020302020302020302020302020302020302020300A2020202D312E3233373520202020302E3030303020202020302E303030302048202020302020302020302020302020302020302020302020302020302020302020302020300A2020312020322020312020302020202020200A2020322020332020312020302020202020200A2020332020342020312020302020202020200A2020342020352020312020302020202020200A2020352020362020312020302020202020200A2020362020372020312020302020202020200A2020372020382020312020302020202020200A2020382020392020312020302020202020200A2020392031302020312020302020202020200A2020312031302020312020302020202020200A2020312020362020312020302020202020200A2020312031312020312020362020202020200A2020362031322020312020312020202020200A4D2020454E44
Contributor: YAMAMOTO M, DEP. CHEMISTRY, FAC. SCIENCE, NARA WOMEN'S UNIV.
InstType: EI
InstName: HITACHI M-80
IoniMethod: _ENERGY 70 eV
IonPolarity: pos
Date: 2010-10-09 19:48:36+02:00
Num Peaks: 45
39 93 40 24 41 312 42 42 43 12 51 17 52 20 53 86 54 64 55 320 
56 36 65 33 66 50 67 518 68 186 69 154 70 12 77 40 78 14 79 73 
80 32 81 601 82 376 83 171 84 14 91 20 93 43 94 47 95 999 96 565 
97 54 98 10 99 10 107 13 108 24 109 450 110 310 111 37 123 78 124 26 
136 75 137 758 138 80 152 649 153 83 
