Name: PARA BROMO ISOBUTYLBENZOATE
MW: 256
Formula: C11H13BrO2
Synonym: MassBank: JP000194
Synonym: PARA BROMO ISOBUTYLBENZOATE
Structure: 303032345F504152412042524F4D4F2049534F425554594C42454E5A4F4154452E6D6F6C0A20204368656D447261773130303131303230333532440A2031342031342020302020302020302020302020302020302020302020303939392056323030300A20202020312E3037313720202020312E3033313220202020302E303030302043202020302020302020302020302020302020302020302020302020302020302020302020300A20202020312E3037313720202020302E3230363220202020302E303030302043202020302020302020302020302020302020302020302020302020302020302020302020300A20202020312E373836322020202D302E3230363320202020302E303030302043202020302020302020302020302020302020302020302020302020302020302020302020300A20202020312E373836322020202D312E3033313320202020302E303030302043202020302020302020302020302020302020302020302020302020302020302020302020300A20202020312E303731372020202D312E3434333820202020302E303030302043202020302020302020302020302020302020302020302020302020302020302020302020300A20202020302E333537332020202D312E3033313320202020302E303030302043202020302020302020302020302020302020302020302020302020302020302020302020300A20202020302E333537332020202D302E3230363320202020302E303030302043202020302020302020302020302020302020302020302020302020302020302020302020300A20202020312E3738363220202020312E3434333720202020302E30303030204F202020302020302020302020302020302020302020302020302020302020302020302020300A20202020302E3335373320202020312E3434333720202020302E30303030204F202020302020302020302020302020302020302020302020302020302020302020302020300A2020202D302E3335373220202020312E3033313320202020302E303030302043202020302020302020302020302020302020302020302020302020302020302020302020300A2020202D312E3037313720202020312E3434333820202020302E303030302043202020302020302020302020302020302020302020302020302020302020302020302020300A2020202D312E3738363220202020312E3033313320202020302E303030302043202020302020302020302020302020302020302020302020302020302020302020302020300A2020202D312E3037313620202020322E3236383820202020302E303030302043202020302020302020302020302020302020302020302020302020302020302020302020300A20202020312E303731362020202D322E3236383820202020302E303030302042722020302020302020302020302020302020302020302020302020302020302020302020300A2020312020322020312020302020202020200A2020322020332020312020302020202020200A2020332020342020322020302020202020200A2020342020352020312020302020202020200A2020352020362020322020302020202020200A2020362020372020312020302020202020200A2020322020372020322020302020202020200A2020312020382020322020302020202020200A2020312020392020312020302020202020200A2020392031302020312020302020202020200A2031302031312020312020302020202020200A2031312031322020312020302020202020200A2031312031332020312020302020202020200A2020352031342020312020302020202020200A4D2020454E44
Contributor: TAJIMA S, GUNMA COLLEGE OF TECHNOLOGY
InstType: EI
InstName: HITACHI RMU-7M
IoniMethod: _ENERGY 70 eV
IonPolarity: pos
Date: 2010-10-09 19:48:36+02:00
Num Peaks: 30
27 37 29 83 39 36 41 145 43 32 44 12 50 100 51 18 55 35 56 999 
57 76 65 12 73 23 74 29 75 153 76 158 77 30 104 19 155 159 156 12 
157 158 183 621 184 48 185 601 186 46 200 116 201 214 202 130 203 209 204 15 
