Name: PARA-(PENTAMETHYLDISILANYL)BENZALDEHYDE
MW: 236
Formula: C12H20OSi2
Synonym: MassBank: JP001433
Synonym: PARA-(PENTAMETHYLDISILANYL)BENZALDEHYDE
Structure: 504152412D2850454E54414D455448594C444953494C414E594C2942454E5A414C4445485944452E6D6F6C0A20204368656D447261773038313231303034313332440A2031352031352020302020302020302020302020302020302020302020303939392056323030300A20202020312E373432342020202D312E3234343120202020302E303030302043202020302020302020302020302020302020302020302020302020302020302020302020300A20202020312E303237392020202D302E3833313620202020302E303030302043202020302020302020302020302020302020302020302020302020302020302020302020300A20202020302E333133342020202D312E3234343120202020302E303030302043202020302020302020302020302020302020302020302020302020302020302020302020300A2020202D302E343031312020202D302E3833313620202020302E303030302043202020302020302020302020302020302020302020302020302020302020302020302020300A2020202D302E343031312020202D302E3030363620202020302E303030302043202020302020302020302020302020302020302020302020302020302020302020302020300A20202020302E3331333420202020302E3430353920202020302E303030302043202020302020302020302020302020302020302020302020302020302020302020302020300A20202020312E303237392020202D302E3030363620202020302E303030302043202020302020302020302020302020302020302020302020302020302020302020302020300A20202020322E343536382020202D302E3833313620202020302E30303030204F202020302020302020302020302020302020302020302020302020302020302020302020300A2020202D312E3332393920202020302E3532393620202020302E303030302053692020302020302020302020302020302020302020302020302020302020302020302020300A2020202D312E373432342020202D302E3138343820202020302E303030302053692020302020302020302020302020302020302020302020302020302020302020302020300A2020202D322E3034343320202020302E3934323120202020302E303030302043202020302020302020302020302020302020302020302020302020302020302020302020300A2020202D302E3931373420202020312E3234343120202020302E303030302043202020302020302020302020302020302020302020302020302020302020302020302020300A2020202D312E303237392020202D302E3539373320202020302E303030302043202020302020302020302020302020302020302020302020302020302020302020302020300A2020202D322E313534392020202D302E3839393320202020302E303030302043202020302020302020302020302020302020302020302020302020302020302020302020300A2020202D322E3435363820202020302E3232373720202020302E303030302043202020302020302020302020302020302020302020302020302020302020302020302020300A2020312020322020312020302020202020200A2020322020332020312020302020202020200A2020332020342020322020302020202020200A2020342020352020312020302020202020200A2020352020362020322020302020202020200A2020362020372020312020302020202020200A2020322020372020322020302020202020200A2020312020382020322020302020202020200A2020392031302020312020302020202020200A2020392031312020312020302020202020200A2020392031322020312020302020202020200A2031302031332020312020302020202020200A2031302031342020312020302020202020200A2031302031352020312020302020202020200A2020352020392020312020302020202020200A4D2020454E44
Contributor: MASS SPECTROSCOPY SOC. OF JAPAN (MSSJ)
InstType: EI
InstName: JEOL JMS-D-3000
IoniMethod: _ENERGY 70 eV
IonPolarity: pos
Date: 2010-10-09 19:48:36+02:00
Num Peaks: 29
43 80 44 28 45 107 53 22 59 33 73 999 74 84 75 42 91 22 105 26 
107 20 117 22 119 34 131 24 133 40 134 40 135 35 147 19 148 97 149 21 
163 782 164 118 165 38 193 76 221 187 222 44 236 203 237 49 238 20 
