Name: DICHLOROMESITYLMETHYLSILANE
MW: 232
Formula: C10H14Cl2Si
Synonym: MassBank: JP001447
Synonym: DICHLOROMESITYLMETHYLSILANE
Structure: 444943484C4F524F4D45534954594C4D455448594C53494C414E452E6D6F6C0A20204368656D447261773039323131303138313832440A2031332031332020302020302020302020302020302020302020302020303939392056323030300A2020202D312E323337352020202D302E3030303020202020302E303030302053692020302020302020302020302020302020302020302020302020302020302020302020300A2020202D322E303632352020202D302E3030303020202020302E303030302043202020302020302020302020302020302020302020302020302020302020302020302020300A2020202D302E343132352020202D302E3030303020202020302E303030302043202020302020302020302020302020302020302020302020302020302020302020302020300A20202020302E3030303020202020302E3731343520202020302E303030302043202020302020302020302020302020302020302020302020302020302020302020302020300A2020202D302E3431323520202020312E3432383920202020302E303030302043202020302020302020302020302020302020302020302020302020302020302020302020300A20202020302E3832353020202020302E3731343520202020302E303030302043202020302020302020302020302020302020302020302020302020302020302020302020300A20202020312E323337352020202D302E3030303020202020302E303030302043202020302020302020302020302020302020302020302020302020302020302020302020300A20202020322E303632352020202D302E3030303020202020302E303030302043202020302020302020302020302020302020302020302020302020302020302020302020300A20202020302E383235302020202D302E3731343520202020302E303030302043202020302020302020302020302020302020302020302020302020302020302020302020300A20202020302E303030302020202D302E3731343520202020302E303030302043202020302020302020302020302020302020302020302020302020302020302020302020300A2020202D302E343132352020202D312E3432383920202020302E303030302043202020302020302020302020302020302020302020302020302020302020302020302020300A2020202D312E323337352020202D302E3832353020202020302E3030303020436C2020302020302020302020302020302020302020302020302020302020302020302020300A2020202D312E3233373520202020302E3832353020202020302E3030303020436C2020302020302020302020302020302020302020302020302020302020302020302020300A2020312020322020312020302020202020200A2020332020342020312020302020202020200A2020342020352020312020302020202020200A2020342020362020322020302020202020200A2020362020372020312020302020202020200A2020372020382020312020302020202020200A2020372020392020322020302020202020200A2020392031302020312020302020202020200A2031302031312020312020302020202020200A2020332031302020322020302020202020200A2020312020332020312020302020202020200A2020312031322020312020302020202020200A2020312031332020312020302020202020200A4D2020454E44
Contributor: MASS SPECTROSCOPY SOC. OF JAPAN (MSSJ)
InstType: EI
InstName: JEOL JMS-D-3000
IoniMethod: _ENERGY 70 eV
IonPolarity: pos
Date: 2010-10-09 19:48:36+02:00
Num Peaks: 68
43 13 44 14 50 23 51 84 52 30 53 59 62 12 63 104 64 13 65 65 
66 11 67 12 75 14 76 14 77 121 78 45 79 42 80 11 89 20 90 11 
91 178 92 19 93 22 95 15 98 11 101 15 102 21 103 61 104 33 105 53 
113 93 115 90 116 27 117 84 118 41 119 999 120 118 122 18 123 37 125 15 
131 12 133 27 137 10 145 19 147 23 159 24 160 20 161 18 181 228 182 38 
183 89 184 14 196 234 197 62 198 94 199 29 200 11 217 156 218 24 219 99 
220 15 221 21 227 14 232 215 233 39 234 158 235 26 236 31 
