Name: 3-METHYLCYCLOHEXANOL
MW: 114
Formula: C7H14O
Synonym: MassBank: JP003601
Synonym: 3-METHYLCYCLOHEXANOL
Structure: 310A32310A332D4D455448594C4359434C4F484558414E4F4C2E6D6F6C0A20204368656D447261773033323031303135333032440A2020382020382020302020302020302020302020302020302020302020303939392056323030300A20202020302E3431323520202020302E3731343520202020302E303030302043202020302020302020302020302020302020302020302020302020302020302020302020300A20202020302E3832353020202020302E3030303020202020302E303030302043202020302020302020302020302020302020302020302020302020302020302020302020300A20202020302E343132352020202D302E3731343520202020302E303030302043202020302020302020302020302020302020302020302020302020302020302020302020300A2020202D302E343132352020202D302E3731343520202020302E303030302043202020302020302020302020302020302020302020302020302020302020302020302020300A2020202D302E3832353020202020302E3030303020202020302E303030302043202020302020302020302020302020302020302020302020302020302020302020302020300A2020202D302E3431323520202020302E3731343520202020302E303030302043202020302020302020302020302020302020302020302020302020302020302020302020300A20202020302E383235302020202D312E3432383920202020302E303030302043202020302020302020302020302020302020302020302020302020302020302020302020300A20202020302E3832353020202020312E3432383920202020302E30303030204F202020302020302020302020302020302020302020302020302020302020302020302020300A2020312020322020312020302020202020200A2020322020332020312020302020202020200A2020332020342020312020302020202020200A2020342020352020312020302020202020200A2020352020362020312020302020202020200A2020312020362020312020302020202020200A2020332020372020312020302020202020200A2020312020382020312020302020202020200A4D2020454E44
Contributor: MASS SPECTROSCOPY SOC. OF JAPAN (MSSJ)
InstType: EI
InstName: Unknown
IoniMethod: EI
IonPolarity: pos
Date: 2010-10-09 19:48:36+02:00
Num Peaks: 49
15 50 17 48 18 160 26 4 27 260 28 100 29 279 30 4 31 160 32 56 
38 33 39 25 40 50 41 415 42 268 43 33 44 280 45 44 50 30 51 3 
52 30 53 80 54 120 55 40 56 90 57 550 58 73 59 4 65 28 66 20 
67 124 68 5 69 80 70 110 71 999 72 7 77 32 79 30 81 525 82 4 
83 24 85 20 86 30 91 4 95 50 96 500 97 40 99 3 113 23 
