Name: CARANE
MW: 138
Formula: C10H18
Synonym: MassBank: JP006006
Synonym: CARANE
Synonym: 3,7,7-TRIMETHYLBICYCLO(4.1.0)HEPTANE
Structure: 434152414E452E6D6F6C0A20204368656D447261773032323231303033333232440A2031302031312020302020302020302020302020302020302020302020303939392056323030300A20202020302E343439332020202D302E3431323520202020302E303030302043202020302020302020302020302020302020302020302020302020302020302020302020300A2020202D302E323635312020202D302E3832353020202020302E303030302043202020302020302020302020302020302020302020302020302020302020302020302020300A2020202D302E393739362020202D302E3431323520202020302E303030302043202020302020302020302020302020302020302020302020302020302020302020302020300A2020202D302E3937393620202020302E3431323520202020302E303030302043202020302020302020302020302020302020302020302020302020302020302020302020300A2020202D302E3236353120202020302E3832353020202020302E303030302043202020302020302020302020302020302020302020302020302020302020302020302020300A20202020302E3434393320202020302E3431323520202020302E303030302043202020302020302020302020302020302020302020302020302020302020302020302020300A20202020312E3136333820202020302E3030303020202020302E303030302043202020302020302020302020302020302020302020302020302020302020302020302020300A20202020312E3639343120202020302E3633323020202020302E303030302043202020302020302020302020302020302020302020302020302020302020302020302020300A20202020312E363934312020202D302E3633323020202020302E303030302043202020302020302020302020302020302020302020302020302020302020302020302020300A2020202D312E363934312020202D302E3832353020202020302E303030302043202020302020302020302020302020302020302020302020302020302020302020302020300A2020312020322020312020302020202020200A2020322020332020312020302020202020200A2020332020342020312020302020202020200A2020342020352020312020302020202020200A2020352020362020312020302020202020200A2020312020362020312020302020202020200A2020362020372020312020302020202020200A2020312020372020312020302020202020200A2020372020382020312020362020202020200A2020372020392020312020312020202020200A2020332031302020312020302020202020200A4D2020454E44
Contributor: YAMAMOTO M, DEP. CHEMISTRY, FAC. SCIENCE, NARA WOMEN'S UNIV.
InstType: EI
InstName: HITACHI M-80
IoniMethod: _ENERGY 70 eV
IonPolarity: pos
Date: 2010-10-09 19:48:36+02:00
Num Peaks: 39
27 87 28 14 29 76 39 134 40 27 41 332 42 28 43 62 51 19 52 13 
53 93 54 44 55 277 56 36 57 39 65 30 66 17 67 511 68 114 69 166 
70 21 77 45 79 98 80 48 81 732 82 278 83 59 91 30 93 39 94 88 
95 999 96 175 97 14 109 78 110 16 123 252 124 22 138 253 139 25 
