Name: METHYPRYLON
MW: 183
Formula: C10H17NO2
Synonym: MassBank: JP003822
Synonym: METHYPRYLON
Structure: 303731385F4D455448595052594C4F4E2E6D6F6C0A20204368656D447261773039303631303139353532440A2031332031332020302020302020302020302020302020302020302020303939392056323030300A2020202D312E3030323320202020302E3832353020202020302E303030302043202020302020302020302020302020302020302020302020302020302020302020302020300A2020202D312E303032332020202D302E3030303020202020302E303030302043202020302020302020302020302020302020302020302020302020302020302020302020300A2020202D302E323837392020202D302E3431323520202020302E303030302043202020302020302020302020302020302020302020302020302020302020302020302020300A20202020302E343236362020202D302E3030303020202020302E303030302043202020302020302020302020302020302020302020302020302020302020302020302020300A20202020302E3432363620202020302E3832353020202020302E303030302043202020302020302020302020302020302020302020302020302020302020302020302020300A2020202D302E3238373920202020312E3233373520202020302E30303030204E202020302020302020302020302020302020302020302020302020302020302020302020300A2020202D302E323837392020202D312E3233373520202020302E30303030204F202020302020302020302020302020302020302020302020302020302020302020302020300A2020202D312E373136382020202D302E3431323520202020302E303030302043202020302020302020302020302020302020302020302020302020302020302020302020300A20202020302E353536392020202D302E3831343620202020302E303030302043202020302020302020302020302020302020302020302020302020302020302020302020300A20202020312E3234393020202020302E3036353420202020302E303030302043202020302020302020302020302020302020302020302020302020302020302020302020300A20202020312E373136382020202D302E3631343220202020302E303030302043202020302020302020302020302020302020302020302020302020302020302020302020300A20202020312E333237362020202D312E3130393120202020302E303030302043202020302020302020302020302020302020302020302020302020302020302020302020300A20202020312E3134313120202020312E3233373520202020302E30303030204F202020302020302020302020302020302020302020302020302020302020302020302020300A2020312020322020312020302020202020200A2020322020332020312020302020202020200A2020332020342020312020302020202020200A2020342020352020312020302020202020200A2020352020362020312020302020202020200A2020362020312020312020302020202020200A2020332020372020322020302020202020200A2020322020382020312020302020202020200A2020342020392020312020302020202020200A2020342031302020312020302020202020200A2031302031312020312020302020202020200A2020392031322020312020302020202020200A2020352031332020322020302020202020200A4D2020454E44
Contributor: SASAKI S, TOYOHASHI UNIV. OF TECH.
InstType: EI
InstName: Unknown
IoniMethod: _ENERGY 70 eV
IonPolarity: pos
Date: 2010-10-09 19:48:36+02:00
Num Peaks: 26
51 9 52 9 53 69 54 3 55 339 56 89 57 79 58 4 83 539 84 59 
85 59 86 5 95 9 96 9 97 79 98 47 99 49 140 769 141 79 142 1 
154 79 155 999 156 24 168 7 169 9 183 29 
