Name: TERT-BUTYL CHLORIDE
MW: 92
Formula: C4H9Cl
Synonym: MassBank: JP005286
Synonym: TERT-BUTYL CHLORIDE
Structure: 310A31340A544552542D425554594C2043484C4F524944452E6D6F6C0A20204368656D447261773038313231303037303532440A2020352020342020302020302020302020302020302020302020302020303939392056323030300A20202020302E3030303020202020302E3030303020202020302E303030302043202020302020302020302020302020302020302020302020302020302020302020302020300A20202020302E303030302020202D302E3832353020202020302E303030302043202020302020302020302020302020302020302020302020302020302020302020302020300A2020202D302E3832353020202020302E3030303020202020302E303030302043202020302020302020302020302020302020302020302020302020302020302020302020300A20202020302E3030303020202020302E3832353020202020302E303030302043202020302020302020302020302020302020302020302020302020302020302020302020300A20202020302E3832353020202020302E3030303020202020302E3030303020436C2020302020302020302020302020302020302020302020302020302020302020302020300A2020312020322020312020302020202020200A2020312020342020312020302020202020200A2020312020332020312020302020202020200A2020312020352020312020302020202020200A4D2020454E44
Contributor: YAMAMOTO M, DEP. CHEMISTRY, FAC. SCIENCE, NARA WOMEN'S UNIV.
InstType: EI
InstName: HITACHI RMU-6M
IoniMethod: _ENERGY 70 eV
IonPolarity: pos
Date: 2010-10-09 19:48:36+02:00
Num Peaks: 24
15 22 26 22 27 120 28 39 29 232 37 17 38 35 39 201 40 30 41 637 
42 34 49 21 50 18 51 16 53 13 55 38 56 57 57 999 58 44 59 20 
76 29 77 375 78 18 79 123 
