Name: ACETYL EUGENOL
MW: 206
Formula: C12H14O3
Synonym: MassBank: JP000745
Synonym: ACETYL EUGENOL
Synonym: 4-ALLYL-2-METHOXYPHENYL ACETATE
Structure: 41434554594C20455547454E4F4C2E6D6F6C0A20204368656D447261773033323531303034323732440A2031352031352020302020302020302020302020302020302020302020303939392056323030300A2020202D312E3037313720202020322E3036323520202020302E303030302043202020302020302020302020302020302020302020302020302020302020302020302020300A2020202D312E3037313720202020322E3838373520202020302E303030302043202020302020302020302020302020302020302020302020302020302020302020302020300A2020202D312E3738363220202020312E3635303020202020302E30303030204F202020302020302020302020302020302020302020302020302020302020302020302020300A2020202D302E3335373220202020312E3635303020202020302E30303030204F202020302020302020302020302020302020302020302020302020302020302020302020300A2020202D302E3335373220202020302E3832353020202020302E303030302043202020302020302020302020302020302020302020302020302020302020302020302020300A20202020302E3335373220202020302E3431323520202020302E303030302043202020302020302020302020302020302020302020302020302020302020302020302020300A20202020302E333537322020202D302E3431323520202020302E303030302043202020302020302020302020302020302020302020302020302020302020302020302020300A2020202D302E333537322020202D302E3832353020202020302E303030302043202020302020302020302020302020302020302020302020302020302020302020302020300A2020202D312E303731372020202D302E3431323520202020302E303030302043202020302020302020302020302020302020302020302020302020302020302020302020300A2020202D312E3037313720202020302E3431323520202020302E303030302043202020302020302020302020302020302020302020302020302020302020302020302020300A20202020312E3037313720202020302E3832353020202020302E30303030204F202020302020302020302020302020302020302020302020302020302020302020302020300A20202020312E3738363220202020302E3431323520202020302E303030302043202020302020302020302020302020302020302020302020302020302020302020302020300A2020202D302E333537322020202D312E3635303020202020302E303030302043202020302020302020302020302020302020302020302020302020302020302020302020300A2020202D312E303731372020202D322E3036323520202020302E303030302043202020302020302020302020302020302020302020302020302020302020302020302020300A2020202D312E303731372020202D322E3838373520202020302E303030302043202020302020302020302020302020302020302020302020302020302020302020302020300A2020312020322020312020302020202020200A2020312020332020322020302020202020200A2020312020342020312020302020202020200A2020352020362020312020302020202020200A2020362020372020322020302020202020200A2020372020382020312020302020202020200A2020382020392020322020302020202020200A2020392031302020312020302020202020200A2020352031302020322020302020202020200A2031312031322020312020302020202020200A2020362031312020312020302020202020200A2031332031342020312020302020202020200A2031342031352020322020302020202020200A2020382031332020312020302020202020200A2020342020352020312020302020202020200A4D2020454E44
Contributor: NAKAYAMA M, MASS SPECTROSCOPY SOC. OF JAPAN (MSSJ)
InstType: EI
InstName: HITACHI RMS-4
IoniMethod: _ENERGY 80 eV
IonPolarity: pos
Date: 2010-10-09 19:48:36+02:00
Num Peaks: 59
39 110 40 20 41 50 42 3 43 280 44 10 50 30 51 9 52 40 53 50 
55 90 62 1 63 50 64 20 65 100 66 4 67 10 75 10 76 10 77 16 
78 60 79 70 81 10 89 3 90 20 91 220 92 40 93 4 94 40 95 10 
102 20 103 18 104 130 105 80 106 20 107 4 109 10 115 30 116 10 117 1 
119 20 120 10 121 130 122 3 131 150 132 90 133 130 134 2 135 30 137 110 
138 10 147 4 149 260 150 30 163 50 164 999 165 120 166 10 206 50 
