Name: 1-HYDROXY-2-PROPANONE
MW: 74
Formula: C3H6O2
Synonym: MassBank: JP007023
Synonym: 1-HYDROXY-2-PROPANONE
Structure: 310A31340A312D485944524F58592D322D50524F50414E4F4E452E6D6F6C0A20204368656D447261773131313930393134333232440A2020352020342020302020302020302020302020302020302020302020303939392056323030300A20202020302E333537322020202D302E3631383820202020302E303030302043202020302020302020302020302020302020302020302020302020302020302020302020300A2020202D302E333537322020202D302E3230363320202020302E303030302043202020302020302020302020302020302020302020302020302020302020302020302020300A2020202D302E3335373220202020302E3631383820202020302E303030302043202020302020302020302020302020302020302020302020302020302020302020302020300A2020202D312E303731372020202D302E3631383820202020302E30303030204F202020302020302020302020302020302020302020302020302020302020302020302020300A20202020312E303731372020202D302E3230363320202020302E30303030204F202020302020302020302020302020302020302020302020302020302020302020302020300A2020312020322020312020302020202020200A2020322020332020312020302020202020200A2020322020342020322020302020202020200A2020312020352020312020302020202020200A4D2020454E44
Contributor: SODA AROMATIC CO., LTD.
InstType: EI
InstName: HITACHI M-80B
IoniMethod: _ENERGY 70 eV
IonPolarity: pos
Date: 2010-10-09 19:48:36+02:00
Num Peaks: 14
14 31 15 149 26 21 27 42 28 11 29 135 30 16 31 225 41 11 42 69 
43 999 44 20 45 21 74 74 
