Name: MassBank: JP009739
MW: 86
Formula: C6H14
Synonym: MassBank: JP009739
Synonym: ,2-DIMETHYLBUTANE
Structure: 310A31360A322D44494D455448594C425554414E452E6D6F6C0A20204368656D447261773130323230393232323632440A2020362020352020302020302020302020302020302020302020302020303939392056323030300A2020202D302E3230363220202020302E3030303020202020302E303030302043202020302020302020302020302020302020302020302020302020302020302020302020300A20202020302E3631383820202020302E3030303020202020302E303030302043202020302020302020302020302020302020302020302020302020302020302020302020300A2020202D312E3033313320202020302E3030303020202020302E303030302043202020302020302020302020302020302020302020302020302020302020302020302020300A2020202D302E3230363220202020302E3832353020202020302E303030302043202020302020302020302020302020302020302020302020302020302020302020302020300A2020202D302E323036322020202D302E3832353020202020302E303030302043202020302020302020302020302020302020302020302020302020302020302020302020300A20202020312E303331332020202D302E3731343520202020302E303030302043202020302020302020302020302020302020302020302020302020302020302020302020300A2020312020322020312020302020202020200A2020312020332020312020302020202020200A2020312020342020312020312020202020200A2020312020352020312020312020202020200A2020322020362020312020302020202020200A4D2020454E44
Contributor: YAMAMOTO M, DEP. CHEMISTRY, FAC. SCIENCE, NARA WOMEN'S UNIV.
InstType: EI
InstName: HITACHI RMU-6M
IoniMethod: _ENERGY 20 eV
IonPolarity: pos
Date: 2010-10-09 19:48:36+02:00
Num Peaks: 14
27 14 28 19 29 158 41 28 42 20 43 802 44 30 55 8 56 330 57 999 
58 42 70 5 71 860 72 46 
