Name: ETHYL ISOPROPOXYACETATE
MW: 146
Formula: C7H14O3
Synonym: MassBank: JP003694
Synonym: ETHYL ISOPROPOXYACETATE
Structure: 455448594C2049534F50524F504F5859414345544154452E6D6F6C0A20204368656D447261773038313131303138343832440A2031302020392020302020302020302020302020302020302020302020303939392056323030300A2020202D302E3335373220202020302E3230363320202020302E303030302043202020302020302020302020302020302020302020302020302020302020302020302020300A20202020302E333537322020202D302E3230363320202020302E303030302043202020302020302020302020302020302020302020302020302020302020302020302020300A2020202D302E3335373220202020312E3033313220202020302E30303030204F202020302020302020302020302020302020302020302020302020302020302020302020300A2020202D312E303731372020202D302E3230363320202020302E30303030204F202020302020302020302020302020302020302020302020302020302020302020302020300A20202020312E3037313720202020302E3230363320202020302E30303030204F202020302020302020302020302020302020302020302020302020302020302020302020300A20202020312E373836322020202D302E3230363220202020302E303030302043202020302020302020302020302020302020302020302020302020302020302020302020300A20202020322E3530303620202020302E3230363320202020302E303030302043202020302020302020302020302020302020302020302020302020302020302020302020300A20202020312E373836322020202D312E3033313220202020302E303030302043202020302020302020302020302020302020302020302020302020302020302020302020300A2020202D312E3738363220202020302E3230363220202020302E303030302043202020302020302020302020302020302020302020302020302020302020302020302020300A2020202D322E353030362020202D302E3230363320202020302E303030302043202020302020302020302020302020302020302020302020302020302020302020302020300A2020312020322020312020302020202020200A2020312020332020322020302020202020200A2020312020342020312020302020202020200A2020362020372020312020302020202020200A2020362020382020312020302020202020200A2020352020362020312020302020202020200A2020322020352020312020302020202020200A2020392031302020312020302020202020200A2020342020392020312020302020202020200A4D2020454E44
Contributor: SASAKI S, TOYOHASHI UNIV. OF TECH.
InstType: EI
InstName: Unknown
IoniMethod: EI
IonPolarity: pos
Date: 2010-10-09 19:48:36+02:00
Num Peaks: 69
13 1 14 7 15 30 16 0 17 1 18 3 19 10 25 1 26 13 27 175 
28 65 29 28 30 13 31 160 32 10 33 0 36 1 37 1 38 4 39 5 
40 11 41 196 42 150 43 999 44 44 45 382 46 9 47 2 49 1 51 3 
52 1 53 0 55 32 56 2 57 32 58 1 59 162 60 126 61 111 62 0 
63 1 69 1 70 56 71 2 72 6 73 711 74 32 75 11 76 7 77 6 
78 1 79 0 85 2 86 1 87 18 88 48 89 26 90 3 99 1 100 0 
101 3 103 52 104 4 112 0 117 5 131 50 132 4 133 0 145 6 
