Name: MassBank: JP000942
CAS: 78-87-5
MW: 111
Formula: C3H6Cl2
Synonym: MassBank: JP000942
Synonym: 1,2-DICHLOROPROPANE
Structure: 310A31340A312C322D444943484C4F524F50524F50414E452E6D6F6C0A20204368656D447261773131303330393233313132440A2020352020342020302020302020302020302020302020302020302020303939392056323030300A20202020302E333537322020202D302E3631383820202020302E303030302043202020302020302020302020302020302020302020302020302020302020302020302020300A2020202D302E333537322020202D302E3230363220202020302E303030302043202020302020302020302020302020302020302020302020302020302020302020302020300A2020202D302E3335373220202020302E3631383820202020302E303030302043202020302020302020302020302020302020302020302020302020302020302020302020300A2020202D312E303731372020202D302E3631383820202020302E3030303020436C2020302020302020302020302020302020302020302020302020302020302020302020300A20202020312E303731372020202D302E3230363220202020302E3030303020436C2020302020302020302020302020302020302020302020302020302020302020302020300A2020312020322020312020302020202020200A2020322020332020312020302020202020200A2020322020342020312020302020202020200A2020312020352020312020302020202020200A4D2020454E44
Contributor: KOGA M, UNIV. OF OCCUPATIONAL AND ENVIRONMENTAL HEALTH
InstType: EI
InstName: JEOL JMS-01-SG
IoniMethod: _ENERGY 70 eV
IonPolarity: pos
Date: 2010-10-09 19:48:36+02:00
Num Peaks: 27
35 40 36 58 37 120 38 16 39 547 40 82 41 712 42 5 47 27 48 20 
49 181 51 6 60 22 61 162 62 781 63 999 64 261 65 306 75 42 76 64 
77 128 78 212 79 36 97 5 99 34 112 59 114 28 
