Name: ALLYL METHYL DISULFIDE
MW: 120
Formula: C4H8S2
Synonym: MassBank: JP000913
Synonym: ALLYL METHYL DISULFIDE
Structure: 310A31360A414C4C594C204D455448594C20444953554C464944452E6D6F6C0A20204368656D447261773038303631303034323532440A2020362020352020302020302020302020302020302020302020302020303939392056323030300A2020202D312E3037313720202020302E3230363320202020302E303030302053202020302020302020302020302020302020302020302020302020302020302020302020300A2020202D302E333537322020202D302E3230363320202020302E303030302053202020302020302020302020302020302020302020302020302020302020302020302020300A2020202D312E373836322020202D302E3230363320202020302E303030302043202020302020302020302020302020302020302020302020302020302020302020302020300A20202020302E3335373220202020302E3230363320202020302E303030302043202020302020302020302020302020302020302020302020302020302020302020302020300A20202020312E303731372020202D302E3230363220202020302E303030302043202020302020302020302020302020302020302020302020302020302020302020302020300A20202020312E3738363220202020302E3230363320202020302E303030302043202020302020302020302020302020302020302020302020302020302020302020302020300A2020312020322020312020302020202020200A2020312020332020312020302020202020200A2020342020352020312020302020202020200A2020352020362020322020302020202020200A2020322020342020312020302020202020200A4D2020454E44
Contributor: KAMEOKA H, DEPT. OF APPLIED CHEMISTRY, FAC. OF SCI. AND ENGINEERING, KINKI UNIV.
InstType: EI
InstName: SHIMADZU LKB-9000B
IoniMethod: _ENERGY 70 eV
IonPolarity: pos
Date: 2010-10-09 19:48:36+02:00
Num Peaks: 19
39 96 41 999 42 36 43 3 45 81 57 60 64 15 70 2 71 43 72 29 
73 87 74 3 79 52 80 50 85 26 87 3 120 716 121 45 122 63 
