Name: N-METHYL-N-TRIMETHYLSILYLANILINE
MW: 179
Formula: C10H17NSi
Synonym: MassBank: JP001944
Synonym: N-METHYL-N-TRIMETHYLSILYLANILINE
Structure: 4E2D4D455448594C2D4E2D5452494D455448594C53494C594C414E494C494E452E6D6F6C0A20204368656D447261773038313231303032313332440A2031322031322020302020302020302020302020302020302020302020303939392056323030300A20202020302E363734302020202D302E3335373220202020302E30303030204E202020302020302020302020302020302020302020302020302020302020302020302020300A2020202D302E313531302020202D302E3335373220202020302E303030302043202020302020302020302020302020302020302020302020302020302020302020302020300A2020202D302E353633352020202D312E3037313720202020302E303030302043202020302020302020302020302020302020302020302020302020302020302020302020300A2020202D312E333838352020202D312E3037313720202020302E303030302043202020302020302020302020302020302020302020302020302020302020302020302020300A2020202D312E383031302020202D302E3335373220202020302E303030302043202020302020302020302020302020302020302020302020302020302020302020302020300A2020202D312E3338383520202020302E3335373220202020302E303030302043202020302020302020302020302020302020302020302020302020302020302020302020300A2020202D302E3536333520202020302E3335373220202020302E303030302043202020302020302020302020302020302020302020302020302020302020302020302020300A20202020312E3038363520202020302E3335373220202020302E303030302053692020302020302020302020302020302020302020302020302020302020302020302020300A20202020312E383031302020202D302E3035353320202020302E303030302043202020302020302020302020302020302020302020302020302020302020302020302020300A20202020302E3337323020202020302E3736393720202020302E303030302043202020302020302020302020302020302020302020302020302020302020302020302020300A20202020312E3439393020202020312E3037313720202020302E303030302043202020302020302020302020302020302020302020302020302020302020302020302020300A20202020312E303836352020202D312E3037313720202020302E303030302043202020302020302020302020302020302020302020302020302020302020302020302020300A2020312020322020312020302020202020200A2020322020332020312020302020202020200A2020332020342020322020302020202020200A2020342020352020312020302020202020200A2020352020362020322020302020202020200A2020362020372020312020302020202020200A2020322020372020322020302020202020200A2020382020392020312020302020202020200A2020382031302020312020302020202020200A2020382031312020312020302020202020200A2020312020382020312020302020202020200A2020312031322020312020302020202020200A4D2020454E44
Contributor: MASS SPECTROSCOPY SOC. OF JAPAN (MSSJ)
InstType: EI
InstName: JEOL JMS-D-3000
IoniMethod: _ENERGY 70 eV
IonPolarity: pos
Date: 2010-10-09 19:48:36+02:00
Num Peaks: 51
43 63 45 106 47 16 50 39 51 104 52 36 53 35 55 10 58 16 59 426 
60 32 61 20 63 27 64 19 65 51 66 12 73 197 74 30 75 134 76 24 
77 211 78 55 79 95 80 10 82 23 84 25 91 20 92 14 93 19 104 107 
105 60 106 498 107 416 108 39 119 31 120 17 121 13 134 22 135 16 148 20 
149 51 150 11 162 21 163 12 164 999 165 159 166 44 178 15 179 435 180 75 
181 20 
