Name: MassBank: JP006777
MW: 216
Formula: C10H7F3O2
Synonym: MassBank: JP006777
Synonym: 1,1,1-TRIFLUORO-4-PHENYL-2,4-BUTANEDIONE
Structure: 312C312C312D545249464C554F524F2D342D5048454E594C2D322C342D425554414E4544494F4E452E6D6F6C0A20204368656D447261773130323230393233303232440A2031352031352020302020302020302020302020302020302020302020303939392056323030300A20202020312E3738363220202020302E3030303020202020302E303030302043202020302020302020302020302020302020302020302020302020302020302020302020300A20202020312E3037313720202020302E3431323520202020302E303030302043202020302020302020302020302020302020302020302020302020302020302020302020300A20202020302E3335373220202020302E3030303020202020302E303030302043202020302020302020302020302020302020302020302020302020302020302020302020300A2020202D302E3335373220202020302E3431323520202020302E303030302043202020302020302020302020302020302020302020302020302020302020302020302020300A20202020312E3037313720202020312E3233373520202020302E30303030204F202020302020302020302020302020302020302020302020302020302020302020302020300A2020202D302E3335373220202020312E3233373520202020302E30303030204F202020302020302020302020302020302020302020302020302020302020302020302020300A2020202D312E3037313720202020302E3030303020202020302E303030302043202020302020302020302020302020302020302020302020302020302020302020302020300A2020202D312E3738363220202020302E3431323520202020302E303030302043202020302020302020302020302020302020302020302020302020302020302020302020300A2020202D322E3530303620202020302E3030303020202020302E303030302043202020302020302020302020302020302020302020302020302020302020302020302020300A2020202D322E353030362020202D302E3832353020202020302E303030302043202020302020302020302020302020302020302020302020302020302020302020302020300A2020202D312E373836322020202D312E3233373520202020302E303030302043202020302020302020302020302020302020302020302020302020302020302020302020300A2020202D312E303731372020202D302E3832353020202020302E303030302043202020302020302020302020302020302020302020302020302020302020302020302020300A20202020312E333733372020202D302E3731343520202020302E303030302046202020302020302020302020302020302020302020302020302020302020302020302020300A20202020322E353030362020202D302E3431323520202020302E303030302046202020302020302020302020302020302020302020302020302020302020302020302020300A20202020322E3139383720202020302E3731343520202020302E303030302046202020302020302020302020302020302020302020302020302020302020302020302020300A2020312020322020312020302020202020200A2020322020332020312020302020202020200A2020332020342020312020302020202020200A2020322020352020322020302020202020200A2020342020362020322020302020202020200A2020372020382020312020302020202020200A2020382020392020322020302020202020200A2020392031302020312020302020202020200A2031302031312020322020302020202020200A2031312031322020312020302020202020200A2020372031322020322020302020202020200A2020342020372020312020302020202020200A2020312031332020312020312020202020200A2020312031342020312020302020202020200A2020312031352020312020312020202020200A4D2020454E44
Contributor: TAJIMA S, GUNMA COLLEGE OF TECHNOLOGY
InstType: EI
InstName: HITACHI RMU-7M
IoniMethod: _ENERGY 70 eV
IonPolarity: pos
Date: 2010-10-09 19:48:36+02:00
Num Peaks: 35
27 22 39 62 41 21 43 22 50 106 51 277 52 31 59 15 62 21 63 45 
65 67 69 999 70 31 73.5 33 74 44 75 38 76 37 77 544 78 71 79 15 
89 33 90 24 91 61 103 32 105 562 119 15 120 36 121 21 139 21 147 752 
148 74 149 16 215 51 216 408 217 111 
