Name: DIETHYLMETHYLSILANE
MW: 102
Formula: C5H14Si
Synonym: MassBank: JP001933
Synonym: DIETHYLMETHYLSILANE
Structure: 310A31360A4449455448594C4D455448594C53494C414E452E6D6F6C0A20204368656D447261773039323131303230333532440A2020362020352020302020302020302020302020302020302020302020303939392056323030300A2020202D302E3030303020202020302E3030303020202020302E303030302053692020302020302020302020302020302020302020302020302020302020302020302020300A20202020302E3431323520202020302E3731343520202020302E303030302043202020302020302020302020302020302020302020302020302020302020302020302020300A20202020302E343132352020202D302E3731343520202020302E303030302043202020302020302020302020302020302020302020302020302020302020302020302020300A20202020312E323337352020202D302E3731343520202020302E303030302043202020302020302020302020302020302020302020302020302020302020302020302020300A2020202D302E3832353020202020302E3030303020202020302E303030302043202020302020302020302020302020302020302020302020302020302020302020302020300A2020202D312E323337352020202D302E3731343520202020302E303030302043202020302020302020302020302020302020302020302020302020302020302020302020300A2020312020322020312020302020202020200A2020332020342020312020302020202020200A2020312020332020312020302020202020200A2020352020362020312020302020202020200A2020312020352020312020302020202020200A4D2020454E44
Contributor: MASS SPECTROSCOPY SOC. OF JAPAN (MSSJ)
InstType: EI
InstName: JEOL JMS-D-3000
IoniMethod: _ENERGY 70 eV
IonPolarity: pos
Date: 2010-10-09 19:48:36+02:00
Num Peaks: 23
42 50 43 572 44 95 45 475 46 36 47 17 53 14 55 26 57 22 58 219 
59 182 60 12 70 11 71 17 72 370 73 999 74 160 75 38 86 16 87 78 
101 90 102 73 103 11 
