Name: MassBank: JP000064
MW: 178
Formula: C11H14O2
Synonym: MassBank: JP000064
Synonym: ISOPROPYL ORTHO TOLUATE (1,1,1,2,3,3,3-D7)
Structure: 303031385F49534F50524F50594C204F5254484F20544F4C554154452028312C312C312C322C332C332C332D4437292E6D6F6C0A20204368656D447261773039303331303135353932440A2032302032302020302020302020302020302020302020302020302020303939392056323030300A2020202D312E383135352020202D302E3830343420202020302E303030302043202020302020302020302020302020302020302020302020302020302020302020302020300A2020202D312E383135352020202D312E3632393420202020302E303030302043202020302020302020302020302020302020302020302020302020302020302020302020300A2020202D312E313031312020202D322E3034313920202020302E303030302043202020302020302020302020302020302020302020302020302020302020302020302020300A2020202D302E333836362020202D312E3632393420202020302E303030302043202020302020302020302020302020302020302020302020302020302020302020302020300A2020202D302E333836362020202D302E3830343420202020302E303030302043202020302020302020302020302020302020302020302020302020302020302020302020300A2020202D312E313031312020202D302E3339313920202020302E303030302043202020302020302020302020302020302020302020302020302020302020302020302020300A20202020302E333237392020202D302E3339313920202020302E303030302043202020302020302020302020302020302020302020302020302020302020302020302020300A2020202D312E3130313120202020302E3433333120202020302E303030302043202020302020302020302020302020302020302020302020302020302020302020302020300A2020202D312E3831353520202020302E3834353620202020302E30303030204F202020302020302020302020302020302020302020302020302020302020302020302020300A2020202D302E3338363620202020302E3834353620202020302E30303030204F202020302020302020302020302020302020302020302020302020302020302020302020300A20202020302E3530363120202020302E3339313920202020302E303030302043202020302020302020302020302020302020302020302020302020302020302020302020300A20202020312E303433392020202D302E3038323520202020302E303030302043202020302020302020302020302020302020302020302020302020302020302020302020300A20202020302E3530363120202020312E3231363920202020302E303030302043202020302020302020302020302020302020302020302020302020302020302020302020300A20202020312E3232303620202020302E3830343420202020302E303030302048202020312020302020302020302020302020302020302020302020302020302020302020300A20202020312E3831353520202020302E3230393520202020302E303030302048202020312020302020302020302020302020302020302020302020302020302020302020300A20202020302E393833372020202D302E3930353320202020302E303030302048202020312020302020302020302020302020302020302020302020302020302020302020300A20202020312E363935312020202D302E3538393020202020302E303030302048202020312020302020302020302020302020302020302020302020302020302020302020300A2020202D302E3230383420202020312E3632393420202020302E303030302048202020312020302020302020302020302020302020302020302020302020302020302020300A20202020312E3232303620202020312E3632393420202020302E303030302048202020312020302020302020302020302020302020302020302020302020302020302020300A20202020302E3530363120202020322E3034313920202020302E303030302048202020312020302020302020302020302020302020302020302020302020302020302020300A2020312020322020322020302020202020200A2020322020332020312020302020202020200A2020332020342020322020302020202020200A2020342020352020312020302020202020200A2020352020362020322020302020202020200A2020362020312020312020302020202020200A2020352020372020312020302020202020200A2020362020382020312020302020202020200A2020382020392020322020302020202020200A2020382031302020312020302020202020200A2031312031322020312020302020202020200A2031312031332020312020302020202020200A2031312031342020312020302020202020200A2031322031352020312020302020202020200A2031322031362020312020302020202020200A2031322031372020312020302020202020200A2031332031382020312020302020202020200A2031332031392020312020302020202020200A2031332032302020312020302020202020200A2031312031302020312020302020202020200A4D202049534F20203720203134202020322020313520202032202031362020203220203137202020322020313820202032202031392020203220203230202020320A4D2020454E44
Contributor: TAJIMA S, GUNMA COLLEGE OF TECHNOLOGY
InstType: EI
InstName: HITACHI RMU-7M
IoniMethod: _ENERGY 70 eV
IonPolarity: pos
Date: 2010-10-09 19:48:36+02:00
Num Peaks: 28
28 15 30 51 31 39 39 63 41 24 42 15 43 17 45 25 46 107 50 176 
51 19 63 35 65 159 66 30 89 44 90 114 91 414 92 110 93 18 118 413 
119 999 120 117 135 19 136 17 137 519 138 68 185 120 186 10 
