Name: 4-METHYL-6-HEPTEN-4-OLIDE
MW: 140
Formula: C8H12O2
Synonym: MassBank: JP004789
Synonym: 4-METHYL-6-HEPTEN-4-OLIDE
Structure: 342D4D455448594C2D362D48455054454E2D342D4F4C4944452E6D6F6C0A20204368656D447261773034323131303032343532440A2031302031302020302020302020302020302020302020302020302020303939392056323030300A20202020312E3335383720202020302E3138323720202020302E303030302043202020302020302020302020302020302020302020302020302020302020302020302020300A20202020312E313837312020202D302E3632343320202020302E303030302043202020302020302020302020302020302020302020302020302020302020302020302020300A20202020302E333636362020202D302E3731303620202020302E303030302043202020302020302020302020302020302020302020302020302020302020302020302020300A20202020302E3033313120202020302E3034333120202020302E303030302043202020302020302020302020302020302020302020302020302020302020302020302020300A2020202D302E363833342020202D302E3336393420202020302E303030302043202020302020302020302020302020302020302020302020302020302020302020302020300A2020202D312E3339373920202020302E3034333120202020302E303030302043202020302020302020302020302020302020302020302020302020302020302020302020300A2020202D322E313132332020202D302E3336393420202020302E303030302043202020302020302020302020302020302020302020302020302020302020302020302020300A2020202D302E3435333820202020302E3731303620202020302E303030302043202020302020302020302020302020302020302020302020302020302020302020302020300A20202020322E3131323320202020302E3531383220202020302E30303030204F202020302020302020302020302020302020302020302020302020302020302020302020300A20202020302E3634343220202020302E3539353220202020302E30303030204F202020302020302020302020302020302020302020302020302020302020302020302020300A2020312020322020312020302020202020200A2020322020332020312020302020202020200A2020332020342020312020302020202020200A2020342020352020312020302020202020200A2020352020362020312020302020202020200A2020362020372020322020302020202020200A2020342020382020312020302020202020200A2020312020392020322020302020202020200A2020312031302020312020302020202020200A2020342031302020312020302020202020200A4D2020454E44
Contributor: MASS SPECTROSCOPY SOC. OF JAPAN (MSSJ)
InstType: EI
InstName: JEOL JMS-D-3000
IoniMethod: _ENERGY 70 eV
IonPolarity: pos
Date: 2010-10-09 19:48:36+02:00
Num Peaks: 12
55 26 57 79 67 15 69 12 71 123 79 18 81 29 85 18 99 999 100 61 
125 19 140 5 
