Name: PHENOL
MW: 94
Formula: C6H6O
Synonym: MassBank: JP004013
Synonym: PHENOL
Structure: 310A31390A5048454E4F4C2E6D6F6C0A20204368656D447261773038313231303035313732440A2020372020372020302020302020302020302020302020302020302020303939392056323030300A2020202D302E343132352020202D302E3030303020202020302E303030302043202020302020302020302020302020302020302020302020302020302020302020302020300A20202020302E3030303020202020302E3731343520202020302E303030302043202020302020302020302020302020302020302020302020302020302020302020302020300A20202020302E3832353020202020302E3731343520202020302E303030302043202020302020302020302020302020302020302020302020302020302020302020302020300A20202020312E323337352020202D302E3030303020202020302E303030302043202020302020302020302020302020302020302020302020302020302020302020302020300A20202020302E383235302020202D302E3731343520202020302E303030302043202020302020302020302020302020302020302020302020302020302020302020302020300A20202020302E303030302020202D302E3731343520202020302E303030302043202020302020302020302020302020302020302020302020302020302020302020302020300A2020202D312E323337352020202D302E3030303020202020302E30303030204F202020302020302020302020302020302020302020302020302020302020302020302020300A2020312020322020312020302020202020200A2020322020332020322020302020202020200A2020332020342020312020302020202020200A2020342020352020322020302020202020200A2020352020362020312020302020202020200A2020312020362020322020302020202020200A2020312020372020312020302020202020200A4D2020454E44
Contributor: MASS SPECTROSCOPY SOC. OF JAPAN (MSSJ)
InstType: EI
InstName: HITACHI RMU-6L
IoniMethod: _ENERGY 70 eV
IonPolarity: pos
Date: 2010-10-09 19:48:36+02:00
Num Peaks: 31
39 530 40 210 41 11 42 2 43 11 46 14 47 80 49 2 50 105 51 100 
52 20 53 6 54 13 55 153 61 51 62 7 63 109 64 35 65 390 66 46 
67 31 68 22 73 10 74 3 75 16 76 15 77 13 79 2 93 23 94 999 
95 101 
