Name: ACRYLAMIDE
CAS: 79-06-1
MW: 71
Formula: C3H5NO
Synonym: MassBank: JP007675
Synonym: ACRYLAMIDE
Synonym: 2-PROPENAMIDE
Structure: 310A31340A414352594C414D4944452E6D6F6C0A20204368656D447261773032323131303134343732440A2020352020342020302020302020302020302020302020302020302020303939392056323030300A20202020302E333537322020202D302E3230363220202020302E303030302043202020302020302020302020302020302020302020302020302020302020302020302020300A2020202D302E333537322020202D302E3631383820202020302E303030302043202020302020302020302020302020302020302020302020302020302020302020302020300A2020202D312E303731372020202D302E3230363320202020302E303030302043202020302020302020302020302020302020302020302020302020302020302020302020300A20202020302E3335373220202020302E3631383820202020302E30303030204F202020302020302020302020302020302020302020302020302020302020302020302020300A20202020312E303731372020202D302E3631383820202020302E30303030204E202020302020302020302020302020302020302020302020302020302020302020302020300A2020312020322020312020302020202020200A2020322020332020322020302020202020200A2020312020342020322020302020202020200A2020312020352020312020302020202020200A4D2020454E44
Contributor: TAJIMA S, GUNMA COLLEGE OF TECHNOLOGY
InstType: EI
InstName: HITACHI RMU-7M
IoniMethod: _ENERGY 70 eV
IonPolarity: pos
Date: 2010-10-09 19:48:36+02:00
Num Peaks: 28
16 67 17 44 25 82 26 580 27 996 28 158 29 99 30 121 37 29 38 53 
39 79 40 37 41 88 42 73 43 528 44 999 45 53 50 53 51 181 52 331 
53 361 54 65 55 789 56 46 57 26 70 55 71 743 72 65 
