Name: N-ACETYL-VALYL-PHENYLALANYL-ALANINE METHYLESTER
MW: 391
Formula: C20H29N3O5
Synonym: MassBank: JP000108
Synonym: N-ACETYL-VALYL-PHENYLALANYL-ALANINE METHYLESTER
Structure: 303035305F4E2D41434554594C2D56414C594C2D5048454E594C414C414E594C2D414C414E494E45204D455448594C45535445522E6D6F6C0A20204368656D447261773039303331303137313232440A2033312033312020302020302020302020302020302020302020302020303939392056323030300A2020202D322E323638382020202D322E3530303620202020302E303030302043202020302020302020302020302020302020302020302020302020302020302020302020300A2020202D312E303331332020202D312E3738363220202020302E30303030204E202020302020302020302020302020302020302020302020302020302020302020302020300A2020202D312E383536332020202D312E3738363220202020302E303030302043202020302020302020302020302020302020302020302020302020302020302020302020300A2020202D322E323638382020202D312E3037313720202020302E303030302043202020302020302020302020302020302020302020302020302020302020302020302020300A2020202D332E303933382020202D322E3530303620202020302E30303030204F202020302020302020302020302020302020302020302020302020302020302020302020300A2020202D312E383536332020202D332E3231353120202020302E30303030204F202020302020302020302020302020302020302020302020302020302020302020302020300A2020202D302E363138382020202D312E3037313720202020302E303030302043202020302020302020302020302020302020302020302020302020302020302020302020300A20202020302E363138382020202D302E3335373220202020302E30303030204E202020302020302020302020302020302020302020302020302020302020302020302020300A20202020302E323036322020202D312E3037313720202020302E303030302043202020302020302020302020302020302020302020302020302020302020302020302020300A20202020302E363138382020202D312E3738363220202020302E303030302043202020302020302020302020302020302020302020302020302020302020302020302020300A20202020312E343433382020202D312E3738363220202020302E303030302043202020302020302020302020302020302020302020302020302020302020302020302020300A20202020312E383536332020202D312E3037313720202020302E303030302043202020302020302020302020302020302020302020302020302020302020302020302020300A20202020322E363831322020202D312E3037313720202020302E303030302043202020302020302020302020302020302020302020302020302020302020302020302020300A20202020332E303933382020202D312E3738363220202020302E303030302043202020302020302020302020302020302020302020302020302020302020302020302020300A20202020322E363831322020202D322E3530303620202020302E303030302043202020302020302020302020302020302020302020302020302020302020302020302020300A20202020312E383536332020202D322E3530303620202020302E303030302043202020302020302020302020302020302020302020302020302020302020302020302020300A2020202D312E303331332020202D302E3335373220202020302E30303030204F202020302020302020302020302020302020302020302020302020302020302020302020300A20202020302E3230363220202020302E3335373220202020302E303030302043202020302020302020302020302020302020302020302020302020302020302020302020300A20202020302E3230363220202020312E3738363220202020302E30303030204E202020302020302020302020302020302020302020302020302020302020302020302020300A20202020302E3631383720202020312E3037313720202020302E303030302043202020302020302020302020302020302020302020302020302020302020302020302020300A20202020312E3434333720202020312E3037313720202020302E303030302043202020302020302020302020302020302020302020302020302020302020302020302020300A20202020312E3835363220202020312E3738363220202020302E303030302043202020302020302020302020302020302020302020302020302020302020302020302020300A20202020312E3835363320202020302E3335373220202020302E303030302043202020302020302020302020302020302020302020302020302020302020302020302020300A2020202D302E3631383820202020302E3335373220202020302E30303030204F202020302020302020302020302020302020302020302020302020302020302020302020300A20202020302E3631383720202020322E3530303620202020302E303030302043202020302020302020302020302020302020302020302020302020302020302020302020300A20202020302E3230363220202020332E3231353120202020302E30303030204F202020302020302020302020302020302020302020302020302020302020302020302020300A20202020312E3434333720202020322E3530303620202020302E303030302043202020302020302020302020302020302020302020302020302020302020302020302020300A2020202D312E303331332020202D332E3231353120202020302E303030302043202020302020302020302020302020302020302020302020302020302020302020302020300A20202020312E303331322020202D312E3037313720202020302E303030302048202020302020302020302020302020302020302020302020302020302020302020302020300A20202020312E3033313220202020302E3335373220202020302E303030302048202020302020302020302020302020302020302020302020302020302020302020302020300A2020202D312E343433382020202D322E3530303720202020302E303030302048202020302020302020302020302020302020302020302020302020302020302020302020300A2020322020332020312020302020202020200A2020312020332020312020302020202020200A2020332020342020312020312020202020200A2020312020352020322020302020202020200A2020312020362020312020302020202020200A2020392020382020312020302020202020200A2020392020372020312020312020202020200A2020392031302020312020302020202020200A2031302031312020312020302020202020200A2031312031322020312020302020202020200A2031322031332020322020302020202020200A2031332031342020312020302020202020200A2031342031352020322020302020202020200A2031352031362020312020302020202020200A2031312031362020322020302020202020200A2020372031372020322020302020202020200A2032302031392020312020312020202020200A2031382032302020312020302020202020200A2032302032312020312020302020202020200A2032312032322020312020302020202020200A2032312032332020312020302020202020200A2031382032342020322020302020202020200A2020382031382020312020302020202020200A2020322020372020312020302020202020200A2032352032362020322020302020202020200A2032352032372020312020302020202020200A2031392032352020312020302020202020200A2020362032382020312020302020202020200A2020392032392020312020312020202020200A2032302033302020312020312020202020200A2020332033312020312020312020202020200A4D2020454E44
Contributor: YAMAMOTO M, DEP. CHEMISTRY, FAC. SCIENCE, NARA WOMEN'S UNIV.
InstType: EI
InstName: HITACHI RMU-6M
IoniMethod: _ENERGY 70 eV
IonPolarity: pos
Date: 2010-10-09 19:48:36+02:00
Num Peaks: 78
15 77 27 33 28 87 29 4 30 69 31 11 39 23 41 5 42 42 43 199 
44 196 51 1 54 11 55 170 56 59 57 4 58 65 59 29 60 27 65 2 
69 25 70 52 71 26 72 72 73 43 77 31 78 14 83 2 91 13 92 33 
93 12 99 3 100 45 102 42 103 57 104 7 105 16 112 11 114 393 115 9 
117 13 118 21 119 72 120 999 121 102 127 12 128 35 131 11 132 23 142 219 
143 20 146 4 147 12 159 34 174 117 175 3 189 12 203 12 217 23 218 1 
229 12 233 115 234 102 235 4 250 28 251 16 261 15 262 2 277 21 288 13 
289 45 290 1 247 12 348 10 360 13 391 10 392 32 393 10 
