Name: 4-BROMO-1-BUTENE
CAS: 5162-44-7
MW: 133
Formula: C4H7Br
Synonym: MassBank: JP006371
Synonym: 4-BROMO-1-BUTENE
Structure: 310A31340A342D42524F4D4F2D312D425554454E452E6D6F6C0A20204368656D447261773033323531303037333832440A2020352020342020302020302020302020302020302020302020302020303939392056323030300A20202020312E3432383920202020302E3230363220202020302E303030302043202020302020302020302020302020302020302020302020302020302020302020302020300A20202020302E373134352020202D302E3230363220202020302E303030302043202020302020302020302020302020302020302020302020302020302020302020302020300A2020202D302E3030303020202020302E3230363220202020302E303030302043202020302020302020302020302020302020302020302020302020302020302020302020300A2020202D302E373134352020202D302E3230363220202020302E303030302043202020302020302020302020302020302020302020302020302020302020302020302020300A2020202D312E3432383920202020302E3230363220202020302E303030302042722020302020302020302020302020302020302020302020302020302020302020302020300A2020312020322020322020302020202020200A2020322020332020312020302020202020200A2020332020342020312020302020202020200A2020342020352020312020302020202020200A4D2020454E44
Contributor: HISAHIRO HAGIWARA, CHEMICAL RESEARCH INSTITUTE OF NON-AQUEOUSSOLUTIONS TOHOKU UNIV.
InstType: EI
InstName: JEOL JMS-DX-300
IoniMethod: _ENERGY 70 eV
IonPolarity: pos
Date: 2010-10-09 19:48:36+02:00
Num Peaks: 21
37 20 38 31 39 177 40 14 41 155 42 76 43 993 44 22 50 16 53 59 
54 34 55 999 56 53 57 15 58 484 59 16 80 19 82 19 108 15 134 62 
136 60 
