Name: MassBank: JP003930
MW: 107
Formula: C7H9N
Synonym: MassBank: JP003930
Synonym: 2,4-DIMETHYLPYRIDINE
Structure: 310A32310A322C342D44494D455448594C5059524944494E452E6D6F6C0A20204368656D447261773132323030393139323932440A2020382020382020302020302020302020302020302020302020302020303939392056323030300A20202020302E373134352020202D302E3431323520202020302E303030302043202020302020302020302020302020302020302020302020302020302020302020302020300A2020202D302E303030302020202D302E3832353020202020302E303030302043202020302020302020302020302020302020302020302020302020302020302020302020300A2020202D302E373134352020202D302E3431323520202020302E303030302043202020302020302020302020302020302020302020302020302020302020302020302020300A2020202D302E3731343520202020302E3431323520202020302E303030302043202020302020302020302020302020302020302020302020302020302020302020302020300A20202020302E3030303020202020302E3832353020202020302E303030302043202020302020302020302020302020302020302020302020302020302020302020302020300A20202020302E3731343520202020302E3431323520202020302E30303030204E202020302020302020302020302020302020302020302020302020302020302020302020300A2020202D312E343238392020202D302E3832353020202020302E303030302043202020302020302020302020302020302020302020302020302020302020302020302020300A20202020312E343238392020202D302E3832353020202020302E303030302043202020302020302020302020302020302020302020302020302020302020302020302020300A2020312020322020312020302020202020200A2020322020332020322020302020202020200A2020332020342020312020302020202020200A2020342020352020322020302020202020200A2020352020362020312020302020202020200A2020312020362020322020302020202020200A2020332020372020312020302020202020200A2020312020382020312020302020202020200A4D2020454E44
Contributor: MASS SPECTROSCOPY SOC. OF JAPAN (MSSJ)
InstType: EI
InstName: Unknown
IoniMethod: EI
IonPolarity: pos
Date: 2010-10-09 19:48:36+02:00
Num Peaks: 37
37 38 38 90 39 34 40 8 41 69 42 65 44 26 49 2 50 63 51 52 
52 80 53 7 54 29 61 31 62 22 63 7 64 40 65 140 66 105 67 4 
68 29 75 27 77 79 78 5 79 213 80 57 81 29 91 3 92 174 93 62 
104 28 105 3 106 370 107 999 108 73 120 5 121 64 
