Name: 3-METHYL-1-BUTANOL
MW: 88
Formula: C5H12O
Synonym: MassBank: JP005672
Synonym: 3-METHYL-1-BUTANOL
Structure: 310A31360A332D4D455448594C2D312D425554414E4F4C2E6D6F6C0A20204368656D447261773032323231303233323132440A2020362020352020302020302020302020302020302020302020302020303939392056323030300A2020202D302E373134352020202D302E3230363220202020302E303030302043202020302020302020302020302020302020302020302020302020302020302020302020300A20202020302E303030302020202D302E3631383820202020302E303030302043202020302020302020302020302020302020302020302020302020302020302020302020300A20202020302E373134352020202D302E3230363220202020302E303030302043202020302020302020302020302020302020302020302020302020302020302020302020300A20202020302E3731343520202020302E3631383820202020302E303030302043202020302020302020302020302020302020302020302020302020302020302020302020300A2020202D312E343238392020202D302E3631383820202020302E30303030204F202020302020302020302020302020302020302020302020302020302020302020302020300A20202020312E343238392020202D302E3631383820202020302E303030302043202020302020302020302020302020302020302020302020302020302020302020302020300A2020312020322020312020302020202020200A2020322020332020312020302020202020200A2020332020342020312020302020202020200A2020312020352020312020302020202020200A2020332020362020312020302020202020200A4D2020454E44
Contributor: HASHIMOTO K, KYOTO COLLEGE OF PHARMACY
InstType: EI
InstName: HITACHI M-80
IoniMethod: _ENERGY 20 eV
IonPolarity: pos
Date: 2010-10-09 19:48:36+02:00
Num Peaks: 24
27 107 28 81 29 227 31 236 39 60 40 19 41 484 42 780 43 597 44 42 
45 161 46 68 47 13 53 20 54 15 55 999 56 122 57 255 58 12 69 72 
70 784 71 139 87 6 88 1 
