Name: CYCLOOCTANOL
MW: 128
Formula: C8H16O
Synonym: MassBank: JP006783
Synonym: CYCLOOCTANOL
Structure: 310A32330A4359434C4F4F4354414E4F4C2E6D6F6C0A20204368656D447261773039323031303038353132440A2020392020392020302020302020302020302020302020302020302020303939392056323030300A2020202D302E363139352020202D302E3339393820202020302E303030302043202020302020302020302020302020302020302020302020302020302020302020302020300A2020202D302E3631393520202020302E3432353220202020302E303030302043202020302020302020302020302020302020302020302020302020302020302020302020300A2020202D302E3033343320202020312E3031303420202020302E303030302043202020302020302020302020302020302020302020302020302020302020302020302020300A20202020302E3739373520202020312E3031303420202020302E303030302043202020302020302020302020302020302020302020302020302020302020302020302020300A20202020312E3338383020202020302E3431393920202020302E303030302043202020302020302020302020302020302020302020302020302020302020302020302020300A20202020312E333838302020202D302E3431373120202020302E303030302043202020302020302020302020302020302020302020302020302020302020302020302020300A20202020302E373934382020202D312E3031303420202020302E303030302043202020302020302020302020302020302020302020302020302020302020302020302020300A2020202D302E303434392020202D312E3031303420202020302E303030302043202020302020302020302020302020302020302020302020302020302020302020302020300A2020202D312E333838302020202D302E3730383820202020302E30303030204F202020302020302020302020302020302020302020302020302020302020302020302020300A2020312020322020312020302020202020200A2020322020332020312020302020202020200A2020332020342020312020302020202020200A2020342020352020312020302020202020200A2020352020362020312020302020202020200A2020362020372020312020302020202020200A2020372020382020312020302020202020200A2020312020382020312020302020202020200A2020312020392020312020302020202020200A4D2020454E44
Contributor: TAJIMA S, GUNMA COLLEGE OF TECHNOLOGY
InstType: EI
InstName: HITACHI RMU-7M
IoniMethod: _ENERGY 70 eV
IonPolarity: pos
Date: 2010-10-09 19:48:36+02:00
Num Peaks: 39
15 16 27 181 28 44 29 215 31 82 39 171 40 35 41 477 42 195 43 301 
44 255 45 67 53 53 54 195 55 323 56 221 57 999 58 90 66 82 67 421 
68 425 69 251 70 37 71 97 72 44 81 323 82 343 83 41 84 70 85 78 
86 20 95 119 99 41 109 26 110 82 111 195 112 16 127 22 128 10 
