Name: 3-METHYL-2-PENTYL-2-CYCLOPENTENONE
MW: 166
Formula: C11H18O
Synonym: MassBank: JP005811
Synonym: 3-METHYL-2-PENTYL-2-CYCLOPENTENONE
Synonym: 3-METHYL2-PENTYL-2-CYCLOPENTENE-1-ONE
Structure: 332D4D455448594C2D322D50454E54594C2D322D4359434C4F50454E54454E4F4E452E6D6F6C0A20204368656D447261773033323031303030323032440A2031322031322020302020302020302020302020302020302020302020303939392056323030300A2020202D312E323139362020202D302E3730353520202020302E303030302043202020302020302020302020302020302020302020302020302020302020302020302020300A2020202D312E3133333320202020302E3131353020202020302E303030302043202020302020302020302020302020302020302020302020302020302020302020302020300A2020202D312E3838373020202020302E3435303520202020302E303030302043202020302020302020302020302020302020302020302020302020302020302020302020300A2020202D322E343339302020202D302E3136323520202020302E303030302043202020302020302020302020302020302020302020302020302020302020302020302020300A2020202D322E303236352020202D302E3837373020202020302E303030302043202020302020302020302020302020302020302020302020302020302020302020302020300A2020202D302E3431383920202020302E3532373520202020302E303030302043202020302020302020302020302020302020302020302020302020302020302020302020300A20202020302E3239353620202020302E3131353020202020302E303030302043202020302020302020302020302020302020302020302020302020302020302020302020300A20202020312E3031303120202020302E3532373520202020302E303030302043202020302020302020302020302020302020302020302020302020302020302020302020300A20202020312E3732343620202020302E3131353020202020302E303030302043202020302020302020302020302020302020302020302020302020302020302020302020300A20202020322E3433393020202020302E3532373520202020302E303030302043202020302020302020302020302020302020302020302020302020302020302020302020300A2020202D322E3035383520202020312E3235373520202020302E303030302043202020302020302020302020302020302020302020302020302020302020302020302020300A2020202D302E363036352020202D312E3235373520202020302E30303030204F202020302020302020302020302020302020302020302020302020302020302020302020300A2020312020322020312020302020202020200A2020322020332020322020302020202020200A2020332020342020312020302020202020200A2020342020352020312020302020202020200A2020312020352020312020302020202020200A2020362020372020312020302020202020200A2020372020382020312020302020202020200A2020382020392020312020302020202020200A2020392031302020312020302020202020200A2020322020362020312020302020202020200A2020332031312020312020302020202020200A2020312031322020322020302020202020200A4D2020454E44
Contributor: HASHIMOTO K, KYOTO COLLEGE OF PHARMACY
InstType: EI
InstName: HITACHI M-80
IoniMethod: _ENERGY 20 eV
IonPolarity: pos
Date: 2010-10-09 19:48:36+02:00
Num Peaks: 67
27 11 29 114 39 11 41 280 42 18 43 244 53 367 54 388 55 475 56 45 
57 102 65 12 66 46 67 569 68 324 69 149 70 62 71 73 77 37 78 10 
79 158 80 125 81 668 82 775 83 138 84 97 85 21 91 106 92 31 93 142 
94 99 95 809 96 237 97 152 98 73 103 11 104 46 105 19 106 49 107 39 
108 35 109 543 110 838 111 567 112 41 113 10 119 317 120 59 121 65 122 58 
123 799 124 290 125 42 133 83 134 10 135 22 136 10 137 999 138 247 139 19 
148 59 149 10 151 141 152 13 165 62 166 612 167 61 
