Name: (S)-N-TERT-BUTOXYCARBONYL-2-(1-PYRROLIN-2-YL)PYRROLIDINE
MW: 238
Formula: C13H22N2O2
Synonym: MassBank: JP005466
Synonym: (S)-N-TERT-BUTOXYCARBONYL-2-(1-PYRROLIN-2-YL)PYRROLIDINE
Structure: 2853292D4E2D544552542D4255544F5859434152424F4E594C2D322D28312D505952524F4C494E2D322D594C29505952524F4C4944494E452E6D6F6C0A20204368656D447261773130323230393139323432440A2031382031392020302020302020302020302020302020302020302020303939392056323030300A2020202D312E343638302020202D322E3035303820202020302E303030302043202020302020302020302020302020302020302020302020302020302020302020302020300A2020202D302E363433302020202D322E3035303820202020302E303030302043202020302020302020302020302020302020302020302020302020302020302020302020300A2020202D302E333838312020202D312E3236363220202020302E303030302043202020302020302020302020302020302020302020302020302020302020302020302020300A2020202D312E303535352020202D302E3738313320202020302E30303030204E202020302020302020302020302020302020302020302020302020302020302020302020300A2020202D312E373232392020202D312E3236363220202020302E303030302043202020302020302020302020302020302020302020302020302020302020302020302020300A20202020302E343336392020202D312E3236363220202020302E303030302043202020302020302020302020302020302020302020302020302020302020302020302020300A20202020302E363530352020202D322E3036333120202020302E303030302043202020302020302020302020302020302020302020302020302020302020302020302020300A20202020312E343734332020202D322E3130363220202020302E303030302043202020302020302020302020302020302020302020302020302020302020302020302020300A20202020312E373730302020202D312E3333363020202020302E303030302043202020302020302020302020302020302020302020302020302020302020302020302020300A20202020312E313238382020202D302E3831363920202020302E30303030204E202020302020302020302020302020302020302020302020302020302020302020302020300A2020202D302E313333312020202D302E3438313620202020302E303030302048202020302020302020302020302020302020302020302020302020302020302020302020300A2020202D312E3035353520202020302E3034333720202020302E303030302043202020302020302020302020302020302020302020302020302020302020302020302020300A2020202D302E3334313020202020302E3435363220202020302E30303030204F202020302020302020302020302020302020302020302020302020302020302020302020300A2020202D312E3737303020202020302E3435363220202020302E30303030204F202020302020302020302020302020302020302020302020302020302020302020302020300A2020202D302E3334313020202020312E3238313220202020302E303030302043202020302020302020302020302020302020302020302020302020302020302020302020300A2020202D302E3334313020202020322E3130363220202020302E303030302043202020302020302020302020302020302020302020302020302020302020302020302020300A20202020302E3438343020202020312E3238313220202020302E303030302043202020302020302020302020302020302020302020302020302020302020302020302020300A2020202D312E3136363020202020312E3238313220202020302E303030302043202020302020302020302020302020302020302020302020302020302020302020302020300A2020312020322020312020302020202020200A2020322020332020312020302020202020200A2020332020342020312020302020202020200A2020342020352020312020302020202020200A2020352020312020312020302020202020200A2020332020362020312020362020202020200A2020362020372020312020302020202020200A2020372020382020312020302020202020200A2020382020392020312020302020202020200A2020392031302020312020302020202020200A2031302020362020322020302020202020200A2020332031312020312020312020202020200A2020342031322020312020302020202020200A2031322031332020312020302020202020200A2031322031342020322020302020202020200A2031332031352020312020302020202020200A2031352031362020312020302020202020200A2031352031372020312020302020202020200A2031352031382020312020302020202020200A4D2020454E44
Contributor: HIRAMA M, TOHOKU UNIV. FACULTY OF SCIENCE DEPT. OF CHEMISTRY YUKIBUNSEKI
InstType: EI
InstName: HITACHI M-52
IoniMethod: _ENERGY 14 eV
IonPolarity: pos
Date: 2010-10-09 19:48:36+02:00
Num Peaks: 9
57 279 70 101 83 48 96 84 114 46 120 80 121 999 122 38 182 38 
