Name: ALPHA-PICOLINE
MW: 93
Formula: C6H7N
Synonym: MassBank: JP005290
Synonym: ALPHA-PICOLINE
Synonym: 2-METHYLPYRIDINE
Structure: 310A31390A414C5048412D5049434F4C494E452E6D6F6C0A20204368656D447261773038303631303131303232440A2020372020372020302020302020302020302020302020302020302020303939392056323030300A2020202D302E3335373220202020302E3431323520202020302E303030302043202020302020302020302020302020302020302020302020302020302020302020302020300A2020202D302E333537322020202D302E3431323520202020302E303030302043202020302020302020302020302020302020302020302020302020302020302020302020300A20202020302E333537322020202D302E3832353020202020302E303030302043202020302020302020302020302020302020302020302020302020302020302020302020300A20202020312E303731372020202D302E3431323520202020302E303030302043202020302020302020302020302020302020302020302020302020302020302020302020300A20202020312E3037313720202020302E3431323520202020302E303030302043202020302020302020302020302020302020302020302020302020302020302020302020300A20202020302E3335373220202020302E3832353020202020302E30303030204E202020302020302020302020302020302020302020302020302020302020302020302020300A2020202D312E3037313720202020302E3832353020202020302E303030302043202020302020302020302020302020302020302020302020302020302020302020302020300A2020312020322020322020302020202020200A2020322020332020312020302020202020200A2020332020342020322020302020202020200A2020342020352020312020302020202020200A2020352020362020322020302020202020200A2020362020312020312020302020202020200A2020312020372020312020302020202020200A4D2020454E44
Contributor: YAMAMOTO M, DEP. CHEMISTRY, FAC. SCIENCE, NARA WOMEN'S UNIV.
InstType: EI
InstName: HITACHI RMU-6M
IoniMethod: _ENERGY 70 eV
IonPolarity: pos
Date: 2010-10-09 19:48:36+02:00
Num Peaks: 30
15 11 26 33 27 38 28 38 37 30 38 57 39 174 40 63 41 32 42 34 
46.5 27 49 11 50 68 51 122 52 68 53 45 54 19 61 16 62 21 63 48 
64 32 65 137 66 387 67 76 78 165 79 13 91 19 92 185 93 999 94 67 
