Name: MassBank: JP009358
MW: 213
Formula: C14H15NO
Synonym: MassBank: JP009358
Synonym: 3-(1,3-PENTADIENYL)-5-PHENYL-2-ISOXAZOLINE
Structure: 332D28312C332D50454E54414449454E594C292D352D5048454E594C2D322D49534F58415A4F4C494E452E6D6F6C0A20204368656D447261773032323231303038353532440A2031362031372020302020302020302020302020302020302020302020303939392056323030300A2020202D302E363637322020202D302E3930383320202020302E30303030204F202020302020302020302020302020302020302020302020302020302020302020302020300A20202020302E313137342020202D302E3635333320202020302E30303030204E202020302020302020302020302020302020302020302020302020302020302020302020300A20202020302E3131373420202020302E3137313720202020302E303030302043202020302020302020302020302020302020302020302020302020302020302020302020300A2020202D302E3636373220202020302E3432363620202020302E303030302043202020302020302020302020302020302020302020302020302020302020302020302020300A2020202D312E313532312020202D302E3234303820202020302E303030302043202020302020302020302020302020302020302020302020302020302020302020302020300A2020202D312E393737312020202D302E3234303820202020302E303030302043202020302020302020302020302020302020302020302020302020302020302020302020300A2020202D322E3338393620202020302E3437333620202020302E303030302043202020302020302020302020302020302020302020302020302020302020302020302020300A2020202D332E3231343620202020302E3437333620202020302E303030302043202020302020302020302020302020302020302020302020302020302020302020302020300A2020202D332E363237312020202D302E3234303820202020302E303030302043202020302020302020302020302020302020302020302020302020302020302020302020300A2020202D332E323134362020202D302E3935353320202020302E303030302043202020302020302020302020302020302020302020302020302020302020302020302020300A2020202D322E333839362020202D302E3935353320202020302E303030302043202020302020302020302020302020302020302020302020302020302020302020302020300A20202020302E3738343920202020302E3635363620202020302E303030302043202020302020302020302020302020302020302020302020302020302020302020302020300A20202020312E3533383620202020302E3332313020202020302E303030302043202020302020302020302020302020302020302020302020302020302020302020302020300A20202020322E3230363020202020302E3830353920202020302E303030302043202020302020302020302020302020302020302020302020302020302020302020302020300A20202020322E3935393720202020302E3437303420202020302E303030302043202020302020302020302020302020302020302020302020302020302020302020302020300A20202020332E3632373120202020302E3935353320202020302E303030302043202020302020302020302020302020302020302020302020302020302020302020302020300A2020312020322020312020302020202020200A2020322020332020322020302020202020200A2020332020342020312020302020202020200A2020342020352020312020302020202020200A2020312020352020312020302020202020200A2020362020372020312020302020202020200A2020372020382020322020302020202020200A2020382020392020312020302020202020200A2020392031302020322020302020202020200A2031302031312020312020302020202020200A2020362031312020322020302020202020200A2020352020362020312020302020202020200A2031322031332020322020302020202020200A2031332031342020312020302020202020200A2031342031352020322020302020202020200A2031352031362020312020302020202020200A2020332031322020312020302020202020200A4D2020454E44
Contributor: KANEMASA S, INST. OF ADVANCED MATERIAL STUDY KYUSHU UNIV.
InstType: EI
InstName: JEOL JMS-01-SG-2
IoniMethod: _ENERGY 75 eV
IonPolarity: pos
Date: 2010-10-09 19:48:36+02:00
Num Peaks: 53
37 59 38 501 39 85 40 276 50 142 51 436 52 171 53 147 55 87 63 152 
65 263 66 133 76 59 77 685 78 386 79 116 80 113 89 83 91 356 92 161 
102 63 103 257 104 464 105 187 115 194 128 121 129 65 130 88 139 28 141 106 
142 43 143 24 152 18 153 80 154 40 155 51 165 65 166 30 167 61 168 95 
169 26 170 27 180 249 181 49 183 20 194 22 196 25 198 999 199 152 200 18 
212 30 213 296 214 53 
