Name: CYCLOHEXANOL
MW: 100
Formula: C6H12O
Synonym: MassBank: JP003602
Synonym: CYCLOHEXANOL
Structure: 310A31390A4359434C4F484558414E4F4C2E6D6F6C0A20204368656D447261773039313531303035343632440A2020372020372020302020302020302020302020302020302020302020303939392056323030300A2020202D302E3431323520202020302E3030303020202020302E303030302043202020302020302020302020302020302020302020302020302020302020302020302020300A20202020302E3030303020202020302E3731343520202020302E303030302043202020302020302020302020302020302020302020302020302020302020302020302020300A20202020302E3832353020202020302E3731343520202020302E303030302043202020302020302020302020302020302020302020302020302020302020302020302020300A20202020312E323337352020202D302E3030303020202020302E303030302043202020302020302020302020302020302020302020302020302020302020302020302020300A20202020302E383235302020202D302E3731343520202020302E303030302043202020302020302020302020302020302020302020302020302020302020302020302020300A20202020302E303030302020202D302E3731343520202020302E303030302043202020302020302020302020302020302020302020302020302020302020302020302020300A2020202D312E3233373520202020302E3030303020202020302E30303030204F202020302020302020302020302020302020302020302020302020302020302020302020300A2020312020322020312020302020202020200A2020322020332020312020302020202020200A2020332020342020312020302020202020200A2020342020352020312020302020202020200A2020352020362020312020302020202020200A2020312020362020312020302020202020200A2020312020372020312020302020202020200A4D2020454E44
Contributor: MASS SPECTROSCOPY SOC. OF JAPAN (MSSJ)
InstType: EI
InstName: Unknown
IoniMethod: EI
IonPolarity: pos
Date: 2010-10-09 19:48:36+02:00
Num Peaks: 38
29 292 30 30 31 110 37 3 38 50 39 430 40 80 41 43 42 160 43 230 
44 230 45 4 50 70 51 80 52 35 53 11 54 335 55 180 56 130 57 999 
58 73 66 40 67 673 68 6 69 30 70 30 71 127 72 7 77 50 78 30 
79 70 80 2 81 90 82 520 83 50 98 3 99 20 100 18 
