Name: TRI-BUTYLTIN CHLORIDE
MW: 326
Formula: C12H27ClSn
Synonym: MassBank: JP002170
Synonym: TRI-BUTYLTIN CHLORIDE
Structure: 5452492D425554594C54494E2043484C4F524944452E6D6F6C0A20204368656D447261773038313231303038313532440A2031342031332020302020302020302020302020302020302020302020303939392056323030300A20202020302E313931342020202D302E3838303320202020302E3030303020536E2020302020302020302020302020302020302020302020302020302020302020302020300A20202020302E393035392020202D302E3436373820202020302E303030302043202020302020302020302020302020302020302020302020302020302020302020302020300A20202020302E3930353920202020302E3335373220202020302E303030302043202020302020302020302020302020302020302020302020302020302020302020302020300A20202020302E3139313420202020302E3736393720202020302E303030302043202020302020302020302020302020302020302020302020302020302020302020302020300A20202020302E3139313420202020312E3539343720202020302E303030302043202020302020302020302020302020302020302020302020302020302020302020302020300A20202020302E363033392020202D312E3539343720202020302E303030302043202020302020302020302020302020302020302020302020302020302020302020302020300A20202020312E343238392020202D312E3539343720202020302E303030302043202020302020302020302020302020302020302020302020302020302020302020302020300A20202020312E383431342020202D302E3838303320202020302E303030302043202020302020302020302020302020302020302020302020302020302020302020302020300A20202020322E363636342020202D302E3838303320202020302E303030302043202020302020302020302020302020302020302020302020302020302020302020302020300A2020202D302E353233302020202D312E3239323820202020302E303030302043202020302020302020302020302020302020302020302020302020302020302020302020300A2020202D312E323337352020202D302E3838303320202020302E303030302043202020302020302020302020302020302020302020302020302020302020302020302020300A2020202D312E393532302020202D312E3239323820202020302E303030302043202020302020302020302020302020302020302020302020302020302020302020302020300A2020202D322E363636342020202D302E3838303320202020302E303030302043202020302020302020302020302020302020302020302020302020302020302020302020300A2020202D302E323231312020202D302E3136353820202020302E3030303020436C2020302020302020302020302020302020302020302020302020302020302020302020300A2020322020332020312020302020202020200A2020332020342020312020302020202020200A2020342020352020312020302020202020200A2020312020322020312020302020202020200A2020362020372020312020302020202020200A2020372020382020312020302020202020200A2020382020392020312020302020202020200A2020312020362020312020302020202020200A2031302031312020312020302020202020200A2031312031322020312020302020202020200A2031322031332020312020302020202020200A2020312031302020312020302020202020200A2020312031342020312020302020202020200A4D2020454E44
Contributor: KOGA M, UNIV. OF OCCUPATIONAL AND ENVIRONMENTAL HEALTH
InstType: EI
InstName: VARIAN MAT-44
IoniMethod: _ENERGY 70 eV
IonPolarity: pos
Date: 2010-10-09 19:48:36+02:00
Num Peaks: 90
51 12 53 32 54 17 55 118 56 129 57 999 58 62 69 20 71 18 115 10 
116 39 117 90 118 94 119 152 120 119 121 189 122 18 123 42 124 13 125 35 
133 16 134 11 135 18 145 15 147 27 149 27 150 24 151 122 152 106 153 232 
154 142 155 323 156 47 157 127 158 11 159 59 161 15 171 11 172 22 173 111 
174 96 175 199 176 121 177 251 178 42 179 77 180 17 181 52 182 11 183 17 
207 24 208 41 209 129 210 118 211 224 212 143 213 254 214 55 215 96 216 16 
217 45 219 11 230 12 231 28 232 31 233 43 234 37 235 40 261 18 263 25 
264 76 265 250 266 281 267 448 268 368 269 522 270 154 271 216 272 48 273 104 
274 17 275 28 287 48 288 46 289 77 290 56 291 91 292 17 293 15 295 16 
