Name: MassBank: JP008867
MW: 121
Formula: C8H11N
Synonym: MassBank: JP008867
Synonym: 3,4-XYLIDINE
Synonym: 3,4-DIMETHYLANILINE
Structure: 310A32330A332C342D58594C4944494E452E6D6F6C0A20204368656D447261773032323131303232353132440A2020392020392020302020302020302020302020302020302020302020303939392056323030300A20202020312E343238392020202D302E3832353020202020302E30303030204E202020302020302020302020302020302020302020302020302020302020302020302020300A20202020302E373134352020202D302E3431323520202020302E303030302043202020302020302020302020302020302020302020302020302020302020302020302020300A2020202D302E303030302020202D302E3832353020202020302E303030302043202020302020302020302020302020302020302020302020302020302020302020302020300A2020202D302E373134352020202D302E3431323520202020302E303030302043202020302020302020302020302020302020302020302020302020302020302020302020300A2020202D302E3731343520202020302E3431323520202020302E303030302043202020302020302020302020302020302020302020302020302020302020302020302020300A20202020302E3030303020202020302E3832353020202020302E303030302043202020302020302020302020302020302020302020302020302020302020302020302020300A20202020302E3731343520202020302E3431323520202020302E303030302043202020302020302020302020302020302020302020302020302020302020302020302020300A2020202D312E343238392020202D302E3832353020202020302E303030302043202020302020302020302020302020302020302020302020302020302020302020302020300A2020202D312E3432383920202020302E3832353020202020302E303030302043202020302020302020302020302020302020302020302020302020302020302020302020300A2020312020322020312020302020202020200A2020322020332020312020302020202020200A2020332020342020322020302020202020200A2020342020352020312020302020202020200A2020352020362020322020302020202020200A2020362020372020312020302020202020200A2020322020372020322020302020202020200A2020342020382020312020302020202020200A2020352020392020312020302020202020200A4D2020454E44
Contributor: TAJIMA S, GUNMA COLLEGE OF TECHNOLOGY
InstType: EI
InstName: HITACHI RMU-7M
IoniMethod: _ENERGY 70 eV
IonPolarity: pos
Date: 2010-10-09 19:48:36+02:00
Num Peaks: 35
27 24 28 29 30 11 39 55 41 29 42 24 50 20 51 45 52 33 53 42 
54 17 58.5 22 59.5 19 60.5 14 63 22 65 40 66 18 77 118 78 36 79 34 
80 25 91 81 92 22 93 52 94 19 103 28 104 25 105 16 106 567 107 61 
118 37 119 36 120 810 121 999 122 117 
