Name: DIBUTYL 3-METHYL-1-(N-TRIFLUOROACETYLAMINO)BUTYLPHOSPHONATE
MW: 375
Formula: C15H29F3NO4P
Synonym: MassBank: JP004547
Synonym: DIBUTYL 3-METHYL-1-(N-TRIFLUOROACETYLAMINO)BUTYLPHOSPHONATE
Structure: 4449425554594C20332D4D455448594C2D312D284E2D545249464C554F524F41434554594C414D494E4F29425554594C50484F5350484F4E4154452E6D6F6C0A20204368656D447261773039323131303137333432440A2032342032332020302020302020302020302020302020302020302020303939392056323030300A20202020302E3232313120202020302E3637343020202020302E303030302050202020302020302020302020302020302020302020302020302020302020302020302020300A20202020302E3232313120202020312E3439393020202020302E303030302043202020302020302020302020302020302020302020302020302020302020302020302020300A20202020302E323231312020202D302E3135313020202020302E30303030204F202020302020302020302020302020302020302020302020302020302020302020302020300A20202020312E3034363120202020302E3637343020202020302E30303030204F202020302020302020302020302020302020302020302020302020302020302020302020300A2020202D302E3630333920202020302E3637343020202020302E30303030204F202020302020302020302020302020302020302020302020302020302020302020302020300A20202020302E393335352020202D302E3536333520202020302E303030302043202020302020302020302020302020302020302020302020302020302020302020302020300A20202020302E393335352020202D312E3338383520202020302E303030302043202020302020302020302020302020302020302020302020302020302020302020302020300A20202020312E363530302020202D312E3830313020202020302E303030302043202020302020302020302020302020302020302020302020302020302020302020302020300A20202020312E363530302020202D322E3632363020202020302E303030302043202020302020302020302020302020302020302020302020302020302020302020302020300A2020202D312E303136342020202D302E3034303520202020302E303030302043202020302020302020302020302020302020302020302020302020302020302020302020300A2020202D312E383431342020202D302E3034303520202020302E303030302043202020302020302020302020302020302020302020302020302020302020302020302020300A2020202D322E323533392020202D302E3735343920202020302E303030302043202020302020302020302020302020302020302020302020302020302020302020302020300A2020202D332E303738392020202D302E3735343920202020302E303030302043202020302020302020302020302020302020302020302020302020302020302020302020300A2020202D302E3439333420202020312E3931313520202020302E303030302043202020302020302020302020302020302020302020302020302020302020302020302020300A20202020302E3933353520202020312E3931313520202020302E30303030204E202020302020302020302020302020302020302020302020302020302020302020302020300A2020202D312E3230373920202020312E3439393020202020302E303030302043202020302020302020302020302020302020302020302020302020302020302020302020300A20202020312E3635303020202020312E3439393020202020302E303030302043202020302020302020302020302020302020302020302020302020302020302020302020300A20202020322E3336343520202020312E3931313520202020302E303030302043202020302020302020302020302020302020302020302020302020302020302020302020300A20202020312E3635303020202020302E3637343020202020302E30303030204F202020302020302020302020302020302020302020302020302020302020302020302020300A20202020332E3037383920202020322E3332343020202020302E303030302046202020302020302020302020302020302020302020302020302020302020302020302020300A20202020312E3935323020202020322E3632363020202020302E303030302046202020302020302020302020302020302020302020302020302020302020302020302020300A20202020322E3737373020202020312E3139373020202020302E303030302046202020302020302020302020302020302020302020302020302020302020302020302020300A2020202D312E3932323420202020312E3931313520202020302E303030302043202020302020302020302020302020302020302020302020302020302020302020302020300A2020202D312E3230373920202020302E3637343020202020302E303030302043202020302020302020302020302020302020302020302020302020302020302020302020300A2020312020322020312020302020202020200A2020312020332020312020302020202020200A2020312020342020322020302020202020200A2020312020352020312020302020202020200A2020332020362020312020302020202020200A2020362020372020312020302020202020200A2020372020382020312020302020202020200A2020382020392020312020302020202020200A2020352031302020312020302020202020200A2031302031312020312020302020202020200A2031312031322020312020302020202020200A2031322031332020312020302020202020200A2020322031342020312020302020202020200A2020322031352020312020302020202020200A2031342031362020312020302020202020200A2031352031372020312020302020202020200A2031372031382020312020302020202020200A2031372031392020322020302020202020200A2031382032302020312020302020202020200A2031382032312020312020302020202020200A2031382032322020312020302020202020200A2031362032332020312020302020202020200A2031362032342020312020302020202020200A4D2020454E44
Contributor: HAYASHI A, DEPT. OF CHEMISTRY, FAC. OF SCI. AND TECHNOLOGY, KINKI UNIV.
InstType: EI
InstName: SHIMADZU LKB-9000B
IoniMethod: _ENERGY 70 eV
IonPolarity: pos
Date: 2010-10-09 19:48:36+02:00
Num Peaks: 56
69 52 82 34 83 555 96 2 97 14 99 44 106 14 109 4 110 49 111 14 
114 24 122 3 123 201 124 16 126 39 137 3 138 544 139 999 140 255 141 2 
150 64 151 25 152 10 155 4 164 19 165 30 166 76 178 2 179 38 180 56 
181 11 182 12 183 20 189 17 194 156 195 4 202 12 206 38 207 167 208 17 
211 36 220 69 246 88 248 3 263 33 264 214 265 18 276 2 302 24 304 10 
319 66 320 4 332 35 375 5 376 28 370 5 
