Name: 2-METHYL-2-BROMOHEPT-6-EN-3-ONE
MW: 204
Formula: C8H13BrO
Synonym: MassBank: JP001938
Synonym: 2-METHYL-2-BROMOHEPT-6-EN-3-ONE
Structure: 322D4D455448594C2D322D42524F4D4F484550542D362D454E2D332D4F4E452E6D6F6C0A20204368656D447261773031323231303033303432440A2031302020392020302020302020302020302020302020302020302020303939392056323030300A2020202D312E383431342020202D302E3435333020202020302E303030302043202020302020302020302020302020302020302020302020302020302020302020302020300A2020202D312E3432383920202020302E3236313520202020302E303030302043202020302020302020302020302020302020302020302020302020302020302020302020300A2020202D302E373134352020202D302E3135313020202020302E303030302043202020302020302020302020302020302020302020302020302020302020302020302020300A20202020302E3030303020202020302E3236313520202020302E303030302043202020302020302020302020302020302020302020302020302020302020302020302020300A20202020302E373134352020202D302E3135313020202020302E303030302043202020302020302020302020302020302020302020302020302020302020302020302020300A20202020312E3432383920202020302E3236313520202020302E303030302043202020302020302020302020302020302020302020302020302020302020302020302020300A20202020322E313433342020202D302E3135313020202020302E303030302043202020302020302020302020302020302020302020302020302020302020302020302020300A2020202D302E373134352020202D302E3937363020202020302E30303030204F202020302020302020302020302020302020302020302020302020302020302020302020300A2020202D322E3134333420202020302E3637343020202020302E303030302042722020302020302020302020302020302020302020302020302020302020302020302020300A2020202D312E3031363420202020302E3937363020202020302E303030302043202020302020302020302020302020302020302020302020302020302020302020302020300A2020312020322020312020302020202020200A2020322020332020312020302020202020200A2020332020342020312020302020202020200A2020342020352020312020302020202020200A2020352020362020312020302020202020200A2020362020372020322020302020202020200A2020332020382020322020302020202020200A2020322020392020312020302020202020200A2020322031302020312020302020202020200A4D2020454E44
Contributor: MASS SPECTROSCOPY SOC. OF JAPAN (MSSJ)
InstType: EI
InstName: JEOL JMS-D-3000
IoniMethod: _ENERGY 70 eV
IonPolarity: pos
Date: 2010-10-09 19:48:36+02:00
Num Peaks: 22
42 56 43 41 53 28 54 19 55 927 56 42 67 11 69 33 70 130 71 11 
81 10 82 51 83 999 84 58 97 12 121 35 123 32 125 21 149 12 151 14 
204 15 206 14 
