Name: MassBank: JP004854
MW: 290
Formula: C19H30O2
Synonym: MassBank: JP004854
Synonym: 3,7,11-TRIMETHYLCYCLOTETRADECA-2(E),6(E),10(E)-TRIENYL ACETATE
Structure: 332C372C31312D5452494D455448594C4359434C4F5445545241444543412D322845292C362845292C31302845292D545249454E594C20414345544154452E6D6F6C0A20204368656D447261773032323231303033333032440A2032342032342020302020302020302020302020302020302020302020303939392056323030300A2020202D322E333732382020202D302E3239353920202020302E303030302043202020302020302020302020302020302020302020302020302020302020302020302020300A2020202D322E333732382020202D312E3132303920202020302E303030302043202020302020302020302020302020302020302020302020302020302020302020302020300A2020202D312E373839352020202D312E3730343220202020302E303030302043202020302020302020302020302020302020302020302020302020302020302020302020300A2020202D302E393634352020202D312E3730343220202020302E303030302043202020302020302020302020302020302020302020302020302020302020302020302020300A2020202D302E333831312020202D312E3132303920202020302E303030302043202020302020302020302020302020302020302020302020302020302020302020302020300A2020202D302E333831312020202D302E3239353920202020302E303030302043202020302020302020302020302020302020302020302020302020302020302020302020300A2020202D302E3936343520202020302E3238373520202020302E303030302043202020302020302020302020302020302020302020302020302020302020302020302020300A2020202D312E3738393520202020302E3238373520202020302E303030302043202020302020302020302020302020302020302020302020302020302020302020302020300A20202020302E323032332020202D312E3730343220202020302E303030302043202020302020302020302020302020302020302020302020302020302020302020302020300A20202020312E303237332020202D312E3730343220202020302E303030302043202020302020302020302020302020302020302020302020302020302020302020302020300A20202020312E363130362020202D312E3132303920202020302E303030302043202020302020302020302020302020302020302020302020302020302020302020302020300A20202020312E363130362020202D302E3239353920202020302E303030302043202020302020302020302020302020302020302020302020302020302020302020302020300A20202020312E3032373320202020302E3238373520202020302E303030302043202020302020302020302020302020302020302020302020302020302020302020302020300A20202020302E3230323320202020302E3238373520202020302E303030302043202020302020302020302020302020302020302020302020302020302020302020302020300A20202020302E363134382020202D302E3938393820202020302E303030302043202020302020302020302020302020302020302020302020302020302020302020302020300A20202020302E343135382020202D302E3530393420202020302E303030302043202020302020302020302020302020302020302020302020302020302020302020302020300A20202020322E333732382020202D312E3433363620202020302E303030302048202020302020302020302020302020302020302020302020302020302020302020302020300A2020202D312E313738302020202D302E3930373320202020302E303030302048202020302020302020302020302020302020302020302020302020302020302020302020300A2020202D322E313035322020202D322E3436363420202020302E303030302043202020302020302020302020302020302020302020302020302020302020302020302020300A2020202D302E3338313120202020302E3532393120202020302E303030302048202020302020302020302020302020302020302020302020302020302020302020302020300A2020202D302E3634383720202020312E3034393720202020302E30303030204F202020302020302020302020302020302020302020302020302020302020302020302020300A2020202D312E3135313020202020312E3730343220202020302E303030302043202020302020302020302020302020302020302020302020302020302020302020302020300A2020202D312E3936383920202020312E3539363520202020302E303030302043202020302020302020302020302020302020302020302020302020302020302020302020300A2020202D302E3833353320202020322E3436363420202020302E30303030204F202020302020302020302020302020302020302020302020302020302020302020302020300A2020312020322020312020302020202020200A2020322020332020312020302020202020200A2020332020342020322020302020202020200A2020342020352020312020302020202020200A2020362020372020312020302020202020200A2020372020382020312020302020202020200A2020382020312020312020302020202020200A2020352020392020312020302020202020200A2020392031302020312020302020202020200A2031302031312020322020302020202020200A2031312031322020312020302020202020200A2031322031332020312020302020202020200A2031332031342020312020302020202020200A2031342020362020322020302020202020200A2031302031352020312020302020202020200A2031342031362020312020302020202020200A2031312031372020312020302020202020200A2020342031382020312020302020202020200A2020332031392020312020302020202020200A2020362032302020312020302020202020200A2020372032312020312020302020202020200A2032312032322020312020302020202020200A2032322032332020312020302020202020200A2032322032342020322020302020202020200A4D2020454E44
Contributor: KATO T, DEPT. OF CHEM., FAC. OF SCI., TOHOKU UNIV.
InstType: EI
InstName: Unknown
IoniMethod: _ENERGY 25 eV
IonPolarity: pos
Date: 2010-10-09 19:48:36+02:00
Num Peaks: 86
75 46 77 511 78 503 88 19 89 12 92 26 101 32 102 2 103 420 105 41 
115 41 117 48 118 173 120 59 127 131 128 13 129 119 130 12 131 12 137 2 
138 20 139 649 140 125 141 999 142 107 143 62 144 42 145 1 151 204 152 80 
153 487 154 99 155 251 156 53 157 46 158 2 165 312 166 281 167 670 168 29 
169 164 170 24 171 39 177 4 178 58 179 432 180 320 181 45 182 174 183 103 
184 22 185 2 191 105 192 55 193 273 194 29 195 210 196 100 197 33 205 19 
206 66 207 371 208 243 209 18 210 41 211 15 219 214 220 11 221 115 222 75 
223 31 224 1 233 122 234 77 235 104 236 2 247 96 248 51 249 85 261 9 
262 46 275 210 276 38 290 33 291 69 292 11 
