Name: MassBank: JP002297
MW: 199
Formula: C3H6Br2
Synonym: MassBank: JP002297
Synonym: 1,2-DIBROMOPROPANE
Structure: 310A31340A312C322D444942524F4D4F50524F50414E452E6D6F6C0A20204368656D447261773131303330393233303232440A2020352020342020302020302020302020302020302020302020302020303939392056323030300A20202020302E333537322020202D302E3631383820202020302E303030302043202020302020302020302020302020302020302020302020302020302020302020302020300A2020202D302E333537322020202D302E3230363220202020302E303030302043202020302020302020302020302020302020302020302020302020302020302020302020300A2020202D302E3335373220202020302E3631383820202020302E303030302043202020302020302020302020302020302020302020302020302020302020302020302020300A2020202D312E303731372020202D302E3631383820202020302E303030302042722020302020302020302020302020302020302020302020302020302020302020302020300A20202020312E303731372020202D302E3230363220202020302E303030302042722020302020302020302020302020302020302020302020302020302020302020302020300A2020312020322020312020302020202020200A2020322020332020312020302020202020200A2020322020342020312020302020202020200A2020312020352020312020302020202020200A4D2020454E44
Contributor: MASS SPECTROSCOPY SOC. OF JAPAN (MSSJ)
InstType: EI
InstName: JEOL JMS-D-3000
IoniMethod: _ENERGY 70 eV
IonPolarity: pos
Date: 2010-10-09 19:48:36+02:00
Num Peaks: 24
41 359 42 30 43 19 45 18 77 13 79 11 81 12 82 13 93 34 95 31 
105 18 107 40 109 19 112 23 117 15 119 19 121 999 122 42 123 999 124 36 
187 10 200 16 202 28 204 13 
