Name: ISOPROPYL ACETATE
MW: 102
Formula: C5H10O2
Synonym: MassBank: JP001197
Synonym: ISOPROPYL ACETATE
Structure: 310A31380A41434554494320414349442049534F50524F50594C2045535445522E6D6F6C0A20204368656D447261773038313131303135343532440A2020372020362020302020302020302020302020302020302020302020303939392056323030300A20202020302E373134352020202D302E3230363220202020302E303030302043202020302020302020302020302020302020302020302020302020302020302020302020300A20202020312E343238392020202D302E3631383820202020302E303030302043202020302020302020302020302020302020302020302020302020302020302020302020300A20202020302E3731343520202020302E3631383820202020302E30303030204F202020302020302020302020302020302020302020302020302020302020302020302020300A2020202D302E303030302020202D302E3631383820202020302E30303030204F202020302020302020302020302020302020302020302020302020302020302020302020300A2020202D302E373134352020202D302E3230363220202020302E303030302043202020302020302020302020302020302020302020302020302020302020302020302020300A2020202D312E343238392020202D302E3631383820202020302E303030302043202020302020302020302020302020302020302020302020302020302020302020302020300A2020202D302E3731343520202020302E3631383820202020302E303030302043202020302020302020302020302020302020302020302020302020302020302020302020300A2020312020322020312020302020202020200A2020312020332020322020302020202020200A2020312020342020312020302020202020200A2020352020362020312020302020202020200A2020352020372020312020302020202020200A2020342020352020312020302020202020200A4D2020454E44
Contributor: SASAKI S, TOYOHASHI UNIV. OF TECH.
InstType: EI
InstName: HITACHI RMU-6D
IoniMethod: _ENERGY 20 eV
IonPolarity: pos
Date: 2010-10-09 19:48:36+02:00
Num Peaks: 18
18 20 26 10 27 25 30 2 41 60 42 80 43 999 44 2 45 20 59 100 
60 30 61 42 62 10 70 25 86 230 87 1 101 10 102 20 
