Name: 4-METHYLCARBAZOLE
MW: 181
Formula: C13H11N
Synonym: MassBank: JP004327
Synonym: 4-METHYLCARBAZOLE
Structure: 342D4D455448594C43415242415A4F4C452E6D6F6C0A20204368656D447261773034323231303134343032440A2031342031362020302020302020302020302020302020302020302020303939392056323030300A2020202D302E3139323620202020312E3233303720202020302E30303030204E202020302020302020302020302020302020302020302020302020302020302020302020300A20202020302E3536313020202020302E3839353220202020302E303030302043202020302020302020302020302020302020302020302020302020302020302020302020300A20202020312E3331343720202020312E3233303720202020302E303030302043202020302020302020302020302020302020302020302020302020302020302020302020300A20202020312E3938323220202020302E3734353820202020302E303030302043202020302020302020302020302020302020302020302020302020302020302020302020300A20202020312E383935392020202D302E3037343720202020302E303030302043202020302020302020302020302020302020302020302020302020302020302020302020300A20202020312E313432332020202D302E3431303220202020302E303030302043202020302020302020302020302020302020302020302020302020302020302020302020300A20202020302E3437343820202020302E3037343720202020302E303030302043202020302020302020302020302020302020302020302020302020302020302020302020300A2020202D302E333332322020202D302E3039363820202020302E303030302043202020302020302020302020302020302020302020302020302020302020302020302020300A2020202D302E373434372020202D302E3831313320202020302E303030302043202020302020302020302020302020302020302020302020302020302020302020302020300A2020202D312E353639372020202D302E3831313320202020302E303030302043202020302020302020302020302020302020302020302020302020302020302020302020300A2020202D312E393832322020202D302E3039363820202020302E303030302043202020302020302020302020302020302020302020302020302020302020302020302020300A2020202D312E3536393720202020302E3631373620202020302E303030302043202020302020302020302020302020302020302020302020302020302020302020302020300A2020202D302E3734343720202020302E3631373620202020302E303030302043202020302020302020302020302020302020302020302020302020302020302020302020300A20202020312E303536302020202D312E3233303720202020302E303030302043202020302020302020302020302020302020302020302020302020302020302020302020300A2020312020322020312020302020202020200A2020322020332020312020302020202020200A2020332020342020322020302020202020200A2020342020352020312020302020202020200A2020352020362020322020302020202020200A2020362020372020312020302020202020200A2020322020372020322020302020202020200A2020372020382020312020302020202020200A2020382020392020312020302020202020200A2020392031302020322020302020202020200A2031302031312020312020302020202020200A2031312031322020322020302020202020200A2031322031332020312020302020202020200A2020382031332020322020302020202020200A2020312031332020312020302020202020200A2020362031342020312020302020202020200A4D2020454E44
Contributor: SASAKI S, TOYOHASHI UNIV. OF TECH.
InstType: EI
InstName: MX-1303
IoniMethod: _ENERGY 50 eV
IonPolarity: pos
Date: 2010-10-09 19:48:36+02:00
Num Peaks: 48
29 19 39 24 41 15 43 2 50 10 51 22 52 10 55 1 62 11 63 31 
64 11 74 2 75 22 75.5 11 76 38 77 8 77.5 14 87 14 89 44 89.5 3 
90 65 90.5 69 91 15 101 1 102 10 113 14 114 10 115 1 126 21 127 40 
128 22 139 2 140 22 150 18 151 56 152 12 153 51 154 28 164 14 166 1 
170 10 177 21 178 75 179 7 180 765 181 999 182 147 183 12 
