Name: ETHYLHYDRAZONE ISOBUTYRALDEHYDE
MW: 114
Formula: C6H14N2
Synonym: MassBank: JP000528
Synonym: ETHYLHYDRAZONE ISOBUTYRALDEHYDE
Synonym: ISOBUTYRALDEHYDE ETHYLHYDRAZONE
Structure: 310A32300A303134355F455448594C48594452415A4F4E452049534F4255545952414C4445485944452E6D6F6C0A20204368656D447261773039303331303138313732440A2020382020372020302020302020302020302020302020302020302020303939392056323030300A2020202D322E313433332020202D302E3631383820202020302E303030302043202020302020302020302020302020302020302020302020302020302020302020302020300A2020202D312E343238392020202D302E3230363220202020302E303030302043202020302020302020302020302020302020302020302020302020302020302020302020300A2020202D302E373134352020202D302E3631383820202020302E303030302043202020302020302020302020302020302020302020302020302020302020302020302020300A2020202D312E3432383920202020302E3631383820202020302E303030302043202020302020302020302020302020302020302020302020302020302020302020302020300A20202020302E303030302020202D302E3230363220202020302E30303030204E202020302020302020302020302020302020302020302020302020302020302020302020300A20202020302E373134352020202D302E3631383720202020302E30303030204E202020302020302020302020302020302020302020302020302020302020302020302020300A20202020312E343238392020202D302E3230363220202020302E303030302043202020302020302020302020302020302020302020302020302020302020302020302020300A20202020322E313433332020202D302E3631383720202020302E303030302043202020302020302020302020302020302020302020302020302020302020302020302020300A2020312020322020312020302020202020200A2020322020332020312020302020202020200A2020322020342020312020302020202020200A2020352020362020312020302020202020200A2020372020382020312020302020202020200A2020362020372020312020302020202020200A2020332020352020322020302020202020200A4D2020454E44
Contributor: SASAKI S, TOYOHASHI UNIV. OF TECH.
InstType: EI
InstName: SHIMADZU LKB-2091
IoniMethod: _ENERGY 70 eV
IonPolarity: pos
Date: 2010-10-09 19:48:36+02:00
Num Peaks: 34
27 279 28 441 29 465 30 44 31 81 38 15 39 170 40 4 41 441 42 255 
43 535 44 72 45 781 46 86 53 23 54 5 55 202 56 187 57 372 58 14 
59 54 68 47 69 37 70 11 71 125 72 61 73 166 85 28 86 49 99 999 
100 42 113 7 114 908 115 100 
