Name: 3-BROMOPROPENE
MW: 119
Formula: C3H5Br
Synonym: MassBank: JP008879
Synonym: 3-BROMOPROPENE
Synonym: ALLYL BROMIDE
Structure: 310A31320A332D42524F4D4F50524F50454E452E6D6F6C0A20204368656D447261773032323231303134323532440A2020342020332020302020302020302020302020302020302020302020303939392056323030300A20202020312E3037313720202020302E3230363220202020302E303030302043202020302020302020302020302020302020302020302020302020302020302020302020300A20202020302E333537322020202D302E3230363220202020302E303030302043202020302020302020302020302020302020302020302020302020302020302020302020300A2020202D302E3335373220202020302E3230363220202020302E303030302043202020302020302020302020302020302020302020302020302020302020302020302020300A2020202D312E303731372020202D302E3230363220202020302E303030302042722020302020302020302020302020302020302020302020302020302020302020302020300A2020312020322020322020302020202020200A2020322020332020312020302020202020200A2020332020342020312020302020202020200A4D2020454E44
Contributor: TAJIMA S, GUNMA COLLEGE OF TECHNOLOGY
InstType: EI
InstName: HITACHI RMU-7M
IoniMethod: _ENERGY 70 eV
IonPolarity: pos
Date: 2010-10-09 19:48:36+02:00
Num Peaks: 23
14 28 15 45 25 17 26 60 27 70 28 65 29 18 36 15 37 85 38 139 
39 716 40 74 41 999 42 35 43 23 55 16 57 15 79 31 81 30 93 11 
95 10 120 94 122 90 
