Name: 2-METHOXYETHYLAMINE
CAS: 109-85-3
MW: 75
Formula: C3H9NO
Synonym: MassBank: JP007362
Synonym: 2-METHOXYETHYLAMINE
Structure: 310A31340A322D4D4554484F5859455448594C414D494E452E6D6F6C0A20204368656D447261773031323231303032323332440A2020352020342020302020302020302020302020302020302020302020303939392056323030300A20202020312E343238392020202D302E3230363320202020302E30303030204E202020302020302020302020302020302020302020302020302020302020302020302020300A20202020302E3731343520202020302E3230363320202020302E303030302043202020302020302020302020302020302020302020302020302020302020302020302020300A2020202D302E303030302020202D302E3230363320202020302E303030302043202020302020302020302020302020302020302020302020302020302020302020302020300A2020202D302E3731343520202020302E3230363320202020302E30303030204F202020302020302020302020302020302020302020302020302020302020302020302020300A2020202D312E343238392020202D302E3230363220202020302E303030302043202020302020302020302020302020302020302020302020302020302020302020302020300A2020322020332020312020302020202020200A2020312020322020312020302020202020200A2020342020352020312020302020202020200A2020332020342020312020302020202020200A4D2020454E44
Contributor: YAMAMOTO M, DEP. CHEMISTRY, FAC. SCIENCE, NARA WOMEN'S UNIV.
InstType: EI
InstName: HITACHI RMU-6M
IoniMethod: _ENERGY 70 eV
IonPolarity: pos
Date: 2010-10-09 19:48:36+02:00
Num Peaks: 13
15 59 18 43 27 16 28 54 29 35 30 999 31 15 41 15 42 58 43 16 
44 46 45 118 75 13 
