Name: 3-ETHYL-5-METHYLPYRIDINE
CAS: 3999-78-8
MW: 121
Formula: C8H11N
Synonym: MassBank: JP007852
Synonym: 3-ETHYL-5-METHYLPYRIDINE
Structure: 310A32330A332D455448594C2D352D4D455448594C5059524944494E452E6D6F6C0A20204368656D447261773032323231303137353532440A2020392020392020302020302020302020302020302020302020302020303939392056323030300A20202020302E3335373220202020302E3431323520202020302E303030302043202020302020302020302020302020302020302020302020302020302020302020302020300A20202020302E333537322020202D302E3431323520202020302E303030302043202020302020302020302020302020302020302020302020302020302020302020302020300A2020202D302E333537322020202D302E3832353020202020302E303030302043202020302020302020302020302020302020302020302020302020302020302020302020300A2020202D312E303731372020202D302E3431323520202020302E303030302043202020302020302020302020302020302020302020302020302020302020302020302020300A2020202D312E3037313720202020302E3431323520202020302E303030302043202020302020302020302020302020302020302020302020302020302020302020302020300A2020202D302E3335373220202020302E3832353020202020302E30303030204E202020302020302020302020302020302020302020302020302020302020302020302020300A2020202D312E373836322020202D302E3832353020202020302E303030302043202020302020302020302020302020302020302020302020302020302020302020302020300A20202020312E303731372020202D302E3832353020202020302E303030302043202020302020302020302020302020302020302020302020302020302020302020302020300A20202020312E373836322020202D302E3431323520202020302E303030302043202020302020302020302020302020302020302020302020302020302020302020302020300A2020312020322020312020302020202020200A2020322020332020322020302020202020200A2020332020342020312020302020202020200A2020342020352020322020302020202020200A2020352020362020312020302020202020200A2020312020362020322020302020202020200A2020342020372020312020302020202020200A2020382020392020312020302020202020200A2020322020382020312020302020202020200A4D2020454E44
Contributor: HASHIMOTO K, KYOTO COLLEGE OF PHARMACY
InstType: EI
InstName: HITACHI M-80
IoniMethod: _ENERGY 20 eV
IonPolarity: pos
Date: 2010-10-09 19:48:36+02:00
Num Peaks: 22
29 20 39 290 40 11 41 68 51 130 52 25 53 110 63 68 64 13 65 92 
77 220 78 18 79 175 80 11 91 57 92 105 105 23 106 999 107 100 120 561 
121 831 122 74 
