Name: CAMPHORIC ACID BIS(TRIMETHYLSILYL) ESTER
MW: 344
Formula: C16H32O4Si2
Synonym: MassBank: JP001046
Synonym: CAMPHORIC ACID BIS(TRIMETHYLSILYL) ESTER
Synonym: DI(TRIMETHYLSILYL) 1,2,2-TRIMETHYL-1,3-CYCLOPENTANEDICARBOXYLATE
Structure: 43414D50484F524943204143494420424953285452494D455448594C53494C594C292045535445522E6D6F6C0A20204368656D447261773039303631303039343732440A2032322032322020302020302020302020302020302020302020302020303939392056323030300A2020202D302E3635303720202020302E3239313720202020302E303030302043202020302020302020302020302020302020302020302020302020302020302020302020300A20202020302E3135363320202020302E3436333220202020302E303030302043202020302020302020302020302020302020302020302020302020302020302020302020300A20202020302E353638382020202D302E3235313320202020302E303030302043202020302020302020302020302020302020302020302020302020302020302020302020300A20202020302E303136382020202D302E3836343420202020302E303030302043202020302020302020302020302020302020302020302020302020302020302020302020300A2020202D302E373336392020202D302E3532383820202020302E303030302043202020302020302020302020302020302020302020302020302020302020302020302020300A2020202D312E3437353720202020302E3239313720202020302E303030302043202020302020302020302020302020302020302020302020302020302020302020302020300A2020202D312E3838383220202020312E3030363120202020302E30303030204F202020302020302020302020302020302020302020302020302020302020302020302020300A2020202D312E383838322020202D302E3432323820202020302E30303030204F202020302020302020302020302020302020302020302020302020302020302020302020300A20202020312E333839332020202D302E3333373520202020302E303030302043202020302020302020302020302020302020302020302020302020302020302020302020300A20202020312E373234382020202D312E3039313220202020302E30303030204F202020302020302020302020302020302020302020302020302020302020302020302020300A20202020312E3930383520202020302E3330333620202020302E30303030204F202020302020302020302020302020302020302020302020302020302020302020302020300A20202020302E3931303020202020302E3739383720202020302E303030302043202020302020302020302020302020302020302020302020302020302020302020302020300A2020202D302E3039383620202020312E3234373820202020302E303030302043202020302020302020302020302020302020302020302020302020302020302020302020300A2020202D302E3733363920202020312E3131323120202020302E303030302043202020302020302020302020302020302020302020302020302020302020302020302020300A2020202D322E373133322020202D302E3432323820202020302E303030302053692020302020302020302020302020302020302020302020302020302020302020302020300A2020202D322E3731333220202020302E3430323220202020302E303030302043202020302020302020302020302020302020302020302020302020302020302020302020300A2020202D322E373133322020202D312E3234373820202020302E303030302043202020302020302020302020302020302020302020302020302020302020302020302020300A2020202D332E353338322020202D302E3432323820202020302E303030302043202020302020302020302020302020302020302020302020302020302020302020302020300A20202020322E3732333320202020302E3137343620202020302E303030302053692020302020302020302020302020302020302020302020302020302020302020302020300A20202020322E3835323420202020302E3938393420202020302E303030302043202020302020302020302020302020302020302020302020302020302020302020302020300A20202020332E3533383220202020302E3034353520202020302E303030302043202020302020302020302020302020302020302020302020302020302020302020302020300A20202020322E353934332020202D302E3634303320202020302E303030302043202020302020302020302020302020302020302020302020302020302020302020302020300A2020312020322020312020302020202020200A2020322020332020312020302020202020200A2020332020342020312020302020202020200A2020342020352020312020302020202020200A2020312020352020312020302020202020200A2020362020372020322020302020202020200A2020362020382020312020302020202020200A2020312020362020312020302020202020200A2020392031302020322020302020202020200A2020392031312020312020302020202020200A2020332020392020312020302020202020200A2020322031322020312020312020202020200A2020322031332020312020362020202020200A2020312031342020312020302020202020200A2031352031362020312020312020202020200A2031352031372020312020312020202020200A2031352031382020312020302020202020200A2020382031352020312020302020202020200A2031392032302020312020312020202020200A2031392032312020312020302020202020200A2031392032322020312020312020202020200A2031312031392020312020302020202020200A4D2020454E44
Contributor: KOGA M, UNIV. OF OCCUPATIONAL AND ENVIRONMENTAL HEALTH
InstType: EI
InstName: JEOL JMS-01-SG
IoniMethod: _ENERGY 70 eV
IonPolarity: pos
Date: 2010-10-09 19:48:36+02:00
Num Peaks: 16
45 92 55 129 69 259 73 999 74 70 75 240 77 100 108 31 109 311 137 188 
138 100 148 39 198 62 226 107 329 118 330 25 
