Name: TETRABUTYLAMMONIUM CHLORIDE
MW: 277
Formula: C16H36ClN
Synonym: MassBank: JP004195
Synonym: TETRABUTYLAMMONIUM CHLORIDE
Synonym: N,N,N-TRIBUTYL-1-BUTANAMINIUM CHLORIDE
Structure: 4E2C4E2C4E2D545249425554594C2D312D425554414E414D494E49554D2043484C4F524944452E6D6F6C0A20204368656D447261773038313231303032343332440A2031382031362020302020302020302020302020302020302020302020303939392056323030300A20202020302E3136353820202020302E3337323020202020302E303030302043202020302020302020302020302020302020302020302020302020302020302020302020300A2020202D302E3534383720202020302E3738343520202020302E303030302043202020302020302020302020302020302020302020302020302020302020302020302020300A2020202D312E3236333120202020302E3337323020202020302E303030302043202020302020302020302020302020302020302020302020302020302020302020302020300A2020202D312E3937373620202020302E3738343520202020302E303030302043202020302020302020302020302020302020302020302020302020302020302020302020300A20202020302E313635382020202D302E3435333020202020302E30303030204E202020302020332020302020302020302020302020302020302020302020302020302020300A20202020302E393930382020202D302E3435333020202020302E303030302043202020302020302020302020302020302020302020302020302020302020302020302020300A20202020312E3430333320202020302E3236313520202020302E303030302043202020302020302020302020302020302020302020302020302020302020302020302020300A20202020302E3939303820202020302E3937363020202020302E303030302043202020302020302020302020302020302020302020302020302020302020302020302020300A20202020312E3430333320202020312E3639303520202020302E303030302043202020302020302020302020302020302020302020302020302020302020302020302020300A20202020302E313635382020202D312E3237383020202020302E303030302043202020302020302020302020302020302020302020302020302020302020302020302020300A20202020302E383830332020202D312E3639303520202020302E303030302043202020302020302020302020302020302020302020302020302020302020302020302020300A20202020312E353934372020202D312E3237383020202020302E303030302043202020302020302020302020302020302020302020302020302020302020302020302020300A20202020322E333039322020202D312E3639303520202020302E303030302043202020302020302020302020302020302020302020302020302020302020302020302020300A2020202D302E363539322020202D302E3435333020202020302E303030302043202020302020302020302020302020302020302020302020302020302020302020302020300A2020202D312E303731372020202D312E3136373420202020302E303030302043202020302020302020302020302020302020302020302020302020302020302020302020300A2020202D312E383936372020202D312E3136373420202020302E303030302043202020302020302020302020302020302020302020302020302020302020302020302020300A2020202D322E333039322020202D302E3435333020202020302E303030302043202020302020302020302020302020302020302020302020302020302020302020302020300A2020202D302E343137362020202D312E3033363320202020302E3030303020436C2020302020352020302020302020302020302020302020302020302020302020302020300A2020312020322020312020302020202020200A2020322020332020312020302020202020200A2020332020342020312020302020202020200A2020312020352020312020302020202020200A2020362020372020312020302020202020200A2020372020382020312020302020202020200A2020382020392020312020302020202020200A2020352020362020312020302020202020200A2031302031312020312020302020202020200A2031312031322020312020302020202020200A2031322031332020312020302020202020200A2020352031302020312020302020202020200A2031342031352020312020302020202020200A2031352031362020312020302020202020200A2031362031372020312020302020202020200A2020352031342020312020302020202020200A4D202043484720203220202035202020312020313820202D310A4D2020454E44
Contributor: ISA K, DEPT. OF CHEM., FAC. OF EDUC., FUKUI UNIV.
InstType: EI
InstName: JEOL JMS-01-SG
IoniMethod: _ENERGY 15 eV
IonPolarity: pos
Date: 2010-10-09 19:48:36+02:00
Num Peaks: 17
35 7 36 36 41 164 44 112 57 90 70 23 84 79 86 34 98 98 100 138 
126 16 128 21 140 146 142 999 143 100 184 44 185 75 
