Name: 5-CHLORO-2-DIMETHYLAMINOPYRIMIDINE
MW: 157
Formula: C6H8ClN3
Synonym: MassBank: JP002046
Synonym: 5-CHLORO-2-DIMETHYLAMINOPYRIMIDINE
Structure: 352D43484C4F524F2D322D44494D455448594C414D494E4F505952494D4944494E452E6D6F6C0A20204368656D447261773034323331303034333832440A2031302031302020302020302020302020302020302020302020302020303939392056323030300A20202020302E3631383720202020302E3030303020202020302E303030302043202020302020302020302020302020302020302020302020302020302020302020302020300A20202020302E323036322020202D302E3731343520202020302E30303030204E202020302020302020302020302020302020302020302020302020302020302020302020300A2020202D302E363138382020202D302E3731343520202020302E303030302043202020302020302020302020302020302020302020302020302020302020302020302020300A2020202D312E3033313320202020302E3030303020202020302E303030302043202020302020302020302020302020302020302020302020302020302020302020302020300A2020202D302E3631383820202020302E3731343520202020302E303030302043202020302020302020302020302020302020302020302020302020302020302020302020300A20202020302E3230363220202020302E3731343520202020302E30303030204E202020302020302020302020302020302020302020302020302020302020302020302020300A20202020312E3434333720202020302E3030303020202020302E30303030204E202020302020302020302020302020302020302020302020302020302020302020302020300A20202020312E383536332020202D302E3731343520202020302E303030302043202020302020302020302020302020302020302020302020302020302020302020302020300A20202020312E3835363220202020302E3731343520202020302E303030302043202020302020302020302020302020302020302020302020302020302020302020302020300A2020202D312E3835363320202020302E3030303020202020302E3030303020436C2020302020302020302020302020302020302020302020302020302020302020302020300A2020312020322020312020302020202020200A2020322020332020322020302020202020200A2020332020342020312020302020202020200A2020342020352020322020302020202020200A2020352020362020312020302020202020200A2020312020362020322020302020202020200A2020372020382020312020302020202020200A2020372020392020312020302020202020200A2020312020372020312020302020202020200A2020342031302020312020302020202020200A4D2020454E44
Contributor: SASAKI S, TOYOHASHI UNIV. OF TECH.
InstType: EI
InstName: MS-902
IoniMethod: _ENERGY 70 eV
IonPolarity: pos
Date: 2010-10-09 19:48:36+02:00
Num Peaks: 64
36 37 38 12 39 18 40 3 41 36 42 263 43 74 44 83 45 20 51 38 
52 70 53 7 54 27 55 29 58 18 59 3 60 26 61 16 66 11 67 2 
69 118 70 60 73 10 74 2 77 18 78.5 32 79 49 80 2 82 16 83 32 
86 35 87 7 88 32 89 26 90 10 95 1 100 14 101 20 102 16 103 2 
107 44 108 10 113 56 114 18 115 152 116 65 117 43 121 2 127 12 128 740 
129 103 130 25 131 33 137 10 142 548 143 3 144 159 145 12 154 10 156 27 
157 999 158 140 159 291 160 23 
