Name: MassBank: JP002049
MW: 168
Formula: C8H12N2O2
Synonym: MassBank: JP002049
Synonym: 5-TERT-BUTYL-1,2,3,4-TETRAHYDROPYRIMIDINE-2,4-DIONE
Synonym: 5-TERT-BUTYLURACIL
Structure: 352D544552542D425554594C2D312C322C332C342D5445545241485944524F505952494D4944494E452D322C342D44494F4E452E6D6F6C0A20204368656D447261773034323331303037343732440A2031322031322020302020302020302020302020302020302020302020303939392056323030300A2020202D312E323337352020202D302E3330323020202020302E303030302043202020302020302020302020302020302020302020302020302020302020302020302020300A2020202D302E3832353020202020302E3431323520202020302E30303030204E202020302020302020302020302020302020302020302020302020302020302020302020300A20202020302E3030303020202020302E3431323520202020302E303030302043202020302020302020302020302020302020302020302020302020302020302020302020300A20202020302E343132352020202D302E3330323020202020302E303030302043202020302020302020302020302020302020302020302020302020302020302020302020300A20202020302E303030302020202D312E3031363420202020302E303030302043202020302020302020302020302020302020302020302020302020302020302020302020300A2020202D302E383235302020202D312E3031363420202020302E30303030204E202020302020302020302020302020302020302020302020302020302020302020302020300A2020202D322E303632352020202D302E3330323020202020302E30303030204F202020302020302020302020302020302020302020302020302020302020302020302020300A20202020302E3431323520202020312E3132373020202020302E30303030204F202020302020302020302020302020302020302020302020302020302020302020302020300A20202020312E323337352020202D302E3330323020202020302E303030302043202020302020302020302020302020302020302020302020302020302020302020302020300A20202020312E3233373520202020302E3532333020202020302E303030302043202020302020302020302020302020302020302020302020302020302020302020302020300A20202020322E303632352020202D302E3330323020202020302E303030302043202020302020302020302020302020302020302020302020302020302020302020302020300A20202020312E323337352020202D312E3132373020202020302E303030302043202020302020302020302020302020302020302020302020302020302020302020302020300A2020312020322020312020302020202020200A2020322020332020312020302020202020200A2020332020342020312020302020202020200A2020342020352020322020302020202020200A2020352020362020312020302020202020200A2020312020362020312020302020202020200A2020312020372020322020302020202020200A2020332020382020322020302020202020200A2020392031302020312020302020202020200A2020392031322020312020302020202020200A2020392031312020312020302020202020200A2020342020392020312020302020202020200A4D2020454E44
Contributor: SASAKI S, TOYOHASHI UNIV. OF TECH.
InstType: EI
InstName: MS-902
IoniMethod: _ENERGY 70 eV
IonPolarity: pos
Date: 2010-10-09 19:48:36+02:00
Num Peaks: 45
38 14 39 121 40 16 41 12 42 104 43 32 44 29 50 1 51 24 52 13 
53 55 54 2 55 93 56 14 57 36 65 3 66 25 67 63 68 221 69 4 
70 26 71 13 76 16 76.5 3 77 11 79 11 80 59 81 4 82 154 83 39 
92 125 96 1 97 10 110 580 111 48 125 11 126 227 127 15 149 11 151 1 
153 999 154 93 167 13 168 31 169 32 
