Name: MassBank: JP002075
MW: 482
Formula: C23H30O11
Synonym: MassBank: JP002075
Synonym: 2-(4-METHOXYPHENYL)ETHYL 2,3,4,6-TETRA-O-ACETYL-ALPHA-(D)-GLUCOPYRANOSIDE
Structure: 322D28342D4D4554484F58595048454E594C29455448594C20322C332C342C362D54455452412D4F2D41434554594C2D414C5048412D2844292D474C55434F505952414E4F534944452E6D6F6C0A20204368656D447261773132323130393230333432440A2033342033352020302020302020302020302020302020302020302020303939392056323030300A20202020302E3030303020202020302E3832353020202020302E30303030204F202020302020302020302020302020302020302020302020302020302020302020302020300A2020202D302E3731343520202020302E3431323520202020302E303030302043202020302020302020302020302020302020302020302020302020302020302020302020300A2020202D302E373134352020202D302E3431323520202020302E303030302043202020302020302020302020302020302020302020302020302020302020302020302020300A20202020302E303030302020202D302E3832353020202020302E30303030204F202020302020302020302020302020302020302020302020302020302020302020302020300A2020202D312E343238392020202D302E3832353020202020302E303030302043202020302020302020302020302020302020302020302020302020302020302020302020300A2020202D312E343238392020202D312E3635303020202020302E30303030204F202020302020302020302020302020302020302020302020302020302020302020302020300A2020202D322E313433342020202D302E3431323520202020302E303030302043202020302020302020302020302020302020302020302020302020302020302020302020300A2020202D322E383537392020202D302E3832353020202020302E30303030204F202020302020302020302020302020302020302020302020302020302020302020302020300A2020202D322E3134333420202020302E3431323520202020302E303030302043202020302020302020302020302020302020302020302020302020302020302020302020300A2020202D312E3432383920202020302E3832353020202020302E30303030204F202020302020302020302020302020302020302020302020302020302020302020302020300A2020202D322E3835373920202020302E3832353020202020302E303030302043202020302020302020302020302020302020302020302020302020302020302020302020300A2020202D322E3835373920202020312E3635303020202020302E30303030204F202020302020302020302020302020302020302020302020302020302020302020302020300A2020202D332E3537323420202020322E3036323520202020302E303030302043202020302020302020302020302020302020302020302020302020302020302020302020300A2020202D342E3238363820202020312E3635303020202020302E30303030204F202020302020302020302020302020302020302020302020302020302020302020302020300A2020202D332E3537323420202020322E3838373520202020302E303030302043202020302020302020302020302020302020302020302020302020302020302020302020300A2020202D332E353732342020202D302E3431323520202020302E303030302043202020302020302020302020302020302020302020302020302020302020302020302020300A2020202D342E323836382020202D302E3832353020202020302E30303030204F202020302020302020302020302020302020302020302020302020302020302020302020300A2020202D332E3537323420202020302E3431323520202020302E303030302043202020302020302020302020302020302020302020302020302020302020302020302020300A2020202D322E313433342020202D322E3036323520202020302E303030302043202020302020302020302020302020302020302020302020302020302020302020302020300A2020202D322E383537392020202D312E3635303020202020302E30303030204F202020302020302020302020302020302020302020302020302020302020302020302020300A2020202D322E313433342020202D322E3838373520202020302E303030302043202020302020302020302020302020302020302020302020302020302020302020302020300A20202020302E373134352020202D302E3431323520202020302E303030302043202020302020302020302020302020302020302020302020302020302020302020302020300A20202020302E3731343520202020302E3431323520202020302E30303030204F202020302020302020302020302020302020302020302020302020302020302020302020300A20202020312E343238392020202D302E3832353020202020302E303030302043202020302020302020302020302020302020302020302020302020302020302020302020300A20202020302E3030303020202020312E3635303020202020302E303030302043202020302020302020302020302020302020302020302020302020302020302020302020300A20202020302E3731343520202020322E3036323520202020302E303030302043202020302020302020302020302020302020302020302020302020302020302020302020300A20202020312E3432383920202020312E3635303020202020302E303030302043202020302020302020302020302020302020302020302020302020302020302020302020300A20202020322E3134333420202020322E3036323520202020302E303030302043202020302020302020302020302020302020302020302020302020302020302020302020300A20202020322E3835373920202020312E3635303020202020302E303030302043202020302020302020302020302020302020302020302020302020302020302020302020300A20202020322E3835373920202020302E3832353020202020302E303030302043202020302020302020302020302020302020302020302020302020302020302020302020300A20202020322E3134333420202020302E3431323520202020302E303030302043202020302020302020302020302020302020302020302020302020302020302020302020300A20202020312E3432383920202020302E3832353020202020302E303030302043202020302020302020302020302020302020302020302020302020302020302020302020300A20202020332E3537323420202020302E3431323520202020302E30303030204F202020302020302020302020302020302020302020302020302020302020302020302020300A20202020342E3238363820202020302E3832353020202020302E303030302043202020302020302020302020302020302020302020302020302020302020302020302020300A2020312020322020312020302020202020200A2020322020332020312020302020202020200A2020332020342020312020302020202020200A2020332020352020312020302020202020200A2020352020362020312020302020202020200A2020352020372020312020302020202020200A2020372020382020312020302020202020200A2020372020392020312020302020202020200A2020392031302020312020302020202020200A2020392031312020312020302020202020200A2031312031322020312020302020202020200A2020322031302020312020302020202020200A2031332031342020322020302020202020200A2031332031352020312020302020202020200A2031322031332020312020302020202020200A2031362031372020322020302020202020200A2031362031382020312020302020202020200A2020382031362020312020302020202020200A2031392032302020322020302020202020200A2031392032312020312020302020202020200A2020362031392020312020302020202020200A2032322032332020322020302020202020200A2032322032342020312020302020202020200A2020342032322020312020302020202020200A2032352032362020312020302020202020200A2032372032382020312020302020202020200A2032382032392020322020302020202020200A2032392033302020312020302020202020200A2033302033312020322020302020202020200A2033312033322020312020302020202020200A2032372033322020322020302020202020200A2033332033342020312020302020202020200A2033302033332020312020302020202020200A2032362032372020312020302020202020200A2020312032352020312020302020202020200A4D2020454E44
Contributor: ENDO K, PHARMACEUTICAL INST., TOHOKU UNIV.
InstType: EI
InstName: HITACHI M-52
IoniMethod: _ENERGY 25 eV
IonPolarity: pos
Date: 2010-10-09 19:48:36+02:00
Num Peaks: 64
41 6 43 352 44 8 55 1 56 6 57 17 61 6 69 2 70 19 71 15 
73 8 77 1 79 10 81 42 83 8 85 1 91 11 97 25 98 29 99 1 
102 13 103 34 105 38 108 4 109 152 110 13 112 13 113 1 115 40 116 8 
119 6 120 1 121 103 122 11 126 10 127 6 128 6 134 999 135 751 136 7 
137 6 139 17 140 11 144 1 145 23 149 50 150 6 157 2 158 6 163 6 
167 21 168 1 169 171 170 15 171 6 187 1 200 8 211 10 229 8 280 1 
331 27 332 6 482 61 483 15 
