Name: HEPTANAL
CAS: 111-71-7
MW: 114
Formula: C7H14O
Synonym: MassBank: JP008765
Synonym: HEPTANAL
Structure: 310A32300A48455054594C414C4445485944452E6D6F6C0A20204368656D447261773038313131303230313432440A2020382020372020302020302020302020302020302020302020302020303939392056323030300A20202020312E373836322020202D302E3230363320202020302E303030302043202020302020302020302020302020302020302020302020302020302020302020302020300A20202020312E3037313720202020302E3230363320202020302E303030302043202020302020302020302020302020302020302020302020302020302020302020302020300A20202020302E333537322020202D302E3230363320202020302E303030302043202020302020302020302020302020302020302020302020302020302020302020302020300A2020202D302E3335373220202020302E3230363220202020302E303030302043202020302020302020302020302020302020302020302020302020302020302020302020300A2020202D312E303731372020202D302E3230363320202020302E303030302043202020302020302020302020302020302020302020302020302020302020302020302020300A2020202D312E3738363220202020302E3230363220202020302E303030302043202020302020302020302020302020302020302020302020302020302020302020302020300A2020202D322E353030362020202D302E3230363320202020302E303030302043202020302020302020302020302020302020302020302020302020302020302020302020300A20202020322E3530303620202020302E3230363320202020302E30303030204F202020302020302020302020302020302020302020302020302020302020302020302020300A2020312020322020312020302020202020200A2020322020332020312020302020202020200A2020332020342020312020302020202020200A2020342020352020312020302020202020200A2020352020362020312020302020202020200A2020362020372020312020302020202020200A2020312020382020322020302020202020200A4D2020454E44
Contributor: UOEH
InstType: EI
InstName: HP 5970
IoniMethod: _ENERGY 70 eV
IonPolarity: pos
Date: 2010-10-09 19:48:36+02:00
Num Peaks: 40
37 14 38 45 39 511 40 93 41 999 42 556 43 878 44 910 45 189 46 6 
50 21 51 32 52 14 53 69 54 83 55 572 56 78 57 505 58 52 63 6 
65 11 66 13 67 91 68 149 70 719 71 217 72 91 73 7 76 9 77 5 
79 8 81 199 82 16 83 7 85 34 86 126 87 8 95 14 96 92 114 8 
