Name: MassBank: JP001214
MW: 196
Formula: C12H20O2
Synonym: MassBank: JP001214
Synonym: 1,5-DIMETHYL-1-VINYL-4-HEXENYL ACETATE
Structure: 312C352D44494D455448594C2D312D56494E594C2D342D484558454E594C20414345544154452E6D6F6C0A20204368656D447261773131313630393132353032440A2031342031332020302020302020302020302020302020302020302020303939392056323030300A2020202D312E3835363320202020302E3335373220202020302E303030302043202020302020302020302020302020302020302020302020302020302020302020302020300A2020202D322E323638382020202D302E3335373220202020302E303030302043202020302020302020302020302020302020302020302020302020302020302020302020300A2020202D322E3236383820202020312E3037313720202020302E30303030204F202020302020302020302020302020302020302020302020302020302020302020302020300A2020202D312E3033313320202020302E3335373220202020302E30303030204F202020302020302020302020302020302020302020302020302020302020302020302020300A2020202D302E363138382020202D302E3335373220202020302E303030302043202020302020302020302020302020302020302020302020302020302020302020302020300A2020202D302E323036322020202D312E3037313720202020302E303030302043202020302020302020302020302020302020302020302020302020302020302020302020300A20202020302E363138382020202D312E3037313720202020302E303030302043202020302020302020302020302020302020302020302020302020302020302020302020300A20202020312E303331332020202D302E3335373220202020302E303030302043202020302020302020302020302020302020302020302020302020302020302020302020300A20202020312E383536332020202D302E3335373220202020302E303030302043202020302020302020302020302020302020302020302020302020302020302020302020300A20202020322E3236383820202020302E3335373220202020302E303030302043202020302020302020302020302020302020302020302020302020302020302020302020300A20202020302E3039353720202020302E3035353320202020302E303030302043202020302020302020302020302020302020302020302020302020302020302020302020300A20202020302E3039353720202020302E3838303320202020302E303030302043202020302020302020302020302020302020302020302020302020302020302020302020300A20202020322E323638382020202D312E3037313720202020302E303030302043202020302020302020302020302020302020302020302020302020302020302020302020300A2020202D312E333333322020202D302E3736393720202020302E303030302043202020302020302020302020302020302020302020302020302020302020302020302020300A2020312020322020312020302020202020200A2020312020332020322020302020202020200A2020312020342020312020302020202020200A2020352020362020312020302020202020200A2020362020372020312020302020202020200A2020372020382020312020302020202020200A2020382020392020322020302020202020200A2020392031302020312020302020202020200A2031312031322020322020302020202020200A2020352031312020312020302020202020200A2020392031332020312020302020202020200A2020352031342020312020302020202020200A2020342020352020312020302020202020200A4D2020454E44
Contributor: SASAKI S, TOYOHASHI UNIV. OF TECH.
InstType: EI
InstName: HITACHI RMU-6D
IoniMethod: _ENERGY 70 eV
IonPolarity: pos
Date: 2010-10-09 19:48:36+02:00
Num Peaks: 60
15 35 17 30 18 16 27 11 28 120 29 100 39 140 40 4 42 40 43 870 
44 30 45 1 52 25 53 10 54 120 55 1 56 220 57 10 58 5 60 2 
66 250 67 20 68 10 69 16 70 425 71 215 73 250 78 7 79 10 80 130 
81 425 82 14 83 40 84 50 85 20 86 3 87 10 90 90 91 170 92 999 
93 135 94 40 95 40 96 1 97 10 105 60 106 20 107 10 109 20 110 30 
112 40 114 2 118 20 120 295 121 30 134 12 135 35 137 10 155 10 196 10 
