Name: 4-ISOPROPYLPHENYL METHYL KETONE
MW: 162
Formula: C11H14O
Synonym: MassBank: JP009606
Synonym: 4-ISOPROPYLPHENYL METHYL KETONE
Synonym: 4-ISOPROPYLACETOPHENONE
Structure: 342D49534F50524F50594C5048454E594C204D455448594C204B45544F4E452E6D6F6C0A20204368656D447261773034323031303131303932440A2031322031322020302020302020302020302020302020302020302020303939392056323030300A2020202D312E363530302020202D302E3030303020202020302E303030302043202020302020302020302020302020302020302020302020302020302020302020302020300A2020202D322E3036323520202020302E3731343520202020302E30303030204F202020302020302020302020302020302020302020302020302020302020302020302020300A2020202D322E303632352020202D302E3731343520202020302E303030302043202020302020302020302020302020302020302020302020302020302020302020302020300A2020202D302E383235302020202D302E3030303020202020302E303030302043202020302020302020302020302020302020302020302020302020302020302020302020300A2020202D302E3431323520202020302E3731343520202020302E303030302043202020302020302020302020302020302020302020302020302020302020302020302020300A20202020302E3431323520202020302E3731343520202020302E303030302043202020302020302020302020302020302020302020302020302020302020302020302020300A20202020302E383235302020202D302E3030303020202020302E303030302043202020302020302020302020302020302020302020302020302020302020302020302020300A20202020302E343132352020202D302E3731343520202020302E303030302043202020302020302020302020302020302020302020302020302020302020302020302020300A2020202D302E343132352020202D302E3731343520202020302E303030302043202020302020302020302020302020302020302020302020302020302020302020302020300A20202020312E363530302020202D302E3030303020202020302E303030302043202020302020302020302020302020302020302020302020302020302020302020302020300A20202020322E3036323520202020302E3731343520202020302E303030302043202020302020302020302020302020302020302020302020302020302020302020302020300A20202020322E303632352020202D302E3731343520202020302E303030302043202020302020302020302020302020302020302020302020302020302020302020302020300A2020312020322020322020302020202020200A2020312020332020312020302020202020200A2020342020352020312020302020202020200A2020352020362020322020302020202020200A2020362020372020312020302020202020200A2020372020382020322020302020202020200A2020382020392020312020302020202020200A2020342020392020322020302020202020200A2031302031312020312020302020202020200A2031302031322020312020302020202020200A2020372031302020312020302020202020200A2020312020342020312020302020202020200A4D2020454E44
Contributor: THE INSTITUTE OF SCIENTIFIC AND INDUSTRIALRESEARCH
InstType: EI
InstName: JEOL JMS-DX-300
IoniMethod: _ENERGY 70 eV
IonPolarity: pos
Date: 2010-10-09 19:48:36+02:00
Num Peaks: 46
27 92 29 18 39 127 40 2 41 166 42 20 43 959 44 3 50 56 51 150 
52 39 53 3 62 16 63 77 64 17 65 8 66 11 74 18 75 32 76 6 
77 252 78 157 79 57 89 5 90 30 91 318 92 27 93 1 101 10 102 60 
103 195 104 16 105 78 115 84 116 17 117 8 118 28 119 140 120 17 131 3 
132 31 133 28 147 999 148 11 162 269 163 34 
