Name: ACETIC ACID ORTHO-TOLYL ESTER
MW: 150
Formula: C9H10O2
Synonym: MassBank: JP001310
Synonym: ACETIC ACID ORTHO-TOLYL ESTER
Synonym: ORTHO-CRESOL ACETATE
Structure: 4143455449432041434944204F5254484F2D544F4C594C2045535445522E6D6F6C0A20204368656D447261773036323431303136353632440A2031312031312020302020302020302020302020302020302020302020303939392056323030300A2020202D312E303331332020202D302E3731343520202020302E303030302043202020302020302020302020302020302020302020302020302020302020302020302020300A2020202D302E363138382020202D312E3432383920202020302E303030302043202020302020302020302020302020302020302020302020302020302020302020302020300A2020202D312E383536332020202D302E3731343520202020302E30303030204F202020302020302020302020302020302020302020302020302020302020302020302020300A2020202D302E3631383820202020302E3030303020202020302E30303030204F202020302020302020302020302020302020302020302020302020302020302020302020300A20202020302E3230363220202020302E3030303020202020302E303030302043202020302020302020302020302020302020302020302020302020302020302020302020300A20202020302E3631383720202020302E3731343520202020302E303030302043202020302020302020302020302020302020302020302020302020302020302020302020300A20202020312E383536332020202D302E3030303020202020302E303030302043202020302020302020302020302020302020302020302020302020302020302020302020300A20202020302E363138382020202D302E3731343520202020302E303030302043202020302020302020302020302020302020302020302020302020302020302020302020300A20202020312E3434333720202020302E3731343520202020302E303030302043202020302020302020302020302020302020302020302020302020302020302020302020300A20202020312E343433372020202D302E3731343520202020302E303030302043202020302020302020302020302020302020302020302020302020302020302020302020300A20202020302E3230363220202020312E3432383920202020302E303030302043202020302020302020302020302020302020302020302020302020302020302020302020300A2020312020322020312020302020202020200A2020312020332020322020302020202020200A2020312020342020312020302020202020200A2020352020362020312020302020202020200A2020352020382020322020302020202020200A2020362020392020322020302020202020200A2020372020392020312020302020202020200A2020372031302020322020302020202020200A2020382031302020312020302020202020200A2020362031312020312020302020202020200A2020342020352020312020302020202020200A4D2020454E44
Contributor: TAJIMA S, GUNMA COLLEGE OF TECHNOLOGY
InstType: EI
InstName: HITACHI RMU-7M
IoniMethod: _ENERGY 70 eV
IonPolarity: pos
Date: 2010-10-09 19:48:36+02:00
Num Peaks: 23
15 20 27 23 28 18 39 47 43 234 50 22 51 49 52 28 53 26 63 17 
65 18 77 106 78 33 79 89 80 62 89 18 90 97 91 30 107 330 108 999 
109 74 150 108 151 10 
