Name: P-TOLUALDEHYDE
MW: 120
Formula: C8H8O
Synonym: MassBank: JP004986
Synonym: P-TOLUALDEHYDE
Synonym: 4-METHYLBENZALDEHYDE
Structure: 310A32330A502D544F4C55414C4445485944452E6D6F6C0A20204368656D447261773034323131303033303132440A2020392020392020302020302020302020302020302020302020302020303939392056323030300A2020202D302E363138372020202D302E3030303020202020302E303030302043202020302020302020302020302020302020302020302020302020302020302020302020300A2020202D302E3230363220202020302E3731343520202020302E303030302043202020302020302020302020302020302020302020302020302020302020302020302020300A20202020312E303331332020202D302E3030303020202020302E303030302043202020302020302020302020302020302020302020302020302020302020302020302020300A2020202D302E323036322020202D302E3731343520202020302E303030302043202020302020302020302020302020302020302020302020302020302020302020302020300A20202020302E3631383820202020302E3731343520202020302E303030302043202020302020302020302020302020302020302020302020302020302020302020302020300A20202020302E363138382020202D302E3731343520202020302E303030302043202020302020302020302020302020302020302020302020302020302020302020302020300A20202020312E383536332020202D302E3030303020202020302E303030302043202020302020302020302020302020302020302020302020302020302020302020302020300A2020202D312E343433372020202D302E3030303020202020302E303030302043202020302020302020302020302020302020302020302020302020302020302020302020300A2020202D312E3835363320202020302E3731343520202020302E30303030204F202020302020302020302020302020302020302020302020302020302020302020302020300A2020312020322020312020302020202020200A2020312020342020322020302020202020200A2020322020352020322020302020202020200A2020332020352020312020302020202020200A2020332020362020322020302020202020200A2020342020362020312020302020202020200A2020332020372020312020302020202020200A2020312020382020312020302020202020200A2020382020392020322020302020202020200A4D2020454E44
Contributor: MASS SPECTROSCOPY SOC. OF JAPAN (MSSJ)
InstType: EI
InstName: JEOL JMS-D-3000
IoniMethod: _ENERGY 70 eV
IonPolarity: pos
Date: 2010-10-09 19:48:36+02:00
Num Peaks: 23
43 9 45 12 50 51 51 80 52 16 59 24 61 18 62 41 63 107 64 24 
65 230 66 14 74 15 75 10 77 11 86 11 89 72 90 36 91 983 92 94 
119 999 120 842 121 72 
