Name: 1-(3-FURYL)-3-BUTENE-1-OL
MW: 138
Formula: C8H10O2
Synonym: MassBank: JP002497
Synonym: 1-(3-FURYL)-3-BUTENE-1-OL
Structure: 312D28332D465552594C292D332D425554454E452D312D4F4C2E6D6F6C0A20204368656D447261773131313730393137323732440A2031332031332020302020302020302020302020302020302020302020303939392056323030300A20202020302E333438362020202D302E3438303020202020302E303030302043202020302020302020302020302020302020302020302020302020302020302020302020300A20202020312E303633312020202D302E3036373520202020302E303030302043202020302020302020302020302020302020302020302020302020302020302020302020300A20202020312E373737362020202D302E3438303020202020302E303030302043202020302020302020302020302020302020302020302020302020302020302020302020300A20202020322E343932302020202D302E3036373520202020302E303030302043202020302020302020302020302020302020302020302020302020302020302020302020300A20202020302E333438362020202D312E3330353020202020302E30303030204F202020302020302020302020302020302020302020302020302020302020302020302020300A2020202D312E3235393120202020302E3932343520202020302E30303030204F202020302020302020302020302020302020302020302020302020302020302020302020300A2020202D302E3435323120202020302E3735333020202020302E303030302043202020302020302020302020302020302020302020302020302020302020302020302020300A2020202D302E333635382020202D302E3036373520202020302E303030302043202020302020302020302020302020302020302020302020302020302020302020302020300A2020202D312E313139352020202D302E3430333120202020302E303030302043202020302020302020302020302020302020302020302020302020302020302020302020300A2020202D312E3637313620202020302E3231303020202020302E303030302043202020302020302020302020302020302020302020302020302020302020302020302020300A20202020302E3136313020202020312E3330353020202020302E303030302048202020302020302020302020302020302020302020302020302020302020302020302020300A2020202D322E3439323020202020302E3132333820202020302E303030302048202020302020302020302020302020302020302020302020302020302020302020302020300A2020202D312E323931302020202D312E3231303020202020302E303030302048202020302020302020302020302020302020302020302020302020302020302020302020300A2020312020322020312020302020202020200A2020322020332020312020302020202020200A2020332020342020322020302020202020200A2020312020352020312020302020202020200A2020362020372020312020302020202020200A2020372020382020322020302020202020200A2020382020392020312020302020202020200A2020392031302020322020302020202020200A2020362031302020312020302020202020200A2020312020382020312020302020202020200A2020372031312020312020302020202020200A2031302031322020312020302020202020200A2020392031332020312020302020202020200A4D2020454E44
Contributor: MASS SPECTROSCOPY SOC. OF JAPAN (MSSJ)
InstType: EI
InstName: JEOL JMS-D-3000
IoniMethod: _ENERGY 70 eV
IonPolarity: pos
Date: 2010-10-09 19:48:36+02:00
Num Peaks: 32
42 273 45 25 50 37 51 91 52 24 53 27 55 18 57 37 60 19 62 24 
63 72 64 19 65 192 66 30 67 13 69 233 77 39 78 20 79 15 89 29 
90 24 91 888 92 101 95 117 96 46 97 999 98 53 105 16 119 67 120 570 
121 58 138 64 
