Name: MassBank: JP005097
MW: 175
Formula: C10H9NO2
Synonym: MassBank: JP005097
Synonym: 4,6-DIHYDROXY-2-METHYLQUINOLINE
Structure: 342C362D4449485944524F58592D322D4D455448594C5155494E4F4C494E452E6D6F6C0A20204368656D447261773130313831303136353432440A2031332031342020302020302020302020302020302020302020302020303939392056323030300A20202020302E3731343520202020312E3233373520202020302E30303030204E202020302020302020302020302020302020302020302020302020302020302020302020300A20202020312E3432383920202020302E3832353020202020302E303030302043202020302020302020302020302020302020302020302020302020302020302020302020300A20202020312E3432383920202020302E3030303020202020302E303030302043202020302020302020302020302020302020302020302020302020302020302020302020300A20202020302E373134352020202D302E3431323520202020302E303030302043202020302020302020302020302020302020302020302020302020302020302020302020300A2020202D302E303030302020202D302E3030303020202020302E303030302043202020302020302020302020302020302020302020302020302020302020302020302020300A2020202D302E373134352020202D302E3431323520202020302E303030302043202020302020302020302020302020302020302020302020302020302020302020302020300A2020202D312E343238392020202D302E3030303020202020302E303030302043202020302020302020302020302020302020302020302020302020302020302020302020300A2020202D312E3432383920202020302E3832353020202020302E303030302043202020302020302020302020302020302020302020302020302020302020302020302020300A2020202D302E3731343520202020312E3233373520202020302E303030302043202020302020302020302020302020302020302020302020302020302020302020302020300A20202020302E3030303020202020302E3832353020202020302E303030302043202020302020302020302020302020302020302020302020302020302020302020302020300A20202020322E3134333420202020312E3233373520202020302E303030302043202020302020302020302020302020302020302020302020302020302020302020302020300A2020202D322E313433342020202D302E3431323520202020302E30303030204F202020302020302020302020302020302020302020302020302020302020302020302020300A20202020302E373134352020202D312E3233373520202020302E30303030204F202020302020302020302020302020302020302020302020302020302020302020302020300A2020312020322020312020302020202020200A2020322020332020322020302020202020200A2020332020342020312020302020202020200A2020342020352020322020302020202020200A2020352020362020312020302020202020200A2020362020372020322020302020202020200A2020372020382020312020302020202020200A2020382020392020322020302020202020200A2020392031302020312020302020202020200A2020312031302020322020302020202020200A2020352031302020312020302020202020200A2020322031312020312020302020202020200A2020372031322020312020302020202020200A2020342031332020312020302020202020200A4D2020454E44
Contributor: SASAKI S, TOYOHASHI UNIV. OF TECH.
InstType: EI
InstName: MX-1303
IoniMethod: _ENERGY 50 eV
IonPolarity: pos
Date: 2010-10-09 19:48:36+02:00
Num Peaks: 81
26 62 27 136 29 69 36 3 37 37 38 111 39 370 40 9 41 62 42 91 
43 41 45 1 49 12 50 123 51 246 52 28 53 186 54 49 55 62 57 1 
58 12 58.5 66 59 21 62 10 63 186 64 74 64.5 62 65 15 66 45 67 74 
68 66 69 1 73 58 73.5 66 74 41 75 6 77 99 78 86 79 45 80 7 
81 33 87 350 87.5 62 88 2 89 58 90 53 91 140 92 5 93 25 101 21 
102 25 103 2 104 25 105 62 106 49 107 6 108 74 109 49 116 29 117 11 
118 160 119 53 120 21 128 3 130 33 131 12 132 25 133 2 134 45 135 12 
136 41 145 5 146 500 147 367 148 53 159 3 160 33 174 111 175 999 176 17 
177 21 
