Name: 4-METHYL-2-(TRIMETHYLSILYL)OXYBENZOIC ACIDTRIMETHYLSILYL ESTER
MW: 296
Formula: C14H24O3Si2
Synonym: MassBank: JP001021
Synonym: 4-METHYL-2-(TRIMETHYLSILYL)OXYBENZOIC ACIDTRIMETHYLSILYL ESTER
Synonym: TRIMETHYLSILYL 4-METHYL-2-TRIMETHYLSILOXYBENZOATE
Structure: 342D4D455448594C2D322D285452494D455448594C53494C594C294F585942454E5A4F494320414349445452494D455448594C53494C594C2045535445522E6D6F6C0A20204368656D447261773034323131303031333332440A2031392031392020302020302020302020302020302020302020302020303939392056323030300A2020202D302E363138382020202D302E3635393220202020302E303030302043202020302020302020302020302020302020302020302020302020302020302020302020300A20202020302E323036322020202D302E3635393220202020302E303030302043202020302020302020302020302020302020302020302020302020302020302020302020300A20202020302E3631383820202020302E3035353320202020302E303030302043202020302020302020302020302020302020302020302020302020302020302020302020300A20202020312E3434333720202020302E3035353320202020302E303030302043202020302020302020302020302020302020302020302020302020302020302020302020300A20202020312E383536332020202D302E3635393220202020302E303030302043202020302020302020302020302020302020302020302020302020302020302020302020300A20202020312E343433382020202D312E3337333720202020302E303030302043202020302020302020302020302020302020302020302020302020302020302020302020300A20202020302E363138382020202D312E3337333720202020302E303030302043202020302020302020302020302020302020302020302020302020302020302020302020300A2020202D312E3033313320202020302E3035353320202020302E30303030204F202020302020302020302020302020302020302020302020302020302020302020302020300A2020202D312E303331332020202D312E3337333720202020302E30303030204F202020302020302020302020302020302020302020302020302020302020302020302020300A20202020302E3230363220202020302E3736393720202020302E30303030204F202020302020302020302020302020302020302020302020302020302020302020302020300A20202020302E3631383720202020312E3438343220202020302E303030302053692020302020302020302020302020302020302020302020302020302020302020302020300A20202020312E3033313220202020322E3139383720202020302E303030302043202020302020302020302020302020302020302020302020302020302020302020302020300A20202020312E3333333220202020312E3037313720202020302E303030302043202020302020302020302020302020302020302020302020302020302020302020302020300A2020202D302E3039353720202020312E3839363720202020302E303030302043202020302020302020302020302020302020302020302020302020302020302020302020300A20202020322E363831322020202D302E3635393220202020302E303030302043202020302020302020302020302020302020302020302020302020302020302020302020300A2020202D312E383536322020202D312E3337333720202020302E303030302053692020302020302020302020302020302020302020302020302020302020302020302020300A2020202D312E383536322020202D322E3139383720202020302E303030302043202020302020302020302020302020302020302020302020302020302020302020302020300A2020202D322E363831322020202D312E3337333720202020302E303030302043202020302020302020302020302020302020302020302020302020302020302020302020300A2020202D312E383536322020202D302E3534383720202020302E303030302043202020302020302020302020302020302020302020302020302020302020302020302020300A2020312020322020312020302020202020200A2020322020332020312020302020202020200A2020332020342020322020302020202020200A2020342020352020312020302020202020200A2020352020362020322020302020202020200A2020362020372020312020302020202020200A2020322020372020322020302020202020200A2020312020382020322020302020202020200A2020312020392020312020302020202020200A2031312031322020312020302020202020200A2031312031332020312020302020202020200A2031312031342020312020302020202020200A2031302031312020312020302020202020200A2020332031302020312020302020202020200A2020352031352020312020302020202020200A2031362031372020312020312020202020200A2031362031382020312020302020202020200A2031362031392020312020312020202020200A2020392031362020312020302020202020200A4D2020454E44
Contributor: KOGA M, UNIV. OF OCCUPATIONAL AND ENVIRONMENTAL HEALTH
InstType: EI
InstName: JEOL JMS-01-SG
IoniMethod: _ENERGY 70 eV
IonPolarity: pos
Date: 2010-10-09 19:48:36+02:00
Num Peaks: 14
43 56 73 999 74 83 75 13 77 59 105 78 133 67 147 5 149 202 207 151 
223 135 281 86 282 210 283 86 
