Name: METHYL ETHYL SUCCINATE
MW: 160
Formula: C7H12O4
Synonym: MassBank: JP008325
Synonym: METHYL ETHYL SUCCINATE
Structure: 4D455448594C20455448594C2053554343494E4154452E6D6F6C0A20204368656D447261773038313231303030323032440A2031312031302020302020302020302020302020302020302020302020303939392056323030300A20202020302E333537322020202D302E3230363220202020302E303030302043202020302020302020302020302020302020302020302020302020302020302020302020300A2020202D302E3335373220202020302E3230363320202020302E303030302043202020302020302020302020302020302020302020302020302020302020302020302020300A2020202D312E303731372020202D302E3230363220202020302E303030302043202020302020302020302020302020302020302020302020302020302020302020302020300A2020202D312E3738363220202020302E3230363220202020302E303030302043202020302020302020302020302020302020302020302020302020302020302020302020300A20202020302E333537322020202D312E3033313220202020302E30303030204F202020302020302020302020302020302020302020302020302020302020302020302020300A20202020312E3037313720202020302E3230363320202020302E30303030204F202020302020302020302020302020302020302020302020302020302020302020302020300A2020202D312E3738363220202020312E3033313320202020302E30303030204F202020302020302020302020302020302020302020302020302020302020302020302020300A2020202D322E353030362020202D302E3230363220202020302E30303030204F202020302020302020302020302020302020302020302020302020302020302020302020300A20202020312E373836322020202D302E3230363220202020302E303030302043202020302020302020302020302020302020302020302020302020302020302020302020300A20202020322E3530303620202020302E3230363320202020302E303030302043202020302020302020302020302020302020302020302020302020302020302020302020300A2020202D322E353030362020202D312E3033313320202020302E303030302043202020302020302020302020302020302020302020302020302020302020302020302020300A2020312020322020312020302020202020200A2020322020332020312020302020202020200A2020332020342020312020302020202020200A2020312020352020322020302020202020200A2020312020362020312020302020202020200A2020342020372020322020302020202020200A2020342020382020312020302020202020200A2020392031302020312020302020202020200A2020362020392020312020302020202020200A2020382031312020312020302020202020200A4D2020454E44
Contributor: UBE SCIENTIFIC ANALYSIS LABORATORY
InstType: EI
InstName: HITACHI M-60
IoniMethod: _ENERGY 70 eV
IonPolarity: pos
Date: 2010-10-09 19:48:36+02:00
Num Peaks: 52
14 7 15 188 26 25 27 151 28 133 29 338 30 14 31 27 33 3 39 3 
41 20 42 29 43 44 44 5 45 85 53 2 54 2 55 414 56 90 57 103 
58 10 59 196 60 15 61 2 71 2 72 5 73 73 74 9 83 12 84 6 
85 5 86 7 87 109 88 108 89 9 99 6 100 27 101 384 102 18 103 2 
114 77 115 999 116 53 117 8 128 97 129 140 130 11 131 3 132 3 133 34 
134 2 160 6 
