Name: ETHYL VINYL ETHER
CAS: 109-92-2
MW: 72
Formula: C4H8O
Synonym: MassBank: JP007672
Synonym: ETHYL VINYL ETHER
Synonym: ETHOXYETHYLENE
Structure: 310A31340A455448594C2056494E594C2045544845522E6D6F6C0A20204368656D447261773038313131303139303432440A2020352020342020302020302020302020302020302020302020302020303939392056323030300A20202020302E303030302020202D302E3230363220202020302E30303030204F202020302020302020302020302020302020302020302020302020302020302020302020300A2020202D302E3731343520202020302E3230363220202020302E303030302043202020302020302020302020302020302020302020302020302020302020302020302020300A2020202D312E343238392020202D302E3230363220202020302E303030302043202020302020302020302020302020302020302020302020302020302020302020302020300A20202020302E3731343520202020302E3230363220202020302E303030302043202020302020302020302020302020302020302020302020302020302020302020302020300A20202020312E343238392020202D302E3230363220202020302E303030302043202020302020302020302020302020302020302020302020302020302020302020302020300A2020322020332020322020302020202020200A2020312020322020312020302020202020200A2020342020352020312020302020202020200A2020312020342020312020302020202020200A4D2020454E44
Contributor: TAJIMA S, GUNMA COLLEGE OF TECHNOLOGY
InstType: EI
InstName: HITACHI RMU-7M
IoniMethod: _ENERGY 70 eV
IonPolarity: pos
Date: 2010-10-09 19:48:36+02:00
Num Peaks: 17
14 52 15 150 26 95 27 518 28 92 29 625 30 19 31 112 39 15 41 37 
42 85 43 999 44 989 45 126 57 20 72 463 73 21 
