Name: DIMETHYL ETHER
MW: 46
Formula: C2H6O
Synonym: MassBank: JP003898
Synonym: DIMETHYL ETHER
Structure: 310A31300A44494D455448594C2045544845522E6D6F6C0A20204368656D447261773130313831303136353032440A2020332020322020302020302020302020302020302020302020302020303939392056323030300A2020202D302E3030303020202020302E3230363320202020302E30303030204F202020302020302020302020302020302020302020302020302020302020302020302020300A20202020302E373134352020202D302E3230363320202020302E303030302043202020302020302020302020302020302020302020302020302020302020302020302020300A2020202D302E373134352020202D302E3230363320202020302E303030302043202020302020302020302020302020302020302020302020302020302020302020302020300A2020312020322020312020302020202020200A2020312020332020312020302020202020200A4D2020454E44
Contributor: MASS SPECTROSCOPY SOC. OF JAPAN (MSSJ)
InstType: EI
InstName: Unknown
IoniMethod: EI
IonPolarity: pos
Date: 2010-10-09 19:48:36+02:00
Num Peaks: 14
12 30 13 57 14 119 15 57 16 28 17 21 28 32 29 79 30 35 31 73 
43 30 45 999 46 466 47 42 
