Name: TETRAKIS(TRIMETHYLSILYL)SILANE
MW: 320
Formula: C12H36Si5
Synonym: MassBank: JP001951
Synonym: TETRAKIS(TRIMETHYLSILYL)SILANE
Structure: 54455452414B4953285452494D455448594C53494C594C2953494C414E452E6D6F6C0A20204368656D447261773038313231303037323832440A2031372031362020302020302020302020302020302020302020302020303939392056323030300A20202020302E313233372020202D302E3132323620202020302E303030302053692020302020302020302020302020302020302020302020302020302020302020302020300A20202020302E3132333720202020312E3139373420202020302E303030302053692020302020302020302020302020302020302020302020302020302020302020302020300A2020202D302E3638383720202020312E3334303720202020302E303030302043202020302020302020302020302020302020302020302020302020302020302020302020300A20202020302E3231393520202020322E3031363920202020302E303030302043202020302020302020302020302020302020302020302020302020302020302020302020300A20202020302E3934373420202020312E3134393520202020302E303030302043202020302020302020302020302020302020302020302020302020302020302020302020300A20202020312E313936332020202D302E3132323620202020302E303030302053692020302020302020302020302020302020302020302020302020302020302020302020300A20202020312E3134383320202020302E3730313020202020302E303030302043202020302020302020302020302020302020302020302020302020302020302020302020300A20202020322E303135372020202D302E3032363820202020302E303030302043202020302020302020302020302020302020302020302020302020302020302020302020300A20202020312E333339352020202D302E3933353020202020302E303030302043202020302020302020302020302020302020302020302020302020302020302020302020300A20202020302E303631342020202D312E3139333320202020302E303030302053692020302020302020302020302020302020302020302020302020302020302020302020300A2020202D302E373632322020202D312E3234313220202020302E303030302043202020302020302020302020302020302020302020302020302020302020302020302020300A20202020302E303133342020202D322E3031363920202020302E303030302043202020302020302020302020302020302020302020302020302020302020302020302020300A20202020302E383733392020202D312E3333363520202020302E303030302043202020302020302020302020302020302020302020302020302020302020302020302020300A2020202D312E313936322020202D302E3132323620202020302E303030302053692020302020302020302020302020302020302020302020302020302020302020302020300A2020202D312E323932302020202D302E3934323020202020302E303030302043202020302020302020302020302020302020302020302020302020302020302020302020300A2020202D322E303135372020202D302E3231383320202020302E303030302043202020302020302020302020302020302020302020302020302020302020302020302020300A2020202D312E3333393520202020302E3638393920202020302E303030302043202020302020302020302020302020302020302020302020302020302020302020302020300A2020322020332020312020302020202020200A2020322020342020312020302020202020200A2020322020352020312020302020202020200A2020312020322020312020302020202020200A2020362020372020312020302020202020200A2020362020382020312020302020202020200A2020362020392020312020302020202020200A2020312020362020312020302020202020200A2031302031312020312020302020202020200A2031302031322020312020302020202020200A2031302031332020312020302020202020200A2020312031302020312020302020202020200A2031342031352020312020302020202020200A2031342031362020312020302020202020200A2031342031372020312020302020202020200A2020312031342020312020302020202020200A4D2020454E44
Contributor: MASS SPECTROSCOPY SOC. OF JAPAN (MSSJ)
InstType: EI
InstName: JEOL JMS-D-3000
IoniMethod: _ENERGY 70 eV
IonPolarity: pos
Date: 2010-10-09 19:48:36+02:00
Num Peaks: 51
43 22 45 132 59 81 73 999 74 87 75 46 85 18 99 66 100 14 101 29 
113 50 115 62 116 18 117 31 127 13 129 81 130 14 131 127 132 16 141 13 
143 46 144 17 145 36 157 90 158 250 159 101 160 38 171 57 172 30 173 271 
174 62 175 33 187 41 188 10 189 12 217 24 225 24 227 12 231 133 232 743 
233 254 234 124 235 29 247 25 305 133 306 46 307 28 320 239 321 83 322 51 
323 13 
