Name: MassBank: JP009772
MW: 166
Formula: C10H14O2
Synonym: MassBank: JP009772
Synonym: 1,7,7-TRIMETHYLBICYCLO(2.2.1)HEPTAN-2,3-DIONE
Structure: 312C372C372D5452494D455448594C42494359434C4F28322E322E312948455054414E2D322C332D44494F4E452E6D6F6C0A20204368656D447261773131313730393037333332440A2031322031332020302020302020302020302020302020302020302020303939392056323030300A2020202D302E3731343420202020302E3030303020202020302E303030302043202020302020302020302020302020302020302020302020302020302020302020302020300A2020202D302E373134342020202D302E3832353020202020302E303030302043202020302020302020302020302020302020302020302020302020302020302020302020300A2020202D302E303030302020202D312E3233373520202020302E303030302043202020302020302020302020302020302020302020302020302020302020302020302020300A20202020302E373134342020202D302E3832353020202020302E303030302043202020302020302020302020302020302020302020302020302020302020302020302020300A20202020302E3731343420202020302E3030303020202020302E303030302043202020302020302020302020302020302020302020302020302020302020302020302020300A2020202D302E3030303020202020302E3431323520202020302E303030302043202020302020302020302020302020302020302020302020302020302020302020302020300A2020202D302E3030303020202020312E3233373520202020302E30303030204F202020302020302020302020302020302020302020302020302020302020302020302020300A2020202D312E3432383920202020302E3431323520202020302E303030302043202020302020302020302020302020302020302020302020302020302020302020302020300A20202020302E3131303620202020302E3030303020202020302E303030302043202020302020302020302020302020302020302020302020302020302020302020302020300A20202020302E3438333720202020302E3733353820202020302E303030302043202020302020302020302020302020302020302020302020302020302020302020302020300A2020202D302E323632372020202D302E3733353720202020302E303030302043202020302020302020302020302020302020302020302020302020302020302020302020300A20202020312E3432383920202020302E3431323520202020302E30303030204F202020302020302020302020302020302020302020302020302020302020302020302020300A2020312020322020312020302020202020200A2020322020332020312020302020202020200A2020332020342020312020302020202020200A2020342020352020312020302020202020200A2020352020362020312020302020202020200A2020362020312020312020302020202020200A2020362020372020322020302020202020200A2020312020382020312020302020202020200A2020312020392020312020302020202020200A2020392020342020312020302020202020200A2020392031302020312020312020202020200A2020392031312020312020312020202020200A2020352031322020322020302020202020200A4D2020454E44
Contributor: KURARAY CO., LTD.
InstType: EI
InstName: JEOL JMS-D-300
IoniMethod: _ENERGY 70 eV
IonPolarity: pos
Date: 2010-10-09 19:48:36+02:00
Num Peaks: 14
28 56 39 207 41 529 55 48 67 162 69 883 75 124 83 60 95 999 105 138 
110 129 122 11 123 131 138 326 
