Name: TERT-BUTYLDICHLOROMESITYLSILANE
MW: 274
Formula: C13H20Cl2Si
Synonym: MassBank: JP004817
Synonym: TERT-BUTYLDICHLOROMESITYLSILANE
Structure: 544552542D425554594C444943484C4F524F4D45534954594C53494C414E452E6D6F6C0A20204368656D447261773038313231303037303832440A2031362031362020302020302020302020302020302020302020302020303939392056323030300A2020202D302E3937323620202020302E3532393620202020302E303030302053692020302020302020302020302020302020302020302020302020302020302020302020300A2020202D302E303433382020202D302E3030363620202020302E303030302043202020302020302020302020302020302020302020302020302020302020302020302020300A20202020302E3637303720202020302E3430353920202020302E303030302043202020302020302020302020302020302020302020302020302020302020302020302020300A20202020302E3637303720202020312E3233303920202020302E303030302043202020302020302020302020302020302020302020302020302020302020302020302020300A20202020312E333835312020202D302E3030363620202020302E303030302043202020302020302020302020302020302020302020302020302020302020302020302020300A20202020312E333835312020202D302E3833313620202020302E303030302043202020302020302020302020302020302020302020302020302020302020302020302020300A20202020322E303939362020202D312E3234343120202020302E303030302043202020302020302020302020302020302020302020302020302020302020302020302020300A20202020302E363730372020202D312E3234343120202020302E303030302043202020302020302020302020302020302020302020302020302020302020302020302020300A2020202D302E303433382020202D302E3833313620202020302E303030302043202020302020302020302020302020302020302020302020302020302020302020302020300A2020202D302E373538332020202D312E3234343120202020302E303030302043202020302020302020302020302020302020302020302020302020302020302020302020300A2020202D302E3536303120202020312E3234343120202020302E3030303020436C2020302020302020302020302020302020302020302020302020302020302020302020300A2020202D312E3638373120202020302E3934323120202020302E3030303020436C2020302020302020302020302020302020302020302020302020302020302020302020300A2020202D312E333835312020202D302E3138343820202020302E303030302043202020302020302020302020302020302020302020302020302020302020302020302020300A2020202D302E363730372020202D302E3539373320202020302E303030302043202020302020302020302020302020302020302020302020302020302020302020302020300A2020202D312E373937362020202D302E3839393320202020302E303030302043202020302020302020302020302020302020302020302020302020302020302020302020300A2020202D322E3039393620202020302E3232373720202020302E303030302043202020302020302020302020302020302020302020302020302020302020302020302020300A2020322020332020312020302020202020200A2020332020342020312020302020202020200A2020332020352020322020302020202020200A2020352020362020312020302020202020200A2020362020372020312020302020202020200A2020362020382020322020302020202020200A2020382020392020312020302020202020200A2020392031302020312020302020202020200A2020322020392020322020302020202020200A2020312020322020312020302020202020200A2020312031312020312020302020202020200A2020312031322020312020302020202020200A2031332031342020312020302020202020200A2031332031362020312020302020202020200A2031332031352020312020302020202020200A2020312031332020312020302020202020200A4D2020454E44
Contributor: MASS SPECTROSCOPY SOC. OF JAPAN (MSSJ)
InstType: EI
InstName: JEOL JMS-D-3000
IoniMethod: _ENERGY 70 eV
IonPolarity: pos
Date: 2010-10-09 19:48:36+02:00
Num Peaks: 63
40 39 51 27 52 12 53 29 63 15 65 35 77 88 78 34 79 40 81 16 
89 25 91 152 92 21 93 15 96 15 102 23 103 94 104 45 105 451 106 44 
115 83 116 28 117 152 118 369 119 435 120 893 121 92 128 16 129 14 132 20 
133 10 137 10 143 21 152 26 165 21 169 71 170 11 178 15 179 13 183 43 
184 231 185 174 186 32 189 12 191 20 192 21 193 17 205 14 206 21 207 30 
208 12 221 32 222 13 223 42 238 24 273 18 274 16 289 999 290 245 291 62 
304 413 305 105 306 27 
