Name: MassBank: JP004834
MW: 236
Formula: C10H25ClSi2
Synonym: MassBank: JP004834
Synonym: 1,2-DI-TERT-BUTYL-1-CHLORO-1,2-DIMETHYLDISILANE
Structure: 312C322D44492D544552542D425554594C2D312D43484C4F524F2D312C322D44494D455448594C444953494C414E452E6D6F6C0A20204368656D447261773131303330393232353532440A2031332031322020302020302020302020302020302020302020302020303939392056323030300A2020202D322E3036323520202020302E3030303020202020302E303030302043202020302020302020302020302020302020302020302020302020302020302020302020300A2020202D312E3233373520202020302E3030303020202020302E303030302043202020302020302020302020302020302020302020302020302020302020302020302020300A2020202D302E3431323520202020302E3030303020202020302E303030302053692020302020302020302020302020302020302020302020302020302020302020302020300A20202020302E3431323520202020302E3030303020202020302E303030302053692020302020302020302020302020302020302020302020302020302020302020302020300A20202020312E3233373520202020302E3030303020202020302E303030302043202020302020302020302020302020302020302020302020302020302020302020302020300A20202020322E3036323520202020302E3030303020202020302E303030302043202020302020302020302020302020302020302020302020302020302020302020302020300A2020202D312E3233373520202020302E3832353020202020302E303030302043202020302020302020302020302020302020302020302020302020302020302020302020300A2020202D312E323337352020202D302E3832353020202020302E303030302043202020302020302020302020302020302020302020302020302020302020302020302020300A2020202D302E3431323520202020302E3832353020202020302E3030303020436C2020302020302020302020302020302020302020302020302020302020302020302020300A2020202D302E343132352020202D302E3832353020202020302E303030302043202020302020302020302020302020302020302020302020302020302020302020302020300A20202020302E3431323520202020302E3832353020202020302E303030302043202020302020302020302020302020302020302020302020302020302020302020302020300A20202020312E3233373520202020302E3832353020202020302E303030302043202020302020302020302020302020302020302020302020302020302020302020302020300A20202020312E323337352020202D302E3832353020202020302E303030302043202020302020302020302020302020302020302020302020302020302020302020302020300A2020312020322020312020302020202020200A2020322020332020312020302020202020200A2020332020342020312020302020202020200A2020342020352020312020302020202020200A2020352020362020312020302020202020200A2020322020372020312020312020202020200A2020322020382020312020312020202020200A2020332020392020312020302020202020200A2020332031302020312020302020202020200A2020342031312020312020302020202020200A2020352031322020312020312020202020200A2020352031332020312020312020202020200A4D2020454E44
Contributor: MASS SPECTROSCOPY SOC. OF JAPAN (MSSJ)
InstType: EI
InstName: JEOL JMS-D-3000
IoniMethod: _ENERGY 70 eV
IonPolarity: pos
Date: 2010-10-09 19:48:36+02:00
Num Peaks: 60
43 169 44 24 45 73 55 14 56 37 57 155 58 163 59 597 60 49 61 23 
63 35 65 25 69 12 71 34 72 78 73 927 74 83 75 35 79 27 81 12 
83 11 85 999 86 106 87 43 93 218 94 19 95 80 99 60 100 354 101 109 
102 24 105 12 113 19 119 13 121 12 122 29 123 62 124 24 125 27 127 11 
135 25 136 13 137 162 138 25 139 67 151 36 153 16 157 28 179 221 180 91 
181 101 182 34 187 94 188 14 189 68 191 16 229 15 236 48 237 11 238 21 
