Name: MassBank: JP005226
MW: 334
Formula: C21H34O3
Synonym: MassBank: JP005226
Synonym: 4ABETA-ETHYLENEDIOXYMETHYL-(1BETA),6-DIMETHYL-(1ALPHA)-(4-METHYL-3-PENTENYL)-1,2,3,4,4A,7,8,8A-OCTAHYDRONAPHTHALENE-5(6H)-ONE
Structure: 3441424554412D455448594C454E4544494F58594D455448594C2D283142455441292C362D44494D455448594C2D2831414C504841292D28342D4D455448594C2D332D50454E54454E594C292D312C322C332C342C34412C372C382C38412D4F435441485944524F4E4150485448414C454E452D35283648292D4F4E452E6D6F6C0A20204368656D447261773034323331303030353932440A2032352032372020302020302020302020302020302020302020302020303939392056323030300A2020202D312E313237302020202D302E3531353020202020302E303030302043202020302020302020302020302020302020302020302020302020302020302020302020300A2020202D312E313237302020202D312E3334303020202020302E303030302043202020302020302020302020302020302020302020302020302020302020302020302020300A2020202D302E343132352020202D312E3735323520202020302E303030302043202020302020302020302020302020302020302020302020302020302020302020302020300A20202020302E333032302020202D312E3334303020202020302E303030302043202020302020302020302020302020302020302020302020302020302020302020302020300A20202020302E333032302020202D302E3531353020202020302E303030302043202020302020302020302020302020302020302020302020302020302020302020302020300A2020202D302E343132352020202D302E3130323520202020302E303030302043202020302020302020302020302020302020302020302020302020302020302020302020300A20202020312E303136342020202D312E3735323520202020302E303030302043202020302020302020302020302020302020302020302020302020302020302020302020300A20202020312E373330392020202D312E3334303020202020302E303030302043202020302020302020302020302020302020302020302020302020302020302020302020300A20202020312E373330392020202D302E3531353020202020302E303030302043202020302020302020302020302020302020302020302020302020302020302020302020300A20202020312E303136342020202D302E3130323520202020302E303030302043202020302020302020302020302020302020302020302020302020302020302020302020300A2020202D312E383431342020202D312E3735323520202020302E303030302043202020302020302020302020302020302020302020302020302020302020302020302020300A2020202D302E343132352020202D322E3537373520202020302E30303030204F202020302020302020302020302020302020302020302020302020302020302020302020300A20202020302E3330323020202020302E3331303020202020302E303030302048202020302020302020302020302020302020302020302020302020302020302020302020300A20202020302E3630333920202020302E3631323020202020302E303030302043202020302020302020302020302020302020302020302020302020302020302020302020300A20202020312E3432383920202020302E3631323020202020302E303030302043202020302020302020302020302020302020302020302020302020302020302020302020300A20202020302E353135352020202D322E3133363820202020302E303030302043202020302020302020302020302020302020302020302020302020302020302020302020300A2020202D302E303033372020202D322E3737383020202020302E30303030204F202020302020302020302020302020302020302020302020302020302020302020302020300A20202020302E343435362020202D332E3436393920202020302E303030302043202020302020302020302020302020302020302020302020302020302020302020302020300A20202020312E323432352020202D332E3235363420202020302E303030302043202020302020302020302020302020302020302020302020302020302020302020302020300A20202020312E323835372020202D322E3433323520202020302E30303030204F202020302020302020302020302020302020302020302020302020302020302020302020300A20202020312E3031363420202020312E3332363520202020302E303030302043202020302020302020302020302020302020302020302020302020302020302020302020300A20202020302E3630333920202020322E3034313020202020302E303030302043202020302020302020302020302020302020302020302020302020302020302020302020300A20202020312E3031363420202020322E3735353420202020302E303030302043202020302020302020302020302020302020302020302020302020302020302020302020300A20202020302E3630333920202020332E3436393920202020302E303030302043202020302020302020302020302020302020302020302020302020302020302020302020300A20202020312E3834313420202020322E3735353420202020302E303030302043202020302020302020302020302020302020302020302020302020302020302020302020300A2020312020322020312020302020202020200A2020322020332020312020302020202020200A2020332020342020312020302020202020200A2020342020352020312020302020202020200A2020352020362020312020302020202020200A2020362020312020312020302020202020200A2020342020372020312020302020202020200A2020372020382020312020302020202020200A2020382020392020312020302020202020200A2020392031302020312020302020202020200A2031302020352020312020302020202020200A2020322031312020312020302020202020200A2020332031322020322020302020202020200A2020352031332020312020362020202020200A2031302031342020312020362020202020200A2031302031352020312020312020202020200A2020342031362020312020312020202020200A2031362031372020312020302020202020200A2031372031382020312020302020202020200A2031382031392020312020302020202020200A2031392032302020312020302020202020200A2032302031362020312020302020202020200A2031342032312020312020302020202020200A2032312032322020312020302020202020200A2032322032332020322020302020202020200A2032332032342020312020302020202020200A2032332032352020312020302020202020200A4D2020454E44
Contributor: HISAHIRO HAGIWARA, CHEMICAL RESEARCH INSTITUTE OF NON-AQUEOUSSOLUTIONS TOHOKU UNIV.
InstType: EI
InstName: JEOL JMS-DX-300
IoniMethod: _ENERGY 70 eV
IonPolarity: pos
Date: 2010-10-09 19:48:36+02:00
Num Peaks: 149
39 98 40 20 41 942 42 5 43 303 44 25 45 999 46 2 51 14 52 18 
53 203 54 4 55 666 56 81 57 59 59 1 65 72 66 42 67 408 68 11 
69 933 70 66 71 27 74 86 75 136 77 150 78 39 79 29 80 59 81 352 
82 126 83 14 84 20 85 12 87 10 91 20 92 40 93 308 94 102 95 27 
96 46 97 46 98 20 99 1 100 172 101 26 103 16 104 1 105 171 106 39 
107 191 108 6 109 151 110 36 111 44 112 2 113 84 114 57 115 23 116 0 
117 34 118 17 119 100 120 3 121 106 122 39 123 78 124 3 125 95 126 31 
127 44 128 2 129 27 131 41 132 12 133 8 134 43 135 105 136 67 137 6 
138 29 139 36 140 13 141 1 145 34 147 61 148 28 149 11 150 31 151 40 
152 11 153 4 155 18 159 46 160 10 161 7 162 30 163 41 165 17 166 2 
167 28 169 12 170 14 173 2 174 27 175 87 176 41 177 1 178 295 179 85 
180 19 181 0 182 16 183 16 184 15 186 2 187 14 189 47 190 19 191 1 
192 13 193 13 197 50 201 1 203 17 205 17 217 15 229 1 230 12 234 16 
242 11 247 0 248 24 249 16 250 500 251 14 252 30 253 17 256 15 260 0 
261 27 262 22 263 14 264 2 291 16 320 39 334 376 335 11 336 20 
