Name: 10-UNDECENOIC ACID
MW: 184
Formula: C11H20O2
Synonym: MassBank: JP008908
Synonym: 10-UNDECENOIC ACID
Structure: 31302D554E444543454E4F494320414349442E6D6F6C0A20204368656D447261773132313030393136353032440A2031332031322020302020302020302020302020302020302020302020303939392056323030300A2020202D322E383537392020202D302E3431323520202020302E303030302043202020302020302020302020302020302020302020302020302020302020302020302020300A2020202D322E3835373920202020302E3431323520202020302E303030302043202020302020302020302020302020302020302020302020302020302020302020302020300A2020202D322E3134333420202020302E3832353020202020302E303030302043202020302020302020302020302020302020302020302020302020302020302020302020300A2020202D312E3432383920202020302E3431323520202020302E303030302043202020302020302020302020302020302020302020302020302020302020302020302020300A2020202D302E3731343520202020302E3832353020202020302E303030302043202020302020302020302020302020302020302020302020302020302020302020302020300A20202020302E3030303020202020302E3431323520202020302E303030302043202020302020302020302020302020302020302020302020302020302020302020302020300A20202020302E3731343520202020302E3832353020202020302E303030302043202020302020302020302020302020302020302020302020302020302020302020302020300A20202020312E3432383920202020302E3431323520202020302E303030302043202020302020302020302020302020302020302020302020302020302020302020302020300A20202020322E3134333420202020302E3832353020202020302E303030302043202020302020302020302020302020302020302020302020302020302020302020302020300A20202020322E3835373920202020302E3431323520202020302E303030302043202020302020302020302020302020302020302020302020302020302020302020302020300A20202020332E3537323420202020302E3832353020202020302E303030302043202020302020302020302020302020302020302020302020302020302020302020302020300A2020202D322E313433342020202D302E3832353020202020302E30303030204F202020302020302020302020302020302020302020302020302020302020302020302020300A2020202D332E353732342020202D302E3832353020202020302E30303030204F202020302020302020302020302020302020302020302020302020302020302020302020300A2020312020322020312020302020202020200A2020322020332020312020302020202020200A2020332020342020312020302020202020200A2020342020352020312020302020202020200A2020352020362020312020302020202020200A2020362020372020312020302020202020200A2020372020382020312020302020202020200A2020382020392020312020302020202020200A2020392031302020312020302020202020200A2031302031312020322020302020202020200A2020312031322020322020302020202020200A2020312031332020312020302020202020200A4D2020454E44
Contributor: YAMAMOTO M, DEP. CHEMISTRY, FAC. SCIENCE, NARA WOMEN'S UNIV.
InstType: EI
InstName: HITACHI RMU-6M
IoniMethod: _ENERGY 70 eV
IonPolarity: pos
Date: 2010-10-09 19:48:36+02:00
Num Peaks: 75
15 13 26 16 27 319 28 8 29 364 30 19 31 39 39 35 40 58 41 916 
42 170 43 18 45 102 51 18 52 13 53 11 54 165 55 999 56 191 57 6 
58 18 59 65 60 267 61 3 65 18 66 16 67 162 68 23 69 458 70 115 
71 42 73 22 74 26 77 16 79 37 80 3 81 139 82 251 83 304 84 16 
85 29 86 10 87 63 88 1 93 19 94 31 95 79 96 20 97 123 98 99 
99 31 100 7 101 68 102 10 107 10 109 3 110 71 111 39 112 21 113 3 
114 81 115 26 119 18 122 9 123 89 124 149 125 50 127 2 128 10 137 42 
138 29 141 1 148 31 166 68 167 10 
