Name: P-METHYLACETOPHENONE
CAS: 122-00-9
MW: 134
Formula: C9H10O
Synonym: MassBank: JP007140
Synonym: P-METHYLACETOPHENONE
Synonym: 4-METHYLACETOPHENONE
Structure: 502D4D455448594C414345544F5048454E4F4E452E6D6F6C0A20204368656D447261773034323131303032353232440A2031302031302020302020302020302020302020302020302020302020303939392056323030300A2020202D302E3030303020202020312E3434333820202020302E303030302043202020302020302020302020302020302020302020302020302020302020302020302020300A20202020302E3731343520202020312E3835363320202020302E303030302043202020302020302020302020302020302020302020302020302020302020302020302020300A2020202D302E3731343520202020312E3835363320202020302E30303030204F202020302020302020302020302020302020302020302020302020302020302020302020300A2020202D302E3030303020202020302E3631383820202020302E303030302043202020302020302020302020302020302020302020302020302020302020302020302020300A20202020302E3731343520202020302E3230363220202020302E303030302043202020302020302020302020302020302020302020302020302020302020302020302020300A20202020302E373134352020202D302E3631383820202020302E303030302043202020302020302020302020302020302020302020302020302020302020302020302020300A2020202D302E303030302020202D312E3033313320202020302E303030302043202020302020302020302020302020302020302020302020302020302020302020302020300A2020202D302E373134352020202D302E3631383820202020302E303030302043202020302020302020302020302020302020302020302020302020302020302020302020300A2020202D302E3731343520202020302E3230363220202020302E303030302043202020302020302020302020302020302020302020302020302020302020302020302020300A2020202D302E303030302020202D312E3835363320202020302E303030302043202020302020302020302020302020302020302020302020302020302020302020302020300A2020312020322020312020302020202020200A2020342020352020312020302020202020200A2020352020362020322020302020202020200A2020362020372020312020302020202020200A2020372020382020322020302020202020200A2020382020392020312020302020202020200A2020342020392020322020302020202020200A2020312020332020322020302020202020200A2020312020342020312020302020202020200A2020372031302020312020302020202020200A4D2020454E44
Contributor: SODA AROMATIC CO., LTD.
InstType: EI
InstName: HITACHI M-80B
IoniMethod: _ENERGY 70 eV
IonPolarity: pos
Date: 2010-10-09 19:48:36+02:00
Num Peaks: 29
15 28 27 24 38 21 39 145 41 26 42 12 43 144 46 10 50 54 51 83 
52 15 53 11 62 36 63 115 64 24 65 244 66 12 74 13 75 11 77 26 
89 83 90 34 91 750 92 60 105 13 119 999 120 89 134 317 135 26 
