Name: MassBank: JP008880
MW: 116
Formula: C6H12O2
Synonym: MassBank: JP008880
Synonym: TRANS-1,2-CYCLOHEXANEDIOL
Structure: 310A32310A5452414E532D312C322D4359434C4F484558414E4544494F4C2E6D6F6C0A20204368656D447261773038313231303037343532440A2020382020382020302020302020302020302020302020302020302020303939392056323030300A2020202D302E343132352020202D302E3335373220202020302E303030302043202020302020302020302020302020302020302020302020302020302020302020302020300A2020202D302E3030303020202020302E3335373220202020302E303030302043202020302020302020302020302020302020302020302020302020302020302020302020300A20202020302E3832353020202020302E3335373220202020302E303030302043202020302020302020302020302020302020302020302020302020302020302020302020300A20202020312E323337352020202D302E3335373220202020302E303030302043202020302020302020302020302020302020302020302020302020302020302020302020300A20202020302E383235302020202D312E3037313720202020302E303030302043202020302020302020302020302020302020302020302020302020302020302020302020300A2020202D302E303030302020202D312E3037313720202020302E303030302043202020302020302020302020302020302020302020302020302020302020302020302020300A2020202D312E323337352020202D302E3335373220202020302E30303030204F202020302020302020302020302020302020302020302020302020302020302020302020300A2020202D302E3431323520202020312E3037313720202020302E30303030204F202020302020302020302020302020302020302020302020302020302020302020302020300A2020312020322020312020302020202020200A2020322020332020312020302020202020200A2020332020342020312020302020202020200A2020342020352020312020302020202020200A2020352020362020312020302020202020200A2020312020362020312020302020202020200A2020312020372020312020312020202020200A2020322020382020312020362020202020200A4D2020454E44
Contributor: TAJIMA S, GUNMA COLLEGE OF TECHNOLOGY
InstType: EI
InstName: HITACHI RMU-7M
IoniMethod: _ENERGY 70 eV
IonPolarity: pos
Date: 2010-10-09 19:48:36+02:00
Num Peaks: 39
14 20 15 77 19 30 26 60 27 404 28 131 29 418 30 53 31 224 38 36 
39 336 40 56 41 366 42 249 43 298 44 292 45 60 50 23 51 35 53 54 
54 66 55 210 56 90 57 569 58 40 60 36 67 57 68 37 69 222 70 999 
71 67 79 38 80 90 81 46 83 332 97 71 98 306 99 42 116 83 
