Name: BETA-BERGAMOTENE
MW: 204
Formula: C15H24
Synonym: MassBank: JP002856
Synonym: BETA-BERGAMOTENE
Structure: 424554412D42455247414D4F54454E452E6D6F6C0A20204368656D447261773039303531303132303232440A2031372031382020302020302020302020302020302020302020302020303939392056323030300A2020202D302E3331363020202020312E3537393920202020302E303030302043202020302020302020302020302020302020302020302020302020302020302020302020300A2020202D302E3331363020202020302E3735343920202020302E303030302043202020302020302020302020302020302020302020302020302020302020302020302020300A20202020302E3339383420202020302E3334323420202020302E303030302043202020302020302020302020302020302020302020302020302020302020302020302020300A20202020312E3131323920202020302E3735343920202020302E303030302043202020302020302020302020302020302020302020302020302020302020302020302020300A20202020312E3131323920202020312E3537393920202020302E303030302043202020302020302020302020302020302020302020302020302020302020302020302020300A20202020302E3339383420202020312E3939323420202020302E303030302043202020302020302020302020302020302020302020302020302020302020302020302020300A20202020302E3339383420202020322E3831373420202020302E303030302043202020302020302020302020302020302020302020302020302020302020302020302020300A2020202D312E3131323920202020302E3936383520202020302E303030302043202020302020302020302020302020302020302020302020302020302020302020302020300A20202020302E3339383420202020312E3136373420202020302E303030302043202020302020302020302020302020302020302020302020302020302020302020302020300A2020202D302E3732383520202020302E3034303520202020302E303030302043202020302020302020302020302020302020302020302020302020302020302020302020300A2020202D312E3033303520202020312E3939323420202020302E303030302048202020302020302020302020302020302020302020302020302020302020302020302020300A20202020302E333938342020202D302E3438323620202020302E303030302048202020302020302020302020302020302020302020302020302020302020302020302020300A2020202D302E333136302020202D302E3637343020202020302E303030302043202020302020302020302020302020302020302020302020302020302020302020302020300A2020202D302E373238352020202D312E3338383520202020302E303030302043202020302020302020302020302020302020302020302020302020302020302020302020300A2020202D302E333136302020202D322E3130333020202020302E303030302043202020302020302020302020302020302020302020302020302020302020302020302020300A2020202D302E373238352020202D322E3831373420202020302E303030302043202020302020302020302020302020302020302020302020302020302020302020302020300A20202020302E353039302020202D322E3130333020202020302E303030302043202020302020302020302020302020302020302020302020302020302020302020302020300A2020312020322020312020302020202020200A2020322020332020312020302020202020200A2020332020342020312020302020202020200A2020342020352020312020302020202020200A2020352020362020312020302020202020200A2020362020312020312020302020202020200A2020362020372020322020302020202020200A2020322020382020312020312020202020200A2020312020392020312020312020202020200A2020332020392020312020312020202020200A2020322031302020312020362020202020200A2020312031312020312020362020202020200A2020332031322020312020362020202020200A2031302031332020312020302020202020200A2031332031342020312020302020202020200A2031342031352020322020302020202020200A2031352031362020312020302020202020200A2031352031372020312020302020202020200A4D2020454E44
Contributor: SASAKI S, TOYOHASHI UNIV. OF TECH.
InstType: EI
InstName: Unknown
IoniMethod: EI
IonPolarity: pos
Date: 2010-10-09 19:48:36+02:00
Num Peaks: 41
27 62 29 56 39 171 40 3 42 22 43 142 51 30 52 1 53 100 54 10 
55 170 56 7 57 35 65 36 67 42 68 2 69 342 70 33 77 142 79 14 
80 42 81 73 91 256 92 14 93 685 95 85 97 28 102 2 103 22 105 170 
107 228 109 9 119 999 120 142 121 28 133 1 134 16 135 28 136 15 161 3 
41 570 
