Name: MassBank: JP001030
MW: 288
Formula: C12H24O4Si2
Synonym: MassBank: JP001030
Synonym: TRANS-2-BUTENE-1,4-DICARBOXYLIC ACID BIS(TRIMETHYLSILYL) ESTER
Synonym: DI(TRIMETHYLSILYL) TRANS-3-HEXENEDIOATE
Structure: 5452414E532D322D425554454E452D312C342D4449434152424F58594C4943204143494420424953285452494D455448594C53494C594C292045535445522E6D6F6C0A20204368656D447261773038313231303037343632440A2031382031372020302020302020302020302020302020302020302020303939392056323030300A2020202D302E373134352020202D302E3335373220202020302E303030302043202020302020302020302020302020302020302020302020302020302020302020302020300A20202020302E303030302020202D302E3736393720202020302E303030302043202020302020302020302020302020302020302020302020302020302020302020302020300A20202020302E373134352020202D302E3335373220202020302E303030302043202020302020302020302020302020302020302020302020302020302020302020302020300A20202020312E343238392020202D302E3736393720202020302E303030302043202020302020302020302020302020302020302020302020302020302020302020302020300A2020202D312E343238392020202D302E3736393720202020302E303030302043202020302020302020302020302020302020302020302020302020302020302020302020300A2020202D312E343238392020202D312E3539343720202020302E30303030204F202020302020302020302020302020302020302020302020302020302020302020302020300A2020202D322E313433342020202D302E3335373220202020302E30303030204F202020302020302020302020302020302020302020302020302020302020302020302020300A20202020322E313433342020202D302E3335373220202020302E303030302043202020302020302020302020302020302020302020302020302020302020302020302020300A20202020322E383537392020202D302E3736393720202020302E30303030204F202020302020302020302020302020302020302020302020302020302020302020302020300A20202020322E3134333420202020302E3436373820202020302E30303030204F202020302020302020302020302020302020302020302020302020302020302020302020300A2020202D322E383537392020202D302E3736393720202020302E303030302053692020302020302020302020302020302020302020302020302020302020302020302020300A2020202D332E323730342020202D302E3035353320202020302E303030302043202020302020302020302020302020302020302020302020302020302020302020302020300A2020202D322E343435342020202D312E3438343220202020302E303030302043202020302020302020302020302020302020302020302020302020302020302020302020300A2020202D332E353732342020202D312E3138323220202020302E303030302043202020302020302020302020302020302020302020302020302020302020302020302020300A20202020322E3835373920202020302E3838303320202020302E303030302053692020302020302020302020302020302020302020302020302020302020302020302020300A20202020322E3434353420202020312E3539343720202020302E303030302043202020302020302020302020302020302020302020302020302020302020302020302020300A20202020332E3537323420202020312E3239323820202020302E303030302043202020302020302020302020302020302020302020302020302020302020302020302020300A20202020332E3237303420202020302E3136353820202020302E303030302043202020302020302020302020302020302020302020302020302020302020302020302020300A2020312020322020312020302020202020200A2020322020332020322020302020202020200A2020332020342020312020302020202020200A2020352020362020322020302020202020200A2020352020372020312020302020202020200A2020312020352020312020302020202020200A2020382020392020322020302020202020200A2020382031302020312020302020202020200A2020342020382020312020302020202020200A2031312031322020312020302020202020200A2031312031332020312020302020202020200A2031312031342020312020302020202020200A2020372031312020312020302020202020200A2031352031362020312020302020202020200A2031352031372020312020302020202020200A2031352031382020312020302020202020200A2031302031352020312020302020202020200A4D2020454E44
Contributor: KOGA M, UNIV. OF OCCUPATIONAL AND ENVIRONMENTAL HEALTH
InstType: EI
InstName: JEOL JMS-01-SG
IoniMethod: _ENERGY 70 eV
IonPolarity: pos
Date: 2010-10-09 19:48:36+02:00
Num Peaks: 12
45 179 47 170 54 111 73 999 74 111 75 470 77 307 82 19 93 94 147 615 
244 85 273 128 
