Name: MassBank: JP003558
MW: 358
Formula: C22H30O2S
Synonym: MassBank: JP003558
Synonym: 4,4'-THIO-BIS(3-METHYL-6-TERT-BUTYLPHENOL)
Structure: 342C34272D5448494F2D42495328332D4D455448594C2D362D544552542D425554594C5048454E4F4C292E6D6F6C0A20204368656D447261773130313831303136343932440A2032352032362020302020302020302020302020302020302020302020303939392056323030300A20202020302E333537322020202D312E3233373520202020302E303030302053202020302020302020302020302020302020302020302020302020302020302020302020300A20202020322E3530303620202020302E3030303020202020302E303030302043202020302020302020302020302020302020302020302020302020302020302020302020300A20202020322E353030362020202D302E3832353020202020302E303030302043202020302020302020302020302020302020302020302020302020302020302020302020300A20202020312E373836322020202D312E3233373520202020302E303030302043202020302020302020302020302020302020302020302020302020302020302020302020300A20202020312E303731372020202D302E3832353020202020302E303030302043202020302020302020302020302020302020302020302020302020302020302020302020300A20202020312E303731372020202D302E3030303020202020302E303030302043202020302020302020302020302020302020302020302020302020302020302020302020300A20202020312E3738363220202020302E3431323520202020302E303030302043202020302020302020302020302020302020302020302020302020302020302020302020300A20202020312E3738363220202020312E3233373520202020302E303030302043202020302020302020302020302020302020302020302020302020302020302020302020300A20202020312E3738363220202020322E3036323520202020302E303030302043202020302020302020302020302020302020302020302020302020302020302020302020300A20202020322E3631313220202020312E3233373520202020302E303030302043202020302020302020302020302020302020302020302020302020302020302020302020300A20202020302E3936313220202020312E3233373520202020302E303030302043202020302020302020302020302020302020302020302020302020302020302020302020300A20202020312E373836322020202D322E3036323520202020302E303030302043202020302020302020302020302020302020302020302020302020302020302020302020300A20202020332E3231353120202020302E3431323520202020302E30303030204F202020302020302020302020302020302020302020302020302020302020302020302020300A2020202D312E373836322020202D302E3030303020202020302E303030302043202020302020302020302020302020302020302020302020302020302020302020302020300A2020202D312E3037313720202020302E3431323520202020302E303030302043202020302020302020302020302020302020302020302020302020302020302020302020300A2020202D302E333537322020202D302E3030303020202020302E303030302043202020302020302020302020302020302020302020302020302020302020302020302020300A2020202D302E333537322020202D302E3832353020202020302E303030302043202020302020302020302020302020302020302020302020302020302020302020302020300A2020202D312E303731372020202D312E3233373520202020302E303030302043202020302020302020302020302020302020302020302020302020302020302020302020300A2020202D312E373836322020202D302E3832353020202020302E303030302043202020302020302020302020302020302020302020302020302020302020302020302020300A2020202D322E353030362020202D312E3233373520202020302E303030302043202020302020302020302020302020302020302020302020302020302020302020302020300A2020202D322E303838312020202D312E3935323020202020302E303030302043202020302020302020302020302020302020302020302020302020302020302020302020300A2020202D332E323135312020202D312E3635303020202020302E303030302043202020302020302020302020302020302020302020302020302020302020302020302020300A2020202D322E393133312020202D302E3532333020202020302E303030302043202020302020302020302020302020302020302020302020302020302020302020302020300A20202020302E3335373220202020302E3431323520202020302E303030302043202020302020302020302020302020302020302020302020302020302020302020302020300A2020202D322E3530303620202020302E3431323520202020302E30303030204F202020302020302020302020302020302020302020302020302020302020302020302020300A2020322020332020312020302020202020200A2020332020342020322020302020202020200A2020342020352020312020302020202020200A2020352020362020322020302020202020200A2020362020372020312020302020202020200A2020322020372020322020302020202020200A2020382020392020312020302020202020200A2020382031312020312020302020202020200A2020382031302020312020302020202020200A2020372020382020312020302020202020200A2020342031322020312020302020202020200A2020322031332020312020302020202020200A2020312020352020312020302020202020200A2031342031352020312020302020202020200A2031352031362020322020302020202020200A2031362031372020312020302020202020200A2031372031382020322020302020202020200A2031382031392020312020302020202020200A2031342031392020322020302020202020200A2032302032312020312020302020202020200A2032302032332020312020302020202020200A2032302032322020312020302020202020200A2031392032302020312020302020202020200A2031362032342020312020302020202020200A2031342032352020312020302020202020200A2020312031372020312020302020202020200A4D2020454E44
Contributor: MASS SPECTROSCOPY SOC. OF JAPAN (MSSJ)
InstType: EI
InstName: Unknown
IoniMethod: EI
IonPolarity: pos
Date: 2010-10-09 19:48:36+02:00
Num Peaks: 49
29 57 39 26 41 124 43 81 45 116 55 39 57 174 69 66 77 43 79 31 
91 68 105 45 107 21 109 26 115 48 117 23 119 40 121 43 128 52 129 58 
131 21 133 46 135 21 136 247 137 30 139 75 147 49 148 28 149 48 150 127 
151 52 152 22 153 47 161 30 162 44 163 26 164 141 165 63 172 41 179 114 
180 31 195 102 329 49 343 336 344 113 345 41 358 999 359 238 360 68 
