Name: TRIBUTOXYETHYL PHOSPHATE
MW: 398
Formula: C18H39O7P
Synonym: MassBank: JP003366
Synonym: TRIBUTOXYETHYL PHOSPHATE
Structure: 303234335F5452494255544F5859455448594C2050484F5350484154452E6D6F6C0A20204368656D447261773038323031303031313632440A2032362032352020302020302020302020302020302020302020302020303939392056323030300A20202020302E3036373320202020312E3031363520202020302E303030302050202020302020302020302020302020302020302020302020302020302020302020302020300A2020202D302E3634373020202020312E3432393020202020302E30303030204F202020302020302020302020302020302020302020302020302020302020302020302020300A20202020302E3738313820202020302E3630343020202020302E30303030204F202020302020302020302020302020302020302020302020302020302020302020302020300A2020202D302E3334353220202020302E3330323020202020302E30303030204F202020302020302020302020302020302020302020302020302020302020302020302020300A20202020302E3437393820202020312E3733303920202020302E30303030204F202020302020302020302020302020302020302020302020302020302020302020302020300A20202020302E373831382020202D302E3232313020202020302E303030302043202020302020302020302020302020302020302020302020302020302020302020302020300A20202020312E343936332020202D302E3633333520202020302E303030302043202020302020302020302020302020302020302020302020302020302020302020302020300A20202020312E343936332020202D312E3435383520202020302E30303030204F202020302020302020302020302020302020302020302020302020302020302020302020300A20202020322E323130372020202D312E3837313020202020302E303030302043202020302020302020302020302020302020302020302020302020302020302020302020300A20202020322E323130372020202D322E3639363020202020302E303030302043202020302020302020302020302020302020302020302020302020302020302020302020300A20202020322E393235322020202D332E3130383520202020302E303030302043202020302020302020302020302020302020302020302020302020302020302020302020300A20202020322E393235322020202D332E3933333520202020302E303030302043202020302020302020302020302020302020302020302020302020302020302020302020300A20202020312E3132363120202020312E3739303020202020302E303030302043202020302020302020302020302020302020302020302020302020302020302020302020300A20202020312E3533383620202020322E3530343520202020302E303030302043202020302020302020302020302020302020302020302020302020302020302020302020300A20202020322E3336333620202020322E3530343520202020302E30303030204F202020302020302020302020302020302020302020302020302020302020302020302020300A20202020322E3737363120202020332E3231393020202020302E303030302043202020302020302020302020302020302020302020302020302020302020302020302020300A20202020332E3630313120202020332E3231393020202020302E303030302043202020302020302020302020302020302020302020302020302020302020302020302020300A20202020342E3031333620202020332E3933333520202020302E303030302043202020302020302020302020302020302020302020302020302020302020302020302020300A20202020342E3833383620202020332E3933333520202020302E303030302043202020302020302020302020302020302020302020302020302020302020302020302020300A2020202D312E3132363120202020302E3238383320202020302E303030302043202020302020302020302020302020302020302020302020302020302020302020302020300A2020202D312E353338362020202D302E3432363220202020302E303030302043202020302020302020302020302020302020302020302020302020302020302020302020300A2020202D322E333633362020202D302E3432363220202020302E30303030204F202020302020302020302020302020302020302020302020302020302020302020302020300A2020202D322E373736312020202D312E3134303620202020302E303030302043202020302020302020302020302020302020302020302020302020302020302020302020300A2020202D332E363031312020202D312E3134303620202020302E303030302043202020302020302020302020302020302020302020302020302020302020302020302020300A2020202D342E303133362020202D312E3835353120202020302E303030302043202020302020302020302020302020302020302020302020302020302020302020302020300A2020202D342E383338362020202D312E3835353120202020302E303030302043202020302020302020302020302020302020302020302020302020302020302020302020300A2020312020322020322020302020202020200A2020312020332020312020302020202020200A2020312020342020312020302020202020200A2020312020352020312020302020202020200A2020332020362020312020302020202020200A2020362020372020312020302020202020200A2020372020382020312020302020202020200A2020382020392020312020302020202020200A2020392031302020312020302020202020200A2031302031312020312020302020202020200A2031312031322020312020302020202020200A2031332031342020312020302020202020200A2031342031352020312020302020202020200A2031352031362020312020302020202020200A2031362031372020312020302020202020200A2031372031382020312020302020202020200A2031382031392020312020302020202020200A2020352031332020312020302020202020200A2032302032312020312020302020202020200A2032312032322020312020302020202020200A2032322032332020312020302020202020200A2032332032342020312020302020202020200A2032342032352020312020302020202020200A2032352032362020312020302020202020200A2032302020342020312020302020202020200A4D2020454E44
Contributor: KOGA M, UNIV. OF OCCUPATIONAL AND ENVIRONMENTAL HEALTH
InstType: EI
InstName: JEOL JMS-01-SG-2
IoniMethod: _ENERGY 75 eV
IonPolarity: pos
Date: 2010-10-09 19:48:36+02:00
Num Peaks: 31
44 111 45 374 46 22 54 118 55 379 56 999 57 46 58 6 59 98 61 26 
62 63 69 2 71 102 72 67 73 77 75 13 85 122 87 176 88 23 89 5 
99 96 100 126 101 67 116 2 125 21 143 23 155 40 205 2 211 32 249 94 
251 64 
