Name: MassBank: JP005149
MW: 330
Formula: C22H22N2O
Synonym: MassBank: JP005149
Synonym: 3,3-DIMETHYL-11-O-TOLYL-2,3,4,5-TETRAHYDRO-1H-DIBENZO(B,E)(1,4)-DIAZEPIN-1-ONE
Structure: 332C332D44494D455448594C2D31312D4F2D544F4C594C2D322C332C342C352D5445545241485944524F2D31482D444942454E5A4F28422C452928312C34292D4449415A4550494E2D312D4F4E452E6D6F6C0A20204368656D447261773032323131303230313632440A2032352032382020302020302020302020302020302020302020302020303939392056323030300A20202020312E323638332020202D302E3234313420202020302E30303030204E202020302020302020302020302020302020302020302020302020302020302020302020300A20202020312E343435392020202D312E3034373020202020302E303030302043202020302020302020302020302020302020302020302020302020302020302020302020300A20202020302E393236372020202D312E3638353120202020302E303030302043202020302020302020302020302020302020302020302020302020302020302020302020300A20202020302E313031372020202D312E3638353120202020302E30303030204E202020302020302020302020302020302020302020302020302020302020302020302020300A2020202D302E343037392020202D312E3033333220202020302E303030302043202020302020302020302020302020302020302020302020302020302020302020302020300A2020202D302E323236392020202D302E3233393120202020302E303030302043202020302020302020302020302020302020302020302020302020302020302020302020300A20202020302E3533303820202020302E3132323120202020302E303030302043202020302020302020302020302020302020302020302020302020302020302020302020300A20202020312E323232332020202D322E3435383420202020302E303030302043202020302020302020302020302020302020302020302020302020302020302020302020300A20202020322E303337322020202D322E3538373420202020302E303030302043202020302020302020302020302020302020302020302020302020302020302020302020300A20202020322E353536342020202D312E3934363320202020302E303030302043202020302020302020302020302020302020302020302020302020302020302020302020300A20202020322E323630372020202D312E3137363120202020302E303030302043202020302020302020302020302020302020302020302020302020302020302020302020300A2020202D302E3831303220202020302E3334343320202020302E303030302043202020302020302020302020302020302020302020302020302020302020302020302020300A2020202D312E3630393020202020302E3039383120202020302E303030302043202020302020302020302020302020302020302020302020302020302020302020302020300A2020202D312E373930302020202D302E3639353920202020302E303030302043202020302020302020302020302020302020302020302020302020302020302020302020300A2020202D312E323036362020202D312E3237393320202020302E303030302043202020302020302020302020302020302020302020302020302020302020302020302020300A2020202D302E3632393220202020312E3133383320202020302E30303030204F202020302020302020302020302020302020302020302020302020302020302020302020300A20202020302E3533303820202020302E3934373120202020302E303030302043202020302020302020302020302020302020302020302020302020302020302020302020300A20202020312E3234373620202020312E3336313020202020302E303030302043202020302020302020302020302020302020302020302020302020302020302020302020300A20202020302E3534303620202020322E3538373420202020302E303030302043202020302020302020302020302020302020302020302020302020302020302020302020300A2020202D302E3138313420202020312E3335383320202020302E303030302043202020302020302020302020302020302020302020302020302020302020302020302020300A20202020312E3234373620202020322E3137393220202020302E303030302043202020302020302020302020302020302020302020302020302020302020302020302020300A2020202D302E3136353620202020322E3137393820202020302E303030302043202020302020302020302020302020302020302020302020302020302020302020302020300A20202020312E3936373820202020302E3934353120202020302E303030302043202020302020302020302020302020302020302020302020302020302020302020302020300A2020202D322E323531332020202D312E3339343420202020302E303030302043202020302020302020302020302020302020302020302020302020302020302020302020300A2020202D322E353536342020202D302E3337383620202020302E303030302043202020302020302020302020302020302020302020302020302020302020302020302020300A2020312020322020312020302020202020200A2020322020332020312020302020202020200A2020332020342020312020302020202020200A2020342020352020312020302020202020200A2020352020362020322020302020202020200A2020362020372020312020302020202020200A2020312020372020322020302020202020200A2020382020392020312020302020202020200A2020392031302020322020302020202020200A2031302031312020312020302020202020200A2020322031312020322020302020202020200A2020332020382020322020302020202020200A2031322031332020312020302020202020200A2031332031342020312020302020202020200A2031342031352020312020302020202020200A2020352031352020312020302020202020200A2020362031322020312020302020202020200A2031322031362020322020302020202020200A2031372031382020312020302020202020200A2031372032302020322020302020202020200A2031382032312020322020302020202020200A2031392032312020312020302020202020200A2031392032322020322020302020202020200A2032302032322020312020302020202020200A2031382032332020312020302020202020200A2020372031372020312020302020202020200A2031342032342020312020362020202020200A2031342032352020312020312020202020200A4D2020454E44
Contributor: HAYASHI A, FAC. OF SCIENCE AND TECHNOLOGY, KINKI UNIV.
InstType: EI
InstName: JEOL JMS-HX-100
IoniMethod: _ENERGY 70 eV
IonPolarity: pos
Date: 2010-10-09 19:48:36+02:00
Num Peaks: 88
39 67 41 68 43 83 51 41 53 22 55 48 58 24 63 36 64 21 65 73 
76 31 77 101 78 25 83 49 89 44 90 27 91 61 92 36 102 57 103 34 
114 26 115 128 116 53 117 22 118 23 119 29 121 25 122 34 127 36 128 76 
129 51 130 28 131 35 132 21 136 28 139 22 140 23 141 31 142 26 143 54 
149 23 150 62 157 26 165 115 195 20 203 21 204 67 205 36 206 45 207 60 
208 20 209 27 217 31 218 38 219 44 229 35 230 42 231 134 232 63 233 33 
242 21 243 48 245 458 246 999 247 239 248 28 256 20 257 25 259 52 271 26 
272 23 273 109 274 69 275 30 285 21 287 58 301 34 302 248 303 63 313 177 
314 57 315 621 316 171 317 24 329 122 330 592 331 166 332 24 
