Name: MassBank: JP009646
MW: 223
Formula: C11H13NO4
Synonym: MassBank: JP009646
Synonym: ETHYL 3,5-DIMETHYL-4-NITROBENZOATE
Structure: 455448594C20332C352D44494D455448594C2D342D4E4954524F42454E5A4F4154452E6D6F6C0A20204368656D447261773038313131303138313432440A2031362031362020302020302020302020302020302020302020302020303939392056323030300A20202020312E303331332020202D302E3030303020202020302E303030302043202020302020302020302020302020302020302020302020302020302020302020302020300A20202020302E323036332020202D302E3030303020202020302E303030302043202020302020302020302020302020302020302020302020302020302020302020302020300A2020202D302E323036322020202D302E3731343520202020302E303030302043202020302020302020302020302020302020302020302020302020302020302020302020300A2020202D312E303331322020202D302E3731343520202020302E303030302043202020302020302020302020302020302020302020302020302020302020302020302020300A2020202D312E3434333820202020302E3030303020202020302E303030302043202020302020302020302020302020302020302020302020302020302020302020302020300A2020202D312E3033313220202020302E3731343520202020302E303030302043202020302020302020302020302020302020302020302020302020302020302020302020300A2020202D302E3230363220202020302E3731343520202020302E303030302043202020302020302020302020302020302020302020302020302020302020302020302020300A20202020312E343433382020202D302E3731343520202020302E30303030204F202020302020302020302020302020302020302020302020302020302020302020302020300A20202020312E3434333820202020302E3731343520202020302E30303030204F202020302020302020302020302020302020302020302020302020302020302020302020300A2020202D322E3236383720202020302E3030303020202020302E30303030204E202020302020332020302020302020302020302020302020302020302020302020302020300A2020202D322E363831332020202D302E3731343520202020302E30303030204F202020302020302020302020302020302020302020302020302020302020302020302020300A2020202D322E3638313220202020302E3731343520202020302E30303030204F202020302020352020302020302020302020302020302020302020302020302020302020300A2020202D312E3434333720202020312E3432383920202020302E303030302043202020302020302020302020302020302020302020302020302020302020302020302020300A2020202D312E343433372020202D312E3432383920202020302E303030302043202020302020302020302020302020302020302020302020302020302020302020302020300A20202020322E3236383820202020302E3731343520202020302E303030302043202020302020302020302020302020302020302020302020302020302020302020302020300A20202020322E3638313320202020312E3432383920202020302E303030302043202020302020302020302020302020302020302020302020302020302020302020302020300A2020312020322020312020302020202020200A2020322020332020312020302020202020200A2020332020342020322020302020202020200A2020342020352020312020302020202020200A2020352020362020322020302020202020200A2020362020372020312020302020202020200A2020322020372020322020302020202020200A2020312020382020322020302020202020200A2020312020392020312020302020202020200A2031302031312020322020302020202020200A2031302031322020312020302020202020200A2020352031302020312020302020202020200A2020362031332020312020302020202020200A2020342031342020312020302020202020200A2031352031362020312020302020202020200A2020392031352020312020302020202020200A4D202043484720203220203130202020312020313220202D310A4D2020454E44
Contributor: THE INSTITUTE OF SCIENTIFIC AND INDUSTRIALRESEARCH
InstType: EI
InstName: JEOL JMS-DX-300
IoniMethod: _ENERGY 70 eV
IonPolarity: pos
Date: 2010-10-09 19:48:36+02:00
Num Peaks: 85
26 23 27 170 29 520 30 5 31 10 38 16 39 150 40 2 41 45 42 12 
43 189 44 2 45 50 50 50 51 168 52 8 53 95 54 10 55 30 57 2 
62 38 63 150 64 50 65 13 66 26 67 28 74 20 75 3 76 47 77 451 
78 235 79 17 80 22 81 19 87 15 89 6 90 22 91 228 92 50 93 6 
94 50 95 42 102 57 103 30 104 283 105 103 106 170 107 5 108 12 109 15 
117 24 118 2 119 57 120 191 121 99 122 6 123 92 131 57 132 252 133 10 
134 297 135 31 136 11 137 1 144 118 145 14 147 17 148 6 149 140 150 114 
151 20 160 3 161 17 162 37 165 37 177 2 178 786 179 95 193 19 195 2 
206 999 207 134 208 33 223 57 224 80 
