Name: DIETHOXY METHYL OCTYLSILANE
CAS: 2652-38-2
MW: 246
Formula: C13H30O2Si
Synonym: MassBank: JP004993
Synonym: DIETHOXY METHYL OCTYLSILANE
Structure: 44494554484F5859204D455448594C204F4354594C53494C414E452E6D6F6C0A20204368656D447261773039323131303139303232440A2031362031352020302020302020302020302020302020302020302020303939392056323030300A2020202D322E313433342020202D302E3131303520202020302E303030302053692020302020302020302020302020302020302020302020302020302020302020302020300A2020202D322E3835373920202020302E3330323020202020302E30303030204F202020302020302020302020302020302020302020302020302020302020302020302020300A2020202D322E3835373920202020312E3132373020202020302E303030302043202020302020302020302020302020302020302020302020302020302020302020302020300A2020202D332E3537323420202020312E3533393520202020302E303030302043202020302020302020302020302020302020302020302020302020302020302020302020300A2020202D322E353535392020202D302E3832353020202020302E30303030204F202020302020302020302020302020302020302020302020302020302020302020302020300A2020202D322E313433342020202D312E3533393520202020302E303030302043202020302020302020302020302020302020302020302020302020302020302020302020300A2020202D312E333138342020202D312E3533393520202020302E303030302043202020302020302020302020302020302020302020302020302020302020302020302020300A2020202D312E3733303920202020302E3630333920202020302E303030302043202020302020302020302020302020302020302020302020302020302020302020302020300A2020202D312E343238392020202D302E3532333020202020302E303030302043202020302020302020302020302020302020302020302020302020302020302020302020300A2020202D302E373134352020202D302E3131303520202020302E303030302043202020302020302020302020302020302020302020302020302020302020302020302020300A20202020302E303030302020202D302E3532333020202020302E303030302043202020302020302020302020302020302020302020302020302020302020302020302020300A20202020302E373134352020202D302E3131303520202020302E303030302043202020302020302020302020302020302020302020302020302020302020302020302020300A20202020312E343238392020202D302E3532333020202020302E303030302043202020302020302020302020302020302020302020302020302020302020302020302020300A20202020322E313433342020202D302E3131303520202020302E303030302043202020302020302020302020302020302020302020302020302020302020302020302020300A20202020322E383537392020202D302E3532333020202020302E303030302043202020302020302020302020302020302020302020302020302020302020302020302020300A20202020332E353732342020202D302E3131303520202020302E303030302043202020302020302020302020302020302020302020302020302020302020302020302020300A2020332020342020312020302020202020200A2020322020332020312020302020202020200A2020312020322020312020302020202020200A2020362020372020312020302020202020200A2020352020362020312020302020202020200A2020312020352020312020302020202020200A2020312020382020312020302020202020200A2020392031302020312020302020202020200A2031302031312020312020302020202020200A2031312031322020312020302020202020200A2031322031332020312020302020202020200A2031332031342020312020302020202020200A2031342031352020312020302020202020200A2031352031362020312020302020202020200A2020312020392020312020302020202020200A4D2020454E44
Contributor: MASS SPECTROSCOPY SOC. OF JAPAN (MSSJ)
InstType: EI
InstName: JEOL JMS-D-3000
IoniMethod: _ENERGY 30 eV
IonPolarity: pos
Date: 2010-10-09 19:48:36+02:00
Num Peaks: 22
41 14 43 23 45 27 61 66 63 18 73 28 75 12 77 100 89 158 90 13 
91 25 105 70 119 97 120 10 133 999 134 109 135 41 147 14 231 50 232 9 
233 3 246 1 
