Name: MassBank: JP002463
MW: 247
Formula: C11H21NO3S
Synonym: MassBank: JP002463
Synonym: (4R)-3-(TERT-BUTOXYCARBONYL)-4-HYDROXYMETHYL-2,2-DIMETHYL-1,3-THIAZOLIDINE
Synonym: TERT-BUTYL (4R)-4-HYDROXYMETHYL-2,2-DIMETHYL-1,3-THIAZOLIDINE-3-CARBOXYLATE
Structure: 283452292D332D28544552542D4255544F5859434152424F4E594C292D342D485944524F58594D455448594C2D322C322D44494D455448594C2D312C332D544849415A4F4C4944494E452E6D6F6C0A20204368656D447261773130323130393138313832440A2031372031372020302020302020302020302020302020302020302020303939392056323030300A2020202D312E3131363120202020302E3233313920202020302E303030302043202020302020302020302020302020302020302020302020302020302020302020302020300A2020202D302E3239313120202020302E3233313920202020302E30303030204E202020302020302020302020302020302020302020302020302020302020302020302020300A2020202D302E3033363220202020312E3031363620202020302E303030302043202020302020302020302020302020302020302020302020302020302020302020302020300A2020202D302E3730333620202020312E3530313520202020302E303030302053202020302020302020302020302020302020302020302020302020302020302020302020300A2020202D312E3337313120202020312E3031363620202020302E303030302043202020302020302020302020302020302020302020302020302020302020302020302020300A2020202D312E3931333020202020302E3031383420202020302E303030302048202020302020302020302020302020302020302020302020302020302020302020302020300A2020202D312E333239362020202D302E3536343920202020302E303030302043202020302020302020302020302020302020302020302020302020302020302020302020300A20202020302E313933382020202D302E3433353520202020302E303030302043202020302020302020302020302020302020302020302020302020302020302020302020300A2020202D302E313431382020202D312E3138393220202020302E30303030204F202020302020302020302020302020302020302020302020302020302020302020302020300A20202020312E303134332020202D302E3334393320202020302E30303030204F202020302020302020302020302020302020302020302020302020302020302020302020300A20202020312E343939322020202D312E3031363720202020302E303030302043202020302020302020302020302020302020302020302020302020302020302020302020300A20202020322E303832362020202D312E3630303120202020302E303030302043202020302020302020302020302020302020302020302020302020302020302020302020300A20202020302E383731392020202D312E3535323520202020302E303030302043202020302020302020302020302020302020302020302020302020302020302020302020300A20202020322E313236352020202D302E3438303920202020302E303030302043202020302020302020302020302020302020302020302020302020302020302020302020300A2020202D322E313236352020202D302E3737383520202020302E30303030204F202020302020302020302020302020302020302020302020302020302020302020302020300A20202020302E3735393420202020302E3830333920202020302E303030302043202020302020302020302020302020302020302020302020302020302020302020302020300A20202020302E3534363320202020312E3630303120202020302E303030302043202020302020302020302020302020302020302020302020302020302020302020302020300A2020312020322020312020302020202020200A2020322020332020312020302020202020200A2020332020342020312020302020202020200A2020342020352020312020302020202020200A2020352020312020312020302020202020200A2020312020362020312020312020202020200A2020312020372020312020362020202020200A2020322020382020312020302020202020200A2020382020392020322020302020202020200A2020382031302020312020302020202020200A2031302031312020312020302020202020200A2031312031322020312020302020202020200A2031312031332020312020302020202020200A2031312031342020312020302020202020200A2020372031352020312020302020202020200A2020332031362020312020312020202020200A2020332031372020312020362020202020200A4D202053545920203120202031205355500A4D2020534C4220203120202031202020310A4D202053414C20202031202031202031360A4D202053424C20202031202031202031360A4D2020534D5420202031204D650A4D2020534256202020312031362020202D352E3632313220202020362E343133310A4D202053545920203120202032205355500A4D2020534C4220203120202032202020320A4D202053414C20202032202031202031370A4D202053424C20202032202031202031370A4D2020534D5420202032204D650A4D2020534256202020322031372020202D352E3833343320202020372E323039320A4D2020454E44
Contributor: ITO S, DEPT. OF CHEM., TOHOKU UNIV.
InstType: EI
InstName: HITACHI M-52
IoniMethod: _ENERGY 13.5 eV
IonPolarity: pos
Date: 2010-10-09 19:48:36+02:00
Num Peaks: 37
41 168 42 67 56 936 57 64 58 464 59 41 72 37 82 3 83 83 84 31 
90 72 95 2 99 48 100 104 101 48 102 2 103 42 111 28 113 28 114 11 
115 25 116 480 118 42 132 16 145 93 147 24 160 216 173 2 174 21 176 152 
177 24 216 999 217 136 218 32 232 136 233 2 247 103 
