Name: TERT-BUTYLCYCLOHEXYL ACETATE
MW: 198
Formula: C12H22O2
Synonym: MassBank: JP008962
Synonym: TERT-BUTYLCYCLOHEXYL ACETATE
Structure: 303439315F544552542D425554594C4359434C4F484558594C20414345544154452E6D6F6C0A20204368656D447261773038323031303033353432440A2031342031342020302020302020302020302020302020302020302020303939392056323030300A20202020302E373933372020202D312E3433343120202020302E303030302043202020302020302020302020302020302020302020302020302020302020302020302020300A20202020302E323633342020202D322E3036363120202020302E303030302043202020302020302020302020302020302020302020302020302020302020302020302020300A20202020312E363036312020202D312E3537373420202020302E30303030204F202020302020302020302020302020302020302020302020302020302020302020302020300A20202020302E353131352020202D302E3635383920202020302E30303030204F202020302020302020302020302020302020302020302020302020302020302020302020300A2020202D302E3137373220202020302E3531353620202020302E303030302043202020302020302020302020302020302020302020302020302020302020302020302020300A2020202D302E313737322020202D302E3330393420202020302E303030302043202020302020302020302020302020302020302020302020302020302020302020302020300A2020202D302E383931362020202D302E3732313920202020302E303030302043202020302020302020302020302020302020302020302020302020302020302020302020300A2020202D312E363036312020202D302E3330393420202020302E303030302043202020302020302020302020302020302020302020302020302020302020302020302020300A2020202D312E3630363120202020302E3531353620202020302E303030302043202020302020302020302020302020302020302020302020302020302020302020302020300A2020202D302E3839313620202020302E3932383120202020302E303030302043202020302020302020302020302020302020302020302020302020302020302020302020300A20202020302E3130353020202020312E3239303820202020302E303030302043202020302020302020302020302020302020302020302020302020302020302020302020300A2020202D302E3637303320202020312E3537333020202020302E303030302043202020302020302020302020302020302020302020302020302020302020302020302020300A20202020302E3338373220202020322E3036363120202020302E303030302043202020302020302020302020302020302020302020302020302020302020302020302020300A20202020302E3838303220202020312E3030383720202020302E303030302043202020302020302020302020302020302020302020302020302020302020302020302020300A2020312020322020312020302020202020200A2020312020332020322020302020202020200A2020312020342020312020302020202020200A2020352020362020312020302020202020200A2020362020372020312020302020202020200A2020372020382020312020302020202020200A2020382020392020312020302020202020200A2020392031302020312020302020202020200A2020352031302020312020302020202020200A2031312031322020312020302020202020200A2031312031342020312020302020202020200A2031312031332020312020302020202020200A2020352031312020312020302020202020200A2020342020362020312020302020202020200A4D2020454E44
Contributor: YAMAMOTO M, DEP. CHEMISTRY, FAC. SCIENCE, NARA WOMEN'S UNIV.
InstType: EI
InstName: HITACHI RMU-6M
IoniMethod: _ENERGY 70 eV
IonPolarity: pos
Date: 2010-10-09 19:48:36+02:00
Num Peaks: 49
15 43 27 78 29 162 39 8 40 16 41 329 42 26 43 57 44 15 53 44 
54 92 55 13 56 77 57 999 58 49 59 1 61 141 65 13 66 13 67 41 
68 33 69 71 70 16 71 1 77 19 79 34 80 153 81 18 82 803 83 123 
84 13 85 1 91 13 93 11 95 50 96 2 97 14 98 13 99 27 109 2 
110 12 117 87 123 155 124 2 138 62 139 14 141 21 142 2 143 14 
