Name: METHYL 3-OXO-5-(1-CYCLOPENTENYL)PENTANOATE
MW: 196
Formula: C11H16O3
Synonym: MassBank: JP001150
Synonym: METHYL 3-OXO-5-(1-CYCLOPENTENYL)PENTANOATE
Structure: 4D455448594C20332D4F584F2D352D28312D4359434C4F50454E54454E594C2950454E54414E4F4154452E6D6F6C0A20204368656D447261773038313131303233353032440A2031342031342020302020302020302020302020302020302020302020303939392056323030300A20202020322E3037383520202020302E3030303020202020302E303030302043202020302020302020302020302020302020302020302020302020302020302020302020300A20202020312E3235333520202020302E3030303020202020302E303030302043202020302020302020302020302020302020302020302020302020302020302020302020300A20202020302E383431302020202D302E3731343520202020302E303030302043202020302020302020302020302020302020302020302020302020302020302020302020300A20202020302E303136302020202D302E3731343520202020302E303030302043202020302020302020302020302020302020302020302020302020302020302020302020300A2020202D302E3339363520202020302E3030303020202020302E303030302043202020302020302020302020302020302020302020302020302020302020302020302020300A20202020322E343931302020202D302E3731343520202020302E30303030204F202020302020302020302020302020302020302020302020302020302020302020302020300A20202020322E3439313020202020302E3731343520202020302E30303030204F202020302020302020302020302020302020302020302020302020302020302020302020300A2020202D312E3232313520202020302E3030303020202020302E303030302043202020302020302020302020302020302020302020302020302020302020302020302020300A2020202D312E373036342020202D302E3636373420202020302E303030302043202020302020302020302020302020302020302020302020302020302020302020302020300A2020202D322E343931302020202D302E3431323520202020302E303030302043202020302020302020302020302020302020302020302020302020302020302020302020300A2020202D322E3439313020202020302E3431323520202020302E303030302043202020302020302020302020302020302020302020302020302020302020302020302020300A2020202D312E3730363420202020302E3636373420202020302E303030302043202020302020302020302020302020302020302020302020302020302020302020302020300A20202020312E323533352020202D312E3432383920202020302E30303030204F202020302020302020302020302020302020302020302020302020302020302020302020300A20202020322E3037383520202020312E3432383920202020302E303030302043202020302020302020302020302020302020302020302020302020302020302020302020300A2020312020322020312020302020202020200A2020322020332020312020302020202020200A2020332020342020312020302020202020200A2020342020352020312020302020202020200A2020312020362020322020302020202020200A2020312020372020312020302020202020200A2020382020392020322020302020202020200A2020392031302020312020302020202020200A2031302031312020312020302020202020200A2031312031322020312020302020202020200A2020382031322020312020302020202020200A2020352020382020312020302020202020200A2020332031332020322020302020202020200A2020372031342020312020302020202020200A4D2020454E44
Contributor: NAKAYAMA M, MASS SPECTROSCOPY SOC. OF JAPAN (MSSJ)
InstType: EI
InstName: HITACHI RMU-6L
IoniMethod: _ENERGY 70 eV
IonPolarity: pos
Date: 2010-10-09 19:48:36+02:00
Num Peaks: 90
39 490 40 100 41 580 42 150 43 280 44 30 45 30 46 10 47 10 50 30 
51 100 52 80 53 310 54 50 55 260 56 30 57 90 59 340 60 10 61 10 
62 10 63 30 64 10 65 160 66 140 67 340 68 40 69 490 70 10 71 20 
74 90 75 30 77 260 78 90 79 999 80 970 81 490 82 30 83 10 84 60 
85 30 91 160 92 30 93 160 94 700 95 800 96 80 97 10 98 10 101 240 
102 10 103 20 104 50 105 100 106 20 107 40 108 50 109 20 115 10 116 70 
117 50 118 50 119 80 120 10 121 50 122 600 123 240 124 30 127 10 129 10 
133 10 134 10 135 20 136 40 137 20 138 10 146 10 147 10 148 10 149 10 
153 10 159 10 163 10 164 40 165 30 178 260 179 30 184 10 196 170 197 30 
