Name: 2-NITRORESORCINOL
CAS: 601-89-8
MW: 155
Formula: C6H5NO4
Synonym: MassBank: JP006266
Synonym: 2-NITRORESORCINOL
Structure: 322D4E4954524F5245534F5243494E4F4C2E6D6F6C0A20204368656D447261773032323131303132303432440A2031312031312020302020302020302020302020302020302020302020303939392056323030300A2020202D302E323036332020202D312E3432383920202020302E30303030204F202020302020302020302020302020302020302020302020302020302020302020302020300A20202020302E323036332020202D302E3731343520202020302E303030302043202020302020302020302020302020302020302020302020302020302020302020302020300A2020202D302E3230363320202020302E3030303020202020302E303030302043202020302020302020302020302020302020302020302020302020302020302020302020300A20202020302E3230363220202020302E3731343520202020302E303030302043202020302020302020302020302020302020302020302020302020302020302020302020300A2020202D302E3230363320202020312E3432383920202020302E30303030204F202020302020302020302020302020302020302020302020302020302020302020302020300A20202020312E3033313220202020302E3731343520202020302E303030302043202020302020302020302020302020302020302020302020302020302020302020302020300A20202020312E343433382020202D302E3030303020202020302E303030302043202020302020302020302020302020302020302020302020302020302020302020302020300A20202020312E303331332020202D302E3731343520202020302E303030302043202020302020302020302020302020302020302020302020302020302020302020302020300A2020202D312E3033313220202020302E3030303020202020302E30303030204E202020302020332020302020302020302020302020302020302020302020302020302020300A2020202D312E343433382020202D302E3731343520202020302E30303030204F202020302020302020302020302020302020302020302020302020302020302020302020300A2020202D312E3434333820202020302E3731343520202020302E30303030204F202020302020352020302020302020302020302020302020302020302020302020302020300A2020312020322020312020302020202020200A2020322020332020312020302020202020200A2020332020342020322020302020202020200A2020342020352020312020302020202020200A2020342020362020312020302020202020200A2020362020372020322020302020202020200A2020372020382020312020302020202020200A2020322020382020322020302020202020200A2020392031302020322020302020202020200A2020392031312020312020302020202020200A2020332020392020312020302020202020200A4D202043484720203220202039202020312020313120202D310A4D2020454E44
Contributor: MASS SPECTROSCOPY SOC. OF JAPAN (MSSJ)
InstType: EI
InstName: HITACHI M-80
IoniMethod: _ENERGY 70 eV
IonPolarity: pos
Date: 2010-10-09 19:48:36+02:00
Num Peaks: 51
26 16 27 23 29 15 30 44 37 22 38 43 39 147 40 14 41 12 42 10 
49 14 50 62 51 130 54 73 55 63 56 5 61 17 62 34 63 55 64 20 
65 36 66 42 67 14 68 26 69 21 70 41 77 16 78 6 79 75 80 55 
81 268 82 27 83 6 91 14 93 111 94 28 95 336 96 45 97 17 107 13 
108 15 109 999 110 63 111 7 122 23 137 146 138 18 139 16 155 814 156 66 
157 9 
