Name: NARCOTINE
MW: 413
Formula: C22H23NO7
Synonym: MassBank: JP002815
Synonym: NARCOTINE
Structure: 303531355F4E4152434F54494E452E6D6F6C0A20204368656D447261773039303631303138313532440A2033322033362020302020302020302020302020302020302020302020303939392056323030300A2020202D302E3032333620202020322E3430363820202020302E303030302043202020302020302020302020302020302020302020302020302020302020302020302020300A2020202D302E3032333620202020312E3538313820202020302E303030302043202020302020302020302020302020302020302020302020302020302020302020302020300A20202020302E3639303920202020312E3136393320202020302E303030302043202020302020302020302020302020302020302020302020302020302020302020302020300A20202020312E3430353420202020312E3538313820202020302E303030302043202020302020302020302020302020302020302020302020302020302020302020302020300A20202020312E3430353420202020322E3430363820202020302E303030302043202020302020302020302020302020302020302020302020302020302020302020302020300A20202020302E3639303920202020322E3831393320202020302E303030302043202020302020302020302020302020302020302020302020302020302020302020302020300A20202020322E3139303020202020312E3332363920202020302E30303030204F202020302020302020302020302020302020302020302020302020302020302020302020300A20202020322E3637343920202020312E3939343320202020302E303030302043202020302020302020302020302020302020302020302020302020302020302020302020300A20202020322E3139303020202020322E3636313820202020302E30303030204F202020302020302020302020302020302020302020302020302020302020302020302020300A2020202D302E3733383020202020322E3831393320202020302E303030302043202020302020302020302020302020302020302020302020302020302020302020302020300A2020202D312E3435323520202020322E3430363820202020302E303030302043202020302020302020302020302020302020302020302020302020302020302020302020300A2020202D312E3435323520202020312E3538313820202020302E30303030204E202020302020302020302020302020302020302020302020302020302020302020302020300A2020202D302E3733383020202020312E3136393320202020302E303030302043202020302020302020302020302020302020302020302020302020302020302020302020300A20202020302E3639303920202020302E3334343320202020302E30303030204F202020302020302020302020302020302020302020302020302020302020302020302020300A20202020312E343035342020202D302E3036383220202020302E303030302043202020302020302020302020302020302020302020302020302020302020302020302020300A2020202D322E3136373020202020312E3136393320202020302E303030302043202020302020302020302020302020302020302020302020302020302020302020302020300A2020202D312E3037313420202020302E3431343720202020302E303030302043202020302020302020302020302020302020302020302020302020302020302020302020300A2020202D302E3037303620202020302E3638343420202020302E303030302048202020302020302020302020302020302020302020302020302020302020302020302020300A2020202D312E3837373820202020302E3234303820202020302E30303030204F202020302020302020302020302020302020302020302020302020302020302020302020300A2020202D312E393631372020202D302E3537393920202020302E303030302043202020302020302020302020302020302020302020302020302020302020302020302020300A2020202D312E323037302020202D302E3931333320202020302E303030302043202020302020302020302020302020302020302020302020302020302020302020302020300A2020202D302E363536382020202D302E3239383620202020302E303030302043202020302020302020302020302020302020302020302020302020302020302020302020300A2020202D302E3235323720202020302E3331323720202020302E303030302048202020302020302020302020302020302020302020302020302020302020302020302020300A2020202D322E363734392020202D302E3939343520202020302E30303030204F202020302020302020302020302020302020302020302020302020302020302020302020300A2020202D302E393439382020202D312E3639373120202020302E303030302043202020302020302020302020302020302020302020302020302020302020302020302020300A2020202D302E313432332020202D312E3836363320202020302E303030302043202020302020302020302020302020302020302020302020302020302020302020302020300A20202020302E343037392020202D312E3235313620202020302E303030302043202020302020302020302020302020302020302020302020302020302020302020302020300A20202020302E313530372020202D302E3436373720202020302E303030302043202020302020302020302020302020302020302020302020302020302020302020302020300A2020202D312E353030302020202D322E3331313920202020302E30303030204F202020302020302020302020302020302020302020302020302020302020302020302020300A20202020302E313134392020202D322E3635303220202020302E30303030204F202020302020302020302020302020302020302020302020302020302020302020302020300A20202020302E393232342020202D322E3831393320202020302E303030302043202020302020302020302020302020302020302020302020302020302020302020302020300A2020202D322E333037352020202D322E3134323720202020302E303030302043202020302020302020302020302020302020302020302020302020302020302020302020300A2020312020322020322020302020202020200A2020322020332020312020302020202020200A2020332020342020322020302020202020200A2020342020352020312020302020202020200A2020352020362020322020302020202020200A2020362020312020312020302020202020200A2020342020372020312020302020202020200A2020372020382020312020302020202020200A2020382020392020312020302020202020200A2020392020352020312020302020202020200A2020312031302020312020302020202020200A2031302031312020312020302020202020200A2031312031322020312020302020202020200A2031322031332020312020302020202020200A2031332020322020312020302020202020200A2020332031342020312020302020202020200A2031342031352020312020302020202020200A2031322031362020312020302020202020200A2031332031372020312020302020202020200A2031332031382020312020312020202020200A2031372031392020312020302020202020200A2031392032302020312020302020202020200A2032302032312020312020302020202020200A2032312032322020322020302020202020200A2032322031372020312020302020202020200A2031372032332020312020312020202020200A2032302032342020322020302020202020200A2032312032352020312020302020202020200A2032352032362020322020302020202020200A2032362032372020312020302020202020200A2032372032382020322020302020202020200A2032382032322020312020302020202020200A2032352032392020312020302020202020200A2032362033302020312020302020202020200A2033302033312020312020302020202020200A2032392033322020312020302020202020200A4D2020454E44
Contributor: SASAKI S, TOYOHASHI UNIV. OF TECH.
InstType: EI
InstName: Unknown
IoniMethod: EI
IonPolarity: pos
Date: 2010-10-09 19:48:36+02:00
Num Peaks: 169
25 2 26 14 27 24 28 16 29 27 30 20 31 9 32 3 35 9 36 41 
37 10 38 2 39 49 40 10 41 49 42 1 43 29 44 54 45 8 49 0 
50 29 51 61 52 20 53 2 54 8 55 34 56 14 57 3 58 9 59 4 
60 4 61 1 62 20 63 41 64 22 65 4 66 17 67 21 68 9 69 2 
70 18 71 14 72 2 73 1 74 18 75 27 76 31 77 9 78 47 79 39 
80 14 81 0 82 10 83 14 84 9 85 1 86 4 87 2 88 4 89 0 
90 29 91 52 92 30 93 2 94 17 95 20 96 9 97 1 98 4 99 1 
100 2 101 0 102 18 103 14 104 26 105 1 106 26 107 29 108 12 109 0 
110 2 111 1 113 1 114 0 115 10 116 13 117 26 118 6 119 54 120 50 
121 42 122 0 123 14 124 2 125 1 127 0 128 4 129 9 130 18 131 2 
132 21 133 26 134 20 135 3 136 14 137 4 142 1 143 0 144 4 145 14 
146 20 147 10 148 60 149 40 150 31 151 1 152 4 153 2 157 2 158 2 
159 14 160 16 161 11 162 1 163 46 164 11 165 59 166 0 167 4 168 2 
173 4 174 1 175 19 176 57 177 50 178 8 179 18 180 2 185 7 186 0 
187 4 188 22 189 14 190 2 191 12 192 9 193 26 194 4 195 11 196 2 
197 2 202 0 203 49 204 28 205 247 206 4 207 12 208 2 209 2 210 0 
211 4 217 8 218 50 219 0 220 999 221 182 222 26 223 1 413 2 
