Name: GERANIAL DIMETHYL ACETAL
MW: 198
Formula: C12H22O2
Synonym: MassBank: JP008658
Synonym: GERANIAL DIMETHYL ACETAL
Synonym: TRANS-3,7-DIMETHYL-2,6-OCTADIENAL DIMETHYLACETAL
Structure: 5452414E532D332C372D44494D455448594C2D322C362D4F4354414449454E414C2044494D455448594C2041434554414C2E6D6F6C0A20204368656D447261773038313231303038303232440A2031342031332020302020302020302020302020302020302020302020303939392056323030300A20202020322E313433342020202D302E3030303020202020302E303030302043202020302020302020302020302020302020302020302020302020302020302020302020300A20202020312E343238392020202D302E3431323520202020302E303030302043202020302020302020302020302020302020302020302020302020302020302020302020300A20202020302E373134352020202D302E3030303020202020302E303030302043202020302020302020302020302020302020302020302020302020302020302020302020300A2020202D302E303030302020202D302E3431323520202020302E303030302043202020302020302020302020302020302020302020302020302020302020302020302020300A2020202D302E373134352020202D302E3030303020202020302E303030302043202020302020302020302020302020302020302020302020302020302020302020302020300A2020202D312E343238392020202D302E3431323520202020302E303030302043202020302020302020302020302020302020302020302020302020302020302020302020300A2020202D322E313433342020202D302E3030303020202020302E303030302043202020302020302020302020302020302020302020302020302020302020302020302020300A2020202D322E383537392020202D302E3431323520202020302E303030302043202020302020302020302020302020302020302020302020302020302020302020302020300A20202020322E383537392020202D302E3431323520202020302E30303030204F202020302020302020302020302020302020302020302020302020302020302020302020300A20202020322E3134333420202020302E3832353020202020302E30303030204F202020302020302020302020302020302020302020302020302020302020302020302020300A20202020322E383537392020202D312E3233373520202020302E303030302043202020302020302020302020302020302020302020302020302020302020302020302020300A20202020322E3835373920202020312E3233373520202020302E303030302043202020302020302020302020302020302020302020302020302020302020302020302020300A2020202D322E3134333420202020302E3832353020202020302E303030302043202020302020302020302020302020302020302020302020302020302020302020302020300A20202020302E3731343520202020302E3832353020202020302E303030302043202020302020302020302020302020302020302020302020302020302020302020302020300A2020312020322020312020302020202020200A2020322020332020322020302020202020200A2020332020342020312020302020202020200A2020342020352020312020302020202020200A2020352020362020312020302020202020200A2020362020372020322020302020202020200A2020372020382020312020302020202020200A2020392031312020312020302020202020200A2031302031322020312020302020202020200A2020312020392020312020302020202020200A2020312031302020312020302020202020200A2020372031332020312020302020202020200A2020332031342020312020302020202020200A4D2020454E44
Contributor: SODA AROMATIC CO., LTD.
InstType: EI
InstName: HITACHI M-80B
IoniMethod: _ENERGY 70 eV
IonPolarity: pos
Date: 2010-10-09 19:48:36+02:00
Num Peaks: 80
15 102 27 195 29 217 30 16 31 208 32 11 38 12 39 320 40 35 41 999 
42 41 43 116 45 283 47 20 50 15 51 51 52 27 53 229 54 40 55 203 
56 14 57 15 58 17 59 44 63 13 65 80 66 24 67 159 68 32 69 905 
70 36 71 54 73 531 74 21 75 276 77 117 78 23 79 128 80 33 81 73 
82 32 83 259 84 22 85 58 86 264 87 22 91 221 92 34 93 144 94 23 
95 45 96 12 97 26 98 252 99 48 103 13 105 53 106 16 107 50 108 35 
109 71 110 33 111 42 115 44 117 14 119 172 120 18 121 44 122 11 123 677 
124 52 125 16 129 52 134 35 135 33 136 10 137 13 151 81 166 88 167 54 
