Name: 2-THIOPHENEMETHANOL
MW: 114
Formula: C5H6OS
Synonym: MassBank: JP008748
Synonym: 2-THIOPHENEMETHANOL
Structure: 310A31390A322D5448494F5048454E454D455448414E4F4C2E6D6F6C0A20204368656D447261773032323131303136323932440A2020372020372020302020302020302020302020302020302020302020303939392056323030300A2020202D302E3036313620202020302E3238393820202020302E303030302043202020302020302020302020302020302020302020302020302020302020302020302020300A2020202D302E313437392020202D302E3533303720202020302E303030302043202020302020302020302020302020302020302020302020302020302020302020302020300A2020202D302E393534382020202D302E3730323320202020302E303030302043202020302020302020302020302020302020302020302020302020302020302020302020300A2020202D312E3336373320202020302E3031323220202020302E303030302043202020302020302020302020302020302020302020302020302020302020302020302020300A2020202D302E3831353320202020302E3632353320202020302E303030302053202020302020302020302020302020302020302020302020302020302020302020302020300A20202020302E3635323920202020302E3730323320202020302E303030302043202020302020302020302020302020302020302020302020302020302020302020302020300A20202020312E3336373320202020302E3238393820202020302E30303030204F202020302020302020302020302020302020302020302020302020302020302020302020300A2020312020322020322020302020202020200A2020322020332020312020302020202020200A2020332020342020322020302020202020200A2020342020352020312020302020202020200A2020312020352020312020302020202020200A2020362020372020312020302020202020200A2020312020362020312020302020202020200A4D2020454E44
Contributor: SODA AROMATIC CO., LTD.
InstType: EI
InstName: HITACHI M-80B
IoniMethod: _ENERGY 70 eV
IonPolarity: pos
Date: 2010-10-09 19:48:36+02:00
Num Peaks: 55
15 11 25 12 26 37 27 87 29 110 30 11 31 84 32 15 37 58 38 88 
39 399 40 17 41 64 42 11 44 14 45 733 46 23 47 43 49 26 50 80 
51 89 52 38 53 209 54 13 55 28 56 12 57 158 58 181 59 56 60 17 
61 21 62 23 63 26 68 15 69 92 70 36 71 41 81 318 82 42 83 33 
84 35 85 934 86 63 87 46 93 12 95 23 96 26 97 731 98 44 99 27 
111 46 113 45 114 999 115 68 116 43 
