Name: MassBank: JP004958
CAS: 88920-81-4
MW: 256
Formula: C10H22Cl2OSi
Synonym: MassBank: JP004958
Synonym: 1,1-DICHLORO-3-METHYL-1-TRIMETHYLSILYL-2-HEXANOL
Structure: 312C312D444943484C4F524F2D332D4D455448594C2D312D5452494D455448594C53494C594C2D322D484558414E4F4C2E6D6F6C0A20204368656D447261773130323330393039333532440A2031342031332020302020302020302020302020302020302020302020303939392056323030300A2020202D302E3230363220202020312E3031363420202020302E303030302043202020302020302020302020302020302020302020302020302020302020302020302020300A20202020302E3631383820202020312E3031363420202020302E303030302043202020302020302020302020302020302020302020302020302020302020302020302020300A20202020312E3033313320202020302E3330323020202020302E303030302043202020302020302020302020302020302020302020302020302020302020302020302020300A20202020302E363138382020202D302E3431323520202020302E303030302043202020302020302020302020302020302020302020302020302020302020302020302020300A20202020312E303331332020202D312E3132373020202020302E303030302043202020302020302020302020302020302020302020302020302020302020302020302020300A20202020302E363138382020202D312E3834313420202020302E303030302043202020302020302020302020302020302020302020302020302020302020302020302020300A20202020312E3033313220202020312E3733303920202020302E30303030204F202020302020302020302020302020302020302020302020302020302020302020302020300A2020202D302E3230363220202020302E3139313420202020302E3030303020436C2020302020302020302020302020302020302020302020302020302020302020302020300A20202020312E3835363320202020302E3330323020202020302E303030302043202020302020302020302020302020302020302020302020302020302020302020302020300A2020202D302E3230363220202020312E3834313420202020302E3030303020436C2020302020302020302020302020302020302020302020302020302020302020302020300A2020202D312E3033313320202020312E3031363420202020302E303030302053692020302020302020302020302020302020302020302020302020302020302020302020300A2020202D312E3835363320202020312E3031363420202020302E303030302043202020302020302020302020302020302020302020302020302020302020302020302020300A2020202D312E3033313320202020302E3139313420202020302E303030302043202020302020302020302020302020302020302020302020302020302020302020302020300A2020202D312E3033313320202020312E3834313420202020302E303030302043202020302020302020302020302020302020302020302020302020302020302020302020300A2020312020322020312020302020202020200A2020322020332020312020302020202020200A2020332020342020312020302020202020200A2020342020352020312020302020202020200A2020352020362020312020302020202020200A2020322020372020312020302020202020200A2020312020382020312020312020202020200A2020332020392020312020302020202020200A2020312031302020312020312020202020200A2020312031312020312020302020202020200A2031312031322020312020302020202020200A2031312031332020312020312020202020200A2031312031342020312020312020202020200A4D2020454E44
Contributor: MASS SPECTROSCOPY SOC. OF JAPAN (MSSJ)
InstType: EI
InstName: JEOL JMS-D-3000
IoniMethod: _ENERGY 70 eV
IonPolarity: pos
Date: 2010-10-09 19:48:36+02:00
Num Peaks: 30
42 48 43 244 45 151 55 201 57 72 59 100 70 999 71 184 73 649 74 69 
75 273 83 256 89 86 91 41 93 141 95 86 101 185 105 40 110 63 112 45 
123 196 125 128 163 35 173 42 177 60 178 21 179 23 185 10 205 11 220 6 
