Name: MassBank: JP005070
MW: 326
Formula: C18H15ClN2O2
Synonym: MassBank: JP005070
Synonym: 2-CHLORO-4,6-BIS(4-METHOXYPHENYL)PYRIMIDINE
Structure: 322D43484C4F524F2D342C362D42495328342D4D4554484F58595048454E594C29505952494D4944494E452E6D6F6C0A20204368656D447261773031303331303130333432440A2032332032352020302020302020302020302020302020302020302020303939392056323030300A2020202D302E3030303020202020312E3033313320202020302E303030302043202020302020302020302020302020302020302020302020302020302020302020302020300A20202020302E3731343520202020302E3631383820202020302E30303030204E202020302020302020302020302020302020302020302020302020302020302020302020300A20202020302E373134352020202D302E3230363220202020302E303030302043202020302020302020302020302020302020302020302020302020302020302020302020300A2020202D302E303030302020202D302E3631383820202020302E303030302043202020302020302020302020302020302020302020302020302020302020302020302020300A2020202D302E373134352020202D302E3230363320202020302E303030302043202020302020302020302020302020302020302020302020302020302020302020302020300A2020202D302E3731343520202020302E3631383720202020302E30303030204E202020302020302020302020302020302020302020302020302020302020302020302020300A2020202D312E343238392020202D302E3631383820202020302E303030302043202020302020302020302020302020302020302020302020302020302020302020302020300A2020202D312E343238392020202D312E3434333820202020302E303030302043202020302020302020302020302020302020302020302020302020302020302020302020300A2020202D322E313433342020202D312E3835363220202020302E303030302043202020302020302020302020302020302020302020302020302020302020302020302020300A2020202D322E383537392020202D312E3434333820202020302E303030302043202020302020302020302020302020302020302020302020302020302020302020302020300A2020202D322E383537392020202D302E3631383820202020302E303030302043202020302020302020302020302020302020302020302020302020302020302020302020300A2020202D322E313433342020202D302E3230363220202020302E303030302043202020302020302020302020302020302020302020302020302020302020302020302020300A2020202D332E353732342020202D312E3835363320202020302E30303030204F202020302020302020302020302020302020302020302020302020302020302020302020300A2020202D342E323836382020202D312E3434333820202020302E303030302043202020302020302020302020302020302020302020302020302020302020302020302020300A20202020312E343238392020202D302E3631383820202020302E303030302043202020302020302020302020302020302020302020302020302020302020302020302020300A20202020322E313433342020202D302E3230363220202020302E303030302043202020302020302020302020302020302020302020302020302020302020302020302020300A20202020322E383537392020202D302E3631383720202020302E303030302043202020302020302020302020302020302020302020302020302020302020302020302020300A20202020322E383537392020202D312E3434333720202020302E303030302043202020302020302020302020302020302020302020302020302020302020302020302020300A20202020322E313433342020202D312E3835363220202020302E303030302043202020302020302020302020302020302020302020302020302020302020302020302020300A20202020312E343238392020202D312E3434333720202020302E303030302043202020302020302020302020302020302020302020302020302020302020302020302020300A20202020332E353732342020202D312E3835363220202020302E30303030204F202020302020302020302020302020302020302020302020302020302020302020302020300A20202020342E323836382020202D312E3434333720202020302E303030302043202020302020302020302020302020302020302020302020302020302020302020302020300A2020202D302E3030303020202020312E3835363320202020302E3030303020436C2020302020302020302020302020302020302020302020302020302020302020302020300A2020312020322020312020302020202020200A2020322020332020322020302020202020200A2020332020342020312020302020202020200A2020342020352020322020302020202020200A2020352020362020312020302020202020200A2020312020362020322020302020202020200A2020372020382020312020302020202020200A2020382020392020322020302020202020200A2020392031302020312020302020202020200A2031302031312020322020302020202020200A2031312031322020312020302020202020200A2020372031322020322020302020202020200A2031332031342020312020302020202020200A2031302031332020312020302020202020200A2020352020372020312020302020202020200A2031352031362020312020302020202020200A2031362031372020322020302020202020200A2031372031382020312020302020202020200A2031382031392020322020302020202020200A2031392032302020312020302020202020200A2031352032302020322020302020202020200A2032312032322020312020302020202020200A2031382032312020312020302020202020200A2020332031352020312020302020202020200A2020312032332020312020302020202020200A4D2020454E44
Contributor: SASAKI S, TOYOHASHI UNIV. OF TECH.
InstType: EI
InstName: MS-902
IoniMethod: _ENERGY 70 eV
IonPolarity: pos
Date: 2010-10-09 19:48:36+02:00
Num Peaks: 107
32 25 38 12 39 56 50 3 51 51 52 12 62 38 63 14 64 52 65 17 
74 16 75 4 76 40 77 77 78 14 87 2 88 34 89 202 90 47 92 6 
95.5 12 99 10 101 19 102 3 103 29 104 12 113 10 114 4 115 40 116 31 
117 51 118 1 119 10 120 12 123 14 125 1 126 23 127 22 128 16 137 6 
133 26 134 14 140 10 141 1 141.5 14 142 10 143 21 150 3 151 25 152 38 
153 17 157 1 158 35 159 111 163 38 164 3 165 14 177 28 178 53 179 3 
190 36 191 25 192 10 203 2 204 14 205 31 206 22 207 2 216 10 222 16 
233 26 234 1 239 26 240 70 241 14 242 2 248 61 249 19 250 16 252 3 
253 10 254 16 261 14 267 1 268 31 269 12 270 10 275 1 276 32 277 10 
282 12 283 8 284 19 285 32 291 191 292 4 295 30 296 12 297 15 311 4 
312 10 313 19 325 13 326 999 327 208 328 327 329 56 
