Name: DICYCLOHEXYLAMINE
MW: 181
Formula: C12H23N
Synonym: MassBank: JP004188
Synonym: DICYCLOHEXYLAMINE
Structure: 44494359434C4F484558594C414D494E452E6D6F6C0A20204368656D447261773039323131303138353632440A2031332031342020302020302020302020302020302020302020302020303939392056323030300A20202020302E303030302020202D302E3832353020202020302E30303030204E202020302020302020302020302020302020302020302020302020302020302020302020300A2020202D302E373134352020202D302E3431323520202020302E303030302043202020302020302020302020302020302020302020302020302020302020302020302020300A2020202D312E343238392020202D302E3832353020202020302E303030302043202020302020302020302020302020302020302020302020302020302020302020302020300A2020202D322E313433342020202D302E3431323520202020302E303030302043202020302020302020302020302020302020302020302020302020302020302020302020300A2020202D322E3134333420202020302E3431323520202020302E303030302043202020302020302020302020302020302020302020302020302020302020302020302020300A2020202D312E3432383920202020302E3832353020202020302E303030302043202020302020302020302020302020302020302020302020302020302020302020302020300A2020202D302E3731343520202020302E3431323520202020302E303030302043202020302020302020302020302020302020302020302020302020302020302020302020300A20202020302E373134352020202D302E3431323520202020302E303030302043202020302020302020302020302020302020302020302020302020302020302020302020300A20202020302E3731343520202020302E3431323520202020302E303030302043202020302020302020302020302020302020302020302020302020302020302020302020300A20202020312E3432383920202020302E3832353020202020302E303030302043202020302020302020302020302020302020302020302020302020302020302020302020300A20202020322E3134333420202020302E3431323520202020302E303030302043202020302020302020302020302020302020302020302020302020302020302020302020300A20202020322E313433342020202D302E3431323520202020302E303030302043202020302020302020302020302020302020302020302020302020302020302020302020300A20202020312E343238392020202D302E3832353020202020302E303030302043202020302020302020302020302020302020302020302020302020302020302020302020300A2020322020332020312020302020202020200A2020332020342020312020302020202020200A2020342020352020312020302020202020200A2020352020362020312020302020202020200A2020362020372020312020302020202020200A2020322020372020312020302020202020200A2020312020322020312020302020202020200A2020382020392020312020302020202020200A2020392031302020312020302020202020200A2031302031312020312020302020202020200A2031312031322020312020302020202020200A2031322031332020312020302020202020200A2020382031332020312020302020202020200A2020312020382020312020302020202020200A4D2020454E44
Contributor: MASS SPECTROSCOPY SOC. OF JAPAN (MSSJ)
InstType: EI
InstName: HITACHI RMU-6E
IoniMethod: _ENERGY 70 eV
IonPolarity: pos
Date: 2010-10-09 19:48:36+02:00
Num Peaks: 72
26 3 27 37 28 80 29 6 30 62 31 2 32 4 38 0 39 55 40 7 
41 184 42 3 43 40 44 114 45 4 51 0 52 4 53 28 54 37 55 19 
56 420 57 23 58 7 65 1 66 4 67 34 68 29 69 2 70 35 71 4 
72 3 73 0 77 8 78 3 79 15 80 2 81 37 82 100 83 52 84 1 
91 2 92 1 93 3 94 1 95 4 96 23 97 5 98 5 99 6 100 59 
101 5 108 0 109 3 110 29 111 5 112 1 122 3 123 2 124 15 125 2 
126 3 136 4 137 2 138 999 139 100 140 7 151 1 152 4 153 4 181 112 
182 20 183 3 
