Name: GAMMA-VALEROLACTONE
MW: 100
Formula: C5H8O2
Synonym: MassBank: JP008725
Synonym: GAMMA-VALEROLACTONE
Structure: 310A31390A47414D4D412D56414C45524F4C4143544F4E452E6D6F6C0A20204368656D447261773038313131303139343432440A2020372020372020302020302020302020302020302020302020302020303939392056323030300A2020202D302E373133362020202D302E3239373520202020302E303030302043202020302020302020302020302020302020302020302020302020302020302020302020300A2020202D302E3731333620202020302E3532373520202020302E303030302043202020302020302020302020302020302020302020302020302020302020302020302020300A20202020302E3037313120202020302E3738323420202020302E303030302043202020302020302020302020302020302020302020302020302020302020302020302020300A20202020302E3535363020202020302E3131353020202020302E303030302043202020302020302020302020302020302020302020302020302020302020302020302020300A20202020312E3338313020202020302E3131353020202020302E303030302043202020302020302020302020302020302020302020302020302020302020302020302020300A2020202D312E333831302020202D302E3738323420202020302E30303030204F202020302020302020302020302020302020302020302020302020302020302020302020300A20202020302E303731312020202D302E3535323420202020302E30303030204F202020302020302020302020302020302020302020302020302020302020302020302020300A2020312020322020312020302020202020200A2020322020332020312020302020202020200A2020332020342020312020302020202020200A2020342020352020312020302020202020200A2020312020362020322020302020202020200A2020312020372020312020302020202020200A2020342020372020312020302020202020200A4D2020454E44
Contributor: SODA AROMATIC CO., LTD.
InstType: EI
InstName: HITACHI M-80B
IoniMethod: _ENERGY 70 eV
IonPolarity: pos
Date: 2010-10-09 19:48:36+02:00
Num Peaks: 30
14 37 15 89 25 13 26 142 27 342 28 677 29 481 30 14 31 17 37 17 
38 35 39 168 40 44 41 652 42 88 43 382 44 44 45 45 50 27 51 31 
53 32 54 21 55 98 56 999 57 113 71 18 85 576 86 16 99 34 100 71 
