Name: MassBank: JP004395
MW: 241
Formula: C13H11N3O2
Synonym: MassBank: JP004395
Synonym: 1,2-DIMETHYL-8-NITROPYRROLO(3,2-F)QUINOLINE
Structure: 312C322D44494D455448594C2D382D4E4954524F505952524F4C4F28332C322D46295155494E4F4C494E452E6D6F6C0A20204368656D447261773131303530393133313132440A2031382032302020302020302020302020302020302020302020302020303939392056323030300A2020202D302E333435302020202D312E3632383820202020302E30303030204E202020302020302020302020302020302020302020302020302020302020302020302020300A2020202D312E303539352020202D312E3231363320202020302E303030302043202020302020302020302020302020302020302020302020302020302020302020302020300A2020202D312E303539352020202D302E3339313320202020302E303030302043202020302020302020302020302020302020302020302020302020302020302020302020300A2020202D302E3334353020202020302E3032313220202020302E303030302043202020302020302020302020302020302020302020302020302020302020302020302020300A20202020302E333639352020202D302E3339313320202020302E303030302043202020302020302020302020302020302020302020302020302020302020302020302020300A20202020312E3038333920202020302E3032313220202020302E303030302043202020302020302020302020302020302020302020302020302020302020302020302020300A20202020312E373938342020202D302E3339313320202020302E303030302043202020302020302020302020302020302020302020302020302020302020302020302020300A20202020312E373938342020202D312E3231363320202020302E303030302043202020302020302020302020302020302020302020302020302020302020302020302020300A20202020312E303833392020202D312E3632383820202020302E303030302043202020302020302020302020302020302020302020302020302020302020302020302020300A20202020302E333639352020202D312E3231363320202020302E303030302043202020302020302020302020302020302020302020302020302020302020302020302020300A20202020322E3431313520202020302E3136303720202020302E30303030204E202020302020302020302020302020302020302020302020302020302020302020302020300A20202020312E3235353520202020302E3832383120202020302E303030302043202020302020302020302020302020302020302020302020302020302020302020302020300A20202020322E3037353920202020302E3931343420202020302E303030302043202020302020302020302020302020302020302020302020302020302020302020302020300A2020202D312E3737343020202020302E3032313220202020302E30303030204E202020302020332020302020302020302020302020302020302020302020302020302020300A2020202D312E3737343020202020302E3834363220202020302E30303030204F202020302020302020302020302020302020302020302020302020302020302020302020300A2020202D322E343838342020202D302E3339313320202020302E30303030204F202020302020352020302020302020302020302020302020302020302020302020302020300A20202020322E3438383420202020312E3632383820202020302E303030302043202020302020302020302020302020302020302020302020302020302020302020302020300A20202020302E3730333420202020312E3434313220202020302E303030302043202020302020302020302020302020302020302020302020302020302020302020302020300A2020312020322020322020302020202020200A2020322020332020312020302020202020200A2020332020342020322020302020202020200A2020342020352020312020302020202020200A2020352020362020322020302020202020200A2020362020372020312020302020202020200A2020372020382020322020302020202020200A2020382020392020312020302020202020200A2020392031302020322020302020202020200A2020312031302020312020302020202020200A2020352031302020312020302020202020200A2031322031332020322020302020202020200A2031312031332020312020302020202020200A2020362031322020312020302020202020200A2020372031312020312020302020202020200A2031342031352020322020302020202020200A2031342031362020312020302020202020200A2020332031342020312020302020202020200A2031332031372020312020302020202020200A2031322031382020312020302020202020200A4D202043484720203220203134202020312020313620202D310A4D2020454E44
Contributor: SASAKI S, TOYOHASHI UNIV. OF TECH.
InstType: EI
InstName: Unknown
IoniMethod: _ENERGY 50 eV
IonPolarity: pos
Date: 2010-10-09 19:48:36+02:00
Num Peaks: 43
56 46 57 222 67 51 68 5 69 156 70 36 71 93 81 6 82 31 83 103 
84 31 85 5 90 46 95 51 96 31 97 10 98 26 109 23 111 31 115 3 
126 31 127 46 139 26 140 3 151 36 153 46 154 31 166 3 167 82 168 72 
179 51 180 2 183 62 192 23 193 82 194 10 195 590 196 51 211 31 226 2 
240 67 241 999 242 92 
