Name: MassBank: JP002460
MW: 174
Formula: C8H14O4
Synonym: MassBank: JP002460
Synonym: (4S,5S)-4,5-BIS(METHOXYMETHYL)-2-METHYLENE-1,3-DIOXOLANE
Structure: 2834532C3553292D342C352D424953284D4554484F58594D455448594C292D322D4D455448594C454E452D312C332D44494F584F4C414E452E6D6F6C0A20204368656D447261773130323230393032353132440A2031342031342020302020302020302020302020302020302020302020303939392056323030300A20202020302E3139353520202020302E3235303520202020302E303030302043202020302020302020302020302020302020302020302020302020302020302020302020300A20202020312E3031363020202020302E3136343320202020302E30303030204F202020302020302020302020302020302020302020302020302020302020302020302020300A20202020312E3335313720202020302E3931373920202020302E303030302043202020302020302020302020302020302020302020302020302020302020302020302020300A20202020302E3733383420202020312E3436393120202020302E30303030204F202020302020302020302020302020302020302020302020302020302020302020302020300A20202020302E3032343120202020312E3035373620202020302E303030302043202020302020302020302020302020302020302020302020302020302020302020302020300A2020202D302E3331313020202020312E3831313520202020302E303030302048202020302020302020302020302020302020302020302020302020302020302020302020300A20202020302E313935352020202D302E3537343520202020302E303030302043202020302020302020302020302020302020302020302020302020302020302020302020300A2020202D302E3736303720202020302E3830323820202020302E303030302043202020302020302020302020302020302020302020302020302020302020302020302020300A2020202D302E3632343920202020302E3136343320202020302E303030302048202020302020302020302020302020302020302020302020302020302020302020302020300A2020202D302E353138392020202D302E3938373020202020302E30303030204F202020302020302020302020302020302020302020302020302020302020302020302020300A2020202D312E3337333620202020312E3335353120202020302E30303030204F202020302020302020302020302020302020302020302020302020302020302020302020300A20202020322E3135383620202020312E3038393720202020302E303030302043202020302020302020302020302020302020302020302020302020302020302020302020300A2020202D322E3135383620202020312E3130313320202020302E303030302043202020302020302020302020302020302020302020302020302020302020302020302020300A2020202D302E353230302020202D312E3831313520202020302E303030302043202020302020302020302020302020302020302020302020302020302020302020302020300A2020312020322020312020302020202020200A2020322020332020312020302020202020200A2020332020342020312020302020202020200A2020342020352020312020302020202020200A2020352020312020312020302020202020200A2020352020362020312020312020202020200A2020312020372020312020312020202020200A2020352020382020312020362020202020200A2020312020392020312020362020202020200A2020372031302020312020302020202020200A2020382031312020312020302020202020200A2020332031322020322020302020202020200A2031312031332020312020302020202020200A2031302031342020312020302020202020200A4D202053545920203120202031205355500A4D2020534C4220203120202031202020310A4D202053414C20202031202031202031330A4D202053424C20202031202031202031330A4D2020534D5420202031204D650A4D2020534256202020312031332020202D372E3531343120202020372E353832300A4D202053545920203120202032205355500A4D2020534C4220203120202032202020320A4D202053414C20202032202031202031340A4D202053424C20202032202031202031340A4D2020534D5420202032204D650A4D2020534256202020322031342020202D362E3733303220202020372E303131330A4D2020454E44
Contributor: ITO S, DEPT. OF CHEM., TOHOKU UNIV.
InstType: EI
InstName: HITACHI M-52
IoniMethod: _ENERGY 25 eV
IonPolarity: pos
Date: 2010-10-09 19:48:36+02:00
Num Peaks: 51
41 87 42 165 43 837 44 7 45 999 46 46 53 119 54 2 55 535 56 27 
57 110 58 40 59 178 60 23 68 183 69 15 70 243 71 229 72 73 73 6 
74 50 75 349 82 32 83 9 84 674 85 372 86 46 87 79 88 64 89 23 
97 55 99 11 100 156 101 55 102 165 103 3 105 41 112 82 113 32 115 91 
116 73 117 82 129 114 132 2 142 27 144 110 147 302 148 4 161 59 174 201 
175 37 
