Name: BIS-(2-CYANOETHYL)-AMINE
MW: 123
Formula: C6H9N3
Synonym: MassBank: JP002921
Synonym: BIS-(2-CYANOETHYL)-AMINE
Structure: 310A32320A4249532D28322D4359414E4F455448594C292D414D494E452E6D6F6C0A20204368656D447261773039303631303031303432440A2020392020382020302020302020302020302020302020302020302020303939392056323030300A2020202D302E303030302020202D302E3431323520202020302E30303030204E202020302020302020302020302020302020302020302020302020302020302020302020300A20202020302E3731343520202020302E3030303020202020302E303030302043202020302020302020302020302020302020302020302020302020302020302020302020300A20202020312E343238392020202D302E3431323520202020302E303030302043202020302020302020302020302020302020302020302020302020302020302020302020300A20202020322E3134333420202020302E3030303020202020302E303030302043202020302020302020302020302020302020302020302020302020302020302020302020300A20202020322E3835373920202020302E3431323520202020302E30303030204E202020302020302020302020302020302020302020302020302020302020302020302020300A2020202D302E3731343520202020302E3030303020202020302E303030302043202020302020302020302020302020302020302020302020302020302020302020302020300A2020202D312E343238392020202D302E3431323520202020302E303030302043202020302020302020302020302020302020302020302020302020302020302020302020300A2020202D322E3134333420202020302E3030303020202020302E303030302043202020302020302020302020302020302020302020302020302020302020302020302020300A2020202D322E3835373920202020302E3431323520202020302E30303030204E202020302020302020302020302020302020302020302020302020302020302020302020300A2020322020332020312020302020202020200A2020342020352020332020302020202020200A2020332020342020312020302020202020200A2020312020322020312020302020202020200A2020362020372020312020302020202020200A2020382020392020332020302020202020200A2020372020382020312020302020202020200A2020312020362020312020302020202020200A4D2020454E44
Contributor: MASS SPECTROSCOPY SOC. OF JAPAN (MSSJ)
InstType: EI
InstName: Unknown
IoniMethod: EI
IonPolarity: pos
Date: 2010-10-09 19:48:36+02:00
Num Peaks: 18
15 34 26 46 27 103 28 306 29 53 30 21 39 21 40 61 41 76 42 999 
43 127 52 61 54 523 55 42 56 59 81 58 82 859 84 52 
