Name: MassBank: JP000897
MW: 112
Formula: C6H12N2
Synonym: MassBank: JP000897
Synonym: 3,5,5-TRIMETHYL-2-PYRAZOLINE
Structure: 310A32310A332C352C352D5452494D455448594C2D322D505952415A4F4C494E452E6D6F6C0A20204368656D447261773032323231303030323532440A2020382020382020302020302020302020302020302020302020302020303939392056323030300A20202020302E3432383020202020302E3734393520202020302E30303030204E202020302020302020302020302020302020302020302020302020302020302020302020300A2020202D302E3339373020202020302E3734393520202020302E30303030204E202020302020302020302020302020302020302020302020302020302020302020302020300A2020202D302E363532302020202D302E3033353120202020302E303030302043202020302020302020302020302020302020302020302020302020302020302020302020300A20202020302E303135352020202D302E3532303020202020302E303030302043202020302020302020302020302020302020302020302020302020302020302020302020300A20202020302E363832392020202D302E3033353120202020302E303030302043202020302020302020302020302020302020302020302020302020302020302020302020300A20202020312E303935342020202D302E3734393520202020302E303030302043202020302020302020302020302020302020302020302020302020302020302020302020300A20202020312E3433363620202020302E3330303520202020302E303030302043202020302020302020302020302020302020302020302020302020302020302020302020300A2020202D312E343336362020202D302E3239303020202020302E303030302043202020302020302020302020302020302020302020302020302020302020302020302020300A2020312020322020312020302020202020200A2020322020332020322020302020202020200A2020332020342020312020302020202020200A2020342020352020312020302020202020200A2020312020352020312020302020202020200A2020352020362020312020312020202020200A2020352020372020312020362020202020200A2020332020382020312020302020202020200A4D2020454E44
Contributor: SASAKI S, TOYOHASHI UNIV. OF TECH.
InstType: EI
InstName: SHIMADZU LKB-2091
IoniMethod: _ENERGY 70 eV
IonPolarity: pos
Date: 2010-10-09 19:48:36+02:00
Num Peaks: 34
26 15 27 82 28 157 29 6 30 51 38 9 39 103 40 2 41 115 42 140 
43 31 44 0 51 10 52 6 53 24 54 3 55 31 56 419 57 35 58 1 
67 14 68 7 69 5 70 4 80 6 81 11 83 19 95 2 96 13 97 999 
98 62 111 1 112 235 113 24 
