Name: ACETALDEHYDE DIETHYL ACETAL
MW: 118
Formula: C6H14O2
Synonym: MassBank: JP008635
Synonym: ACETALDEHYDE DIETHYL ACETAL
Structure: 310A32300A41434554414C444548594445204449455448594C2041434554414C2E6D6F6C0A20204368656D447261773036323431303035333232440A2020382020372020302020302020302020302020302020302020302020303939392056323030300A20202020302E333537322020202D302E3230363320202020302E303030302043202020302020302020302020302020302020302020302020302020302020302020302020300A20202020302E3335373220202020302E3631383720202020302E303030302043202020302020302020302020302020302020302020302020302020302020302020302020300A20202020312E303731372020202D302E3631383820202020302E30303030204F202020302020302020302020302020302020302020302020302020302020302020302020300A2020202D302E333537322020202D302E3631383820202020302E30303030204F202020302020302020302020302020302020302020302020302020302020302020302020300A20202020312E373836322020202D302E3230363320202020302E303030302043202020302020302020302020302020302020302020302020302020302020302020302020300A20202020312E3738363220202020302E3631383820202020302E303030302043202020302020302020302020302020302020302020302020302020302020302020302020300A2020202D312E303731372020202D302E3230363320202020302E303030302043202020302020302020302020302020302020302020302020302020302020302020302020300A2020202D312E373836322020202D302E3631383820202020302E303030302043202020302020302020302020302020302020302020302020302020302020302020302020300A2020312020322020312020302020202020200A2020352020362020312020302020202020200A2020332020352020312020302020202020200A2020372020382020312020302020202020200A2020342020372020312020302020202020200A2020312020332020312020302020202020200A2020312020342020312020302020202020200A4D2020454E44
Contributor: SODA AROMATIC CO., LTD.
InstType: EI
InstName: HITACHI M-80B
IoniMethod: _ENERGY 70 eV
IonPolarity: pos
Date: 2010-10-09 19:48:36+02:00
Num Peaks: 19
15 46 19 14 26 21 27 141 29 164 30 11 31 56 42 14 43 189 44 70 
45 999 46 28 47 195 61 34 72 15 73 596 74 27 75 62 103 153 
