Name: NORHALFORDIN
MW: 262
Formula: C13H10O6
Synonym: MassBank: JP003118
Synonym: NORHALFORDIN
Structure: 303537345F4E4F5248414C464F5244494E2E6D6F6C0A20204368656D447261773039303631303138353032440A2031392032312020302020302020302020302020302020302020302020303939392056323030300A2020202D322E3432303920202020302E3631393320202020302E303030302043202020302020302020302020302020302020302020302020302020302020302020302020300A2020202D312E393336302020202D302E3034383120202020302E303030302043202020302020302020302020302020302020302020302020302020302020302020302020300A2020202D312E3135313420202020302E3230363820202020302E303030302043202020302020302020302020302020302020302020302020302020302020302020302020300A2020202D312E3135313420202020312E3033313820202020302E303030302043202020302020302020302020302020302020302020302020302020302020302020302020300A2020202D312E3933363020202020312E3238363820202020302E30303030204F202020302020302020302020302020302020302020302020302020302020302020302020300A2020202D302E343336392020202D302E3230353720202020302E303030302043202020302020302020302020302020302020302020302020302020302020302020302020300A20202020302E3237373520202020302E3230363820202020302E303030302043202020302020302020302020302020302020302020302020302020302020302020302020300A20202020302E3237373520202020312E3033313820202020302E303030302043202020302020302020302020302020302020302020302020302020302020302020302020300A2020202D302E3433363920202020312E3434343320202020302E303030302043202020302020302020302020302020302020302020302020302020302020302020302020300A20202020302E393932302020202D302E3230353720202020302E303030302043202020302020302020302020302020302020302020302020302020302020302020302020300A20202020312E3730363520202020302E3230363820202020302E303030302043202020302020302020302020302020302020302020302020302020302020302020302020300A20202020312E3730363520202020312E3033313820202020302E303030302043202020302020302020302020302020302020302020302020302020302020302020302020300A20202020302E3939323020202020312E3434343320202020302E30303030204F202020302020302020302020302020302020302020302020302020302020302020302020300A2020202D302E343336392020202D312E3033303720202020302E30303030204F202020302020302020302020302020302020302020302020302020302020302020302020300A20202020302E323737352020202D312E3434333220202020302E303030302043202020302020302020302020302020302020302020302020302020302020302020302020300A20202020322E3432303920202020312E3434343320202020302E30303030204F202020302020302020302020302020302020302020302020302020302020302020302020300A20202020322E343230392020202D302E3230353720202020302E30303030204F202020302020302020302020302020302020302020302020302020302020302020302020300A20202020302E393932302020202D312E3033303720202020302E30303030204F202020302020302020302020302020302020302020302020302020302020302020302020300A20202020312E373035382020202D312E3434343320202020302E303030302043202020302020302020302020302020302020302020302020302020302020302020302020300A2020312020322020322020302020202020200A2020322020332020312020302020202020200A2020332020342020322020302020202020200A2020342020352020312020302020202020200A2020352020312020312020302020202020200A2020332020362020312020302020202020200A2020362020372020322020302020202020200A2020372020382020312020302020202020200A2020382020392020322020302020202020200A2020392020342020312020302020202020200A2020372031302020312020302020202020200A2031302031312020322020302020202020200A2031312031322020312020302020202020200A2031322031332020312020302020202020200A2031332020382020312020302020202020200A2020362031342020312020302020202020200A2031342031352020312020302020202020200A2031322031362020322020302020202020200A2031312031372020312020302020202020200A2031302031382020312020302020202020200A2031382031392020312020302020202020200A4D2020454E44
Contributor: NAKAYAMA M, MASS SPECTROSCOPY SOC. OF JAPAN (MSSJ)
InstType: EI
InstName: AEI-GEC MS-902
IoniMethod: _ENERGY 70 eV
IonPolarity: pos
Date: 2010-10-09 19:48:36+02:00
Num Peaks: 8
120 30 148 40 176 380 191 380 219 460 233 40 247 200 262 999 
