Name: CIS-4-HEPTENAL DIETHYL ACETAL
MW: 186
Formula: C11H22O2
Synonym: MassBank: JP008642
Synonym: CIS-4-HEPTENAL DIETHYL ACETAL
Structure: 4349532D342D48455054454E414C204449455448594C2041434554414C2E6D6F6C0A20204368656D447261773039303831303134333132440A2031332031322020302020302020302020302020302020302020302020303939392056323030300A20202020302E323036322020202D312E3037313720202020302E303030302043202020302020302020302020302020302020302020302020302020302020302020302020300A20202020302E363138372020202D302E3335373220202020302E303030302043202020302020302020302020302020302020302020302020302020302020302020302020300A20202020312E343433372020202D302E3335373220202020302E303030302043202020302020302020302020302020302020302020302020302020302020302020302020300A20202020312E3835363220202020302E3335373220202020302E303030302043202020302020302020302020302020302020302020302020302020302020302020302020300A20202020312E3434333720202020312E3037313720202020302E303030302043202020302020302020302020302020302020302020302020302020302020302020302020300A20202020302E3631383720202020312E3037313720202020302E303030302043202020302020302020302020302020302020302020302020302020302020302020302020300A20202020302E3230363220202020312E3738363220202020302E303030302043202020302020302020302020302020302020302020302020302020302020302020302020300A20202020302E363138372020202D312E3738363220202020302E30303030204F202020302020302020302020302020302020302020302020302020302020302020302020300A2020202D302E363138382020202D312E3037313720202020302E30303030204F202020302020302020302020302020302020302020302020302020302020302020302020300A20202020312E343433372020202D312E3738363220202020302E303030302043202020302020302020302020302020302020302020302020302020302020302020302020300A20202020312E383536332020202D312E3037313720202020302E303030302043202020302020302020302020302020302020302020302020302020302020302020302020300A2020202D312E303331332020202D302E3335373220202020302E303030302043202020302020302020302020302020302020302020302020302020302020302020302020300A2020202D312E383536332020202D302E3335373220202020302E303030302043202020302020302020302020302020302020302020302020302020302020302020302020300A2020312020322020312020302020202020200A2020322020332020312020302020202020200A2020332020342020312020302020202020200A2020342020352020322020302020202020200A2020352020362020312020302020202020200A2020362020372020312020302020202020200A2031302031312020312020302020202020200A2020382031302020312020302020202020200A2031322031332020312020302020202020200A2020392031322020312020302020202020200A2020312020382020312020302020202020200A2020312020392020312020302020202020200A4D2020454E44
Contributor: SODA AROMATIC CO., LTD.
InstType: EI
InstName: HITACHI M-80B
IoniMethod: _ENERGY 70 eV
IonPolarity: pos
Date: 2010-10-09 19:48:36+02:00
Num Peaks: 66
15 30 19 21 26 35 27 380 29 603 30 23 31 256 39 264 41 675 42 65 
43 262 44 156 45 212 46 33 47 889 51 27 52 12 53 110 54 37 55 420 
56 39 57 217 58 32 59 51 60 13 61 12 65 26 66 21 67 145 68 336 
69 483 70 69 71 23 72 174 73 69 74 11 75 680 76 21 77 32 79 68 
81 60 83 403 84 46 85 32 86 17 91 13 93 24 94 218 95 515 96 59 
97 40 98 13 101 32 103 999 104 44 111 337 112 34 113 36 116 11 125 11 
129 85 130 10 140 118 141 138 142 15 143 10 
