Name: DIHYDROCARVEOL(CIS-AXIAL)
MW: 154
Formula: C10H18O
Synonym: MassBank: JP007391
Synonym: DIHYDROCARVEOL(CIS-AXIAL)
Synonym: 2-METHYL-5-ISOPROPENYLCYCLOHEXANOL(CIS-AXIAL)
Structure: 4449485944524F43415256454F4C284349532D415849414C292E6D6F6C0A20204368656D447261773031323231303037313632440A2031342031342020302020302020302020302020302020302020302020303939392056323030300A2020202D302E3436363920202020302E3431323520202020302E303030302043202020302020302020302020302020302020302020302020302020302020302020302020300A2020202D302E343636392020202D302E3431323520202020302E303030302043202020302020302020302020302020302020302020302020302020302020302020302020300A20202020302E323437362020202D302E3832353020202020302E303030302043202020302020302020302020302020302020302020302020302020302020302020302020300A20202020302E393632312020202D302E3431323520202020302E303030302043202020302020302020302020302020302020302020302020302020302020302020302020300A20202020302E3936323120202020302E3431323520202020302E303030302043202020302020302020302020302020302020302020302020302020302020302020302020300A20202020302E3234373620202020302E3832353020202020302E303030302043202020302020302020302020302020302020302020302020302020302020302020302020300A20202020312E3738373120202020302E3431323520202020302E303030302048202020302020302020302020302020302020302020302020302020302020302020302020300A20202020312E373837312020202D302E3431323520202020302E303030302043202020302020302020302020302020302020302020302020302020302020302020302020300A2020202D302E3638303420202020312E3230393420202020302E303030302048202020302020302020302020302020302020302020302020302020302020302020302020300A20202020312E3137353620202020312E3230393420202020302E30303030204F202020302020302020302020302020302020302020302020302020302020302020302020300A20202020312E313735362020202D312E3230393420202020302E303030302048202020302020302020302020302020302020302020302020302020302020302020302020300A2020202D312E3238343820202020302E3330343820202020302E303030302043202020302020302020302020302020302020302020302020302020302020302020302020300A2020202D312E3738373120202020302E3935393320202020302E303030302043202020302020302020302020302020302020302020302020302020302020302020302020300A2020202D312E363030352020202D302E3435373420202020302E303030302043202020302020302020302020302020302020302020302020302020302020302020302020300A2020312020322020312020302020202020200A2020322020332020312020302020202020200A2020332020342020312020302020202020200A2020342020352020312020302020202020200A2020352020362020312020302020202020200A2020362020312020312020302020202020200A2020352020372020312020312020202020200A2020342020382020312020312020202020200A2020312020392020312020312020202020200A2020352031302020312020362020202020200A2020342031312020312020362020202020200A2020312031322020312020362020202020200A2031322031332020312020302020202020200A2031322031342020322020302020202020200A4D2020454E44
Contributor: YAMAMOTO M, DEP. CHEMISTRY, FAC. SCIENCE, NARA WOMEN'S UNIV.
InstType: EI
InstName: HITACHI M-80
IoniMethod: _ENERGY 20 eV
IonPolarity: pos
Date: 2010-10-09 19:48:36+02:00
Num Peaks: 53
42 20 43 290 44 12 45 11 53 21 54 19 55 236 56 113 57 72 58 122 
59 66 66 13 67 204 68 361 69 358 70 236 71 180 72 112 77 16 78 11 
79 356 80 193 81 604 82 255 83 205 84 173 85 44 91 37 92 361 93 992 
94 545 95 275 96 223 97 354 98 71 99 23 105 24 106 14 107 917 108 215 
109 36 110 62 111 223 112 42 121 897 122 89 123 34 125 16 135 19 136 999 
137 119 139 66 154 49 
