Name: MassBank: JP000443
MW: 206
Formula: C10H10N2O3
Synonym: MassBank: JP000443
Synonym: 5-HYDROXY-1,2-DIMETHYL-4-NITROINDOLE
Structure: 352D485944524F58592D312C322D44494D455448594C2D342D4E4954524F494E444F4C452E6D6F6C0A20204368656D447261773034323331303035353432440A2031352031362020302020302020302020302020302020302020302020303939392056323030300A2020202D302E383039312020202D302E3937323720202020302E30303030204E202020302020302020302020302020302020302020302020302020302020302020302020300A2020202D312E323934302020202D302E3330353220202020302E303030302043202020302020302020302020302020302020302020302020302020302020302020302020300A2020202D302E3830393120202020302E3336323220202020302E303030302043202020302020302020302020302020302020302020302020302020302020302020302020300A2020202D302E3032343420202020302E3130373320202020302E303030302043202020302020302020302020302020302020302020302020302020302020302020302020300A20202020302E3639303020202020302E3531393820202020302E303030302043202020302020302020302020302020302020302020302020302020302020302020302020300A20202020312E3430343520202020302E3130373320202020302E303030302043202020302020302020302020302020302020302020302020302020302020302020302020300A20202020312E343034352020202D302E3731373720202020302E303030302043202020302020302020302020302020302020302020302020302020302020302020302020300A20202020302E363930302020202D312E3133303220202020302E303030302043202020302020302020302020302020302020302020302020302020302020302020302020300A2020202D302E303234342020202D302E3731373720202020302E303030302043202020302020302020302020302020302020302020302020302020302020302020302020300A20202020302E3639303020202020312E3334343820202020302E30303030204E202020302020332020302020302020302020302020302020302020302020302020302020300A20202020312E3430343520202020312E3735373320202020302E30303030204F202020302020302020302020302020302020302020302020302020302020302020302020300A2020202D302E3032343420202020312E3735373320202020302E30303030204F202020302020352020302020302020302020302020302020302020302020302020302020300A2020202D322E313139302020202D302E3330353220202020302E303030302043202020302020302020302020302020302020302020302020302020302020302020302020300A2020202D312E303634302020202D312E3735373320202020302E303030302043202020302020302020302020302020302020302020302020302020302020302020302020300A20202020322E3131393020202020302E3531393820202020302E30303030204F202020302020302020302020302020302020302020302020302020302020302020302020300A2020312020322020312020302020202020200A2020322020332020322020302020202020200A2020332020342020312020302020202020200A2020342020352020312020302020202020200A2020352020362020322020302020202020200A2020362020372020312020302020202020200A2020372020382020322020302020202020200A2020382020392020312020302020202020200A2020312020392020312020302020202020200A2020342020392020322020302020202020200A2031302031312020322020302020202020200A2031302031322020312020302020202020200A2020352031302020312020302020202020200A2020322031332020312020302020202020200A2020312031342020312020302020202020200A2020362031352020312020302020202020200A4D202043484720203220203130202020312020313220202D310A4D2020454E44
Contributor: SASAKI S, TOYOHASHI UNIV. OF TECH.
InstType: EI
InstName: MX-1303
IoniMethod: _ENERGY 50 eV
IonPolarity: pos
Date: 2010-10-09 19:48:36+02:00
Num Peaks: 94
41 295 43 380 44 55 45 20 50 13 51 36 52 20 53 4 54 37 55 285 
56 171 57 31 60 171 61 30 62 10 63 7 64 20 65 64 66 38 67 9 
68 70 69 640 70 68 71 14 73 152 74 15 75 24 76 3 77 133 78 47 
79 37 80 2 81 240 82 45 83 114 84 4 85 70 87 20 88 10 89 11 
90 59 91 71 92 21 93 3 94 14 95 70 97 72 98 3 99 14 101 14 
102 19 103 6 104 31 105 28 106 12 107 2 109 32 110 13 111 30 112 1 
113 10 115 19 116 54 117 7 118 30 119 33 121 20 123 3 125 11 129 63 
130 220 131 37 132 115 133 52 135 15 136 2 137 44 143 25 144 16 145 18 
146 20 147 15 148 95 149 5 150 19 158 37 160 48 161 3 173 44 176 95 
189 28 205 2 206 999 207 100 
