Name: PARA-METHOXYBENZOIC ACID ISOBUTYL ESTER
MW: 208
Formula: C12H16O3
Synonym: MassBank: JP000997
Synonym: PARA-METHOXYBENZOIC ACID ISOBUTYL ESTER
Synonym: ISOBUTYL PARA-METHOXYBENZOATE
Structure: 504152412D4D4554484F585942454E5A4F494320414349442049534F425554594C2045535445522E6D6F6C0A20204368656D447261773038313231303034323832440A2031352031352020302020302020302020302020302020302020302020303939392056323030300A2020202D302E3335373220202020302E3431323520202020302E303030302043202020302020302020302020302020302020302020302020302020302020302020302020300A20202020302E333537322020202D302E3030303020202020302E303030302043202020302020302020302020302020302020302020302020302020302020302020302020300A20202020312E3037313720202020302E3431323520202020302E303030302043202020302020302020302020302020302020302020302020302020302020302020302020300A20202020312E3738363220202020302E3030303020202020302E303030302043202020302020302020302020302020302020302020302020302020302020302020302020300A20202020312E373836322020202D302E3832353020202020302E303030302043202020302020302020302020302020302020302020302020302020302020302020302020300A20202020312E303731372020202D312E3233373520202020302E303030302043202020302020302020302020302020302020302020302020302020302020302020302020300A20202020302E333537322020202D302E3832353020202020302E303030302043202020302020302020302020302020302020302020302020302020302020302020302020300A2020202D302E3335373220202020312E3233373520202020302E30303030204F202020302020302020302020302020302020302020302020302020302020302020302020300A2020202D312E303731372020202D302E3030303020202020302E30303030204F202020302020302020302020302020302020302020302020302020302020302020302020300A20202020322E353030362020202D312E3233373520202020302E30303030204F202020302020302020302020302020302020302020302020302020302020302020302020300A20202020332E323135312020202D302E3832353020202020302E303030302043202020302020302020302020302020302020302020302020302020302020302020302020300A2020202D312E3738363220202020302E3431323520202020302E303030302043202020302020302020302020302020302020302020302020302020302020302020302020300A2020202D322E353030362020202D302E3030303020202020302E303030302043202020302020302020302020302020302020302020302020302020302020302020302020300A2020202D322E353030362020202D302E3832353020202020302E303030302043202020302020302020302020302020302020302020302020302020302020302020302020300A2020202D332E3231353120202020302E3431323520202020302E303030302043202020302020302020302020302020302020302020302020302020302020302020302020300A2020312020322020312020302020202020200A2020322020332020312020302020202020200A2020332020342020322020302020202020200A2020342020352020312020302020202020200A2020352020362020322020302020202020200A2020362020372020312020302020202020200A2020322020372020322020302020202020200A2020312020382020322020302020202020200A2020312020392020312020302020202020200A2031302031312020312020302020202020200A2020352031302020312020302020202020200A2031322031332020312020302020202020200A2031332031342020312020302020202020200A2031332031352020312020302020202020200A2020392031322020312020302020202020200A4D2020454E44
Contributor: TAJIMA S, GUNMA COLLEGE OF TECHNOLOGY
InstType: EI
InstName: HITACHI RMU-7M
IoniMethod: _ENERGY 70 eV
IonPolarity: pos
Date: 2010-10-09 19:48:36+02:00
Num Peaks: 28
27 25 28 22 29 50 39 28 41 59 42 12 43 28 50 19 51 12 56 22 
57 21 63 30 64 55 65 14 76 19 77 138 78 14 92 87 93 10 107 82 
108 11 135 999 136 96 137 11 152 684 153 92 208 43 209 6 
