Name: TETRA-N-BUTYLSTANNANE
MW: 348
Formula: C16H36Sn
Synonym: MassBank: JP002515
Synonym: TETRA-N-BUTYLSTANNANE
Structure: 54455452412D4E2D425554594C5354414E4E414E452E6D6F6C0A20204368656D447261773038313231303037313232440A2031372031362020302020302020302020302020302020302020302020303939392056323030300A20202020302E313635382020202D302E3435333020202020302E3030303020536E2020302020302020302020302020302020302020302020302020302020302020302020300A20202020302E3136353820202020302E3337323020202020302E303030302043202020302020302020302020302020302020302020302020302020302020302020302020300A2020202D302E3534383720202020302E3738343520202020302E303030302043202020302020302020302020302020302020302020302020302020302020302020302020300A2020202D312E3236333120202020302E3337323020202020302E303030302043202020302020302020302020302020302020302020302020302020302020302020302020300A2020202D312E3937373620202020302E3738343520202020302E303030302043202020302020302020302020302020302020302020302020302020302020302020302020300A20202020302E393930382020202D302E3435333020202020302E303030302043202020302020302020302020302020302020302020302020302020302020302020302020300A20202020312E3430333320202020302E3236313520202020302E303030302043202020302020302020302020302020302020302020302020302020302020302020302020300A20202020302E3939303820202020302E3937363020202020302E303030302043202020302020302020302020302020302020302020302020302020302020302020302020300A20202020312E3430333320202020312E3639303520202020302E303030302043202020302020302020302020302020302020302020302020302020302020302020302020300A20202020302E313635382020202D312E3237383020202020302E303030302043202020302020302020302020302020302020302020302020302020302020302020302020300A20202020302E383830332020202D312E3639303520202020302E303030302043202020302020302020302020302020302020302020302020302020302020302020302020300A20202020312E353934372020202D312E3237383020202020302E303030302043202020302020302020302020302020302020302020302020302020302020302020302020300A20202020322E333039322020202D312E3639303520202020302E303030302043202020302020302020302020302020302020302020302020302020302020302020302020300A2020202D302E363539322020202D302E3435333020202020302E303030302043202020302020302020302020302020302020302020302020302020302020302020302020300A2020202D312E303731372020202D312E3136373420202020302E303030302043202020302020302020302020302020302020302020302020302020302020302020302020300A2020202D312E383936372020202D312E3136373420202020302E303030302043202020302020302020302020302020302020302020302020302020302020302020302020300A2020202D322E333039322020202D302E3435333020202020302E303030302043202020302020302020302020302020302020302020302020302020302020302020302020300A2020322020332020312020302020202020200A2020332020342020312020302020202020200A2020342020352020312020302020202020200A2020312020322020312020302020202020200A2020362020372020312020302020202020200A2020372020382020312020302020202020200A2020382020392020312020302020202020200A2020312020362020312020302020202020200A2031302031312020312020302020202020200A2031312031322020312020302020202020200A2031322031332020312020302020202020200A2020312031302020312020302020202020200A2031342031352020312020302020202020200A2031352031362020312020302020202020200A2031362031372020312020302020202020200A2020312031342020312020302020202020200A4D2020454E44
Contributor: MASS SPECTROSCOPY SOC. OF JAPAN (MSSJ)
InstType: EI
InstName: JEOL JMS-D-3000
IoniMethod: _ENERGY 70 eV
IonPolarity: pos
Date: 2010-10-09 19:48:36+02:00
Num Peaks: 52
43 16 44 33 55 25 56 40 57 51 78 23 116 31 117 123 118 100 119 240 
120 149 121 319 122 36 123 138 125 58 127 19 133 17 135 26 145 19 147 29 
149 31 171 38 173 97 174 62 175 576 176 313 177 891 178 316 179 999 180 49 
181 172 183 172 227 25 229 19 230 17 231 364 232 226 233 614 234 269 235 795 
236 75 237 117 239 139 283 19 287 286 288 190 289 477 290 223 291 624 292 84 
293 96 295 109 
