Name: PROPARGYL BROMIDE
MW: 117
Formula: C3H3Br
Synonym: MassBank: JP005875
Synonym: PROPARGYL BROMIDE
Structure: 310A31320A50524F50415247594C2042524F4D4944452E6D6F6C0A20204368656D447261773038313231303036303232440A2020342020332020302020302020302020302020302020302020302020303939392056323030300A20202020302E363138382020202D302E3335373220202020302E303030302043202020302020302020302020302020302020302020302020302020302020302020302020300A2020202D302E323036322020202D302E3335373220202020302E303030302043202020302020302020302020302020302020302020302020302020302020302020302020300A2020202D312E303331332020202D302E3335373220202020302E303030302043202020302020302020302020302020302020302020302020302020302020302020302020300A20202020312E3033313320202020302E3335373220202020302E303030302042722020302020302020302020302020302020302020302020302020302020302020302020300A2020312020322020312020302020202020200A2020322020332020332020302020202020200A2020312020342020312020302020202020200A4D2020454E44
Contributor: YAMAMOTO M, DEP. CHEMISTRY, FAC. SCIENCE, NARA WOMEN'S UNIV.
InstType: EI
InstName: HITACHI RMU-6M
IoniMethod: _ENERGY 70 eV
IonPolarity: pos
Date: 2010-10-09 19:48:36+02:00
Num Peaks: 15
24 12 25 19 26 16 36 31 37 162 38 254 39 999 40 36 79 36 81 36 
117 13 118 293 119 21 120 276 121 10 
