Name: BENZYL OCTANOATE
MW: 234
Formula: C15H22O2
Synonym: MassBank: JP006438
Synonym: BENZYL OCTANOATE
Structure: 42454E5A594C204F4354414E4F4154452E6D6F6C0A20204368656D447261773039303531303131323132440A2031372031372020302020302020302020302020302020302020302020303939392056323030300A20202020302E3230363320202020302E3030303020202020302E303030302043202020302020302020302020302020302020302020302020302020302020302020302020300A2020202D302E323036332020202D302E3731343520202020302E303030302043202020302020302020302020302020302020302020302020302020302020302020302020300A2020202D312E303331332020202D302E3731343520202020302E303030302043202020302020302020302020302020302020302020302020302020302020302020302020300A2020202D312E3434333820202020302E3030303020202020302E303030302043202020302020302020302020302020302020302020302020302020302020302020302020300A2020202D322E3236383820202020302E3030303020202020302E303030302043202020302020302020302020302020302020302020302020302020302020302020302020300A2020202D322E3638313320202020302E3731343520202020302E303030302043202020302020302020302020302020302020302020302020302020302020302020302020300A2020202D332E3530363320202020302E3731343520202020302E303030302043202020302020302020302020302020302020302020302020302020302020302020302020300A2020202D332E3931383820202020312E3432383920202020302E303030302043202020302020302020302020302020302020302020302020302020302020302020302020300A2020202D302E3230363320202020302E3731343520202020302E30303030204F202020302020302020302020302020302020302020302020302020302020302020302020300A20202020312E3033313220202020302E3030303020202020302E30303030204F202020302020302020302020302020302020302020302020302020302020302020302020300A20202020312E343433382020202D302E3731343520202020302E303030302043202020302020302020302020302020302020302020302020302020302020302020302020300A20202020322E323638382020202D302E3731343520202020302E303030302043202020302020302020302020302020302020302020302020302020302020302020302020300A20202020322E3638313320202020302E3030303020202020302E303030302043202020302020302020302020302020302020302020302020302020302020302020302020300A20202020332E3530363220202020302E3030303020202020302E303030302043202020302020302020302020302020302020302020302020302020302020302020302020300A20202020332E393138382020202D302E3731343520202020302E303030302043202020302020302020302020302020302020302020302020302020302020302020302020300A20202020332E353036332020202D312E3432383920202020302E303030302043202020302020302020302020302020302020302020302020302020302020302020302020300A20202020322E363831332020202D312E3432383920202020302E303030302043202020302020302020302020302020302020302020302020302020302020302020302020300A2020312020322020312020302020202020200A2020322020332020312020302020202020200A2020332020342020312020302020202020200A2020342020352020312020302020202020200A2020352020362020312020302020202020200A2020362020372020312020302020202020200A2020372020382020312020302020202020200A2020312020392020322020302020202020200A2020312031302020312020302020202020200A2031312031322020312020302020202020200A2031322031332020312020302020202020200A2031332031342020322020302020202020200A2031342031352020312020302020202020200A2031352031362020322020302020202020200A2031362031372020312020302020202020200A2031322031372020322020302020202020200A2031302031312020312020302020202020200A4D2020454E44
Contributor: HISAHIRO HAGIWARA, CHEMICAL RESEARCH INSTITUTE OF NON-AQUEOUSSOLUTIONS TOHOKU UNIV.
InstType: EI
InstName: HITACHI M-80B
IoniMethod: _ENERGY 70 eV
IonPolarity: pos
Date: 2010-10-09 19:48:36+02:00
Num Peaks: 35
27 65 29 84 39 70 41 159 42 37 43 133 51 26 53 10 55 111 56 14 
57 270 58 10 63 15 65 104 67 11 69 13 77 65 78 13 79 61 83 81 
89 28 90 92 91 999 92 229 93 12 97 74 105 20 107 62 108 585 109 53 
124 13 125 100 127 108 143 80 234 44 
