Name: ALPHA-TERPINEOL
MW: 154
Formula: C10H18O
Synonym: MassBank: JP008378
Synonym: ALPHA-TERPINEOL
Synonym: ALPHA,ALPHA,4-TRIMETHYL-3-CYCLOHEXENEMETHANOL
Structure: 2853292D414C5048412C414C5048412C342D5452494D455448594C2D332D4359434C4F484558454E452D312D4D455448414E4F4C2E6D6F6C0A20204368656D447261773130323230393138333432440A2031332031332020302020302020302020302020302020302020302020303939392056323030300A2020202D302E3237343820202020302E3332373120202020302E303030302043202020302020302020302020302020302020302020302020302020302020302020302020300A2020202D302E323734382020202D302E3439373920202020302E303030302043202020302020302020302020302020302020302020302020302020302020302020302020300A20202020302E343339372020202D302E3931303420202020302E303030302043202020302020302020302020302020302020302020302020302020302020302020302020300A20202020312E313534322020202D302E3439373920202020302E303030302043202020302020302020302020302020302020302020302020302020302020302020302020300A20202020312E3135343220202020302E3332373120202020302E303030302043202020302020302020302020302020302020302020302020302020302020302020302020300A20202020302E3433393720202020302E3733393620202020302E303030302043202020302020302020302020302020302020302020302020302020302020302020302020300A20202020312E3836383620202020302E3733393620202020302E303030302048202020302020302020302020302020302020302020302020302020302020302020302020300A2020202D302E3835383120202020302E3931303420202020302E303030302048202020302020302020302020302020302020302020302020302020302020302020302020300A2020202D312E3037313720202020302E3131333520202020302E303030302043202020302020302020302020302020302020302020302020302020302020302020302020300A2020202D312E383638362020202D302E3130303020202020302E30303030204F202020302020302020302020302020302020302020302020302020302020302020302020300A2020202D302E383538312020202D302E3638333420202020302E303030302043202020302020302020302020302020302020302020302020302020302020302020302020300A2020202D312E3238353320202020302E3931303420202020302E303030302043202020302020302020302020302020302020302020302020302020302020302020302020300A20202020312E383638342020202D302E3931303220202020302E303030302043202020302020302020302020302020302020302020302020302020302020302020302020300A2020312020322020312020302020202020200A2020322020332020312020302020202020200A2020332020342020312020302020202020200A2020342020352020322020302020202020200A2020352020362020312020302020202020200A2020362020312020312020302020202020200A2020352020372020312020302020202020200A2020312020382020312020312020202020200A2020312020392020312020362020202020200A2020392031302020312020302020202020200A2020392031312020312020302020202020200A2020392031322020312020302020202020200A2020342031332020312020302020202020200A4D202053545920203120202031205355500A4D2020534C4220203120202031202020310A4D202053414C20202031202031202031330A4D202053424C20202031202031202031330A4D2020534D5420202031204D650A4D2020534256202020312031332020202D352E3930323520202020372E303132360A4D2020454E44
Contributor: SODA AROMATIC CO., LTD.
InstType: EI
InstName: HITACHI M-80B
IoniMethod: _ENERGY 70 eV
IonPolarity: pos
Date: 2010-10-09 19:48:36+02:00
Num Peaks: 48
15 19 27 110 28 24 29 75 31 98 39 151 40 33 41 236 42 22 43 439 
44 13 45 21 51 40 52 19 53 121 54 52 55 152 57 16 58 16 59 999 
60 32 63 11 65 45 66 18 67 183 68 140 69 47 71 103 77 110 78 21 
79 161 80 61 81 354 82 22 91 78 92 160 93 559 94 79 95 149 96 64 
105 25 107 69 108 31 121 528 122 53 136 439 137 56 139 72 
