Name: MassBank: JP004699
MW: 420
Formula: C18H36Si6
Synonym: MassBank: JP004699
Synonym: 1,1,2,2,5,5,6,6,9,9,10,10-DODECAMETHYL-1,2,5,6,9,10-HEXASILA-3,7,11-CYCLODODECATRIYNE
Synonym: DODECAMETHYL-3,4,7,8,11,12-HEXASILACYCLODODECA-1,5,9-TRIYNE
Structure: 312C312C322C322C352C352C362C362C392C392C31302C31302D444F444543414D455448594C2D312C322C352C362C392C31302D4845584153494C412D332C372C31312D4359434C4F444F44454341545249594E452E6D6F6C0A20204368656D447261773130323330393031303532440A2032342032342020302020302020302020302020302020302020302020303939392056323030300A2020202D302E3639333920202020302E3438333720202020302E303030302053692020302020302020302020302020302020302020302020302020302020302020302020300A2020202D302E363933392020202D302E3334313320202020302E303030302053692020302020302020302020302020302020302020302020302020302020302020302020300A2020202D302E313130352020202D302E3932343720202020302E303030302043202020302020302020302020302020302020302020302020302020302020302020302020300A20202020302E373134352020202D302E3932343720202020302E303030302043202020302020302020302020302020302020302020302020302020302020302020302020300A20202020312E323937382020202D302E3334313320202020302E303030302053692020302020302020302020302020302020302020302020302020302020302020302020300A20202020312E3239373820202020302E3438333720202020302E303030302053692020302020302020302020302020302020302020302020302020302020302020302020300A20202020302E3731343520202020312E3036373020202020302E303030302043202020302020302020302020302020302020302020302020302020302020302020302020300A2020202D302E3131303520202020312E3036373020202020302E303030302043202020302020302020302020302020302020302020302020302020302020302020302020300A2020202D312E3430383420202020302E3839363220202020302E303030302053692020302020302020302020302020302020302020302020302020302020302020302020300A2020202D322E3132323820202020302E3438333720202020302E303030302043202020302020302020302020302020302020302020302020302020302020302020302020300A2020202D322E313232382020202D302E3334313320202020302E303030302043202020302020302020302020302020302020302020302020302020302020302020302020300A2020202D312E343038342020202D302E3735333820202020302E303030302053692020302020302020302020302020302020302020302020302020302020302020302020300A2020202D312E3939313720202020312E3437393520202020302E303030302043202020302020302020302020302020302020302020302020302020302020302020302020300A2020202D312E3430383420202020302E3037313220202020302E303030302043202020302020302020302020302020302020302020302020302020302020302020302020300A2020202D312E363231392020202D312E3535303720202020302E303030302043202020302020302020302020302020302020302020302020302020302020302020302020300A20202020302E313331312020202D302E3334313320202020302E303030302043202020302020302020302020302020302020302020302020302020302020302020302020300A20202020312E3838313220202020312E3036373020202020302E303030302043202020302020302020302020302020302020302020302020302020302020302020302020300A20202020322E303934372020202D302E3132373820202020302E303030302043202020302020302020302020302020302020302020302020302020302020302020302020300A2020202D302E3930363120202020312E3535303720202020302E303030302043202020302020302020302020302020302020302020302020302020302020302020302020300A20202020302E3133313120202020302E3438333720202020302E303030302043202020302020302020302020302020302020302020302020302020302020302020302020300A2020202D302E373533382020202D312E3235363020202020302E303030302043202020302020302020302020302020302020302020302020302020302020302020302020300A2020202D302E343830342020202D312E3133383220202020302E303030302043202020302020302020302020302020302020302020302020302020302020302020302020300A20202020312E373130332020202D312E3035353820202020302E303030302043202020302020302020302020302020302020302020302020302020302020302020302020300A20202020322E3132323820202020302E3438333720202020302E303030302043202020302020302020302020302020302020302020302020302020302020302020302020300A2020322020332020312020302020202020200A2020332020342020332020302020202020200A2020342020352020312020302020202020200A2020352020362020312020302020202020200A2020362020372020312020302020202020200A2020372020382020332020302020202020200A2020382020312020312020302020202020200A2020312020392020312020302020202020200A2020392031302020312020302020202020200A2031302031312020332020302020202020200A2031312031322020312020302020202020200A2031322020322020312020302020202020200A2020392031332020312020362020202020200A2020312031342020312020362020202020200A2031322031352020312020362020202020200A2020322031362020312020362020202020200A2020362031372020312020362020202020200A2020352031382020312020362020202020200A2020392031392020312020312020202020200A2020312032302020312020312020202020200A2031322032312020312020312020202020200A2020322032322020312020312020202020200A2020352032332020312020312020202020200A2020362032342020312020312020202020200A4D2020454E44
Contributor: MASS SPECTROSCOPY SOC. OF JAPAN (MSSJ)
InstType: EI
InstName: Unknown
IoniMethod: _ENERGY 70 eV
IonPolarity: pos
Date: 2010-10-09 19:48:36+02:00
Num Peaks: 49
43 32 45 75 59 44 67 21 73 999 74 89 75 39 83 86 85 28 97 98 
99 60 101 38 109 23 111 33 113 30 115 21 116 396 117 64 118 31 123 39 
125 76 126 13 127 23 129 30 139 22 141 38 153 33 155 113 156 21 157 19 
165 24 167 22 177 22 183 65 191 20 207 29 231 21 235 26 259 30 265 35 
289 31 307 22 317 29 331 26 333 21 347 172 361 58 405 620 420 166 
