Name: 1-ACETYL-4-PHENYL-3-(2-PYRIDYL)-2-PYRAZOLINE
MW: 265
Formula: C16H15N3O
Synonym: MassBank: JP005050
Synonym: 1-ACETYL-4-PHENYL-3-(2-PYRIDYL)-2-PYRAZOLINE
Structure: 312D41434554594C2D342D5048454E594C2D332D28322D5059524944594C292D322D505952415A4F4C494E452E6D6F6C0A20204368656D447261773131313730393231303932440A2032302032322020302020302020302020302020302020302020302020303939392056323030300A2020202D312E3136313720202020312E3036343220202020302E30303030204E202020302020302020302020302020302020302020302020302020302020302020302020300A2020202D302E3337373120202020312E3331393120202020302E30303030204E202020302020302020302020302020302020302020302020302020302020302020302020300A20202020302E3130373820202020302E3635313720202020302E303030302043202020302020302020302020302020302020302020302020302020302020302020302020300A2020202D302E333737312020202D302E3031353720202020302E303030302043202020302020302020302020302020302020302020302020302020302020302020302020300A2020202D312E3136313720202020302E3233393220202020302E303030302043202020302020302020302020302020302020302020302020302020302020302020302020300A20202020302E3933323820202020302E3635313720202020302E303030302043202020302020302020302020302020302020302020302020302020302020302020302020300A20202020312E333435332020202D302E3036323820202020302E303030302043202020302020302020302020302020302020302020302020302020302020302020302020300A20202020322E313730332020202D302E3036323820202020302E303030302043202020302020302020302020302020302020302020302020302020302020302020302020300A20202020322E3538323820202020302E3635313720202020302E303030302043202020302020302020302020302020302020302020302020302020302020302020302020300A20202020322E3137303320202020312E3336363220202020302E303030302043202020302020302020302020302020302020302020302020302020302020302020302020300A20202020312E3334353320202020312E3336363220202020302E30303030204E202020302020302020302020302020302020302020302020302020302020302020302020300A2020202D302E313232322020202D302E3830303420202020302E303030302043202020302020302020302020302020302020302020302020302020302020302020302020300A20202020302E363834382020202D302E3937313920202020302E303030302043202020302020302020302020302020302020302020302020302020302020302020302020300A20202020302E393339382020202D312E3735363520202020302E303030302043202020302020302020302020302020302020302020302020302020302020302020302020300A20202020302E333837372020202D322E3336393620202020302E303030302043202020302020302020302020302020302020302020302020302020302020302020302020300A2020202D302E343139322020202D322E3139383120202020302E303030302043202020302020302020302020302020302020302020302020302020302020302020302020300A2020202D302E363734322020202D312E3431333520202020302E303030302043202020302020302020302020302020302020302020302020302020302020302020302020300A2020202D312E3832393220202020312E3534393120202020302E303030302043202020302020302020302020302020302020302020302020302020302020302020302020300A2020202D322E3538323820202020312E3231333620202020302E30303030204F202020302020302020302020302020302020302020302020302020302020302020302020300A2020202D312E3734323920202020322E3336393620202020302E303030302043202020302020302020302020302020302020302020302020302020302020302020302020300A2020312020322020312020302020202020200A2020322020332020322020302020202020200A2020332020342020312020302020202020200A2020342020352020312020302020202020200A2020312020352020312020302020202020200A2020362020372020312020302020202020200A2020372020382020322020302020202020200A2020382020392020312020302020202020200A2020392031302020322020302020202020200A2031302031312020312020302020202020200A2020362031312020322020302020202020200A2020332020362020312020302020202020200A2031322031332020312020302020202020200A2031332031342020322020302020202020200A2031342031352020312020302020202020200A2031352031362020322020302020202020200A2031362031372020312020302020202020200A2031322031372020322020302020202020200A2020342031322020312020302020202020200A2031382031392020322020302020202020200A2031382032302020312020302020202020200A2020312031382020312020302020202020200A4D2020454E44
Contributor: SASAKI S, TOYOHASHI UNIV. OF TECH.
InstType: EI
InstName: MX-1303
IoniMethod: _ENERGY 50 eV
IonPolarity: pos
Date: 2010-10-09 19:48:36+02:00
Num Peaks: 21
78 517 79 905 89 106 90 9 91 186 95 121 104 86 105 6 117 129 118 112 
119 121 127 22 146 198 193 78 194 251 195 22 204 55 222 999 223 455 264 13 
265 466 
