Name: ISOPULEGYL ACETATE(EQUATORIAL)
MW: 196
Formula: C12H20O2
Synonym: MassBank: JP006014
Synonym: ISOPULEGYL ACETATE(EQUATORIAL)
Structure: 313036335F49534F50554C4547594C20414345544154452845515541544F5249414C292E6D6F6C0A20204368656D447261773039303631303232313832440A2031342031342020302020302020302020302020302020302020302020303939392056323030300A2020202D302E3335373220202020302E3230363220202020302E303030302043202020302020302020302020302020302020302020302020302020302020302020302020300A2020202D302E333537322020202D302E3631383820202020302E303030302043202020302020302020302020302020302020302020302020302020302020302020302020300A20202020302E333537322020202D312E3033313320202020302E303030302043202020302020302020302020302020302020302020302020302020302020302020302020300A20202020312E303731372020202D302E3631383820202020302E303030302043202020302020302020302020302020302020302020302020302020302020302020302020300A20202020312E3037313720202020302E3230363220202020302E303030302043202020302020302020302020302020302020302020302020302020302020302020302020300A20202020302E3335373220202020302E3631383720202020302E303030302043202020302020302020302020302020302020302020302020302020302020302020302020300A20202020312E3738363220202020302E3631383820202020302E303030302043202020302020302020302020302020302020302020302020302020302020302020302020300A2020202D312E3037303620202020302E3631383720202020302E30303030204F202020302020302020302020302020302020302020302020302020302020302020302020300A2020202D312E303731372020202D312E3033313320202020302E303030302043202020302020302020302020302020302020302020302020302020302020302020302020300A2020202D312E3738353120202020312E3835363220202020302E30303030204F202020302020302020302020302020302020302020302020302020302020302020302020300A2020202D312E3037303620202020312E3434333720202020302E303030302043202020302020302020302020302020302020302020302020302020302020302020302020300A2020202D302E3335363220202020312E3835363320202020302E303030302043202020302020302020302020302020302020302020302020302020302020302020302020300A2020202D312E373836322020202D302E3631383820202020302E303030302043202020302020302020302020302020302020302020302020302020302020302020302020300A2020202D312E303731372020202D312E3835363320202020302E303030302043202020302020302020302020302020302020302020302020302020302020302020302020300A2020312020322020312020302020202020200A2020322020332020312020302020202020200A2020332020342020312020302020202020200A2020342020352020312020302020202020200A2020352020362020312020302020202020200A2020362020312020312020302020202020200A2020352020372020312020362020202020200A2020312020382020312020362020202020200A2020322020392020312020312020202020200A2020382031312020312020302020202020200A2031302031312020322020302020202020200A2031312031322020312020302020202020200A2020392031332020312020302020202020200A2020392031342020322020302020202020200A4D2020454E44
Contributor: YAMAMOTO M, DEP. CHEMISTRY, FAC. SCIENCE, NARA WOMEN'S UNIV.
InstType: EI
InstName: HITACHI RMU-6M
IoniMethod: _ENERGY 70 eV
IonPolarity: pos
Date: 2010-10-09 19:48:36+02:00
Num Peaks: 85
15 35 28 12 29 82 30 2 31 4 32 3 38 2 39 97 40 23 41 232 
42 23 43 999 44 23 45 4 50 3 51 12 52 9 53 72 54 14 55 127 
56 27 57 13 58 4 59 4 61 4 62 3 65 17 66 12 67 95 68 91 
69 123 70 13 71 45 72 5 77 32 78 9 79 102 80 92 81 283 82 43 
83 26 84 32 85 23 86 3 91 25 92 48 93 239 94 137 95 83 96 14 
97 42 98 17 99 5 101 3 105 10 106 4 107 57 108 78 109 88 110 22 
111 28 112 15 113 4 115 1 119 3 120 10 121 235 122 25 123 13 124 3 
125 4 134 5 135 26 136 430 137 52 138 14 139 21 140 2 145 5 152 4 
153 7 154 9 163 7 196 23 197 3 
