Name: MassBank: JP005551
MW: 202
Formula: C13H14S
Synonym: MassBank: JP005551
Synonym: 1,6-DIMETHYL-5-METHYLENE-3,4-BENZO-2-THIABICYCLO(4.1.0)HEPT-3-ENE
Structure: 312C362D44494D455448594C2D352D4D455448594C454E452D332C342D42454E5A4F2D322D5448494142494359434C4F28342E312E3029484550542D332D454E452E6D6F6C0A20204368656D447261773131313730393037323932440A2031342031362020302020302020302020302020302020302020302020303939392056323030300A2020202D312E3738363120202020302E3637343020202020302E303030302043202020302020302020302020302020302020302020302020302020302020302020302020300A2020202D312E373836312020202D302E3135313020202020302E303030302043202020302020302020302020302020302020302020302020302020302020302020302020300A2020202D312E303731372020202D302E3536333520202020302E303030302043202020302020302020302020302020302020302020302020302020302020302020302020300A2020202D302E333537322020202D302E3135313020202020302E303030302043202020302020302020302020302020302020302020302020302020302020302020302020300A2020202D302E3335373220202020302E3637343020202020302E303030302043202020302020302020302020302020302020302020302020302020302020302020302020300A2020202D312E3037313720202020312E3038363520202020302E303030302043202020302020302020302020302020302020302020302020302020302020302020302020300A20202020302E333537322020202D302E3536333520202020302E303030302043202020302020302020302020302020302020302020302020302020302020302020302020300A20202020312E303731372020202D302E3135313020202020302E303030302043202020302020302020302020302020302020302020302020302020302020302020302020300A20202020312E3037313720202020302E3637343020202020302E303030302043202020302020302020302020302020302020302020302020302020302020302020302020300A20202020302E3335373220202020312E3038363520202020302E303030302053202020302020302020302020302020302020302020302020302020302020302020302020300A20202020302E333537322020202D312E3338383520202020302E303030302043202020302020302020302020302020302020302020302020302020302020302020302020300A20202020312E3738363120202020302E3236313520202020302E303030302043202020302020302020302020302020302020302020302020302020302020302020302020300A20202020312E3438343220202020312E3338383520202020302E303030302043202020302020302020302020302020302020302020302020302020302020302020302020300A20202020312E343834322020202D302E3836353520202020302E303030302043202020302020302020302020302020302020302020302020302020302020302020302020300A2020312020322020322020302020202020200A2020322020332020312020302020202020200A2020332020342020322020302020202020200A2020342020352020312020302020202020200A2020352020362020322020302020202020200A2020362020312020312020302020202020200A2020342020372020312020302020202020200A2020372020382020312020302020202020200A2020382020392020312020302020202020200A2020392031302020312020302020202020200A2031302020352020312020302020202020200A2020372031312020322020302020202020200A2020382031322020312020302020202020200A2031322020392020312020302020202020200A2020392031332020312020302020202020200A2020382031342020312020302020202020200A4D2020454E44
Contributor: MASS SPECTROSCOPY SOC. OF JAPAN (MSSJ)
InstType: EI
InstName: HITACHI RMU-6L
IoniMethod: _ENERGY 70 eV
IonPolarity: pos
Date: 2010-10-09 19:48:36+02:00
Num Peaks: 87
27 130 29 50 39 280 41 180 43 60 45 170 47 90 50 70 51 180 52 50 
53 80 55 50 56 60 57 70 58 50 59 180 61 40 62 60 63 140 64 40 
65 90 69 100 74 60 75 80 76 60 77 140 78 50 79 40 82 150 84 60 
85 50 86 60 87 60 89 80 90 50 91 220 92 60 101 40 102 70 103 60 
105 50 106 60 115 200 116 50 117 210 119 180 121 80 127 80 128 250 129 100 
134 130 135 50 139 50 141 150 142 60 143 100 147 250 148 70 152 80 153 100 
154 110 155 100 156 170 157 50 158 50 159 50 160 60 161 330 162 80 169 210 
170 60 171 170 172 250 173 80 174 50 175 80 184 60 185 80 186 70 187 999 
188 200 189 70 201 150 202 720 203 150 204 70 205 20 
