Name: MassBank: JP000665
MW: 325
Formula: C18H15NO5
Synonym: MassBank: JP000665
Synonym: 5,7-DIMETHYL-3-HYDROXYIMINO-3'4'-METHYLENEDOXYFLAVANONE
Synonym: 3-HYDROXYIMINO-5,7-DIMETHYL-2-(3,4-METHYLENEDIOXYPHENYL)CHROMAN-4-ONE
Structure: 352C372D44494D455448594C2D332D485944524F5859494D494E4F2D332734272D4D455448594C454E45444F5859464C4156414E4F4E452E6D6F6C0A20204368656D447261773032323231303231333732440A2032342032372020302020302020302020302020302020302020302020303939392056323030300A20202020302E343037392020202D302E3234303420202020302E303030302043202020302020302020302020302020302020302020302020302020302020302020302020300A20202020302E343037392020202D312E3036353420202020302E303030302043202020302020302020302020302020302020302020302020302020302020302020302020300A2020202D302E333036352020202D312E3437373920202020302E303030302043202020302020302020302020302020302020302020302020302020302020302020302020300A2020202D312E303231302020202D312E3036353420202020302E303030302043202020302020302020302020302020302020302020302020302020302020302020302020300A2020202D312E373335352020202D312E3437373920202020302E303030302043202020302020302020302020302020302020302020302020302020302020302020302020300A2020202D322E343530302020202D312E3036353420202020302E303030302043202020302020302020302020302020302020302020302020302020302020302020302020300A2020202D322E343530302020202D302E3234303420202020302E303030302043202020302020302020302020302020302020302020302020302020302020302020302020300A2020202D312E3733353520202020302E3137323120202020302E303030302043202020302020302020302020302020302020302020302020302020302020302020302020300A2020202D312E303231302020202D302E3234303420202020302E303030302043202020302020302020302020302020302020302020302020302020302020302020302020300A2020202D302E3330363520202020302E3137323120202020302E30303030204F202020302020302020302020302020302020302020302020302020302020302020302020300A2020202D302E333036352020202D322E3330323920202020302E30303030204F202020302020302020302020302020302020302020302020302020302020302020302020300A20202020312E3132323420202020302E3137323120202020302E303030302043202020302020302020302020302020302020302020302020302020302020302020302020300A20202020312E3132323420202020302E3939373120202020302E303030302043202020302020302020302020302020302020302020302020302020302020302020302020300A20202020312E3833363920202020312E3430393620202020302E303030302043202020302020302020302020302020302020302020302020302020302020302020302020300A20202020322E3535313320202020302E3939373120202020302E303030302043202020302020302020302020302020302020302020302020302020302020302020302020300A20202020322E3535313320202020302E3137323120202020302E303030302043202020302020302020302020302020302020302020302020302020302020302020302020300A20202020312E383336392020202D302E3234303420202020302E303030302043202020302020302020302020302020302020302020302020302020302020302020302020300A20202020322E3832383920202020322E3330323920202020302E303030302043202020302020302020302020302020302020302020302020302020302020302020302020300A20202020322E3030383420202020322E3231363620202020302E30303030204F202020302020302020302020302020302020302020302020302020302020302020302020300A20202020332E3136343420202020312E3534393220202020302E30303030204F202020302020302020302020302020302020302020302020302020302020302020302020300A2020202D332E3136343420202020302E3137323120202020302E303030302043202020302020302020302020302020302020302020302020302020302020302020302020300A2020202D312E373335352020202D322E3330323920202020302E303030302043202020302020302020302020302020302020302020302020302020302020302020302020300A20202020312E313232342020202D312E3437373920202020302E30303030204E202020302020302020302020302020302020302020302020302020302020302020302020300A20202020312E313232342020202D322E3330323920202020302E30303030204F202020302020302020302020302020302020302020302020302020302020302020302020300A2020312020322020312020302020202020200A2020322020332020312020302020202020200A2020332020342020312020302020202020200A2020342020352020312020302020202020200A2020352020362020322020302020202020200A2020362020372020312020302020202020200A2020372020382020322020302020202020200A2020382020392020312020302020202020200A2020342020392020322020302020202020200A2020392031302020312020302020202020200A2020312031302020312020302020202020200A2020332031312020322020302020202020200A2031322031332020312020302020202020200A2031332031342020322020302020202020200A2031342031352020312020302020202020200A2031352031362020322020302020202020200A2031362031372020312020302020202020200A2031322031372020322020302020202020200A2031382031392020312020302020202020200A2031382032302020312020302020202020200A2031342031392020312020302020202020200A2031352032302020312020302020202020200A2020312031322020312020302020202020200A2020372032312020312020302020202020200A2020352032322020312020302020202020200A2032332032342020312020302020202020200A2020322032332020322020302020202020200A4D2020454E44
Contributor: TAKATORI M, DEPT. OF CHEMISTRY, FAC. OF EDUC., FUKUSHIMA UNIV.
InstType: EI
InstName: JEOL JMS-06-H
IoniMethod: _ENERGY 75 eV
IonPolarity: pos
Date: 2010-10-09 19:48:36+02:00
Num Peaks: 34
32 40 39 38 51 41 53 2 63 81 65 102 76 42 77 9 91 158 103 44 
104 53 119 6 120 38 121 58 122 48 132 4 140 51 148 121 149 850 150 6 
160 102 161 113 165 151 166 14 176 86 177 27 224 35 281 3 282 43 303 283 
309 593 310 999 311 164 325 85 
