Name: PHOSPHORIC ACID TRI-N-BUTYL ESTER
MW: 266
Formula: C12H27O4P
Synonym: MassBank: JP003581
Synonym: PHOSPHORIC ACID TRI-N-BUTYL ESTER
Structure: 50484F5350484F5249432041434944205452492D4E2D425554594C2045535445522E6D6F6C0A20204368656D447261773038313231303035333932440A2031372031362020302020302020302020302020302020302020302020303939392056323030300A2020202D302E333432342020202D312E3432383920202020302E303030302050202020302020302020302020302020302020302020302020302020302020302020302020300A2020202D312E303536392020202D312E3031363420202020302E30303030204F202020302020302020302020302020302020302020302020302020302020302020302020300A20202020302E303730312020202D302E3731343520202020302E30303030204F202020302020302020302020302020302020302020302020302020302020302020302020300A20202020302E333732302020202D312E3834313420202020302E30303030204F202020302020302020302020302020302020302020302020302020302020302020302020300A2020202D302E373534392020202D322E3134333420202020302E30303030204F202020302020302020302020302020302020302020302020302020302020302020302020300A2020202D302E3334323420202020302E3030303020202020302E303030302043202020302020302020302020302020302020302020302020302020302020302020302020300A20202020302E3037303120202020302E3731343520202020302E303030302043202020302020302020302020302020302020302020302020302020302020302020302020300A2020202D302E3334323420202020312E3432383920202020302E303030302043202020302020302020302020302020302020302020302020302020302020302020302020300A20202020302E3037303120202020322E3134333420202020302E303030302043202020302020302020302020302020302020302020302020302020302020302020302020300A20202020312E303836352020202D312E3432383920202020302E303030302043202020302020302020302020302020302020302020302020302020302020302020302020300A20202020312E383031302020202D312E3834313420202020302E303030302043202020302020302020302020302020302020302020302020302020302020302020302020300A20202020322E353135352020202D312E3432383920202020302E303030302043202020302020302020302020302020302020302020302020302020302020302020302020300A20202020332E323239392020202D312E3834313420202020302E303030302043202020302020302020302020302020302020302020302020302020302020302020302020300A2020202D312E353739392020202D322E3134333420202020302E303030302043202020302020302020302020302020302020302020302020302020302020302020302020300A2020202D312E393932342020202D312E3432383920202020302E303030302043202020302020302020302020302020302020302020302020302020302020302020302020300A2020202D322E383137342020202D312E3432383920202020302E303030302043202020302020302020302020302020302020302020302020302020302020302020302020300A2020202D332E323239392020202D302E3731343520202020302E303030302043202020302020302020302020302020302020302020302020302020302020302020302020300A2020312020322020322020302020202020200A2020312020332020312020302020202020200A2020312020342020312020302020202020200A2020312020352020312020302020202020200A2020362020372020312020302020202020200A2020372020382020312020302020202020200A2020382020392020312020302020202020200A2020332020362020312020302020202020200A2031302031312020312020302020202020200A2031312031322020312020302020202020200A2031322031332020312020302020202020200A2020342031302020312020302020202020200A2031342031352020312020302020202020200A2031352031362020312020302020202020200A2031362031372020312020302020202020200A2020352031342020312020302020202020200A4D2020454E44
Contributor: MASS SPECTROSCOPY SOC. OF JAPAN (MSSJ)
InstType: EI
InstName: Unknown
IoniMethod: EI
IonPolarity: pos
Date: 2010-10-09 19:48:36+02:00
Num Peaks: 15
27 38 28 308 29 92 32 36 41 137 55 33 56 30 57 145 99 999 111 21 
125 56 137 39 155 324 211 460 212 34 
