Name: MassBank: JP007630
CAS: 5585-39-7
MW: 149
Formula: C10H15N
Synonym: MassBank: JP007630
Synonym: (E)-3,7-DIMETHYL-2,6-OCTADIENENITRILE
Synonym: TRANS-GERANYL NITRILE
Structure: 2845292D332C372D44494D455448594C2D322C362D4F4354414449454E454E495452494C452E6D6F6C0A20204368656D447261773130323230393230353332440A2031322031312020302020302020302020302020302020302020302020303939392056323030300A2020202D312E3635303020202020302E3731343620202020302E303030302043202020302020302020302020302020302020302020302020302020302020302020302020300A2020202D302E3832353020202020302E3731343620202020302E303030302043202020302020302020302020302020302020302020302020302020302020302020302020300A2020202D322E3036323520202020312E3432393020202020302E303030302043202020302020302020302020302020302020302020302020302020302020302020302020300A2020202D322E3036323520202020302E3030303120202020302E303030302043202020302020302020302020302020302020302020302020302020302020302020302020300A2020202D302E3431323520202020302E3030303120202020302E303030302043202020302020302020302020302020302020302020302020302020302020302020302020300A20202020302E3431323520202020302E3030303220202020302E303030302043202020302020302020302020302020302020302020302020302020302020302020302020300A20202020302E383235302020202D302E3731343320202020302E303030302043202020302020302020302020302020302020302020302020302020302020302020302020300A20202020312E363530312020202D302E3731343320202020302E303030302043202020302020302020302020302020302020302020302020302020302020302020302020300A20202020302E343132362020202D312E3432383820202020302E303030302043202020302020302020302020302020302020302020302020302020302020302020302020300A20202020322E3036323520202020302E3030303120202020302E303030302048202020302020302020302020302020302020302020302020302020302020302020302020300A20202020322E303631322020202D312E3432393020202020302E303030302043202020302020302020302020302020302020302020302020302020302020302020302020300A20202020312E333830362020202D312E3432393020202020302E30303030204E202020302020302020302020302020302020302020302020302020302020302020302020300A2020312020322020322020302020202020200A2020312020332020312020302020202020200A2020312020342020312020302020202020200A2020322020352020312020302020202020200A2020352020362020312020302020202020200A2020362020372020312020302020202020200A2020372020382020322020302020202020200A2020372020392020312020302020202020200A2020382031302020312020302020202020200A2031312031322020332020302020202020200A2020382031312020312020302020202020200A4D202053545920203120202031205355500A4D2020534C4220203120202031202020310A4D202053414C2020203120203220203131202031320A4D202053424C20202031202031202031310A4D2020534D542020203120434E0A4D2020534256202020312031312020202D372E3031393120202020352E383533300A4D2020454E44
Contributor: YAMAMOTO M, DEP. CHEMISTRY, FAC. SCIENCE, NARA WOMEN'S UNIV.
InstType: EI
InstName: HITACHI RMU-6M
IoniMethod: _ENERGY 15 eV
IonPolarity: pos
Date: 2010-10-09 19:48:36+02:00
Num Peaks: 8
41 86 69 999 70 40 81 4 121 12 134 90 148 20 149 39 
