Name: EPIBROMOHYDRIN
CAS: 3132-64-7
MW: 135
Formula: C3H5BrO
Synonym: MassBank: JP009481
Synonym: EPIBROMOHYDRIN
Synonym: 1-BROMO-2,3-EPOXYPROPANE
Structure: 310A31350A45504942524F4D4F48594452494E2E6D6F6C0A20204368656D447261773131313730393233333232440A2020352020352020302020302020302020302020302020302020302020303939392056323030300A2020202D312E313237302020202D302E3135313020202020302E303030302042722020302020302020302020302020302020302020302020302020302020302020302020300A2020202D302E343132352020202D302E3536333520202020302E303030302043202020302020302020302020302020302020302020302020302020302020302020302020300A20202020302E333032302020202D302E3135313020202020302E303030302043202020302020302020302020302020302020302020302020302020302020302020302020300A20202020302E3731343520202020302E3536333520202020302E303030302043202020302020302020302020302020302020302020302020302020302020302020302020300A20202020312E313237302020202D302E3135313020202020302E30303030204F202020302020302020302020302020302020302020302020302020302020302020302020300A2020312020322020312020302020202020200A2020322020332020312020302020202020200A2020332020342020312020302020202020200A2020342020352020312020302020202020200A2020332020352020312020302020202020200A4D2020454E44
Contributor: NARA WOMEN'S UNIVERSITY
InstType: EI
InstName: HITACHI M-80
IoniMethod: _ENERGY 70 eV
IonPolarity: pos
Date: 2010-10-09 19:48:36+02:00
Num Peaks: 30
14 33 15 48 25 17 26 130 27 476 28 72 29 355 30 34 31 292 37 17 
38 28 39 65 41 12 42 32 43 36 55 11 57 999 58 36 79 45 80 19 
81 48 82 18 83 56 93 51 95 14 105 27 107 20 108 21 123 18 125 17 
