Name: MassBank: JP006737
MW: 245
Formula: C15H19NO2
Synonym: MassBank: JP006737
Synonym: N-(2,2,3,3-TETRADEUTERO-4-PHENYLBUTYRYL)PIPERIDIN-2-ONE
Structure: 4E2D28322C322C332C332D54455452414445555445524F2D342D5048454E594C4255545952594C2950495045524944494E2D322D4F4E452E6D6F6C0A20204368656D447261773038313231303031303932440A2032322032332020302020302020302020302020302020302020302020303939392056323030300A20202020312E3730313920202020302E3038393120202020302E30303030204E202020302020302020302020302020302020302020302020302020302020302020302020300A20202020322E3131343420202020302E3830333620202020302E303030302043202020302020302020302020302020302020302020302020302020302020302020302020300A20202020322E3933393420202020302E3830333620202020302E303030302043202020302020302020302020302020302020302020302020302020302020302020302020300A20202020332E3335313920202020302E3038393120202020302E303030302043202020302020302020302020302020302020302020302020302020302020302020302020300A20202020322E393339342020202D302E3632353420202020302E303030302043202020302020302020302020302020302020302020302020302020302020302020302020300A20202020322E313134342020202D302E3632353420202020302E303030302043202020302020302020302020302020302020302020302020302020302020302020302020300A20202020312E3730313920202020312E3531383120202020302E30303030204F202020302020302020302020302020302020302020302020302020302020302020302020300A20202020302E3837363920202020302E3038393120202020302E303030302043202020302020302020302020302020302020302020302020302020302020302020302020300A20202020302E3436343420202020302E3830333620202020302E30303030204F202020302020302020302020302020302020302020302020302020302020302020302020300A20202020302E343634342020202D302E3632353420202020302E303030302043202020302020302020302020302020302020302020302020302020302020302020302020300A2020202D302E343634342020202D302E3038393120202020302E303030302043202020302020302020302020302020302020302020302020302020302020302020302020300A2020202D302E383736392020202D302E3830333620202020302E303030302043202020302020302020302020302020302020302020302020302020302020302020302020300A2020202D312E373031392020202D302E3830333620202020302E303030302043202020302020302020302020302020302020302020302020302020302020302020302020300A2020202D322E313134342020202D302E3038393120202020302E303030302043202020302020302020302020302020302020302020302020302020302020302020302020300A2020202D322E393339342020202D302E3038393120202020302E303030302043202020302020302020302020302020302020302020302020302020302020302020302020300A2020202D332E333531392020202D302E3830333620202020302E303030302043202020302020302020302020302020302020302020302020302020302020302020302020300A2020202D322E393339342020202D312E3531383120202020302E303030302043202020302020302020302020302020302020302020302020302020302020302020302020300A2020202D322E313134342020202D312E3531383120202020302E303030302043202020302020302020302020302020302020302020302020302020302020302020302020300A2020202D312E3137383920202020302E3332333420202020302E303030302048202020312020302020302020302020302020302020302020302020302020302020302020300A2020202D302E3035313920202020302E3632353420202020302E303030302048202020312020302020302020302020302020302020302020302020302020302020302020300A20202020302E303531392020202D312E3333393820202020302E303030302048202020312020302020302020302020302020302020302020302020302020302020302020300A20202020312E313738392020202D312E3033373920202020302E303030302048202020312020302020302020302020302020302020302020302020302020302020302020300A2020312020322020312020302020202020200A2020322020332020312020302020202020200A2020332020342020312020302020202020200A2020342020352020312020302020202020200A2020352020362020312020302020202020200A2020312020362020312020302020202020200A2020322020372020322020302020202020200A2020382020392020322020302020202020200A2020382031302020312020302020202020200A2031302031312020312020302020202020200A2031312031322020312020302020202020200A2031332031342020312020302020202020200A2031342031352020322020302020202020200A2031352031362020312020302020202020200A2031362031372020322020302020202020200A2031372031382020312020302020202020200A2031332031382020322020302020202020200A2031322031332020312020302020202020200A2031312031392020312020302020202020200A2031312032302020312020302020202020200A2031302032312020312020302020202020200A2031302032322020312020302020202020200A2020312020382020312020302020202020200A4D202049534F20203420203139202020322020323020202032202032312020203220203232202020320A4D2020454E44
Contributor: MASS SPECTROSCOPY SOC. OF JAPAN (MSSJ)
InstType: EI
InstName: HITACHI RMU-6G
IoniMethod: _ENERGY 20 eV
IonPolarity: pos
Date: 2010-10-09 19:48:36+02:00
Num Peaks: 66
28 17 29 10 30 40 41 6 42 30 43 43 44 17 45 2 46 17 55 65 
56 20 57 3 58 40 59 28 62 14 69 1 70 42 71 70 72 12 75 2 
76 40 77 12 78 17 82 2 83 10 85 17 86 12 87 2 91 175 92 50 
93 51 94 1 97 10 98 110 99 320 100 44 101 250 102 95 105 55 106 3 
107 80 110 16 112 10 114 6 115 500 116 42 118 20 120 1 121 14 126 10 
132 11 139 2 141 10 142 25 143 999 144 9 145 12 149 10 150 31 151 5 
158 38 168 35 248 2 249 8 250 21 251 3 
