Name: MassBank: JP003255
MW: 198
Formula: C6H6N4S2
Synonym: MassBank: JP003255
Synonym: 2-METHYLTHIO-5-AMINOTHIAZOLO(5,4-D)PYRIMIDINE
Structure: 322D4D455448594C5448494F2D352D414D494E4F544849415A4F4C4F28352C342D4429505952494D4944494E452E6D6F6C0A20204368656D447261773032323131303036303632440A2031322031332020302020302020302020302020302020302020302020303939392056323030300A20202020312E3631303820202020302E3431323520202020302E303030302043202020302020302020302020302020302020302020302020302020302020302020302020300A20202020302E3839363320202020302E3832353020202020302E30303030204E202020302020302020302020302020302020302020302020302020302020302020302020300A20202020302E3138313820202020302E3431323520202020302E303030302043202020302020302020302020302020302020302020302020302020302020302020302020300A20202020302E313831382020202D302E3431323520202020302E303030302043202020302020302020302020302020302020302020302020302020302020302020302020300A20202020302E383936332020202D302E3832353020202020302E303030302043202020302020302020302020302020302020302020302020302020302020302020302020300A20202020312E363130382020202D302E3431323520202020302E30303030204E202020302020302020302020302020302020302020302020302020302020302020302020300A2020202D302E3630323820202020302E3636373420202020302E303030302053202020302020302020302020302020302020302020302020302020302020302020302020300A2020202D312E3038373720202020302E3030303020202020302E303030302043202020302020302020302020302020302020302020302020302020302020302020302020300A2020202D302E363032382020202D302E3636373420202020302E30303030204E202020302020302020302020302020302020302020302020302020302020302020302020300A20202020322E3332353220202020302E3832353020202020302E30303030204E202020302020302020302020302020302020302020302020302020302020302020302020300A2020202D312E3931323720202020302E3030303020202020302E303030302053202020302020302020302020302020302020302020302020302020302020302020302020300A2020202D322E333235322020202D302E3731343520202020302E303030302043202020302020302020302020302020302020302020302020302020302020302020302020300A2020312020322020312020302020202020200A2020322020332020322020302020202020200A2020332020342020312020302020202020200A2020342020352020322020302020202020200A2020352020362020312020302020202020200A2020312020362020322020302020202020200A2020372020382020312020302020202020200A2020382020392020322020302020202020200A2020332020372020312020302020202020200A2020342020392020312020302020202020200A2020312031302020312020302020202020200A2031312031322020312020302020202020200A2020382031312020312020302020202020200A4D2020454E44
Contributor: MASS SPECTROSCOPY SOC. OF JAPAN (MSSJ)
InstType: EI
InstName: HITACHI RMU-6E
IoniMethod: _ENERGY 70 eV
IonPolarity: pos
Date: 2010-10-09 19:48:36+02:00
Num Peaks: 8
198 999 165 890 139 80 125 70 124 80 97 140 85 70 83 60 
