Name: (R)-2-METHYL-5-(1-METHYLETHENYL)-2-CYCLOHEXEN-1-ONE
MW: 150
Formula: C10H14O
Synonym: MassBank: JP005802
Synonym: (R)-2-METHYL-5-(1-METHYLETHENYL)-2-CYCLOHEXEN-1-ONE
Synonym: D-CARVONE
Structure: 2852292D322D4D455448594C2D352D28312D4D455448594C455448454E594C292D322D4359434C4F484558454E2D312D4F4E452E6D6F6C0A20204368656D447261773130323230393137323532440A2031332031332020302020302020302020302020302020302020302020303939392056323030300A2020202D302E3338313620202020302E3832353020202020302E303030302043202020302020302020302020302020302020302020302020302020302020302020302020300A2020202D302E3338313620202020302E3030303020202020302E303030302043202020302020302020302020302020302020302020302020302020302020302020302020300A20202020302E333332392020202D302E3431323520202020302E303030302043202020302020302020302020302020302020302020302020302020302020302020302020300A20202020312E3034373420202020302E3030303020202020302E303030302043202020302020302020302020302020302020302020302020302020302020302020302020300A20202020312E3034373420202020302E3832353020202020302E303030302043202020302020302020302020302020302020302020302020302020302020302020302020300A20202020302E3333323920202020312E3233373520202020302E303030302043202020302020302020302020302020302020302020302020302020302020302020302020300A20202020302E333332392020202D312E3233373520202020302E303030302048202020302020302020302020302020302020302020302020302020302020302020302020300A20202020312E3736313820202020312E3233373520202020302E30303030204F202020302020302020302020302020302020302020302020302020302020302020302020300A2020202D312E3039363120202020312E3233373520202020302E303030302048202020302020302020302020302020302020302020302020302020302020302020302020300A2020202D312E3137383520202020302E3631313520202020302E303030302043202020302020302020302020302020302020302020302020302020302020302020302020300A2020202D312E3736313820202020312E3139343820202020302E303030302043202020302020302020302020302020302020302020302020302020302020302020302020300A2020202D312E333932302020202D302E3138353420202020302E303030302043202020302020302020302020302020302020302020302020302020302020302020302020300A20202020312E373631352020202D302E3431323520202020302E303030302043202020302020302020302020302020302020302020302020302020302020302020302020300A2020312020322020312020302020202020200A2020322020332020312020302020202020200A2020332020342020322020302020202020200A2020342020352020312020302020202020200A2020352020362020312020302020202020200A2020362020312020312020302020202020200A2020332020372020312020302020202020200A2020352020382020322020302020202020200A2020312020392020312020362020202020200A2020312031302020312020312020202020200A2031302031312020312020302020202020200A2031302031322020322020302020202020200A2020342031332020312020302020202020200A4D202053545920203120202031205355500A4D2020534C4220203120202031202020310A4D202053414C20202031202031202031330A4D202053424C20202031202031202031330A4D2020534D5420202031204D650A4D2020534256202020312031332020202D362E3235343220202020362E373033310A4D2020454E44
Contributor: FUJISE Y, HAMAMATSU UNIV. SCHOOL OF MEDICINE
InstType: EI
InstName: JEOL JMS-D-300
IoniMethod: _ENERGY 70 eV
IonPolarity: pos
Date: 2010-10-09 19:48:36+02:00
Num Peaks: 39
51 21 52 45 53 24 54 107 55 390 56 42 58 110 63 14 65 49 66 17 
67 73 68 17 69 38 77 69 78 21 79 94 80 51 81 29 82 999 83 56 
91 89 92 42 93 287 94 63 95 38 105 29 106 133 107 164 108 312 109 57 
117 9 119 17 120 10 121 15 122 25 132 10 135 37 150 99 151 17 
