Name: MassBank: JP000902
MW: 126
Formula: C7H14N2
Synonym: MassBank: JP000902
Synonym: 5-ETHYL-1,4-DIMETHYL-2-PYRAZOLINE
Structure: 310A32330A352D455448594C2D312C342D44494D455448594C2D322D505952415A4F4C494E452E6D6F6C0A20204368656D447261773034323331303035313232440A2020392020392020302020302020302020302020302020302020302020303939392056323030300A20202020302E3436383920202020302E3636373420202020302E30303030204E202020302020302020302020302020302020302020302020302020302020302020302020300A20202020312E3235333520202020302E3431323520202020302E30303030204E202020302020302020302020302020302020302020302020302020302020302020302020300A20202020312E323533352020202D302E3431323520202020302E303030302043202020302020302020302020302020302020302020302020302020302020302020302020300A20202020302E343638392020202D302E3636373420202020302E303030302043202020302020302020302020302020302020302020302020302020302020302020302020300A2020202D302E303136302020202D302E3030303020202020302E303030302043202020302020302020302020302020302020302020302020302020302020302020302020300A20202020302E323134302020202D312E3435323120202020302E303030302043202020302020302020302020302020302020302020302020302020302020302020302020300A20202020302E3231343020202020312E3435323120202020302E303030302043202020302020302020302020302020302020302020302020302020302020302020302020300A2020202D302E383431302020202D302E3030303020202020302E303030302043202020302020302020302020302020302020302020302020302020302020302020302020300A2020202D312E323533352020202D302E3731343520202020302E303030302043202020302020302020302020302020302020302020302020302020302020302020302020300A2020312020322020312020302020202020200A2020322020332020322020302020202020200A2020332020342020312020302020202020200A2020342020352020312020302020202020200A2020312020352020312020302020202020200A2020342020362020312020302020202020200A2020312020372020312020302020202020200A2020382020392020312020302020202020200A2020352020382020312020302020202020200A4D2020454E44
Contributor: SASAKI S, TOYOHASHI UNIV. OF TECH.
InstType: EI
InstName: SHIMADZU LKB-2091
IoniMethod: _ENERGY 70 eV
IonPolarity: pos
Date: 2010-10-09 19:48:36+02:00
Num Peaks: 37
26 6 27 45 28 114 29 4 30 36 38 4 39 45 40 0 41 61 42 152 
43 28 44 1 51 4 52 4 53 14 54 2 55 22 56 181 57 13 67 1 
68 18 69 7 70 39 71 1 80 4 81 10 82 18 83 2 95 20 96 8 
97 999 98 6 109 5 111 8 125 5 126 14 127 13 
