Name: BETA-BUTYROLACTONE
MW: 86
Formula: C4H6O2
Synonym: MassBank: JP003981
Synonym: BETA-BUTYROLACTONE
Structure: 310A31370A424554412D42555459524F4C4143544F4E452E6D6F6C0A20204368656D447261773039303531303132313432440A2020362020362020302020302020302020302020302020302020302020303939392056323030300A2020202D302E3538333420202020302E3030303020202020302E303030302043202020302020302020302020302020302020302020302020302020302020302020302020300A2020202D302E3030303020202020302E3538333420202020302E303030302043202020302020302020302020302020302020302020302020302020302020302020302020300A20202020302E3538333420202020302E3030303020202020302E303030302043202020302020302020302020302020302020302020302020302020302020302020302020300A20202020312E3430383420202020302E3030303020202020302E303030302043202020302020302020302020302020302020302020302020302020302020302020302020300A2020202D312E3430383420202020302E3030303020202020302E30303030204F202020302020302020302020302020302020302020302020302020302020302020302020300A20202020302E303030302020202D302E3538333420202020302E30303030204F202020302020302020302020302020302020302020302020302020302020302020302020300A2020312020322020312020302020202020200A2020322020332020312020302020202020200A2020332020342020312020302020202020200A2020312020352020322020302020202020200A2020312020362020312020302020202020200A2020332020362020312020302020202020200A4D2020454E44
Contributor: MASS SPECTROSCOPY SOC. OF JAPAN (MSSJ)
InstType: EI
InstName: HITACHI RMU-6L
IoniMethod: _ENERGY 70 eV
IonPolarity: pos
Date: 2010-10-09 19:48:36+02:00
Num Peaks: 11
27 165 28 125 29 132 38 10 39 237 40 123 41 324 42 999 43 561 44 276 
71 42 
