Name: ISOPROPYLHYDRAZONE ALPHA-PROPYLACRYLALDEHYDE
MW: 154
Formula: C9H18N2
Synonym: MassBank: JP000880
Synonym: ISOPROPYLHYDRAZONE ALPHA-PROPYLACRYLALDEHYDE
Synonym: 2-PROPYL-2-PROPENAL ISOPROPYLHYDRAZONE
Structure: 49534F50524F50594C48594452415A4F4E4520414C5048412D50524F50594C414352594C414C4445485944452E6D6F6C0A20204368656D447261773032323131303135303032440A2031312031302020302020302020302020302020302020302020302020303939392056323030300A20202020312E383536332020202D302E3731343520202020302E303030302043202020302020302020302020302020302020302020302020302020302020302020302020300A20202020312E3434333820202020302E3030303020202020302E303030302043202020302020302020302020302020302020302020302020302020302020302020302020300A20202020302E3631383820202020302E3030303020202020302E303030302043202020302020302020302020302020302020302020302020302020302020302020302020300A20202020312E3835363320202020302E3731343520202020302E303030302043202020302020302020302020302020302020302020302020302020302020302020302020300A20202020312E3434333820202020312E3432383920202020302E303030302043202020302020302020302020302020302020302020302020302020302020302020302020300A20202020302E3631383820202020312E3432383920202020302E303030302043202020302020302020302020302020302020302020302020302020302020302020302020300A2020202D302E3230363220202020302E3030303020202020302E30303030204E202020302020302020302020302020302020302020302020302020302020302020302020300A2020202D302E363138382020202D302E3731343520202020302E30303030204E202020302020302020302020302020302020302020302020302020302020302020302020300A2020202D312E343433372020202D302E3731343520202020302E303030302043202020302020302020302020302020302020302020302020302020302020302020302020300A2020202D312E383536332020202D312E3432383920202020302E303030302043202020302020302020302020302020302020302020302020302020302020302020302020300A2020202D312E3835363320202020302E3030303020202020302E303030302043202020302020302020302020302020302020302020302020302020302020302020302020300A2020312020322020322020302020202020200A2020322020332020312020302020202020200A2020342020352020312020302020202020200A2020352020362020312020302020202020200A2020322020342020312020302020202020200A2020372020382020312020302020202020200A2020392031302020312020302020202020200A2020392031312020312020302020202020200A2020382020392020312020302020202020200A2020332020372020322020302020202020200A4D2020454E44
Contributor: SASAKI S, TOYOHASHI UNIV. OF TECH.
InstType: EI
InstName: SHIMADZU LKB-2091
IoniMethod: _ENERGY 70 eV
IonPolarity: pos
Date: 2010-10-09 19:48:36+02:00
Num Peaks: 45
27 254 28 692 29 96 30 9 31 28 39 185 40 48 41 65 42 246 43 346 
44 523 45 2 51 15 52 17 53 77 54 6 55 770 56 100 57 23 58 7 
65 17 67 85 68 39 69 39 70 48 73 19 79 22 80 3 81 108 82 48 
83 154 84 3 94 34 95 30 96 123 97 5 110 38 111 999 112 69 125 5 
139 277 140 27 153 23 154 29 155 38 
