Name: 3-METHYL-2-PENTE-4-YNE-1-OL
MW: 96
Formula: C6H8O
Synonym: MassBank: JP009984
Synonym: 3-METHYL-2-PENTE-4-YNE-1-OL
Structure: 310A31380A332D4D455448594C2D322D50454E54452D342D594E452D312D4F4C2E6D6F6C0A20204368656D447261773033323031303030313832440A2020372020362020302020302020302020302020302020302020302020303939392056323030300A2020202D302E343132352020202D302E3030303020202020302E303030302043202020302020302020302020302020302020302020302020302020302020302020302020300A20202020302E343132352020202D302E3030303020202020302E303030302043202020302020302020302020302020302020302020302020302020302020302020302020300A20202020302E383235302020202D302E3731343520202020302E303030302043202020302020302020302020302020302020302020302020302020302020302020302020300A20202020302E3832353020202020302E3731343520202020302E303030302043202020302020302020302020302020302020302020302020302020302020302020302020300A2020202D302E3832353020202020302E3731343520202020302E303030302043202020302020302020302020302020302020302020302020302020302020302020302020300A2020202D312E3635303020202020302E3731343520202020302E30303030204F202020302020302020302020302020302020302020302020302020302020302020302020300A20202020312E363530302020202D302E3731343520202020302E303030302043202020302020302020302020302020302020302020302020302020302020302020302020300A2020312020322020322020302020202020200A2020322020332020312020302020202020200A2020322020342020312020302020202020200A2020312020352020312020302020202020200A2020352020362020312020302020202020200A2020332020372020332020302020202020200A4D2020454E44
Contributor: KURARAY CO., LTD.
InstType: EI
InstName: JEOL JMS-D-300
IoniMethod: _ENERGY 70 eV
IonPolarity: pos
Date: 2010-10-09 19:48:36+02:00
Num Peaks: 41
26 23 27 202 28 261 29 6 31 68 32 44 37 31 38 6 39 369 40 101 
41 475 42 6 43 135 44 21 45 30 49 3 50 170 51 288 52 156 53 51 
54 37 55 41 61 27 62 5 63 82 64 15 65 172 66 5 67 401 68 83 
69 14 73 1 74 13 77 131 78 56 79 4 81 999 82 68 94 11 95 81 
96 147 
