Name: MassBank: JP003048
MW: 140
Formula: C5H10Cl2
Synonym: MassBank: JP003048
Synonym: 2,4-DICHLOROPENTANE
Structure: 310A31380A322C342D444943484C4F524F50454E54414E452E6D6F6C0A20204368656D447261773132323030393138333132440A2020372020362020302020302020302020302020302020302020302020303939392056323030300A20202020312E343238392020202D302E3631383820202020302E303030302043202020302020302020302020302020302020302020302020302020302020302020302020300A20202020302E373134352020202D302E3230363220202020302E303030302043202020302020302020302020302020302020302020302020302020302020302020302020300A2020202D302E303030302020202D302E3631383820202020302E303030302043202020302020302020302020302020302020302020302020302020302020302020302020300A2020202D302E373134352020202D302E3230363220202020302E303030302043202020302020302020302020302020302020302020302020302020302020302020302020300A2020202D312E343238392020202D302E3631383820202020302E303030302043202020302020302020302020302020302020302020302020302020302020302020302020300A2020202D302E3731343520202020302E3631383820202020302E3030303020436C2020302020302020302020302020302020302020302020302020302020302020302020300A20202020302E3731343520202020302E3631383820202020302E3030303020436C2020302020302020302020302020302020302020302020302020302020302020302020300A2020312020322020312020302020202020200A2020322020332020312020302020202020200A2020332020342020312020302020202020200A2020342020352020312020302020202020200A2020342020362020312020302020202020200A2020322020372020312020302020202020200A4D2020454E44
Contributor: SASAKI S, TOYOHASHI UNIV. OF TECH.
InstType: EI
InstName: Unknown
IoniMethod: EI
IonPolarity: pos
Date: 2010-10-09 19:48:36+02:00
Num Peaks: 57
25 2 26 25 27 220 28 6 29 37 30 1 31 4 32 2 33 2 34 1 
35 9 36 2 37 12 38 25 39 137 40 0 41 354 42 138 43 43 44 0 
45 5 47 1 48 1 49 2 50 10 51 23 52 5 53 9 54 7 55 28 
56 2 60 0 61 15 62 18 63 151 64 1 65 50 66 4 67 18 68 4 
69 999 70 56 71 2 73 0 75 11 76 18 77 36 78 1 79 10 89 85 
90 4 91 3 103 2 104 28 105 5 106 1 107 2 
