Name: 5-HYDROXY-2-PENTANONE
MW: 102
Formula: C5H10O2
Synonym: MassBank: JP008874
Synonym: 5-HYDROXY-2-PENTANONE
Synonym: 3-ACETYLPROPANOL
Structure: 310A31380A352D485944524F58592D322D50454E54414E4F4E452E6D6F6C0A20204368656D447261773032323231303133343032440A2020372020362020302020302020302020302020302020302020302020303939392056323030300A20202020312E373836322020202D302E3631383820202020302E303030302043202020302020302020302020302020302020302020302020302020302020302020302020300A20202020312E303731372020202D302E3230363220202020302E303030302043202020302020302020302020302020302020302020302020302020302020302020302020300A20202020302E333537322020202D302E3631383820202020302E303030302043202020302020302020302020302020302020302020302020302020302020302020302020300A2020202D302E333537322020202D302E3230363220202020302E303030302043202020302020302020302020302020302020302020302020302020302020302020302020300A2020202D312E303731372020202D302E3631383820202020302E303030302043202020302020302020302020302020302020302020302020302020302020302020302020300A20202020312E3037313720202020302E3631383820202020302E30303030204F202020302020302020302020302020302020302020302020302020302020302020302020300A2020202D312E373836322020202D302E3230363320202020302E30303030204F202020302020302020302020302020302020302020302020302020302020302020302020300A2020312020322020312020302020202020200A2020322020332020312020302020202020200A2020332020342020312020302020202020200A2020342020352020312020302020202020200A2020322020362020322020302020202020200A2020352020372020312020302020202020200A4D2020454E44
Contributor: TAJIMA S, GUNMA COLLEGE OF TECHNOLOGY
InstType: EI
InstName: HITACHI RMU-7M
IoniMethod: _ENERGY 70 eV
IonPolarity: pos
Date: 2010-10-09 19:48:36+02:00
Num Peaks: 29
15 45 17 40 18 172 26 33 27 132 28 73 29 78 31 21 37 17 38 31 
39 302 40 31 41 207 42 107 43 999 44 39 50 34 51 37 52 20 53 111 
54 128 55 137 56 26 58 39 68 18 69 78 83 172 84 301 85 33 
