Name: ISOPROPYLHYDRAZONE METHYL-SEC-BUTENYLKETONE
MW: 154
Formula: C9H18N2
Synonym: MassBank: JP000879
Synonym: ISOPROPYLHYDRAZONE METHYL-SEC-BUTENYLKETONE
Synonym: 3-METHYL-3-PENTEN-2-ONE ISOPROPYLHYDRAZONE
Structure: 49534F50524F50594C48594452415A4F4E45204D455448594C2D5345432D425554454E594C4B45544F4E452E6D6F6C0A20204368656D447261773033323031303030343032440A2031312031302020302020302020302020302020302020302020302020303939392056323030300A20202020322E353030362020202D302E3230363220202020302E303030302043202020302020302020302020302020302020302020302020302020302020302020302020300A20202020312E3738363220202020302E3230363320202020302E303030302043202020302020302020302020302020302020302020302020302020302020302020302020300A20202020312E303731372020202D302E3230363220202020302E303030302043202020302020302020302020302020302020302020302020302020302020302020302020300A20202020302E3335373220202020302E3230363320202020302E303030302043202020302020302020302020302020302020302020302020302020302020302020302020300A2020202D302E333537322020202D302E3230363220202020302E30303030204E202020302020302020302020302020302020302020302020302020302020302020302020300A2020202D312E3037313720202020302E3230363220202020302E30303030204E202020302020302020302020302020302020302020302020302020302020302020302020300A2020202D312E373836322020202D302E3230363320202020302E303030302043202020302020302020302020302020302020302020302020302020302020302020302020300A2020202D312E373836322020202D312E3033313320202020302E303030302043202020302020302020302020302020302020302020302020302020302020302020302020300A2020202D322E3530303620202020302E3230363220202020302E303030302043202020302020302020302020302020302020302020302020302020302020302020302020300A20202020302E3335373220202020312E3033313320202020302E303030302043202020302020302020302020302020302020302020302020302020302020302020302020300A20202020312E303731372020202D312E3033313220202020302E303030302043202020302020302020302020302020302020302020302020302020302020302020302020300A2020322020332020322020302020202020200A2020332020342020312020302020202020200A2020312020322020312020302020202020200A2020352020362020312020302020202020200A2020372020382020312020302020202020200A2020372020392020312020302020202020200A2020362020372020312020302020202020200A2020342020352020322020302020202020200A2020342031302020312020302020202020200A2020332031312020312020302020202020200A4D2020454E44
Contributor: SASAKI S, TOYOHASHI UNIV. OF TECH.
InstType: EI
InstName: SHIMADZU LKB-2091
IoniMethod: _ENERGY 70 eV
IonPolarity: pos
Date: 2010-10-09 19:48:36+02:00
Num Peaks: 44
26 13 27 361 28 136 29 21 30 175 31 11 39 171 40 3 41 315 42 999 
43 211 44 10 51 19 52 13 53 100 54 5 55 609 56 716 57 24 58 5 
65 18 67 68 68 17 69 2 70 108 77 10 79 14 80 1 81 45 82 16 
83 42 84 2 94 27 95 24 96 107 97 8 98 11 109 16 110 32 111 90 
112 75 139 47 154 164 155 19 
