Name: 3-NITROPHENOL
MW: 139
Formula: C6H5NO3
Synonym: MassBank: JP000013
Synonym: 3-NITROPHENOL
Structure: 332D4E4954524F5048454E4F4C2E6D6F6C0A20204368656D447261773032323231303231333932440A2031302031302020302020302020302020302020302020302020302020303939392056323030300A2020202D302E333537322020202D312E3033313220202020302E303030302043202020302020302020302020302020302020302020302020302020302020302020302020300A2020202D302E333537322020202D302E3230363220202020302E303030302043202020302020302020302020302020302020302020302020302020302020302020302020300A20202020302E3335373220202020302E3230363320202020302E303030302043202020302020302020302020302020302020302020302020302020302020302020302020300A20202020312E303731372020202D302E3230363220202020302E303030302043202020302020302020302020302020302020302020302020302020302020302020302020300A20202020312E303731372020202D312E3033313220202020302E303030302043202020302020302020302020302020302020302020302020302020302020302020302020300A20202020302E333537322020202D312E3434333820202020302E303030302043202020302020302020302020302020302020302020302020302020302020302020302020300A20202020302E3335373220202020312E3033313320202020302E30303030204E202020302020332020302020302020302020302020302020302020302020302020302020300A20202020312E3037313720202020312E3434333820202020302E30303030204F202020302020302020302020302020302020302020302020302020302020302020302020300A2020202D302E3335373220202020312E3434333820202020302E30303030204F202020302020352020302020302020302020302020302020302020302020302020302020300A2020202D312E303731372020202D312E3434333820202020302E30303030204F202020302020302020302020302020302020302020302020302020302020302020302020300A2020312020322020312020302020202020200A2020322020332020322020302020202020200A2020332020342020312020302020202020200A2020342020352020322020302020202020200A2020352020362020312020302020202020200A2020312020362020322020302020202020200A2020372020382020322020302020202020200A2020372020392020312020302020202020200A2020332020372020312020302020202020200A2020312031302020312020302020202020200A4D202043484720203220202037202020312020203920202D310A4D2020454E44
Contributor: KOGA M, UNIV. OF OCCUPATIONAL AND ENVIRONMENTAL HEALTH
InstType: EI
InstName: VARIAN MAT-44
IoniMethod: _ENERGY 70 eV
IonPolarity: pos
Date: 2010-10-09 19:48:36+02:00
Num Peaks: 44
51 47 52 27 53 194 54 33 55 140 56 53 57 153 60 63 61 55 62 95 
63 181 64 208 65 711 66 79 67 52 68 56 69 167 70 55 71 78 73 63 
74 34 75 23 80 56 81 333 82 55 83 79 84 36 85 43 92 166 93 559 
94 62 95 47 96 33 97 66 98 40 99 40 109 67 110 20 111 31 123 28 
129 23 138 101 139 999 140 79 
