Name: 2-DIMETHYLAMINOPYRIDINE
CAS: 5683-33-0
MW: 122
Formula: C7H10N2
Synonym: MassBank: JP006281
Synonym: 2-DIMETHYLAMINOPYRIDINE
Structure: 310A32330A322D44494D455448594C414D494E4F5059524944494E452E6D6F6C0A20204368656D447261773031303331303132313732440A2020392020392020302020302020302020302020302020302020302020303939392056323030300A2020202D302E3230363320202020302E3030303020202020302E303030302043202020302020302020302020302020302020302020302020302020302020302020302020300A20202020302E323036332020202D302E3731343520202020302E303030302043202020302020302020302020302020302020302020302020302020302020302020302020300A20202020312E303331322020202D302E3731343520202020302E303030302043202020302020302020302020302020302020302020302020302020302020302020302020300A20202020312E3434333820202020302E3030303020202020302E303030302043202020302020302020302020302020302020302020302020302020302020302020302020300A20202020312E3033313320202020302E3731343520202020302E303030302043202020302020302020302020302020302020302020302020302020302020302020302020300A20202020302E3230363320202020302E3731343520202020302E30303030204E202020302020302020302020302020302020302020302020302020302020302020302020300A2020202D312E3033313220202020302E3030303020202020302E30303030204E202020302020302020302020302020302020302020302020302020302020302020302020300A2020202D312E3434333820202020302E3731343520202020302E303030302043202020302020302020302020302020302020302020302020302020302020302020302020300A2020202D312E343433382020202D302E3731343520202020302E303030302043202020302020302020302020302020302020302020302020302020302020302020302020300A2020312020322020312020302020202020200A2020322020332020322020302020202020200A2020332020342020312020302020202020200A2020342020352020322020302020202020200A2020352020362020312020302020202020200A2020312020362020322020302020202020200A2020372020382020312020302020202020200A2020372020392020312020302020202020200A2020312020372020312020302020202020200A4D2020454E44
Contributor: MASS SPECTROSCOPY SOC. OF JAPAN (MSSJ)
InstType: EI
InstName: HITACHI M-80
IoniMethod: _ENERGY 70 eV
IonPolarity: pos
Date: 2010-10-09 19:48:36+02:00
Num Peaks: 49
13 11 14 103 15 999 16 16 26 77 27 102 28 397 29 47 30 9 37 30 
38 66 39 144 40 111 41 136 42 705 43 77 44 73 49 30 50 131 51 227 
52 216 53 90 54 17 55 8 63 11 64 26 65 17 66 19 67 10 68 10 
69 15 75 27 76 49 77 17 78 336 79 314 80 71 81 6 92 26 93 399 
94 46 95 5 105 14 106 6 107 492 108 41 121 53 122 254 123 33 
