Name: DIMETHYL THIOETHER
MW: 62
Formula: C2H6S
Synonym: MassBank: JP005434
Synonym: DIMETHYL THIOETHER
Synonym: DIMETHYL SULFIDE
Structure: 310A31300A44494D455448594C205448494F45544845522E6D6F6C0A20204368656D447261773130313831303136353632440A2020332020322020302020302020302020302020302020302020302020303939392056323030300A2020202D302E3030303020202020302E3230363320202020302E303030302053202020302020302020302020302020302020302020302020302020302020302020302020300A20202020302E373134352020202D302E3230363320202020302E303030302043202020302020302020302020302020302020302020302020302020302020302020302020300A2020202D302E373134352020202D302E3230363320202020302E303030302043202020302020302020302020302020302020302020302020302020302020302020302020300A2020312020322020312020302020202020200A2020312020332020312020302020202020200A4D2020454E44
Contributor: TAJIMA S, GUNMA COLLEGE OF TECHNOLOGY
InstType: EI
InstName: HITACHI RMU-7M
IoniMethod: _ENERGY 70 eV
IonPolarity: pos
Date: 2010-10-09 19:48:36+02:00
Num Peaks: 17
14 32 15 71 27 187 35 291 44 35 45 404 46 333 47 876 48 34 49 37 
57 21 58 26 59 27 61 318 62 999 63 114 64 46 
