Name: TERT-BUTYLAMINE
MW: 73
Formula: C4H11N
Synonym: MassBank: JP009392
Synonym: TERT-BUTYLAMINE
Structure: 310A31340A544552542D425554594C414D494E452E6D6F6C0A20204368656D447261773031323231303033323032440A2020352020342020302020302020302020302020302020302020302020303939392056323030300A20202020302E3832353020202020302E3030303020202020302E30303030204E202020302020302020302020302020302020302020302020302020302020302020302020300A20202020302E3030303020202020302E3030303020202020302E303030302043202020302020302020302020302020302020302020302020302020302020302020302020300A20202020302E303030302020202D302E3832353020202020302E303030302043202020302020302020302020302020302020302020302020302020302020302020302020300A2020202D302E3832353020202020302E3030303020202020302E303030302043202020302020302020302020302020302020302020302020302020302020302020302020300A20202020302E3030303020202020302E3832353020202020302E303030302043202020302020302020302020302020302020302020302020302020302020302020302020300A2020322020332020312020302020202020200A2020322020352020312020302020202020200A2020322020342020312020302020202020200A2020312020322020312020302020202020200A4D2020454E44
Contributor: GUNMA COLLEGE OF TECHNOLOGY
InstType: EI
InstName: HITACHI M-80A
IoniMethod: _ENERGY 70 eV
IonPolarity: pos
Date: 2010-10-09 19:48:36+02:00
Num Peaks: 17
15 97 26 13 27 50 28 19 29 42 30 107 31 11 39 65 40 19 41 188 
42 148 43 40 55 16 56 23 57 65 58 999 59 125 
