Name: 5-ALLYL-5-(1-METHYLBUTYL)-BARBITURIC ACID
MW: 238
Formula: C12H18N2O3
Synonym: MassBank: JP002773
Synonym: 5-ALLYL-5-(1-METHYLBUTYL)-BARBITURIC ACID
Structure: 352D414C4C594C2D352D28312D4D455448594C425554594C292D4241524249545552494320414349442E6D6F6C0A20204368656D447261773034323331303034303232440A2031372031372020302020302020302020302020302020302020302020303939392056323030300A20202020302E3732303420202020322E3032363020202020302E30303030204E202020302020302020302020302020302020302020302020302020302020302020302020300A20202020312E3433343920202020312E3631333520202020302E303030302043202020302020302020302020302020302020302020302020302020302020302020302020300A20202020322E3134393320202020322E3032363020202020302E30303030204F202020302020302020302020302020302020302020302020302020302020302020302020300A20202020312E3433343920202020302E3738383520202020302E30303030204E202020302020302020302020302020302020302020302020302020302020302020302020300A20202020302E3732303420202020302E3337363020202020302E303030302043202020302020302020302020302020302020302020302020302020302020302020302020300A20202020302E373230342020202D302E3434393020202020302E30303030204F202020302020302020302020302020302020302020302020302020302020302020302020300A20202020302E3030353920202020302E3738383520202020302E303030302043202020302020302020302020302020302020302020302020302020302020302020302020300A20202020302E3030353920202020312E3631333520202020302E303030302043202020302020302020302020302020302020302020302020302020302020302020302020300A2020202D302E3730383620202020322E3032363020202020302E30303030204F202020302020302020302020302020302020302020302020302020302020302020302020300A2020202D302E3237363320202020302E3031333220202020302E303030302043202020302020302020302020302020302020302020302020302020302020302020302020300A20202020302E323534302020202D302E3631383820202020302E303030302043202020302020302020302020302020302020302020302020302020302020302020302020300A2020202D302E303238312020202D312E3339343020202020302E303030302043202020302020302020302020302020302020302020302020302020302020302020302020300A20202020302E353032322020202D322E3032363020202020302E303030302043202020302020302020302020302020302020302020302020302020302020302020302020300A2020202D312E303838372020202D302E3133303020202020302E303030302043202020302020302020302020302020302020302020302020302020302020302020302020300A2020202D302E3830363620202020302E3933313720202020302E303030302043202020302020302020302020302020302020302020302020302020302020302020302020300A2020202D312E3333363920202020302E3239393820202020302E303030302043202020302020302020302020302020302020302020302020302020302020302020302020300A2020202D322E3134393320202020302E3434333020202020302E303030302043202020302020302020302020302020302020302020302020302020302020302020302020300A2020312020322020312020302020202020200A2020322020332020322020302020202020200A2020322020342020312020302020202020200A2020342020352020312020302020202020200A2020352020362020322020302020202020200A2020352020372020312020302020202020200A2020372020382020312020302020202020200A2020382020392020322020302020202020200A2020312020382020312020302020202020200A2031302031312020312020302020202020200A2031312031322020312020302020202020200A2031322031332020312020302020202020200A2031302031342020312020302020202020200A2020372031302020312020302020202020200A2031352031362020312020302020202020200A2031362031372020322020302020202020200A2020372031352020312020302020202020200A4D2020454E44
Contributor: SASAKI S, TOYOHASHI UNIV. OF TECH.
InstType: EI
InstName: Unknown
IoniMethod: EI
IonPolarity: pos
Date: 2010-10-09 19:48:36+02:00
Num Peaks: 134
35 25 36 141 37 35 38 6 39 565 40 111 41 999 42 30 43 684 44 171 
45 13 49 1 50 43 51 80 52 119 53 27 54 88 55 410 56 53 57 0 
58 10 59 1 60 3 61 0 62 9 63 13 64 12 65 1 66 35 67 120 
68 69 69 9 70 118 71 86 72 4 73 0 75 1 76 7 77 68 78 5 
79 160 80 75 81 128 82 5 83 36 84 12 85 10 86 1 87 4 89 3 
91 39 92 1 93 19 94 24 95 39 96 14 97 345 98 69 99 10 100 0 
101 11 103 3 104 6 105 1 106 61 107 23 108 108 109 1 110 29 111 10 
112 50 113 1 114 2 115 8 117 1 118 0 119 3 120 8 121 13 122 1 
123 22 124 299 125 49 126 2 127 1 128 12 129 28 130 0 133 3 134 3 
135 9 136 1 137 11 138 13 139 11 140 2 141 87 142 10 143 1 148 0 
149 11 150 13 151 61 152 3 153 220 154 31 155 73 156 1 165 9 166 6 
167 727 168 79 169 130 170 15 171 1 178 0 179 6 181 51 182 5 183 0 
195 142 196 51 197 33 198 1 209 20 210 15 211 4 217 0 218 4 219 9 
220 1 223 0 238 1 239 2 
