Name: MassBank: JP007288
MW: 160
Formula: C8H16O3
Synonym: MassBank: JP007288
Synonym: METHYL (3S,4S)-3-HYDROXY-4-METHYLHEXANOATE
Structure: 303339395F4D455448594C202833532C3453292D332D485944524F58592D342D4D455448594C484558414E4F4154452E6D6F6C0A20204368656D447261773130313931303230323632440A2031332031322020302020302020302020302020302020302020302020303939392056323030300A20202020312E303731372020202D302E3230363320202020302E303030302043202020302020302020302020302020302020302020302020302020302020302020302020300A20202020302E3335373220202020302E3230363320202020302E303030302043202020302020302020302020302020302020302020302020302020302020302020302020300A2020202D302E333537322020202D302E3230363320202020302E303030302043202020302020302020302020302020302020302020302020302020302020302020302020300A2020202D312E3037313720202020302E3230363220202020302E303030302043202020302020302020302020302020302020302020302020302020302020302020302020300A2020202D312E373836322020202D302E3230363320202020302E303030302043202020302020302020302020302020302020302020302020302020302020302020302020300A2020202D312E373836322020202D312E3033313320202020302E303030302043202020302020302020302020302020302020302020302020302020302020302020302020300A20202020312E303731372020202D312E3033313220202020302E30303030204F202020302020302020302020302020302020302020302020302020302020302020302020300A20202020312E3738363220202020302E3230363320202020302E30303030204F202020302020302020302020302020302020302020302020302020302020302020302020300A2020202D312E3037313720202020312E3033313220202020302E303030302043202020302020302020302020302020302020302020302020302020302020302020302020300A2020202D302E333537322020202D312E3033313320202020302E30303030204F202020302020302020302020302020302020302020302020302020302020302020302020300A20202020312E3738363220202020312E3033313320202020302E303030302043202020302020302020302020302020302020302020302020302020302020302020302020300A2020202D302E3333303320202020302E3631383320202020302E303030302048202020302020302020302020302020302020302020302020302020302020302020302020300A2020202D312E303731372020202D302E3631383820202020302E303030302048202020302020302020302020302020302020302020302020302020302020302020302020300A2020312020322020312020302020202020200A2020322020332020312020302020202020200A2020332020342020312020302020202020200A2020342020352020312020302020202020200A2020352020362020312020302020202020200A2020312020372020322020302020202020200A2020312020382020312020302020202020200A2020342020392020312020312020202020200A2020332031302020312020312020202020200A2020382031312020312020302020202020200A2020332031322020312020312020202020200A2020342031332020312020312020202020200A4D2020454E44
Contributor: ITO S, DEPT. OF CHEM., TOHOKU UNIV.
InstType: EI
InstName: HITACHI M-52
IoniMethod: _ENERGY 14 eV
IonPolarity: pos
Date: 2010-10-09 19:48:36+02:00
Num Peaks: 34
42 53 43 45 44 20 57 2 58 99 60 27 61 41 68 2 69 22 70 29 
71 382 73 3 74 145 75 29 82 176 83 2 86 87 87 38 88 229 89 6 
101 35 103 771 104 57 110 21 111 145 113 49 117 999 118 7 127 65 128 29 
143 24 145 12 146 24 161 20 
