Name: 3-METHYLBENZOIC ACID METHYL ESTER
MW: 150
Formula: C9H10O2
Synonym: MassBank: JP002195
Synonym: 3-METHYLBENZOIC ACID METHYL ESTER
Structure: 332D4D455448594C42454E5A4F49432041434944204D455448594C2045535445522E6D6F6C0A20204368656D447261773033323031303135313132440A2031312031312020302020302020302020302020302020302020302020303939392056323030300A2020202D302E3030303020202020312E3033313320202020302E303030302043202020302020302020302020302020302020302020302020302020302020302020302020300A2020202D302E3030303020202020302E3230363220202020302E303030302043202020302020302020302020302020302020302020302020302020302020302020302020300A20202020302E373134352020202D302E3230363320202020302E303030302043202020302020302020302020302020302020302020302020302020302020302020302020300A20202020302E373134352020202D312E3033313320202020302E303030302043202020302020302020302020302020302020302020302020302020302020302020302020300A2020202D302E303030302020202D312E3434333820202020302E303030302043202020302020302020302020302020302020302020302020302020302020302020302020300A2020202D302E373134352020202D312E3033313320202020302E303030302043202020302020302020302020302020302020302020302020302020302020302020302020300A2020202D302E373134352020202D302E3230363220202020302E303030302043202020302020302020302020302020302020302020302020302020302020302020302020300A20202020302E3731343520202020312E3434333820202020302E30303030204F202020302020302020302020302020302020302020302020302020302020302020302020300A2020202D302E3731343520202020312E3434333820202020302E30303030204F202020302020302020302020302020302020302020302020302020302020302020302020300A20202020312E343238392020202D312E3434333820202020302E303030302043202020302020302020302020302020302020302020302020302020302020302020302020300A2020202D312E3432383920202020312E3033313320202020302E303030302043202020302020302020302020302020302020302020302020302020302020302020302020300A2020312020322020312020302020202020200A2020322020332020312020302020202020200A2020332020342020322020302020202020200A2020342020352020312020302020202020200A2020352020362020322020302020202020200A2020362020372020312020302020202020200A2020322020372020322020302020202020200A2020312020382020322020302020202020200A2020312020392020312020302020202020200A2020342031302020312020302020202020200A2020392031312020312020302020202020200A4D2020454E44
Contributor: KOGA M, UNIV. OF OCCUPATIONAL AND ENVIRONMENTAL HEALTH
InstType: EI
InstName: JEOL JMS-01-SG
IoniMethod: _ENERGY 70 eV
IonPolarity: pos
Date: 2010-10-09 19:48:36+02:00
Num Peaks: 25
45 21 50 17 51 35 53 1 59 25 62 28 63 50 65 15 66 10 74 25 
89 46 90 4 91 579 92 35 106 14 110 1 118 14 119 999 120 82 133 1 
135 21 149 10 150 345 151 3 152 17 
