Name: BUTYLMETHYLSILANE (METHYL-D3)
MW: 102
Formula: C5H14Si
Synonym: MassBank: JP006033
Synonym: BUTYLMETHYLSILANE (METHYL-D3)
Structure: 310A32330A425554594C4D455448594C53494C414E4520284D455448594C2D4433292E6D6F6C0A20204368656D447261773039303631303034343732440A2020392020382020302020302020302020302020302020302020302020303939392056323030300A2020202D312E3233373520202020302E3330323020202020302E303030302043202020302020302020302020302020302020302020302020302020302020302020302020300A2020202D322E3036323520202020302E3330323020202020302E303030302048202020312020302020302020302020302020302020302020302020302020302020302020300A2020202D312E3233373520202020312E3132373020202020302E303030302048202020312020302020302020302020302020302020302020302020302020302020302020300A2020202D302E3431323520202020302E3330323020202020302E303030302053692020302020302020302020302020302020302020302020302020302020302020302020300A2020202D312E323337352020202D302E3532333020202020302E303030302048202020312020302020302020302020302020302020302020302020302020302020302020300A20202020302E303030302020202D302E3431323520202020302E303030302043202020302020302020302020302020302020302020302020302020302020302020302020300A20202020302E383235302020202D302E3431323520202020302E303030302043202020302020302020302020302020302020302020302020302020302020302020302020300A20202020312E323337352020202D312E3132373020202020302E303030302043202020302020302020302020302020302020302020302020302020302020302020302020300A20202020322E303632352020202D312E3132373020202020302E303030302043202020302020302020302020302020302020302020302020302020302020302020302020300A2020312020322020312020302020202020200A2020312020332020312020302020202020200A2020312020342020312020302020202020200A2020312020352020312020302020202020200A2020342020362020312020302020202020200A2020362020372020312020302020202020200A2020372020382020312020302020202020200A2020382020392020312020302020202020200A4D202049534F2020332020203220202032202020332020203220202035202020320A4D2020454E44
Contributor: YAMAMOTO M, DEP. CHEMISTRY, FAC. SCIENCE, NARA WOMEN'S UNIV.
InstType: EI
InstName: HITACHI M-80
IoniMethod: _ENERGY 20 eV
IonPolarity: pos
Date: 2010-10-09 19:48:36+02:00
Num Peaks: 27
29 11 41 36 45 28 46 31 47 66 48 451 49 29 50 13 55 20 56 183 
57 27 58 31 59 62 61 31 62 158 63 13 74 19 75 251 76 999 77 113 
78 38 85 12 88 29 103 105 104 40 105 23 106 3 
