Name: 2-NITROPHENOL
CAS: 88-75-5
MW: 139
Formula: C6H5NO3
Synonym: MassBank: JP008235
Synonym: 2-NITROPHENOL
Synonym: 2-HYDROXYNITROBENZENE
Structure: 322D4E4954524F5048454E4F4C2E6D6F6C0A20204368656D447261773031323231303030303032440A2031302031302020302020302020302020302020302020302020302020303939392056323030300A20202020302E333537322020202D302E3230363220202020302E303030302043202020302020302020302020302020302020302020302020302020302020302020302020300A2020202D302E3335373220202020302E3230363320202020302E303030302043202020302020302020302020302020302020302020302020302020302020302020302020300A2020202D312E303731372020202D302E3230363220202020302E303030302043202020302020302020302020302020302020302020302020302020302020302020302020300A2020202D312E303731372020202D312E3033313220202020302E303030302043202020302020302020302020302020302020302020302020302020302020302020302020300A2020202D302E333537322020202D312E3434333820202020302E303030302043202020302020302020302020302020302020302020302020302020302020302020302020300A20202020302E333537322020202D312E3033313320202020302E303030302043202020302020302020302020302020302020302020302020302020302020302020302020300A2020202D302E3335373220202020312E3033313320202020302E30303030204E202020302020332020302020302020302020302020302020302020302020302020302020300A2020202D312E3037313720202020312E3434333820202020302E30303030204F202020302020302020302020302020302020302020302020302020302020302020302020300A20202020302E3335373220202020312E3434333820202020302E30303030204F202020302020352020302020302020302020302020302020302020302020302020302020300A20202020312E3037313720202020302E3230363320202020302E30303030204F202020302020302020302020302020302020302020302020302020302020302020302020300A2020312020322020312020302020202020200A2020322020332020322020302020202020200A2020332020342020312020302020202020200A2020342020352020322020302020202020200A2020352020362020312020302020202020200A2020312020362020322020302020202020200A2020372020382020322020302020202020200A2020372020392020312020302020202020200A2020322020372020312020302020202020200A2020312031302020312020302020202020200A4D202043484720203220202037202020312020203920202D310A4D2020454E44
Contributor: UBE SCIENTIFIC ANALYSIS LABORATORY
InstType: EI
InstName: HITACHI M-60
IoniMethod: _ENERGY 70 eV
IonPolarity: pos
Date: 2010-10-09 19:48:36+02:00
Num Peaks: 53
18 42 26 31 27 86 28 16 29 28 30 98 37 53 38 140 39 430 40 22 
41 11 42 12 43 16 44 31 45 14 50 56 51 96 52 53 53 174 54 16 
55 26 61 32 62 78 63 306 64 239 65 389 66 56 67 10 73 10 74 17 
75 17 76 10 77 7 78 42 79 10 80 31 81 210 82 11 91 12 92 91 
93 129 94 56 95 8 106 33 108 8 109 177 110 15 119 11 122 70 123 26 
139 999 140 71 141 9 
