Name: MassBank: JP005055
MW: 242
Formula: C16H22N2
Synonym: MassBank: JP005055
Synonym: 2-BUTYL-8-METHYL-1,2,3,4-TETRAHYDRO-GAMMA-CARBOLINE
Structure: 322D425554594C2D382D4D455448594C2D312C322C332C342D5445545241485944524F2D47414D4D412D434152424F4C494E452E6D6F6C0A20204368656D447261773031303331303130313732440A2031382032302020302020302020302020302020302020302020302020303939392056323030300A20202020302E373331382020202D302E3033383420202020302E303030302043202020302020302020302020302020302020302020302020302020302020302020302020300A20202020302E353138332020202D302E3833353320202020302E303030302043202020302020302020302020302020302020302020302020302020302020302020302020300A20202020312E323130322020202D312E3238343620202020302E30303030204E202020302020302020302020302020302020302020302020302020302020302020302020300A20202020312E383531342020202D302E3736353420202020302E303030302043202020302020302020302020302020302020302020302020302020302020302020302020300A20202020312E3535353720202020302E3030343820202020302E303030302043202020302020302020302020302020302020302020302020302020302020302020302020300A20202020302E3134383520202020302E3534353020202020302E303030302043202020302020302020302020302020302020302020302020302020302020302020302020300A2020202D302E3634383420202020302E3333313420202020302E30303030204E202020302020302020302020302020302020302020302020302020302020302020302020300A2020202D302E383631392020202D302E3436353520202020302E303030302043202020302020302020302020302020302020302020302020302020302020302020302020300A2020202D302E323738362020202D312E3034383820202020302E303030302043202020302020302020302020302020302020302020302020302020302020302020302020300A20202020322E363636322020202D302E3839343520202020302E303030302043202020302020302020302020302020302020302020302020302020302020302020302020300A20202020332E313835342020202D302E3235333420202020302E303030302043202020302020302020302020302020302020302020302020302020302020302020302020300A20202020322E3838393720202020302E3531363920202020302E303030302043202020302020302020302020302020302020302020302020302020302020302020302020300A20202020322E3037343920202020302E3634353920202020302E303030302043202020302020302020302020302020302020302020302020302020302020302020302020300A20202020332E3430383920202020312E3135383020202020302E303030302043202020302020302020302020302020302020302020302020302020302020302020302020300A2020202D312E3233313820202020302E3931343820202020302E303030302043202020302020302020302020302020302020302020302020302020302020302020302020300A2020202D322E3032383720202020302E3730313320202020302E303030302043202020302020302020302020302020302020302020302020302020302020302020302020300A2020202D322E3631323020202020312E3238343620202020302E303030302043202020302020302020302020302020302020302020302020302020302020302020302020300A2020202D332E3430383920202020312E3037313120202020302E303030302043202020302020302020302020302020302020302020302020302020302020302020302020300A2020312020322020322020302020202020200A2020322020332020312020302020202020200A2020332020342020312020302020202020200A2020342020352020322020302020202020200A2020352020312020312020302020202020200A2020312020362020312020302020202020200A2020362020372020312020302020202020200A2020372020382020312020302020202020200A2020382020392020312020302020202020200A2020392020322020312020302020202020200A2020342031302020312020302020202020200A2031302031312020322020302020202020200A2031312031322020312020302020202020200A2031322031332020322020302020202020200A2031332020352020312020302020202020200A2031322031342020312020302020202020200A2020372031352020312020302020202020200A2031352031362020312020302020202020200A2031362031372020312020302020202020200A2031372031382020312020302020202020200A4D2020454E44
Contributor: SASAKI S, TOYOHASHI UNIV. OF TECH.
InstType: EI
InstName: Unknown
IoniMethod: _ENERGY 75 eV
IonPolarity: pos
Date: 2010-10-09 19:48:36+02:00
Num Peaks: 14
42 93 55 11 56 12 77 1 105 10 115 15 128 10 156 12 157 999 158 139 
170 97 199 2 241 52 242 111 
