Name: MassBank: JP008794
MW: 199
Formula: C3H6Br2
Synonym: MassBank: JP008794
Synonym: 1,2-DIBROMOPROPANE
Structure: 310A31340A312C322D444942524F4D4F50524F50414E452E6D6F6C0A20204368656D447261773131303330393233303232440A2020352020342020302020302020302020302020302020302020302020303939392056323030300A20202020302E333537322020202D302E3631383820202020302E303030302043202020302020302020302020302020302020302020302020302020302020302020302020300A2020202D302E333537322020202D302E3230363220202020302E303030302043202020302020302020302020302020302020302020302020302020302020302020302020300A2020202D302E3335373220202020302E3631383820202020302E303030302043202020302020302020302020302020302020302020302020302020302020302020302020300A2020202D312E303731372020202D302E3631383820202020302E303030302042722020302020302020302020302020302020302020302020302020302020302020302020300A20202020312E303731372020202D302E3230363220202020302E303030302042722020302020302020302020302020302020302020302020302020302020302020302020300A2020312020322020312020302020202020200A2020322020332020312020302020202020200A2020322020342020312020302020202020200A2020312020352020312020302020202020200A4D2020454E44
Contributor: UOEH
InstType: EI
InstName: HP 5970
IoniMethod: _ENERGY 70 eV
IonPolarity: pos
Date: 2010-10-09 19:48:36+02:00
Num Peaks: 49
36 14 37 86 38 148 39 663 40 86 41 999 42 82 43 2 79 79 80 38 
81 79 82 34 83 3 91 7 92 6 93 46 94 7 95 41 96 1 104 3 
105 17 106 8 107 24 108 4 109 8 110 0 115 0 116 1 117 2 118 1 
119 6 121 383 123 377 124 13 125 0 158 3 160 5 161 0 162 2 171 0 
184 0 185 1 186 0 187 2 189 1 200 3 201 0 202 4 204 2 
