Name: MassBank: JP009997
MW: 104
Formula: C5H12O2
Synonym: MassBank: JP009997
Synonym: -METHYLBUTANE-1,3-DIOL
Structure: 310A31380A4D455448594C425554414E452D312C332D44494F4C2E6D6F6C0A20204368656D447261773130323230393232323932440A2020372020362020302020302020302020302020302020302020302020303939392056323030300A2020202D302E383235302020202D302E3030303020202020302E303030302043202020302020302020302020302020302020302020302020302020302020302020302020300A20202020302E303030302020202D302E3030303020202020302E303030302043202020302020302020302020302020302020302020302020302020302020302020302020300A2020202D312E3233373520202020302E3731343520202020302E303030302043202020302020302020302020302020302020302020302020302020302020302020302020300A2020202D312E323337352020202D302E3731343520202020302E30303030204F202020302020302020302020302020302020302020302020302020302020302020302020300A20202020302E343132352020202D302E3731343520202020302E303030302043202020302020302020302020302020302020302020302020302020302020302020302020300A20202020302E3431323520202020302E3731343520202020302E303030302043202020302020302020302020302020302020302020302020302020302020302020302020300A20202020312E323337352020202D302E3731343520202020302E30303030204F202020302020302020302020302020302020302020302020302020302020302020302020300A2020312020322020312020302020202020200A2020312020332020312020302020202020200A2020312020342020312020302020202020200A2020322020352020312020302020202020200A2020322020362020312020302020202020200A2020352020372020312020302020202020200A4D2020454E44
Contributor: KURARAY CO., LTD.
InstType: EI
InstName: JEOL JMS-D-300
IoniMethod: _ENERGY 70 eV
IonPolarity: pos
Date: 2010-10-09 19:48:36+02:00
Num Peaks: 27
27 80 29 72 31 291 39 8 40 20 41 283 42 45 43 93 44 30 45 38 
53 31 55 5 56 75 57 30 58 205 59 999 60 44 61 20 67 16 68 2 
69 97 71 277 72 22 73 5 86 45 89 211 115 53 
