Name: MassBank: JP003278
MW: 225
Formula: C9H11N3O4
Synonym: MassBank: JP003278
Synonym: N-PROPYL-2,4-DINITROBENZENAMINE
Structure: 4E2D50524F50594C2D322C342D44494E4954524F42454E5A454E414D494E452E6D6F6C0A20204368656D447261773038313231303032323332440A2031362031362020302020302020302020302020302020302020302020303939392056323030300A20202020302E3230363220202020302E3335373220202020302E303030302043202020302020302020302020302020302020302020302020302020302020302020302020300A20202020302E363138382020202D302E3335373220202020302E303030302043202020302020302020302020302020302020302020302020302020302020302020302020300A20202020302E323036322020202D312E3037313720202020302E303030302043202020302020302020302020302020302020302020302020302020302020302020302020300A2020202D302E363138372020202D312E3037313720202020302E303030302043202020302020302020302020302020302020302020302020302020302020302020302020300A2020202D312E303331332020202D302E3335373220202020302E303030302043202020302020302020302020302020302020302020302020302020302020302020302020300A2020202D302E3631383820202020302E3335373220202020302E303030302043202020302020302020302020302020302020302020302020302020302020302020302020300A20202020302E3631383820202020312E3037313720202020302E30303030204E202020302020302020302020302020302020302020302020302020302020302020302020300A2020202D312E303331322020202D312E3738363220202020302E30303030204E202020302020332020302020302020302020302020302020302020302020302020302020300A2020202D302E363138372020202D322E3530303620202020302E30303030204F202020302020302020302020302020302020302020302020302020302020302020302020300A2020202D312E383536332020202D312E3738363220202020302E30303030204F202020302020352020302020302020302020302020302020302020302020302020302020300A20202020312E343433372020202D302E3335373220202020302E30303030204E202020302020332020302020302020302020302020302020302020302020302020302020300A20202020312E383536332020202D312E3037313720202020302E30303030204F202020302020302020302020302020302020302020302020302020302020302020302020300A20202020312E3835363320202020302E3335373220202020302E30303030204F202020302020352020302020302020302020302020302020302020302020302020302020300A20202020302E3230363220202020312E3738363220202020302E303030302043202020302020302020302020302020302020302020302020302020302020302020302020300A2020202D302E3631383720202020312E3738363220202020302E303030302043202020302020302020302020302020302020302020302020302020302020302020302020300A2020202D312E3033313320202020322E3530303620202020302E303030302043202020302020302020302020302020302020302020302020302020302020302020302020300A2020312020322020312020302020202020200A2020322020332020322020302020202020200A2020332020342020312020302020202020200A2020342020352020322020302020202020200A2020352020362020312020302020202020200A2020312020362020322020302020202020200A2020312020372020312020302020202020200A2020382020392020322020302020202020200A2020382031302020312020302020202020200A2020342020382020312020302020202020200A2031312031322020322020302020202020200A2031312031332020312020302020202020200A2020322031312020312020302020202020200A2031342031352020312020302020202020200A2031352031362020312020302020202020200A2020372031342020312020302020202020200A4D202043484720203420202038202020312020313020202D3120203131202020312020313320202D310A4D2020454E44
Contributor: KOGA M, UNIV. OF OCCUPATIONAL AND ENVIRONMENTAL HEALTH
InstType: EI
InstName: JEOL JMS-01-SG-2
IoniMethod: _ENERGY 75 eV
IonPolarity: pos
Date: 2010-10-09 19:48:36+02:00
Num Peaks: 55
43 33 51 48 52 52 57 41 62 34 63 43 64 44 65 62 66 39 74 16 
75 44 76 64 77 105 78 118 80 44 89 28 90 29 91 34 92 94 102 26 
103 54 104 152 105 29 106 36 108 31 117 48 118 46 119 52 120 74 121 44 
122 99 123 24 130 29 132 26 133 33 134 49 136 21 138 69 144 29 146 28 
149 39 150 135 151 57 164 29 166 130 167 29 179 31 180 51 189 29 195 31 
196 999 197 87 209 26 225 192 226 26 
