Name: 2-ACETYLFURAN
MW: 110
Formula: C6H6O2
Synonym: MassBank: JP006946
Synonym: 2-ACETYLFURAN
Structure: 322D41434554594C465552414E2E6D6F6C0A20204368656D447261773131313730393136353632440A2031312031312020302020302020302020302020302020302020302020303939392056323030300A2020202D302E3536363320202020302E3236323420202020302E30303030204F202020302020302020302020302020302020302020302020302020302020302020302020300A20202020302E3235343020202020302E3334383620202020302E303030302043202020302020302020302020302020302020302020302020302020302020302020302020300A20202020302E353839362020202D302E3430353120202020302E303030302043202020302020302020302020302020302020302020302020302020302020302020302020300A2020202D302E303233342020202D302E3935373120202020302E303030302043202020302020302020302020302020302020302020302020302020302020302020302020300A2020202D302E373337392020202D302E3534343620202020302E303030302043202020302020302020302020302020302020302020302020302020302020302020302020300A20202020302E3636363520202020312E3036333120202020302E303030302043202020302020302020302020302020302020302020302020302020302020302020302020300A20202020302E3235343020202020312E3737373520202020302E30303030204F202020302020302020302020302020302020302020302020302020302020302020302020300A20202020312E3439313520202020312E3036333120202020302E303030302043202020302020302020302020302020302020302020302020302020302020302020302020300A2020202D312E343931352020202D302E3838303120202020302E303030302048202020302020302020302020302020302020302020302020302020302020302020302020300A20202020302E303632372020202D312E3737373520202020302E303030302048202020302020302020302020302020302020302020302020302020302020302020302020300A20202020312E333936362020202D302E3537363620202020302E303030302048202020302020302020302020302020302020302020302020302020302020302020302020300A2020312020322020312020302020202020200A2020322020332020322020302020202020200A2020332020342020312020302020202020200A2020342020352020322020302020202020200A2020312020352020312020302020202020200A2020362020372020322020302020202020200A2020362020382020312020302020202020200A2020322020362020312020302020202020200A2020352020392020312020302020202020200A2020342031302020312020302020202020200A2020332031312020312020302020202020200A4D2020454E44
Contributor: TAJIMA S, GUNMA COLLEGE OF TECHNOLOGY
InstType: EI
InstName: HITACHI M-80B
IoniMethod: _ENERGY 70 eV
IonPolarity: pos
Date: 2010-10-09 19:48:36+02:00
Num Peaks: 22
14 15 15 63 26 18 27 42 29 41 37 57 38 104 39 298 40 31 41 15 
42 38 43 186 50 34 51 41 52 10 53 38 67 41 68 31 95 999 96 57 
110 375 111 28 
