Name: L-FENCHONE
CAS: 7787-20-4
MW: 152
Formula: C10H16O
Synonym: MassBank: JP007653
Synonym: L-FENCHONE
Synonym: (1S)-1,3,3-TRIMETHYLBICYCLO(2.2.1)HEPTAN-2-ONE
Structure: 283153292D312C332C332D5452494D455448594C42494359434C4F28322E322E312948455054414E2D322D4F4E452E6D6F6C0A20204368656D447261773130313930393134303432440A2031322031332020302020302020302020302020302020302020302020303939392056323030300A2020202D302E3731343420202020302E3030303020202020302E303030302043202020302020302020302020302020302020302020302020302020302020302020302020300A2020202D302E373134342020202D302E3832353020202020302E303030302043202020302020302020302020302020302020302020302020302020302020302020302020300A20202020302E303030312020202D312E3233373520202020302E303030302043202020302020302020302020302020302020302020302020302020302020302020302020300A20202020302E373134352020202D302E3832353020202020302E303030302043202020302020302020302020302020302020302020302020302020302020302020302020300A20202020302E3731343520202020302E3030303020202020302E303030302043202020302020302020302020302020302020302020302020302020302020302020302020300A20202020302E3030303120202020302E3431323520202020302E303030302043202020302020302020302020302020302020302020302020302020302020302020302020300A20202020302E3030303120202020312E3233373520202020302E30303030204F202020302020302020302020302020302020302020302020302020302020302020302020300A20202020312E343239392020202D312E3233373520202020302E303030302048202020302020302020302020302020302020302020302020302020302020302020302020300A20202020302E303832352020202D302E3231333520202020302E303030302043202020302020302020302020302020302020302020302020302020302020302020302020300A2020202D312E3432393920202020302E3431323520202020302E303030302043202020302020302020302020302020302020302020302020302020302020302020302020300A20202020312E3432383720202020302E3431323520202020302E303030302043202020302020302020302020302020302020302020302020302020302020302020302020300A20202020302E3932363820202020302E3739373520202020302E303030302043202020302020302020302020302020302020302020302020302020302020302020302020300A2020312020322020312020302020202020200A2020322020332020312020302020202020200A2020332020342020312020302020202020200A2020342020352020312020302020202020200A2020352020362020312020302020202020200A2020362020312020312020302020202020200A2020362020372020322020302020202020200A2020342020382020312020312020202020200A2020312020392020312020362020202020200A2020342020392020312020362020202020200A2020312031302020312020312020202020200A2020352031312020312020312020202020200A2020352031322020312020362020202020200A4D202053545920203120202031205355500A4D2020534C4220203120202031202020310A4D202053414C20202031202031202031300A4D202053424C20202031202031202031310A4D2020534D5420202031204D650A4D2020534256202020312031312020202D372E3638363720202020372E323138380A4D202053545920203120202032205355500A4D2020534C4220203120202032202020320A4D202053414C20202032202031202031310A4D202053424C20202032202031202031320A4D2020534D5420202032204D650A4D2020534256202020322031322020202D362E3235373020202020372E323138380A4D202053545920203120202033205355500A4D2020534C4220203120202033202020330A4D202053414C20202033202031202031320A4D202053424C20202033202031202031330A4D2020534D5420202033204D650A4D2020534256202020332031332020202D362E3735383920202020372E363033370A4D2020454E44
Contributor: YAMAMOTO M, DEP. CHEMISTRY, FAC. SCIENCE, NARA WOMEN'S UNIV.
InstType: EI
InstName: HITACHI RMU-6M
IoniMethod: _ENERGY 15 eV
IonPolarity: pos
Date: 2010-10-09 19:48:36+02:00
Num Peaks: 12
68 25 69 206 70 17 72 26 80 156 81 999 82 84 95 11 109 44 137 24 
152 275 153 31 
