Name: MassBank: JP004386
MW: 186
Formula: C12H14N2
Synonym: MassBank: JP004386
Synonym: 5-METHYL-1,2,3,4-TETRAHYDRO(2-2H1)PYRIMIDO(1,6-A)INDOLE
Structure: 352D4D455448594C2D312C322C332C342D5445545241485944524F28322D32483129505952494D49444F28312C362D4129494E444F4C452E6D6F6C0A20204368656D447261773034323331303036353432440A2031352031372020302020302020302020302020302020302020302020303939392056323030300A2020202D312E3932373320202020302E3030383020202020302E303030302043202020302020302020302020302020302020302020302020302020302020302020302020300A2020202D312E393237332020202D302E3831373020202020302E303030302043202020302020302020302020302020302020302020302020302020302020302020302020300A2020202D312E323132382020202D312E3232393520202020302E303030302043202020302020302020302020302020302020302020302020302020302020302020302020300A2020202D302E343938332020202D302E3831373020202020302E303030302043202020302020302020302020302020302020302020302020302020302020302020302020300A2020202D302E3439383320202020302E3030383020202020302E303030302043202020302020302020302020302020302020302020302020302020302020302020302020300A2020202D312E3231323820202020302E3432303520202020302E303030302043202020302020302020302020302020302020302020302020302020302020302020302020300A20202020302E323836332020202D312E3037313920202020302E303030302043202020302020302020302020302020302020302020302020302020302020302020302020300A20202020302E373731322020202D302E3430343520202020302E303030302043202020302020302020302020302020302020302020302020302020302020302020302020300A20202020302E3238363320202020302E3236333020202020302E30303030204E202020302020302020302020302020302020302020302020302020302020302020302020300A20202020312E353931372020202D302E3331383220202020302E303030302043202020302020302020302020302020302020302020302020302020302020302020302020300A20202020312E3932373320202020302E3433353420202020302E303030302043202020302020302020302020302020302020302020302020302020302020302020302020300A20202020312E3434323320202020312E3130323920202020302E30303030204E202020302020302020302020302020302020302020302020302020302020302020302020300A20202020302E3632313920202020312E3031363620202020302E303030302043202020302020302020302020302020302020302020302020302020302020302020302020300A20202020312E3737373920202020312E3835363520202020302E303030302048202020312020302020302020302020302020302020302020302020302020302020302020300A20202020302E353431322020202D312E3835363520202020302E303030302043202020302020302020302020302020302020302020302020302020302020302020302020300A2020312020322020322020302020202020200A2020322020332020312020302020202020200A2020332020342020322020302020202020200A2020342020352020312020302020202020200A2020352020362020322020302020202020200A2020362020312020312020302020202020200A2020342020372020312020302020202020200A2020372020382020322020302020202020200A2020382020392020312020302020202020200A2020392020352020312020302020202020200A2020382031302020312020302020202020200A2031302031312020312020302020202020200A2031312031322020312020302020202020200A2031322031332020312020302020202020200A2031332020392020312020302020202020200A2031322031342020312020302020202020200A2020372031352020312020302020202020200A4D202049534F20203120203134202020320A4D2020454E44
Contributor: SASAKI S, TOYOHASHI UNIV. OF TECH.
InstType: EI
InstName: JEOL JMS-01-SG-2
IoniMethod: _ENERGY 75 eV
IonPolarity: pos
Date: 2010-10-09 19:48:36+02:00
Num Peaks: 15
42 88 77 81 115 63 128 7 130 50 143 87 144 646 145 999 146 118 156 100 
157 563 158 9 159 244 187 535 188 70 
