Name: BETA-BROMOPROPIONIC ACID ETHYL ESTER
MW: 179
Formula: C5H9BrO2
Synonym: MassBank: JP006167
Synonym: BETA-BROMOPROPIONIC ACID ETHYL ESTER
Synonym: ETHYL 3-BROMOPROPIONATE
Structure: 310A32300A424554412D42524F4D4F50524F50494F4E4943204143494420455448594C2045535445522E6D6F6C0A20204368656D447261773039303531303132313232440A2020382020372020302020302020302020302020302020302020302020303939392056323030300A20202020302E333537322020202D302E3230363220202020302E303030302043202020302020302020302020302020302020302020302020302020302020302020302020300A20202020312E303731372020202D302E3631383820202020302E303030302043202020302020302020302020302020302020302020302020302020302020302020302020300A20202020312E373836322020202D302E3230363220202020302E303030302043202020302020302020302020302020302020302020302020302020302020302020302020300A20202020302E3335373220202020302E3631383820202020302E30303030204F202020302020302020302020302020302020302020302020302020302020302020302020300A2020202D302E333537322020202D302E3631383820202020302E30303030204F202020302020302020302020302020302020302020302020302020302020302020302020300A20202020312E3738363220202020302E3631383820202020302E303030302042722020302020302020302020302020302020302020302020302020302020302020302020300A2020202D312E303731372020202D302E3230363320202020302E303030302043202020302020302020302020302020302020302020302020302020302020302020302020300A2020202D312E373836322020202D302E3631383820202020302E303030302043202020302020302020302020302020302020302020302020302020302020302020302020300A2020312020322020312020302020202020200A2020322020332020312020302020202020200A2020312020342020322020302020202020200A2020312020352020312020302020202020200A2020332020362020312020302020202020200A2020372020382020312020302020202020200A2020352020372020312020302020202020200A4D2020454E44
Contributor: HASHIMOTO K, KYOTO COLLEGE OF PHARMACY
InstType: EI
InstName: HITACHI M-80
IoniMethod: _ENERGY 20 eV
IonPolarity: pos
Date: 2010-10-09 19:48:36+02:00
Num Peaks: 21
26 13 27 343 28 227 29 999 30 26 31 22 41 19 43 21 45 135 55 37 
56 13 73 130 101 48 107 74 109 69 135 44 137 38 152 61 154 57 180 3 
182 3 
