Name: MassBank: JP006785
MW: 132
Formula: C7H16O2
Synonym: MassBank: JP006785
Synonym: 2,2-DIETHOXYPROPANE
Synonym: ACETONE DIETHYLACETAL
Structure: 310A32320A322C322D44494554484F585950524F50414E452E6D6F6C0A20204368656D447261773132323030393036333332440A2020392020382020302020302020302020302020302020302020302020303939392056323030300A2020202D302E3035353320202020302E3736393720202020302E303030302043202020302020302020302020302020302020302020302020302020302020302020302020300A20202020302E3335373220202020302E3035353320202020302E303030302043202020302020302020302020302020302020302020302020302020302020302020302020300A20202020302E373639372020202D302E3635393220202020302E303030302043202020302020302020302020302020302020302020302020302020302020302020302020300A20202020312E3037313720202020302E3436373820202020302E30303030204F202020302020302020302020302020302020302020302020302020302020302020302020300A20202020312E3738363220202020302E3035353320202020302E303030302043202020302020302020302020302020302020302020302020302020302020302020302020300A20202020312E373836322020202D302E3736393720202020302E303030302043202020302020302020302020302020302020302020302020302020302020302020302020300A2020202D302E333537322020202D302E3335373220202020302E30303030204F202020302020302020302020302020302020302020302020302020302020302020302020300A2020202D312E3037313720202020302E3035353320202020302E303030302043202020302020302020302020302020302020302020302020302020302020302020302020300A2020202D312E373836322020202D302E3335373220202020302E303030302043202020302020302020302020302020302020302020302020302020302020302020302020300A2020312020322020312020302020202020200A2020322020332020312020302020202020200A2020352020362020312020302020202020200A2020342020352020312020302020202020200A2020322020342020312020302020202020200A2020382020392020312020302020202020200A2020372020382020312020302020202020200A2020322020372020312020302020202020200A4D2020454E44
Contributor: TAJIMA S, GUNMA COLLEGE OF TECHNOLOGY
InstType: EI
InstName: HITACHI RMU-7M
IoniMethod: _ENERGY 70 eV
IonPolarity: pos
Date: 2010-10-09 19:48:36+02:00
Num Peaks: 21
15 31 27 57 28 80 29 98 31 114 39 24 41 59 42 25 43 243 44 19 
45 38 58 57 59 999 60 37 61 215 77 13 87 559 88 32 89 44 112 13 
117 51 
