Name: (Z)-10-PENTADECENE-1-OL
MW: 226
Formula: C15H30O
Synonym: MassBank: JP004579
Synonym: (Z)-10-PENTADECENE-1-OL
Structure: 285A292D31302D50454E5441444543454E452D312D4F4C2E6D6F6C0A20204368656D447261773130323230393139353832440A2031382031372020302020302020302020302020302020302020302020303939392056323030300A20202020312E343433382020202D302E3731343520202020302E303030302043202020302020302020302020302020302020302020302020302020302020302020302020300A20202020322E323638372020202D302E3731343520202020302E303030302043202020302020302020302020302020302020302020302020302020302020302020302020300A20202020312E3033313320202020302E3030303020202020302E303030302048202020302020302020302020302020302020302020302020302020302020302020302020300A20202020322E3638313220202020302E3030303020202020302E303030302048202020302020302020302020302020302020302020302020302020302020302020302020300A20202020312E303331332020202D312E3432383920202020302E303030302043202020302020302020302020302020302020302020302020302020302020302020302020300A20202020322E363831322020202D312E3432383920202020302E303030302043202020302020302020302020302020302020302020302020302020302020302020302020300A20202020332E353036332020202D312E3432383920202020302E303030302043202020302020302020302020302020302020302020302020302020302020302020302020300A20202020332E393138382020202D302E3731343520202020302E303030302043202020302020302020302020302020302020302020302020302020302020302020302020300A20202020342E373433382020202D302E3731343520202020302E303030302043202020302020302020302020302020302020302020302020302020302020302020302020300A20202020302E323036322020202D312E3432383920202020302E303030302043202020302020302020302020302020302020302020302020302020302020302020302020300A2020202D302E323036322020202D302E3731343520202020302E303030302043202020302020302020302020302020302020302020302020302020302020302020302020300A2020202D312E303331332020202D302E3731343520202020302E303030302043202020302020302020302020302020302020302020302020302020302020302020302020300A2020202D312E3434333820202020302E3030303020202020302E303030302043202020302020302020302020302020302020302020302020302020302020302020302020300A2020202D322E3236383720202020302E3030303020202020302E303030302043202020302020302020302020302020302020302020302020302020302020302020302020300A2020202D322E3638313220202020302E3731343520202020302E303030302043202020302020302020302020302020302020302020302020302020302020302020302020300A2020202D332E3530363320202020302E3731343520202020302E303030302043202020302020302020302020302020302020302020302020302020302020302020302020300A2020202D332E3931383820202020312E3432383920202020302E303030302043202020302020302020302020302020302020302020302020302020302020302020302020300A2020202D342E3734333820202020312E3432383920202020302E30303030204F202020302020302020302020302020302020302020302020302020302020302020302020300A2020312020322020322020302020202020200A2020312020332020312020302020202020200A2020322020342020312020302020202020200A2020312020352020312020302020202020200A2020322020362020312020302020202020200A2020362020372020312020302020202020200A2020372020382020312020302020202020200A2020382020392020312020302020202020200A2020352031302020312020302020202020200A2031302031312020312020302020202020200A2031312031322020312020302020202020200A2031322031332020312020302020202020200A2031332031342020312020302020202020200A2031342031352020312020302020202020200A2031352031362020312020302020202020200A2031362031372020312020302020202020200A2031372031382020312020302020202020200A4D2020454E44
Contributor: HAYASHI A, DEPT. OF CHEMISTRY, FAC. OF SCI. AND TECHNOLOGY, KINKI UNIV.
InstType: EI
InstName: JEOL JMS-HX-100
IoniMethod: _ENERGY 70 eV
IonPolarity: pos
Date: 2010-10-09 19:48:36+02:00
Num Peaks: 74
38 3 39 100 40 22 41 596 42 139 43 273 44 21 45 18 50 2 51 7 
52 5 53 74 54 397 55 999 56 223 57 143 58 13 59 4 65 18 66 47 
67 532 68 434 69 505 70 129 71 54 72 8 73 5 77 15 78 4 79 38 
80 31 81 505 82 660 83 275 84 54 85 32 86 6 91 7 93 12 94 15 
95 397 96 458 97 142 98 26 99 9 107 4 108 5 109 191 110 162 111 36 
112 9 113 3 121 3 122 4 123 81 124 70 125 11 126 6 136 2 137 37 
138 33 139 5 140 4 149 4 151 17 152 20 153 3 165 8 166 8 179 5 
180 15 181 2 208 47 209 8 
