Name: MassBank: JP008294
MW: 194
Formula: C10H10O4
Synonym: MassBank: JP008294
Synonym: 2,4-DIFORMYL-3-METHYL-6-METHOXYPHENOL
Structure: 322C342D4449464F524D594C2D332D4D455448594C2D362D4D4554484F58595048454E4F4C2E6D6F6C0A20204368656D447261773132323030393138353632440A2031342031342020302020302020302020302020302020302020302020303939392056323030300A2020202D302E323036322020202D302E3731343520202020302E303030302043202020302020302020302020302020302020302020302020302020302020302020302020300A2020202D302E3631383720202020302E3030303020202020302E303030302043202020302020302020302020302020302020302020302020302020302020302020302020300A2020202D302E3230363220202020302E3731343520202020302E303030302043202020302020302020302020302020302020302020302020302020302020302020302020300A20202020302E3631383820202020302E3731343520202020302E303030302043202020302020302020302020302020302020302020302020302020302020302020302020300A20202020312E303331332020202D302E3030303020202020302E303030302043202020302020302020302020302020302020302020302020302020302020302020302020300A20202020302E363138382020202D302E3731343520202020302E303030302043202020302020302020302020302020302020302020302020302020302020302020302020300A20202020312E303331332020202D312E3432383920202020302E30303030204F202020302020302020302020302020302020302020302020302020302020302020302020300A20202020312E383536332020202D312E3432383920202020302E303030302043202020302020302020302020302020302020302020302020302020302020302020302020300A2020202D302E3631383720202020312E3432383920202020302E303030302043202020302020302020302020302020302020302020302020302020302020302020302020300A20202020312E3033313320202020312E3432383920202020302E303030302043202020302020302020302020302020302020302020302020302020302020302020302020300A20202020312E3835363320202020312E3432383920202020302E30303030204F202020302020302020302020302020302020302020302020302020302020302020302020300A2020202D312E3434333720202020302E3030303020202020302E303030302043202020302020302020302020302020302020302020302020302020302020302020302020300A2020202D312E383536332020202D302E3731343520202020302E30303030204F202020302020302020302020302020302020302020302020302020302020302020302020300A2020202D302E363138372020202D312E3432383920202020302E30303030204F202020302020302020302020302020302020302020302020302020302020302020302020300A2020312020322020312020302020202020200A2020322020332020322020302020202020200A2020332020342020312020302020202020200A2020342020352020322020302020202020200A2020352020362020312020302020202020200A2020312020362020322020302020202020200A2020372020382020312020302020202020200A2020362020372020312020302020202020200A2020332020392020312020302020202020200A2031302031312020322020302020202020200A2020342031302020312020302020202020200A2031322031332020322020302020202020200A2020322031322020312020302020202020200A2020312031342020312020302020202020200A4D2020454E44
Contributor: UBE SCIENTIFIC ANALYSIS LABORATORY
InstType: EI
InstName: HITACHI M-60
IoniMethod: _ENERGY 70 eV
IonPolarity: pos
Date: 2010-10-09 19:48:36+02:00
Num Peaks: 92
15 43 18 23 27 63 28 40 29 74 38 33 39 221 40 46 41 116 43 69 
44 6 50 59 51 153 52 50 53 88 55 99 61 6 62 29 63 62 64 17 
65 94 66 84 67 116 68 10 69 23 74 15 75 24 76 14 77 150 78 42 
79 56 80 9 81 21 83 6 89 24 90 35 91 41 92 19 93 32 94 77 
95 103 96 6 97 8 105 63 106 22 107 25 108 6 109 14 117 5 118 27 
119 17 120 35 121 30 122 69 123 278 124 23 133 33 134 29 135 23 136 23 
137 64 138 7 141 14 142 12 143 10 146 4 147 11 148 37 149 29 150 92 
151 159 152 16 161 5 162 16 163 11 164 20 165 178 166 444 167 48 168 5 
175 8 177 12 178 10 179 65 180 6 191 2 193 151 194 999 195 117 196 13 
219 3 315 2 
