Name: 4-TOLUIC ACID
CAS: 99-94-5
MW: 136
Formula: C8H8O2
Synonym: MassBank: JP008978
Synonym: 4-TOLUIC ACID
Structure: 342D544F4C55494320414349442E6D6F6C0A20204368656D447261773034323331303030333032440A2031302031302020302020302020302020302020302020302020302020303939392056323030300A2020202D302E363138382020202D302E3030303020202020302E303030302043202020302020302020302020302020302020302020302020302020302020302020302020300A2020202D302E3230363220202020302E3731343520202020302E303030302043202020302020302020302020302020302020302020302020302020302020302020302020300A20202020312E303331332020202D302E3030303020202020302E303030302043202020302020302020302020302020302020302020302020302020302020302020302020300A2020202D302E323036322020202D302E3731343520202020302E303030302043202020302020302020302020302020302020302020302020302020302020302020302020300A20202020302E3631383720202020302E3731343520202020302E303030302043202020302020302020302020302020302020302020302020302020302020302020302020300A20202020302E363138382020202D302E3731343520202020302E303030302043202020302020302020302020302020302020302020302020302020302020302020302020300A20202020312E383536332020202D302E3030303020202020302E303030302043202020302020302020302020302020302020302020302020302020302020302020302020300A2020202D312E343433372020202D302E3030303020202020302E303030302043202020302020302020302020302020302020302020302020302020302020302020302020300A2020202D312E383536332020202D302E3731343520202020302E30303030204F202020302020302020302020302020302020302020302020302020302020302020302020300A2020202D312E3835363320202020302E3731343520202020302E30303030204F202020302020302020302020302020302020302020302020302020302020302020302020300A2020312020322020312020302020202020200A2020312020342020322020302020202020200A2020322020352020322020302020202020200A2020332020352020312020302020202020200A2020332020362020322020302020202020200A2020342020362020312020302020202020200A2020332020372020312020302020202020200A2020312020382020312020302020202020200A2020382020392020322020302020202020200A2020382031302020312020302020202020200A4D2020454E44
Contributor: YAMAMOTO M, DEP. CHEMISTRY, FAC. SCIENCE, NARA WOMEN'S UNIV.
InstType: EI
InstName: HITACHI M-80
IoniMethod: _ENERGY 70 eV
IonPolarity: pos
Date: 2010-10-09 19:48:36+02:00
Num Peaks: 57
18 15 26 13 27 64 28 174 29 11 32 43 37 26 38 59 39 284 40 30 
41 58 43 35 44 19 45 72 45.5 39 49 13 50 99 51 136 52 33 53 36 
54 11 55 11 59 63 59.5 11 61 31 62 76 63 177 64 45 65 331 66 26 
73 8 74 26 75 21 76 15 77 69 78 14 79 22 85 11 86 19 87 16 
89 102 90 89 91 999 92 228 93 19 105 20 106 8 107 53 108 14 118 27 
119 628 120 82 121 16 135 28 136 678 137 86 138 8 
