Name: MassBank: JP002461
MW: 246
Formula: C11H18O6
Synonym: MassBank: JP002461
Synonym: (4R,5R)-4,5-BIS(ETHOXYCARBONYL)-2,2-DIMETHYL-1,3-DIOXOLANE
Synonym: DIETHYL (4R,5R)-2,2-DIMETHYL-1,3-DIOXOLANE-4,5-DICARBOXYLATE
Structure: 2834522C3552292D342C352D424953284554484F5859434152424F4E594C292D322C322D44494D455448594C2D312C332D44494F584F4C414E452E6D6F6C0A20204368656D447261773130323130393138323632440A2031392031392020302020302020302020302020302020302020302020303939392056323030300A20202020302E3432373220202020302E3438383020202020302E303030302043202020302020302020302020302020302020302020302020302020302020302020302020300A20202020312E3235323220202020302E3438383020202020302E30303030204F202020302020302020302020302020302020302020302020302020302020302020302020300A20202020312E3530373220202020312E3237323620202020302E303030302043202020302020302020302020302020302020302020302020302020302020302020302020300A20202020302E3833393720202020312E3735373520202020302E30303030204F202020302020302020302020302020302020302020302020302020302020302020302020300A20202020302E3137323320202020312E3237323620202020302E303030302043202020302020302020302020302020302020302020302020302020302020302020302020300A2020202D302E3238373320202020302E3037353520202020302E303030302048202020302020302020302020302020302020302020302020302020302020302020302020300A20202020302E343237322020202D302E3333373020202020302E303030302043202020302020302020302020302020302020302020302020302020302020302020302020300A2020202D302E3635323720202020312E3237323620202020302E303030302043202020302020302020302020302020302020302020302020302020302020302020302020300A2020202D302E3234303220202020312E3938373020202020302E303030302048202020302020302020302020302020302020302020302020302020302020302020302020300A2020202D312E3036353220202020312E3938373020202020302E30303030204F202020302020302020302020302020302020302020302020302020302020302020302020300A2020202D312E3036353220202020302E3535383120202020302E30303030204F202020302020302020302020302020302020302020302020302020302020302020302020300A2020202D312E3839303220202020302E3535383120202020302E303030302043202020302020302020302020302020302020302020302020302020302020302020302020300A2020202D322E3330323720202020312E3237323620202020302E303030302043202020302020302020302020302020302020302020302020302020302020302020302020300A2020202D302E323837332020202D302E3734393520202020302E30303030204F202020302020302020302020302020302020302020302020302020302020302020302020300A20202020312E313431372020202D302E3734393520202020302E30303030204F202020302020302020302020302020302020302020302020302020302020302020302020300A2020202D302E323837332020202D312E3537343520202020302E303030302043202020302020302020302020302020302020302020302020302020302020302020302020300A20202020302E343237322020202D312E3938373020202020302E303030302043202020302020302020302020302020302020302020302020302020302020302020302020300A20202020322E3232313620202020312E3638353620202020302E303030302043202020302020302020302020302020302020302020302020302020302020302020302020300A20202020322E3330323720202020312E3036303020202020302E303030302043202020302020302020302020302020302020302020302020302020302020302020302020300A2020312020322020312020302020202020200A2020322020332020312020302020202020200A2020332020342020312020302020202020200A2020342020352020312020302020202020200A2020352020312020312020302020202020200A2020312020362020312020362020202020200A2020312020372020312020312020202020200A2020352020382020312020362020202020200A2020352020392020312020312020202020200A2020382031302020322020302020202020200A2020382031312020312020302020202020200A2031312031322020312020302020202020200A2031322031332020312020302020202020200A2020372031342020312020302020202020200A2020372031352020322020302020202020200A2031342031362020312020302020202020200A2031362031372020312020302020202020200A2020332031382020312020362020202020200A2020332031392020312020312020202020200A4D202053545920203120202031205355500A4D2020534C4220203120202031202020310A4D202053414C20202031202031202031380A4D202053424C20202031202031202031380A4D2020534D5420202031204D650A4D2020534256202020312031382020202D362E3230303820202020382E363335330A4D202053545920203120202032205355500A4D2020534C4220203120202032202020320A4D202053414C20202032202031202031390A4D202053424C20202032202031202031390A4D2020534D5420202032204D650A4D2020534256202020322031392020202D362E3131393720202020382E303039370A4D2020454E44
Contributor: ITO S, DEPT. OF CHEM., TOHOKU UNIV.
InstType: EI
InstName: HITACHI M-52
IoniMethod: _ENERGY 13.5 eV
IonPolarity: pos
Date: 2010-10-09 19:48:36+02:00
Num Peaks: 51
40 40 42 63 43 45 44 7 45 76 46 18 54 22 56 10 57 18 58 314 
70 22 71 18 74 22 82 63 83 36 84 3 85 170 87 72 88 40 89 2 
98 63 100 49 101 22 110 5 111 201 114 103 115 197 117 4 126 27 128 54 
129 31 132 3 139 18 143 356 145 40 154 3 155 373 159 18 161 58 173 26 
174 36 175 27 187 18 188 43 227 31 228 27 229 36 231 999 232 314 233 143 
246 31 
