Name: MassBank: JP003051
MW: 193
Formula: C4H6Cl4
Synonym: MassBank: JP003051
Synonym: 1,2,3,4-TETRACHLOROBUTANE
Structure: 310A32300A312C322C332C342D544554524143484C4F524F425554414E452E6D6F6C0A20204368656D447261773130323330393132343432440A2020382020372020302020302020302020302020302020302020302020303939392056323030300A2020202D302E383235302020202D302E3335373220202020302E303030302043202020302020302020302020302020302020302020302020302020302020302020302020300A2020202D302E3431323520202020302E3335373220202020302E303030302043202020302020302020302020302020302020302020302020302020302020302020302020300A20202020302E3431323520202020302E3335373220202020302E303030302043202020302020302020302020302020302020302020302020302020302020302020302020300A20202020302E383235302020202D302E3335373220202020302E303030302043202020302020302020302020302020302020302020302020302020302020302020302020300A20202020302E343132352020202D312E3037313720202020302E3030303020436C2020302020302020302020302020302020302020302020302020302020302020302020300A20202020302E3832353020202020312E3037313720202020302E3030303020436C2020302020302020302020302020302020302020302020302020302020302020302020300A2020202D302E3832353020202020312E3037313720202020302E3030303020436C2020302020302020302020302020302020302020302020302020302020302020302020300A2020202D302E343132352020202D312E3037313720202020302E3030303020436C2020302020302020302020302020302020302020302020302020302020302020302020300A2020312020322020312020302020202020200A2020322020332020312020302020202020200A2020332020342020312020302020202020200A2020342020352020312020302020202020200A2020332020362020312020302020202020200A2020322020372020312020302020202020200A2020312020382020312020302020202020200A4D2020454E44
Contributor: SASAKI S, TOYOHASHI UNIV. OF TECH.
InstType: EI
InstName: Unknown
IoniMethod: EI
IonPolarity: pos
Date: 2010-10-09 19:48:36+02:00
Num Peaks: 92
24 2 25 15 26 163 27 44 28 124 29 50 35 39 36 8 37 54 38 78 
39 279 40 1 41 40 42 14 43 37 44 5 45 13 46 3 47 63 48 4 
49 334 50 161 51 431 52 5 53 279 54 64 55 32 59 3 60 32 61 333 
62 662 63 16 64 210 65 19 73 61 74 1 75 403 76 22 77 151 78 1 
79 23 83 403 84 14 85 30 86 13 87 344 88 97 89 23 90 42 91 48 
92 4 93 1 95 11 96 129 97 220 98 9 99 140 100 15 101 21 109 999 
110 54 111 645 112 29 113 11 114 5 121 21 122 161 123 80 124 183 125 506 
126 75 127 9 128 10 143 13 144 3 145 3 146 3 147 17 148 1 149 0 
157 32 158 280 159 32 160 3 161 21 162 78 163 4 164 1 192 5 194 6 
196 2 198 1 
