Name: MassBank: JP004910
CAS: 107-06-2
MW: 97
Formula: C2H4Cl2
Synonym: MassBank: JP004910
Synonym: 1,2-DICHLOROETHANE
Structure: 310A31320A312C322D444943484C4F524F455448414E452E6D6F6C0A20204368656D447261773131303330393233313032440A2020342020332020302020302020302020302020302020302020302020303939392056323030300A2020202D302E333537322020202D302E3230363320202020302E303030302043202020302020302020302020302020302020302020302020302020302020302020302020300A20202020302E3335373220202020302E3230363320202020302E303030302043202020302020302020302020302020302020302020302020302020302020302020302020300A20202020312E303731372020202D302E3230363220202020302E3030303020436C2020302020302020302020302020302020302020302020302020302020302020302020300A2020202D312E3037313720202020302E3230363320202020302E3030303020436C2020302020302020302020302020302020302020302020302020302020302020302020300A2020312020322020312020302020202020200A2020322020332020312020302020202020200A2020312020342020312020302020202020200A4D2020454E44
Contributor: MASS SPECTROSCOPY SOC. OF JAPAN (MSSJ)
InstType: EI
InstName: JEOL JMS-D-3000
IoniMethod: _ENERGY 70 eV
IonPolarity: pos
Date: 2010-10-09 19:48:36+02:00
Num Peaks: 27
42 51 43 612 44 28 45 300 46 16 47 20 48 32 49 627 50 19 51 212 
57 12 58 279 59 419 60 44 61 208 62 999 63 354 64 348 65 101 73 23 
74 250 75 13 97 14 98 293 99 13 100 191 102 31 
