Name: DEOXYSERICEALACTONE
MW: 276
Formula: C16H20O4
Synonym: MassBank: JP003661
Synonym: DEOXYSERICEALACTONE
Structure: 44454F5859534552494345414C4143544F4E452E6D6F6C0A20204368656D447261773039323131303039313332440A2032302032312020302020302020302020302020302020302020302020303939392056323030300A2020202D302E3733383920202020302E3637343020202020302E303030302043202020302020302020302020302020302020302020302020302020302020302020302020300A2020202D302E373338392020202D302E3135313020202020302E303030302043202020302020302020302020302020302020302020302020302020302020302020302020300A2020202D302E303234342020202D302E3536333520202020302E303030302043202020302020302020302020302020302020302020302020302020302020302020302020300A20202020302E363930302020202D302E3135313020202020302E303030302043202020302020302020302020302020302020302020302020302020302020302020302020300A20202020302E3639303020202020302E3637343020202020302E303030302043202020302020302020302020302020302020302020302020302020302020302020302020300A2020202D302E3032343420202020312E3038363520202020302E303030302043202020302020302020302020302020302020302020302020302020302020302020302020300A2020202D312E3532333520202020302E3932393020202020302E30303030204F202020302020302020302020302020302020302020302020302020302020302020302020300A2020202D322E3030383420202020302E3236313520202020302E303030302043202020302020302020302020302020302020302020302020302020302020302020302020300A2020202D312E353233352020202D302E3430353920202020302E303030302043202020302020302020302020302020302020302020302020302020302020302020302020300A2020202D322E3833333420202020302E3236313520202020302E30303030204F202020302020302020302020302020302020302020302020302020302020302020302020300A2020202D312E373738352020202D312E3139303520202020302E303030302043202020302020302020302020302020302020302020302020302020302020302020302020300A20202020312E3130323520202020312E3338383520202020302E303030302043202020302020302020302020302020302020302020302020302020302020302020302020300A20202020312E3531353020202020302E3637343020202020302E303030302043202020302020302020302020302020302020302020302020302020302020302020302020300A20202020312E343034352020202D302E3536333520202020302E303030302043202020302020302020302020302020302020302020302020302020302020302020302020300A20202020312E343034352020202D312E3338383520202020302E303030302043202020302020302020302020302020302020302020302020302020302020302020302020300A20202020322E313139302020202D302E3135313020202020302E303030302043202020302020302020302020302020302020302020302020302020302020302020302020300A20202020322E3131393020202020302E3637343020202020302E30303030204F202020302020302020302020302020302020302020302020302020302020302020302020300A20202020322E383333342020202D302E3536333520202020302E30303030204F202020302020302020302020302020302020302020302020302020302020302020302020300A20202020322E383333342020202D312E3338383520202020302E303030302043202020302020302020302020302020302020302020302020302020302020302020302020300A20202020312E3932373520202020312E3338383520202020302E303030302043202020302020302020302020302020302020302020302020302020302020302020302020300A2020312020322020312020302020202020200A2020322020332020312020302020202020200A2020332020342020312020302020202020200A2020342020352020312020302020202020200A2020352020362020312020302020202020200A2020362020312020312020302020202020200A2020312020372020312020302020202020200A2020372020382020312020302020202020200A2020382020392020312020302020202020200A2020392020322020322020302020202020200A2020382031302020322020302020202020200A2020392031312020312020302020202020200A2020352031322020312020302020202020200A2020352031332020312020302020202020200A2020342031342020312020302020202020200A2031342031352020322020302020202020200A2031342031362020312020302020202020200A2031362031372020322020302020202020200A2031362031382020312020302020202020200A2031382031392020312020302020202020200A2031322032302020322020302020202020200A4D2020454E44
Contributor: SASAKI S, TOYOHASHI UNIV. OF TECH.
InstType: EI
InstName: Unknown
IoniMethod: EI
IonPolarity: pos
Date: 2010-10-09 19:48:36+02:00
Num Peaks: 211
15 128 17 26 18 93 26 3 27 346 28 280 29 280 30 2 31 151 32 62 
39 493 40 11 41 728 42 88 43 999 44 8 45 142 50 49 51 195 52 11 
53 595 54 137 55 431 56 6 57 124 58 115 59 364 60 2 61 8 62 13 
63 93 64 1 65 311 66 93 67 377 68 23 69 364 70 62 71 195 72 3 
73 31 74 53 75 31 76 2 77 535 78 142 79 413 80 11 81 377 82 200 
83 155 84 7 85 111 86 26 87 57 88 1 89 40 90 13 91 866 92 2 
93 493 94 124 95 364 96 11 97 128 98 57 99 88 100 2 101 22 102 22 
103 97 104 5 105 431 106 106 107 346 108 14 109 284 110 208 111 115 112 9 
113 62 114 22 115 124 116 5 117 115 118 53 119 360 120 33 121 488 122 133 
123 177 124 9 125 84 126 53 127 57 128 9 129 88 130 35 131 137 132 8 
133 213 134 88 135 186 136 9 137 120 138 44 139 44 140 3 141 44 142 35 
143 80 144 4 145 124 146 48 147 220 148 29 149 260 150 75 151 120 152 8 
153 62 154 22 155 31 156 2 157 53 158 31 159 160 160 8 161 155 162 88 
163 111 164 13 165 120 166 44 167 31 168 1 169 22 170 17 171 80 172 3 
173 80 174 40 175 120 176 4 177 213 178 49 179 155 180 4 181 22 183 22 
185 31 186 2 187 71 188 53 189 97 190 4 191 44 192 31 193 57 194 1 
195 13 196 4 197 13 198 3 199 88 200 31 201 53 202 1 203 80 204 44 
205 35 206 2 207 26 208 48 209 26 214 3 215 44 216 97 217 88 218 0 
219 26 220 35 221 22 222 1 223 17 224 13 225 13 226 1 227 13 228 13 
229 13 230 1 231 13 232 13 233 31 243 1 244 120 245 66 246 40 247 2 
248 13 262 35 263 8 268 2 269 13 270 4 272 13 274 2 275 8 276 112 
277 22 
