Name: 1-ISOPROPYL-2-PROPYLHYDRAZINE
MW: 116
Formula: C6H16N2
Synonym: MassBank: JP000400
Synonym: 1-ISOPROPYL-2-PROPYLHYDRAZINE
Structure: 310A32300A312D49534F50524F50594C2D322D50524F50594C48594452415A494E452E6D6F6C0A20204368656D447261773131313930393135353632440A2020382020372020302020302020302020302020302020302020302020303939392056323030300A20202020302E363138382020202D302E3731343520202020302E30303030204E202020302020302020302020302020302020302020302020302020302020302020302020300A2020202D302E323036322020202D302E3731343520202020302E30303030204E202020302020302020302020302020302020302020302020302020302020302020302020300A2020202D302E3631383820202020302E3030303020202020302E303030302043202020302020302020302020302020302020302020302020302020302020302020302020300A2020202D312E3434333720202020302E3030303020202020302E303030302043202020302020302020302020302020302020302020302020302020302020302020302020300A2020202D312E3835363320202020302E3731343520202020302E303030302043202020302020302020302020302020302020302020302020302020302020302020302020300A20202020312E3033313320202020302E3030303020202020302E303030302043202020302020302020302020302020302020302020302020302020302020302020302020300A20202020302E3631383820202020302E3731343520202020302E303030302043202020302020302020302020302020302020302020302020302020302020302020302020300A20202020312E3835363320202020302E3030303020202020302E303030302043202020302020302020302020302020302020302020302020302020302020302020302020300A2020312020322020312020302020202020200A2020332020342020312020302020202020200A2020342020352020312020302020202020200A2020322020332020312020302020202020200A2020362020372020312020302020202020200A2020362020382020312020302020202020200A2020312020362020312020302020202020200A4D2020454E44
Contributor: SASAKI S, TOYOHASHI UNIV. OF TECH.
InstType: EI
InstName: SHIMADZU LKB-2091
IoniMethod: _ENERGY 70 eV
IonPolarity: pos
Date: 2010-10-09 19:48:36+02:00
Num Peaks: 35
26 24 27 297 28 216 29 12 30 432 31 621 32 92 39 11 40 30 41 405 
42 203 43 73 44 297 45 999 46 40 54 3 55 10 56 103 57 54 58 60 
59 119 60 14 71 36 72 4 73 433 74 43 85 10 87 68 88 46 99 20 
101 621 102 5 115 15 116 759 117 89 
