Name: MassBank: JP002679
MW: 361
Formula: C18H43NO2Si2
Synonym: MassBank: JP002679
Synonym: 1,3-DI-O-TRIMETHYLSILYL DODECASPHINGANINE
Structure: 312C332D44492D4F2D5452494D455448594C53494C594C20444F44454341535048494E47414E494E452E6D6F6C0A20204368656D447261773131313130393231303432440A2032352032342020302020302020302020302020302020302020302020303939392056323030300A2020202D322E3632363020202020302E3833393820202020302E303030302053692020302020302020302020302020302020302020302020302020302020302020302020300A2020202D322E3632363020202020302E3031343820202020302E30303030204F202020302020302020302020302020302020302020302020302020302020302020302020300A2020202D322E3632363020202020312E3636343820202020302E303030302043202020302020302020302020302020302020302020302020302020302020302020302020300A2020202D312E3830313020202020302E3833393820202020302E303030302043202020302020302020302020302020302020302020302020302020302020302020302020300A2020202D332E3435313020202020302E3833393820202020302E303030302043202020302020302020302020302020302020302020302020302020302020302020302020300A2020202D312E393131352020202D302E3339373720202020302E303030302043202020302020302020302020302020302020302020302020302020302020302020302020300A2020202D312E313937302020202D302E3831303220202020302E303030302043202020302020302020302020302020302020302020302020302020302020302020302020300A2020202D312E3439393020202020302E3331363820202020302E303030302043202020302020302020302020302020302020302020302020302020302020302020302020300A2020202D322E333234302020202D312E3131323220202020302E303030302048202020302020302020302020302020302020302020302020302020302020302020302020300A2020202D302E343832362020202D312E3232323720202020302E303030302043202020302020302020302020302020302020302020302020302020302020302020302020300A2020202D302E373834352020202D302E3039353720202020302E303030302048202020302020302020302020302020302020302020302020302020302020302020302020300A2020202D312E363039352020202D312E3532343720202020302E30303030204E202020302020302020302020302020302020302020302020302020302020302020302020300A2020202D302E3637343020202020302E3331363820202020302E303030302043202020302020302020302020302020302020302020302020302020302020302020302020300A2020202D302E3236313520202020312E3033313320202020302E303030302043202020302020302020302020302020302020302020302020302020302020302020302020300A20202020302E3536333520202020312E3033313320202020302E303030302043202020302020302020302020302020302020302020302020302020302020302020302020300A20202020302E3937363020202020312E3734353720202020302E303030302043202020302020302020302020302020302020302020302020302020302020302020302020300A20202020312E3830313020202020312E3734353720202020302E303030302043202020302020302020302020302020302020302020302020302020302020302020302020300A20202020322E3231333520202020322E3436303220202020302E303030302043202020302020302020302020302020302020302020302020302020302020302020302020300A20202020332E3033383520202020322E3436303220202020302E303030302043202020302020302020302020302020302020302020302020302020302020302020302020300A20202020332E3435313020202020332E3137343720202020302E303030302043202020302020302020302020302020302020302020302020302020302020302020302020300A2020202D302E343832362020202D322E3034373720202020302E30303030204F202020302020302020302020302020302020302020302020302020302020302020302020300A20202020302E323331392020202D322E3436303220202020302E303030302053692020302020302020302020302020302020302020302020302020302020302020302020300A20202020302E393436342020202D322E3837323720202020302E303030302043202020302020302020302020302020302020302020302020302020302020302020302020300A20202020302E363434342020202D312E3734353720202020302E303030302043202020302020302020302020302020302020302020302020302020302020302020302020300A2020202D302E313830362020202D332E3137343720202020302E303030302043202020302020302020302020302020302020302020302020302020302020302020302020300A2020312020322020312020302020202020200A2020312020332020312020302020202020200A2020312020342020312020302020202020200A2020312020352020312020302020202020200A2020322020362020312020302020202020200A2020362020372020312020302020202020200A2020362020382020312020312020202020200A2020362020392020312020312020202020200A2020372031302020312020302020202020200A2020372031312020312020312020202020200A2020372031322020312020312020202020200A2020382031332020312020302020202020200A2031332031342020312020302020202020200A2031342031352020312020302020202020200A2031352031362020312020302020202020200A2031362031372020312020302020202020200A2031372031382020312020302020202020200A2031382031392020312020302020202020200A2031392032302020312020302020202020200A2031302032312020312020302020202020200A2032312032322020312020302020202020200A2032322032332020312020302020202020200A2032322032342020312020312020202020200A2032322032352020312020312020202020200A4D2020454E44
Contributor: HAYASHI A, DEPT. OF CHEMISTRY, FAC. OF SCI. AND TECHNOLOGY, KINKI UNIV.
InstType: EI
InstName: SHIMADZU LKB-9000B
IoniMethod: _ENERGY 70 eV
IonPolarity: pos
Date: 2010-10-09 19:48:36+02:00
Num Peaks: 128
41 48 42 17 43 54 44 16 45 44 46 4 47 17 48 0 53 5 54 11 
55 43 56 4 57 27 58 9 59 32 60 1 61 13 66 2 67 19 68 2 
69 41 70 23 71 13 72 1 73 491 74 78 75 186 76 2 77 10 79 5 
80 3 81 2 82 16 83 25 84 10 85 1 86 8 87 1 88 13 89 1 
90 4 91 8 93 6 94 0 95 16 96 9 97 22 98 1 99 6 100 16 
101 18 102 2 103 58 104 8 105 5 107 0 108 3 109 7 110 7 111 0 
112 6 113 4 114 7 115 3 116 214 117 25 118 11 119 0 126 3 128 15 
129 48 130 2 131 73 132 999 133 126 134 4 135 6 138 3 141 4 142 1 
143 9 144 13 145 5 147 4 148 10 149 9 155 3 156 1 157 3 158 13 
159 4 168 2 169 3 171 3 177 3 182 1 185 4 191 3 204 3 206 0 
207 3 213 5 217 11 218 1 219 5 226 4 227 3 228 0 230 16 231 5 
233 2 234 1 242 23 243 4 256 30 257 1 258 284 259 63 260 16 270 0 
281 1 284 11 285 3 317 12 318 3 346 10 347 3 229 73 
