Name: 2-METHYLFURAN
CAS: 534-22-5
MW: 82
Formula: C5H6O
Synonym: MassBank: JP009072
Synonym: 2-METHYLFURAN
Structure: 310A31370A322D4D455448594C465552414E2E6D6F6C0A20204368656D447261773031323231303037353432440A2020362020362020302020302020302020302020302020302020302020303939392056323030300A2020202D302E363637342020202D302E3236323720202020302E30303030204F202020302020302020302020302020302020302020302020302020302020302020302020300A20202020302E3030303020202020302E3232323320202020302E303030302043202020302020302020302020302020302020302020302020302020302020302020302020300A20202020302E363637342020202D302E3236323720202020302E303030302043202020302020302020302020302020302020302020302020302020302020302020302020300A20202020302E343132352020202D312E3034373320202020302E303030302043202020302020302020302020302020302020302020302020302020302020302020302020300A2020202D302E343132352020202D312E3034373320202020302E303030302043202020302020302020302020302020302020302020302020302020302020302020302020300A20202020302E3030303020202020312E3034373320202020302E303030302043202020302020302020302020302020302020302020302020302020302020302020302020300A2020312020322020312020302020202020200A2020322020332020322020302020202020200A2020332020342020312020302020202020200A2020342020352020322020302020202020200A2020312020352020312020302020202020200A2020322020362020312020302020202020200A4D2020454E44
Contributor: SODA AROMATIC CO., LTD.
InstType: EI
InstName: HITACHI M-80B
IoniMethod: _ENERGY 70 eV
IonPolarity: pos
Date: 2010-10-09 19:48:36+02:00
Num Peaks: 24
14 15 15 33 26 82 27 300 28 34 29 93 37 56 38 82 39 468 40 14 
41 28 42 29 43 105 49 39 50 168 51 169 52 91 53 721 54 155 55 34 
80 11 81 561 82 999 83 61 
