Name: HYPOXANTHINE
CAS: 68-94-0
MW: 136
Formula: C5H4N4O
Synonym: MassBank: JP009501
Synonym: HYPOXANTHINE
Structure: 4859504F58414E5448494E452E6D6F6C0A20204368656D447261773038313131303230343932440A2031302031312020302020302020302020302020302020302020302020303939392056323030300A20202020302E3836343320202020302E3235343920202020302E30303030204E202020302020302020302020302020302020302020302020302020302020302020302020300A20202020312E333439322020202D302E3431323520202020302E303030302043202020302020302020302020302020302020302020302020302020302020302020302020300A20202020302E383634332020202D312E3037393920202020302E30303030204E202020302020302020302020302020302020302020302020302020302020302020302020300A20202020302E303739372020202D302E3832353020202020302E303030302043202020302020302020302020302020302020302020302020302020302020302020302020300A2020202D302E363334382020202D312E3233373520202020302E30303030204E202020302020302020302020302020302020302020302020302020302020302020302020300A2020202D312E333439322020202D302E3832353020202020302E303030302043202020302020302020302020302020302020302020302020302020302020302020302020300A2020202D312E3334393220202020302E3030303020202020302E30303030204E202020302020302020302020302020302020302020302020302020302020302020302020300A2020202D302E3633343820202020302E3431323520202020302E303030302043202020302020302020302020302020302020302020302020302020302020302020302020300A2020202D302E3633343820202020312E3233373520202020302E30303030204F202020302020302020302020302020302020302020302020302020302020302020302020300A20202020302E3037393720202020302E3030303020202020302E303030302043202020302020302020302020302020302020302020302020302020302020302020302020300A2020312020322020312020302020202020200A2020322020332020322020302020202020200A2020332020342020312020302020202020200A2020342020352020312020302020202020200A2020352020362020322020302020202020200A2020362020372020312020302020202020200A2020372020382020322020302020202020200A2020382020392020312020302020202020200A2020382031302020312020302020202020200A2020312031302020312020302020202020200A2020342031302020322020302020202020200A4D2020454E44
Contributor: NARA WOMEN'S UNIVERSITY
InstType: EI
InstName: HITACHI M-80
IoniMethod: _ENERGY 70 eV
IonPolarity: pos
Date: 2010-10-09 19:48:36+02:00
Num Peaks: 22
18 11 27 64 28 388 29 53 38 47 39 46 43 17 52 13 53 140 54 251 
55 26 65 17 66 35 67 10 80 31 81 103 82 38 108 58 109 50 135 52 
136 999 137 77 
