Name: 4-TRIMETHYLSILYLMETHYL-3-CYCLOHEXENEC-1-ARBALDEHYDE
CAS: 74043-11-1
MW: 196
Formula: C11H20OSi
Synonym: MassBank: JP004764
Synonym: 4-TRIMETHYLSILYLMETHYL-3-CYCLOHEXENEC-1-ARBALDEHYDE
Structure: 342D5452494D455448594C53494C594C4D455448594C2D332D4359434C4F484558454E45432D312D415242414C4445485944452E6D6F6C0A20204368656D447261773034323331303030333132440A2031332031332020302020302020302020302020302020302020302020303939392056323030300A2020202D302E353633352020202D312E3037313720202020302E303030302043202020302020302020302020302020302020302020302020302020302020302020302020300A20202020302E323631352020202D312E3037313720202020302E303030302043202020302020302020302020302020302020302020302020302020302020302020302020300A20202020302E363734302020202D302E3335373220202020302E303030302043202020302020302020302020302020302020302020302020302020302020302020302020300A20202020302E3236313520202020302E3335373220202020302E303030302043202020302020302020302020302020302020302020302020302020302020302020302020300A2020202D302E3536333520202020302E3335373220202020302E303030302043202020302020302020302020302020302020302020302020302020302020302020302020300A2020202D302E393736302020202D302E3335373220202020302E303030302043202020302020302020302020302020302020302020302020302020302020302020302020300A2020202D302E393736302020202D312E3738363220202020302E303030302043202020302020302020302020302020302020302020302020302020302020302020302020300A2020202D302E353633352020202D322E3530303620202020302E30303030204F202020302020302020302020302020302020302020302020302020302020302020302020300A20202020302E3637343020202020312E3037313720202020302E303030302043202020302020302020302020302020302020302020302020302020302020302020302020300A20202020302E3236313520202020312E3738363220202020302E303030302053692020302020302020302020302020302020302020302020302020302020302020302020300A20202020302E3937363020202020322E3139383720202020302E303030302043202020302020302020302020302020302020302020302020302020302020302020302020300A2020202D302E3135313020202020322E3530303620202020302E303030302043202020302020302020302020302020302020302020302020302020302020302020302020300A2020202D302E3435333020202020312E3337333720202020302E303030302043202020302020302020302020302020302020302020302020302020302020302020302020300A2020312020322020312020302020202020200A2020322020332020312020302020202020200A2020332020342020322020302020202020200A2020342020352020312020302020202020200A2020352020362020312020302020202020200A2020312020362020312020302020202020200A2020372020382020322020302020202020200A2020312020372020312020302020202020200A2031302031312020312020312020202020200A2031302031322020312020302020202020200A2031302031332020312020312020202020200A2020392031302020312020302020202020200A2020342020392020312020302020202020200A4D2020454E44
Contributor: MASS SPECTROSCOPY SOC. OF JAPAN (MSSJ)
InstType: EI
InstName: JEOL JMS-D-3000
IoniMethod: _ENERGY 70 eV
IonPolarity: pos
Date: 2010-10-09 19:48:36+02:00
Num Peaks: 30
41 21 43 42 45 101 53 14 55 11 57 11 59 69 65 11 72 13 73 999 
74 87 75 129 77 31 78 50 79 26 80 28 91 59 92 16 93 30 103 103 
104 12 105 19 106 103 107 14 129 368 130 44 131 16 151 22 181 23 196 37 
