Name: DOXYLAMINE
MW: 270
Formula: C17H22N2O
Synonym: MassBank: JP003077
Synonym: DOXYLAMINE
Structure: 303536305F444F58594C414D494E452E6D6F6C0A20204368656D447261773039303631303138333932440A2032302032312020302020302020302020302020302020302020302020303939392056323030300A20202020302E333731342020202D302E3234363420202020302E303030302043202020302020302020302020302020302020302020302020302020302020302020302020300A2020202D302E3033393820202020302E3436373520202020302E30303030204F202020302020302020302020302020302020302020302020302020302020302020302020300A20202020302E373833392020202D302E3936303920202020302E303030302043202020302020302020302020302020302020302020302020302020302020302020302020300A2020202D302E333433312020202D302E3635383920202020302E303030302043202020302020302020302020302020302020302020302020302020302020302020302020300A2020202D312E303537352020202D302E3234363420202020302E303030302043202020302020302020302020302020302020302020302020302020302020302020302020300A2020202D312E373732302020202D302E3635383920202020302E303030302043202020302020302020302020302020302020302020302020302020302020302020302020300A2020202D312E373732302020202D312E3438333920202020302E303030302043202020302020302020302020302020302020302020302020302020302020302020302020300A2020202D312E303537352020202D312E3839363420202020302E303030302043202020302020302020302020302020302020302020302020302020302020302020302020300A2020202D302E333433312020202D312E3438333920202020302E303030302043202020302020302020302020302020302020302020302020302020302020302020302020300A20202020312E3038353920202020302E3136363120202020302E303030302043202020302020302020302020302020302020302020302020302020302020302020302020300A20202020312E383030342020202D302E3234363420202020302E303030302043202020302020302020302020302020302020302020302020302020302020302020302020300A20202020322E3531343820202020302E3136363120202020302E303030302043202020302020302020302020302020302020302020302020302020302020302020302020300A20202020322E3531343820202020302E3939313120202020302E303030302043202020302020302020302020302020302020302020302020302020302020302020302020300A20202020312E3830303420202020312E3430333620202020302E303030302043202020302020302020302020302020302020302020302020302020302020302020302020300A20202020312E3038353920202020302E3939313120202020302E303030302043202020302020302020302020302020302020302020302020302020302020302020302020300A2020202D322E3531343820202020312E3839363420202020302E303030302043202020302020302020302020302020302020302020302020302020302020302020302020300A2020202D322E3130323320202020312E3138323020202020302E30303030204E202020302020302020302020302020302020302020302020302020302020302020302020300A2020202D312E3237373320202020312E3138323020202020302E303030302043202020302020302020302020302020302020302020302020302020302020302020302020300A2020202D302E3836343820202020302E3436373520202020302E303030302043202020302020302020302020302020302020302020302020302020302020302020302020300A2020202D322E3531343820202020302E3436373520202020302E303030302043202020302020302020302020302020302020302020302020302020302020302020302020300A2020342020312020312020302020202020200A2020312020322020312020302020202020200A2020312031302020312020302020202020200A2020312020332020312020302020202020200A2020342020352020322020302020202020200A2020352020362020312020302020202020200A2020362020372020322020302020202020200A2020372020382020312020302020202020200A2020382020392020322020302020202020200A2020342020392020312020302020202020200A2031302031312020322020302020202020200A2031312031322020312020302020202020200A2031322031332020322020302020202020200A2031332031342020312020302020202020200A2031342031352020322020302020202020200A2031302031352020312020302020202020200A2020322031392020312020302020202020200A2031362031372020312020302020202020200A2031372031382020312020302020202020200A2031382031392020312020302020202020200A2031372032302020312020302020202020200A4D2020454E44
Contributor: SASAKI S, TOYOHASHI UNIV. OF TECH.
InstType: EI
InstName: Unknown
IoniMethod: EI
IonPolarity: pos
Date: 2010-10-09 19:48:36+02:00
Num Peaks: 69
39 19 40 4 41 19 42 5 43 29 44 39 45 39 46 0 50 9 51 19 
52 9 53 0 54 4 55 9 56 34 57 4 58 999 59 39 60 4 70 1 
71 499 72 59 73 99 74 1 75 9 76 9 77 29 78 3 79 19 80 4 
85 9 86 1 87 4 88 24 89 9 90 1 91 14 92 4 103 4 104 0 
105 9 106 14 107 4 139 0 140 9 141 4 151 4 152 2 153 9 154 4 
164 9 165 4 166 24 167 99 168 29 169 0 177 4 178 9 179 9 180 13 
181 54 182 64 183 39 184 1 185 4 208 9 209 4 210 1 211 4 
