Name: 4-NITROPHENOL
CAS: 100-02-7
MW: 139
Formula: C6H5NO3
Synonym: MassBank: JP008237
Synonym: 4-NITROPHENOL
Synonym: 4-HYDROXYNITROBENZENE
Structure: 342D4E4954524F5048454E4F4C2E6D6F6C0A20204368656D447261773034323031303130353332440A2031302031302020302020302020302020302020302020302020302020303939392056323030300A20202020302E303030302020202D312E3033313320202020302E303030302043202020302020302020302020302020302020302020302020302020302020302020302020300A2020202D302E373134352020202D302E3631383820202020302E303030302043202020302020302020302020302020302020302020302020302020302020302020302020300A2020202D302E3731343520202020302E3230363220202020302E303030302043202020302020302020302020302020302020302020302020302020302020302020302020300A20202020302E3030303020202020302E3631383820202020302E303030302043202020302020302020302020302020302020302020302020302020302020302020302020300A20202020302E3731343520202020302E3230363220202020302E303030302043202020302020302020302020302020302020302020302020302020302020302020302020300A20202020302E373134352020202D302E3631383820202020302E303030302043202020302020302020302020302020302020302020302020302020302020302020302020300A20202020302E3030303020202020312E3434333720202020302E30303030204E202020302020332020302020302020302020302020302020302020302020302020302020300A20202020302E3731343520202020312E3835363220202020302E30303030204F202020302020302020302020302020302020302020302020302020302020302020302020300A2020202D302E3731343520202020312E3835363320202020302E30303030204F202020302020352020302020302020302020302020302020302020302020302020302020300A20202020302E303030302020202D312E3835363320202020302E30303030204F202020302020302020302020302020302020302020302020302020302020302020302020300A2020312020322020312020302020202020200A2020322020332020322020302020202020200A2020332020342020312020302020202020200A2020342020352020322020302020202020200A2020352020362020312020302020202020200A2020312020362020322020302020202020200A2020372020382020322020302020202020200A2020372020392020312020302020202020200A2020342020372020312020302020202020200A2020312031302020312020302020202020200A4D202043484720203220202037202020312020203920202D310A4D2020454E44
Contributor: UBE SCIENTIFIC ANALYSIS LABORATORY
InstType: EI
InstName: HITACHI M-60
IoniMethod: _ENERGY 70 eV
IonPolarity: pos
Date: 2010-10-09 19:48:36+02:00
Num Peaks: 21
30 77 38 120 39 615 43 11 44 36 45 38 50 39 51 37 52 35 53 169 
62 74 63 168 64 75 65 703 66 46 81 208 93 242 109 315 123 55 139 999 
140 56 
