Name: GEIPARVARIN
MW: 326
Formula: C19H18O5
Synonym: MassBank: JP009764
Synonym: GEIPARVARIN
Structure: 303738335F474549504152564152494E2E6D6F6C0A20204368656D447261773130323031303134353332440A2032342032362020302020302020302020302020302020302020302020303939392056323030300A20202020302E393836362020202D302E3436303420202020302E303030302043202020302020302020302020302020302020302020302020302020302020302020302020300A20202020302E393836362020202D312E3238353420202020302E303030302043202020302020302020302020302020302020302020302020302020302020302020302020300A20202020312E373031302020202D312E3639373920202020302E303030302043202020302020302020302020302020302020302020302020302020302020302020302020300A20202020322E343135352020202D312E3238353420202020302E303030302043202020302020302020302020302020302020302020302020302020302020302020302020300A20202020322E343135352020202D302E3436303420202020302E303030302043202020302020302020302020302020302020302020302020302020302020302020302020300A20202020312E373031302020202D302E3034373920202020302E303030302043202020302020302020302020302020302020302020302020302020302020302020302020300A20202020332E313330302020202D312E3639373920202020302E303030302043202020302020302020302020302020302020302020302020302020302020302020302020300A20202020332E383434342020202D312E3238353420202020302E303030302043202020302020302020302020302020302020302020302020302020302020302020302020300A20202020332E383434352020202D302E3436303420202020302E303030302043202020302020302020302020302020302020302020302020302020302020302020302020300A20202020332E313330332020202D302E3034373920202020302E30303030204F202020302020302020302020302020302020302020302020302020302020302020302020300A20202020342E353538392020202D302E3034373920202020302E30303030204F202020302020302020302020302020302020302020302020302020302020302020302020300A20202020302E323732312020202D302E3034373920202020302E30303030204F202020302020302020302020302020302020302020302020302020302020302020302020300A2020202D302E343432342020202D302E3436303420202020302E303030302043202020302020302020302020302020302020302020302020302020302020302020302020300A2020202D312E313536392020202D302E3034373920202020302E303030302043202020302020302020302020302020302020302020302020302020302020302020302020300A2020202D312E383731332020202D302E3436303420202020302E303030302043202020302020302020302020302020302020302020302020302020302020302020302020300A2020202D322E353835382020202D302E3034373920202020302E303030302043202020302020302020302020302020302020302020302020302020302020302020302020300A2020202D312E383731332020202D312E3238353420202020302E303030302043202020302020302020302020302020302020302020302020302020302020302020302020300A2020202D322E3637323020202020302E3737323620202020302E303030302043202020302020302020302020302020302020302020302020302020302020302020302020300A2020202D332E3437393020202020302E3934343220202020302E303030302043202020302020302020302020302020302020302020302020302020302020302020302020300A2020202D332E3839313520202020302E3232393720202020302E303030302043202020302020302020302020302020302020302020302020302020302020302020302020300A2020202D332E333339322020202D302E3338333520202020302E30303030204F202020302020302020302020302020302020302020302020302020302020302020302020300A2020202D332E3831343520202020312E3639373920202020302E30303030204F202020302020302020302020302020302020302020302020302020302020302020302020300A2020202D342E343433352020202D302E3338333420202020302E303030302043202020302020302020302020302020302020302020302020302020302020302020302020300A2020202D342E3535383920202020302E3731343620202020302E303030302043202020302020302020302020302020302020302020302020302020302020302020302020300A2020312020322020322020302020202020200A2020322020332020312020302020202020200A2020332020342020322020302020202020200A2020342020352020312020302020202020200A2020352020362020322020302020202020200A2020362020312020312020302020202020200A2020342020372020312020302020202020200A2020372020382020322020302020202020200A2020382020392020312020302020202020200A2020392031302020312020302020202020200A2031302020352020312020302020202020200A2020392031312020322020302020202020200A2020312031322020312020302020202020200A2031322031332020312020302020202020200A2031332031342020312020302020202020200A2031342031352020322020302020202020200A2031352031362020312020302020202020200A2031352031372020312020302020202020200A2031362031382020322020302020202020200A2031382031392020312020302020202020200A2031392032302020312020302020202020200A2032302032312020312020302020202020200A2032312031362020312020302020202020200A2031392032322020322020302020202020200A2032302032332020312020302020202020200A2032302032342020312020302020202020200A4D2020454E44
Contributor: HISAHIRO HAGIWARA, CHEMICAL RESEARCH INSTITUTE OF NON-AQUEOUSSOLUTIONS TOHOKU UNIV.
InstType: EI
InstName: JEOL JMS-DX-300
IoniMethod: _ENERGY 70 eV
IonPolarity: pos
Date: 2010-10-09 19:48:36+02:00
Num Peaks: 14
41 356 43 155 51 116 67 125 69 999 77 267 78 130 79 146 109 272 134 155 
137 215 162 203 165 593 326 178 
