Name: ACETOPHENAZINE
MW: 411
Formula: C23H29N3O2S
Synonym: MassBank: JP003081
Synonym: ACETOPHENAZINE
Structure: 414345544F5048454E415A494E452E6D6F6C0A20204368656D447261773036323431303138323132440A2032392033322020302020302020302020302020302020302020302020303939392056323030300A20202020302E3030303020202020322E3838373520202020302E303030302043202020302020302020302020302020302020302020302020302020302020302020302020300A20202020302E3030303020202020322E3036323520202020302E303030302043202020302020302020302020302020302020302020302020302020302020302020302020300A20202020302E3731343520202020312E3635303020202020302E30303030204E202020302020302020302020302020302020302020302020302020302020302020302020300A20202020312E3432383920202020322E3036323520202020302E303030302043202020302020302020302020302020302020302020302020302020302020302020302020300A20202020312E3432383920202020322E3838373520202020302E303030302043202020302020302020302020302020302020302020302020302020302020302020302020300A20202020302E3731343520202020332E3330303020202020302E303030302053202020302020302020302020302020302020302020302020302020302020302020302020300A2020202D302E3731343520202020332E3330303020202020302E303030302043202020302020302020302020302020302020302020302020302020302020302020302020300A2020202D312E3432383920202020322E3838373520202020302E303030302043202020302020302020302020302020302020302020302020302020302020302020302020300A2020202D312E3432383920202020322E3036323520202020302E303030302043202020302020302020302020302020302020302020302020302020302020302020302020300A2020202D302E3731343520202020312E3635303020202020302E303030302043202020302020302020302020302020302020302020302020302020302020302020302020300A20202020322E3134333420202020312E3635303020202020302E303030302043202020302020302020302020302020302020302020302020302020302020302020302020300A20202020322E3835373920202020322E3036323520202020302E303030302043202020302020302020302020302020302020302020302020302020302020302020302020300A20202020322E3835373920202020322E3838373520202020302E303030302043202020302020302020302020302020302020302020302020302020302020302020302020300A20202020322E3134333420202020332E3330303020202020302E303030302043202020302020302020302020302020302020302020302020302020302020302020302020300A2020202D322E3134333420202020312E3635303020202020302E303030302043202020302020302020302020302020302020302020302020302020302020302020302020300A2020202D322E3134333420202020302E3832353020202020302E30303030204F202020302020302020302020302020302020302020302020302020302020302020302020300A2020202D322E3835373920202020322E3036323520202020302E303030302043202020302020302020302020302020302020302020302020302020302020302020302020300A20202020302E3731343520202020302E3832353020202020302E303030302043202020302020302020302020302020302020302020302020302020302020302020302020300A20202020302E3030303020202020302E3431323520202020302E303030302043202020302020302020302020302020302020302020302020302020302020302020302020300A20202020302E303030302020202D302E3431323520202020302E303030302043202020302020302020302020302020302020302020302020302020302020302020302020300A2020202D302E373134352020202D302E3832353020202020302E30303030204E202020302020302020302020302020302020302020302020302020302020302020302020300A2020202D312E343238392020202D302E3431323520202020302E303030302043202020302020302020302020302020302020302020302020302020302020302020302020300A2020202D322E313433342020202D302E3832353020202020302E303030302043202020302020302020302020302020302020302020302020302020302020302020302020300A2020202D322E313433342020202D312E3635303020202020302E30303030204E202020302020302020302020302020302020302020302020302020302020302020302020300A2020202D312E343238392020202D322E3036323520202020302E303030302043202020302020302020302020302020302020302020302020302020302020302020302020300A2020202D302E373134352020202D312E3635303020202020302E303030302043202020302020302020302020302020302020302020302020302020302020302020302020300A2020202D322E383537392020202D322E3036323520202020302E303030302043202020302020302020302020302020302020302020302020302020302020302020302020300A2020202D322E383537392020202D322E3838373520202020302E303030302043202020302020302020302020302020302020302020302020302020302020302020302020300A2020202D322E313433342020202D332E3330303020202020302E30303030204F202020302020302020302020302020302020302020302020302020302020302020302020300A2020312020322020322020302020202020200A2020322020332020312020302020202020200A2020332020342020312020302020202020200A2020342020352020322020302020202020200A2020352020362020312020302020202020200A2020362020312020312020302020202020200A2020312020372020312020302020202020200A2020372020382020322020302020202020200A2020382020392020312020302020202020200A2020392031302020322020302020202020200A2031302020322020312020302020202020200A2020342031312020312020302020202020200A2031312031322020322020302020202020200A2031322031332020312020302020202020200A2031332031342020322020302020202020200A2031342020352020312020302020202020200A2020392031352020312020302020202020200A2031352031362020322020302020202020200A2031352031372020312020302020202020200A2020332031382020312020302020202020200A2031382031392020312020302020202020200A2031392032302020312020302020202020200A2032302032312020312020302020202020200A2032312032322020312020302020202020200A2032322032332020312020302020202020200A2032332032342020312020302020202020200A2032342032352020312020302020202020200A2032352032362020312020302020202020200A2032362032312020312020302020202020200A2032342032372020312020302020202020200A2032372032382020312020302020202020200A2032382032392020312020302020202020200A4D2020454E44
Contributor: SASAKI S, TOYOHASHI UNIV. OF TECH.
InstType: EI
InstName: Unknown
IoniMethod: EI
IonPolarity: pos
Date: 2010-10-09 19:48:36+02:00
Num Peaks: 134
41 64 42 304 43 159 44 8 45 55 54 24 55 69 56 18 57 99 58 119 
68 29 69 4 70 379 71 99 72 39 73 4 74 49 77 15 78 1 79 0 
80 11 81 18 82 41 83 4 84 76 85 32 86 30 87 1 88 31 89 11 
90 3 95 1 96 49 97 109 98 139 99 8 100 149 101 14 109 14 110 2 
111 79 112 29 113 229 114 4 115 29 123 24 124 19 125 10 126 39 127 44 
128 39 129 2 139 94 140 24 141 79 142 1 143 559 144 49 152 9 153 7 
154 19 155 9 157 249 158 3 159 9 166 14 167 19 168 1 169 44 170 24 
171 199 172 3 177 4 178 19 179 39 180 3 189 39 190 179 191 19 192 0 
193 9 194 9 196 39 197 9 198 49 199 19 200 9 209 1 210 29 211 34 
212 59 213 1 214 9 222 149 223 49 224 3 225 24 226 19 240 139 241 10 
242 29 243 9 254 999 255 36 256 109 257 29 267 24 268 8 269 54 270 24 
280 79 281 8 282 29 283 14 310 24 311 2 324 39 325 14 337 36 338 1 
380 274 381 79 382 29 383 1 393 81 394 30 395 14 396 1 409 24 410 19 
411 519 412 16 413 59 414 14 
