Name: MassBank: JP009861
MW: 206
Formula: C11H10O4
Synonym: MassBank: JP009861
Synonym: 4-(2-HYDROXYCARBONYL-1-PROPENYL)-1,3-BENZODIOXOLE
Synonym: 3,4-METHYLENEDIOXY-ALPHA-METHYLCINNAMIC ACID
Structure: 342D28322D485944524F5859434152424F4E594C2D312D50524F50454E594C292D312C332D42454E5A4F44494F584F4C452E6D6F6C0A20204368656D447261773032323131303233303032440A2031352031362020302020302020302020302020302020302020302020303939392056323030300A2020202D302E353137392020202D322E3039323720202020302E30303030204F202020302020302020302020302020302020302020302020302020302020302020302020300A2020202D312E323731362020202D312E3735373220202020302E303030302043202020302020302020302020302020302020302020302020302020302020302020302020300A2020202D312E313835342020202D302E3933363720202020302E30303030204F202020302020302020302020302020302020302020302020302020302020302020302020300A2020202D302E333738342020202D302E3736353220202020302E303030302043202020302020302020302020302020302020302020302020302020302020302020302020300A20202020302E303334312020202D312E3437393620202020302E303030302043202020302020302020302020302020302020302020302020302020302020302020302020300A20202020302E303334312020202D302E3035303720202020302E303030302043202020302020302020302020302020302020302020302020302020302020302020302020300A20202020302E383539312020202D302E3035303720202020302E303030302043202020302020302020302020302020302020302020302020302020302020302020302020300A20202020312E323731362020202D302E3736353220202020302E303030302043202020302020302020302020302020302020302020302020302020302020302020302020300A20202020302E383539312020202D312E3437393620202020302E303030302043202020302020302020302020302020302020302020302020302020302020302020302020300A2020202D302E3337383420202020302E3636333820202020302E303030302043202020302020302020302020302020302020302020302020302020302020302020302020300A20202020302E3033343120202020312E3337383320202020302E303030302043202020302020302020302020302020302020302020302020302020302020302020302020300A2020202D302E3337383420202020322E3039323720202020302E303030302043202020302020302020302020302020302020302020302020302020302020302020302020300A20202020302E3835393120202020312E3337383320202020302E303030302043202020302020302020302020302020302020302020302020302020302020302020302020300A20202020312E3237313620202020302E3636333820202020302E30303030204F202020302020302020302020302020302020302020302020302020302020302020302020300A20202020312E3237313620202020322E3039323720202020302E30303030204F202020302020302020302020302020302020302020302020302020302020302020302020300A2020312020322020312020302020202020200A2020322020332020312020302020202020200A2020332020342020312020302020202020200A2020342020352020312020302020202020200A2020312020352020312020302020202020200A2020362020372020312020302020202020200A2020372020382020322020302020202020200A2020382020392020312020302020202020200A2020352020392020322020302020202020200A2020342020362020322020302020202020200A2031302031312020322020302020202020200A2031312031322020312020302020202020200A2031332031342020322020302020202020200A2031332031352020312020302020202020200A2031312031332020312020302020202020200A2020362031302020312020302020202020200A4D2020454E44
Contributor: KURARAY CO., LTD.
InstType: EI
InstName: JEOL JMS-D-300
IoniMethod: _ENERGY 70 eV
IonPolarity: pos
Date: 2010-10-09 19:48:36+02:00
Num Peaks: 32
39 36 50 31 51 94 52 2 53 25 62 22 63 47 65 3 74 20 75 25 
76 31 77 14 78 28 79 27 91 33 102 10 103 227 104 39 105 22 130 4 
131 222 132 29 135 164 147 2 151 28 159 56 160 248 161 8 189 22 205 156 
206 999 207 125 
