Name: CAFFEINE
MW: 194
Formula: C8H10N4O2
Synonym: MassBank: JP003511
Synonym: CAFFEINE
Structure: 4341464645494E452E6D6F6C0A20204368656D447261773039303631303039343332440A2031342031352020302020302020302020302020302020302020302020303939392056323030300A2020202D302E3835393120202020312E3738313720202020302E30303030204F202020302020302020302020302020302020302020302020302020302020302020302020300A2020202D302E3434363620202020312E3036373320202020302E303030302043202020302020302020302020302020302020302020302020302020302020302020302020300A20202020302E3337383420202020312E3036373320202020302E30303030204E202020302020302020302020302020302020302020302020302020302020302020302020300A20202020302E3739303920202020312E3738313720202020302E303030302043202020302020302020302020302020302020302020302020302020302020302020302020300A20202020302E3739303920202020302E3335323820202020302E303030302043202020302020302020302020302020302020302020302020302020302020302020302020300A20202020302E333738342020202D302E3336313720202020302E303030302043202020302020302020302020302020302020302020302020302020302020302020302020300A20202020302E393330342020202D302E3937343820202020302E30303030204E202020302020302020302020302020302020302020302020302020302020302020302020300A20202020302E373538392020202D312E3738313720202020302E303030302043202020302020302020302020302020302020302020302020302020302020302020302020300A20202020312E363834312020202D302E3633393220202020302E303030302043202020302020302020302020302020302020302020302020302020302020302020302020300A20202020312E3539373920202020302E3138313320202020302E30303030204E202020302020302020302020302020302020302020302020302020302020302020302020300A2020202D302E3835393120202020302E3335323820202020302E30303030204E202020302020302020302020302020302020302020302020302020302020302020302020300A2020202D312E3638343120202020302E3335323820202020302E303030302043202020302020302020302020302020302020302020302020302020302020302020302020300A2020202D302E343436362020202D302E3336313720202020302E303030302043202020302020302020302020302020302020302020302020302020302020302020302020300A2020202D302E383539312020202D312E3037363120202020302E30303030204F202020302020302020302020302020302020302020302020302020302020302020302020300A2020312020322020322020302020202020200A2020322020332020312020302020202020200A2020332020342020312020302020202020200A2020332020352020312020302020202020200A2020352020362020322020302020202020200A2020362020372020312020302020202020200A2020372020382020312020302020202020200A2020372020392020312020302020202020200A2020392031302020322020302020202020200A2020352031302020312020302020202020200A2020322031312020312020302020202020200A2031312031322020312020302020202020200A2031312031332020312020302020202020200A2020362031332020312020302020202020200A2031332031342020322020302020202020200A4D2020454E44
Contributor: YAMAMOTO M, DEP. CHEMISTRY, FAC. SCIENCE, NARA WOMEN'S UNIV.
InstType: EI
InstName: HITACHI M-68
IoniMethod: _ENERGY 70 eV
IonPolarity: pos
Date: 2010-10-09 19:48:36+02:00
Num Peaks: 16
28 14 55 79 67 97 68 10 82 93 83 14 108 10 109 23 110 86 123 29 
138 14 165 3 193 56 194 999 195 197 196 17 
