Name: GAMMA-HEXALACTONE
MW: 114
Formula: C6H10O2
Synonym: MassBank: JP002876
Synonym: GAMMA-HEXALACTONE
Structure: 310A32310A47414D4D412D484558414C4143544F4E452E6D6F6C0A20204368656D447261773038313131303139343232440A2020382020382020302020302020302020302020302020302020302020303939392056323030300A2020202D302E3933323820202020302E3131353020202020302E303030302043202020302020302020302020302020302020302020302020302020302020302020302020300A2020202D302E3434373920202020302E3738323420202020302E303030302043202020302020302020302020302020302020302020302020302020302020302020302020300A20202020302E3333363720202020302E3532373520202020302E303030302043202020302020302020302020302020302020302020302020302020302020302020302020300A20202020302E333336372020202D302E3239373520202020302E303030302043202020302020302020302020302020302020302020302020302020302020302020302020300A20202020312E303034322020202D302E3738323420202020302E303030302043202020302020302020302020302020302020302020302020302020302020302020302020300A20202020312E373537382020202D302E3434363920202020302E303030302043202020302020302020302020302020302020302020302020302020302020302020302020300A2020202D312E3735373820202020302E3131353020202020302E30303030204F202020302020302020302020302020302020302020302020302020302020302020302020300A2020202D302E343437392020202D302E3535323420202020302E30303030204F202020302020302020302020302020302020302020302020302020302020302020302020300A2020312020322020312020302020202020200A2020322020332020312020302020202020200A2020332020342020312020302020202020200A2020342020352020312020302020202020200A2020352020362020312020302020202020200A2020312020372020322020302020202020200A2020312020382020312020302020202020200A2020342020382020312020302020202020200A4D2020454E44
Contributor: MASS SPECTROSCOPY SOC. OF JAPAN (MSSJ)
InstType: EI
InstName: Unknown
IoniMethod: EI
IonPolarity: pos
Date: 2010-10-09 19:48:36+02:00
Num Peaks: 22
15 29 26 50 27 214 28 313 29 964 30 38 31 27 38 27 39 93 40 22 
41 109 42 239 43 38 55 151 56 399 57 389 58 38 59 41 70 168 85 999 
86 109 114 26 
