Name: ACETIC ACID
MW: 60
Formula: C2H4O2
Synonym: MassBank: JP009174
Synonym: ACETIC ACID
Structure: 310A31320A41434554494320414349442E6D6F6C0A20204368656D447261773036323431303035353132440A2020342020332020302020302020302020302020302020302020302020303939392056323030300A20202020302E3230363220202020302E3030303020202020302E303030302043202020302020302020302020302020302020302020302020302020302020302020302020300A20202020302E3631383820202020302E3731343520202020302E303030302043202020302020302020302020302020302020302020302020302020302020302020302020300A20202020302E363138382020202D302E3731343520202020302E30303030204F202020302020302020302020302020302020302020302020302020302020302020302020300A2020202D302E3631383820202020302E3030303020202020302E30303030204F202020302020302020302020302020302020302020302020302020302020302020302020300A2020312020322020312020302020202020200A2020312020332020322020302020202020200A2020312020342020312020302020202020200A4D2020454E44
Contributor: SODA AROMATIC CO., LTD.
InstType: EI
InstName: HITACHI M-80B
IoniMethod: _ENERGY 70 eV
IonPolarity: pos
Date: 2010-10-09 19:48:36+02:00
Num Peaks: 17
13 30 14 68 15 279 16 23 17 13 28 22 29 104 31 37 40 11 41 36 
42 121 43 999 44 37 45 867 46 11 60 502 61 10 
