Name: MassBank: JP002818
MW: 180
Formula: C7H8N4O2
Synonym: MassBank: JP002818
Synonym: 3,7-DIHYDRO-1,3-DIMETHYL-1H-PURINE-2,6-DIONE
Structure: 332C372D4449485944524F2D312C332D44494D455448594C2D31482D505552494E452D322C362D44494F4E452E6D6F6C0A20204368656D447261773032323231303033333532440A2031332031342020302020302020302020302020302020302020302020303939392056323030300A20202020312E343539342020202D302E3235363720202020302E30303030204E202020302020302020302020302020302020302020302020302020302020302020302020300A20202020312E3735353120202020302E3531333520202020302E303030302043202020302020302020302020302020302020302020302020302020302020302020302020300A20202020312E3131333920202020312E3033323720202020302E30303030204E202020302020302020302020302020302020302020302020302020302020302020302020300A20202020302E3432323020202020302E3538333420202020302E303030302043202020302020302020302020302020302020302020302020302020302020302020302020300A2020202D302E3337343820202020302E3739363920202020302E30303030204E202020302020302020302020302020302020302020302020302020302020302020302020300A2020202D302E3935383220202020302E3231333520202020302E303030302043202020302020302020302020302020302020302020302020302020302020302020302020300A2020202D302E373434372020202D302E3538333420202020302E30303030204E202020302020302020302020302020302020302020302020302020302020302020302020300A20202020302E303532322020202D302E3739363920202020302E303030302043202020302020302020302020302020302020302020302020302020302020302020302020300A20202020302E363335362020202D302E3231333520202020302E303030302043202020302020302020302020302020302020302020302020302020302020302020302020300A2020202D312E3735353120202020302E3432373120202020302E30303030204F202020302020302020302020302020302020302020302020302020302020302020302020300A20202020302E323635372020202D312E3539333820202020302E30303030204F202020302020302020302020302020302020302020302020302020302020302020302020300A2020202D302E3538383420202020312E3539333820202020302E303030302043202020302020302020302020302020302020302020302020302020302020302020302020300A2020202D312E333238302020202D312E3136363720202020302E303030302043202020302020302020302020302020302020302020302020302020302020302020302020300A2020312020322020312020302020202020200A2020322020332020322020302020202020200A2020332020342020312020302020202020200A2020342020352020312020302020202020200A2020352020362020312020302020202020200A2020362020372020312020302020202020200A2020372020382020312020302020202020200A2020382020392020312020302020202020200A2020312020392020312020302020202020200A2020342020392020322020302020202020200A2020362031302020322020302020202020200A2020382031312020322020302020202020200A2020352031322020312020302020202020200A2020372031332020312020302020202020200A4D2020454E44
Contributor: SASAKI S, TOYOHASHI UNIV. OF TECH.
InstType: EI
InstName: Unknown
IoniMethod: EI
IonPolarity: pos
Date: 2010-10-09 19:48:36+02:00
Num Peaks: 81
45 2 46 3 47 5 48 1 49 8 51 6 52 6 53 13 54 20 55 10 
56 27 57 0 58 2 65 2 66 14 67 4 68 361 69 4 70 2 71 0 
72 1 80 8 81 24 82 1 83 7 84 2 85 1 90 0 91 4 92 14 
93 10 94 5 95 515 96 82 97 19 98 0 99 2 100 2 106 2 107 0 
108 21 109 19 110 20 111 0 112 4 113 2 114 1 115 0 116 1 121 10 
122 50 123 12 124 26 125 10 126 2 127 0 135 2 136 10 137 49 138 2 
139 10 140 2 143 1 144 0 145 1 148 1 149 4 150 0 151 49 152 20 
153 10 154 1 155 2 177 4 178 10 179 2 180 999 181 81 182 24 183 0 
184 2 
