Name: MassBank: JP006728
MW: 321
Formula: C17H23NO5
Synonym: MassBank: JP006728
Synonym: N-(3-(3,4,5-TRIMETHOXYPHENYL)PROPIONYL)PIPERIDIN-2-ONE
Synonym: TETRAHYDROPIPERLONGUMINE
Structure: 4E2D28332D28332C342C352D5452494D4554484F58595048454E594C2950524F50494F4E594C2950495045524944494E2D322D4F4E452E6D6F6C0A20204368656D447261773038313231303031313132440A2032332032342020302020302020302020302020302020302020302020303939392056323030300A20202020322E313433342020202D302E3631383720202020302E30303030204E202020302020302020302020302020302020302020302020302020302020302020302020300A20202020322E3134333420202020302E3230363220202020302E303030302043202020302020302020302020302020302020302020302020302020302020302020302020300A20202020322E3835373920202020302E3631383820202020302E303030302043202020302020302020302020302020302020302020302020302020302020302020302020300A20202020332E3537323420202020302E3230363320202020302E303030302043202020302020302020302020302020302020302020302020302020302020302020302020300A20202020332E353732342020202D302E3631383720202020302E303030302043202020302020302020302020302020302020302020302020302020302020302020302020300A20202020322E383537392020202D312E3033313320202020302E303030302043202020302020302020302020302020302020302020302020302020302020302020302020300A20202020312E3432383920202020302E3631383820202020302E30303030204F202020302020302020302020302020302020302020302020302020302020302020302020300A20202020312E343238392020202D312E3033313320202020302E303030302043202020302020302020302020302020302020302020302020302020302020302020302020300A20202020312E343238392020202D312E3835363320202020302E30303030204F202020302020302020302020302020302020302020302020302020302020302020302020300A20202020302E373134352020202D302E3631383820202020302E303030302043202020302020302020302020302020302020302020302020302020302020302020302020300A2020202D302E303030302020202D312E3033313320202020302E303030302043202020302020302020302020302020302020302020302020302020302020302020302020300A2020202D302E373134352020202D302E3631383820202020302E303030302043202020302020302020302020302020302020302020302020302020302020302020302020300A2020202D312E343238392020202D312E3033313320202020302E303030302043202020302020302020302020302020302020302020302020302020302020302020302020300A2020202D322E313433342020202D302E3631383820202020302E303030302043202020302020302020302020302020302020302020302020302020302020302020302020300A2020202D322E3134333420202020302E3230363220202020302E303030302043202020302020302020302020302020302020302020302020302020302020302020302020300A2020202D312E3432383920202020302E3631383820202020302E303030302043202020302020302020302020302020302020302020302020302020302020302020302020300A2020202D302E3731343520202020302E3230363320202020302E303030302043202020302020302020302020302020302020302020302020302020302020302020302020300A2020202D312E3432383920202020312E3434333720202020302E30303030204F202020302020302020302020302020302020302020302020302020302020302020302020300A2020202D302E3731343520202020312E3835363320202020302E303030302043202020302020302020302020302020302020302020302020302020302020302020302020300A2020202D322E3835373920202020302E3631383720202020302E30303030204F202020302020302020302020302020302020302020302020302020302020302020302020300A2020202D332E3537323420202020302E3230363220202020302E303030302043202020302020302020302020302020302020302020302020302020302020302020302020300A2020202D322E383537392020202D312E3033313320202020302E30303030204F202020302020302020302020302020302020302020302020302020302020302020302020300A2020202D322E383537392020202D312E3835363320202020302E303030302043202020302020302020302020302020302020302020302020302020302020302020302020300A2020312020322020312020302020202020200A2020322020332020312020302020202020200A2020332020342020312020302020202020200A2020342020352020312020302020202020200A2020352020362020312020302020202020200A2020312020362020312020302020202020200A2020322020372020322020302020202020200A2020382020392020322020302020202020200A2020382031302020312020302020202020200A2031302031312020312020302020202020200A2031322031332020312020302020202020200A2031332031342020322020302020202020200A2031342031352020312020302020202020200A2031352031362020322020302020202020200A2031362031372020312020302020202020200A2031322031372020322020302020202020200A2031382031392020312020302020202020200A2031362031382020312020302020202020200A2032302032312020312020302020202020200A2031352032302020312020302020202020200A2032322032332020312020302020202020200A2031342032322020312020302020202020200A2031312031322020312020302020202020200A2020312020382020312020302020202020200A4D2020454E44
Contributor: MASS SPECTROSCOPY SOC. OF JAPAN (MSSJ)
InstType: EI
InstName: HITACHI RMU-6G
IoniMethod: _ENERGY 20 eV
IonPolarity: pos
Date: 2010-10-09 19:48:36+02:00
Num Peaks: 88
41 60 42 30 43 240 44 20 45 70 55 70 56 160 57 80 61 60 69 80 
70 60 71 60 73 30 81 30 82 30 83 40 84 100 85 40 88 20 91 25 
94 10 95 20 96 10 97 30 98 25 99 30 100 140 101 30 105 20 106 20 
107 10 109 10 110 10 111 10 112 10 113 20 119 30 120 10 121 10 122 10 
123 10 125 10 127 10 129 10 132 10 133 10 134 10 135 20 136 20 137 10 
138 10 139 10 140 10 141 10 147 15 148 20 149 30 150 10 151 40 152 10 
163 10 164 20 165 20 167 10 168 10 169 10 175 15 179 340 180 60 181 160 
182 20 191 110 192 20 193 10 194 480 195 20 196 10 207 80 208 15 221 15 
222 999 223 140 224 20 233 10 251 10 321 500 322 90 323 15 
