Name: MassBank: JP007937
MW: 247
Formula: C17H13NO
Synonym: MassBank: JP007937
Synonym: 8-AZA-8-PHENYL-6,7-BENZO-BICYCLO(3,2,1)-3-EN-2-ONE
Structure: 382D415A412D382D5048454E594C2D362C372D42454E5A4F2D42494359434C4F28332C322C31292D332D454E2D322D4F4E452E6D6F6C0A20204368656D447261773035323431303230353232440A2031392032322020302020302020302020302020302020302020302020303939392056323030300A2020202D322E3538363720202020302E3434383020202020302E303030302043202020302020302020302020302020302020302020302020302020302020302020302020300A2020202D322E353836372020202D302E3337373020202020302E303030302043202020302020302020302020302020302020302020302020302020302020302020302020300A2020202D312E383732332020202D302E3738393520202020302E303030302043202020302020302020302020302020302020302020302020302020302020302020302020300A2020202D312E313537382020202D302E3337373020202020302E303030302043202020302020302020302020302020302020302020302020302020302020302020302020300A2020202D312E3135373820202020302E3434383020202020302E303030302043202020302020302020302020302020302020302020302020302020302020302020302020300A2020202D312E3837323320202020302E3836303520202020302E303030302043202020302020302020302020302020302020302020302020302020302020302020302020300A2020202D302E333733322020202D302E3633323020202020302E303030302043202020302020302020302020302020302020302020302020302020302020302020302020300A2020202D302E373233302020202D302E3337363620202020302E303030302043202020302020302020302020302020302020302020302020302020302020302020302020300A2020202D302E3835363520202020302E3033353520202020302E303030302043202020302020302020302020302020302020302020302020302020302020302020302020300A2020202D302E3732333020202020302E3434373520202020302E303030302043202020302020302020302020302020302020302020302020302020302020302020302020300A2020202D302E3337333220202020302E3730323920202020302E303030302043202020302020302020302020302020302020302020302020302020302020302020302020300A20202020302E3131313720202020302E3033353520202020302E30303030204E202020302020302020302020302020302020302020302020302020302020302020302020300A20202020302E3933363720202020302E3033353520202020302E303030302043202020302020302020302020302020302020302020302020302020302020302020302020300A20202020312E333439322020202D302E3637393020202020302E303030302043202020302020302020302020302020302020302020302020302020302020302020302020300A20202020322E313734322020202D302E3637393020202020302E303030302043202020302020302020302020302020302020302020302020302020302020302020302020300A20202020322E3538363720202020302E3033353520202020302E303030302043202020302020302020302020302020302020302020302020302020302020302020302020300A20202020322E3137343220202020302E3734393920202020302E303030302043202020302020302020302020302020302020302020302020302020302020302020302020300A20202020312E3334393220202020302E3734393920202020302E303030302043202020302020302020302020302020302020302020302020302020302020302020302020300A2020202D312E333931322020202D302E3836303520202020302E30303030204F202020302020302020302020302020302020302020302020302020302020302020302020300A2020312020322020322020302020202020200A2020322020332020312020302020202020200A2020332020342020322020302020202020200A2020342020352020312020302020202020200A2020352020362020322020302020202020200A2020362020312020312020302020202020200A2020342020372020312020302020202020200A2020372020382020312020302020202020200A2020382020392020312020302020202020200A2020392031302020322020302020202020200A2031302031312020312020302020202020200A2031312020352020312020302020202020200A2031312031322020312020302020202020200A2031322020372020312020302020202020200A2031322031332020312020302020202020200A2031332031342020322020302020202020200A2031342031352020312020302020202020200A2031352031362020322020302020202020200A2031362031372020312020302020202020200A2031372031382020322020302020202020200A2031382031332020312020302020202020200A2020382031392020322020302020202020200A4D2020454E44
Contributor: FUJISE Y, HAMAMATSU UNIV. SCHOOL OF MEDICINE
InstType: EI
InstName: JEOL JMS-D-300
IoniMethod: _ENERGY 70 eV
IonPolarity: pos
Date: 2010-10-09 19:48:36+02:00
Num Peaks: 72
51 181 52 19 62 19 63 68 64 20 65 22 74 17 75 28 76 38 77 191 
78 19 82 11 83 10 84 14 87 12 88 20 89 133 90 162 91 27 94 18 
96 48 101 19 102 58 103 60 104 23 107 19 108 197 109 49 110 38 113 16 
114 22 115 103 116 74 117 18 124 29 126 14 127 53 128 83 129 10 139 15 
140 23 144 40 152 11 153 11 155 32 163 17 164 25 165 223 166 56 167 14 
178 12 189 22 190 32 191 36 192 102 193 999 194 161 195 13 204 20 206 861 
207 146 208 13 216 44 217 138 218 500 219 270 220 39 230 22 246 33 247 692 
248 135 249 16 
