Name: MassBank: JP009832
MW: 191
Formula: C5H6Cl2N4
Synonym: MassBank: JP009832
Synonym: 2,6-DICHLORO-4-(N-ETHYL)AMINO-1,3,5-TRIAZINE
Structure: 322C362D444943484C4F524F2D342D284E2D455448594C29414D494E4F2D312C332C352D545249415A494E452E6D6F6C0A20204368656D447261773132323130393033353332440A2031312031312020302020302020302020302020302020302020302020303939392056323030300A2020202D312E3432383920202020302E3030303020202020302E30303030204E202020302020302020302020302020302020302020302020302020302020302020302020300A2020202D302E3731343520202020302E3431323520202020302E303030302043202020302020302020302020302020302020302020302020302020302020302020302020300A20202020302E3030303020202020302E3030303020202020302E30303030204E202020302020302020302020302020302020302020302020302020302020302020302020300A20202020302E303030302020202D302E3832353020202020302E303030302043202020302020302020302020302020302020302020302020302020302020302020302020300A2020202D302E373134352020202D312E3233373520202020302E30303030204E202020302020302020302020302020302020302020302020302020302020302020302020300A2020202D312E343238392020202D302E3832353020202020302E303030302043202020302020302020302020302020302020302020302020302020302020302020302020300A20202020302E373134352020202D312E3233373520202020302E30303030204E202020302020302020302020302020302020302020302020302020302020302020302020300A20202020312E343238392020202D302E3832353020202020302E303030302043202020302020302020302020302020302020302020302020302020302020302020302020300A20202020322E313433342020202D312E3233373520202020302E303030302043202020302020302020302020302020302020302020302020302020302020302020302020300A2020202D322E313433342020202D312E3233373520202020302E3030303020436C2020302020302020302020302020302020302020302020302020302020302020302020300A2020202D302E3731343520202020312E3233373520202020302E3030303020436C2020302020302020302020302020302020302020302020302020302020302020302020300A2020312020322020312020302020202020200A2020322020332020322020302020202020200A2020332020342020312020302020202020200A2020342020352020322020302020202020200A2020352020362020312020302020202020200A2020312020362020322020302020202020200A2020382020392020312020302020202020200A2020372020382020312020302020202020200A2020342020372020312020302020202020200A2020362031302020312020302020202020200A2020322031312020312020302020202020200A4D2020454E44
Contributor: KURARAY CO., LTD.
InstType: EI
InstName: JEOL JMS-D-300
IoniMethod: _ENERGY 70 eV
IonPolarity: pos
Date: 2010-10-09 19:48:36+02:00
Num Peaks: 42
27 109 29 114 36 20 41 3 42 62 43 48 44 261 53 6 54 20 55 379 
62 225 63 2 64 69 67 33 68 103 69 9 78 20 87 155 88 68 89 6 
90 20 93 37 94 52 110 2 123 20 129 87 131 30 149 3 164 205 166 136 
168 23 177 999 178 58 179 642 180 39 181 10 191 77 192 477 193 83 194 30 
195 30 196 49 
