Name: 4-HYDROXY-3-METHOXYBENZALDEHYDE
MW: 152
Formula: C8H8O3
Synonym: MassBank: JP008443
Synonym: 4-HYDROXY-3-METHOXYBENZALDEHYDE
Synonym: VANILLIN
Structure: 342D485944524F58592D332D4D4554484F585942454E5A414C4445485944452E6D6F6C0A20204368656D447261773034313231303136343132440A2031312031312020302020302020302020302020302020302020302020303939392056323030300A2020202D312E343238392020202D312E3033313320202020302E303030302043202020302020302020302020302020302020302020302020302020302020302020302020300A2020202D302E373134352020202D302E3631383720202020302E303030302043202020302020302020302020302020302020302020302020302020302020302020302020300A2020202D302E3731343520202020302E3230363320202020302E303030302043202020302020302020302020302020302020302020302020302020302020302020302020300A20202020302E3030303020202020302E3631383820202020302E303030302043202020302020302020302020302020302020302020302020302020302020302020302020300A20202020302E3731343520202020302E3230363320202020302E303030302043202020302020302020302020302020302020302020302020302020302020302020302020300A20202020302E373134352020202D302E3631383820202020302E303030302043202020302020302020302020302020302020302020302020302020302020302020302020300A20202020302E303030302020202D312E3033313320202020302E303030302043202020302020302020302020302020302020302020302020302020302020302020302020300A2020202D312E343238392020202D312E3835363320202020302E30303030204F202020302020302020302020302020302020302020302020302020302020302020302020300A20202020302E3030303020202020312E3434333820202020302E30303030204F202020302020302020302020302020302020302020302020302020302020302020302020300A20202020302E3731343520202020312E3835363320202020302E303030302043202020302020302020302020302020302020302020302020302020302020302020302020300A20202020312E3432383920202020302E3631383820202020302E30303030204F202020302020302020302020302020302020302020302020302020302020302020302020300A2020312020322020312020302020202020200A2020322020332020312020302020202020200A2020332020342020322020302020202020200A2020342020352020312020302020202020200A2020352020362020322020302020202020200A2020362020372020312020302020202020200A2020322020372020322020302020202020200A2020312020382020322020302020202020200A2020392031302020312020302020202020200A2020342020392020312020302020202020200A2020352031312020312020302020202020200A4D2020454E44
Contributor: SODA AROMATIC CO., LTD.
InstType: EI
InstName: HITACHI M-80B
IoniMethod: _ENERGY 70 eV
IonPolarity: pos
Date: 2010-10-09 19:48:36+02:00
Num Peaks: 52
15 49 17 12 26 28 27 73 29 98 31 21 37 30 38 54 39 110 41 31 
42 18 43 12 45 13 49 21 50 97 51 169 52 185 53 168 54 23 55 46 
61 26 62 55 63 93 64 28 65 99 66 22 67 35 69 20 75 10 77 61 
78 13 79 82 80 59 81 374 82 24 91 21 92 22 93 25 95 32 107 12 
108 81 109 220 110 20 119 11 121 15 123 125 124 23 136 25 137 69 151 999 
152 992 153 80 
