Name: MassBank: JP007298
MW: 276
Formula: C13H28O4Si
Synonym: MassBank: JP007298
Synonym: (2R,3S)-4-(TERT-BUTYLDIMETHYLSILYLOXY)BUTAN-1,2,3-TRIOL 1,3-ISOPROPYLIDENE ACETAL
Structure: 2832522C3353292D342D28544552542D425554594C44494D455448594C53494C594C4F585929425554414E2D312C322C332D5452494F4C20312C332D49534F50524F50594C4944454E452041434554414C2E6D6F6C0A20204368656D447261773130323030393133353232440A2032302032302020302020302020302020302020302020302020302020303939392056323030300A2020202D312E383832312020202D302E3932313220202020302E303030302043202020302020302020302020302020302020302020302020302020302020302020302020300A2020202D312E303537312020202D302E3932313220202020302E303030302043202020302020302020302020302020302020302020302020302020302020302020302020300A2020202D302E363434362020202D302E3230363720202020302E303030302043202020302020302020302020302020302020302020302020302020302020302020302020300A2020202D312E3035363220202020302E3530373820202020302E30303030204F202020302020302020302020302020302020302020302020302020302020302020302020300A2020202D312E3838323120202020302E3530373820202020302E303030302043202020302020302020302020302020302020302020302020302020302020302020302020300A2020202D322E323934362020202D302E3230363720202020302E30303030204F202020302020302020302020302020302020302020302020302020302020302020302020300A2020202D312E313939322020202D312E3733343020202020302E303030302048202020302020302020302020302020302020302020302020302020302020302020302020300A2020202D302E3031323220202020302E3332333220202020302E303030302043202020302020302020302020302020302020302020302020302020302020302020302020300A20202020302E3736333020202020302E3034313120202020302E30303030204F202020302020302020302020302020302020302020302020302020302020302020302020300A20202020312E3339353020202020302E3537303520202020302E303030302053692020302020302020302020302020302020302020302020302020302020302020302020300A20202020322E3032373020202020312E3130313420202020302E303030302043202020302020302020302020302020302020302020302020302020302020302020302020300A20202020322E3635383620202020312E3633323320202020302E303030302043202020302020302020302020302020302020302020302020302020302020302020302020300A20202020312E3439363320202020312E3733343020202020302E303030302043202020302020302020302020302020302020302020302020302020302020302020302020300A20202020322E3535363920202020302E3437303120202020302E303030302043202020302020302020302020302020302020302020302020302020302020302020302020300A2020202D302E323831372020202D312E3230343520202020302E30303030204F202020302020302020302020302020302020302020302020302020302020302020302020300A2020202D302E303131362020202D302E3733373020202020302E303030302048202020302020302020302020302020302020302020302020302020302020302020302020300A2020202D322E3635383620202020302E3739303120202020302E303030302043202020302020302020302020302020302020302020302020302020302020302020302020300A20202020302E3836333120202020312E3230343920202020302E303030302043202020302020302020302020302020302020302020302020302020302020302020302020300A2020202D312E3733393120202020312E3332313220202020302E303030302043202020302020302020302020302020302020302020302020302020302020302020302020300A20202020312E393234302020202D302E3035393020202020302E303030302043202020302020302020302020302020302020302020302020302020302020302020302020300A2020312020322020312020302020202020200A2020322020332020312020302020202020200A2020332020342020312020302020202020200A2020342020352020312020302020202020200A2020352020362020312020302020202020200A2020362020312020312020302020202020200A2020322020372020312020312020202020200A2020332020382020312020312020202020200A2020382020392020312020302020202020200A2020392031302020312020302020202020200A2031302031312020312020302020202020200A2031312031322020312020302020202020200A2031312031332020312020302020202020200A2031312031342020312020302020202020200A2020322031352020312020362020202020200A2020332031362020312020362020202020200A2020352031372020312020362020202020200A2031302031382020312020302020202020200A2020352031392020312020312020202020200A2031302032302020312020302020202020200A4D202053545920203120202031205355500A4D2020534C4220203120202031202020310A4D202053414C20202031202031202031370A4D202053424C20202031202031202031370A4D2020534D5420202031204D650A4D2020534256202020312031372020202D382E3237313720202020362E363230370A4D202053545920203120202032205355500A4D2020534C4220203120202032202020320A4D202053414C20202032202031202031380A4D202053424C20202032202031202031380A4D2020534D5420202032204D650A4D2020534256202020322031382020202D382E3032373020202020362E393732370A4D202053545920203120202033205355500A4D2020534C4220203120202033202020330A4D202053414C20202033202031202031390A4D202053424C20202033202031202031390A4D2020534D5420202033204D650A4D2020534256202020332031392020202D372E3335323120202020372E313531380A4D202053545920203120202034205355500A4D2020534C4220203120202034202020340A4D202053414C20202034202031202032300A4D202053424C20202034202031202032300A4D2020534D5420202034204D650A4D2020534256202020342032302020202D362E3936363120202020352E373038380A4D2020454E44
Contributor: ITO S, DEPT. OF CHEM., TOHOKU UNIV.
InstType: EI
InstName: HITACHI M-52
IoniMethod: _ENERGY 14 eV
IonPolarity: pos
Date: 2010-10-09 19:48:36+02:00
Num Peaks: 36
41 20 43 47 56 61 58 4 59 125 68 20 69 138 75 25 93 22 101 409 
102 32 103 4 105 38 117 500 118 81 119 3 129 42 131 652 132 121 133 6 
143 447 144 40 145 30 159 15 161 999 162 197 163 71 175 11 201 89 203 27 
219 91 243 3 261 159 262 32 263 14 277 6 
