Name: ETHANE
CAS: 74-84-0
MW: 30
Formula: C2H6
Synonym: MassBank: JP001578
Synonym: ETHANE
Structure: 310A380A455448414E452E6D6F6C0A20204368656D447261773038313131303137353832440A2020322020312020302020302020302020302020302020302020302020303939392056323030300A2020202D302E3431323520202020302E3030303020202020302E303030302043202020302020302020302020302020302020302020302020302020302020302020302020300A20202020302E3431323520202020302E3030303020202020302E303030302043202020302020302020302020302020302020302020302020302020302020302020302020300A2020312020322020312020302020202020200A4D2020454E44
Contributor: MASS SPECTROSCOPY SOC. OF JAPAN (MSSJ)
InstType: EI
InstName: HITACHI RMU-5B
IoniMethod: _ENERGY 80 eV
IonPolarity: pos
Date: 2010-10-09 19:48:36+02:00
Num Peaks: 10
13 12 14 34 15 46 25 42 26 230 27 333 28 999 29 217 30 262 31 6 
