Name: TRIMETHYL(3-PHENYLTHIOPENTYL)SILANE
MW: 252
Formula: C14H24SSi
Synonym: MassBank: JP004999
Synonym: TRIMETHYL(3-PHENYLTHIOPENTYL)SILANE
Structure: 5452494D455448594C28332D5048454E594C5448494F50454E54594C2953494C414E452E6D6F6C0A20204368656D447261773038313231303038343332440A2031362031362020302020302020302020302020302020302020302020303939392056323030300A2020202D322E313433342020202D302E3436373820202020302E303030302053692020302020302020302020302020302020302020302020302020302020302020302020300A2020202D312E343238392020202D302E3035353320202020302E303030302043202020302020302020302020302020302020302020302020302020302020302020302020300A2020202D302E373134352020202D302E3436373820202020302E303030302043202020302020302020302020302020302020302020302020302020302020302020302020300A20202020302E303030302020202D302E3035353320202020302E303030302043202020302020302020302020302020302020302020302020302020302020302020302020300A20202020302E3030303020202020302E3736393720202020302E303030302043202020302020302020302020302020302020302020302020302020302020302020302020300A2020202D302E3731343520202020312E3138323220202020302E303030302043202020302020302020302020302020302020302020302020302020302020302020302020300A20202020302E373134352020202D302E3436373820202020302E303030302053202020302020302020302020302020302020302020302020302020302020302020302020300A20202020312E343238392020202D302E3035353320202020302E303030302043202020302020302020302020302020302020302020302020302020302020302020302020300A20202020312E3432383920202020302E3736393720202020302E303030302043202020302020302020302020302020302020302020302020302020302020302020302020300A20202020322E3134333420202020312E3138323220202020302E303030302043202020302020302020302020302020302020302020302020302020302020302020302020300A20202020322E3835373920202020302E3736393720202020302E303030302043202020302020302020302020302020302020302020302020302020302020302020302020300A20202020322E383537392020202D302E3035353320202020302E303030302043202020302020302020302020302020302020302020302020302020302020302020302020300A20202020322E313433342020202D302E3436373820202020302E303030302043202020302020302020302020302020302020302020302020302020302020302020302020300A2020202D312E373330392020202D312E3138323220202020302E303030302043202020302020302020302020302020302020302020302020302020302020302020302020300A2020202D322E383537392020202D302E3838303320202020302E303030302043202020302020302020302020302020302020302020302020302020302020302020302020300A2020202D322E3535353920202020302E3234363720202020302E303030302043202020302020302020302020302020302020302020302020302020302020302020302020300A2020322020332020312020302020202020200A2020332020342020312020302020202020200A2020342020352020312020302020202020200A2020352020362020312020302020202020200A2020382020392020312020302020202020200A2020392031302020322020302020202020200A2031302031312020312020302020202020200A2031312031322020322020302020202020200A2031322031332020312020302020202020200A2020382031332020322020302020202020200A2020372020382020312020302020202020200A2020342020372020312020302020202020200A2020312020322020312020302020202020200A2020312031342020312020302020202020200A2020312031352020312020302020202020200A2020312031362020312020302020202020200A4D2020454E44
Contributor: MASS SPECTROSCOPY SOC. OF JAPAN (MSSJ)
InstType: EI
InstName: JEOL JMS-D-3000
IoniMethod: _ENERGY 70 eV
IonPolarity: pos
Date: 2010-10-09 19:48:36+02:00
Num Peaks: 21
42 33 43 33 45 65 51 32 55 26 59 56 69 17 73 999 74 84 75 55 
77 25 99 22 109 34 110 58 119 29 151 58 167 124 169 26 182 33 237 76 
252 54 
