Name: 2-CHLOROPROPANE
MW: 78
Formula: C3H7Cl
Synonym: MassBank: JP008857
Synonym: 2-CHLOROPROPANE
Structure: 310A31320A322D43484C4F524F50524F50414E452E6D6F6C0A20204368656D447261773031303331303131353832440A2020342020332020302020302020302020302020302020302020302020303939392056323030300A2020202D302E363138382020202D302E3731343520202020302E303030302043202020302020302020302020302020302020302020302020302020302020302020302020300A2020202D302E3230363220202020302E3030303020202020302E303030302043202020302020302020302020302020302020302020302020302020302020302020302020300A2020202D302E3631383820202020302E3731343520202020302E303030302043202020302020302020302020302020302020302020302020302020302020302020302020300A20202020302E3631383820202020302E3030303020202020302E3030303020436C2020302020302020302020302020302020302020302020302020302020302020302020300A2020312020322020312020302020202020200A2020322020332020312020302020202020200A2020322020342020312020302020202020200A4D2020454E44
Contributor: TAJIMA S, GUNMA COLLEGE OF TECHNOLOGY
InstType: EI
InstName: HITACHI RMU-7M
IoniMethod: _ENERGY 70 eV
IonPolarity: pos
Date: 2010-10-09 19:48:36+02:00
Num Peaks: 23
15 12 26 21 27 254 28 53 29 23 37 18 38 26 39 88 40 29 41 199 
42 53 43 999 44 40 55 26 57 42 62 22 63 210 64 12 65 68 78 156 
79 10 80 51 81 10 
