Name: METHACRYLIC ACID ISOPROPYL ESTER-D6
MW: 128
Formula: C7H12O2
Synonym: MassBank: JP000993
Synonym: METHACRYLIC ACID ISOPROPYL ESTER-D6
Synonym: ISOPROPYL METHACRYLATE-D6
Structure: 303139315F4D455448414352594C494320414349442049534F50524F50594C2045535445522D44362E6D6F6C0A20204368656D447261773039303631303134333832440A2031362031352020302020302020302020302020302020302020302020303939392056323030300A2020202D302E3631383820202020302E3335373320202020302E303030302043202020302020302020302020302020302020302020302020302020302020302020302020300A2020202D312E3033313220202020312E3037313720202020302E303030302043202020302020302020302020302020302020302020302020302020302020302020302020300A2020202D302E3631383820202020312E3738363120202020302E303030302043202020302020302020302020302020302020302020302020302020302020302020302020300A2020202D312E3835363220202020312E3037313720202020302E303030302043202020302020302020302020302020302020302020302020302020302020302020302020300A2020202D312E303331322020202D302E3335373220202020302E30303030204F202020302020302020302020302020302020302020302020302020302020302020302020300A20202020302E3230363220202020302E3335373320202020302E30303030204F202020302020302020302020302020302020302020302020302020302020302020302020300A20202020302E363138372020202D302E3335373220202020302E303030302043202020302020302020302020302020302020302020302020302020302020302020302020300A20202020302E323036322020202D312E3037313720202020302E303030302043202020302020302020302020302020302020302020302020302020302020302020302020300A20202020312E343433372020202D302E3335373220202020302E303030302043202020302020302020302020302020302020302020302020302020302020302020302020300A20202020312E383536322020202D312E3037313720202020302E303030302048202020312020302020302020302020302020302020302020302020302020302020302020300A20202020312E3835363220202020302E3335373320202020302E303030302048202020312020302020302020302020302020302020302020302020302020302020302020300A20202020312E3033313220202020302E3335373320202020302E303030302048202020312020302020302020302020302020302020302020302020302020302020302020300A2020202D302E363138382020202D312E3037313620202020302E303030302048202020312020302020302020302020302020302020302020302020302020302020302020300A20202020302E363138372020202D312E3738363120202020302E303030302048202020312020302020302020302020302020302020302020302020302020302020302020300A2020202D302E323036332020202D302E3335373220202020302E303030302048202020312020302020302020302020302020302020302020302020302020302020302020300A20202020312E303233392020202D312E3037353820202020302E303030302048202020302020302020302020302020302020302020302020302020302020302020302020300A2020312020322020312020302020202020200A2020322020332020312020302020202020200A2020322020342020322020302020202020200A2020312020352020322020302020202020200A2020312020362020312020302020202020200A2020362020372020312020302020202020200A2020372020382020312020302020202020200A2020372020392020312020302020202020200A2020392031302020312020302020202020200A2020392031312020312020302020202020200A2020392031322020312020302020202020200A2020382031332020312020302020202020200A2020382031342020312020302020202020200A2020382031352020312020302020202020200A2020372031362020312020302020202020200A4D202049534F2020362020313020202032202031312020203220203132202020322020313320202032202031342020203220203135202020320A4D2020454E44
Contributor: TAJIMA S, GUNMA COLLEGE OF TECHNOLOGY
InstType: EI
InstName: HITACHI RMU-5B
IoniMethod: _ENERGY 70 eV
IonPolarity: pos
Date: 2010-10-09 19:48:36+02:00
Num Peaks: 33
15 49 18 119 26 24 27 35 29 189 30 179 31 20 33 29 37 25 38 59 
39 463 40 110 41 865 42 135 43 52 44 30 45 196 46 185 47 102 48 102 
49 999 50 28 65 179 69 752 70 78 71 28 72 19 87 60 88 46 89 314 
90 19 116 19 134 21 
