Name: CYCLOPENTANONE OXIME
MW: 99
Formula: C5H9NO
Synonym: MassBank: JP003882
Synonym: CYCLOPENTANONE OXIME
Structure: 310A31390A4359434C4F50454E54414E4F4E45204F58494D452E6D6F6C0A20204368656D447261773039323031303039303632440A2020372020372020302020302020302020302020302020302020302020303939392056323030300A2020202D302E303631362020202D302E3238393820202020302E303030302043202020302020302020302020302020302020302020302020302020302020302020302020300A2020202D302E383135332020202D302E3632353320202020302E303030302043202020302020302020302020302020302020302020302020302020302020302020302020300A2020202D312E333637332020202D302E3031323220202020302E303030302043202020302020302020302020302020302020302020302020302020302020302020302020300A2020202D302E3935343820202020302E3730323320202020302E303030302043202020302020302020302020302020302020302020302020302020302020302020302020300A2020202D302E3134373920202020302E3533303720202020302E303030302043202020302020302020302020302020302020302020302020302020302020302020302020300A20202020302E363532392020202D302E3730323320202020302E30303030204E202020302020302020302020302020302020302020302020302020302020302020302020300A20202020312E333637332020202D302E3238393820202020302E30303030204F202020302020302020302020302020302020302020302020302020302020302020302020300A2020312020322020312020302020202020200A2020322020332020312020302020202020200A2020332020342020312020302020202020200A2020342020352020312020302020202020200A2020312020352020312020302020202020200A2020362020372020312020302020202020200A2020312020362020322020302020202020200A4D2020454E44
Contributor: MASS SPECTROSCOPY SOC. OF JAPAN (MSSJ)
InstType: EI
InstName: Unknown
IoniMethod: EI
IonPolarity: pos
Date: 2010-10-09 19:48:36+02:00
Num Peaks: 8
27 260 28 230 41 380 54 62 55 999 67 310 82 310 99 700 
