Name: DODECAMETHYLCYCLOHEXASILANE
CAS: 4098-30-0
MW: 348
Formula: C12H36Si6
Synonym: MassBank: JP004811
Synonym: DODECAMETHYLCYCLOHEXASILANE
Structure: 444F444543414D455448594C4359434C4F4845584153494C414E452E6D6F6C0A20204368656D447261773130313831303136353332440A2031382031382020302020302020302020302020302020302020302020303939392056323030300A20202020302E3731343520202020302E3431323520202020302E303030302053692020302020302020302020302020302020302020302020302020302020302020302020300A20202020302E373134352020202D302E3431323520202020302E303030302053692020302020302020302020302020302020302020302020302020302020302020302020300A2020202D302E303030302020202D302E3832353020202020302E303030302053692020302020302020302020302020302020302020302020302020302020302020302020300A2020202D302E373134352020202D302E3431323520202020302E303030302053692020302020302020302020302020302020302020302020302020302020302020302020300A2020202D302E3731343520202020302E3431323520202020302E303030302053692020302020302020302020302020302020302020302020302020302020302020302020300A20202020302E3030303020202020302E3832353020202020302E303030302053692020302020302020302020302020302020302020302020302020302020302020302020300A20202020302E3939363620202020312E3138373720202020302E303030302043202020302020302020302020302020302020302020302020302020302020302020302020300A20202020312E3532363920202020302E3236393220202020302E303030302043202020302020302020302020302020302020302020302020302020302020302020302020300A20202020312E353236392020202D302E3236393220202020302E303030302043202020302020302020302020302020302020302020302020302020302020302020302020300A20202020302E393936362020202D312E3138373720202020302E303030302043202020302020302020302020302020302020302020302020302020302020302020302020300A20202020302E353330332020202D312E3435373020202020302E303030302043202020302020302020302020302020302020302020302020302020302020302020302020300A2020202D302E353330332020202D312E3435373020202020302E303030302043202020302020302020302020302020302020302020302020302020302020302020302020300A2020202D302E393936362020202D312E3138373720202020302E303030302043202020302020302020302020302020302020302020302020302020302020302020302020300A2020202D312E353236392020202D302E3236393220202020302E303030302043202020302020302020302020302020302020302020302020302020302020302020302020300A2020202D312E3532363920202020302E3236393220202020302E303030302043202020302020302020302020302020302020302020302020302020302020302020302020300A2020202D302E3939363620202020312E3138373720202020302E303030302043202020302020302020302020302020302020302020302020302020302020302020302020300A2020202D302E3533303320202020312E3435373020202020302E303030302043202020302020302020302020302020302020302020302020302020302020302020302020300A20202020302E3533303320202020312E3435373020202020302E303030302043202020302020302020302020302020302020302020302020302020302020302020302020300A2020312020322020312020302020202020200A2020322020332020312020302020202020200A2020332020342020312020302020202020200A2020342020352020312020302020202020200A2020352020362020312020302020202020200A2020312020362020312020302020202020200A2020312020372020312020302020202020200A2020312020382020312020302020202020200A2020322020392020312020302020202020200A2020322031302020312020302020202020200A2020332031312020312020302020202020200A2020332031322020312020302020202020200A2020342031332020312020302020202020200A2020342031342020312020302020202020200A2020352031352020312020302020202020200A2020352031362020312020302020202020200A2020362031372020312020302020202020200A2020362031382020312020302020202020200A4D2020454E44
Contributor: MASS SPECTROSCOPY SOC. OF JAPAN (MSSJ)
InstType: EI
InstName: JEOL JMS-D-3000
IoniMethod: _ENERGY 70 eV
IonPolarity: pos
Date: 2010-10-09 19:48:36+02:00
Num Peaks: 82
43 37 44 10 45 93 59 140 60 11 69 14 71 11 73 999 74 86 75 39 
85 30 87 10 99 76 100 16 101 45 103 11 111 14 113 59 114 13 115 71 
116 32 117 37 125 60 126 15 127 46 128 13 129 73 130 12 131 72 132 11 
141 54 142 17 143 66 144 15 145 27 155 27 157 131 158 33 159 49 160 10 
169 15 171 80 172 19 173 42 174 11 183 17 185 65 186 50 187 54 188 18 
197 17 199 122 200 68 201 468 202 139 203 80 204 19 213 51 214 18 215 267 
216 84 217 77 218 20 229 25 231 10 245 14 257 14 259 143 260 75 261 39 
262 14 273 27 274 36 275 77 276 30 277 17 330 12 348 339 349 149 350 98 
351 31 352 11 
