Name: 2-METHYLBENZOIC ACID METHYL ESTER
MW: 150
Formula: C9H10O2
Synonym: MassBank: JP002200
Synonym: 2-METHYLBENZOIC ACID METHYL ESTER
Structure: 322D4D455448594C42454E5A4F49432041434944204D455448594C2045535445522E6D6F6C0A20204368656D447261773031323231303037333532440A2031312031312020302020302020302020302020302020302020302020303939392056323030300A2020202D312E3033313320202020302E3030303020202020302E303030302043202020302020302020302020302020302020302020302020302020302020302020302020300A2020202D302E3230363220202020302E3030303020202020302E303030302043202020302020302020302020302020302020302020302020302020302020302020302020300A20202020302E3230363320202020302E3731343520202020302E303030302043202020302020302020302020302020302020302020302020302020302020302020302020300A20202020312E3033313320202020302E3731343520202020302E303030302043202020302020302020302020302020302020302020302020302020302020302020302020300A20202020312E343433382020202D302E3030303020202020302E303030302043202020302020302020302020302020302020302020302020302020302020302020302020300A20202020312E303331332020202D302E3731343520202020302E303030302043202020302020302020302020302020302020302020302020302020302020302020302020300A20202020302E323036322020202D302E3731343520202020302E303030302043202020302020302020302020302020302020302020302020302020302020302020302020300A2020202D312E3434333820202020302E3731343520202020302E30303030204F202020302020302020302020302020302020302020302020302020302020302020302020300A2020202D312E343433382020202D302E3731343520202020302E30303030204F202020302020302020302020302020302020302020302020302020302020302020302020300A2020202D302E3230363220202020312E3432383920202020302E303030302043202020302020302020302020302020302020302020302020302020302020302020302020300A2020202D312E303331332020202D312E3432383920202020302E303030302043202020302020302020302020302020302020302020302020302020302020302020302020300A2020312020322020312020302020202020200A2020322020332020312020302020202020200A2020332020342020322020302020202020200A2020342020352020312020302020202020200A2020352020362020322020302020202020200A2020362020372020312020302020202020200A2020322020372020322020302020202020200A2020312020382020322020302020202020200A2020312020392020312020302020202020200A2020332031302020312020302020202020200A2020392031312020312020302020202020200A4D2020454E44
Contributor: KOGA M, UNIV. OF OCCUPATIONAL AND ENVIRONMENTAL HEALTH
InstType: EI
InstName: JEOL JMS-01-SG
IoniMethod: _ENERGY 70 eV
IonPolarity: pos
Date: 2010-10-09 19:48:36+02:00
Num Peaks: 47
45 55 50 31 51 94 53 4 59 86 60 15 62 39 63 8 64 23 65 299 
66 31 68 1 69 15 73 7 74 39 76 1 77 118 78 7 79 39 80 2 
86 7 87 23 89 102 90 25 91 889 92 15 97 7 105 8 106 31 107 31 
110 7 112 1 115 7 118 755 119 999 120 9 121 39 122 23 123 23 133 4 
135 70 136 39 137 7 149 1 150 503 151 62 152 15 
