Name: MassBank: JP004700
MW: 354
Formula: C21H36F2Si
Synonym: MassBank: JP004700
Synonym: DIFLUOROISOPROPYL(2,4,6-TRI-TERT-BUTYLPHENYL)SILANE
Synonym: 1,3,5-TRI-TERT-BUTYL-2-(DEFLUOROISOPROPYLSILYL)BENZENE
Structure: 4449464C554F524F49534F50524F50594C28322C342C362D5452492D544552542D425554594C5048454E594C2953494C414E452E6D6F6C0A20204368656D447261773131313130393138303332440A2032342032342020302020302020302020302020302020302020302020303939392056323030300A20202020302E3030303020202020312E3434333820202020302E303030302053692020302020302020302020302020302020302020302020302020302020302020302020300A20202020302E3030303020202020302E3631383820202020302E303030302043202020302020302020302020302020302020302020302020302020302020302020302020300A20202020302E3731343520202020302E3230363320202020302E303030302043202020302020302020302020302020302020302020302020302020302020302020302020300A20202020302E373134352020202D302E3631383720202020302E303030302043202020302020302020302020302020302020302020302020302020302020302020302020300A20202020302E303030302020202D312E3033313320202020302E303030302043202020302020302020302020302020302020302020302020302020302020302020302020300A2020202D302E373134352020202D302E3631383720202020302E303030302043202020302020302020302020302020302020302020302020302020302020302020302020300A2020202D302E3731343520202020302E3230363320202020302E303030302043202020302020302020302020302020302020302020302020302020302020302020302020300A2020202D312E3732323320202020302E3537333120202020302E303030302043202020302020302020302020302020302020302020302020302020302020302020302020300A2020202D322E3532353120202020302E3736333320202020302E303030302043202020302020302020302020302020302020302020302020302020302020302020302020300A2020202D312E3537393020202020312E3338353520202020302E303030302043202020302020302020302020302020302020302020302020302020302020302020302020300A2020202D312E393538392020202D302E3231373320202020302E303030302043202020302020302020302020302020302020302020302020302020302020302020302020300A20202020302E303030302020202D312E3835363320202020302E303030302043202020302020302020302020302020302020302020302020302020302020302020302020300A2020202D302E383235302020202D312E3835363320202020302E303030302043202020302020302020302020302020302020302020302020302020302020302020302020300A20202020302E383235302020202D312E3835363320202020302E303030302043202020302020302020302020302020302020302020302020302020302020302020302020300A20202020302E303030302020202D322E3638313320202020302E303030302043202020302020302020302020302020302020302020302020302020302020302020302020300A20202020312E3732323320202020302E3537333120202020302E303030302043202020302020302020302020302020302020302020302020302020302020302020302020300A20202020312E3537393020202020312E3338353520202020302E303030302043202020302020302020302020302020302020302020302020302020302020302020302020300A20202020322E3532353120202020302E3736333320202020302E303030302043202020302020302020302020302020302020302020302020302020302020302020302020300A20202020312E393538392020202D302E3231373320202020302E303030302043202020302020302020302020302020302020302020302020302020302020302020302020300A2020202D302E3832353020202020312E3434333820202020302E303030302046202020302020302020302020302020302020302020302020302020302020302020302020300A20202020302E3030303020202020322E3236383820202020302E303030302043202020302020302020302020302020302020302020302020302020302020302020302020300A20202020302E3832353020202020312E3434333820202020302E303030302046202020302020302020302020302020302020302020302020302020302020302020302020300A20202020302E3731343520202020322E3638313320202020302E303030302043202020302020302020302020302020302020302020302020302020302020302020302020300A2020202D302E3731343520202020322E3638313320202020302E303030302043202020302020302020302020302020302020302020302020302020302020302020302020300A2020322020332020312020302020202020200A2020332020342020322020302020202020200A2020342020352020312020302020202020200A2020352020362020322020302020202020200A2020362020372020312020302020202020200A2020322020372020322020302020202020200A2020382020392020312020302020202020200A2020382031312020312020302020202020200A2020382031302020312020302020202020200A2020372020382020312020302020202020200A2031322031332020312020302020202020200A2031322031352020312020302020202020200A2031322031342020312020302020202020200A2020352031322020312020302020202020200A2031362031372020312020302020202020200A2031362031392020312020302020202020200A2031362031382020312020302020202020200A2020332031362020312020302020202020200A2020312020322020312020302020202020200A2020312032302020312020312020202020200A2020312032312020312020302020202020200A2020312032322020312020312020202020200A2032312032332020312020302020202020200A2032312032342020312020302020202020200A4D2020454E44
Contributor: MASS SPECTROSCOPY SOC. OF JAPAN (MSSJ)
InstType: EI
InstName: JEOL JMS-D-3000
IoniMethod: _ENERGY 70 eV
IonPolarity: pos
Date: 2010-10-09 19:48:36+02:00
Num Peaks: 19
43 26 55 18 57 619 58 29 81 40 91 14 117 11 129 10 131 14 189 12 
231 15 255 11 283 999 284 235 285 61 298 86 299 21 339 16 354 17 
