Name: 3-METHYL-5-KETOHEXANAL
MW: 128
Formula: C7H12O2
Synonym: MassBank: JP002300
Synonym: 3-METHYL-5-KETOHEXANAL
Synonym: 3-METHYL-5-OXOHEXANAL
Structure: 310A32320A332D4D455448594C2D352D4B45544F484558414E414C2E6D6F6C0A20204368656D447261773033323031303031343432440A2020392020382020302020302020302020302020302020302020302020303939392056323030300A20202020312E3432383920202020302E3230363220202020302E303030302043202020302020302020302020302020302020302020302020302020302020302020302020300A20202020302E3731343520202020302E3631383820202020302E303030302043202020302020302020302020302020302020302020302020302020302020302020302020300A2020202D302E3030303020202020302E3230363220202020302E303030302043202020302020302020302020302020302020302020302020302020302020302020302020300A2020202D302E3731343520202020302E3631383820202020302E303030302043202020302020302020302020302020302020302020302020302020302020302020302020300A2020202D312E3432383920202020302E3230363220202020302E303030302043202020302020302020302020302020302020302020302020302020302020302020302020300A2020202D322E3134333420202020302E3631383820202020302E303030302043202020302020302020302020302020302020302020302020302020302020302020302020300A20202020322E3134333420202020302E3631383820202020302E30303030204F202020302020302020302020302020302020302020302020302020302020302020302020300A2020202D312E343238392020202D302E3631383820202020302E30303030204F202020302020302020302020302020302020302020302020302020302020302020302020300A2020202D302E303030302020202D302E3631383820202020302E303030302043202020302020302020302020302020302020302020302020302020302020302020302020300A2020312020322020312020302020202020200A2020322020332020312020302020202020200A2020332020342020312020302020202020200A2020342020352020312020302020202020200A2020352020362020312020302020202020200A2020312020372020322020302020202020200A2020352020382020322020302020202020200A2020332020392020312020302020202020200A4D2020454E44
Contributor: MASS SPECTROSCOPY SOC. OF JAPAN (MSSJ)
InstType: EI
InstName: JEOL JMS-D-3000
IoniMethod: _ENERGY 18 eV
IonPolarity: pos
Date: 2010-10-09 19:48:36+02:00
Num Peaks: 32
31 11 32 91 40 22 41 52 43 947 44 43 55 23 57 88 58 889 59 104 
67 87 68 999 69 220 70 110 71 311 72 113 82 19 84 37 85 437 86 209 
87 11 95 168 96 13 99 13 100 390 101 34 109 37 110 453 111 60 113 70 
128 16 129 47 
