Name: 4-(3-METHYL-2-BUTENOXY)-2-METHYL-2-BUTANOL
MW: 172
Formula: C10H20O2
Synonym: MassBank: JP009791
Synonym: 4-(3-METHYL-2-BUTENOXY)-2-METHYL-2-BUTANOL
Structure: 342D28332D4D455448594C2D322D425554454E4F5859292D322D4D455448594C2D322D425554414E4F4C2E6D6F6C0A20204368656D447261773033323331303233343132440A2031322031312020302020302020302020302020302020302020302020303939392056323030300A2020202D322E3431393720202020302E3736393720202020302E303030302043202020302020302020302020302020302020302020302020302020302020302020302020300A2020202D312E3730353320202020302E3335373220202020302E303030302043202020302020302020302020302020302020302020302020302020302020302020302020300A2020202D312E3239323820202020312E3037313720202020302E303030302043202020302020302020302020302020302020302020302020302020302020302020302020300A2020202D302E3436373820202020312E3037313720202020302E303030302043202020302020302020302020302020302020302020302020302020302020302020302020300A2020202D302E393930382020202D302E3035353320202020302E303030302043202020302020302020302020302020302020302020302020302020302020302020302020300A2020202D322E313137382020202D302E3335373220202020302E30303030204F202020302020302020302020302020302020302020302020302020302020302020302020300A2020202D302E3035353320202020302E3335373220202020302E30303030204F202020302020302020302020302020302020302020302020302020302020302020302020300A20202020302E3736393720202020302E3335373220202020302E303030302043202020302020302020302020302020302020302020302020302020302020302020302020300A20202020312E313832322020202D302E3335373220202020302E303030302043202020302020302020302020302020302020302020302020302020302020302020302020300A20202020322E303037322020202D302E3335373220202020302E303030302043202020302020302020302020302020302020302020302020302020302020302020302020300A20202020322E343139372020202D312E3037313720202020302E303030302043202020302020302020302020302020302020302020302020302020302020302020302020300A20202020322E3431393720202020302E3335373220202020302E303030302043202020302020302020302020302020302020302020302020302020302020302020302020300A2020312020322020312020302020202020200A2020322020332020312020302020202020200A2020332020342020312020302020202020200A2020322020352020312020302020202020200A2020322020362020312020302020202020200A2020382020392020312020302020202020200A2020392031302020322020302020202020200A2031302031312020312020302020202020200A2020372020382020312020302020202020200A2031302031322020312020302020202020200A2020342020372020312020302020202020200A4D2020454E44
Contributor: KURARAY CO., LTD.
InstType: EI
InstName: JEOL JMS-D-300
IoniMethod: _ENERGY 70 eV
IonPolarity: pos
Date: 2010-10-09 19:48:36+02:00
Num Peaks: 25
27 58 29 50 39 70 40 3 41 602 42 86 43 75 53 8 55 172 56 42 
57 67 59 19 67 106 68 145 69 999 70 32 71 318 83 50 85 498 86 6 
87 80 89 125 96 25 139 44 140 41 
