Name: ISOPROPENYL METHYL ETHER
CAS: 116-11-0
MW: 72
Formula: C4H8O
Synonym: MassBank: JP007657
Synonym: ISOPROPENYL METHYL ETHER
Synonym: 2-METHOXY-1-PROPENE
Structure: 310A31340A49534F50524F50454E594C204D455448594C2045544845522E6D6F6C0A20204368656D447261773031323231303031353932440A2020352020342020302020302020302020302020302020302020302020303939392056323030300A20202020302E3335373220202020302E3631383820202020302E30303030204F202020302020302020302020302020302020302020302020302020302020302020302020300A20202020312E3037313720202020302E3230363220202020302E303030302043202020302020302020302020302020302020302020302020302020302020302020302020300A2020202D302E3335373220202020302E3230363220202020302E303030302043202020302020302020302020302020302020302020302020302020302020302020302020300A2020202D302E333537322020202D302E3631383820202020302E303030302043202020302020302020302020302020302020302020302020302020302020302020302020300A2020202D312E3037313720202020302E3631383820202020302E303030302043202020302020302020302020302020302020302020302020302020302020302020302020300A2020312020322020312020302020202020200A2020332020342020322020302020202020200A2020332020352020312020302020202020200A2020312020332020312020302020202020200A4D2020454E44
Contributor: TAJIMA S, GUNMA COLLEGE OF TECHNOLOGY
InstType: EI
InstName: HITACHI RMU-5B
IoniMethod: _ENERGY 70 eV
IonPolarity: pos
Date: 2010-10-09 19:48:36+02:00
Num Peaks: 21
14 72 15 252 25 25 26 127 27 555 28 54 29 482 30 25 31 62 33 14 
36 13 37 73 38 124 39 441 40 169 41 663 42 999 43 208 57 49 72 298 
73 20 
