Name: 2-(TRIMETHYLSILYLMETHYL)BENZYL TRIMETHYLSILYL ETHER
MW: 266
Formula: C14H26OSi2
Synonym: MassBank: JP002277
Synonym: 2-(TRIMETHYLSILYLMETHYL)BENZYL TRIMETHYLSILYL ETHER
Structure: 322D285452494D455448594C53494C594C4D455448594C2942454E5A594C205452494D455448594C53494C594C2045544845522E6D6F6C0A20204368656D447261773132323130393231333532440A2031372031372020302020302020302020302020302020302020302020303939392056323030300A20202020312E303731372020202D302E3536333520202020302E30303030204F202020302020302020302020302020302020302020302020302020302020302020302020300A20202020312E373836322020202D302E3135313020202020302E303030302053692020302020302020302020302020302020302020302020302020302020302020302020300A20202020322E313938372020202D302E3836353520202020302E303030302043202020302020302020302020302020302020302020302020302020302020302020302020300A20202020322E3530303620202020302E3236313520202020302E303030302043202020302020302020302020302020302020302020302020302020302020302020302020300A20202020312E3337333720202020302E3536333520202020302E303030302043202020302020302020302020302020302020302020302020302020302020302020302020300A20202020302E333537322020202D302E3135313020202020302E303030302043202020302020302020302020302020302020302020302020302020302020302020302020300A2020202D302E333537322020202D302E3536333520202020302E303030302043202020302020302020302020302020302020302020302020302020302020302020302020300A2020202D312E303731372020202D302E3135313020202020302E303030302043202020302020302020302020302020302020302020302020302020302020302020302020300A2020202D312E373836322020202D302E3536333520202020302E303030302043202020302020302020302020302020302020302020302020302020302020302020302020300A2020202D312E373836322020202D312E3338383520202020302E303030302043202020302020302020302020302020302020302020302020302020302020302020302020300A2020202D312E303731372020202D312E3830313020202020302E303030302043202020302020302020302020302020302020302020302020302020302020302020302020300A2020202D302E333537322020202D312E3338383520202020302E303030302043202020302020302020302020302020302020302020302020302020302020302020302020300A2020202D312E3037313720202020302E3637343020202020302E303030302043202020302020302020302020302020302020302020302020302020302020302020302020300A2020202D312E3738363220202020312E3038363520202020302E303030302053692020302020302020302020302020302020302020302020302020302020302020302020300A2020202D312E3337333720202020312E3830313020202020302E303030302043202020302020302020302020302020302020302020302020302020302020302020302020300A2020202D322E3530303620202020312E3439393020202020302E303030302043202020302020302020302020302020302020302020302020302020302020302020302020300A2020202D322E3139383720202020302E3337323020202020302E303030302043202020302020302020302020302020302020302020302020302020302020302020302020300A2020322020332020312020312020202020200A2020322020342020312020302020202020200A2020322020352020312020312020202020200A2020312020322020312020302020202020200A2020362020372020312020302020202020200A2020372020382020312020302020202020200A2020382020392020322020302020202020200A2020392031302020312020302020202020200A2031302031312020322020302020202020200A2031312031322020312020302020202020200A2020372031322020322020302020202020200A2031342031352020312020312020202020200A2031342031362020312020302020202020200A2031342031372020312020312020202020200A2031332031342020312020302020202020200A2020382031332020312020302020202020200A2020312020362020312020302020202020200A4D2020454E44
Contributor: MASS SPECTROSCOPY SOC. OF JAPAN (MSSJ)
InstType: EI
InstName: JEOL JMS-D-3000
IoniMethod: _ENERGY 70 eV
IonPolarity: pos
Date: 2010-10-09 19:48:36+02:00
Num Peaks: 17
43 29 45 85 73 460 74 38 75 235 77 37 78 39 103 43 104 999 105 119 
147 51 161 31 163 30 176 20 177 21 266 2 267 0 
