Name: MassBank: JP007265
MW: 288
Formula: C15H32O3Si
Synonym: MassBank: JP007265
Synonym: METHYL (2R,3R,4S)-3-(TERT-BUTYLDIMETHYLSILYLOXY)-2,4-DIMETHYLHEXANOATE
Structure: 303338365F4D455448594C202832522C33522C3453292D332D28544552542D425554594C44494D455448594C53494C594C4F5859292D322C342D44494D455448594C484558414E4F4154452E6D6F6C0A20204368656D447261773130313931303230313932440A2032312032302020302020302020302020302020302020302020302020303939392056323030300A2020202D302E393230372020202D312E3233373420202020302E303030302043202020302020302020302020302020302020302020302020302020302020302020302020300A2020202D302E393230372020202D302E3431323420202020302E303030302043202020302020302020302020302020302020302020302020302020302020302020302020300A2020202D302E3230363220202020302E3030303220202020302E303030302043202020302020302020302020302020302020302020302020302020302020302020302020300A2020202D302E3230363220202020302E3832353020202020302E303030302043202020302020302020302020302020302020302020302020302020302020302020302020300A2020202D302E3932303720202020312E3233373620202020302E303030302043202020302020302020302020302020302020302020302020302020302020302020302020300A2020202D312E3633353220202020302E3832353120202020302E303030302043202020302020302020302020302020302020302020302020302020302020302020302020300A2020202D302E323036322020202D312E3634393920202020302E30303030204F202020302020302020302020302020302020302020302020302020302020302020302020300A2020202D312E363335322020202D312E3634393920202020302E30303030204F202020302020302020302020302020302020302020302020302020302020302020302020300A20202020302E3530383220202020312E3233373620202020302E303030302043202020302020302020302020302020302020302020302020302020302020302020302020300A2020202D312E3633353220202020302E3030303220202020302E303030302043202020302020302020302020302020302020302020302020302020302020302020302020300A20202020302E353038322020202D302E3431323320202020302E30303030204F202020302020302020302020302020302020302020302020302020302020302020302020300A20202020312E3232323720202020302E3030303220202020302E303030302053692020302020302020302020302020302020302020302020302020302020302020302020300A20202020312E3933373120202020302E3431323620202020302E303030302043202020302020302020302020302020302020302020302020302020302020302020302020300A20202020302E3831303220202020302E3731343520202020302E303030302043202020302020302020302020302020302020302020302020302020302020302020302020300A20202020312E363335322020202D302E3731343320202020302E303030302043202020302020302020302020302020302020302020302020302020302020302020302020300A20202020322E333439362020202D302E3330313820202020302E303030302043202020302020302020302020302020302020302020302020302020302020302020302020300A20202020322E303437362020202D312E3432383820202020302E303030302043202020302020302020302020302020302020302020302020302020302020302020302020300A20202020302E393230372020202D312E3132363820202020302E303030302043202020302020302020302020302020302020302020302020302020302020302020302020300A2020202D322E333439362020202D312E3233373420202020302E303030302043202020302020302020302020302020302020302020302020302020302020302020302020300A2020202D302E313339392020202D302E3832323220202020302E303030302048202020302020302020302020302020302020302020302020302020302020302020302020300A2020202D302E3232313220202020312E3634393920202020302E303030302048202020302020302020302020302020302020302020302020302020302020302020302020300A2020312020322020312020302020202020200A2020322020332020312020302020202020200A2020332020342020312020312020202020200A2020342020352020312020302020202020200A2020352020362020312020302020202020200A2020312020372020322020302020202020200A2020312020382020312020302020202020200A2020342020392020312020302020202020200A2020322031302020312020312020202020200A2031322031332020312020302020202020200A2031322031342020312020302020202020200A2031352031362020312020302020202020200A2031352031382020312020302020202020200A2031352031372020312020302020202020200A2031322031352020312020302020202020200A2031312031322020312020302020202020200A2020332031312020312020302020202020200A2020382031392020312020302020202020200A2020332032302020312020312020202020200A2020342032312020312020312020202020200A4D2020454E44
Contributor: ITO S, DEPT. OF CHEM., TOHOKU UNIV.
InstType: EI
InstName: HITACHI M-52
IoniMethod: _ENERGY 14 eV
IonPolarity: pos
Date: 2010-10-09 19:48:36+02:00
Num Peaks: 11
43 26 58 33 69 20 75 3 97 37 115 97 125 21 201 16 202 23 231 999 
232 145 
