Name: TRANS-2-HEPTENAL
MW: 112
Formula: C7H12O
Synonym: MassBank: JP008678
Synonym: TRANS-2-HEPTENAL
Structure: 310A32300A5452414E532D322D48455054454E414C2E6D6F6C0A20204368656D447261773038313231303037343832440A2020382020372020302020302020302020302020302020302020302020303939392056323030300A20202020312E373836322020202D302E3230363320202020302E303030302043202020302020302020302020302020302020302020302020302020302020302020302020300A20202020312E3037313720202020302E3230363320202020302E303030302043202020302020302020302020302020302020302020302020302020302020302020302020300A20202020302E333537322020202D302E3230363320202020302E303030302043202020302020302020302020302020302020302020302020302020302020302020302020300A2020202D302E3335373220202020302E3230363220202020302E303030302043202020302020302020302020302020302020302020302020302020302020302020302020300A2020202D312E303731372020202D302E3230363320202020302E303030302043202020302020302020302020302020302020302020302020302020302020302020302020300A2020202D312E3738363220202020302E3230363220202020302E303030302043202020302020302020302020302020302020302020302020302020302020302020302020300A2020202D322E353030362020202D302E3230363320202020302E303030302043202020302020302020302020302020302020302020302020302020302020302020302020300A20202020322E3530303620202020302E3230363320202020302E30303030204F202020302020302020302020302020302020302020302020302020302020302020302020300A2020312020322020312020302020202020200A2020322020332020322020302020202020200A2020332020342020312020302020202020200A2020342020352020312020302020202020200A2020352020362020312020302020202020200A2020362020372020312020302020202020200A2020312020382020322020302020202020200A4D2020454E44
Contributor: SODA AROMATIC CO., LTD.
InstType: EI
InstName: HITACHI M-80B
IoniMethod: _ENERGY 70 eV
IonPolarity: pos
Date: 2010-10-09 19:48:36+02:00
Num Peaks: 41
15 31 26 53 27 665 28 95 29 352 31 11 37 18 38 51 39 616 40 90 
41 999 42 218 43 366 44 19 50 41 51 72 52 26 53 145 54 49 55 592 
56 454 57 501 58 22 63 13 65 18 66 14 67 48 68 285 69 315 70 354 
71 53 77 16 79 45 81 41 82 13 83 652 84 134 94 36 97 50 111 14 
112 48 
