Name: ETHYL IODIDE
CAS: 75-03-6
MW: 155
Formula: C2H5I
Synonym: MassBank: JP004911
Synonym: ETHYL IODIDE
Synonym: IODOETHANE
Structure: 310A31300A455448594C20494F444944452E6D6F6C0A20204368656D447261773038313131303138323832440A2020332020322020302020302020302020302020302020302020302020303939392056323030300A20202020302E3030303020202020302E3230363320202020302E303030302043202020302020302020302020302020302020302020302020302020302020302020302020300A20202020302E373134352020202D302E3230363320202020302E303030302043202020302020302020302020302020302020302020302020302020302020302020302020300A2020202D302E373134352020202D302E3230363320202020302E303030302049202020302020302020302020302020302020302020302020302020302020302020302020300A2020312020322020312020302020202020200A2020312020332020312020302020202020200A4D2020454E44
Contributor: MASS SPECTROSCOPY SOC. OF JAPAN (MSSJ)
InstType: EI
InstName: JEOL JMS-D-3000
IoniMethod: _ENERGY 70 eV
IonPolarity: pos
Date: 2010-10-09 19:48:36+02:00
Num Peaks: 5
127 141 128 77 141 17 156 999 157 22 
