Name: 5-METHHYLFURFURAL
CAS: 620-02-0
MW: 110
Formula: C6H6O2
Synonym: MassBank: JP007743
Synonym: 5-METHHYLFURFURAL
Synonym: 5-METHYL-2-FURANCARBOXALDEHYDE
Structure: 310A32310A352D4D45544848594C465552465552414C2E6D6F6C0A20204368656D447261773034323331303036313132440A2020382020382020302020302020302020302020302020302020302020303939392056323030300A20202020302E343437392020202D302E3535323420202020302E30303030204F202020302020302020302020302020302020302020302020302020302020302020302020300A2020202D302E333336372020202D302E3239373520202020302E303030302043202020302020302020302020302020302020302020302020302020302020302020302020300A2020202D302E3333363720202020302E3532373520202020302E303030302043202020302020302020302020302020302020302020302020302020302020302020302020300A20202020302E3434373920202020302E3738323420202020302E303030302043202020302020302020302020302020302020302020302020302020302020302020302020300A20202020302E3933323820202020302E3131353020202020302E303030302043202020302020302020302020302020302020302020302020302020302020302020302020300A2020202D312E303034322020202D302E3738323420202020302E303030302043202020302020302020302020302020302020302020302020302020302020302020302020300A2020202D312E373537382020202D302E3434363920202020302E30303030204F202020302020302020302020302020302020302020302020302020302020302020302020300A20202020312E3735373820202020302E3131353020202020302E303030302043202020302020302020302020302020302020302020302020302020302020302020302020300A2020312020322020312020302020202020200A2020322020332020322020302020202020200A2020332020342020312020302020202020200A2020342020352020322020302020202020200A2020312020352020312020302020202020200A2020362020372020322020302020202020200A2020322020362020312020302020202020200A2020352020382020312020302020202020200A4D2020454E44
Contributor: HASHIMOTO K, KYOTO COLLEGE OF PHARMACY
InstType: EI
InstName: HITACHI M-80
IoniMethod: _ENERGY 20 eV
IonPolarity: pos
Date: 2010-10-09 19:48:36+02:00
Num Peaks: 18
27 262 28 18 29 28 39 156 40 17 42 10 43 107 51 41 52 69 53 787 
54 77 55 11 79 10 80 10 81 139 82 10 110 999 111 68 
