Name: MassBank: JP006343
MW: 196
Formula: C10H12O4
Synonym: MassBank: JP006343
Synonym: 2-HYDROXY-4,6-DIMETHOXYACETOPHENONE
Structure: 322D485944524F58592D342C362D44494D4554484F5859414345544F5048454E4F4E452E6D6F6C0A20204368656D447261773031323131303134353432440A2031342031342020302020302020302020302020302020302020302020303939392056323030300A2020202D302E3731343520202020302E3431323520202020302E303030302043202020302020302020302020302020302020302020302020302020302020302020302020300A2020202D302E373134352020202D302E3431323520202020302E303030302043202020302020302020302020302020302020302020302020302020302020302020302020300A20202020302E303030302020202D302E3832353020202020302E303030302043202020302020302020302020302020302020302020302020302020302020302020302020300A20202020302E373134352020202D302E3431323520202020302E303030302043202020302020302020302020302020302020302020302020302020302020302020302020300A20202020302E3731343520202020302E3431323520202020302E303030302043202020302020302020302020302020302020302020302020302020302020302020302020300A20202020302E3030303020202020302E3832353020202020302E303030302043202020302020302020302020302020302020302020302020302020302020302020302020300A2020202D312E3432383920202020302E3832353020202020302E30303030204F202020302020302020302020302020302020302020302020302020302020302020302020300A20202020312E3432383920202020302E3832353020202020302E30303030204F202020302020302020302020302020302020302020302020302020302020302020302020300A20202020312E3432383920202020312E3635303020202020302E303030302043202020302020302020302020302020302020302020302020302020302020302020302020300A20202020302E303030302020202D312E3635303020202020302E30303030204F202020302020302020302020302020302020302020302020302020302020302020302020300A2020202D302E373134352020202D322E3036323520202020302E303030302043202020302020302020302020302020302020302020302020302020302020302020302020300A20202020302E3030303020202020312E3635303020202020302E303030302043202020302020302020302020302020302020302020302020302020302020302020302020300A20202020302E3731343520202020322E3036323520202020302E303030302043202020302020302020302020302020302020302020302020302020302020302020302020300A2020202D302E3731343520202020322E3036323520202020302E30303030204F202020302020302020302020302020302020302020302020302020302020302020302020300A2020312020322020322020302020202020200A2020322020332020312020302020202020200A2020332020342020322020302020202020200A2020342020352020312020302020202020200A2020352020362020322020302020202020200A2020362020312020312020302020202020200A2020312020372020312020302020202020200A2020352020382020312020302020202020200A2020382020392020312020302020202020200A2020332031302020312020302020202020200A2031302031312020312020302020202020200A2020362031322020312020302020202020200A2031322031332020312020302020202020200A2031322031342020322020302020202020200A4D2020454E44
Contributor: EGUCHI S, FAC. OF SCIENCE, HIROSHIMA UNIV.
InstType: EI
InstName: HITACHI RMU-7L
IoniMethod: _ENERGY 70 eV
IonPolarity: pos
Date: 2010-10-09 19:48:36+02:00
Num Peaks: 63
40 15 41 28 42 12 43 10 50 25 51 45 52 25 53 6 54 25 55 32 
59 25 61 2 62 25 63 30 64 22 65 4 66 32 67 27 68 15 69 7 
77 30 79 30 80 20 81 3 82 12 83 12 84 21 91 2 92 10 93 10 
94 12 95 6 108 15 109 25 110 30 111 3 119 10 121 18 122 18 123 4 
124 18 125 28 135 15 136 1 137 80 138 55 139 11 149 1 151 27 152 10 
153 15 163 2 165 15 166 55 167 20 177 2 178 28 179 17 181 999 182 9 
195 10 196 305 197 42 
