Name: MassBank: JP009911
MW: 222
Formula: C9H12Cl2O2
Synonym: MassBank: JP009911
Synonym: METHYL 2,2-DIMETHYL-3-(2,2-DICHLOROETHENYL)CYCLOPROPANOATE
Structure: 4D455448594C20322C322D44494D455448594C2D332D28322C322D444943484C4F524F455448454E594C294359434C4F50524F50414E4F4154452E6D6F6C0A20204368656D447261773038313131303233343132440A2031332031332020302020302020302020302020302020302020302020303939392056323030300A20202020302E353633352020202D302E3332363820202020302E303030302043202020302020302020302020302020302020302020302020302020302020302020302020300A2020202D302E313531302020202D302E3733393320202020302E303030302043202020302020302020302020302020302020302020302020302020302020302020302020300A2020202D302E3135313020202020302E3038353720202020302E303030302043202020302020302020302020302020302020302020302020302020302020302020302020300A20202020312E333838352020202D302E3332363820202020302E303030302043202020302020302020302020302020302020302020302020302020302020302020302020300A20202020312E383031302020202D312E3034313320202020302E30303030204F202020302020302020302020302020302020302020302020302020302020302020302020300A20202020312E3830313020202020302E3338373620202020302E30303030204F202020302020302020302020302020302020302020302020302020302020302020302020300A2020202D302E3536333520202020302E3830303120202020302E303030302043202020302020302020302020302020302020302020302020302020302020302020302020300A2020202D312E3338383520202020302E3830303120202020302E303030302043202020302020302020302020302020302020302020302020302020302020302020302020300A2020202D312E3830313020202020312E3531343620202020302E3030303020436C2020302020302020302020302020302020302020302020302020302020302020302020300A2020202D312E3830313020202020302E3038353720202020302E3030303020436C2020302020302020302020302020302020302020302020302020302020302020302020300A20202020302E313331322020202D312E3531343620202020302E303030302043202020302020302020302020302020302020302020302020302020302020302020302020300A2020202D302E393633352020202D302E3838323620202020302E303030302043202020302020302020302020302020302020302020302020302020302020302020302020300A20202020312E3338383520202020312E3130323120202020302E303030302043202020302020302020302020302020302020302020302020302020302020302020302020300A2020312020322020312020302020202020200A2020322020332020312020302020202020200A2020312020332020312020302020202020200A2020312020342020312020302020202020200A2020342020352020322020302020202020200A2020342020362020312020302020202020200A2020372020382020322020302020202020200A2020382020392020312020302020202020200A2020382031302020312020302020202020200A2020332020372020312020302020202020200A2020322031312020312020302020202020200A2020322031322020312020302020202020200A2020362031332020312020302020202020200A4D2020454E44
Contributor: KURARAY CO., LTD.
InstType: EI
InstName: JEOL JMS-D-300
IoniMethod: _ENERGY 70 eV
IonPolarity: pos
Date: 2010-10-09 19:48:36+02:00
Num Peaks: 59
27 106 29 33 36 40 38 50 39 250 41 208 43 116 50 67 51 80 52 208 
53 140 55 60 61 413 63 98 65 128 67 75 73 423 75 118 77 253 79 85 
81 50 83 77 85 142 87 57 89 57 91 964 92 126 93 108 95 50 99 48 
109 170 111 148 112 32 113 148 114 20 121 50 123 58 125 60 127 634 128 145 
129 220 130 43 139 68 145 38 149 68 151 50 152 50 163 999 164 78 165 627 
166 50 167 53 179 32 187 707 188 68 189 232 191 135 193 30 222 38 
