Name: MassBank: JP001045
MW: 342
Formula: C15H26O5Si2
Synonym: MassBank: JP001045
Synonym: 3,5-DIMETHOXY-4-(TRIMETHYLSILYL)OXYBENZOICACID TRIMETHYLSILYL ESTR
Synonym: TRIMETHYLSILYL 3,5-DIMETHOXY-4-TRIMETHYLSILOXYBENZOATE
Structure: 332C352D44494D4554484F58592D342D285452494D455448594C53494C594C294F585942454E5A4F494341434944205452494D455448594C53494C594C20455354522E6D6F6C0A20204368656D447261773032323231303031313432440A2032322032322020302020302020302020302020302020302020302020303939392056323030300A2020202D302E3731343520202020302E3838303320202020302E303030302043202020302020302020302020302020302020302020302020302020302020302020302020300A2020202D302E3731343520202020302E3035353320202020302E303030302043202020302020302020302020302020302020302020302020302020302020302020302020300A20202020302E303030302020202D302E3335373220202020302E303030302043202020302020302020302020302020302020302020302020302020302020302020302020300A20202020302E3731343520202020302E3035353320202020302E303030302043202020302020302020302020302020302020302020302020302020302020302020302020300A20202020302E3731343520202020302E3838303320202020302E303030302043202020302020302020302020302020302020302020302020302020302020302020302020300A20202020302E3030303020202020312E3239323820202020302E303030302043202020302020302020302020302020302020302020302020302020302020302020302020300A20202020302E3030303020202020322E3131373820202020302E30303030204F202020302020302020302020302020302020302020302020302020302020302020302020300A20202020312E3432383920202020312E3239323820202020302E30303030204F202020302020302020302020302020302020302020302020302020302020302020302020300A20202020322E3134333420202020302E3838303320202020302E303030302043202020302020302020302020302020302020302020302020302020302020302020302020300A2020202D312E3432383920202020312E3239323820202020302E30303030204F202020302020302020302020302020302020302020302020302020302020302020302020300A2020202D322E3134333420202020302E3838303320202020302E303030302043202020302020302020302020302020302020302020302020302020302020302020302020300A20202020302E303030302020202D312E3138323220202020302E303030302043202020302020302020302020302020302020302020302020302020302020302020302020300A20202020302E373134352020202D312E3539343720202020302E30303030204F202020302020302020302020302020302020302020302020302020302020302020302020300A2020202D302E373134352020202D312E3539343720202020302E30303030204F202020302020302020302020302020302020302020302020302020302020302020302020300A20202020302E373134352020202D322E3431393720202020302E303030302053692020302020302020302020302020302020302020302020302020302020302020302020300A20202020302E373134352020202D332E3234343720202020302E303030302043202020302020302020302020302020302020302020302020302020302020302020302020300A20202020302E3731343520202020322E3533303320202020302E303030302053692020302020302020302020302020302020302020302020302020302020302020302020300A20202020312E3432383920202020322E3934323820202020302E303030302043202020302020302020302020302020302020302020302020302020302020302020302020300A20202020302E3330323020202020332E3234343720202020302E303030302043202020302020302020302020302020302020302020302020302020302020302020302020300A20202020312E3132373020202020312E3831353820202020302E303030302043202020302020302020302020302020302020302020302020302020302020302020302020300A20202020312E353339352020202D322E3431393720202020302E303030302043202020302020302020302020302020302020302020302020302020302020302020302020300A2020202D302E313130352020202D322E3431393720202020302E303030302043202020302020302020302020302020302020302020302020302020302020302020302020300A2020312020322020322020302020202020200A2020322020332020312020302020202020200A2020332020342020322020302020202020200A2020342020352020312020302020202020200A2020352020362020322020302020202020200A2020362020312020312020302020202020200A2020362020372020312020302020202020200A2020352020382020312020302020202020200A2020382020392020312020302020202020200A2020312031302020312020302020202020200A2031302031312020312020302020202020200A2020332031322020312020302020202020200A2031322031332020312020302020202020200A2031322031342020322020302020202020200A2031332031352020312020302020202020200A2031352031362020312020302020202020200A2020372031372020312020302020202020200A2031372031382020312020302020202020200A2031372031392020312020302020202020200A2031372032302020312020302020202020200A2031352032312020312020312020202020200A2031352032322020312020312020202020200A4D2020454E44
Contributor: KOGA M, UNIV. OF OCCUPATIONAL AND ENVIRONMENTAL HEALTH
InstType: EI
InstName: JEOL JMS-01-SG
IoniMethod: _ENERGY 70 eV
IonPolarity: pos
Date: 2010-10-09 19:48:36+02:00
Num Peaks: 28
45 150 59 97 73 725 75 16 77 132 89 91 137 64 142 30 149 179 156 82 
179 61 195 7 223 165 253 404 254 91 283 22 297 666 298 165 299 76 312 79 
313 200 314 61 327 999 328 27 329 106 342 598 343 159 344 44 
