Name: MassBank: JP002696
MW: 426
Formula: C30H50O
Synonym: MassBank: JP002696
Synonym: LANOSTA-8,24-DIEN-3-OL
Synonym: LANOSTEROL
Structure: 303438335F4C414E4F5354412D382C32342D4449454E2D332D4F4C2E6D6F6C0A20204368656D447261773039303631303137343132440A2033342033372020302020302020302020302020302020302020302020303939392056323030300A2020202D332E343134312020202D322E3239313520202020302E303030302043202020302020302020302020302020302020302020302020302020302020302020302020300A2020202D332E343134312020202D312E3436363520202020302E303030302043202020302020302020302020302020302020302020302020302020302020302020302020300A2020202D322E363939362020202D312E3035343020202020302E303030302043202020302020302020302020302020302020302020302020302020302020302020302020300A2020202D322E363939362020202D322E3730343020202020302E303030302043202020302020302020302020302020302020302020302020302020302020302020302020300A2020202D322E313639332020202D332E3333363020202020302E303030302043202020302020302020302020302020302020302020302020302020302020302020302020300A2020202D332E323239392020202D332E3333363020202020302E303030302043202020302020302020302020302020302020302020302020302020302020302020302020300A2020202D312E393835322020202D322E3239313520202020302E303030302043202020302020302020302020302020302020302020302020302020302020302020302020300A2020202D312E323730372020202D322E3730343020202020302E303030302043202020302020302020302020302020302020302020302020302020302020302020302020300A2020202D302E353536322020202D322E3239313520202020302E303030302043202020302020302020302020302020302020302020302020302020302020302020302020300A2020202D302E353536322020202D312E3436363520202020302E303030302043202020302020302020302020302020302020302020302020302020302020302020302020300A20202020302E313538322020202D312E3035343020202020302E303030302043202020302020302020302020302020302020302020302020302020302020302020302020300A20202020302E313538322020202D312E3837393020202020302E303030302043202020302020302020302020302020302020302020302020302020302020302020302020300A20202020302E393432392020202D312E3330383920202020302E303030302043202020302020302020302020302020302020302020302020302020302020302020302020300A20202020312E343237382020202D302E3634313520202020302E303030302043202020302020302020302020302020302020302020302020302020302020302020302020300A20202020302E3934323920202020302E3032363020202020302E303030302043202020302020302020302020302020302020302020302020302020302020302020302020300A20202020312E3139373820202020302E3831303620202020302E303030302043202020302020302020302020302020302020302020302020302020302020302020302020300A20202020322E3030343820202020302E3938323120202020302E303030302043202020302020302020302020302020302020302020302020302020302020302020302020300A20202020322E3235393720202020312E3736363720202020302E303030302043202020302020302020302020302020302020302020302020302020302020302020302020300A20202020332E3036363720202020312E3933383320202020302E303030302043202020302020302020302020302020302020302020302020302020302020302020302020300A20202020332E3332313620202020322E3732323920202020302E303030302043202020302020302020302020302020302020302020302020302020302020302020302020300A20202020342E3132383620202020322E3839343420202020302E303030302043202020302020302020302020302020302020302020302020302020302020302020302020300A20202020322E3736393620202020332E3333363020202020302E303030302043202020302020302020302020302020302020302020302020302020302020302020302020300A20202020312E3034363720202020312E3632313620202020302E303030302043202020302020302020302020302020302020302020302020302020302020302020302020300A20202020302E313538322020202D302E3232393020202020302E303030302043202020302020302020302020302020302020302020302020302020302020302020302020300A20202020302E3135383220202020302E3539363020202020302E303030302043202020302020302020302020302020302020302020302020302020302020302020302020300A2020202D302E3535363220202020302E3138333520202020302E303030302043202020302020302020302020302020302020302020302020302020302020302020302020300A2020202D312E323730372020202D302E3232393020202020302E303030302043202020302020302020302020302020302020302020302020302020302020302020302020300A2020202D312E323730372020202D312E3035343020202020302E303030302043202020302020302020302020302020302020302020302020302020302020302020302020300A2020202D312E393835322020202D312E3436363520202020302E303030302043202020302020302020302020302020302020302020302020302020302020302020302020300A2020202D312E393835322020202D302E3634313520202020302E303030302043202020302020302020302020302020302020302020302020302020302020302020302020300A2020202D342E313238362020202D322E3730343020202020302E30303030204F202020302020302020302020302020302020302020302020302020302020302020302020300A2020202D312E373739372020202D332E3039303520202020302E303030302048202020302020302020302020302020302020302020302020302020302020302020302020300A20202020312E3736373820202020302E3031303820202020302E303030302048202020302020302020302020302020302020302020302020302020302020302020302020300A20202020302E3430333220202020312E3033323620202020302E303030302048202020302020302020302020302020302020302020302020302020302020302020302020300A2020312020322020312020302020202020200A2020322020332020312020302020202020200A2020312020342020312020302020202020200A2020342020352020312020362020202020200A2020342020362020312020312020202020200A2020342020372020312020302020202020200A2020372020382020312020302020202020200A2020382020392020312020302020202020200A2020392031302020312020302020202020200A2031302031312020312020302020202020200A2031312031322020312020362020202020200A2031312031332020312020302020202020200A2031332031342020312020302020202020200A2031352031342020312020302020202020200A2031352031362020312020302020202020200A2031362031372020312020302020202020200A2031372031382020312020302020202020200A2031382031392020312020302020202020200A2031392032302020322020302020202020200A2032302032312020312020302020202020200A2032302032322020312020302020202020200A2031362032332020312020302020202020200A2031352032342020312020302020202020200A2031312032342020312020302020202020200A2032342032352020312020312020202020200A2032342032362020312020302020202020200A2032362032372020312020302020202020200A2032372032382020312020302020202020200A2031302032382020322020302020202020200A2032382032392020312020302020202020200A2020332032392020312020302020202020200A2020372032392020312020302020202020200A2032392033302020312020312020202020200A2020312033312020312020312020202020200A2020372033322020312020362020202020200A2031352033332020312020362020202020200A2031362033342020312020312020202020200A4D2020454E44
Contributor: HAYASHI A, DEPT. OF CHEMISTRY, FAC. OF SCI. AND TECHNOLOGY, KINKI UNIV.
InstType: EI
InstName: SHIMADZU LKB-9000B
IoniMethod: _ENERGY 70 eV
IonPolarity: pos
Date: 2010-10-09 19:48:36+02:00
Num Peaks: 271
41 17 53 15 55 111 56 14 57 29 65 20 67 76 68 2 69 493 70 34 
71 40 77 3 78 11 79 108 81 243 82 4 83 137 84 17 85 22 91 13 
92 25 93 185 94 30 95 40 96 50 97 97 98 14 103 2 104 21 105 249 
106 42 107 30 108 62 109 608 110 64 111 9 112 16 115 49 116 23 117 7 
118 27 119 305 120 80 121 34 122 93 123 262 124 38 125 4 127 30 128 48 
129 69 130 4 131 151 132 55 133 254 134 8 135 337 136 76 137 167 138 3 
139 28 141 44 142 43 143 9 144 41 145 233 146 64 147 27 148 74 149 220 
150 27 151 5 152 32 153 40 154 30 155 6 156 46 157 123 158 55 159 25 
160 82 161 290 162 64 163 13 164 29 165 81 166 26 167 3 168 26 169 75 
170 35 171 14 172 51 173 225 174 62 175 20 176 38 177 83 178 24 179 5 
180 28 181 28 182 24 183 7 184 35 185 119 186 61 187 28 188 68 189 328 
190 71 191 11 192 32 193 37 194 15 195 4 196 26 197 73 198 42 199 11 
200 48 201 176 202 73 203 221 204 81 205 139 206 46 207 3 208 19 209 41 
210 29 211 5 212 43 213 141 214 68 215 21 216 52 217 75 218 20 219 5 
220 23 221 23 223 30 224 3 225 66 226 35 227 158 228 6 229 196 230 41 
231 60 232 2 233 37 237 26 238 21 239 7 240 53 241 212 242 63 243 12 
244 37 245 82 246 33 247 8 248 17 249 17 251 27 252 2 253 69 254 39 
255 153 256 5 257 135 258 57 259 169 260 5 261 31 265 19 266 16 267 5 
268 24 269 74 270 37 271 15 272 66 273 108 274 35 275 2 279 27 280 21 
281 40 282 4 283 75 284 29 285 45 286 2 287 22 288 20 293 31 294 1 
295 62 296 30 297 108 298 3 299 55 300 27 307 21 308 2 309 60 310 25 
311 93 312 4 313 34 314 31 315 63 316 3 317 12 323 64 324 34 325 7 
326 37 327 48 328 20 329 2 337 49 338 26 339 112 340 4 341 74 342 28 
344 19 350 2 351 20 352 18 353 21 355 2 363 49 365 65 366 25 373 3 
375 25 376 69 377 53 378 35 379 22 389 23 390 17 391 10 392 64 393 865 
394 277 395 5 396 38 397 37 398 25 399 2 404 23 405 21 406 52 407 4 
408 137 409 155 410 63 411 999 412 329 413 56 424 91 425 4 426 257 427 94 
428 25 
