Name: SACCHARIN
CAS: 81-07-2
MW: 182
Formula: C7H5NO3S
Synonym: MassBank: JP004570
Synonym: SACCHARIN
Synonym: 2,3-DIHYDRO-3-OXOBENZISOSULFONAZOLE
Structure: 53414343484152494E2E6D6F6C0A20204368656D447261773132323030393131323532440A2031322031332020302020302020302020302020302020302020302020303939392056323030300A20202020302E3734393520202020302E3635323020202020302E303030302043202020302020302020302020302020302020302020302020302020302020302020302020300A20202020312E3030343520202020312E3433363620202020302E30303030204F202020302020302020302020302020302020302020302020302020302020302020302020300A20202020312E323334352020202D302E3031353520202020302E30303030204E202020302020302020302020302020302020302020302020302020302020302020302020300A20202020302E373439352020202D302E3638323920202020302E303030302053202020302020302020302020302020302020302020302020302020302020302020302020300A20202020312E343634302020202D312E3039353420202020302E30303030204F202020302020302020302020302020302020302020302020302020302020302020302020300A20202020302E343134302020202D312E3433363620202020302E30303030204F202020302020302020302020302020302020302020302020302020302020302020302020300A2020202D302E303335312020202D302E3432383020202020302E303030302043202020302020302020302020302020302020302020302020302020302020302020302020300A2020202D302E373439352020202D302E3834303520202020302E303030302043202020302020302020302020302020302020302020302020302020302020302020302020300A2020202D312E343634302020202D302E3432383020202020302E303030302043202020302020302020302020302020302020302020302020302020302020302020302020300A2020202D312E3436343020202020302E3339373020202020302E303030302043202020302020302020302020302020302020302020302020302020302020302020302020300A2020202D302E3734393520202020302E3830393520202020302E303030302043202020302020302020302020302020302020302020302020302020302020302020302020300A2020202D302E3033353120202020302E3339373020202020302E303030302043202020302020302020302020302020302020302020302020302020302020302020302020300A2020312020322020322020302020202020200A2020312020332020312020302020202020200A2020332020342020312020302020202020200A2020342020352020322020302020202020200A2020342020362020322020302020202020200A2020342020372020312020302020202020200A2020372020382020312020302020202020200A2020382020392020322020302020202020200A2020392031302020312020302020202020200A2031302031312020322020302020202020200A2031312031322020312020302020202020200A2020372031322020322020302020202020200A2020312031322020312020302020202020200A4D2020454E44
Contributor: HAYASHI A, DEPT. OF CHEMISTRY, FAC. OF SCI. AND TECHNOLOGY, KINKI UNIV.
InstType: EI
InstName: JEOL JMS-HX-100
IoniMethod: _ENERGY 70 eV
IonPolarity: pos
Date: 2010-10-09 19:48:36+02:00
Num Peaks: 53
37 126 38 242 39 160 40 19 41 29 42 34 43 445 44 74 45 42 48 613 
49 93 50 877 51 113 52 114 53 56 57 16 58 12 61 54 62 83 63 309 
64 238 65 103 66 15 69 81 70 29 73 84 74 449 75 286 76 999 77 103 
78 17 79 54 81 19 82 13 84 44 90 35 91 101 92 461 93 41 95 19 
96 22 103 169 104 241 105 22 112 20 119 425 120 397 121 50 122 17 140 64 
183 594 184 157 185 46 
