Name: 2-(TRIMETHYLSILYLMETHYL)BENZYL METHYL ETHER
MW: 208
Formula: C12H20OSi
Synonym: MassBank: JP002250
Synonym: 2-(TRIMETHYLSILYLMETHYL)BENZYL METHYL ETHER
Structure: 322D285452494D455448594C53494C594C4D455448594C2942454E5A594C204D455448594C2045544845522E6D6F6C0A20204368656D447261773132323130393231333532440A2031342031342020302020302020302020302020302020302020302020303939392056323030300A20202020312E3835363220202020302E3635393220202020302E30303030204F202020302020302020302020302020302020302020302020302020302020302020302020300A20202020322E3236383720202020312E3337333720202020302E303030302043202020302020302020302020302020302020302020302020302020302020302020302020300A20202020312E3033313220202020302E3635393220202020302E303030302043202020302020302020302020302020302020302020302020302020302020302020302020300A20202020302E363138372020202D302E3035353320202020302E303030302043202020302020302020302020302020302020302020302020302020302020302020302020300A2020202D302E323036322020202D302E3035353320202020302E303030302043202020302020302020302020302020302020302020302020302020302020302020302020300A2020202D302E363138382020202D302E3736393720202020302E303030302043202020302020302020302020302020302020302020302020302020302020302020302020300A2020202D302E323036332020202D312E3438343220202020302E303030302043202020302020302020302020302020302020302020302020302020302020302020302020300A20202020302E363138372020202D312E3438343220202020302E303030302043202020302020302020302020302020302020302020302020302020302020302020302020300A20202020312E303331332020202D302E3736393720202020302E303030302043202020302020302020302020302020302020302020302020302020302020302020302020300A2020202D302E3631383820202020302E3635393220202020302E303030302043202020302020302020302020302020302020302020302020302020302020302020302020300A2020202D312E3434333820202020302E3635393220202020302E303030302053692020302020302020302020302020302020302020302020302020302020302020302020300A2020202D312E3434333820202020312E3438343220202020302E303030302043202020302020302020302020302020302020302020302020302020302020302020302020300A2020202D322E3236383720202020302E3635393220202020302E303030302043202020302020302020302020302020302020302020302020302020302020302020302020300A2020202D312E343433382020202D302E3136353820202020302E303030302043202020302020302020302020302020302020302020302020302020302020302020302020300A2020312020322020312020302020202020200A2020332020342020312020302020202020200A2020342020352020312020302020202020200A2020352020362020322020302020202020200A2020362020372020312020302020202020200A2020372020382020322020302020202020200A2020382020392020312020302020202020200A2020342020392020322020302020202020200A2031312031322020312020312020202020200A2031312031332020312020302020202020200A2031312031342020312020312020202020200A2031302031312020312020302020202020200A2020352031302020312020302020202020200A2020312020332020312020302020202020200A4D2020454E44
Contributor: MASS SPECTROSCOPY SOC. OF JAPAN (MSSJ)
InstType: EI
InstName: JEOL JMS-D-3000
IoniMethod: _ENERGY 70 eV
IonPolarity: pos
Date: 2010-10-09 19:48:36+02:00
Num Peaks: 9
73 108 89 28 104 999 105 84 163 37 177 41 192 23 193 12 208 3 
