Name: CYCLOHEXANOL
MW: 100
Formula: C6H12O
Synonym: MassBank: JP006564
Synonym: CYCLOHEXANOL
Structure: 310A31390A4359434C4F484558414E4F4C2E6D6F6C0A20204368656D447261773039313531303035343632440A2020372020372020302020302020302020302020302020302020302020303939392056323030300A2020202D302E3431323520202020302E3030303020202020302E303030302043202020302020302020302020302020302020302020302020302020302020302020302020300A20202020302E3030303020202020302E3731343520202020302E303030302043202020302020302020302020302020302020302020302020302020302020302020302020300A20202020302E3832353020202020302E3731343520202020302E303030302043202020302020302020302020302020302020302020302020302020302020302020302020300A20202020312E323337352020202D302E3030303020202020302E303030302043202020302020302020302020302020302020302020302020302020302020302020302020300A20202020302E383235302020202D302E3731343520202020302E303030302043202020302020302020302020302020302020302020302020302020302020302020302020300A20202020302E303030302020202D302E3731343520202020302E303030302043202020302020302020302020302020302020302020302020302020302020302020302020300A2020202D312E3233373520202020302E3030303020202020302E30303030204F202020302020302020302020302020302020302020302020302020302020302020302020300A2020312020322020312020302020202020200A2020322020332020312020302020202020200A2020332020342020312020302020202020200A2020342020352020312020302020202020200A2020352020362020312020302020202020200A2020312020362020312020302020202020200A2020312020372020312020302020202020200A4D2020454E44
Contributor: HISAHIRO HAGIWARA, CHEMICAL RESEARCH INSTITUTE OF NON-AQUEOUSSOLUTIONS TOHOKU UNIV.
InstType: EI
InstName: HITACHI M-80B
IoniMethod: _ENERGY 70 eV
IonPolarity: pos
Date: 2010-10-09 19:48:36+02:00
Num Peaks: 35
15 13 18 71 26 11 27 86 28 27 29 86 31 50 38 12 39 102 40 21 
41 204 42 64 43 90 44 250 45 37 50 14 51 19 53 39 54 83 55 70 
56 102 57 999 58 78 59 13 67 211 68 17 71 111 72 62 79 15 81 41 
82 517 83 34 85 11 99 13 100 32 
