Name: PINANE
MW: 138
Formula: C10H18
Synonym: MassBank: JP006007
Synonym: PINANE
Synonym: 2,6,6-TRIMETHYLBICYCLO(3.1.1)HEPTANE
Structure: 50494E414E452E6D6F6C0A20204368656D447261773132323130393032343032440A2031302031312020302020302020302020302020302020302020302020303939392056323030300A20202020302E3833383420202020302E3331353720202020302E303030302043202020302020302020302020302020302020302020302020302020302020302020302020300A20202020312E3235303920202020312E3033303120202020302E303030302043202020302020302020302020302020302020302020302020302020302020302020302020300A20202020312E313733302020202D302E3338323220202020302E303030302043202020302020302020302020302020302020302020302020302020302020302020302020300A20202020302E363836342020202D312E3033303120202020302E303030302043202020302020302020302020302020302020302020302020302020302020302020302020300A2020202D302E313337392020202D302E3935303120202020302E303030302043202020302020302020302020302020302020302020302020302020302020302020302020300A20202020302E353535352020202D302E3337343220202020302E303030302043202020302020302020302020302020302020302020302020302020302020302020302020300A2020202D302E353635322020202D302E3230393920202020302E303030302043202020302020302020302020302020302020302020302020302020302020302020302020300A2020202D312E323530392020202D302E3636383720202020302E303030302043202020302020302020302020302020302020302020302020302020302020302020302020300A2020202D312E3036383320202020302E3434343020202020302E303030302043202020302020302020302020302020302020302020302020302020302020302020302020300A20202020302E3033393820202020302E3332323820202020302E303030302043202020302020302020302020302020302020302020302020302020302020302020302020300A2020312020322020312020302020202020200A2020312020332020312020302020202020200A2020332020342020312020302020202020200A2020342020352020312020302020202020200A2020352020362020312020302020202020200A2020352020372020312020302020202020200A2020372020382020312020362020202020200A2020372020392020312020312020202020200A2020372031302020312020302020202020200A2020362031302020312020302020202020200A2020312031302020312020302020202020200A4D2020454E44
Contributor: YAMAMOTO M, DEP. CHEMISTRY, FAC. SCIENCE, NARA WOMEN'S UNIV.
InstType: EI
InstName: HITACHI M-80
IoniMethod: _ENERGY 15 eV
IonPolarity: pos
Date: 2010-10-09 19:48:36+02:00
Num Peaks: 23
41 30 43 19 55 184 56 47 57 36 67 174 68 205 69 296 70 57 80 77 
81 402 82 801 83 560 84 50 94 111 95 999 96 396 97 56 109 98 110 64 
123 254 124 27 138 41 
