Name: CIS-3-HEXENOIC ACID
MW: 114
Formula: C6H10O2
Synonym: MassBank: JP009183
Synonym: CIS-3-HEXENOIC ACID
Structure: 310A32300A4349532D332D484558454E4F494320414349442E6D6F6C0A20204368656D447261773039303831303134313432440A2020382020372020302020302020302020302020302020302020302020303939392056323030300A2020202D312E343433382020202D302E3030303020202020302E303030302043202020302020302020302020302020302020302020302020302020302020302020302020300A2020202D302E363138382020202D302E3030303020202020302E303030302043202020302020302020302020302020302020302020302020302020302020302020302020300A2020202D302E323036322020202D302E3731343520202020302E303030302043202020302020302020302020302020302020302020302020302020302020302020302020300A20202020302E363138382020202D302E3731343520202020302E303030302043202020302020302020302020302020302020302020302020302020302020302020302020300A20202020312E3033313320202020302E3030303020202020302E303030302043202020302020302020302020302020302020302020302020302020302020302020302020300A20202020312E3835363320202020302E3030303020202020302E303030302043202020302020302020302020302020302020302020302020302020302020302020302020300A2020202D312E383536332020202D302E3731343520202020302E30303030204F202020302020302020302020302020302020302020302020302020302020302020302020300A2020202D312E3835363320202020302E3731343520202020302E30303030204F202020302020302020302020302020302020302020302020302020302020302020302020300A2020312020322020312020302020202020200A2020322020332020312020302020202020200A2020332020342020322020302020202020200A2020342020352020312020302020202020200A2020352020362020312020302020202020200A2020312020372020322020302020202020200A2020312020382020312020302020202020200A4D2020454E44
Contributor: SODA AROMATIC CO., LTD.
InstType: EI
InstName: HITACHI M-80B
IoniMethod: _ENERGY 70 eV
IonPolarity: pos
Date: 2010-10-09 19:48:36+02:00
Num Peaks: 50
15 30 17 11 26 42 27 395 28 33 29 252 31 26 37 22 38 52 39 519 
40 77 41 999 42 215 43 156 44 18 45 231 50 36 51 56 52 26 53 192 
54 94 55 807 56 41 57 178 58 26 59 18 60 462 61 19 62 14 63 16 
65 24 66 15 67 98 68 489 69 312 70 26 71 55 72 26 73 164 81 40 
85 11 86 13 87 11 95 12 96 50 97 20 99 65 100 11 114 327 115 24 
