Name: BUTYL CHLORIDE
MW: 92
Formula: C4H9Cl
Synonym: MassBank: JP001821
Synonym: BUTYL CHLORIDE
Synonym: 1-CHLOROBUTANE
Structure: 310A31340A425554594C2043484C4F524944452E6D6F6C0A20204368656D447261773131313830393031313232440A2020352020342020302020302020302020302020302020302020302020303939392056323030300A2020202D302E3731343520202020302E3230363320202020302E303030302043202020302020302020302020302020302020302020302020302020302020302020302020300A20202020302E303030302020202D302E3230363320202020302E303030302043202020302020302020302020302020302020302020302020302020302020302020302020300A20202020302E3731343520202020302E3230363320202020302E303030302043202020302020302020302020302020302020302020302020302020302020302020302020300A20202020312E343238392020202D302E3230363220202020302E303030302043202020302020302020302020302020302020302020302020302020302020302020302020300A2020202D312E343238392020202D302E3230363320202020302E3030303020436C2020302020302020302020302020302020302020302020302020302020302020302020300A2020312020322020312020302020202020200A2020322020332020312020302020202020200A2020332020342020312020302020202020200A2020312020352020312020302020202020200A4D2020454E44
Contributor: TAJIMA S, GUNMA COLLEGE OF TECHNOLOGY
InstType: EI
InstName: HITACHI RMU-7M
IoniMethod: _ENERGY 70 eV
IonPolarity: pos
Date: 2010-10-09 19:48:36+02:00
Num Peaks: 19
26 35 27 279 28 152 29 195 31 12 38 14 39 107 40 23 41 625 42 49 
43 332 49 24 51 15 55 82 56 999 57 99 62 16 63 59 65 16 
