Name: METHYL 3-PENTENOATE
CAS: 818-58-6
MW: 114
Formula: C6H10O2
Synonym: MassBank: JP008228
Synonym: METHYL 3-PENTENOATE
Structure: 310A32300A4D455448594C20332D50454E54454E4F4154452E6D6F6C0A20204368656D447261773038313131303233353132440A2020382020372020302020302020302020302020302020302020302020303939392056323030300A2020202D302E3631383720202020302E3030303020202020302E303030302043202020302020302020302020302020302020302020302020302020302020302020302020300A2020202D302E323036322020202D302E3731343520202020302E303030302043202020302020302020302020302020302020302020302020302020302020302020302020300A20202020302E363138382020202D302E3731343520202020302E303030302043202020302020302020302020302020302020302020302020302020302020302020302020300A20202020312E3033313320202020302E3030303020202020302E303030302043202020302020302020302020302020302020302020302020302020302020302020302020300A20202020312E3835363320202020302E3030303020202020302E303030302043202020302020302020302020302020302020302020302020302020302020302020302020300A2020202D302E3230363220202020302E3731343520202020302E30303030204F202020302020302020302020302020302020302020302020302020302020302020302020300A2020202D312E3434333720202020302E3030303020202020302E30303030204F202020302020302020302020302020302020302020302020302020302020302020302020300A2020202D312E383536332020202D302E3731343520202020302E303030302043202020302020302020302020302020302020302020302020302020302020302020302020300A2020312020322020312020302020202020200A2020322020332020312020302020202020200A2020332020342020322020302020202020200A2020342020352020312020302020202020200A2020312020362020322020302020202020200A2020312020372020312020302020202020200A2020372020382020312020302020202020200A4D2020454E44
Contributor: UBE SCIENTIFIC ANALYSIS LABORATORY
InstType: EI
InstName: HITACHI M-60
IoniMethod: _ENERGY 70 eV
IonPolarity: pos
Date: 2010-10-09 19:48:36+02:00
Num Peaks: 27
15 311 16 14 26 27 27 249 28 49 29 357 39 173 40 19 41 44 42 47 
43 66 50 17 51 28 53 100 54 145 55 999 56 48 59 379 71 33 72 125 
74 17 81 11 82 104 83 85 99 14 114 297 115 20 
