Name: MassBank: JP007338
MW: 121
Formula: C8H11N
Synonym: MassBank: JP007338
Synonym: 2,3-DIMETHYLBENZENAMINE
Synonym: 2,3-XYLIDINE
Structure: 310A32330A322C332D44494D455448594C42454E5A454E414D494E452E6D6F6C0A20204368656D447261773130313831303137303032440A2020392020392020302020302020302020302020302020302020302020303939392056323030300A2020202D302E303030302020202D302E3731343520202020302E303030302043202020302020302020302020302020302020302020302020302020302020302020302020300A2020202D302E3431323520202020302E3030303020202020302E303030302043202020302020302020302020302020302020302020302020302020302020302020302020300A2020202D302E3030303020202020302E3731343520202020302E303030302043202020302020302020302020302020302020302020302020302020302020302020302020300A20202020302E3832353020202020302E3731343520202020302E303030302043202020302020302020302020302020302020302020302020302020302020302020302020300A20202020312E3233373520202020302E3030303020202020302E303030302043202020302020302020302020302020302020302020302020302020302020302020302020300A20202020302E383235302020202D302E3731343520202020302E303030302043202020302020302020302020302020302020302020302020302020302020302020302020300A2020202D302E343132352020202D312E3432383920202020302E30303030204E202020302020302020302020302020302020302020302020302020302020302020302020300A2020202D302E3431323520202020312E3432383920202020302E303030302043202020302020302020302020302020302020302020302020302020302020302020302020300A2020202D312E3233373520202020302E3030303020202020302E303030302043202020302020302020302020302020302020302020302020302020302020302020302020300A2020312020322020312020302020202020200A2020322020332020322020302020202020200A2020332020342020312020302020202020200A2020342020352020322020302020202020200A2020352020362020312020302020202020200A2020312020362020322020302020202020200A2020312020372020312020302020202020200A2020332020382020312020302020202020200A2020322020392020312020302020202020200A4D2020454E44
Contributor: YAMAMOTO M, DEP. CHEMISTRY, FAC. SCIENCE, NARA WOMEN'S UNIV.
InstType: EI
InstName: HITACHI RMU-6M
IoniMethod: _ENERGY 70 eV
IonPolarity: pos
Date: 2010-10-09 19:48:36+02:00
Num Peaks: 47
27 41 28 46 30 20 38 19 39 92 40 13 41 36 42 43 465 19 50 27 
51 63 52 44 53 60 54 30 585 39 59 10 595 39 60 10 605 35 62 14 
63 35 64 13 65 57 66 21 67 12 76 12 77 164 78 78 79 63 80 30 
89 17 91 98 92 24 93 54 94 22 102 16 103 82 104 61 105 24 106 700 
107 61 117 14 118 43 119 35 120 495 121 999 122 95 
