Name: 4-NITROPHENOXYACETIC ACID METHYL ESTER
MW: 211
Formula: C9H9NO5
Synonym: MassBank: JP004250
Synonym: 4-NITROPHENOXYACETIC ACID METHYL ESTER
Structure: 342D4E4954524F5048454E4F58594143455449432041434944204D455448594C2045535445522E6D6F6C0A20204368656D447261773034323231303137313232440A2031352031352020302020302020302020302020302020302020302020303939392056323030300A20202020322E3236383720202020302E3030303020202020302E303030302043202020302020302020302020302020302020302020302020302020302020302020302020300A20202020312E3434333820202020302E3030303020202020302E303030302043202020302020302020302020302020302020302020302020302020302020302020302020300A20202020322E363831332020202D302E3731343520202020302E30303030204F202020302020302020302020302020302020302020302020302020302020302020302020300A20202020322E3638313220202020302E3731343520202020302E30303030204F202020302020302020302020302020302020302020302020302020302020302020302020300A20202020312E303331322020202D302E3731343520202020302E30303030204F202020302020302020302020302020302020302020302020302020302020302020302020300A20202020302E323036322020202D302E3731343520202020302E303030302043202020302020302020302020302020302020302020302020302020302020302020302020300A2020202D302E323036322020202D312E3432383920202020302E303030302043202020302020302020302020302020302020302020302020302020302020302020302020300A2020202D312E303331332020202D312E3432383920202020302E303030302043202020302020302020302020302020302020302020302020302020302020302020302020300A2020202D312E343433382020202D302E3731343520202020302E303030302043202020302020302020302020302020302020302020302020302020302020302020302020300A2020202D312E3033313320202020302E3030303020202020302E303030302043202020302020302020302020302020302020302020302020302020302020302020302020300A2020202D302E3230363220202020302E3030303020202020302E303030302043202020302020302020302020302020302020302020302020302020302020302020302020300A2020202D322E323638372020202D302E3731343520202020302E30303030204E202020302020332020302020302020302020302020302020302020302020302020302020300A2020202D322E363831332020202D312E3432383920202020302E30303030204F202020302020302020302020302020302020302020302020302020302020302020302020300A2020202D322E3638313220202020302E3030303020202020302E30303030204F202020302020352020302020302020302020302020302020302020302020302020302020300A20202020322E3236383720202020312E3432383920202020302E303030302043202020302020302020302020302020302020302020302020302020302020302020302020300A2020312020322020312020302020202020200A2020312020332020322020302020202020200A2020312020342020312020302020202020200A2020362020372020312020302020202020200A2020372020382020322020302020202020200A2020382020392020312020302020202020200A2020392031302020322020302020202020200A2031302031312020312020302020202020200A2020362031312020322020302020202020200A2020352020362020312020302020202020200A2020322020352020312020302020202020200A2031322031332020322020302020202020200A2031322031342020312020302020202020200A2020392031322020312020302020202020200A2020342031352020312020302020202020200A4D202043484720203220203132202020312020313420202D310A4D2020454E44
Contributor: KOGA M, UNIV. OF OCCUPATIONAL AND ENVIRONMENTAL HEALTH
InstType: EI
InstName: JEOL JMS-01-SG
IoniMethod: _ENERGY 70 eV
IonPolarity: pos
Date: 2010-10-09 19:48:36+02:00
Num Peaks: 46
37 12 35 9 38 19 39 2 40 9 42 36 44 14 45 119 50 143 51 4 
52 19 53 9 59 26 62 2 63 87 64 119 65 34 66 2 73 143 75 172 
76 204 77 6 78 94 79 38 80 14 91 1 92 182 93 21 94 38 105 2 
106 138 107 51 108 65 109 2 115 19 122 255 123 29 136 4 137 19 152 832 
153 65 181 10 195 41 211 999 212 104 213 12 
