Name: 2-PENTYL-2-CYCLOPENTENONE
MW: 152
Formula: C10H16O
Synonym: MassBank: JP006956
Synonym: 2-PENTYL-2-CYCLOPENTENONE
Structure: 322D50454E54594C2D322D4359434C4F50454E54454E4F4E452E6D6F6C0A20204368656D447261773032323131303133343932440A2031312031312020302020302020302020302020302020302020302020303939392056323030300A2020202D312E3537383020202020302E3230393420202020302E303030302043202020302020302020302020302020302020302020302020302020302020302020302020300A2020202D302E3735373520202020302E3239353620202020302E303030302043202020302020302020302020302020302020302020302020302020302020302020302020300A2020202D302E343231392020202D302E3435383120202020302E303030302043202020302020302020302020302020302020302020302020302020302020302020302020300A2020202D312E303335302020202D312E3031303120202020302E303030302043202020302020302020302020302020302020302020302020302020302020302020302020300A2020202D312E373439352020202D302E3539373620202020302E303030302043202020302020302020302020302020302020302020302020302020302020302020302020300A2020202D302E3334353020202020312E3031303120202020302E303030302043202020302020302020302020302020302020302020302020302020302020302020302020300A20202020302E3438303020202020312E3031303120202020302E303030302043202020302020302020302020302020302020302020302020302020302020302020302020300A20202020302E3839323520202020302E3239353620202020302E303030302043202020302020302020302020302020302020302020302020302020302020302020302020300A20202020312E3731373520202020302E3239353620202020302E303030302043202020302020302020302020302020302020302020302020302020302020302020302020300A20202020322E313330302020202D302E3431383920202020302E303030302043202020302020302020302020302020302020302020302020302020302020302020302020300A2020202D322E3133303020202020302E3832323520202020302E30303030204F202020302020302020302020302020302020302020302020302020302020302020302020300A2020312020322020312020302020202020200A2020322020332020322020302020202020200A2020332020342020312020302020202020200A2020342020352020312020302020202020200A2020312020352020312020302020202020200A2020362020372020312020302020202020200A2020372020382020312020302020202020200A2020382020392020312020302020202020200A2020392031302020312020302020202020200A2020322020362020312020302020202020200A2020312031312020322020302020202020200A4D2020454E44
Contributor: TAJIMA S, GUNMA COLLEGE OF TECHNOLOGY
InstType: EI
InstName: HITACHI M-80B
IoniMethod: _ENERGY 70 eV
IonPolarity: pos
Date: 2010-10-09 19:48:36+02:00
Num Peaks: 53
15 23 26 40 27 436 28 107 29 308 38 20 39 452 40 52 41 755 42 61 
43 100 44 15 50 31 51 89 52 80 53 240 54 79 55 183 56 11 57 13 
63 28 65 125 66 102 67 545 68 229 69 52 77 94 78 35 79 175 80 36 
81 222 82 49 83 37 84 13 91 46 93 42 94 25 95 307 96 999 97 708 
98 45 105 18 108 32 109 353 110 213 111 33 119 28 123 293 124 63 137 102 
151 43 152 257 153 37 
