Name: MassBank: JP001599
CAS: 203-64-5
MW: 190
Formula: C15H10
Synonym: MassBank: JP001599
Synonym: 4,5-METHYLENEPHENANTHRENE
Structure: 310A350A342C352D4D455448594C454E455048454E414E544852454E452E6D6F6C0A20204368656D447261773130313831303136333732440A2020302020302020302020302020302020302020302020302020302020303939392056323030300A4D2020454E44
Contributor: KOGA M, UNIV. OF OCCUPATIONAL AND ENVIRONMENTAL HEALTH
InstType: EI
InstName: VARIAN MAT-44
IoniMethod: _ENERGY 70 eV
IonPolarity: pos
Date: 2010-10-09 19:48:36+02:00
Num Peaks: 23
44 11 62 13 63 56 68 14 69 11 74 18 75 14 81 63 82 31 86 14 
87 19 93 76 94 420 95 440 96 14 163 29 186 26 187 172 188 129 189 813 
190 999 191 158 192 14 
