Name: ALPHA-IONONE
MW: 192
Formula: C13H20O
Synonym: MassBank: JP006612
Synonym: ALPHA-IONONE
Synonym: 4-(2,6,6-TRIMETHYL-2-CYCLOHEXEN-1-YL)-3-BUTEN-2-ONE
Structure: 28522D284529292D342D28322C362C362D5452494D455448594C2D322D4359434C4F484558454E2D312D594C292D332D425554454E2D322D4F4E452E6D6F6C0A20204368656D447261773130323230393231303532440A2031382031382020302020302020302020302020302020302020302020303939392056323030300A20202020302E3136353820202020302E3139323220202020302E303030302043202020302020302020302020302020302020302020302020302020302020302020302020300A20202020302E313635382020202D302E3633323820202020302E303030302043202020302020302020302020302020302020302020302020302020302020302020302020300A20202020302E383830332020202D312E3034353320202020302E303030302043202020302020302020302020302020302020302020302020302020302020302020302020300A20202020312E353934372020202D302E3633323820202020302E303030302043202020302020302020302020302020302020302020302020302020302020302020302020300A20202020312E3539343720202020302E3139323220202020302E303030302043202020302020302020302020302020302020302020302020302020302020302020302020300A20202020302E3838303320202020302E3630343720202020302E303030302043202020302020302020302020302020302020302020302020302020302020302020302020300A20202020302E3838303320202020312E3432393720202020302E303030302043202020302020302020302020302020302020302020302020302020302020302020302020300A20202020322E3330393220202020302E3630343720202020302E303030302048202020302020302020302020302020302020302020302020302020302020302020302020300A2020202D302E363539322020202D302E3633323820202020302E303030302043202020302020302020302020302020302020302020302020302020302020302020302020300A2020202D302E3635393220202020302E3139323220202020302E303030302043202020302020302020302020302020302020302020302020302020302020302020302020300A2020202D302E3034373720202020302E3938393120202020302E303030302048202020302020302020302020302020302020302020302020302020302020302020302020300A2020202D302E303437372020202D312E3432393720202020302E303030302043202020302020302020302020302020302020302020302020302020302020302020302020300A2020202D312E303731372020202D302E3532323320202020302E303030302043202020302020302020302020302020302020302020302020302020302020302020302020300A2020202D312E3037313720202020302E3930363720202020302E303030302048202020302020302020302020302020302020302020302020302020302020302020302020300A2020202D302E363539322020202D312E3233363720202020302E303030302048202020302020302020302020302020302020302020302020302020302020302020302020300A2020202D312E383936372020202D302E3532323320202020302E303030302043202020302020302020302020302020302020302020302020302020302020302020302020300A2020202D322E3330393220202020302E3139323220202020302E30303030204F202020302020302020302020302020302020302020302020302020302020302020302020300A2020202D322E333039322020202D312E3233363720202020302E303030302043202020302020302020302020302020302020302020302020302020302020302020302020300A2020312020322020312020302020202020200A2020322020332020312020302020202020200A2020332020342020312020302020202020200A2020342020352020312020302020202020200A2020352020362020322020302020202020200A2020362020312020312020302020202020200A2020362020372020312020302020202020200A2020352020382020312020302020202020200A2020322020392020312020312020202020200A2020312031302020312020312020202020200A2020312031312020312020362020202020200A2020322031322020312020362020202020200A2031302031332020322020302020202020200A2031302031342020312020302020202020200A2031332031352020312020302020202020200A2031332031362020312020302020202020200A2031362031372020322020302020202020200A2031362031382020312020302020202020200A4D2020454E44
Contributor: HISAHIRO HAGIWARA, CHEMICAL RESEARCH INSTITUTE OF NON-AQUEOUSSOLUTIONS TOHOKU UNIV.
InstType: EI
InstName: HITACHI M-80B
IoniMethod: _ENERGY 70 eV
IonPolarity: pos
Date: 2010-10-09 19:48:36+02:00
Num Peaks: 58
15 38 18 20 27 108 29 58 39 168 41 274 42 29 43 739 44 20 45 17 
51 55 52 28 53 103 55 91 56 37 57 14 63 21 65 89 66 20 67 53 
69 41 71 19 77 284 78 57 79 89 80 20 81 54 91 297 92 112 93 790 
94 66 95 43 96 12 103 22 105 48 107 81 108 29 109 169 110 19 112 18 
115 15 117 18 119 44 121 999 122 87 123 15 131 14 133 16 134 19 135 63 
136 538 137 88 149 34 150 21 159 12 177 57 192 134 193 16 
