Name: 2-METHYLCYCLOHEXANOL
MW: 114
Formula: C7H14O
Synonym: MassBank: JP000035
Synonym: 2-METHYLCYCLOHEXANOL
Structure: 310A32310A322D4D455448594C4359434C4F484558414E4F4C2E6D6F6C0A20204368656D447261773031323231303037343832440A2020382020382020302020302020302020302020302020302020302020303939392056323030300A2020202D302E343132352020202D302E3335373220202020302E303030302043202020302020302020302020302020302020302020302020302020302020302020302020300A20202020302E3030303020202020302E3335373220202020302E303030302043202020302020302020302020302020302020302020302020302020302020302020302020300A20202020302E3832353020202020302E3335373220202020302E303030302043202020302020302020302020302020302020302020302020302020302020302020302020300A20202020312E323337352020202D302E3335373220202020302E303030302043202020302020302020302020302020302020302020302020302020302020302020302020300A20202020302E383235302020202D312E3037313720202020302E303030302043202020302020302020302020302020302020302020302020302020302020302020302020300A20202020302E303030302020202D312E3037313720202020302E303030302043202020302020302020302020302020302020302020302020302020302020302020302020300A2020202D302E3431323520202020312E3037313720202020302E303030302043202020302020302020302020302020302020302020302020302020302020302020302020300A2020202D312E323337352020202D302E3335373220202020302E30303030204F202020302020302020302020302020302020302020302020302020302020302020302020300A2020312020322020312020302020202020200A2020322020332020312020302020202020200A2020332020342020312020302020202020200A2020342020352020312020302020202020200A2020352020362020312020302020202020200A2020312020362020312020302020202020200A2020322020372020312020302020202020200A2020312020382020312020302020202020200A4D2020454E44
Contributor: KOGA M, UNIV. OF OCCUPATIONAL AND ENVIRONMENTAL HEALTH
InstType: EI
InstName: VARIAN MAT-44
IoniMethod: _ENERGY 70 eV
IonPolarity: pos
Date: 2010-10-09 19:48:36+02:00
Num Peaks: 42
51 40 53 105 54 221 55 567 56 204 57 999 58 202 59 23 60 38 61 25 
65 44 66 63 67 431 68 637 69 153 70 200 71 443 72 99 73 36 74 27 
75 32 77 40 79 99 80 63 81 880 82 197 83 78 84 57 85 90 86 86 
88 21 91 32 95 105 96 655 97 118 98 76 99 55 110 21 111 76 112 53 
113 38 114 90 
