Name: MassBank: JP008382
MW: 174
Formula: C8H14O4
Synonym: MassBank: JP008382
Synonym: ETHYL 2-METHYL-1,3-DIOXOLANE-2-ACETATE
Structure: 455448594C20322D4D455448594C2D312C332D44494F584F4C414E452D322D414345544154452E6D6F6C0A20204368656D447261773038313131303138303732440A2031322031322020302020302020302020302020302020302020302020303939392056323030300A20202020312E343538302020202D302E3738393320202020302E30303030204F202020302020302020302020302020302020302020302020302020302020302020302020300A20202020312E313232342020202D302E3033353720202020302E303030302043202020302020302020302020302020302020302020302020302020302020302020302020300A20202020312E3733353520202020302E3531363420202020302E30303030204F202020302020302020302020302020302020302020302020302020302020302020302020300A20202020322E3435303020202020302E3130333920202020302E303030302043202020302020302020302020302020302020302020302020302020302020302020302020300A20202020322E323738342020202D302E3730333120202020302E303030302043202020302020302020302020302020302020302020302020302020302020302020302020300A2020202D302E333036352020202D302E3033353720202020302E303030302043202020302020302020302020302020302020302020302020302020302020302020302020300A20202020302E343037392020202D302E3434383220202020302E303030302043202020302020302020302020302020302020302020302020302020302020302020302020300A2020202D302E3330363520202020302E3738393320202020302E30303030204F202020302020302020302020302020302020302020302020302020302020302020302020300A2020202D312E303231302020202D302E3434383220202020302E30303030204F202020302020302020302020302020302020302020302020302020302020302020302020300A20202020302E3633373520202020302E3633313820202020302E303030302043202020302020302020302020302020302020302020302020302020302020302020302020300A2020202D312E373335352020202D302E3033353720202020302E303030302043202020302020302020302020302020302020302020302020302020302020302020302020300A2020202D322E343530302020202D302E3434383220202020302E303030302043202020302020302020302020302020302020302020302020302020302020302020302020300A2020312020322020312020302020202020200A2020322020332020312020302020202020200A2020332020342020312020302020202020200A2020342020352020312020302020202020200A2020312020352020312020302020202020200A2020362020372020312020302020202020200A2020362020382020322020302020202020200A2020362020392020312020302020202020200A2020322020372020312020302020202020200A2020322031302020312020302020202020200A2031312031322020312020302020202020200A2020392031312020312020302020202020200A4D2020454E44
Contributor: SODA AROMATIC CO., LTD.
InstType: EI
InstName: HITACHI M-80B
IoniMethod: _ENERGY 70 eV
IonPolarity: pos
Date: 2010-10-09 19:48:36+02:00
Num Peaks: 26
15 35 27 74 28 23 29 163 31 23 39 50 40 16 41 66 42 87 43 620 
44 21 45 42 58 13 59 37 69 16 71 10 72 16 85 25 86 27 87 999 
88 44 89 57 99 10 117 25 131 11 159 112 
