Name: MassBank: JP009668
MW: 199
Formula: C8H9BrO
Synonym: MassBank: JP009668
Synonym: 4-BROMO-2,6-DIMETHYLPHENOL
Structure: 342D42524F4D4F2D322C362D44494D455448594C5048454E4F4C2E6D6F6C0A20204368656D447261773033323531303038323532440A2031302031302020302020302020302020302020302020302020302020303939392056323030300A20202020302E3832353020202020302E3030303020202020302E303030302043202020302020302020302020302020302020302020302020302020302020302020302020300A20202020302E343132352020202D302E3731343520202020302E303030302043202020302020302020302020302020302020302020302020302020302020302020302020300A2020202D302E343132352020202D302E3731343520202020302E303030302043202020302020302020302020302020302020302020302020302020302020302020302020300A2020202D302E3832353020202020302E3030303020202020302E303030302043202020302020302020302020302020302020302020302020302020302020302020302020300A2020202D302E3431323520202020302E3731343520202020302E303030302043202020302020302020302020302020302020302020302020302020302020302020302020300A20202020302E3431323520202020302E3731343520202020302E303030302043202020302020302020302020302020302020302020302020302020302020302020302020300A20202020302E3832353020202020312E3432383920202020302E303030302043202020302020302020302020302020302020302020302020302020302020302020302020300A20202020302E383235302020202D312E3432383920202020302E303030302043202020302020302020302020302020302020302020302020302020302020302020302020300A2020202D312E3635303020202020302E3030303020202020302E303030302042722020302020302020302020302020302020302020302020302020302020302020302020300A20202020312E3635303020202020302E3030303020202020302E30303030204F202020302020302020302020302020302020302020302020302020302020302020302020300A2020312020322020312020302020202020200A2020322020332020322020302020202020200A2020332020342020312020302020202020200A2020342020352020322020302020202020200A2020352020362020312020302020202020200A2020312020362020322020302020202020200A2020362020372020312020302020202020200A2020322020382020312020302020202020200A2020342020392020312020302020202020200A2020312031302020312020302020202020200A4D2020454E44
Contributor: THE INSTITUTE OF SCIENTIFIC AND INDUSTRIALRESEARCH
InstType: EI
InstName: JEOL JMS-DX-300
IoniMethod: _ENERGY 70 eV
IonPolarity: pos
Date: 2010-10-09 19:48:36+02:00
Num Peaks: 60
26 15 27 75 29 20 37 1 38 38 39 189 40 26 41 6 43 49 44 11 
45 45 46 3 50 73 51 171 52 58 53 9 55 33 59 16 60 20 61 2 
62 55 63 132 64 33 65 19 66 29 67 18 74 27 75 3 76 20 77 419 
78 92 79 2 80 27 81 15 82 26 86 1 87 11 89 40 90 25 91 51 
92 172 93 106 94 17 100 2 101 17 102 30 103 167 104 2 105 10 119 18 
120 16 121 999 122 98 185 38 187 31 199 6 200 925 201 146 202 894 203 80 
