Name: 1-BUTYLAMINE
MW: 73
Formula: C4H11N
Synonym: MassBank: JP000230
Synonym: 1-BUTYLAMINE
Structure: 310A31340A312D425554594C414D494E452E6D6F6C0A20204368656D447261773131313830393030333332440A2020352020342020302020302020302020302020302020302020302020303939392056323030300A2020202D312E343238392020202D302E3230363320202020302E30303030204E202020302020302020302020302020302020302020302020302020302020302020302020300A2020202D302E3731343520202020302E3230363320202020302E303030302043202020302020302020302020302020302020302020302020302020302020302020302020300A20202020302E303030302020202D302E3230363320202020302E303030302043202020302020302020302020302020302020302020302020302020302020302020302020300A20202020302E3731343520202020302E3230363320202020302E303030302043202020302020302020302020302020302020302020302020302020302020302020302020300A20202020312E343238392020202D302E3230363220202020302E303030302043202020302020302020302020302020302020302020302020302020302020302020302020300A2020322020332020312020302020202020200A2020332020342020312020302020202020200A2020342020352020312020302020202020200A2020312020322020312020302020202020200A4D2020454E44
Contributor: YAMAMOTO M, DEP. CHEMISTRY, FAC. SCIENCE, NARA WOMEN'S UNIV.
InstType: EI
InstName: HITACHI RMU-6M
IoniMethod: _ENERGY 70 eV
IonPolarity: pos
Date: 2010-10-09 19:48:36+02:00
Num Peaks: 14
15 13 18 33 27 54 28 7 29 21 30 999 31 19 39 3 41 30 42 22 
43 12 44 2 56 10 73 78 
