Name: MassBank: JP006083
MW: 134
Formula: C6H14O3
Synonym: MassBank: JP006083
Synonym: 3-METHYLPENTANE-1,3,5-TRIOL
Structure: 310A32320A332D4D455448594C50454E54414E452D312C332C352D5452494F4C2E6D6F6C0A20204368656D447261773033323031303137323032440A2020392020382020302020302020302020302020302020302020302020303939392056323030300A20202020312E343834322020202D302E3731343520202020302E303030302043202020302020302020302020302020302020302020302020302020302020302020302020300A20202020302E363539322020202D302E3731343520202020302E303030302043202020302020302020302020302020302020302020302020302020302020302020302020300A20202020302E3234363720202020302E3030303020202020302E303030302043202020302020302020302020302020302020302020302020302020302020302020302020300A2020202D302E343637382020202D302E3431323520202020302E303030302043202020302020302020302020302020302020302020302020302020302020302020302020300A2020202D312E313832322020202D302E3030303020202020302E303030302043202020302020302020302020302020302020302020302020302020302020302020302020300A20202020312E3839363720202020302E3030303020202020302E30303030204F202020302020302020302020302020302020302020302020302020302020302020302020300A2020202D302E3136353820202020302E3731343520202020302E30303030204F202020302020302020302020302020302020302020302020302020302020302020302020300A2020202D312E383936372020202D302E3431323520202020302E30303030204F202020302020302020302020302020302020302020302020302020302020302020302020300A20202020302E3936313220202020302E3431323520202020302E303030302043202020302020302020302020302020302020302020302020302020302020302020302020300A2020312020322020312020302020202020200A2020322020332020312020302020202020200A2020332020342020312020302020202020200A2020342020352020312020302020202020200A2020312020362020312020302020202020200A2020332020372020312020302020202020200A2020352020382020312020302020202020200A2020332020392020312020302020202020200A4D2020454E44
Contributor: HASHIMOTO K, KYOTO COLLEGE OF PHARMACY
InstType: EI
InstName: HITACHI M-80
IoniMethod: _ENERGY 20 eV
IonPolarity: pos
Date: 2010-10-09 19:48:36+02:00
Num Peaks: 23
41 19 43 255 45 14 55 23 56 15 59 21 61 53 67 15 68 25 69 30 
70 30 71 372 72 20 73 107 81 13 83 51 89 999 90 44 98 13 99 17 
101 73 119 44 134 5 
