Name: 3-TOLYL ISOCYANATE
CAS: 621-29-4
MW: 133
Formula: C8H7NO
Synonym: MassBank: JP004276
Synonym: 3-TOLYL ISOCYANATE
Structure: 332D544F4C594C2049534F4359414E4154452E6D6F6C0A20204368656D447261773130313831303136353132440A2031302031302020302020302020302020302020302020302020302020303939392056323030300A20202020302E303030302020202D302E3431323520202020302E303030302043202020302020302020302020302020302020302020302020302020302020302020302020300A2020202D302E373134352020202D302E3832353020202020302E303030302043202020302020302020302020302020302020302020302020302020302020302020302020300A2020202D312E3432383920202020302E3431323520202020302E303030302043202020302020302020302020302020302020302020302020302020302020302020302020300A20202020302E3030303020202020302E3431323520202020302E303030302043202020302020302020302020302020302020302020302020302020302020302020302020300A2020202D312E343238392020202D302E3431323520202020302E303030302043202020302020302020302020302020302020302020302020302020302020302020302020300A2020202D302E3731343520202020302E3832353020202020302E303030302043202020302020302020302020302020302020302020302020302020302020302020302020300A2020202D322E313433342020202D302E3832353020202020302E303030302043202020302020302020302020302020302020302020302020302020302020302020302020300A20202020302E373134352020202D302E3832353020202020302E30303030204E202020302020302020302020302020302020302020302020302020302020302020302020300A20202020312E343238392020202D302E3431323520202020302E303030302043202020302020302020302020302020302020302020302020302020302020302020302020300A20202020322E3134333420202020302E3030303020202020302E30303030204F202020302020302020302020302020302020302020302020302020302020302020302020300A2020312020322020312020302020202020200A2020312020342020322020302020202020200A2020322020352020322020302020202020200A2020332020352020312020302020202020200A2020332020362020322020302020202020200A2020342020362020312020302020202020200A2020352020372020312020302020202020200A2020382020392020322020302020202020200A2020392031302020322020302020202020200A2020312020382020312020302020202020200A4D2020454E44
Contributor: TAJIMA S, GUNMA COLLEGE OF TECHNOLOGY
InstType: EI
InstName: HITACHI RMU-7M
IoniMethod: _ENERGY 70 eV
IonPolarity: pos
Date: 2010-10-09 19:48:36+02:00
Num Peaks: 34
26 17 27 57 28 43 37 32 38 57 39 147 41 32 44 100 50 76 51 120 
52 91 53 30 62 32 63 77 64 43 65 69 75 31 76 51 77 179 78 249 
79 77 80 17 89 35 90 34 91 195 92 15 103 31 104 606 105 226 106 155 
107 134 132 367 133 999 134 82 
