Name: 2-AMINO-1-METHOXYBUTANE
MW: 103
Formula: C5H13NO
Synonym: MassBank: JP007377
Synonym: 2-AMINO-1-METHOXYBUTANE
Structure: 310A31380A322D414D494E4F2D312D4D4554484F5859425554414E452E6D6F6C0A20204368656D447261773132323130393232313132440A2020372020362020302020302020302020302020302020302020302020303939392056323030300A20202020302E323036332020202D302E3731343520202020302E303030302043202020302020302020302020302020302020302020302020302020302020302020302020300A2020202D302E3230363320202020302E3030303020202020302E303030302043202020302020302020302020302020302020302020302020302020302020302020302020300A2020202D312E3033313320202020302E3030303020202020302E303030302043202020302020302020302020302020302020302020302020302020302020302020302020300A2020202D312E343433382020202D302E3731343520202020302E303030302043202020302020302020302020302020302020302020302020302020302020302020302020300A20202020312E303331332020202D302E3731343520202020302E30303030204F202020302020302020302020302020302020302020302020302020302020302020302020300A20202020312E3434333820202020302E3030303020202020302E303030302043202020302020302020302020302020302020302020302020302020302020302020302020300A20202020302E3230363320202020302E3731343520202020302E30303030204E202020302020302020302020302020302020302020302020302020302020302020302020300A2020312020322020312020302020202020200A2020322020332020312020302020202020200A2020332020342020312020302020202020200A2020352020362020312020302020202020200A2020312020352020312020302020202020200A2020322020372020312020302020202020200A4D2020454E44
Contributor: YAMAMOTO M, DEP. CHEMISTRY, FAC. SCIENCE, NARA WOMEN'S UNIV.
InstType: EI
InstName: HITACHI RMU-6M
IoniMethod: _ENERGY 70 eV
IonPolarity: pos
Date: 2010-10-09 19:48:36+02:00
Num Peaks: 20
15 49 18 34 27 32 28 58 29 24 30 149 31 27 39 17 41 205 42 86 
43 55 44 67 45 69 56 34 57 14 58 999 59 77 73 20 74 142 75 12 
