Name: 3-NITROPHTHALIC ACID BIS(TRIMETHYLSILYL) ESTER
MW: 355
Formula: C14H21NO6Si2
Synonym: MassBank: JP007464
Synonym: 3-NITROPHTHALIC ACID BIS(TRIMETHYLSILYL) ESTER
Structure: 332D4E4954524F50485448414C4943204143494420424953285452494D455448594C53494C594C292045535445522E6D6F6C0A20204368656D447261773033323331303034303832440A2032332032332020302020302020302020302020302020302020302020303939392056323030300A20202020302E373134352020202D302E3631383720202020302E303030302043202020302020302020302020302020302020302020302020302020302020302020302020300A2020202D302E303030302020202D312E3033313220202020302E303030302043202020302020302020302020302020302020302020302020302020302020302020302020300A2020202D302E373134352020202D302E3631383720202020302E303030302043202020302020302020302020302020302020302020302020302020302020302020302020300A2020202D302E3731343520202020302E3230363320202020302E303030302043202020302020302020302020302020302020302020302020302020302020302020302020300A2020202D312E343238392020202D312E3033313220202020302E303030302043202020302020302020302020302020302020302020302020302020302020302020302020300A2020202D312E343238392020202D312E3835363220202020302E303030302043202020302020302020302020302020302020302020302020302020302020302020302020300A2020202D302E373134352020202D322E3236383820202020302E303030302043202020302020302020302020302020302020302020302020302020302020302020302020300A20202020302E303030302020202D312E3835363220202020302E303030302043202020302020302020302020302020302020302020302020302020302020302020302020300A20202020302E3731343520202020302E3230363320202020302E30303030204F202020302020302020302020302020302020302020302020302020302020302020302020300A20202020312E343238392020202D312E3033313220202020302E30303030204F202020302020302020302020302020302020302020302020302020302020302020302020300A2020202D312E3432383920202020302E3631383820202020302E30303030204F202020302020302020302020302020302020302020302020302020302020302020302020300A20202020302E3030303020202020302E3631383820202020302E30303030204F202020302020302020302020302020302020302020302020302020302020302020302020300A2020202D322E313433342020202D302E3631383720202020302E30303030204E202020302020332020302020302020302020302020302020302020302020302020302020300A2020202D322E3134333420202020302E3230363320202020302E30303030204F202020302020302020302020302020302020302020302020302020302020302020302020300A2020202D322E383537392020202D312E3033313220202020302E30303030204F202020302020352020302020302020302020302020302020302020302020302020302020300A20202020322E313433342020202D302E3631383720202020302E303030302053692020302020302020302020302020302020302020302020302020302020302020302020300A20202020312E3733303920202020302E3039353720202020302E303030302043202020302020302020302020302020302020302020302020302020302020302020302020300A20202020322E353535392020202D312E3333333220202020302E303030302043202020302020302020302020302020302020302020302020302020302020302020302020300A20202020322E383537392020202D302E3230363220202020302E303030302043202020302020302020302020302020302020302020302020302020302020302020302020300A20202020302E3030303020202020312E3434333820202020302E303030302053692020302020302020302020302020302020302020302020302020302020302020302020300A20202020302E3832353020202020312E3434333820202020302E303030302043202020302020302020302020302020302020302020302020302020302020302020302020300A20202020302E3030303020202020322E3236383820202020302E303030302043202020302020302020302020302020302020302020302020302020302020302020302020300A2020202D302E3832353020202020312E3434333820202020302E303030302043202020302020302020302020302020302020302020302020302020302020302020302020300A2020312020322020312020302020202020200A2020322020332020312020302020202020200A2020332020342020312020302020202020200A2020332020352020322020302020202020200A2020352020362020312020302020202020200A2020362020372020322020302020202020200A2020372020382020312020302020202020200A2020322020382020322020302020202020200A2020312020392020322020302020202020200A2020312031302020312020302020202020200A2020342031312020322020302020202020200A2020342031322020312020302020202020200A2031332031342020322020302020202020200A2031332031352020312020302020202020200A2020352031332020312020302020202020200A2031362031372020312020312020202020200A2031362031382020312020312020202020200A2031362031392020312020302020202020200A2031302031362020312020302020202020200A2032302032312020312020302020202020200A2032302032322020312020302020202020200A2032302032332020312020302020202020200A2031322032302020312020302020202020200A4D202043484720203220203133202020312020313520202D310A4D2020454E44
Contributor: KOGA M, UNIV. OF OCCUPATIONAL AND ENVIRONMENTAL HEALTH
InstType: EI
InstName: JEOL JMS-01-SG
IoniMethod: _ENERGY 70 eV
IonPolarity: pos
Date: 2010-10-09 19:48:36+02:00
Num Peaks: 26
43 128 44 157 45 100 47 3 51 14 55 128 69 57 72 4 73 628 74 57 
75 257 77 3 115 14 117 42 119 14 129 4 131 42 132 85 133 57 141 1 
147 999 148 128 149 85 296 7 340 314 341 71 
