Name: BUTYL SALICYLATE
MW: 194
Formula: C11H14O3
Synonym: MassBank: JP000074
Synonym: BUTYL SALICYLATE
Synonym: BUTYL ORTHO HYDROXY BENZOATE
Structure: 425554594C2053414C4943594C4154452E6D6F6C0A20204368656D447261773039303631303034303832440A2031342031342020302020302020302020302020302020302020302020303939392056323030300A2020202D302E333537322020202D302E3230363220202020302E303030302043202020302020302020302020302020302020302020302020302020302020302020302020300A2020202D302E333537322020202D312E3033313220202020302E303030302043202020302020302020302020302020302020302020302020302020302020302020302020300A20202020302E333537322020202D312E3434333820202020302E303030302043202020302020302020302020302020302020302020302020302020302020302020302020300A20202020312E303731372020202D312E3033313220202020302E30303030204F202020302020302020302020302020302020302020302020302020302020302020302020300A20202020302E333537322020202D322E3236383720202020302E303030302043202020302020302020302020302020302020302020302020302020302020302020302020300A2020202D302E333537322020202D322E3638313320202020302E303030302043202020302020302020302020302020302020302020302020302020302020302020302020300A2020202D312E303731372020202D322E3236383820202020302E303030302043202020302020302020302020302020302020302020302020302020302020302020302020300A2020202D312E303731372020202D312E3434333720202020302E303030302043202020302020302020302020302020302020302020302020302020302020302020302020300A20202020302E3335373220202020302E3230363320202020302E30303030204F202020302020302020302020302020302020302020302020302020302020302020302020300A2020202D312E3037313720202020302E3230363320202020302E30303030204F202020302020302020302020302020302020302020302020302020302020302020302020300A2020202D312E3037313720202020312E3033313320202020302E303030302043202020302020302020302020302020302020302020302020302020302020302020302020300A2020202D302E3335373220202020312E3434333820202020302E303030302043202020302020302020302020302020302020302020302020302020302020302020302020300A2020202D302E3335373220202020322E3236383820202020302E303030302043202020302020302020302020302020302020302020302020302020302020302020302020300A20202020302E3335373220202020322E3638313320202020302E303030302043202020302020302020302020302020302020302020302020302020302020302020302020300A2020312020322020312020302020202020200A2020322020332020312020302020202020200A2020332020342020312020302020202020200A2020332020352020322020302020202020200A2020352020362020312020302020202020200A2020362020372020322020302020202020200A2020372020382020312020302020202020200A2020322020382020322020302020202020200A2020312020392020322020302020202020200A2020312031302020312020302020202020200A2031312031322020312020302020202020200A2031322031332020312020302020202020200A2031332031342020312020302020202020200A2031302031312020312020302020202020200A4D2020454E44
Contributor: TAJIMA S, GUNMA COLLEGE OF TECHNOLOGY
InstType: EI
InstName: HITACHI RMU-7M
IoniMethod: _ENERGY 70 eV
IonPolarity: pos
Date: 2010-10-09 19:48:36+02:00
Num Peaks: 23
27 39 29 126 39 99 41 121 43 29 53 18 55 35 56 29 57 60 63 33 
64 43 65 120 69 11 71 17 92 188 93 80 120 999 121 267 122 22 138 221 
139 23 194 117 195 15 
