Name: PARA-ISOPROPENYLPHENYLDIMETHYLMETHOXYSILANE
MW: 206
Formula: C12H18OSi
Synonym: MassBank: JP001432
Synonym: PARA-ISOPROPENYLPHENYLDIMETHYLMETHOXYSILANE
Structure: 504152412D49534F50524F50454E594C5048454E594C44494D455448594C4D4554484F585953494C414E452E6D6F6C0A20204368656D447261773038313231303034323532440A2031342031342020302020302020302020302020302020302020302020303939392056323030300A20202020312E343433372020202D302E3230363320202020302E303030302053692020302020302020302020302020302020302020302020302020302020302020302020300A20202020312E3434333720202020302E3631383720202020302E30303030204F202020302020302020302020302020302020302020302020302020302020302020302020300A20202020322E3135383220202020312E3033313320202020302E303030302043202020302020302020302020302020302020302020302020302020302020302020302020300A20202020312E343433372020202D312E3033313320202020302E303030302043202020302020302020302020302020302020302020302020302020302020302020302020300A20202020322E323638382020202D302E3230363320202020302E303030302043202020302020302020302020302020302020302020302020302020302020302020302020300A20202020302E363138382020202D302E3230363320202020302E303030302043202020302020302020302020302020302020302020302020302020302020302020302020300A20202020302E323036322020202D302E3932303720202020302E303030302043202020302020302020302020302020302020302020302020302020302020302020302020300A2020202D302E363138372020202D302E3932303720202020302E303030302043202020302020302020302020302020302020302020302020302020302020302020302020300A2020202D312E303331332020202D302E3230363220202020302E303030302043202020302020302020302020302020302020302020302020302020302020302020302020300A2020202D302E3631383820202020302E3530383220202020302E303030302043202020302020302020302020302020302020302020302020302020302020302020302020300A20202020302E3230363320202020302E3530383220202020302E303030302043202020302020302020302020302020302020302020302020302020302020302020302020300A2020202D312E383536322020202D302E3230363220202020302E303030302043202020302020302020302020302020302020302020302020302020302020302020302020300A2020202D322E323638382020202D302E3932303720202020302E303030302043202020302020302020302020302020302020302020302020302020302020302020302020300A2020202D322E3236383720202020302E3530383220202020302E303030302043202020302020302020302020302020302020302020302020302020302020302020302020300A2020322020332020312020302020202020200A2020312020322020312020302020202020200A2020312020342020312020302020202020200A2020312020352020312020302020202020200A2020362020372020312020302020202020200A2020372020382020322020302020202020200A2020382020392020312020302020202020200A2020392031302020322020302020202020200A2031302031312020312020302020202020200A2020362031312020322020302020202020200A2031322031332020322020302020202020200A2031322031342020312020302020202020200A2020392031322020312020302020202020200A2020312020362020312020302020202020200A4D2020454E44
Contributor: MASS SPECTROSCOPY SOC. OF JAPAN (MSSJ)
InstType: EI
InstName: JEOL JMS-D-3000
IoniMethod: _ENERGY 70 eV
IonPolarity: pos
Date: 2010-10-09 19:48:36+02:00
Num Peaks: 27
43 61 45 36 53 18 58 15 59 176 60 14 67 14 89 42 91 28 96 20 
105 25 115 34 117 17 119 22 121 18 131 74 145 42 154 18 155 266 175 22 
177 41 191 999 192 188 193 52 206 230 207 43 208 12 
