Name: MassBank: JP002457
MW: 162
Formula: C7H14O4
Synonym: MassBank: JP002457
Synonym: (4S,5S)-4,5-BIS-(HYDROXYMETHYL)-2,2-DIMETHYL-1,3-DIOXOLANE
Structure: 2834532C3553292D342C352D4249532D28485944524F58594D455448594C292D322C322D44494D455448594C2D312C332D44494F584F4C414E452E6D6F6C0A20204368656D447261773130323230393032353432440A2031332031332020302020302020302020302020302020302020302020303939392056323030300A2020202D302E313931392020202D302E3136313820202020302E303030302043202020302020302020302020302020302020302020302020302020302020302020302020300A20202020302E363238362020202D302E3234383020202020302E30303030204F202020302020302020302020302020302020302020302020302020302020302020302020300A20202020302E3936343320202020302E3530353720202020302E303030302043202020302020302020302020302020302020302020302020302020302020302020302020300A20202020302E3335313020202020312E3035363920202020302E30303030204F202020302020302020302020302020302020302020302020302020302020302020302020300A2020202D302E3336333320202020302E3634353420202020302E303030302043202020302020302020302020302020302020302020302020302020302020302020302020300A2020202D302E3639383420202020312E3339393320202020302E303030302048202020302020302020302020302020302020302020302020302020302020302020302020300A2020202D302E313931392020202D302E3938363820202020302E303030302043202020302020302020302020302020302020302020302020302020302020302020302020300A2020202D312E3134383120202020302E3339303620202020302E303030302043202020302020302020302020302020302020302020302020302020302020302020302020300A2020202D312E303132332020202D302E3234383020202020302E303030302048202020302020302020302020302020302020302020302020302020302020302020302020300A2020202D302E393036332020202D312E3339393320202020302E30303030204F202020302020302020302020302020302020302020302020302020302020302020302020300A2020202D312E3736313020202020302E3934323920202020302E30303030204F202020302020302020302020302020302020302020302020302020302020302020302020300A20202020312E3736313020202020302E3239323820202020302E303030302043202020302020302020302020302020302020302020302020302020302020302020302020300A20202020312E3637383520202020302E3931383520202020302E303030302043202020302020302020302020302020302020302020302020302020302020302020302020300A2020312020322020312020302020202020200A2020322020332020312020302020202020200A2020332020342020312020302020202020200A2020342020352020312020302020202020200A2020352020312020312020302020202020200A2020352020362020312020312020202020200A2020312020372020312020312020202020200A2020352020382020312020362020202020200A2020312020392020312020362020202020200A2020372031302020312020302020202020200A2020382031312020312020302020202020200A2020332031322020312020312020202020200A2020332031332020312020362020202020200A4D202053545920203120202031205355500A4D2020534C4220203120202031202020310A4D202053414C20202031202031202031320A4D202053424C20202031202031202031320A4D2020534D5420202031204D650A4D2020534256202020312031322020202D362E3133363420202020372E323130370A4D202053545920203120202032205355500A4D2020534C4220203120202032202020320A4D202053414C20202032202031202031330A4D202053424C20202032202031202031330A4D2020534D5420202032204D650A4D2020534256202020322031332020202D362E3231383920202020372E383336340A4D2020454E44
Contributor: ITO S, DEPT. OF CHEM., TOHOKU UNIV.
InstType: EI
InstName: HITACHI M-52
IoniMethod: _ENERGY 25 eV
IonPolarity: pos
Date: 2010-10-09 19:48:36+02:00
Num Peaks: 8
43 68 45 17 59 218 61 5 69 150 87 45 113 55 131 50 
