Name: MassBank: JP007353
CAS: 110-60-1
MW: 88
Formula: C4H12N2
Synonym: MassBank: JP007353
Synonym: 1,4-BUTANEDIAMINE
Synonym: PUTRESCINE
Structure: 310A31360A312C342D425554414E454449414D494E452E6D6F6C0A20204368656D447261773131313430393232343732440A2020362020352020302020302020302020302020302020302020302020303939392056323030300A2020202D312E3037313720202020302E3230363320202020302E303030302043202020302020302020302020302020302020302020302020302020302020302020302020300A2020202D302E333537322020202D302E3230363320202020302E303030302043202020302020302020302020302020302020302020302020302020302020302020302020300A20202020302E3335373220202020302E3230363320202020302E303030302043202020302020302020302020302020302020302020302020302020302020302020302020300A20202020312E303731372020202D302E3230363220202020302E303030302043202020302020302020302020302020302020302020302020302020302020302020302020300A2020202D312E373836322020202D302E3230363320202020302E30303030204E202020302020302020302020302020302020302020302020302020302020302020302020300A20202020312E3738363220202020302E3230363320202020302E30303030204E202020302020302020302020302020302020302020302020302020302020302020302020300A2020312020322020312020302020202020200A2020322020332020312020302020202020200A2020332020342020312020302020202020200A2020312020352020312020302020202020200A2020342020362020312020302020202020200A4D2020454E44
Contributor: YAMAMOTO M, DEP. CHEMISTRY, FAC. SCIENCE, NARA WOMEN'S UNIV.
InstType: EI
InstName: HITACHI RMU-6M
IoniMethod: _ENERGY 70 eV
IonPolarity: pos
Date: 2010-10-09 19:48:36+02:00
Num Peaks: 18
15 15 18 77 27 24 28 112 29 16 30 999 31 104 39 19 41 47 42 54 
43 326 44 104 56 22 58 13 59 127 70 35 71 71 88 18 
