Name: GLYCEROL
CAS: 56-81-5
MW: 92
Formula: C3H8O3
Synonym: MassBank: JP008191
Synonym: GLYCEROL
Structure: 310A31360A474C594345524F4C2E6D6F6C0A20204368656D447261773038313131303139353232440A2020362020352020302020302020302020302020302020302020302020303939392056323030300A20202020312E3033313220202020302E3731343520202020302E30303030204F202020302020302020302020302020302020302020302020302020302020302020302020300A20202020302E3230363220202020302E3731343520202020302E303030302043202020302020302020302020302020302020302020302020302020302020302020302020300A2020202D302E323036332020202D302E3030303020202020302E303030302043202020302020302020302020302020302020302020302020302020302020302020302020300A2020202D312E303331332020202D302E3030303020202020302E30303030204F202020302020302020302020302020302020302020302020302020302020302020302020300A20202020302E323036322020202D302E3731343520202020302E303030302043202020302020302020302020302020302020302020302020302020302020302020302020300A20202020312E303331332020202D302E3731343520202020302E30303030204F202020302020302020302020302020302020302020302020302020302020302020302020300A2020312020322020312020302020202020200A2020322020332020312020302020202020200A2020332020342020312020302020202020200A2020332020352020312020302020202020200A2020352020362020312020302020202020200A4D2020454E44
Contributor: NARA WOMEN'S UNIVERSITY
InstType: EI
InstName: HITACHI M-80
IoniMethod: _ENERGY 70 eV
IonPolarity: pos
Date: 2010-10-09 19:48:36+02:00
Num Peaks: 25
15 238 17 18 18 65 19 77 26 22 27 67 28 30 29 255 30 34 31 450 
32 19 33 21 42 96 43 800 44 472 45 139 55 17 56 14 57 115 60 113 
61 999 62 58 74 15 75 149 93 232 
