Name: MassBank: JP006807
MW: 121
Formula: C8H11N
Synonym: MassBank: JP006807
Synonym: 2,3-XYLIDINE
Synonym: 2,3-DIMETHYLANILINE
Structure: 310A32330A322C332D58594C4944494E452E6D6F6C0A20204368656D447261773132323030393131353232440A2020392020392020302020302020302020302020302020302020302020303939392056323030300A20202020302E343132352020202D312E3432383920202020302E30303030204E202020302020302020302020302020302020302020302020302020302020302020302020300A20202020302E303030302020202D302E3731343520202020302E303030302043202020302020302020302020302020302020302020302020302020302020302020302020300A20202020302E3431323520202020302E3030303020202020302E303030302043202020302020302020302020302020302020302020302020302020302020302020302020300A20202020302E3030303020202020302E3731343520202020302E303030302043202020302020302020302020302020302020302020302020302020302020302020302020300A2020202D302E3832353020202020302E3731343520202020302E303030302043202020302020302020302020302020302020302020302020302020302020302020302020300A2020202D312E323337352020202D302E3030303020202020302E303030302043202020302020302020302020302020302020302020302020302020302020302020302020300A2020202D302E383235302020202D302E3731343520202020302E303030302043202020302020302020302020302020302020302020302020302020302020302020302020300A20202020312E3233373520202020302E3030303020202020302E303030302043202020302020302020302020302020302020302020302020302020302020302020302020300A20202020302E3431323520202020312E3432383920202020302E303030302043202020302020302020302020302020302020302020302020302020302020302020302020300A2020312020322020312020302020202020200A2020322020332020312020302020202020200A2020332020342020322020302020202020200A2020342020352020312020302020202020200A2020352020362020322020302020202020200A2020362020372020312020302020202020200A2020322020372020322020302020202020200A2020332020382020312020302020202020200A2020342020392020312020302020202020200A4D2020454E44
Contributor: TAJIMA S, GUNMA COLLEGE OF TECHNOLOGY
InstType: EI
InstName: HITACHI RMU-7M
IoniMethod: _ENERGY 70 eV
IonPolarity: pos
Date: 2010-10-09 19:48:36+02:00
Num Peaks: 37
15 10 27 40 28 46 30 19 39 84 40 13 41 37 42 41 50 19 51 53 
52 40 53 46 54 24 58.5 21 59.5 16 60.5 12 63 30 65 51 66 19 78 128 
79 62 80 65 81 30 92 88 93 23 94 53 95 20 103 75 104 46 105 21 
106 688 107 55 118 37 119 23 120 411 121 999 122 129 
