Name: PINACOLIN
MW: 100
Formula: C6H12O
Synonym: MassBank: JP001693
Synonym: PINACOLIN
Synonym: 3,3-DIMETHYL-2-BUTANONE
Structure: 310A31380A50494E41434F4C494E2E6D6F6C0A20204368656D447261773032323131303231313132440A2020372020362020302020302020302020302020302020302020302020303939392056323030300A2020202D302E3731343520202020312E3033313320202020302E303030302043202020302020302020302020302020302020302020302020302020302020302020302020300A20202020302E3030303020202020302E3631383720202020302E303030302043202020302020302020302020302020302020302020302020302020302020302020302020300A20202020302E303030302020202D302E3230363220202020302E303030302043202020302020302020302020302020302020302020302020302020302020302020302020300A20202020302E383235302020202D302E3230363220202020302E303030302043202020302020302020302020302020302020302020302020302020302020302020302020300A20202020302E3731343520202020312E3033313320202020302E30303030204F202020302020302020302020302020302020302020302020302020302020302020302020300A20202020302E303030302020202D312E3033313320202020302E303030302043202020302020302020302020302020302020302020302020302020302020302020302020300A2020202D302E383235302020202D302E3230363220202020302E303030302043202020302020302020302020302020302020302020302020302020302020302020302020300A2020312020322020312020302020202020200A2020322020332020312020302020202020200A2020332020342020312020312020202020200A2020322020352020322020302020202020200A2020332020362020312020302020202020200A2020332020372020312020312020202020200A4D2020454E44
Contributor: TAJIMA S, GUNMA COLLEGE OF TECHNOLOGY
InstType: EI
InstName: HITACHI RMU-7M
IoniMethod: _ENERGY 70 eV
IonPolarity: pos
Date: 2010-10-09 19:48:36+02:00
Num Peaks: 18
15 45 27 49 28 24 29 420 39 81 40 12 41 563 42 35 43 326 55 37 
56 66 57 999 58 44 67 10 69 10 85 46 100 168 101 14 
