Name: 1-ETHYLCYCLOHEXYL 3-OXOBUTANOATE
MW: 212
Formula: C12H20O3
Synonym: MassBank: JP007594
Synonym: 1-ETHYLCYCLOHEXYL 3-OXOBUTANOATE
Structure: 312D455448594C4359434C4F484558594C20332D4F584F425554414E4F4154452E6D6F6C0A20204368656D447261773131313830393033353732440A2031352031352020302020302020302020302020302020302020302020303939392056323030300A2020202D302E323331312020202D302E3230353020202020302E303030302043202020302020302020302020302020302020302020302020302020302020302020302020300A2020202D312E3030363420202020302E3037373120202020302E303030302043202020302020302020302020302020302020302020302020302020302020302020302020300A2020202D312E363338342020202D302E3435333220202020302E303030302043202020302020302020302020302020302020302020302020302020302020302020302020300A2020202D322E343133362020202D302E3137313020202020302E303030302043202020302020302020302020302020302020302020302020302020302020302020302020300A2020202D302E303837392020202D312E3031373520202020302E30303030204F202020302020302020302020302020302020302020302020302020302020302020302020300A20202020302E3430303920202020302E3332353320202020302E30303030204F202020302020302020302020302020302020302020302020302020302020302020302020300A2020202D312E343935312020202D312E3236353620202020302E30303030204F202020302020302020302020302020302020302020302020302020302020302020302020300A20202020312E3137363120202020302E3034333120202020302E303030302043202020302020302020302020302020302020302020302020302020302020302020302020300A20202020322E3030313120202020302E3034333120202020302E303030302043202020302020302020302020302020302020302020302020302020302020302020302020300A20202020322E343133362020202D302E3637313420202020302E303030302043202020302020302020302020302020302020302020302020302020302020302020302020300A20202020322E303031312020202D312E3338353920202020302E303030302043202020302020302020302020302020302020302020302020302020302020302020302020300A20202020312E313736312020202D312E3338353920202020302E303030302043202020302020302020302020302020302020302020302020302020302020302020302020300A20202020302E373633362020202D302E3637313420202020302E303030302043202020302020302020302020302020302020302020302020302020302020302020302020300A20202020312E3331393420202020302E3835353620202020302E303030302043202020302020302020302020302020302020302020302020302020302020302020302020300A20202020302E3638373420202020312E3338353920202020302E303030302043202020302020302020302020302020302020302020302020302020302020302020302020300A2020312020322020312020302020202020200A2020322020332020312020302020202020200A2020332020342020312020302020202020200A2020312020352020322020302020202020200A2020312020362020312020302020202020200A2020332020372020322020302020202020200A2020382020392020312020302020202020200A2020392031302020312020302020202020200A2031302031312020312020302020202020200A2031312031322020312020302020202020200A2031322031332020312020302020202020200A2020382031332020312020302020202020200A2031342031352020312020302020202020200A2020382031342020312020302020202020200A2020362020382020312020302020202020200A4D2020454E44
Contributor: TAKEUCHI T, DEP. CHEMISTRY, FAC. SCIENCE, NARA WOMEN'S UNIV.
InstType: EI
InstName: HITACHI M-80
IoniMethod: _ENERGY 20 eV
IonPolarity: pos
Date: 2010-10-09 19:48:36+02:00
Num Peaks: 16
27 176 29 261 41 246 43 926 55 185 57 291 69 359 72 185 81 826 85 909 
99 999 100 141 110 159 111 133 128 83 142 44 
