Name: MassBank: JP000753
MW: 206
Formula: C11H10O4
Synonym: MassBank: JP000753
Synonym: 8-METHYL-3-OXO-2-OXABICYCLO(4.4.0)DECA-4,9-DIENE-6,8-CARBOLACTONE
Structure: 382D4D455448594C2D332D4F584F2D322D4F584142494359434C4F28342E342E3029444543412D342C392D4449454E452D362C382D434152424F4C4143544F4E452E6D6F6C0A20204368656D447261773035323431303232303232440A2031352031372020302020302020302020302020302020302020302020303939392056323030300A2020202D312E3430353420202020302E3238323220202020302E303030302043202020302020302020302020302020302020302020302020302020302020302020302020300A2020202D312E343035342020202D302E3534343320202020302E303030302043202020302020302020302020302020302020302020302020302020302020302020302020300A2020202D302E363834352020202D302E3936303520202020302E303030302043202020302020302020302020302020302020302020302020302020302020302020302020300A20202020302E303433342020202D302E3534303320202020302E303030302043202020302020302020302020302020302020302020302020302020302020302020302020300A20202020302E3034333420202020302E3239303920202020302E303030302043202020302020302020302020302020302020302020302020302020302020302020302020300A2020202D302E3638373120202020302E3731323720202020302E30303030204F202020302020302020302020302020302020302020302020302020302020302020302020300A20202020302E373039322020202D302E3937353820202020302E303030302043202020302020302020302020302020302020302020302020302020302020302020302020300A20202020312E343230332020202D302E3536353320202020302E303030302043202020302020302020302020302020302020302020302020302020302020302020302020300A20202020312E3432303320202020302E3236343020202020302E303030302043202020302020302020302020302020302020302020302020302020302020302020302020300A20202020302E3732333120202020302E3636363620202020302E303030302043202020302020302020302020302020302020302020302020302020302020302020302020300A2020202D322E3132343020202020302E3639373120202020302E30303030204F202020302020302020302020302020302020302020302020302020302020302020302020300A20202020322E313234302020202D302E3937313520202020302E303030302043202020302020302020302020302020302020302020302020302020302020302020302020300A20202020302E3331383420202020302E3236313320202020302E303030302043202020302020302020302020302020302020302020302020302020302020302020302020300A20202020312E3136323720202020302E3236313320202020302E30303030204F202020302020302020302020302020302020302020302020302020302020302020302020300A2020202D302E3039343120202020302E3937353820202020302E30303030204F202020302020302020302020302020302020302020302020302020302020302020302020300A2020312020322020312020302020202020200A2020322020332020322020302020202020200A2020332020342020312020302020202020200A2020342020352020312020302020202020200A2020352020362020312020302020202020200A2020362020312020312020302020202020200A2020342020372020312020302020202020200A2020372020382020312020302020202020200A2020382020392020312020302020202020200A2020392031302020322020302020202020200A2031302020352020312020302020202020200A2020312031312020322020302020202020200A2020382031322020312020302020202020200A2020342031332020312020302020202020200A2031332031342020312020302020202020200A2031342020382020312020302020202020200A2031332031352020322020302020202020200A4D2020454E44
Contributor: NAKAYAMA M, MASS SPECTROSCOPY SOC. OF JAPAN (MSSJ)
InstType: EI
InstName: HITACHI RMU-6L
IoniMethod: _ENERGY 70 eV
IonPolarity: pos
Date: 2010-10-09 19:48:36+02:00
Num Peaks: 56
39 710 40 70 42 40 43 330 44 20 49 20 50 360 51 655 52 48 53 22 
54 70 55 155 61 30 62 90 63 260 64 60 65 280 66 90 67 30 68 20 
74 80 75 60 76 50 77 330 78 160 79 280 80 120 81 40 82 30 89 70 
90 30 91 810 92 170 93 30 94 30 102 40 103 140 104 30 105 530 106 100 
107 30 108 20 115 100 116 30 117 70 118 20 119 310 120 20 132 20 133 915 
134 530 135 50 147 140 161 30 162 999 163 100 
