Name: ABIETIC ACID TRIMETHYLSILYL ESTER
MW: 374
Formula: C23H38O2Si
Synonym: MassBank: JP001059
Synonym: ABIETIC ACID TRIMETHYLSILYL ESTER
Synonym: TRIMETHYLSILYL 7-ISOPROPYL-1,4A-DIMETHYL-1,2,3,4,4A,4B,5,6,10,10A-DECAHYDROPHENANTHRENE-1-CARBOXYLATE
Structure: 414249455449432041434944205452494D455448594C53494C594C2045535445522E6D6F6C0A20204368656D447261773036323431303031353332440A2032382033302020302020302020302020302020302020302020302020303939392056323030300A2020202D312E323535392020202D312E3631313920202020302E303030302043202020302020302020302020302020302020302020302020302020302020302020302020300A2020202D312E373836322020202D302E3937393920202020302E303030302043202020302020302020302020302020302020302020302020302020302020302020302020300A2020202D322E333136352020202D312E3631313920202020302E303030302043202020302020302020302020302020302020302020302020302020302020302020302020300A2020202D312E303731372020202D302E3536373420202020302E303030302043202020302020302020302020302020302020302020302020302020302020302020302020300A2020202D312E3037313720202020302E3235373620202020302E303030302043202020302020302020302020302020302020302020302020302020302020302020302020300A2020202D302E3335373220202020302E3637303120202020302E303030302043202020302020302020302020302020302020302020302020302020302020302020302020300A2020202D302E3335373220202020312E3439353120202020302E303030302043202020302020302020302020302020302020302020302020302020302020302020302020300A20202020302E3335373220202020312E3930373620202020302E303030302043202020302020302020302020302020302020302020302020302020302020302020302020300A20202020312E3037313720202020312E3439353120202020302E303030302043202020302020302020302020302020302020302020302020302020302020302020302020300A20202020312E3738363220202020312E3930373620202020302E303030302043202020302020302020302020302020302020302020302020302020302020302020302020300A20202020312E3738363220202020322E3733323620202020302E303030302043202020302020302020302020302020302020302020302020302020302020302020302020300A20202020322E3530303620202020312E3439353120202020302E303030302043202020302020302020302020302020302020302020302020302020302020302020302020300A20202020312E3037313720202020302E3637303120202020302E303030302043202020302020302020302020302020302020302020302020302020302020302020302020300A2020202D302E333537322020202D302E3135343920202020302E303030302048202020302020302020302020302020302020302020302020302020302020302020302020300A20202020302E3335373220202020302E3235373620202020302E303030302043202020302020302020302020302020302020302020302020302020302020302020302020300A20202020302E333537322020202D302E3536373420202020302E303030302043202020302020302020302020302020302020302020302020302020302020302020302020300A2020202D302E333537322020202D302E3937393920202020302E303030302043202020302020302020302020302020302020302020302020302020302020302020302020300A2020202D312E3738363220202020302E3637303120202020302E303030302043202020302020302020302020302020302020302020302020302020302020302020302020300A2020202D322E3530303620202020302E3235373620202020302E303030302043202020302020302020302020302020302020302020302020302020302020302020302020300A2020202D322E353030362020202D302E3536373420202020302E303030302043202020302020302020302020302020302020302020302020302020302020302020302020300A2020202D312E3037313720202020312E3038323620202020302E303030302043202020302020302020302020302020302020302020302020302020302020302020302020300A2020202D312E353338302020202D322E3338373120202020302E30303030204F202020302020302020302020302020302020302020302020302020302020302020302020300A2020202D302E343433342020202D312E3436383620202020302E30303030204F202020302020302020302020302020302020302020302020302020302020302020302020300A20202020302E303836392020202D322E3130303620202020302E303030302053692020302020302020302020302020302020302020302020302020302020302020302020300A20202020302E373138392020202D312E3537303320202020302E303030302043202020302020302020302020302020302020302020302020302020302020302020302020300A20202020302E363137322020202D322E3733323620202020302E303030302043202020302020302020302020302020302020302020302020302020302020302020302020300A2020202D302E353435312020202D322E3633303920202020302E303030302043202020302020302020302020302020302020302020302020302020302020302020302020300A2020202D312E303731372020202D312E3339323420202020302E303030302048202020302020302020302020302020302020302020302020302020302020302020302020300A2020322020312020312020362020202020200A2020322020332020312020312020202020200A2020322020342020312020302020202020200A2020342020352020312020302020202020200A2020352020362020312020302020202020200A2020362020372020312020302020202020200A2020372020382020312020302020202020200A2020382020392020312020302020202020200A2020392031302020312020302020202020200A2031302031312020312020302020202020200A2031302031322020312020302020202020200A2020392031332020322020302020202020200A2020362031342020312020362020202020200A2020362031352020312020302020202020200A2031332031352020312020302020202020200A2031352031362020322020302020202020200A2031362031372020312020302020202020200A2020342031372020312020302020202020200A2020352031382020312020302020202020200A2031382031392020312020302020202020200A2031392032302020312020302020202020200A2020322032302020312020302020202020200A2020352032312020312020312020202020200A2020312032322020322020302020202020200A2020312032332020312020302020202020200A2032342032352020312020302020202020200A2032342032362020312020302020202020200A2032342032372020312020302020202020200A2032332032342020312020302020202020200A2020342032382020312020362020202020200A4D2020454E44
Contributor: KOGA M, UNIV. OF OCCUPATIONAL AND ENVIRONMENTAL HEALTH
InstType: EI
InstName: JEOL JMS-01-SG
IoniMethod: _ENERGY 70 eV
IonPolarity: pos
Date: 2010-10-09 19:48:36+02:00
Num Peaks: 42
43 396 45 159 55 136 67 11 69 236 73 893 75 266 79 13 81 171 91 171 
93 183 103 13 105 242 107 142 109 177 115 15 117 224 119 106 129 136 131 24 
133 195 141 142 143 266 159 14 173 189 185 360 186 118 193 11 213 236 237 165 
239 999 240 21 241 349 243 420 255 189 256 64 257 183 357 59 359 59 361 4 
372 41 374 59 
