Name: MassBank: JP009849
MW: 198
Formula: C7H12Cl2O2
Synonym: MassBank: JP009849
Synonym: 1,1-DIMETHOXY-2,4-DICHLORO-3-METHYLENEBUTANE
Synonym: 2-CHLORO-3-CHLOROMETHYL-3-BUTENAL DIMETHYLACETAL
Structure: 312C312D44494D4554484F58592D322C342D444943484C4F524F2D332D4D455448594C454E45425554414E452E6D6F6C0A20204368656D447261773130323330393130323932440A2031312031302020302020302020302020302020302020302020302020303939392056323030300A20202020302E303030302020202D302E3431323520202020302E303030302043202020302020302020302020302020302020302020302020302020302020302020302020300A20202020302E3030303020202020302E3431323520202020302E303030302043202020302020302020302020302020302020302020302020302020302020302020302020300A2020202D302E3731343520202020302E3832353020202020302E303030302043202020302020302020302020302020302020302020302020302020302020302020302020300A2020202D312E3432383920202020302E3431323520202020302E303030302043202020302020302020302020302020302020302020302020302020302020302020302020300A2020202D302E3731343520202020312E3635303020202020302E303030302043202020302020302020302020302020302020302020302020302020302020302020302020300A2020202D312E343238392020202D302E3431323520202020302E3030303020436C2020302020302020302020302020302020302020302020302020302020302020302020300A20202020302E3731343520202020302E3832353020202020302E3030303020436C2020302020302020302020302020302020302020302020302020302020302020302020300A20202020302E373134352020202D302E3832353020202020302E30303030204F202020302020302020302020302020302020302020302020302020302020302020302020300A20202020312E343238392020202D302E3431323520202020302E303030302043202020302020302020302020302020302020302020302020302020302020302020302020300A2020202D302E373134352020202D302E3832353020202020302E30303030204F202020302020302020302020302020302020302020302020302020302020302020302020300A2020202D302E373134352020202D312E3635303020202020302E303030302043202020302020302020302020302020302020302020302020302020302020302020302020300A2020312020322020312020302020202020200A2020322020332020312020302020202020200A2020332020342020312020302020202020200A2020332020352020322020302020202020200A2020342020362020312020302020202020200A2020322020372020312020302020202020200A2020382020392020312020302020202020200A2020312020382020312020302020202020200A2031302031312020312020302020202020200A2020312031302020312020302020202020200A4D2020454E44
Contributor: KURARAY CO., LTD.
InstType: EI
InstName: JEOL JMS-D-300
IoniMethod: _ENERGY 70 eV
IonPolarity: pos
Date: 2010-10-09 19:48:36+02:00
Num Peaks: 32
27 37 29 27 31 56 41 5 42 25 43 18 45 24 47 15 49 14 50 10 
51 40 53 7 65 21 67 23 73 26 75 999 76 36 77 11 79 10 81 1 
83 13 87 13 89 27 92 2 95 14 96 13 131 29 132 1 133 10 163 12 
167 79 169 49 
