Name: 2-TRIMETHYLSILYLPROPENE
MW: 114
Formula: C6H14Si
Synonym: MassBank: JP001365
Synonym: 2-TRIMETHYLSILYLPROPENE
Structure: 310A31380A322D5452494D455448594C53494C594C50524F50454E452E6D6F6C0A20204368656D447261773032323131303136353532440A2020372020362020302020302020302020302020302020302020302020303939392056323030300A2020202D302E3731343520202020312E3033313320202020302E303030302043202020302020302020302020302020302020302020302020302020302020302020302020300A20202020302E3030303020202020302E3631383720202020302E303030302043202020302020302020302020302020302020302020302020302020302020302020302020300A20202020302E3731343520202020312E3033313320202020302E303030302043202020302020302020302020302020302020302020302020302020302020302020302020300A20202020302E303030302020202D302E3230363320202020302E303030302053692020302020302020302020302020302020302020302020302020302020302020302020300A20202020302E383235302020202D302E3230363320202020302E303030302043202020302020302020302020302020302020302020302020302020302020302020302020300A20202020302E303030302020202D312E3033313320202020302E303030302043202020302020302020302020302020302020302020302020302020302020302020302020300A2020202D302E383235302020202D302E3230363320202020302E303030302043202020302020302020302020302020302020302020302020302020302020302020302020300A2020312020322020322020302020202020200A2020322020332020312020302020202020200A2020342020352020312020312020202020200A2020342020362020312020302020202020200A2020342020372020312020312020202020200A2020322020342020312020302020202020200A4D2020454E44
Contributor: MASS SPECTROSCOPY SOC. OF JAPAN (MSSJ)
InstType: EI
InstName: JEOL JMS-D-3000
IoniMethod: _ENERGY 70 eV
IonPolarity: pos
Date: 2010-10-09 19:48:36+02:00
Num Peaks: 22
42 16 43 130 45 502 46 13 53 17 55 25 57 12 58 25 59 713 60 34 
67 13 72 49 73 999 74 376 75 48 83 13 86 97 99 554 100 63 101 22 
114 85 115 11 
