Name: PARA-TOLENESULFINAMIDE
MW: 155
Formula: C7H9NOS
Synonym: MassBank: JP008758
Synonym: PARA-TOLENESULFINAMIDE
Structure: 303937345F504152412D544F4C454E4553554C46494E414D4944452E6D6F6C0A20204368656D447261773038323031303132303732440A2031302031302020302020302020302020302020302020302020302020303939392056323030300A20202020302E323036332020202D302E3731343420202020302E303030302043202020302020302020302020302020302020302020302020302020302020302020302020300A2020202D302E363138382020202D302E3731343420202020302E303030302043202020302020302020302020302020302020302020302020302020302020302020302020300A2020202D302E3631383820202020302E3731343420202020302E303030302043202020302020302020302020302020302020302020302020302020302020302020302020300A20202020302E3631383720202020302E3030303120202020302E303030302043202020302020302020302020302020302020302020302020302020302020302020302020300A2020202D312E3033313320202020302E3030303120202020302E303030302043202020302020302020302020302020302020302020302020302020302020302020302020300A20202020302E3230363220202020302E3731343420202020302E303030302043202020302020302020302020302020302020302020302020302020302020302020302020300A20202020312E3434333720202020302E3030303120202020302E303030302053202020302020302020302020302020302020302020302020302020302020302020302020300A20202020312E3835363220202020302E3731343420202020302E30303030204F202020302020302020302020302020302020302020302020302020302020302020302020300A20202020312E383536332020202D302E3731343420202020302E30303030204E202020302020302020302020302020302020302020302020302020302020302020302020300A2020202D312E3835363320202020302E3030303120202020302E303030302043202020302020302020302020302020302020302020302020302020302020302020302020300A2020312020322020322020302020202020200A2020312020342020312020302020202020200A2020322020352020312020302020202020200A2020332020352020322020302020202020200A2020332020362020312020302020202020200A2020342020362020322020302020202020200A2020372020382020322020302020202020200A2020372020392020312020302020202020200A2020342020372020312020302020202020200A2020352031302020312020302020202020200A4D2020454E44
Contributor: TSUNODA T, FACULTY OF PHARMACEUTICAL SCIENCES, TOKUSHIMA BUNRI UNIV.
InstType: EI
InstName: SHIMADZU LKB-9000B
IoniMethod: _ENERGY 70 eV
IonPolarity: pos
Date: 2010-10-09 19:48:36+02:00
Num Peaks: 27
39 246 41 57 45 75 48 53 50 85 51 142 62 73 63 217 64 146 65 399 
67 110 77 315 78 107 79 123 89 149 90 68 91 584 92 71 106 146 107 657 
108 529 109 109 111 119 139 999 140 99 141 50 155 17 
