Name: ACETOPHENONE DIMETHYL ACETAL
MW: 166
Formula: C10H14O2
Synonym: MassBank: JP008461
Synonym: ACETOPHENONE DIMETHYL ACETAL
Structure: 414345544F5048454E4F4E452044494D455448594C2041434554414C2E6D6F6C0A20204368656D447261773036323431303138323532440A2031322031322020302020302020302020302020302020302020302020303939392056323030300A20202020302E383235302020202D302E3030303020202020302E303030302043202020302020302020302020302020302020302020302020302020302020302020302020300A20202020312E363530302020202D302E3030303020202020302E303030302043202020302020302020302020302020302020302020302020302020302020302020302020300A20202020302E303030302020202D302E3030303020202020302E303030302043202020302020302020302020302020302020302020302020302020302020302020302020300A2020202D302E343132352020202D302E3731343520202020302E303030302043202020302020302020302020302020302020302020302020302020302020302020302020300A2020202D312E323337352020202D302E3731343520202020302E303030302043202020302020302020302020302020302020302020302020302020302020302020302020300A2020202D312E3635303020202020302E3030303020202020302E303030302043202020302020302020302020302020302020302020302020302020302020302020302020300A2020202D312E3233373520202020302E3731343520202020302E303030302043202020302020302020302020302020302020302020302020302020302020302020302020300A2020202D302E3431323520202020302E3731343520202020302E303030302043202020302020302020302020302020302020302020302020302020302020302020302020300A20202020302E3832353020202020302E3832353020202020302E30303030204F202020302020302020302020302020302020302020302020302020302020302020302020300A20202020302E383235302020202D302E3832353020202020302E30303030204F202020302020302020302020302020302020302020302020302020302020302020302020300A20202020312E3533393520202020312E3233373520202020302E303030302043202020302020302020302020302020302020302020302020302020302020302020302020300A20202020312E353339352020202D312E3233373520202020302E303030302043202020302020302020302020302020302020302020302020302020302020302020302020300A2020312020322020312020302020202020200A2020332020342020312020302020202020200A2020342020352020322020302020202020200A2020352020362020312020302020202020200A2020362020372020322020302020202020200A2020372020382020312020302020202020200A2020332020382020322020302020202020200A2020312020332020312020302020202020200A2020392031312020312020302020202020200A2031302031322020312020302020202020200A2020312020392020312020312020202020200A2020312031302020312020312020202020200A4D2020454E44
Contributor: SODA AROMATIC CO., LTD.
InstType: EI
InstName: HITACHI M-80B
IoniMethod: _ENERGY 70 eV
IonPolarity: pos
Date: 2010-10-09 19:48:36+02:00
Num Peaks: 45
15 157 26 10 27 55 29 161 30 26 31 157 32 31 38 23 39 117 41 16 
42 27 43 730 44 11 50 153 51 336 52 38 53 11 57 14 59 25 62 28 
63 88 64 18 65 119 74 53 75 37 76 62 77 475 78 243 79 24 89 161 
90 23 91 343 92 34 102 68 103 284 104 293 105 265 106 16 119 19 133 327 
134 297 135 999 136 92 151 187 152 15 
