Name: MassBank: JP001224
MW: 196
Formula: C12H20O2
Synonym: MassBank: JP001224
Synonym: 3,3-DIMETHYL-8,9-DINORBORNAN-2-YL ACETATE
Synonym: 1,3,3-TRIMETHYLBICYCLO(2.2.1)HEPT-2-YL ACETATE
Structure: 332C332D44494D455448594C2D382C392D44494E4F52424F524E414E2D322D594C20414345544154452E6D6F6C0A20204368656D447261773131313030393135353532440A2031342031352020302020302020302020302020302020302020302020303939392056323030300A2020202D302E373535372020202D302E3631383820202020302E303030302043202020302020302020302020302020302020302020302020302020302020302020302020300A2020202D302E373535372020202D312E3434333820202020302E303030302043202020302020302020302020302020302020302020302020302020302020302020302020300A2020202D302E303431322020202D312E3835363320202020302E303030302043202020302020302020302020302020302020302020302020302020302020302020302020300A20202020302E363733332020202D312E3434333820202020302E303030302043202020302020302020302020302020302020302020302020302020302020302020302020300A20202020302E363733332020202D302E3631383820202020302E303030302043202020302020302020302020302020302020302020302020302020302020302020302020300A2020202D302E303431322020202D302E3230363220202020302E303030302043202020302020302020302020302020302020302020302020302020302020302020302020300A2020202D302E3034313220202020302E3631383820202020302E30303030204F202020302020302020302020302020302020302020302020302020302020302020302020300A2020202D302E3735353720202020312E3033313320202020302E303030302043202020302020302020302020302020302020302020302020302020302020302020302020300A2020202D302E3735353720202020312E3835363320202020302E30303030204F202020302020302020302020302020302020302020302020302020302020302020302020300A2020202D312E3437303220202020302E3631383820202020302E303030302043202020302020302020302020302020302020302020302020302020302020302020302020300A20202020302E303639332020202D302E3631383820202020302E303030302043202020302020302020302020302020302020302020302020302020302020302020302020300A2020202D312E343730322020202D302E3230363220202020302E303030302043202020302020302020302020302020302020302020302020302020302020302020302020300A20202020312E343730322020202D302E3430353220202020302E303030302043202020302020302020302020302020302020302020302020302020302020302020302020300A20202020302E3738303920202020302E3139393220202020302E303030302043202020302020302020302020302020302020302020302020302020302020302020302020300A2020312020322020312020302020202020200A2020322020332020312020302020202020200A2020332020342020312020302020202020200A2020342020352020312020302020202020200A2020352020362020312020302020202020200A2020362020312020312020302020202020200A2020362020372020312020302020202020200A2020372020382020312020302020202020200A2020382020392020322020302020202020200A2020382031302020312020302020202020200A2020312031312020312020302020202020200A2031312020342020312020302020202020200A2020312031322020312020302020202020200A2020352031332020312020312020202020200A2020352031342020312020362020202020200A4D2020454E44
Contributor: SASAKI S, TOYOHASHI UNIV. OF TECH.
InstType: EI
InstName: HITACHI RMU-6D
IoniMethod: _ENERGY 70 eV
IonPolarity: pos
Date: 2010-10-09 19:48:36+02:00
Num Peaks: 68
14 5 15 20 18 50 26 5 27 585 28 60 31 120 38 7 40 255 41 15 
42 760 43 2 44 20 50 5 51 5 52 0 53 60 54 3 55 120 56 1 
57 30 59 10 66 20 67 1 68 140 69 10 70 145 71 1 72 65 73 135 
77 40 78 1 79 5 80 80 81 420 82 999 83 120 85 50 86 50 87 2 
88 10 91 30 92 40 93 12 94 40 95 60 96 5 97 2 99 10 105 10 
107 120 108 2 109 80 110 5 111 40 114 1 115 20 116 30 121 200 122 2 
123 30 134 40 135 340 136 4 137 5 138 20 157 18 158 30 
