Name: 3-FORMYL-1-METHYLINDOLE
MW: 159
Formula: C10H9NO
Synonym: MassBank: JP000434
Synonym: 3-FORMYL-1-METHYLINDOLE
Structure: 332D464F524D594C2D312D4D455448594C494E444F4C452E6D6F6C0A20204368656D447261773032323231303138303232440A2031322031332020302020302020302020302020302020302020302020303939392056323030300A2020202D302E353735382020202D302E3735333220202020302E30303030204E202020302020302020302020302020302020302020302020302020302020302020302020300A2020202D312E303630372020202D302E3038353820202020302E303030302043202020302020302020302020302020302020302020302020302020302020302020302020300A2020202D302E3537353820202020302E3538313720202020302E303030302043202020302020302020302020302020302020302020302020302020302020302020302020300A20202020302E3230383820202020302E3332363720202020302E303030302043202020302020302020302020302020302020302020302020302020302020302020302020300A20202020302E3932333320202020302E3733393220202020302E303030302043202020302020302020302020302020302020302020302020302020302020302020302020300A20202020312E3633373720202020302E3332363720202020302E303030302043202020302020302020302020302020302020302020302020302020302020302020302020300A20202020312E363337372020202D302E3439383320202020302E303030302043202020302020302020302020302020302020302020302020302020302020302020302020300A20202020302E393233332020202D302E3931303820202020302E303030302043202020302020302020302020302020302020302020302020302020302020302020302020300A20202020302E323038382020202D302E3439383320202020302E303030302043202020302020302020302020302020302020302020302020302020302020302020302020300A2020202D302E383330382020202D312E3533373820202020302E303030302043202020302020302020302020302020302020302020302020302020302020302020302020300A2020202D302E3833303820202020312E3336363320202020302E303030302043202020302020302020302020302020302020302020302020302020302020302020302020300A2020202D312E3633373720202020312E3533373820202020302E30303030204F202020302020302020302020302020302020302020302020302020302020302020302020300A2020312020322020312020302020202020200A2020322020332020322020302020202020200A2020332020342020312020302020202020200A2020342020352020312020302020202020200A2020352020362020322020302020202020200A2020362020372020312020302020202020200A2020372020382020322020302020202020200A2020382020392020312020302020202020200A2020312020392020312020302020202020200A2020342020392020322020302020202020200A2020312031302020312020302020202020200A2031312031322020322020302020202020200A2020332031312020312020302020202020200A4D2020454E44
Contributor: SASAKI S, TOYOHASHI UNIV. OF TECH.
InstType: EI
InstName: MX-1303
IoniMethod: _ENERGY 50 eV
IonPolarity: pos
Date: 2010-10-09 19:48:36+02:00
Num Peaks: 24
39 40 50 10 51 45 62 2 63 80 66 27 75 24 76 1 77 190 88 19 
89 100 101 2 102 45 103 122 115 24 116 2 128 19 129 12 130 145 131 1 
157 20 158 999 159 880 160 76 
