Name: MassBank: JP005154
MW: 528
Formula: C22H24N8O8
Synonym: MassBank: JP005154
Synonym: 2-(1-(2,4-DINITROPHENYLHYDRAZONOMETHYL)ETHYL)-5-METHYLCYCLOPENTANECARBALDEHYDE 2,4-DINITROPHENYLHYDRAZONE
Synonym: IRIDODIAL BIS-2,4-DINITROPHENYLHYDRAZONE
Structure: 322D28312D28322C342D44494E4954524F5048454E594C48594452415A4F4E4F4D455448594C29455448594C292D352D4D455448594C4359434C4F50454E54414E4543415242414C44454859444520322C342D44494E4954524F5048454E594C48594452415A4F4E452E6D6F6C0A20204368656D447261773132323130393035323432440A2033382034302020302020302020302020302020302020302020302020303939392056323030300A20202020312E373934352020202D312E3633343020202020302E303030302043202020302020302020302020302020302020302020302020302020302020302020302020300A20202020312E313237312020202D322E3131383920202020302E303030302043202020302020302020302020302020302020302020302020302020302020302020302020300A20202020312E333832302020202D322E3930333520202020302E303030302043202020302020302020302020302020302020302020302020302020302020302020302020300A20202020322E323037302020202D322E3930333520202020302E303030302043202020302020302020302020302020302020302020302020302020302020302020302020300A20202020322E343632302020202D322E3131383920202020302E303030302043202020302020302020302020302020302020302020302020302020302020302020302020300A20202020312E373934352020202D302E3830393020202020302E303030302043202020302020302020302020302020302020302020302020302020302020302020302020300A20202020332E323436362020202D312E3836343020202020302E303030302043202020302020302020302020302020302020302020302020302020302020302020302020300A20202020302E333432352020202D312E3836343020202020302E303030302043202020302020302020302020302020302020302020302020302020302020302020302020300A2020202D302E323430392020202D322E3434373320202020302E303030302043202020302020302020302020302020302020302020302020302020302020302020302020300A20202020302E313238392020202D312E3036373120202020302E303030302043202020302020302020302020302020302020302020302020302020302020302020302020300A2020202D302E363638302020202D302E3835333520202020302E30303030204E202020302020302020302020302020302020302020302020302020302020302020302020300A2020202D302E383831352020202D302E3035363720202020302E30303030204E202020302020302020302020302020302020302020302020302020302020302020302020300A2020202D312E3637383420202020302E3135363920202020302E303030302043202020302020302020302020302020302020302020302020302020302020302020302020300A2020202D312E3839313920202020302E3935333820202020302E303030302043202020302020302020302020302020302020302020302020302020302020302020302020300A2020202D322E3638383820202020312E3136373320202020302E303030302043202020302020302020302020302020302020302020302020302020302020302020302020300A2020202D332E3237323120202020302E3538333920202020302E303030302043202020302020302020302020302020302020302020302020302020302020302020302020300A2020202D332E303538362020202D302E3231333020202020302E303030302043202020302020302020302020302020302020302020302020302020302020302020302020300A2020202D322E323631372020202D302E3432363520202020302E303030302043202020302020302020302020302020302020302020302020302020302020302020302020300A2020202D342E3036393020202020302E3739373420202020302E30303030204E202020302020332020302020302020302020302020302020302020302020302020302020300A2020202D342E3238323620202020312E3539343320202020302E30303030204F202020302020302020302020302020302020302020302020302020302020302020302020300A2020202D342E3635323420202020302E3231343120202020302E30303030204F202020302020352020302020302020302020302020302020302020302020302020302020300A2020202D312E3330383520202020312E3533373120202020302E30303030204E202020302020332020302020302020302020302020302020302020302020302020302020300A2020202D302E3531313620202020312E3332333620202020302E30303030204F202020302020302020302020302020302020302020302020302020302020302020302020300A2020202D312E3532323120202020322E3333343020202020302E30303030204F202020302020352020302020302020302020302020302020302020302020302020302020300A20202020312E303830302020202D302E3339363520202020302E30303030204E202020302020302020302020302020302020302020302020302020302020302020302020300A20202020312E3038303020202020302E3432383520202020302E30303030204E202020302020302020302020302020302020302020302020302020302020302020302020300A20202020312E3739343520202020302E3834313020202020302E303030302043202020302020302020302020302020302020302020302020302020302020302020302020300A20202020312E3739343520202020312E3636363020202020302E303030302043202020302020302020302020302020302020302020302020302020302020302020302020300A20202020322E3530393020202020322E3037383520202020302E303030302043202020302020302020302020302020302020302020302020302020302020302020302020300A20202020332E3232333520202020312E3636363020202020302E303030302043202020302020302020302020302020302020302020302020302020302020302020302020300A20202020332E3232333520202020302E3834313020202020302E303030302043202020302020302020302020302020302020302020302020302020302020302020302020300A20202020322E3530393020202020302E3432383520202020302E303030302043202020302020302020302020302020302020302020302020302020302020302020302020300A20202020332E3933373920202020322E3037383520202020302E30303030204E202020302020332020302020302020302020302020302020302020302020302020302020300A20202020332E3933373920202020322E3930333520202020302E30303030204F202020302020302020302020302020302020302020302020302020302020302020302020300A20202020342E3635323420202020312E3636363020202020302E30303030204F202020302020352020302020302020302020302020302020302020302020302020302020300A20202020312E3038303020202020322E3037383520202020302E30303030204E202020302020332020302020302020302020302020302020302020302020302020302020300A20202020312E3038303020202020322E3930333520202020302E30303030204F202020302020302020302020302020302020302020302020302020302020302020302020300A20202020302E3336353620202020312E3636363020202020302E30303030204F202020302020352020302020302020302020302020302020302020302020302020302020300A2020312020322020312020302020202020200A2020322020332020312020302020202020200A2020332020342020312020302020202020200A2020342020352020312020302020202020200A2020312020352020312020302020202020200A2020312020362020312020302020202020200A2020352020372020312020302020202020200A2020382020392020312020302020202020200A2031312031322020312020302020202020200A2031332031342020312020302020202020200A2031342031352020322020302020202020200A2031352031362020312020302020202020200A2031362031372020322020302020202020200A2031372031382020312020302020202020200A2031332031382020322020302020202020200A2031322031332020312020302020202020200A2031392032302020322020302020202020200A2031392032312020312020302020202020200A2031362031392020312020302020202020200A2032322032332020322020302020202020200A2032322032342020312020302020202020200A2031342032322020312020302020202020200A2031302031312020322020302020202020200A2020382031302020312020302020202020200A2020322020382020312020302020202020200A2032352032362020312020302020202020200A2032372032382020312020302020202020200A2032382032392020322020302020202020200A2032392033302020312020302020202020200A2033302033312020322020302020202020200A2033312033322020312020302020202020200A2032372033322020322020302020202020200A2032362032372020312020302020202020200A2033332033342020322020302020202020200A2033332033352020312020302020202020200A2033302033332020312020302020202020200A2033362033372020322020302020202020200A2033362033382020312020302020202020200A2032382033362020312020302020202020200A2020362032352020322020302020202020200A4D202043484720203820203139202020312020323120202D3120203232202020312020323420202D3120203333202020312020333520202D3120203336202020312020333820202D310A4D2020454E44
Contributor: HAYASHI A, FAC. OF SCIENCE AND TECHNOLOGY, KINKI UNIV.
InstType: EI
InstName: JEOL JMS-HX-100
IoniMethod: _ENERGY 70 eV
IonPolarity: pos
Date: 2010-10-09 19:48:36+02:00
Num Peaks: 212
35 6 37 9 38 30 39 122 40 27 41 365 42 60 43 111 44 151 45 20 
46 8 50 23 51 71 52 58 53 118 54 46 55 245 56 62 57 75 58 11 
60 14 61 14 62 29 63 79 64 59 65 65 66 42 67 200 68 75 69 79 
70 46 71 30 73 13 74 13 75 73 76 50 77 162 78 95 79 214 80 95 
81 371 82 63 83 36 84 14 85 17 87 6 88 8 89 22 90 47 91 145 
92 65 93 194 94 154 95 123 96 32 97 22 98 12 99 6 101 6 102 12 
103 28 104 26 105 65 106 78 107 163 108 87 109 85 110 20 111 13 115 28 
116 23 117 55 118 46 119 47 120 38 121 78 122 50 123 82 124 14 125 7 
127 10 128 19 129 27 130 37 131 45 132 45 133 54 134 80 135 81 136 40 
137 34 138 21 139 7 140 6 141 10 142 11 143 19 144 23 145 21 146 41 
147 31 148 154 149 79 150 79 151 34 152 36 153 47 154 15 155 16 156 21 
157 25 158 14 159 15 160 7 161 9 162 8 163 13 164 33 165 43 166 16 
167 41 168 30 169 20 170 15 171 14 176 13 177 24 178 16 179 10 180 13 
181 28 182 18 183 50 184 30 185 11 189 11 190 11 191 14 193 15 194 13 
195 62 196 18 197 12 202 16 203 40 204 14 205 12 209 10 210 16 215 14 
216 11 217 13 220 13 228 15 229 18 230 9 231 11 237 16 238 10 241 14 
242 13 243 12 249 16 255 17 256 10 257 11 268 10 269 14 270 8 271 16 
272 6 275 11 282 11 283 17 284 13 285 22 286 9 287 7 288 11 289 10 
290 6 291 22 295 15 296 10 297 17 298 17 299 36 300 13 301 13 302 6 
313 15 314 10 315 51 316 12 317 7 328 6 329 41 330 23 331 999 332 213 
333 33 334 4 345 6 346 6 477 4 493 11 494 6 496 7 511 5 526 13 
528 47 529 12 
