Name: BETA-CYCLOCITRAL
MW: 152
Formula: C10H16O
Synonym: MassBank: JP008216
Synonym: BETA-CYCLOCITRAL
Structure: 424554412D4359434C4F43495452414C2E6D6F6C0A20204368656D447261773039303531303132323632440A2031312031312020302020302020302020302020302020302020302020303939392056323030300A20202020302E333038322020202D302E3138313420202020302E303030302043202020302020302020302020302020302020302020302020302020302020302020302020300A2020202D302E343036322020202D302E3539333920202020302E303030302043202020302020302020302020302020302020302020302020302020302020302020302020300A2020202D312E313230372020202D302E3138313420202020302E303030302043202020302020302020302020302020302020302020302020302020302020302020302020300A2020202D312E3132303720202020302E3634333620202020302E303030302043202020302020302020302020302020302020302020302020302020302020302020302020300A2020202D302E3430363220202020312E3035363120202020302E303030302043202020302020302020302020302020302020302020302020302020302020302020302020300A20202020302E3330383220202020302E3634333620202020302E303030302043202020302020302020302020302020302020302020302020302020302020302020302020300A20202020312E303232372020202D302E3539333920202020302E303030302043202020302020302020302020302020302020302020302020302020302020302020302020300A20202020312E303232372020202D312E3431383920202020302E30303030204F202020302020302020302020302020302020302020302020302020302020302020302020300A20202020302E3539303420202020312E3431383920202020302E303030302043202020302020302020302020302020302020302020302020302020302020302020302020300A20202020312E3132303720202020302E3530303420202020302E303030302043202020302020302020302020302020302020302020302020302020302020302020302020300A2020202D302E343036322020202D312E3431383920202020302E303030302043202020302020302020302020302020302020302020302020302020302020302020302020300A2020312020322020322020302020202020200A2020322020332020312020302020202020200A2020332020342020312020302020202020200A2020342020352020312020302020202020200A2020352020362020312020302020202020200A2020312020362020312020302020202020200A2020372020382020322020302020202020200A2020312020372020312020302020202020200A2020362020392020312020362020202020200A2020362031302020312020312020202020200A2020322031312020312020302020202020200A4D2020454E44
Contributor: MASS SPECTROSCOPY SOC. OF JAPAN (MSSJ)
InstType: EI
InstName: HITACHI M-80
IoniMethod: _ENERGY 20 eV
IonPolarity: pos
Date: 2010-10-09 19:48:36+02:00
Num Peaks: 30
41 94 43 124 53 65 55 115 56 35 57 32 60 18 67 456 69 56 77 32 
78 24 81 324 82 32 91 62 92 21 93 200 95 82 98 27 105 32 107 153 
108 29 109 635 110 85 119 121 121 35 123 638 124 59 137 999 138 118 152 832 
