Name: METHYL 4-METHYL-3-CYCLOHEXENYL KETONE
MW: 138
Formula: C9H14O
Synonym: MassBank: JP002308
Synonym: METHYL 4-METHYL-3-CYCLOHEXENYL KETONE
Synonym: 4-ACETYL-1-METHYLCYCLOHEXENE
Structure: 4D455448594C20342D4D455448594C2D332D4359434C4F484558454E594C204B45544F4E452E6D6F6C0A20204368656D447261773033323531303034313632440A2031302031302020302020302020302020302020302020302020302020303939392056323030300A2020202D312E3434333720202020302E3030303020202020302E303030302043202020302020302020302020302020302020302020302020302020302020302020302020300A2020202D312E383536332020202D302E3731343520202020302E30303030204F202020302020302020302020302020302020302020302020302020302020302020302020300A2020202D302E3631383820202020302E3030303020202020302E303030302043202020302020302020302020302020302020302020302020302020302020302020302020300A2020202D302E3230363220202020302E3731343520202020302E303030302043202020302020302020302020302020302020302020302020302020302020302020302020300A20202020302E3631383820202020302E3731343520202020302E303030302043202020302020302020302020302020302020302020302020302020302020302020302020300A20202020312E303331332020202D302E3030303020202020302E303030302043202020302020302020302020302020302020302020302020302020302020302020302020300A20202020302E363138382020202D302E3731343520202020302E303030302043202020302020302020302020302020302020302020302020302020302020302020302020300A2020202D302E323036322020202D302E3731343520202020302E303030302043202020302020302020302020302020302020302020302020302020302020302020302020300A20202020312E383536332020202D302E3030303020202020302E303030302043202020302020302020302020302020302020302020302020302020302020302020302020300A2020202D312E3835363320202020302E3731343520202020302E303030302043202020302020302020302020302020302020302020302020302020302020302020302020300A2020312020322020322020302020202020200A2020332020342020312020302020202020200A2020342020352020312020302020202020200A2020352020362020322020302020202020200A2020362020372020312020302020202020200A2020372020382020312020302020202020200A2020332020382020312020302020202020200A2020362020392020312020302020202020200A2020312020332020312020302020202020200A2020312031302020312020302020202020200A4D2020454E44
Contributor: MASS SPECTROSCOPY SOC. OF JAPAN (MSSJ)
InstType: EI
InstName: JEOL JMS-D-3000
IoniMethod: _ENERGY 70 eV
IonPolarity: pos
Date: 2010-10-09 19:48:36+02:00
Num Peaks: 27
41 214 43 922 45 58 51 51 53 138 55 291 65 56 67 439 68 140 71 42 
77 149 78 30 79 247 80 161 81 116 91 93 92 31 93 201 94 164 95 999 
96 85 105 134 109 50 123 444 124 40 138 757 139 80 
