Name: MassBank: JP005364
MW: 312
Formula: C19H36O3
Synonym: MassBank: JP005364
Synonym: 6,7-EPOXYOCTADECANOIC ACID METHYL ESTER
Structure: 362C372D45504F58594F435441444543414E4F49432041434944204D455448594C2045535445522E6D6F6C0A20204368656D447261773035313331303231303732440A2032322032322020302020302020302020302020302020302020302020303939392056323030300A20202020342E3438323220202020302E3932303720202020302E303030302043202020302020302020302020302020302020302020302020302020302020302020302020300A20202020332E3635373220202020302E3932303720202020302E303030302043202020302020302020302020302020302020302020302020302020302020302020302020300A20202020332E3234343720202020302E3230363220202020302E303030302043202020302020302020302020302020302020302020302020302020302020302020302020300A20202020332E363537322020202D302E3530383220202020302E303030302043202020302020302020302020302020302020302020302020302020302020302020302020300A20202020332E323434372020202D312E3232323720202020302E303030302043202020302020302020302020302020302020302020302020302020302020302020302020300A20202020322E343139372020202D312E3232323720202020302E303030302043202020302020302020302020302020302020302020302020302020302020302020302020300A20202020312E373035332020202D312E3633353220202020302E303030302043202020302020302020302020302020302020302020302020302020302020302020302020300A20202020312E323932382020202D322E3334393720202020302E303030302043202020302020302020302020302020302020302020302020302020302020302020302020300A20202020302E343637382020202D322E3334393720202020302E303030302043202020302020302020302020302020302020302020302020302020302020302020302020300A20202020302E303535332020202D312E3633353220202020302E303030302043202020302020302020302020302020302020302020302020302020302020302020302020300A2020202D302E373639372020202D312E3633353220202020302E303030302043202020302020302020302020302020302020302020302020302020302020302020302020300A2020202D312E313832322020202D302E3932303720202020302E303030302043202020302020302020302020302020302020302020302020302020302020302020302020300A2020202D322E303037322020202D302E3932303720202020302E303030302043202020302020302020302020302020302020302020302020302020302020302020302020300A2020202D322E343139372020202D302E3230363220202020302E303030302043202020302020302020302020302020302020302020302020302020302020302020302020300A2020202D332E323434372020202D302E3230363220202020302E303030302043202020302020302020302020302020302020302020302020302020302020302020302020300A2020202D332E3635373220202020302E3530383220202020302E303030302043202020302020302020302020302020302020302020302020302020302020302020302020300A2020202D342E3438323220202020302E3530383220202020302E303030302043202020302020302020302020302020302020302020302020302020302020302020302020300A2020202D342E3839343720202020312E3232323720202020302E303030302043202020302020302020302020302020302020302020302020302020302020302020302020300A20202020342E3839343720202020302E3230363220202020302E30303030204F202020302020302020302020302020302020302020302020302020302020302020302020300A20202020342E3839343720202020312E3633353220202020302E30303030204F202020302020302020302020302020302020302020302020302020302020302020302020300A20202020312E373035332020202D302E3831303220202020302E30303030204F202020302020302020302020302020302020302020302020302020302020302020302020300A20202020342E3438323220202020322E3334393720202020302E303030302043202020302020302020302020302020302020302020302020302020302020302020302020300A2020312020322020312020302020202020200A2020322020332020312020302020202020200A2020332020342020312020302020202020200A2020342020352020312020302020202020200A2020352020362020312020302020202020200A2020362020372020312020302020202020200A2020372020382020312020302020202020200A2020382020392020312020302020202020200A2020392031302020312020302020202020200A2031302031312020312020302020202020200A2031312031322020312020302020202020200A2031322031332020312020302020202020200A2031332031342020312020302020202020200A2031342031352020312020302020202020200A2031352031362020312020302020202020200A2031362031372020312020302020202020200A2031372031382020312020302020202020200A2020312031392020322020302020202020200A2020312032302020312020302020202020200A2020362032312020312020302020202020200A2020372032312020312020302020202020200A2032302032322020312020302020202020200A4D2020454E44
Contributor: YAMAOKA R, KYOTO INSTITUTE OF TECHNOLOGY
InstType: EI
InstName: HITACHI M-80B
IoniMethod: _ENERGY 70 eV
IonPolarity: pos
Date: 2010-10-09 19:48:36+02:00
Num Peaks: 87
41 861 42 187 43 842 45 44 53 68 54 130 55 837 56 255 57 578 58 59 
59 255 65 13 66 17 67 493 68 297 69 740 70 288 71 237 72 23 73 69 
74 199 75 10 77 19 79 50 80 28 81 175 82 194 83 350 84 210 85 307 
86 20 87 313 88 26 93 36 94 26 95 203 96 113 97 403 98 151 99 40 
100 23 101 34 102 11 107 32 109 80 110 32 111 133 112 239 113 999 114 77 
115 109 116 47 121 20 123 39 124 20 125 58 126 68 127 39 128 62 129 301 
130 38 135 12 137 24 138 23 139 34 140 51 141 11 143 33 144 69 145 193 
146 18 147 15 153 16 154 20 155 12 157 29 158 53 165 11 166 19 171 13 
172 37 183 24 197 144 198 39 225 19 238 27 239 10 
