Name: DIETHYL SULFIDE
MW: 90
Formula: C4H10S
Synonym: MassBank: JP008751
Synonym: DIETHYL SULFIDE
Structure: 310A31340A4449455448594C2053554C464944452E6D6F6C0A20204368656D447261773039323131303230303932440A2020352020342020302020302020302020302020302020302020302020303939392056323030300A20202020302E303030302020202D302E3230363220202020302E303030302053202020302020302020302020302020302020302020302020302020302020302020302020300A2020202D302E3731343520202020302E3230363220202020302E303030302043202020302020302020302020302020302020302020302020302020302020302020302020300A2020202D312E343238392020202D302E3230363220202020302E303030302043202020302020302020302020302020302020302020302020302020302020302020302020300A20202020302E3731343520202020302E3230363220202020302E303030302043202020302020302020302020302020302020302020302020302020302020302020302020300A20202020312E343238392020202D302E3230363220202020302E303030302043202020302020302020302020302020302020302020302020302020302020302020302020300A2020322020332020312020302020202020200A2020312020322020312020302020202020200A2020342020352020312020302020202020200A2020312020342020312020302020202020200A4D2020454E44
Contributor: SODA AROMATIC CO., LTD.
InstType: EI
InstName: HITACHI M-80B
IoniMethod: _ENERGY 70 eV
IonPolarity: pos
Date: 2010-10-09 19:48:36+02:00
Num Peaks: 29
15 23 26 139 27 751 28 134 29 497 33 16 34 51 35 169 41 81 45 287 
46 191 47 811 48 21 49 32 57 40 58 128 59 154 60 122 61 571 62 509 
63 32 64 22 75 999 76 29 77 35 89 23 90 690 91 29 92 22 
