Name: 4-(3-(4-(2-HYDROXYETHOXY)PHENOXY)PROPYL)MORPHORINE
MW: 281
Formula: C15H23NO4
Synonym: MassBank: JP003456
Synonym: 4-(3-(4-(2-HYDROXYETHOXY)PHENOXY)PROPYL)MORPHORINE
Structure: 342D28332D28342D28322D485944524F58594554484F5859295048454E4F58592950524F50594C294D4F5250484F52494E452E6D6F6C0A20204368656D447261773033323331303233313832440A2032302032312020302020302020302020302020302020302020302020303939392056323030300A20202020342E3634343120202020302E3230363220202020302E303030302043202020302020302020302020302020302020302020302020302020302020302020302020300A20202020332E393239362020202D302E3230363220202020302E303030302043202020302020302020302020302020302020302020302020302020302020302020302020300A20202020332E3231353120202020302E3230363220202020302E30303030204E202020302020302020302020302020302020302020302020302020302020302020302020300A20202020332E3231353120202020312E3033313320202020302E303030302043202020302020302020302020302020302020302020302020302020302020302020302020300A20202020332E3932393620202020312E3434333820202020302E303030302043202020302020302020302020302020302020302020302020302020302020302020302020300A20202020342E3634343120202020312E3033313320202020302E30303030204F202020302020302020302020302020302020302020302020302020302020302020302020300A20202020322E353030362020202D302E3230363220202020302E303030302043202020302020302020302020302020302020302020302020302020302020302020302020300A20202020312E3738363220202020302E3230363220202020302E303030302043202020302020302020302020302020302020302020302020302020302020302020302020300A20202020312E303731372020202D302E3230363320202020302E303030302043202020302020302020302020302020302020302020302020302020302020302020302020300A20202020302E3335373220202020302E3230363220202020302E30303030204F202020302020302020302020302020302020302020302020302020302020302020302020300A2020202D302E333537322020202D302E3230363320202020302E303030302043202020302020302020302020302020302020302020302020302020302020302020302020300A2020202D302E333537322020202D312E3033313320202020302E303030302043202020302020302020302020302020302020302020302020302020302020302020302020300A2020202D312E303731372020202D312E3434333820202020302E303030302043202020302020302020302020302020302020302020302020302020302020302020302020300A2020202D312E373836322020202D312E3033313320202020302E303030302043202020302020302020302020302020302020302020302020302020302020302020302020300A2020202D312E373836322020202D302E3230363320202020302E303030302043202020302020302020302020302020302020302020302020302020302020302020302020300A2020202D312E3037313720202020302E3230363220202020302E303030302043202020302020302020302020302020302020302020302020302020302020302020302020300A2020202D322E353030362020202D312E3434333820202020302E30303030204F202020302020302020302020302020302020302020302020302020302020302020302020300A2020202D332E323135312020202D312E3033313320202020302E303030302043202020302020302020302020302020302020302020302020302020302020302020302020300A2020202D332E393239362020202D312E3434333820202020302E303030302043202020302020302020302020302020302020302020302020302020302020302020302020300A2020202D342E363434312020202D312E3033313320202020302E30303030204F202020302020302020302020302020302020302020302020302020302020302020302020300A2020312020322020312020302020202020200A2020322020332020312020302020202020200A2020332020342020312020302020202020200A2020342020352020312020302020202020200A2020352020362020312020302020202020200A2020312020362020312020302020202020200A2020372020382020312020302020202020200A2020382020392020312020302020202020200A2031312031322020312020302020202020200A2031322031332020322020302020202020200A2031332031342020312020302020202020200A2031342031352020322020302020202020200A2031352031362020312020302020202020200A2031312031362020322020302020202020200A2031302031312020312020302020202020200A2031382031392020312020302020202020200A2031372031382020312020302020202020200A2031392032302020312020302020202020200A2031342031372020312020302020202020200A2020392031302020312020302020202020200A2020332020372020312020302020202020200A4D2020454E44
Contributor: MASS SPECTROSCOPY SOC. OF JAPAN (MSSJ)
InstType: EI
InstName: HITACHI M-60
IoniMethod: _ENERGY 20 eV
IonPolarity: pos
Date: 2010-10-09 19:48:36+02:00
Num Peaks: 19
41 9 42 21 43 467 57 25 61 42 70 129 71 47 84 27 85 32 97 2 
98 40 100 999 101 46 109 22 111 27 113 21 128 602 129 46 281 30 
