Name: MassBank: JP006641
MW: 311
Formula: C20H29N3
Synonym: MassBank: JP006641
Synonym: 2-(2-AMINO-2-METHYLPROPYL)-3-(1,2,5-TRIMETHYL-1,2,3,6-TETRAHYDRO-4-PYRIDYL)INDOLE
Structure: 322D28322D414D494E4F2D322D4D455448594C50524F50594C292D332D28312C322C352D5452494D455448594C2D312C322C332C362D5445545241485944524F2D342D5059524944594C29494E444F4C452E6D6F6C0A20204368656D447261773132323130393133323632440A2032332032352020302020302020302020302020302020302020302020303939392056323030300A2020202D302E3132353420202020312E3536313820202020302E30303030204E202020302020302020302020302020302020302020302020302020302020302020302020300A2020202D302E3132353420202020302E3733363820202020302E303030302043202020302020302020302020302020302020302020302020302020302020302020302020300A20202020302E3635393220202020302E3438313820202020302E303030302043202020302020302020302020302020302020302020302020302020302020302020302020300A20202020312E3134343120202020312E3134393320202020302E303030302043202020302020302020302020302020302020302020302020302020302020302020302020300A20202020312E3936343620202020312E3233353520202020302E303030302043202020302020302020302020302020302020302020302020302020302020302020302020300A20202020322E3330303220202020312E3938393220202020302E303030302043202020302020302020302020302020302020302020302020302020302020302020302020300A20202020312E3831353320202020322E3635363620202020302E303030302043202020302020302020302020302020302020302020302020302020302020302020302020300A20202020302E3939343820202020322E3537303420202020302E303030302043202020302020302020302020302020302020302020302020302020302020302020302020300A20202020302E3635393220202020312E3831363720202020302E303030302043202020302020302020302020302020302020302020302020302020302020302020302020300A20202020302E363137312020202D312E3730303520202020302E303030302043202020302020302020302020302020302020302020302020302020302020302020302020300A20202020302E333632312020202D302E3931353920202020302E303030302043202020302020302020302020302020302020302020302020302020302020302020302020300A20202020302E393134322020202D302E3330323820202020302E303030302043202020302020302020302020302020302020302020302020302020302020302020302020300A20202020312E373231312020202D302E3437343320202020302E303030302043202020302020302020302020302020302020302020302020302020302020302020302020300A20202020312E393736312020202D312E3235383920202020302E303030302043202020302020302020302020302020302020302020302020302020302020302020302020300A20202020312E343234302020202D312E3837323020202020302E30303030204E202020302020302020302020302020302020302020302020302020302020302020302020300A20202020322E3237333220202020302E3133383820202020302E303030302043202020302020302020302020302020302020302020302020302020302020302020302020300A20202020302E303635302020202D322E3331333620202020302E303030302043202020302020302020302020302020302020302020302020302020302020302020302020300A20202020312E363739302020202D322E3635363620202020302E303030302043202020302020302020302020302020302020302020302020302020302020302020302020300A2020202D302E3739323820202020302E3235313920202020302E303030302043202020302020302020302020302020302020302020302020302020302020302020302020300A2020202D312E3534363520202020302E3538373420202020302E303030302043202020302020302020302020302020302020302020302020302020302020302020302020300A2020202D312E3231313020202020312E3334313120202020302E303030302043202020302020302020302020302020302020302020302020302020302020302020302020300A2020202D312E383832312020202D302E3136363320202020302E303030302043202020302020302020302020302020302020302020302020302020302020302020302020300A2020202D322E3330303220202020302E3932333020202020302E30303030204E202020302020302020302020302020302020302020302020302020302020302020302020300A2020312020322020312020302020202020200A2020322020332020322020302020202020200A2020332020342020312020302020202020200A2020342020352020312020302020202020200A2020352020362020322020302020202020200A2020362020372020312020302020202020200A2020372020382020322020302020202020200A2020382020392020312020302020202020200A2020312020392020312020302020202020200A2020342020392020322020302020202020200A2031302031312020312020302020202020200A2031312031322020312020302020202020200A2031322031332020322020302020202020200A2031332031342020312020302020202020200A2031342031352020312020302020202020200A2031302031352020312020302020202020200A2031332031362020312020302020202020200A2031302031372020312020302020202020200A2031352031382020312020302020202020200A2020332031322020312020302020202020200A2031392032302020312020302020202020200A2032302032312020312020302020202020200A2032302032322020312020302020202020200A2032302032332020312020302020202020200A2020322031392020312020302020202020200A4D2020454E44
Contributor: SASAKI S, TOYOHASHI UNIV. OF TECH.
InstType: EI
InstName: JEOL JMS-01-SG-2
IoniMethod: _ENERGY 75 eV
IonPolarity: pos
Date: 2010-10-09 19:48:36+02:00
Num Peaks: 18
58 999 77 21 115 13 128 1 130 22 167 22 180 32 181 3 182 31 196 23 
197 207 198 3 211 27 239 102 240 21 254 35 255 65 311 51 
