Name: CAMPESTEROL
CAS: 474-62-4
MW: 400
Formula: C28H48O
Synonym: MassBank: JP005750
Synonym: CAMPESTEROL
Synonym: (24R)-ERGOST-5-EN-3BETA-OL
Structure: 28323452292D4552474F53542D352D454E2D33424554412D4F4C2E6D6F6C0A20204368656D447261773130323030393039303232440A2033372034302020302020302020302020302020302020302020302020303939392056323030300A2020202D332E333536382020202D312E3234313720202020302E303030302043202020302020302020302020302020302020302020302020302020302020302020302020300A2020202D332E333536382020202D322E3036363720202020302E303030302043202020302020302020302020302020302020302020302020302020302020302020302020300A2020202D322E363432342020202D322E3437393120202020302E303030302043202020302020302020302020302020302020302020302020302020302020302020302020300A2020202D312E393238302020202D322E3036363720202020302E303030302043202020302020302020302020302020302020302020302020302020302020302020302020300A2020202D312E393238302020202D312E3234313720202020302E303030302043202020302020302020302020302020302020302020302020302020302020302020302020300A2020202D322E363432342020202D302E3832393220202020302E303030302043202020302020302020302020302020302020302020302020302020302020302020302020300A2020202D312E323133342020202D322E3437393120202020302E303030302043202020302020302020302020302020302020302020302020302020302020302020302020300A2020202D302E343938392020202D322E3036363720202020302E303030302043202020302020302020302020302020302020302020302020302020302020302020302020300A2020202D302E343938392020202D312E3234313620202020302E303030302043202020302020302020302020302020302020302020302020302020302020302020302020300A2020202D312E323133342020202D302E3832393220202020302E303030302043202020302020302020302020302020302020302020302020302020302020302020302020300A20202020302E323135342020202D302E3832393220202020302E303030302043202020302020302020302020302020302020302020302020302020302020302020302020300A20202020302E323135342020202D302E3030343220202020302E303030302043202020302020302020302020302020302020302020302020302020302020302020302020300A2020202D302E3439383920202020302E3430383320202020302E303030302043202020302020302020302020302020302020302020302020302020302020302020302020300A2020202D312E323133342020202D302E3030343220202020302E303030302043202020302020302020302020302020302020302020302020302020302020302020302020300A20202020312E303030312020202D312E3038343120202020302E303030302043202020302020302020302020302020302020302020302020302020302020302020302020300A20202020312E343835302020202D302E3431363720202020302E303030302043202020302020302020302020302020302020302020302020302020302020302020302020300A20202020312E3030303120202020302E3235303820202020302E303030302043202020302020302020302020302020302020302020302020302020302020302020302020300A20202020302E323135362020202D312E3635343120202020302E303030302048202020302020302020302020302020302020302020302020302020302020302020302020300A2020202D332E363339312020202D322E3834313920202020302E30303030204F202020302020302020302020302020302020302020302020302020302020302020302020300A2020202D342E313639332020202D312E3932333420202020302E303030302048202020302020302020302020302020302020302020302020302020302020302020302020300A2020202D312E393238302020202D302E3431363720202020302E303030302048202020302020302020302020302020302020302020302020302020302020302020302020300A20202020302E343239302020202D312E3632363120202020302E303030302048202020302020302020302020302020302020302020302020302020302020302020302020300A20202020312E3734373820202020302E3539393520202020302E303030302048202020302020302020302020302020302020302020302020302020302020302020302020300A2020202D312E323133342020202D332E3330343120202020302E303030302048202020302020302020302020302020302020302020302020302020302020302020302020300A20202020302E3734303720202020312E3239313520202020302E303030302043202020302020302020302020302020302020302020302020302020302020302020302020300A2020202D302E3035323520202020312E3531383920202020302E303030302043202020302020302020302020302020302020302020302020302020302020302020302020300A20202020312E3536333620202020312E3334393020202020302E303030302043202020302020302020302020302020302020302020302020302020302020302020302020300A20202020302E3832363920202020322E3131313920202020302E303030302048202020302020302020302020302020302020302020302020302020302020302020302020300A20202020312E3932353320202020322E3039303520202020302E303030302043202020302020302020302020302020302020302020302020302020302020302020302020300A20202020322E3734383320202020322E3134383120202020302E303030302043202020302020302020302020302020302020302020302020302020302020302020302020300A20202020332E3530313920202020322E3438333620202020302E303030302043202020302020302020302020302020302020302020302020302020302020302020302020300A20202020342E3136393320202020312E3939383720202020302E303030302043202020302020302020302020302020302020302020302020302020302020302020302020300A20202020332E3538383120202020332E3330343120202020302E303030302043202020302020302020302020302020302020302020302020302020302020302020302020300A20202020322E3934373820202020312E3334373620202020302E303030302043202020302020302020302020302020302020302020302020302020302020302020302020300A20202020322E3534383720202020322E3934383620202020302E303030302048202020302020302020302020302020302020302020302020302020302020302020302020300A20202020302E3135363520202020302E3832303120202020302E303030302043202020302020302020302020302020302020302020302020302020302020302020302020300A2020202D312E323134332020202D312E3635323120202020302E303030302043202020302020302020302020302020302020302020302020302020302020302020302020300A2020312020322020312020302020202020200A2020322020332020312020302020202020200A2020332020342020312020302020202020200A2020342020352020312020302020202020200A2020352020362020312020302020202020200A2020362020312020312020302020202020200A2020342020372020322020302020202020200A2020372020382020312020302020202020200A2020382020392020312020302020202020200A2020392031302020312020302020202020200A2031302020352020312020302020202020200A2020392031312020312020302020202020200A2031312031322020312020302020202020200A2031322031332020312020302020202020200A2031332031342020312020302020202020200A2031342031302020312020302020202020200A2031312031352020312020302020202020200A2031352031362020312020302020202020200A2031362031372020312020302020202020200A2031372031322020312020302020202020200A2020392031382020312020312020202020200A2020322031392020312020312020202020200A2020322032302020312020362020202020200A2031302032312020312020362020202020200A2031312032322020312020362020202020200A2031372032332020312020362020202020200A2020372032342020312020302020202020200A2031372032352020312020302020202020200A2032352032362020312020302020202020200A2032352032372020312020302020202020200A2032352032382020312020312020202020200A2032372032392020312020302020202020200A2032392033302020312020302020202020200A2033302033312020312020302020202020200A2033312033322020312020302020202020200A2033312033332020312020302020202020200A2033302033342020312020312020202020200A2033302033352020312020312020202020200A2031322033362020312020302020202020200A2020352033372020312020302020202020200A4D202053545920203120202031205355500A4D2020534C4220203120202031202020310A4D202053414C20202031202031202033360A4D202053424C20202031202031202033390A4D2020534D5420202031204D650A4D2020534256202020312033392020202D362E3837313720202020382E363135320A4D202053545920203120202032205355500A4D2020534C4220203120202032202020320A4D202053414C20202032202031202033370A4D202053424C20202032202031202034300A4D2020534D5420202032204D650A4D2020534256202020322034302020202D362E3039393120202020372E333830350A4D2020454E44
Contributor: MASS SPECTROSCOPY SOC. OF JAPAN (MSSJ)
InstType: EI
InstName: HITACHI M-80
IoniMethod: _ENERGY 70 eV
IonPolarity: pos
Date: 2010-10-09 19:48:36+02:00
Num Peaks: 198
15 18 18 143 27 98 28 198 29 179 32 53 35 15 36 64 38 25 39 73 
40 17 41 598 42 120 43 999 44 69 53 89 55 485 56 63 57 377 58 28 
65 38 66 19 67 260 68 46 69 356 70 34 71 320 72 19 73 36 77 101 
78 39 79 304 80 48 81 421 82 47 83 192 84 32 85 79 91 356 92 88 
93 340 94 91 95 385 96 53 97 127 98 12 103 31 104 31 105 448 106 123 
107 431 108 107 109 202 110 34 111 49 115 55 116 40 117 155 118 78 119 276 
120 196 121 213 122 53 123 114 124 67 125 57 127 16 128 48 129 88 130 49 
131 208 132 70 133 260 134 88 135 181 136 51 137 55 138 21 141 36 142 30 
143 153 144 65 145 380 146 100 147 212 148 60 149 99 150 22 151 42 152 16 
155 20 156 17 157 89 158 99 159 250 160 133 161 210 162 57 163 147 164 28 
165 25 169 18 171 69 172 33 173 102 174 45 175 62 176 30 177 51 178 65 
179 27 183 17 185 75 186 36 187 74 188 23 189 42 191 38 193 13 197 27 
199 92 200 30 201 49 202 18 203 26 205 28 207 112 208 23 209 13 211 20 
212 13 213 229 214 73 215 60 216 14 217 26 219 21 220 18 221 13 227 42 
228 59 229 79 230 24 231 115 232 35 233 24 234 18 239 17 241 27 245 17 
246 25 247 25 253 18 255 151 256 36 257 19 259 19 260 15 261 72 262 24 
271 57 272 32 273 113 274 51 275 33 276 13 281 63 282 17 283 22 288 56 
289 244 290 53 296 17 299 34 300 16 301 21 313 14 314 97 315 171 316 43 
327 13 328 17 340 30 341 23 343 20 380 17 381 12 382 276 383 97 384 21 
385 127 386 48 387 11 398 26 399 10 400 370 401 118 402 21 
