Name: ALPHA-CEDRENE
MW: 204
Formula: C15H24
Synonym: MassBank: JP002825
Synonym: ALPHA-CEDRENE
Structure: 414C5048412D43454452454E452E6D6F6C0A20204368656D447261773132323130393032313632440A2031352031372020302020302020302020302020302020302020302020303939392056323030300A2020202D302E353238302020202D302E3238363420202020302E303030302043202020302020302020302020302020302020302020302020302020302020302020302020300A2020202D312E313935352020202D302E3737313320202020302E303030302043202020302020302020302020302020302020302020302020302020302020302020302020300A2020202D312E383632392020202D302E3238363420202020302E303030302043202020302020302020302020302020302020302020302020302020302020302020302020300A2020202D312E3630383020202020302E3439383320202020302E303030302043202020302020302020302020302020302020302020302020302020302020302020302020300A2020202D302E3738333020202020302E3439383320202020302E303030302043202020302020302020302020302020302020302020302020302020302020302020302020300A2020202D302E3131353520202020302E3938333220202020302E303030302043202020302020302020302020302020302020302020302020302020302020302020302020300A20202020302E3535313920202020302E3439383320202020302E303030302043202020302020302020302020302020302020302020302020302020302020302020302020300A20202020312E303434342020202D302E3133373720202020302E303030302043202020302020302020302020302020302020302020302020302020302020302020302020300A20202020302E373234392020202D302E3837353920202020302E303030302043202020302020302020302020302020302020302020302020302020302020302020302020300A2020202D302E303735392020202D302E3935313620202020302E303030302043202020302020302020302020302020302020302020302020302020302020302020302020300A20202020302E323937302020202D302E3238363420202020302E303030302043202020302020302020302020302020302020302020302020302020302020302020302020300A20202020312E383632392020202D302E3033343720202020302E303030302043202020302020302020302020302020302020302020302020302020302020302020302020300A2020202D302E3636373620202020312E3539363320202020302E303030302043202020302020302020302020302020302020302020302020302020302020302020302020300A20202020302E3433363520202020312E3539363320202020302E303030302043202020302020302020302020302020302020302020302020302020302020302020302020300A2020202D312E313935352020202D312E3539363320202020302E303030302043202020302020302020302020302020302020302020302020302020302020302020302020300A2020312020322020312020302020202020200A2020322020332020312020302020202020200A2020332020342020312020302020202020200A2020342020352020312020302020202020200A2020352020362020312020302020202020200A2020362020372020312020302020202020200A2020372020382020312020302020202020200A2020382020392020322020302020202020200A2020392031302020312020302020202020200A2020312031302020312020302020202020200A2020312031312020312020302020202020200A2020372031312020312020302020202020200A2020312020352020312020302020202020200A2020382031322020312020302020202020200A2020362031332020312020302020202020200A2020362031342020312020302020202020200A2020322031352020312020302020202020200A4D2020454E44
Contributor: SASAKI S, TOYOHASHI UNIV. OF TECH.
InstType: EI
InstName: Unknown
IoniMethod: EI
IonPolarity: pos
Date: 2010-10-09 19:48:36+02:00
Num Peaks: 84
27 60 29 61 39 75 40 1 41 280 42 22 43 58 51 2 52 10 53 76 
54 10 55 15 56 120 57 50 63 8 64 1 65 46 66 12 67 66 68 3 
69 235 70 52 71 13 75 1 77 147 78 32 79 102 80 0 81 83 82 35 
83 20 84 1 89 10 90 6 91 198 92 2 93 505 94 78 95 46 96 1 
97 15 103 18 104 10 105 31 106 47 107 65 108 45 109 1 110 10 112 5 
115 25 116 1 117 27 118 25 119 999 120 16 121 150 122 40 123 26 124 0 
128 10 129 10 130 5 131 2 132 6 133 58 134 37 135 3 136 75 137 8 
145 8 146 1 147 90 148 43 149 11 160 1 161 200 162 37 163 5 175 1 
189 32 190 5 204 187 205 33 
