Name: MassBank: JP000004
MW: 161
Formula: C6H4Cl2O
Synonym: MassBank: JP000004
Synonym: 2,5-DICHLOROPHENOL
Structure: 310A32330A322C352D444943484C4F524F5048454E4F4C2E6D6F6C0A20204368656D447261773132323130393031313532440A2020392020392020302020302020302020302020302020302020302020303939392056323030300A20202020302E3731343520202020302E3431323520202020302E303030302043202020302020302020302020302020302020302020302020302020302020302020302020300A20202020302E373134352020202D302E3431323520202020302E303030302043202020302020302020302020302020302020302020302020302020302020302020302020300A2020202D302E303030302020202D302E3832353020202020302E303030302043202020302020302020302020302020302020302020302020302020302020302020302020300A2020202D302E373134352020202D302E3431323520202020302E303030302043202020302020302020302020302020302020302020302020302020302020302020302020300A2020202D302E3731343520202020302E3431323520202020302E303030302043202020302020302020302020302020302020302020302020302020302020302020302020300A20202020302E3030303020202020302E3832353020202020302E303030302043202020302020302020302020302020302020302020302020302020302020302020302020300A2020202D312E3432383920202020302E3832353020202020302E3030303020436C2020302020302020302020302020302020302020302020302020302020302020302020300A20202020312E343238392020202D302E3832353020202020302E3030303020436C2020302020302020302020302020302020302020302020302020302020302020302020300A20202020312E3432383920202020302E3832353020202020302E30303030204F202020302020302020302020302020302020302020302020302020302020302020302020300A2020312020322020312020302020202020200A2020322020332020322020302020202020200A2020332020342020312020302020202020200A2020342020352020322020302020202020200A2020352020362020312020302020202020200A2020312020362020322020302020202020200A2020352020372020312020302020202020200A2020322020382020312020302020202020200A2020312020392020312020302020202020200A4D2020454E44
Contributor: KOGA M, UNIV. OF OCCUPATIONAL AND ENVIRONMENTAL HEALTH
InstType: EI
InstName: VARIAN MAT-44
IoniMethod: _ENERGY 70 eV
IonPolarity: pos
Date: 2010-10-09 19:48:36+02:00
Num Peaks: 44
51 51 52 23 53 229 59 37 60 166 61 333 62 621 63 999 64 116 65 27 
66 41 71 30 72 120 73 323 74 127 75 114 81 67 82 46 83 38 84 30 
85 28 87 29 89 22 90 21 91 63 96 36 97 156 98 390 99 337 100 138 
101 109 126 90 127 31 128 33 133 63 134 43 135 42 136 26 161 117 162 890 
163 124 164 529 165 46 166 88 
