Name: MassBank: JP001124
MW: 338
Formula: C20H18O5
Synonym: MassBank: JP001124
Synonym: 2',3'-DIHYDRO-5,7-DIHYDROXY-2',2'-DIMETHYL-3,6'-BI(4H-1-BENZOPYRAN)-4-ONE
Structure: 32272C33272D4449485944524F2D352C372D4449485944524F58592D32272C32272D44494D455448594C2D332C36272D42492834482D312D42454E5A4F505952414E292D342D4F4E452E6D6F6C0A20204368656D447261773132313930393030353432440A2032362032392020302020302020302020302020302020302020302020303939392056323030300A2020202D302E3430363220202020312E3231323620202020302E303030302043202020302020302020302020302020302020302020302020302020302020302020302020300A2020202D302E3430363220202020302E3338373620202020302E303030302043202020302020302020302020302020302020302020302020302020302020302020302020300A2020202D312E313230372020202D302E3032343920202020302E303030302043202020302020302020302020302020302020302020302020302020302020302020302020300A2020202D312E3833353220202020302E3338373620202020302E303030302043202020302020302020302020302020302020302020302020302020302020302020302020300A2020202D312E3833353220202020312E3231323620202020302E303030302043202020302020302020302020302020302020302020302020302020302020302020302020300A2020202D312E3132303720202020312E3632353120202020302E30303030204F202020302020302020302020302020302020302020302020302020302020302020302020300A2020202D322E3534393620202020312E3632353120202020302E303030302043202020302020302020302020302020302020302020302020302020302020302020302020300A2020202D332E3236343120202020312E3231323620202020302E303030302043202020302020302020302020302020302020302020302020302020302020302020302020300A2020202D332E3236343120202020302E3338373620202020302E303030302043202020302020302020302020302020302020302020302020302020302020302020302020300A2020202D322E353439362020202D302E3032343920202020302E303030302043202020302020302020302020302020302020302020302020302020302020302020302020300A2020202D312E313230372020202D302E3834393920202020302E30303030204F202020302020302020302020302020302020302020302020302020302020302020302020300A20202020332E313636312020202D302E3834393920202020302E303030302043202020302020302020302020302020302020302020302020302020302020302020302020300A20202020332E313636312020202D302E3032343920202020302E303030302043202020302020302020302020302020302020302020302020302020302020302020302020300A20202020322E3435313720202020302E3338373620202020302E303030302043202020302020302020302020302020302020302020302020302020302020302020302020300A20202020312E373337322020202D302E3032343920202020302E303030302043202020302020302020302020302020302020302020302020302020302020302020302020300A20202020312E373337322020202D302E3834393920202020302E303030302043202020302020302020302020302020302020302020302020302020302020302020302020300A20202020322E343531372020202D312E3236323420202020302E30303030204F202020302020302020302020302020302020302020302020302020302020302020302020300A20202020312E303232372020202D312E3236323420202020302E303030302043202020302020302020302020302020302020302020302020302020302020302020302020300A20202020302E333038322020202D302E3834393920202020302E303030302043202020302020302020302020302020302020302020302020302020302020302020302020300A20202020302E333038322020202D302E3032343920202020302E303030302043202020302020302020302020302020302020302020302020302020302020302020302020300A20202020312E3032323720202020302E3338373620202020302E303030302043202020302020302020302020302020302020302020302020302020302020302020302020300A20202020332E343438332020202D312E3632353120202020302E303030302043202020302020302020302020302020302020302020302020302020302020302020302020300A20202020332E393738362020202D302E3730363620202020302E303030302043202020302020302020302020302020302020302020302020302020302020302020302020300A2020202D332E3937383620202020312E3632353120202020302E30303030204F202020302020302020302020302020302020302020302020302020302020302020302020300A2020202D322E353439362020202D302E3834393920202020302E30303030204F202020302020302020302020302020302020302020302020302020302020302020302020300A20202020302E3330383220202020312E3632353120202020302E303030302048202020302020302020302020302020302020302020302020302020302020302020302020300A2020312020322020322020302020202020200A2020322020332020312020302020202020200A2020332020342020312020302020202020200A2020342020352020312020302020202020200A2020352020362020312020302020202020200A2020312020362020312020302020202020200A2020372020382020312020302020202020200A2020382020392020322020302020202020200A2020392031302020312020302020202020200A2020342031302020322020302020202020200A2020352020372020322020302020202020200A2020332031312020322020302020202020200A2031322031332020312020302020202020200A2031332031342020312020302020202020200A2031342031352020312020302020202020200A2031352031362020312020302020202020200A2031362031372020312020302020202020200A2031322031372020312020302020202020200A2031382031392020312020302020202020200A2031392032302020322020302020202020200A2032302032312020312020302020202020200A2031352032312020322020302020202020200A2031362031382020322020302020202020200A2020322032302020312020302020202020200A2031322032322020312020312020202020200A2031322032332020312020362020202020200A2020382032342020312020302020202020200A2031302032352020312020302020202020200A2020312032362020312020302020202020200A4D2020454E44
Contributor: NAKAYAMA M, MASS SPECTROSCOPY SOC. OF JAPAN (MSSJ)
InstType: EI
InstName: HITACHI RMS-4
IoniMethod: _ENERGY 70 eV
IonPolarity: pos
Date: 2010-10-09 19:48:36+02:00
Num Peaks: 92
41 680 42 130 43 330 44 80 45 80 47 80 48 80 49 180 50 890 51 750 
52 620 53 180 54 80 55 250 56 150 57 150 58 80 61 80 62 100 63 300 
64 80 65 150 67 90 68 80 69 150 70 50 71 50 73 80 74 220 75 120 
76 310 77 680 78 900 79 310 80 40 81 90 82 60 83 70 85 60 89 60 
91 150 92 70 93 90 95 60 96 60 102 60 103 50 104 110 105 110 107 50 
109 100 115 100 117 100 119 90 121 60 122 50 123 60 127 60 128 60 129 60 
131 110 133 80 139 110 141 100 149 480 150 100 152 100 153 170 154 50 155 50 
169 50 205 120 223 80 253 300 254 130 255 110 269 140 265 50 281 50 282 390 
283 780 284 180 295 140 296 70 306 60 309 150 310 60 321 80 323 160 337 80 
338 999 339 250 
