Name: 3-PROPYL-1-TRIMETHYLSILYLMETHYLSPIRO(3.5)NONAN-5-ONE
MW: 266
Formula: C16H30OSi
Synonym: MassBank: JP002286
Synonym: 3-PROPYL-1-TRIMETHYLSILYLMETHYLSPIRO(3.5)NONAN-5-ONE
Structure: 332D50524F50594C2D312D5452494D455448594C53494C594C4D455448594C535049524F28332E35294E4F4E414E2D352D4F4E452E6D6F6C0A20204368656D447261773033323331303136323732440A2031382031392020302020302020302020302020302020302020302020303939392056323030300A20202020302E3038313720202020302E3830373220202020302E303030302043202020302020302020302020302020302020302020302020302020302020302020302020300A20202020302E3239353220202020302E3031303320202020302E303030302043202020302020302020302020302020302020302020302020302020302020302020302020300A2020202D302E353031372020202D302E3230333220202020302E303030302043202020302020302020302020302020302020302020302020302020302020302020302020300A2020202D302E3731353220202020302E3539333720202020302E303030302043202020302020302020302020302020302020302020302020302020302020302020302020300A2020202D312E3432393720202020302E3138313220202020302E303030302043202020302020302020302020302020302020302020302020302020302020302020302020300A2020202D322E3134343220202020302E3539333720202020302E303030302043202020302020302020302020302020302020302020302020302020302020302020302020300A2020202D322E3134343220202020312E3431383720202020302E303030302043202020302020302020302020302020302020302020302020302020302020302020302020300A2020202D312E3432393720202020312E3833313220202020302E303030302043202020302020302020302020302020302020302020302020302020302020302020302020300A2020202D302E3731353220202020312E3431383720202020302E303030302043202020302020302020302020302020302020302020302020302020302020302020302020300A2020202D312E343239372020202D302E3634333820202020302E30303030204F202020302020302020302020302020302020302020302020302020302020302020302020300A2020202D302E393134322020202D302E3931373720202020302E303030302043202020302020302020302020302020302020302020302020302020302020302020302020300A2020202D302E353031372020202D312E3633323220202020302E303030302043202020302020302020302020302020302020302020302020302020302020302020302020300A2020202D302E393134322020202D322E3334363620202020302E303030302043202020302020302020302020302020302020302020302020302020302020302020302020300A20202020302E3439343220202020312E3532313620202020302E303030302043202020302020302020302020302020302020302020302020302020302020302020302020300A20202020312E3331393220202020312E3532313620202020302E303030302053692020302020302020302020302020302020302020302020302020302020302020302020300A20202020312E3331393220202020322E3334363620202020302E303030302043202020302020302020302020302020302020302020302020302020302020302020302020300A20202020322E3134343220202020312E3532313620202020302E303030302043202020302020302020302020302020302020302020302020302020302020302020302020300A20202020312E3331393220202020302E3639363620202020302E303030302043202020302020302020302020302020302020302020302020302020302020302020302020300A2020312020322020312020302020202020200A2020322020332020312020302020202020200A2020332020342020312020302020202020200A2020342020352020312020302020202020200A2020352020362020312020302020202020200A2020362020372020312020302020202020200A2020372020382020312020302020202020200A2020382020392020312020302020202020200A2020312020342020312020302020202020200A2020342020392020312020302020202020200A2020352031302020322020302020202020200A2031312031322020312020302020202020200A2031322031332020312020302020202020200A2020332031312020312020302020202020200A2031352031362020312020312020202020200A2031352031372020312020302020202020200A2031352031382020312020312020202020200A2031342031352020312020302020202020200A2020312031342020312020302020202020200A4D2020454E44
Contributor: MASS SPECTROSCOPY SOC. OF JAPAN (MSSJ)
InstType: EI
InstName: JEOL JMS-D-3000
IoniMethod: _ENERGY 70 eV
IonPolarity: pos
Date: 2010-10-09 19:48:36+02:00
Num Peaks: 61
42 86 43 37 45 72 53 42 55 60 59 119 61 32 65 38 67 119 68 32 
69 30 73 999 74 91 75 232 77 53 79 91 80 44 81 57 91 210 92 42 
93 94 95 62 98 32 103 29 105 53 109 52 111 347 112 35 117 33 119 65 
121 34 122 30 123 33 128 30 129 30 131 49 132 30 133 120 134 33 135 61 
143 29 145 57 149 37 151 35 152 47 153 706 154 89 170 70 171 30 174 42 
175 62 176 34 181 32 183 242 184 39 223 157 224 33 225 128 226 28 251 32 
266 35 
