Name: MassBank: JP004405
MW: 200
Formula: C13H16N2
Synonym: MassBank: JP004405
Synonym: 3-ETHYL-1,2,3,4-TETRAHYDRO-GAMMA-CARBOLINE
Structure: 332D455448594C2D312C322C332C342D5445545241485944524F2D47414D4D412D434152424F4C494E452E6D6F6C0A20204368656D447261773032323231303137333432440A2031352031372020302020302020302020302020302020302020302020303939392056323030300A2020202D302E313339362020202D302E3339373920202020302E303030302043202020302020302020302020302020302020302020302020302020302020302020302020300A20202020302E353734392020202D302E3831303420202020302E30303030204E202020302020302020302020302020302020302020302020302020302020302020302020300A20202020312E313838302020202D302E3235383420202020302E303030302043202020302020302020302020302020302020302020302020302020302020302020302020300A20202020302E3835323520202020302E3439353320202020302E303030302043202020302020302020302020302020302020302020302020302020302020302020302020300A20202020302E3033323020202020302E3430393120202020302E303030302043202020302020302020302020302020302020302020302020302020302020302020302020300A2020202D302E3538313120202020302E3936313120202020302E303030302043202020302020302020302020302020302020302020302020302020302020302020302020300A2020202D312E3336353720202020302E3730363220202020302E30303030204E202020302020302020302020302020302020302020302020302020302020302020302020300A2020202D312E353337332020202D302E3130303820202020302E303030302043202020302020302020302020302020302020302020302020302020302020302020302020300A2020202D302E393234322020202D302E3635323920202020302E303030302043202020302020302020302020302020302020302020302020302020302020302020302020300A20202020322E303038352020202D302E3334343620202020302E303030302043202020302020302020302020302020302020302020302020302020302020302020302020300A20202020322E3439333420202020302E3332323820202020302E303030302043202020302020302020302020302020302020302020302020302020302020302020302020300A20202020322E3135373920202020312E3037363520202020302E303030302043202020302020302020302020302020302020302020302020302020302020302020302020300A20202020312E3333373420202020312E3136323720202020302E303030302043202020302020302020302020302020302020302020302020302020302020302020302020300A2020202D322E333231392020202D302E3335353820202020302E303030302043202020302020302020302020302020302020302020302020302020302020302020302020300A2020202D322E343933342020202D312E3136323720202020302E303030302043202020302020302020302020302020302020302020302020302020302020302020302020300A2020312020322020312020302020202020200A2020322020332020312020302020202020200A2020332020342020322020302020202020200A2020342020352020312020302020202020200A2020352020312020322020302020202020200A2020352020362020312020302020202020200A2020362020372020312020302020202020200A2020372020382020312020302020202020200A2020382020392020312020302020202020200A2020392020312020312020302020202020200A2020332031302020312020302020202020200A2031302031312020322020302020202020200A2031312031322020312020302020202020200A2031322031332020322020302020202020200A2031332020342020312020302020202020200A2020382031342020312020302020202020200A2031342031352020312020302020202020200A4D2020454E44
Contributor: SASAKI S, TOYOHASHI UNIV. OF TECH.
InstType: EI
InstName: JEOL JMS-01-SG-2
IoniMethod: _ENERGY 75 eV
IonPolarity: pos
Date: 2010-10-09 19:48:36+02:00
Num Peaks: 16
42 20 56 33 77 21 102 2 115 63 128 26 130 16 142 4 143 999 144 155 
145 14 156 4 157 16 185 10 199 102 200 265 
