Name: 1-(2-DIETHYLAMINOETHOXYCARBONYL)-1-PHENYLCYCLOPENTANE
MW: 289
Formula: C18H27NO2
Synonym: MassBank: JP002787
Synonym: 1-(2-DIETHYLAMINOETHOXYCARBONYL)-1-PHENYLCYCLOPENTANE
Structure: 312D28322D4449455448594C414D494E4F4554484F5859434152424F4E594C292D312D5048454E594C4359434C4F50454E54414E452E6D6F6C0A20204368656D447261773131313730393136353232440A2032312032322020302020302020302020302020302020302020302020303939392056323030300A20202020312E333935312020202D312E3034303420202020302E303030302043202020302020302020302020302020302020302020302020302020302020302020302020300A20202020312E363530302020202D312E3832353020202020302E303030302043202020302020302020302020302020302020302020302020302020302020302020302020300A20202020322E343735302020202D312E3832353020202020302E303030302043202020302020302020302020302020302020302020302020302020302020302020302020300A20202020322E373239392020202D312E3034303420202020302E303030302043202020302020302020302020302020302020302020302020302020302020302020302020300A20202020322E303632352020202D302E3535353520202020302E303030302043202020302020302020302020302020302020302020302020302020302020302020302020300A20202020302E363431342020202D312E3337353920202020302E303030302043202020302020302020302020302020302020302020302020302020302020302020302020300A2020202D302E303236312020202D302E3839313020202020302E303030302043202020302020302020302020302020302020302020302020302020302020302020302020300A2020202D302E373739372020202D312E3232363620202020302E303030302043202020302020302020302020302020302020302020302020302020302020302020302020300A2020202D302E383636302020202D322E3034373120202020302E303030302043202020302020302020302020302020302020302020302020302020302020302020302020300A2020202D302E313938352020202D322E3533323020202020302E303030302043202020302020302020302020302020302020302020302020302020302020302020302020300A20202020302E353535322020202D322E3139363420202020302E303030302043202020302020302020302020302020302020302020302020302020302020302020302020300A20202020302E393832362020202D302E3332353920202020302E303030302043202020302020302020302020302020302020302020302020302020302020302020302020300A20202020312E3339353120202020302E3338383620202020302E30303030204F202020302020302020302020302020302020302020302020302020302020302020302020300A20202020302E313537362020202D302E3332353920202020302E30303030204F202020302020302020302020302020302020302020302020302020302020302020302020300A2020202D302E3235343920202020302E3338383620202020302E303030302043202020302020302020302020302020302020302020302020302020302020302020302020300A2020202D312E3037393920202020302E3338383620202020302E303030302043202020302020302020302020302020302020302020302020302020302020302020302020300A2020202D312E3439323420202020312E3130333020202020302E30303030204E202020302020302020302020302020302020302020302020302020302020302020302020300A2020202D322E3331373420202020312E3130333020202020302E303030302043202020302020302020302020302020302020302020302020302020302020302020302020300A2020202D322E3732393920202020302E3338383620202020302E303030302043202020302020302020302020302020302020302020302020302020302020302020302020300A2020202D312E3037393920202020312E3831373520202020302E303030302043202020302020302020302020302020302020302020302020302020302020302020302020300A2020202D312E3439323420202020322E3533323020202020302E303030302043202020302020302020302020302020302020302020302020302020302020302020302020300A2020312020322020312020302020202020200A2020322020332020312020302020202020200A2020332020342020312020302020202020200A2020342020352020312020302020202020200A2020312020352020312020302020202020200A2020362020372020312020302020202020200A2020372020382020322020302020202020200A2020382020392020312020302020202020200A2020392031302020322020302020202020200A2031302031312020312020302020202020200A2020362031312020322020302020202020200A2020312020362020312020302020202020200A2031322031332020322020302020202020200A2031352031362020312020302020202020200A2031342031352020312020302020202020200A2031322031342020312020302020202020200A2031382031392020312020302020202020200A2031372031382020312020302020202020200A2032302032312020312020302020202020200A2031372032302020312020302020202020200A2031362031372020312020302020202020200A2020312031322020312020302020202020200A4D2020454E44
Contributor: SASAKI S, TOYOHASHI UNIV. OF TECH.
InstType: EI
InstName: Unknown
IoniMethod: EI
IonPolarity: pos
Date: 2010-10-09 19:48:36+02:00
Num Peaks: 94
38 11 39 38 40 11 41 7 42 61 43 29 44 60 45 1 50 11 51 19 
52 16 53 1 54 13 55 19 56 85 57 0 58 93 59 11 62 5 63 2 
64 7 65 19 66 15 67 5 68 15 69 11 70 29 71 6 72 28 73 54 
74 12 75 2 76 10 77 28 78 17 79 1 80 1 84 51 85 13 86 999 
87 64 88 10 89 13 90 1 91 138 92 20 93 1 95 0 96 7 97 11 
98 12 99 16 100 40 101 7 102 18 103 3 104 18 105 15 106 1 114 1 
115 47 116 19 117 21 118 1 126 3 127 11 128 38 129 4 130 13 131 1 
140 19 141 2 142 25 143 52 144 111 145 0 146 2 148 15 168 1 169 1 
170 8 171 5 172 11 173 1 175 10 190 8 191 1 217 3 218 11 219 5 
246 1 247 1 274 12 275 1 
