Name: MassBank: JP002456
MW: 190
Formula: C9H18O4
Synonym: MassBank: JP002456
Synonym: (4S,5S)-4,5-BIS(METHOXYMETHYL)-2,2-DIMETHYL-1,3-DIOXOLANE
Structure: 2834532C3553292D342C352D424953284D4554484F58594D455448594C292D322C322D44494D455448594C2D312C332D44494F584F4C414E452E6D6F6C0A20204368656D447261773130323230393032353132440A2031352031352020302020302020302020302020302020302020302020303939392056323030300A20202020302E3234313820202020302E3235303520202020302E303030302043202020302020302020302020302020302020302020302020302020302020302020302020300A20202020312E3036323320202020302E3136343320202020302E30303030204F202020302020302020302020302020302020302020302020302020302020302020302020300A20202020312E3339383020202020302E3931373920202020302E303030302043202020302020302020302020302020302020302020302020302020302020302020302020300A20202020302E3738343720202020312E3436393120202020302E30303030204F202020302020302020302020302020302020302020302020302020302020302020302020300A20202020302E3037303420202020312E3035373620202020302E303030302043202020302020302020302020302020302020302020302020302020302020302020302020300A2020202D302E3236343720202020312E3831313520202020302E303030302048202020302020302020302020302020302020302020302020302020302020302020302020300A20202020302E323431382020202D302E3537343520202020302E303030302043202020302020302020302020302020302020302020302020302020302020302020302020300A2020202D302E3731343420202020302E3830323820202020302E303030302043202020302020302020302020302020302020302020302020302020302020302020302020300A2020202D302E3537383620202020302E3136343320202020302E303030302048202020302020302020302020302020302020302020302020302020302020302020302020300A2020202D302E343732362020202D302E3938373020202020302E30303030204F202020302020302020302020302020302020302020302020302020302020302020302020300A2020202D312E3332373320202020312E3335353120202020302E30303030204F202020302020302020302020302020302020302020302020302020302020302020302020300A20202020322E3131323320202020312E3333303720202020302E303030302043202020302020302020302020302020302020302020302020302020302020302020302020300A2020202D322E3131323320202020312E3130313320202020302E303030302043202020302020302020302020302020302020302020302020302020302020302020302020300A2020202D302E343733372020202D312E3831313520202020302E303030302043202020302020302020302020302020302020302020302020302020302020302020302020300A20202020322E3131323320202020302E3530353720202020302E303030302043202020302020302020302020302020302020302020302020302020302020302020302020300A2020312020322020312020302020202020200A2020322020332020312020302020202020200A2020332020342020312020302020202020200A2020342020352020312020302020202020200A2020352020312020312020302020202020200A2020352020362020312020312020202020200A2020312020372020312020312020202020200A2020352020382020312020362020202020200A2020312020392020312020362020202020200A2020372031302020312020302020202020200A2020382031312020312020302020202020200A2020332031322020312020362020202020200A2031312031332020312020302020202020200A2031302031342020312020302020202020200A2020332031352020312020312020202020200A4D202053545920203120202031205355500A4D2020534C4220203120202031202020310A4D202053414C20202031202031202031320A4D202053424C20202031202031202031320A4D2020534D5420202031204D650A4D2020534256202020312031322020202D352E3738353120202020382E323438360A4D202053545920203120202032205355500A4D2020534C4220203120202032202020320A4D202053414C20202032202031202031330A4D202053424C20202032202031202031330A4D2020534D5420202032204D650A4D2020534256202020322031332020202D372E3238343420202020372E353832300A4D202053545920203120202033205355500A4D2020534C4220203120202033202020330A4D202053414C20202033202031202031340A4D202053424C20202033202031202031340A4D2020534D5420202033204D650A4D2020534256202020332031342020202D362E3530303520202020372E303131330A4D202053545920203120202034205355500A4D2020534C4220203120202034202020340A4D202053414C20202034202031202031350A4D202053424C20202034202031202031350A4D2020534D5420202034204D650A4D2020534256202020342031352020202D352E3738353120202020372E343233360A4D2020454E44
Contributor: ITO S, DEPT. OF CHEM., TOHOKU UNIV.
InstType: EI
InstName: HITACHI M-52
IoniMethod: _ENERGY 25 eV
IonPolarity: pos
Date: 2010-10-09 19:48:36+02:00
Num Peaks: 37
39 32 40 23 41 66 42 3 43 575 44 37 45 87 53 2 55 149 57 46 
58 172 59 87 69 71 70 18 71 39 73 22 75 37 83 46 84 23 85 30 
86 18 87 402 88 18 95 9 100 18 101 18 113 41 114 2 115 621 116 34 
117 28 127 9 143 151 145 586 146 83 175 999 176 78 
