Name: 2-METHYL-3-METHOXYPROPYL 2-PROPENOATE
MW: 158
Formula: C8H14O3
Synonym: MassBank: JP004569
Synonym: 2-METHYL-3-METHOXYPROPYL 2-PROPENOATE
Structure: 322D4D455448594C2D332D4D4554484F585950524F50594C20322D50524F50454E4F4154452E6D6F6C0A20204368656D447261773031323231303033333632440A2031312031302020302020302020302020302020302020302020302020303939392056323030300A20202020312E373836322020202D302E3230363220202020302E303030302043202020302020302020302020302020302020302020302020302020302020302020302020300A20202020322E3530303620202020302E3230363320202020302E303030302043202020302020302020302020302020302020302020302020302020302020302020302020300A20202020322E3530303620202020312E3033313320202020302E303030302043202020302020302020302020302020302020302020302020302020302020302020302020300A20202020312E373836322020202D312E3033313320202020302E30303030204F202020302020302020302020302020302020302020302020302020302020302020302020300A20202020312E3037313720202020302E3230363220202020302E30303030204F202020302020302020302020302020302020302020302020302020302020302020302020300A20202020302E333537322020202D302E3230363220202020302E303030302043202020302020302020302020302020302020302020302020302020302020302020302020300A2020202D302E3335373220202020302E3230363220202020302E303030302043202020302020302020302020302020302020302020302020302020302020302020302020300A2020202D312E303731372020202D302E3230363220202020302E303030302043202020302020302020302020302020302020302020302020302020302020302020302020300A2020202D312E3738363220202020302E3230363220202020302E30303030204F202020302020302020302020302020302020302020302020302020302020302020302020300A2020202D322E353030362020202D302E3230363320202020302E303030302043202020302020302020302020302020302020302020302020302020302020302020302020300A2020202D302E3335373220202020312E3033313220202020302E303030302043202020302020302020302020302020302020302020302020302020302020302020302020300A2020312020322020312020302020202020200A2020322020332020322020302020202020200A2020312020342020322020302020202020200A2020312020352020312020302020202020200A2020362020372020312020302020202020200A2020372020382020312020302020202020200A2020392031302020312020302020202020200A2020382020392020312020302020202020200A2020372031312020312020302020202020200A2020352020362020312020302020202020200A4D2020454E44
Contributor: HAYASHI A, DEPT. OF CHEMISTRY, FAC. OF SCI. AND TECHNOLOGY, KINKI UNIV.
InstType: EI
InstName: JEOL JMS-HX-100
IoniMethod: _ENERGY 70 eV
IonPolarity: pos
Date: 2010-10-09 19:48:36+02:00
Num Peaks: 49
38 2 39 24 41 142 42 35 43 52 44 2 45 202 46 6 53 5 54 7 
55 999 56 49 57 23 58 80 59 250 60 10 67 2 68 14 69 10 70 5 
71 15 72 24 73 378 74 20 75 3 84 4 85 7 86 7 87 19 89 61 
90 3 95 1 99 14 100 5 101 5 103 27 104 2 112 4 113 815 114 70 
115 8 116 32 117 31 118 2 130 19 131 2 143 4 157 41 158 5 
