Name: ISOHALFORDIN
MW: 276
Formula: C14H12O6
Synonym: MassBank: JP003114
Synonym: ISOHALFORDIN
Structure: 303537305F49534F48414C464F5244494E2E6D6F6C0A20204368656D447261773039303631303138343832440A2032302032322020302020302020302020302020302020302020302020303939392056323030300A2020202D322E3737383220202020302E3030303620202020302E303030302043202020302020302020302020302020302020302020302020302020302020302020302020300A2020202D322E323933332020202D302E3636363920202020302E303030302043202020302020302020302020302020302020302020302020302020302020302020302020300A2020202D312E353038362020202D302E3431313920202020302E303030302043202020302020302020302020302020302020302020302020302020302020302020302020300A2020202D312E3530383620202020302E3431333120202020302E303030302043202020302020302020302020302020302020302020302020302020302020302020302020300A2020202D322E3239333320202020302E3636383020202020302E30303030204F202020302020302020302020302020302020302020302020302020302020302020302020300A2020202D302E373934322020202D302E3832343420202020302E303030302043202020302020302020302020302020302020302020302020302020302020302020302020300A2020202D302E303739372020202D302E3431313920202020302E303030302043202020302020302020302020302020302020302020302020302020302020302020302020300A2020202D302E3037393720202020302E3431333120202020302E303030302043202020302020302020302020302020302020302020302020302020302020302020302020300A2020202D302E3739343220202020302E3832353620202020302E303030302043202020302020302020302020302020302020302020302020302020302020302020302020300A20202020302E363334382020202D302E3832343420202020302E303030302043202020302020302020302020302020302020302020302020302020302020302020302020300A20202020312E333439322020202D302E3431313920202020302E303030302043202020302020302020302020302020302020302020302020302020302020302020302020300A20202020312E3334393220202020302E3431333120202020302E303030302043202020302020302020302020302020302020302020302020302020302020302020302020300A20202020302E3633343820202020302E3832353620202020302E30303030204F202020302020302020302020302020302020302020302020302020302020302020302020300A20202020322E3036333720202020302E3832353620202020302E30303030204F202020302020302020302020302020302020302020302020302020302020302020302020300A20202020322E303633372020202D302E3832343420202020302E30303030204F202020302020302020302020302020302020302020302020302020302020302020302020300A20202020322E373738322020202D302E3431313920202020302E303030302043202020302020302020302020302020302020302020302020302020302020302020302020300A20202020302E363334382020202D312E3634393420202020302E30303030204F202020302020302020302020302020302020302020302020302020302020302020302020300A20202020312E333438362020202D322E3036333120202020302E303030302043202020302020302020302020302020302020302020302020302020302020302020302020300A2020202D302E3739343220202020312E3635303620202020302E30303030204F202020302020302020302020302020302020302020302020302020302020302020302020300A2020202D312E3530383620202020322E3036333120202020302E303030302043202020302020302020302020302020302020302020302020302020302020302020302020300A2020312020322020322020302020202020200A2020322020332020312020302020202020200A2020332020342020322020302020202020200A2020342020352020312020302020202020200A2020352020312020312020302020202020200A2020332020362020312020302020202020200A2020362020372020322020302020202020200A2020372020382020312020302020202020200A2020382020392020322020302020202020200A2020392020342020312020302020202020200A2020372031302020312020302020202020200A2031302031312020322020302020202020200A2031312031322020312020302020202020200A2031322031332020312020302020202020200A2031332020382020312020302020202020200A2031322031342020322020302020202020200A2031312031352020312020302020202020200A2031352031362020312020302020202020200A2031302031372020312020302020202020200A2031372031382020312020302020202020200A2020392031392020312020302020202020200A2031392032302020312020302020202020200A4D2020454E44
Contributor: NAKAYAMA M, MASS SPECTROSCOPY SOC. OF JAPAN (MSSJ)
InstType: EI
InstName: AEI-GEC MS-902
IoniMethod: _ENERGY 70 eV
IonPolarity: pos
Date: 2010-10-09 19:48:36+02:00
Num Peaks: 11
91 40 119 40 147 110 162 60 175 40 190 120 233 450 247 40 261 100 276 999 
277 180 
