Name: MassBank: JP001147
MW: 222
Formula: C14H22O2
Synonym: MassBank: JP001147
Synonym: 2-(3-(3-HYDROXYBUTYL)-2,2-DIMETHYLCYCLOPROPYL)CYCLOPENT-2-ENE-1-ONE
Structure: 322D28332D28332D485944524F5859425554594C292D322C322D44494D455448594C4359434C4F50524F50594C294359434C4F50454E542D322D454E452D312D4F4E452E6D6F6C0A20204368656D447261773132323130393137343832440A2031362031372020302020302020302020302020302020302020302020303939392056323030300A2020202D322E323939352020202D302E3030323920202020302E303030302043202020302020302020302020302020302020302020302020302020302020302020302020300A2020202D312E3534353820202020302E3333323620202020302E303030302043202020302020302020302020302020302020302020302020302020302020302020302020300A2020202D312E3633323120202020312E3135333120202020302E303030302043202020302020302020302020302020302020302020302020302020302020302020302020300A2020202D322E3433393020202020312E3332343620202020302E303030302043202020302020302020302020302020302020302020302020302020302020302020302020300A2020202D322E3835313520202020302E3631303220202020302E303030302043202020302020302020302020302020302020302020302020302020302020302020302020300A2020202D322E343731302020202D302E3830393920202020302E30303030204F202020302020302020302020302020302020302020302020302020302020302020302020300A2020202D302E383331342020202D302E3037393920202020302E303030302043202020302020302020302020302020302020302020302020302020302020302020302020300A2020202D302E343138392020202D302E3739343320202020302E303030302043202020302020302020302020302020302020302020302020302020302020302020302020300A2020202D302E303036342020202D302E3037393920202020302E303030302043202020302020302020302020302020302020302020302020302020302020302020302020300A20202020302E323133312020202D312E3332343620202020302E303030302043202020302020302020302020302020302020302020302020302020302020302020302020300A2020202D312E303530382020202D312E3332343620202020302E303030302043202020302020302020302020302020302020302020302020302020302020302020302020300A20202020302E3730383120202020302E3333323620202020302E303030302043202020302020302020302020302020302020302020302020302020302020302020302020300A20202020312E343232362020202D302E3037393920202020302E303030302043202020302020302020302020302020302020302020302020302020302020302020302020300A20202020322E3133373120202020302E3333323620202020302E303030302043202020302020302020302020302020302020302020302020302020302020302020302020300A20202020322E383531352020202D302E3037393920202020302E303030302043202020302020302020302020302020302020302020302020302020302020302020302020300A20202020322E3133373120202020312E3135373620202020302E30303030204F202020302020302020302020302020302020302020302020302020302020302020302020300A2020312020322020312020302020202020200A2020322020332020322020302020202020200A2020332020342020312020302020202020200A2020342020352020312020302020202020200A2020312020352020312020302020202020200A2020312020362020322020302020202020200A2020372020382020312020302020202020200A2020382020392020312020302020202020200A2020372020392020312020302020202020200A2020382031302020312020362020202020200A2020382031312020312020312020202020200A2031322031332020312020302020202020200A2031332031342020312020302020202020200A2031342031352020312020302020202020200A2031342031362020312020302020202020200A2020392031322020312020302020202020200A2020322020372020312020302020202020200A4D2020454E44
Contributor: NAKAYAMA M, MASS SPECTROSCOPY SOC. OF JAPAN (MSSJ)
InstType: EI
InstName: HITACHI RMU-6L
IoniMethod: _ENERGY 70 eV
IonPolarity: pos
Date: 2010-10-09 19:48:36+02:00
Num Peaks: 93
40 47 41 686 42 93 43 999 44 24 45 482 51 114 52 43 53 176 54 16 
55 576 56 27 57 121 59 39 61 24 63 24 65 160 66 43 67 176 68 54 
69 396 70 20 71 82 73 31 77 412 78 118 79 369 80 50 81 157 82 47 
83 63 85 50 91 643 92 165 93 257 94 50 95 169 96 98 97 90 99 47 
103 31 104 20 105 443 106 388 107 875 108 129 109 223 111 39 115 24 117 78 
118 43 119 533 120 282 121 376 122 63 123 122 124 16 125 20 129 31 130 10 
131 110 132 20 133 345 134 129 135 192 136 75 137 133 139 10 143 16 145 31 
146 20 147 314 148 216 149 167 150 47 151 27 161 239 162 353 163 112 164 78 
165 50 171 20 175 67 176 20 177 16 179 235 180 24 189 82 203 10 204 90 
205 16 222 35 223 5 
