Name: METHYL TETRADECANOATE
MW: 242
Formula: C15H30O2
Synonym: MassBank: JP002730
Synonym: METHYL TETRADECANOATE
Structure: 4D595249535449432041434944204D455448594C2045535445522E6D6F6C0A20204368656D447261773038313231303031303032440A2031372031362020302020302020302020302020302020302020302020303939392056323030300A2020202D342E3238363820202020302E3230363220202020302E303030302043202020302020302020302020302020302020302020302020302020302020302020302020300A2020202D332E353732342020202D302E3230363220202020302E303030302043202020302020302020302020302020302020302020302020302020302020302020302020300A2020202D322E3835373920202020302E3230363220202020302E303030302043202020302020302020302020302020302020302020302020302020302020302020302020300A2020202D322E313433342020202D302E3230363220202020302E303030302043202020302020302020302020302020302020302020302020302020302020302020302020300A2020202D312E3432383920202020302E3230363220202020302E303030302043202020302020302020302020302020302020302020302020302020302020302020302020300A2020202D302E373134352020202D302E3230363220202020302E303030302043202020302020302020302020302020302020302020302020302020302020302020302020300A20202020302E3030303020202020302E3230363320202020302E303030302043202020302020302020302020302020302020302020302020302020302020302020302020300A20202020302E373134352020202D302E3230363220202020302E303030302043202020302020302020302020302020302020302020302020302020302020302020302020300A20202020312E3432383920202020302E3230363320202020302E303030302043202020302020302020302020302020302020302020302020302020302020302020302020300A20202020322E313433342020202D302E3230363220202020302E303030302043202020302020302020302020302020302020302020302020302020302020302020302020300A20202020322E3835373920202020302E3230363320202020302E303030302043202020302020302020302020302020302020302020302020302020302020302020302020300A20202020332E353732342020202D302E3230363220202020302E303030302043202020302020302020302020302020302020302020302020302020302020302020302020300A20202020342E3238363820202020302E3230363320202020302E303030302043202020302020302020302020302020302020302020302020302020302020302020302020300A20202020352E303031332020202D302E3230363220202020302E303030302043202020302020302020302020302020302020302020302020302020302020302020302020300A2020202D342E3238363820202020312E3033313320202020302E30303030204F202020302020302020302020302020302020302020302020302020302020302020302020300A2020202D352E303031332020202D302E3230363220202020302E30303030204F202020302020302020302020302020302020302020302020302020302020302020302020300A2020202D352E303031332020202D312E3033313320202020302E303030302043202020302020302020302020302020302020302020302020302020302020302020302020300A2020312020322020312020302020202020200A2020322020332020312020302020202020200A2020332020342020312020302020202020200A2020342020352020312020302020202020200A2020352020362020312020302020202020200A2020362020372020312020302020202020200A2020372020382020312020302020202020200A2020382020392020312020302020202020200A2020392031302020312020302020202020200A2031302031312020312020302020202020200A2031312031322020312020302020202020200A2031322031332020312020302020202020200A2031332031342020312020302020202020200A2020312031352020322020302020202020200A2020312031362020312020302020202020200A2031362031372020312020302020202020200A4D2020454E44
Contributor: HAYASHI A, DEPT. OF CHEMISTRY, FAC. OF SCI. AND TECHNOLOGY, KINKI UNIV.
InstType: EI
InstName: SHIMADZU LKB-9000B
IoniMethod: _ENERGY 70 eV
IonPolarity: pos
Date: 2010-10-09 19:48:36+02:00
Num Peaks: 56
33 3 37 35 38 7 39 78 41 371 42 25 43 279 44 17 50 33 51 37 
52 39 53 2 54 30 55 105 57 101 58 1 59 118 60 8 67 24 68 2 
69 154 71 46 73 57 74 999 75 42 77 10 79 40 81 2 82 28 83 82 
84 19 85 3 87 609 88 67 91 1 95 2 96 36 97 64 98 15 107 0 
109 29 111 37 115 73 117 0 129 38 142 56 143 102 144 1 147 3 157 33 
159 2 187 0 199 58 203 9 211 45 242 55 
