Name: CYCLODODECYL FORMATE
MW: 212
Formula: C13H24O2
Synonym: MassBank: JP009124
Synonym: CYCLODODECYL FORMATE
Structure: 4359434C4F444F444543594C20464F524D4154452E6D6F6C0A20204368656D447261773039313531303035323632440A2031352031352020302020302020302020302020302020302020302020303939392056323030300A20202020312E363436322020202D312E3337343420202020302E303030302043202020302020302020302020302020302020302020302020302020302020302020302020300A20202020322E343433312020202D312E3538383020202020302E30303030204F202020302020302020302020302020302020302020302020302020302020302020302020300A20202020312E343332372020202D302E3537373520202020302E30303030204F202020302020302020302020302020302020302020302020302020302020302020302020300A20202020302E363335382020202D302E3336343020202020302E303030302043202020302020302020302020302020302020302020302020302020302020302020302020300A20202020302E323233332020202D312E3037383520202020302E303030302043202020302020302020302020302020302020302020302020302020302020302020302020300A2020202D302E343931322020202D312E3439313020202020302E303030302043202020302020302020302020302020302020302020302020302020302020302020302020300A2020202D312E333136322020202D312E3439313020202020302E303030302043202020302020302020302020302020302020302020302020302020302020302020302020300A2020202D322E303330362020202D312E3037383520202020302E303030302043202020302020302020302020302020302020302020302020302020302020302020302020300A2020202D322E343433312020202D302E3336343020202020302E303030302043202020302020302020302020302020302020302020302020302020302020302020302020300A2020202D322E3434333120202020302E3436313020202020302E303030302043202020302020302020302020302020302020302020302020302020302020302020302020300A2020202D322E3033303620202020312E3137353520202020302E303030302043202020302020302020302020302020302020302020302020302020302020302020302020300A2020202D312E3331363220202020312E3538383020202020302E303030302043202020302020302020302020302020302020302020302020302020302020302020302020300A2020202D302E3439313220202020312E3538383020202020302E303030302043202020302020302020302020302020302020302020302020302020302020302020302020300A20202020302E3232333320202020312E3137353520202020302E303030302043202020302020302020302020302020302020302020302020302020302020302020302020300A20202020302E3633353820202020302E3436313020202020302E303030302043202020302020302020302020302020302020302020302020302020302020302020302020300A2020312020322020322020302020202020200A2020312020332020312020302020202020200A2020342020352020312020302020202020200A2020352020362020312020302020202020200A2020362020372020312020302020202020200A2020372020382020312020302020202020200A2020382020392020312020302020202020200A2020392031302020312020302020202020200A2031302031312020312020302020202020200A2031312031322020312020302020202020200A2031322031332020312020302020202020200A2031332031342020312020302020202020200A2031342031352020312020302020202020200A2020342031352020312020302020202020200A2020332020342020312020302020202020200A4D2020454E44
Contributor: SODA AROMATIC CO., LTD.
InstType: EI
InstName: HITACHI M-80B
IoniMethod: _ENERGY 70 eV
IonPolarity: pos
Date: 2010-10-09 19:48:36+02:00
Num Peaks: 58
27 161 28 34 29 315 30 10 31 44 39 181 40 31 41 764 42 188 43 312 
44 101 45 39 47 15 53 86 54 305 55 775 56 182 57 405 58 32 65 17 
66 66 67 630 68 485 69 401 70 132 71 96 72 16 77 14 79 48 80 46 
81 548 82 999 83 359 84 67 85 55 93 16 94 38 95 395 96 867 97 256 
98 65 99 17 108 18 109 263 110 262 111 66 112 21 122 11 123 138 124 135 
125 21 137 59 138 148 139 16 140 16 151 12 166 254 167 38 
