Name: MassBank: JP006679
MW: 337
Formula: C17H23NO6
Synonym: MassBank: JP006679
Synonym: 1-ACETOXY-3-(N-ACETYL-2-ACETOXYETHYLAMINO)-5-METHOXY-2,6-DIMETHYLBENZENE
Structure: 312D414345544F58592D332D284E2D41434554594C2D322D414345544F5859455448594C414D494E4F292D352D4D4554484F58592D322C362D44494D455448594C42454E5A454E452E6D6F6C0A20204368656D447261773131313730393230353632440A2032342032342020302020302020302020302020302020302020302020303939392056323030300A20202020302E333537322020202D312E3635303020202020302E303030302043202020302020302020302020302020302020302020302020302020302020302020302020300A20202020302E333537322020202D302E3832353020202020302E303030302043202020302020302020302020302020302020302020302020302020302020302020302020300A2020202D302E333537322020202D302E3431323520202020302E303030302043202020302020302020302020302020302020302020302020302020302020302020302020300A2020202D312E303731372020202D302E3832353020202020302E303030302043202020302020302020302020302020302020302020302020302020302020302020302020300A2020202D312E303731372020202D312E3635303020202020302E303030302043202020302020302020302020302020302020302020302020302020302020302020302020300A2020202D302E333537322020202D322E3036323520202020302E303030302043202020302020302020302020302020302020302020302020302020302020302020302020300A2020202D302E333537322020202D322E3838373520202020302E303030302043202020302020302020302020302020302020302020302020302020302020302020302020300A20202020312E303731372020202D302E3431323520202020302E303030302043202020302020302020302020302020302020302020302020302020302020302020302020300A2020202D312E373836322020202D322E3036323520202020302E30303030204F202020302020302020302020302020302020302020302020302020302020302020302020300A2020202D312E373836322020202D322E3838373520202020302E303030302043202020302020302020302020302020302020302020302020302020302020302020302020300A2020202D302E3335373220202020302E3431323520202020302E30303030204E202020302020302020302020302020302020302020302020302020302020302020302020300A20202020302E3335373220202020302E3832353020202020302E303030302043202020302020302020302020302020302020302020302020302020302020302020302020300A20202020302E3335373220202020312E3635303020202020302E303030302043202020302020302020302020302020302020302020302020302020302020302020302020300A2020202D302E3335373220202020322E3036323520202020302E30303030204F202020302020302020302020302020302020302020302020302020302020302020302020300A2020202D302E3335373220202020322E3838373520202020302E303030302043202020302020302020302020302020302020302020302020302020302020302020302020300A2020202D312E3037313720202020332E3330303020202020302E30303030204F202020302020302020302020302020302020302020302020302020302020302020302020300A20202020302E3335373220202020332E3330303020202020302E303030302043202020302020302020302020302020302020302020302020302020302020302020302020300A2020202D312E3037313720202020302E3832353020202020302E303030302043202020302020302020302020302020302020302020302020302020302020302020302020300A2020202D312E3738363220202020302E3431323520202020302E30303030204F202020302020302020302020302020302020302020302020302020302020302020302020300A2020202D312E3037313720202020312E3635303020202020302E303030302043202020302020302020302020302020302020302020302020302020302020302020302020300A20202020312E303731372020202D322E3036323520202020302E30303030204F202020302020302020302020302020302020302020302020302020302020302020302020300A20202020312E303731372020202D322E3838373520202020302E303030302043202020302020302020302020302020302020302020302020302020302020302020302020300A20202020302E333537322020202D332E3330303020202020302E30303030204F202020302020302020302020302020302020302020302020302020302020302020302020300A20202020312E373836322020202D332E3330303020202020302E303030302043202020302020302020302020302020302020302020302020302020302020302020302020300A2020312020322020312020302020202020200A2020322020332020322020302020202020200A2020332020342020312020302020202020200A2020342020352020322020302020202020200A2020352020362020312020302020202020200A2020312020362020322020302020202020200A2020362020372020312020302020202020200A2020322020382020312020302020202020200A2020392031302020312020302020202020200A2020352020392020312020302020202020200A2031322031332020312020302020202020200A2031312031322020312020302020202020200A2031352031362020322020302020202020200A2031352031372020312020302020202020200A2031342031352020312020302020202020200A2031332031342020312020302020202020200A2031382031392020322020302020202020200A2031382032302020312020302020202020200A2031312031382020312020302020202020200A2020332031312020312020302020202020200A2032322032332020322020302020202020200A2032322032342020312020302020202020200A2032312032322020312020302020202020200A2020312032312020312020302020202020200A4D2020454E44
Contributor: MASS SPECTROSCOPY SOC. OF JAPAN (MSSJ)
InstType: EI
InstName: JEOL JMS-D-300
IoniMethod: _ENERGY 70 eV
IonPolarity: pos
Date: 2010-10-09 19:48:36+02:00
Num Peaks: 43
41 60 43 895 45 45 47 20 48 75 49 70 57 70 68 7 74 30 77 45 
79 30 83 76 85 495 87 999 88 60 91 5 123 30 128 315 150 30 166 5 
167 90 178 180 179 60 180 54 181 60 192 105 193 180 194 5 209 90 210 45 
220 30 222 17 235 240 236 60 251 35 252 11 253 120 277 90 294 45 295 22 
296 30 337 390 338 70 
