Name: 5-CHLORO-2-METHOXYPYRIMIDINE
MW: 144
Formula: C5H5ClN2O
Synonym: MassBank: JP002039
Synonym: 5-CHLORO-2-METHOXYPYRIMIDINE
Structure: 310A32330A352D43484C4F524F2D322D4D4554484F5859505952494D4944494E452E6D6F6C0A20204368656D447261773034323331303034333932440A2020392020392020302020302020302020302020302020302020302020303939392056323030300A20202020302E3631383720202020302E3030303020202020302E303030302043202020302020302020302020302020302020302020302020302020302020302020302020300A20202020302E323036322020202D302E3731343520202020302E30303030204E202020302020302020302020302020302020302020302020302020302020302020302020300A2020202D302E363138382020202D302E3731343520202020302E303030302043202020302020302020302020302020302020302020302020302020302020302020302020300A2020202D312E3033313320202020302E3030303020202020302E303030302043202020302020302020302020302020302020302020302020302020302020302020302020300A2020202D302E3631383820202020302E3731343520202020302E303030302043202020302020302020302020302020302020302020302020302020302020302020302020300A20202020302E3230363220202020302E3731343520202020302E30303030204E202020302020302020302020302020302020302020302020302020302020302020302020300A20202020312E3434333720202020302E3030303020202020302E30303030204F202020302020302020302020302020302020302020302020302020302020302020302020300A20202020312E383536332020202D302E3731343520202020302E303030302043202020302020302020302020302020302020302020302020302020302020302020302020300A2020202D312E3835363320202020302E3030303020202020302E3030303020436C2020302020302020302020302020302020302020302020302020302020302020302020300A2020312020322020312020302020202020200A2020322020332020322020302020202020200A2020332020342020312020302020202020200A2020342020352020322020302020202020200A2020352020362020312020302020202020200A2020312020362020322020302020202020200A2020372020382020312020302020202020200A2020312020372020312020302020202020200A2020342020392020312020302020202020200A4D2020454E44
Contributor: SASAKI S, TOYOHASHI UNIV. OF TECH.
InstType: EI
InstName: MS-902
IoniMethod: _ENERGY 70 eV
IonPolarity: pos
Date: 2010-10-09 19:48:36+02:00
Num Peaks: 45
38 41 39 59 40 11 42 9 43 21 49 18 50 78 51 10 52 155 53 90 
54 79 56 1 60 98 61 19 62 38 65 1 67 21 73 43 74 209 75 2 
76 69 77 31 79 67 81 3 82 178 86 55 87 345 88 3 89 114 90 24 
102 86 104 3 109 12 110 13 113 40 114 999 115 353 116 345 117 128 118 1 
143 259 144 819 145 143 146 29 147 18 
