Name: 2-AMINO-5-PHENYLPYRIDINE
MW: 170
Formula: C11H10N2
Synonym: MassBank: JP000787
Synonym: 2-AMINO-5-PHENYLPYRIDINE
Synonym: PHE-P-1
Structure: 322D414D494E4F2D352D5048454E594C5059524944494E452E6D6F6C0A20204368656D447261773132323130393232323432440A2031332031342020302020302020302020302020302020302020302020303939392056323030300A20202020312E3635303020202020302E3030303020202020302E303030302043202020302020302020302020302020302020302020302020302020302020302020302020300A20202020312E323337352020202D302E3731343520202020302E303030302043202020302020302020302020302020302020302020302020302020302020302020302020300A20202020302E343132352020202D302E3731343520202020302E303030302043202020302020302020302020302020302020302020302020302020302020302020302020300A20202020302E3030303020202020302E3030303020202020302E303030302043202020302020302020302020302020302020302020302020302020302020302020302020300A20202020302E3431323520202020302E3731343520202020302E303030302043202020302020302020302020302020302020302020302020302020302020302020302020300A20202020312E3233373520202020302E3731343520202020302E30303030204E202020302020302020302020302020302020302020302020302020302020302020302020300A2020202D302E3832353020202020302E3030303020202020302E303030302043202020302020302020302020302020302020302020302020302020302020302020302020300A2020202D312E323337352020202D302E3731343520202020302E303030302043202020302020302020302020302020302020302020302020302020302020302020302020300A2020202D322E303632352020202D302E3731343520202020302E303030302043202020302020302020302020302020302020302020302020302020302020302020302020300A2020202D322E3437353020202020302E3030303020202020302E303030302043202020302020302020302020302020302020302020302020302020302020302020302020300A2020202D322E3036323520202020302E3731343520202020302E303030302043202020302020302020302020302020302020302020302020302020302020302020302020300A2020202D312E3233373520202020302E3731343520202020302E303030302043202020302020302020302020302020302020302020302020302020302020302020302020300A20202020322E3437353020202020302E3030303020202020302E30303030204E202020302020302020302020302020302020302020302020302020302020302020302020300A2020312020322020312020302020202020200A2020322020332020322020302020202020200A2020332020342020312020302020202020200A2020342020352020322020302020202020200A2020352020362020312020302020202020200A2020312020362020322020302020202020200A2020372020382020312020302020202020200A2020382020392020322020302020202020200A2020392031302020312020302020202020200A2031302031312020322020302020202020200A2031312031322020312020302020202020200A2020372031322020322020302020202020200A2020342020372020312020302020202020200A2020312031332020312020302020202020200A4D2020454E44
Contributor: MASS SPECTROSCOPY SOC. OF JAPAN (MSSJ)
InstType: EI
InstName: VARIAN MAT-44S
IoniMethod: _ENERGY 75 eV
IonPolarity: pos
Date: 2010-10-09 19:48:36+02:00
Num Peaks: 59
41 60 42 11 43 16 50 62 51 91 52 48 53 14 54 6 57 30 58 48 
61 13 62 40 63 85 64 25 65 43 66 14 67 11 68 32 70 21 71 63 
74 33 75 39 76 63 77 56 78 17 84 28 85 115 86 18 87 20 88 23 
89 71 90 0 91 15 101 14 102 91 103 30 104 11 113 24 114 45 115 351 
116 128 117 43 126 18 127 19 128 14 130 63 140 34 141 27 142 98 143 363 
144 42 152 12 153 30 154 12 168 29 169 21 170 999 171 143 172 11 
