Name: TETRAMETHYLENEDIAMINE
MW: 88
Formula: C4H12N2
Synonym: MassBank: JP003996
Synonym: TETRAMETHYLENEDIAMINE
Structure: 310A31360A54455452414D455448594C454E454449414D494E452E6D6F6C0A20204368656D447261773038313231303037333032440A2020362020352020302020302020302020302020302020302020302020303939392056323030300A2020202D312E3037313720202020302E3230363320202020302E303030302043202020302020302020302020302020302020302020302020302020302020302020302020300A2020202D302E333537322020202D302E3230363320202020302E303030302043202020302020302020302020302020302020302020302020302020302020302020302020300A20202020302E3335373220202020302E3230363320202020302E303030302043202020302020302020302020302020302020302020302020302020302020302020302020300A20202020312E303731372020202D302E3230363220202020302E303030302043202020302020302020302020302020302020302020302020302020302020302020302020300A2020202D312E373836322020202D302E3230363320202020302E30303030204E202020302020302020302020302020302020302020302020302020302020302020302020300A20202020312E3738363220202020302E3230363320202020302E30303030204E202020302020302020302020302020302020302020302020302020302020302020302020300A2020312020322020312020302020202020200A2020322020332020312020302020202020200A2020332020342020312020302020202020200A2020312020352020312020302020202020200A2020342020362020312020302020202020200A4D2020454E44
Contributor: MASS SPECTROSCOPY SOC. OF JAPAN (MSSJ)
InstType: EI
InstName: HITACHI RMU-6L
IoniMethod: _ENERGY 70 eV
IonPolarity: pos
Date: 2010-10-09 19:48:36+02:00
Num Peaks: 24
14 15 15 17 16 10 17 2 18 83 26 12 27 50 28 24 30 999 31 109 
32 16 39 3 40 12 41 69 42 80 43 33 44 58 45 93 54 10 56 2 
59 86 70 35 71 22 88 20 
