Name: ETHYLHYDRAZONE ACETONE
MW: 100
Formula: C5H12N2
Synonym: MassBank: JP000820
Synonym: ETHYLHYDRAZONE ACETONE
Synonym: ACETONE ETHYLHYDRAZONE
Structure: 310A31380A455448594C48594452415A4F4E4520414345544F4E452E6D6F6C0A20204368656D447261773036323431303138303732440A2020372020362020302020302020302020302020302020302020302020303939392056323030300A20202020312E373836322020202D302E3631383820202020302E303030302043202020302020302020302020302020302020302020302020302020302020302020302020300A20202020312E303731372020202D302E3230363220202020302E303030302043202020302020302020302020302020302020302020302020302020302020302020302020300A20202020312E3037313720202020302E3631383820202020302E303030302043202020302020302020302020302020302020302020302020302020302020302020302020300A20202020302E333537322020202D302E3631383820202020302E30303030204E202020302020302020302020302020302020302020302020302020302020302020302020300A2020202D302E333537322020202D302E3230363220202020302E30303030204E202020302020302020302020302020302020302020302020302020302020302020302020300A2020202D312E303731372020202D302E3631383820202020302E303030302043202020302020302020302020302020302020302020302020302020302020302020302020300A2020202D312E373836322020202D302E3230363220202020302E303030302043202020302020302020302020302020302020302020302020302020302020302020302020300A2020312020322020312020302020202020200A2020322020332020312020302020202020200A2020342020352020312020302020202020200A2020362020372020312020302020202020200A2020352020362020312020302020202020200A2020322020342020322020302020202020200A4D2020454E44
Contributor: SASAKI S, TOYOHASHI UNIV. OF TECH.
InstType: EI
InstName: SHIMADZU LKB-2091
IoniMethod: _ENERGY 70 eV
IonPolarity: pos
Date: 2010-10-09 19:48:36+02:00
Num Peaks: 24
28 130 29 104 30 130 31 2 38 8 39 91 40 35 41 11 42 156 43 53 
44 156 45 2 54 34 55 22 56 999 57 7 58 19 71 47 72 42 85 64 
86 39 99 35 100 403 101 44 
