Name: MassBank: JP006722
MW: 261
Formula: C15H19NO3
Synonym: MassBank: JP006722
Synonym: N-(2,2-DIDEUTERO-3-(4-METHOXYPHENYL)PROPIONYL)PIPERIDIN-2-ONE
Structure: 313139315F4E2D28322C322D44494445555445524F2D332D28342D4D4554484F58595048454E594C2950524F50494F4E594C2950495045524944494E2D322D4F4E452E6D6F6C0A20204368656D447261773039303731303131333732440A2032312032322020302020302020302020302020302020302020302020303939392056323030300A20202020302E393235332020202D312E3636393520202020302E30303030204E202020302020302020302020302020302020302020302020302020302020302020302020300A20202020312E363339332020202D322E3038313720202020302E303030302043202020302020302020302020302020302020302020302020302020302020302020302020300A20202020312E363339332020202D322E3930363720202020302E303030302043202020302020302020302020302020302020302020302020302020302020302020302020300A20202020302E393234382020202D332E3331393220202020302E303030302043202020302020302020302020302020302020302020302020302020302020302020302020300A20202020302E323130342020202D322E3930363720202020302E303030302043202020302020302020302020302020302020302020302020302020302020302020302020300A20202020302E323130342020202D322E3038313720202020302E303030302043202020302020302020302020302020302020302020302020302020302020302020302020300A20202020322E333534352020202D312E3637303420202020302E30303030204F202020302020302020302020302020302020302020302020302020302020302020302020300A20202020302E393234382020202D302E3834343320202020302E303030302043202020302020302020302020302020302020302020302020302020302020302020302020300A20202020312E363339332020202D302E3433323920202020302E30303030204F202020302020302020302020302020302020302020302020302020302020302020302020300A20202020302E323130342020202D302E3433313820202020302E303030302043202020302020302020302020302020302020302020302020302020302020302020302020300A20202020302E3231303420202020302E3339333220202020302E303030302043202020302020302020302020302020302020302020302020302020302020302020302020300A2020202D302E3239323020202020312E3137353820202020302E303030302043202020302020302020302020302020302020302020302020302020302020302020302020300A20202020302E3132303520202020312E3839303320202020302E303030302043202020302020302020302020302020302020302020302020302020302020302020302020300A2020202D302E3239323020202020322E3630343720202020302E303030302043202020302020302020302020302020302020302020302020302020302020302020302020300A2020202D312E3131373020202020322E3630343720202020302E303030302043202020302020302020302020302020302020302020302020302020302020302020302020300A2020202D312E3532393520202020312E3839303320202020302E303030302043202020302020302020302020302020302020302020302020302020302020302020302020300A2020202D312E3131373020202020312E3137353820202020302E303030302043202020302020302020302020302020302020302020302020302020302020302020302020300A2020202D312E3532393520202020332E3331393220202020302E30303030204F202020302020302020302020302020302020302020302020302020302020302020302020300A2020202D322E3335343520202020332E3331393220202020302E303030302043202020302020302020302020302020302020302020302020302020302020302020302020300A2020202D302E353034312020202D302E3834343320202020302E303030302048202020312020302020302020302020302020302020302020302020302020302020302020300A20202020302E393234392020202D302E3031393320202020302E303030302048202020312020302020302020302020302020302020302020302020302020302020302020300A2020312020322020312020302020202020200A2020322020332020312020302020202020200A2020332020342020312020302020202020200A2020342020352020312020302020202020200A2020352020362020312020302020202020200A2020312020362020312020302020202020200A2020322020372020322020302020202020200A2020382020392020322020302020202020200A2020382031302020312020302020202020200A2031302031312020312020302020202020200A2031312031322020312020302020202020200A2020312020382020312020302020202020200A2031322031332020322020302020202020200A2031332031342020312020302020202020200A2031342031352020322020302020202020200A2031352031362020312020302020202020200A2031362031372020322020302020202020200A2031322031372020312020302020202020200A2031352031382020312020302020202020200A2031382031392020312020302020202020200A2031302032302020312020312020202020200A2031302032312020312020312020202020200A4D202049534F202032202032302020203220203231202020320A4D2020454E44
Contributor: MASS SPECTROSCOPY SOC. OF JAPAN (MSSJ)
InstType: EI
InstName: HITACHI RMU-6G
IoniMethod: _ENERGY 20 eV
IonPolarity: pos
Date: 2010-10-09 19:48:36+02:00
Num Peaks: 33
55 20 56 10 57 10 77 10 78 10 82 10 91 10 92 10 93 20 98 15 
99 25 100 40 101 170 102 20 105 10 106 10 107 15 108 10 109 10 120 15 
121 250 122 40 132 25 134 10 135 100 136 999 137 120 162 20 163 60 164 20 
263 210 264 55 265 10 
