Name: 4-ISOPROPYL-2-CYCLOHEXENONE
MW: 138
Formula: C9H14O
Synonym: MassBank: JP002480
Synonym: 4-ISOPROPYL-2-CYCLOHEXENONE
Synonym: CRYPTONE
Structure: 342D49534F50524F50594C2D322D4359434C4F484558454E4F4E452E6D6F6C0A20204368656D447261773034323031303131303532440A2031302031302020302020302020302020302020302020302020302020303939392056323030300A20202020312E3033313320202020302E3030303020202020302E303030302043202020302020302020302020302020302020302020302020302020302020302020302020300A20202020302E363138382020202D302E3731343520202020302E303030302043202020302020302020302020302020302020302020302020302020302020302020302020300A2020202D302E323036322020202D302E3731343520202020302E303030302043202020302020302020302020302020302020302020302020302020302020302020302020300A2020202D302E3631383820202020302E3030303020202020302E303030302043202020302020302020302020302020302020302020302020302020302020302020302020300A2020202D302E3230363220202020302E3731343520202020302E303030302043202020302020302020302020302020302020302020302020302020302020302020302020300A20202020302E3631383820202020302E3731343520202020302E303030302043202020302020302020302020302020302020302020302020302020302020302020302020300A2020202D312E3434333720202020302E3030303020202020302E303030302043202020302020302020302020302020302020302020302020302020302020302020302020300A2020202D312E3835363220202020302E3731343520202020302E303030302043202020302020302020302020302020302020302020302020302020302020302020302020300A2020202D312E383536332020202D302E3731343520202020302E303030302043202020302020302020302020302020302020302020302020302020302020302020302020300A20202020312E3835363320202020302E3030303020202020302E30303030204F202020302020302020302020302020302020302020302020302020302020302020302020300A2020312020322020312020302020202020200A2020322020332020322020302020202020200A2020332020342020312020302020202020200A2020342020352020312020302020202020200A2020352020362020312020302020202020200A2020312020362020312020302020202020200A2020372020382020312020302020202020200A2020372020392020312020302020202020200A2020342020372020312020302020202020200A2020312031302020322020302020202020200A4D2020454E44
Contributor: MASS SPECTROSCOPY SOC. OF JAPAN (MSSJ)
InstType: EI
InstName: JEOL JMS-D-3000
IoniMethod: _ENERGY 70 eV
IonPolarity: pos
Date: 2010-10-09 19:48:36+02:00
Num Peaks: 29
42 330 43 427 51 30 53 58 54 46 55 120 56 27 65 52 66 79 67 245 
68 159 69 39 70 25 77 43 79 43 81 208 82 65 83 70 94 30 95 587 
96 999 97 167 109 32 110 39 120 35 121 50 123 57 138 236 139 23 
