Name: MassBank: JP004886
MW: 164
Formula: C11H16O
Synonym: MassBank: JP004886
Synonym: 1,6,6-TRIMETHYLBICYCLO(3.3.0)OCT-7-EN-2-ONE
Structure: 312C362C362D5452494D455448594C42494359434C4F28332E332E30294F43542D372D454E2D322D4F4E452E6D6F6C0A20204368656D447261773131313630393133303632440A2031342031352020302020302020302020302020302020302020302020303939392056323030300A20202020302E3431323520202020302E3339373020202020302E303030302043202020302020302020302020302020302020302020302020302020302020302020302020300A20202020312E3139373120202020302E3635323020202020302E303030302043202020302020302020302020302020302020302020302020302020302020302020302020300A20202020312E363832302020202D302E3031353520202020302E303030302043202020302020302020302020302020302020302020302020302020302020302020302020300A20202020312E313937312020202D302E3638323920202020302E303030302043202020302020302020302020302020302020302020302020302020302020302020302020300A20202020302E343132352020202D302E3432383020202020302E303030302043202020302020302020302020302020302020302020302020302020302020302020302020300A2020202D302E333732312020202D302E3638323920202020302E303030302043202020302020302020302020302020302020302020302020302020302020302020302020300A2020202D302E383537302020202D302E3031353520202020302E303030302043202020302020302020302020302020302020302020302020302020302020302020302020300A2020202D302E3337323120202020302E3635323020202020302E303030302043202020302020302020302020302020302020302020302020302020302020302020302020300A20202020312E3435323120202020312E3433363620202020302E30303030204F202020302020302020302020302020302020302020302020302020302020302020302020300A2020202D312E303836362020202D312E3039353420202020302E303030302043202020302020302020302020302020302020302020302020302020302020302020302020300A2020202D302E303336362020202D312E3433363620202020302E303030302043202020302020302020302020302020302020302020302020302020302020302020302020300A20202020302E3431323520202020312E3232323020202020302E303030302043202020302020302020302020302020302020302020302020302020302020302020302020300A2020202D312E363832302020202D302E3031353520202020302E303030302048202020302020302020302020302020302020302020302020302020302020302020302020300A2020202D302E3632373120202020312E3433363620202020302E303030302048202020302020302020302020302020302020302020302020302020302020302020302020300A2020312020322020312020302020202020200A2020322020332020312020302020202020200A2020332020342020312020302020202020200A2020342020352020312020302020202020200A2020352020362020312020302020202020200A2020362020372020312020302020202020200A2020372020382020322020302020202020200A2020312020382020312020302020202020200A2020312020352020312020302020202020200A2020322020392020322020302020202020200A2020362031302020312020312020202020200A2020362031312020312020362020202020200A2020312031322020312020302020202020200A2020372031332020312020302020202020200A2020382031342020312020302020202020200A4D2020454E44
Contributor: KATO T, DEPT. OF CHEM., FAC. OF SCI., TOHOKU UNIV.
InstType: EI
InstName: Unknown
IoniMethod: _ENERGY 25 eV
IonPolarity: pos
Date: 2010-10-09 19:48:36+02:00
Num Peaks: 29
29 34 32 172 41 43 43 4 55 43 67 26 77 69 79 10 91 155 93 983 
94 103 105 12 106 34 107 328 108 999 109 31 110 26 120 172 121 319 122 17 
123 26 124 43 131 43 135 5 136 86 146 69 149 26 164 24 165 34 
