Name: MassBank: JP002350
MW: 214
Formula: C9H22Si3
Synonym: MassBank: JP002350
Synonym: 2-ETHYNYL-1,1,1,2,3,3,3-HEPTAMETHYLTRISILANE
Structure: 322D455448594E594C2D312C312C312C322C332C332C332D48455054414D455448594C54524953494C414E452E6D6F6C0A20204368656D447261773031303331303133313132440A2031322031312020302020302020302020302020302020302020302020303939392056323030300A2020202D302E3832353020202020302E3431323520202020302E303030302053692020302020302020302020302020302020302020302020302020302020302020302020300A20202020302E3030303020202020302E3431323520202020302E303030302053692020302020302020302020302020302020302020302020302020302020302020302020300A20202020302E3832353020202020302E3431323520202020302E303030302053692020302020302020302020302020302020302020302020302020302020302020302020300A20202020312E3635303020202020302E3431323520202020302E303030302043202020302020302020302020302020302020302020302020302020302020302020302020300A20202020302E383235302020202D302E3431323520202020302E303030302043202020302020302020302020302020302020302020302020302020302020302020302020300A20202020302E3832353020202020312E3233373520202020302E303030302043202020302020302020302020302020302020302020302020302020302020302020302020300A20202020302E3030303020202020312E3233373520202020302E303030302043202020302020302020302020302020302020302020302020302020302020302020302020300A2020202D302E3832353020202020312E3233373520202020302E303030302043202020302020302020302020302020302020302020302020302020302020302020302020300A2020202D312E3635303020202020302E3431323520202020302E303030302043202020302020302020302020302020302020302020302020302020302020302020302020300A2020202D302E383235302020202D302E3431323520202020302E303030302043202020302020302020302020302020302020302020302020302020302020302020302020300A20202020302E303030302020202D302E3431323520202020302E303030302043202020302020302020302020302020302020302020302020302020302020302020302020300A20202020302E303030302020202D312E3233373520202020302E303030302043202020302020302020302020302020302020302020302020302020302020302020302020300A2020322020312020312020312020202020200A2020322020332020312020312020202020200A2020332020342020312020302020202020200A2020332020352020312020302020202020200A2020332020362020312020302020202020200A2020322020372020312020302020202020200A2020312020382020312020302020202020200A2020312020392020312020302020202020200A2020312031302020312020302020202020200A2031312031322020332020302020202020200A2020322031312020312020302020202020200A4D2020454E44
Contributor: MASS SPECTROSCOPY SOC. OF JAPAN (MSSJ)
InstType: EI
InstName: JEOL JMS-D-3000
IoniMethod: _ENERGY 70 eV
IonPolarity: pos
Date: 2010-10-09 19:48:36+02:00
Num Peaks: 50
43 47 45 121 46 11 53 15 55 21 59 19 67 19 69 25 71 10 72 10 
73 999 74 68 75 58 81 12 83 106 84 14 85 37 95 10 97 21 99 31 
101 114 102 17 111 137 112 22 113 24 115 39 116 663 117 105 118 53 125 64 
126 74 127 23 129 20 131 28 139 12 140 172 141 246 142 54 143 21 155 196 
156 37 157 21 171 16 183 11 199 326 200 84 201 43 214 247 215 69 216 32 
