Name: MassBank: JP008128
MW: 238
Formula: C16H30O
Synonym: MassBank: JP008128
Synonym: (7Z,11Z)-7,11-HEXADECADIENOL
Structure: 28375A2C31315A292D372C31312D48455841444543414449454E4F4C2E6D6F6C0A20204368656D447261773130323230393034353832440A2032312032302020302020302020302020302020302020302020302020303939392056323030300A2020202D322E3134333420202020312E3635303020202020302E303030302043202020302020302020302020302020302020302020302020302020302020302020302020300A2020202D312E3432383920202020322E3036323520202020302E303030302043202020302020302020302020302020302020302020302020302020302020302020302020300A2020202D322E3835373920202020322E3036323520202020302E303030302048202020302020302020302020302020302020302020302020302020302020302020302020300A2020202D322E3134333420202020302E3832353020202020302E303030302043202020302020302020302020302020302020302020302020302020302020302020302020300A2020202D322E3835373920202020302E3431323520202020302E303030302043202020302020302020302020302020302020302020302020302020302020302020302020300A2020202D322E383537392020202D302E3431323520202020302E303030302043202020302020302020302020302020302020302020302020302020302020302020302020300A2020202D332E353732342020202D302E3832353020202020302E303030302043202020302020302020302020302020302020302020302020302020302020302020302020300A2020202D332E353732342020202D312E3635303020202020302E303030302043202020302020302020302020302020302020302020302020302020302020302020302020300A2020202D342E323836382020202D322E3036323520202020302E303030302043202020302020302020302020302020302020302020302020302020302020302020302020300A2020202D342E323836382020202D322E3838373520202020302E30303030204F202020302020302020302020302020302020302020302020302020302020302020302020300A2020202D302E3731343520202020312E3635303020202020302E303030302043202020302020302020302020302020302020302020302020302020302020302020302020300A2020202D312E3432383920202020322E3838373520202020302E303030302048202020302020302020302020302020302020302020302020302020302020302020302020300A2020202D302E3030303020202020322E3036323520202020302E303030302043202020302020302020302020302020302020302020302020302020302020302020302020300A20202020302E3731343520202020312E3635303020202020302E303030302043202020302020302020302020302020302020302020302020302020302020302020302020300A20202020312E3432383920202020322E3036323520202020302E303030302043202020302020302020302020302020302020302020302020302020302020302020302020300A20202020302E3731343520202020302E3832353020202020302E303030302048202020302020302020302020302020302020302020302020302020302020302020302020300A20202020322E3134333420202020312E3635303020202020302E303030302043202020302020302020302020302020302020302020302020302020302020302020302020300A20202020312E3432383920202020322E3838373520202020302E303030302048202020302020302020302020302020302020302020302020302020302020302020302020300A20202020322E3835373920202020322E3036323520202020302E303030302043202020302020302020302020302020302020302020302020302020302020302020302020300A20202020332E3537323420202020312E3635303020202020302E303030302043202020302020302020302020302020302020302020302020302020302020302020302020300A20202020342E3238363820202020322E3036323520202020302E303030302043202020302020302020302020302020302020302020302020302020302020302020302020300A2020312020322020322020302020202020200A2020312020332020312020302020202020200A2020312020342020312020302020202020200A2020342020352020312020302020202020200A2020352020362020312020302020202020200A2020362020372020312020302020202020200A2020372020382020312020302020202020200A2020382020392020312020302020202020200A2020392031302020312020302020202020200A2020322031312020312020302020202020200A2020322031322020312020302020202020200A2031312031332020312020302020202020200A2031332031342020312020302020202020200A2031342031352020322020302020202020200A2031342031362020312020302020202020200A2031352031372020312020302020202020200A2031352031382020312020302020202020200A2031372031392020312020302020202020200A2031392032302020312020302020202020200A2032302032312020312020302020202020200A4D2020454E44
Contributor: YAMAOKA R, KYOTO INSTITUTE OF TECHNOLOGY
InstType: EI
InstName: HITACHI M-80
IoniMethod: _ENERGY 70 eV
IonPolarity: pos
Date: 2010-10-09 19:48:36+02:00
Num Peaks: 45
41 392 42 23 43 135 45 15 53 64 54 207 55 999 56 60 57 30 58 16 
65 20 66 17 67 369 68 119 69 157 70 21 71 44 73 14 77 31 79 96 
80 86 81 455 82 138 83 24 85 29 91 14 93 57 94 41 95 153 96 171 
97 204 98 38 107 42 109 30 110 41 111 17 121 24 122 13 123 54 124 53 
137 38 138 23 151 10 238 63 239 11 
