Name: MassBank: JP002690
MW: 460
Formula: C25H56O3Si2
Synonym: MassBank: JP002690
Synonym: 1-HEXADECYL-2,3-DITRIMETHYLSILYLGLYCEROL
Structure: 312D48455841444543594C2D322C332D44495452494D455448594C53494C594C474C594345524F4C2E6D6F6C0A20204368656D447261773131313930393134343332440A2033302032392020302020302020302020302020302020302020302020303939392056323030300A2020202D312E383030392020202D342E3238363720202020302E30303030204F202020302020302020302020302020302020302020302020302020302020302020302020300A2020202D312E333838352020202D352E3030313120202020302E303030302043202020302020302020302020302020302020302020302020302020302020302020302020300A2020202D302E353633352020202D352E3030313120202020302E303030302043202020302020302020302020302020302020302020302020302020302020302020302020300A2020202D302E313531302020202D342E3238363720202020302E30303030204F202020302020302020302020302020302020302020302020302020302020302020302020300A2020202D302E313531302020202D352E3731353620202020302E303030302043202020302020302020302020302020302020302020302020302020302020302020302020300A20202020302E363734302020202D352E3731353620202020302E30303030204F202020302020302020302020302020302020302020302020302020302020302020302020300A20202020312E303836352020202D362E3433303020202020302E303030302053692020302020302020302020302020302020302020302020302020302020302020302020300A20202020312E383030392020202D362E3031373520202020302E303030302043202020302020302020302020302020302020302020302020302020302020302020302020300A20202020312E343939302020202D372E3134343520202020302E303030302043202020302020302020302020302020302020302020302020302020302020302020302020300A20202020302E333732302020202D362E3834323520202020302E303030302043202020302020302020302020302020302020302020302020302020302020302020302020300A20202020302E363734302020202D342E3238363720202020302E303030302053692020302020302020302020302020302020302020302020302020302020302020302020300A20202020312E343939302020202D342E3238363720202020302E303030302043202020302020302020302020302020302020302020302020302020302020302020302020300A20202020302E363734302020202D352E3131313620202020302E303030302043202020302020302020302020302020302020302020302020302020302020302020302020300A20202020302E363734302020202D332E3436313720202020302E303030302043202020302020302020302020302020302020302020302020302020302020302020302020300A2020202D312E333838352020202D332E3537323320202020302E303030302043202020302020302020302020302020302020302020302020302020302020302020302020300A2020202D312E383030392020202D322E3835373820202020302E303030302043202020302020302020302020302020302020302020302020302020302020302020302020300A2020202D312E333838352020202D322E3134333320202020302E303030302043202020302020302020302020302020302020302020302020302020302020302020302020300A2020202D312E383030392020202D312E3432383920202020302E303030302043202020302020302020302020302020302020302020302020302020302020302020302020300A2020202D312E333838352020202D302E3731343520202020302E303030302043202020302020302020302020302020302020302020302020302020302020302020302020300A2020202D312E3830303920202020302E3030303020202020302E303030302043202020302020302020302020302020302020302020302020302020302020302020302020300A2020202D312E3338383520202020302E3731343520202020302E303030302043202020302020302020302020302020302020302020302020302020302020302020302020300A2020202D312E3830303920202020312E3432383920202020302E303030302043202020302020302020302020302020302020302020302020302020302020302020302020300A2020202D312E3338383520202020322E3134333320202020302E303030302043202020302020302020302020302020302020302020302020302020302020302020302020300A2020202D312E3830303920202020322E3835373820202020302E303030302043202020302020302020302020302020302020302020302020302020302020302020302020300A2020202D312E3338383520202020332E3537323320202020302E303030302043202020302020302020302020302020302020302020302020302020302020302020302020300A2020202D312E3830303920202020342E3238363720202020302E303030302043202020302020302020302020302020302020302020302020302020302020302020302020300A2020202D312E3338383520202020352E3030313120202020302E303030302043202020302020302020302020302020302020302020302020302020302020302020302020300A2020202D312E3830303920202020352E3731353620202020302E303030302043202020302020302020302020302020302020302020302020302020302020302020302020300A2020202D312E3338383520202020362E3433303020202020302E303030302043202020302020302020302020302020302020302020302020302020302020302020302020300A2020202D312E3830303920202020372E3134343520202020302E303030302043202020302020302020302020302020302020302020302020302020302020302020302020300A2020312020322020312020302020202020200A2020322020332020312020302020202020200A2020332020342020312020302020202020200A2020332020352020312020302020202020200A2020352020362020312020302020202020200A2020372020382020312020302020202020200A2020372020392020312020302020202020200A2020372031302020312020302020202020200A2020362020372020312020302020202020200A2031312031322020312020302020202020200A2031312031332020312020302020202020200A2031312031342020312020302020202020200A2020342031312020312020302020202020200A2031352031362020312020302020202020200A2031362031372020312020302020202020200A2031372031382020312020302020202020200A2031382031392020312020302020202020200A2031392032302020312020302020202020200A2032302032312020312020302020202020200A2032312032322020312020302020202020200A2032322032332020312020302020202020200A2032332032342020312020302020202020200A2032342032352020312020302020202020200A2032352032362020312020302020202020200A2032362032372020312020302020202020200A2032372032382020312020302020202020200A2032382032392020312020302020202020200A2032392033302020312020302020202020200A2020312031352020312020302020202020200A4D2020454E44
Contributor: HAYASHI A, DEPT. OF CHEMISTRY, FAC. OF SCI. AND TECHNOLOGY, KINKI UNIV.
InstType: EI
InstName: SHIMADZU LKB-9000B
IoniMethod: _ENERGY 20 eV
IonPolarity: pos
Date: 2010-10-09 19:48:36+02:00
Num Peaks: 25
71 30 73 16 75 2 85 4 117 198 118 23 119 2 129 69 130 202 131 126 
132 3 133 263 134 30 135 14 137 0 145 17 149 3 206 194 207 82 208 1 
313 76 314 2 445 38 446 13 447 5 
