Name: 2-ETHOXY-4-FORMYLPHENOL
MW: 166
Formula: C9H10O3
Synonym: MassBank: JP008297
Synonym: 2-ETHOXY-4-FORMYLPHENOL
Structure: 322D4554484F58592D342D464F524D594C5048454E4F4C2E6D6F6C0A20204368656D447261773031303331303132323932440A2031322031322020302020302020302020302020302020302020302020303939392056323030300A20202020302E333537322020202D302E3431323520202020302E303030302043202020302020302020302020302020302020302020302020302020302020302020302020300A20202020302E3335373220202020302E3431323520202020302E303030302043202020302020302020302020302020302020302020302020302020302020302020302020300A2020202D302E3335373220202020302E3832353020202020302E303030302043202020302020302020302020302020302020302020302020302020302020302020302020300A2020202D312E3037313720202020302E3431323520202020302E303030302043202020302020302020302020302020302020302020302020302020302020302020302020300A2020202D312E303731372020202D302E3431323520202020302E303030302043202020302020302020302020302020302020302020302020302020302020302020302020300A2020202D302E333537322020202D302E3832353020202020302E303030302043202020302020302020302020302020302020302020302020302020302020302020302020300A2020202D312E3738363220202020302E3832353020202020302E303030302043202020302020302020302020302020302020302020302020302020302020302020302020300A2020202D322E3530303620202020302E3431323520202020302E30303030204F202020302020302020302020302020302020302020302020302020302020302020302020300A20202020312E3037313720202020302E3832353020202020302E30303030204F202020302020302020302020302020302020302020302020302020302020302020302020300A20202020312E3738363220202020302E3431323520202020302E303030302043202020302020302020302020302020302020302020302020302020302020302020302020300A20202020322E3530303620202020302E3832353020202020302E303030302043202020302020302020302020302020302020302020302020302020302020302020302020300A20202020312E303731372020202D302E3832353020202020302E30303030204F202020302020302020302020302020302020302020302020302020302020302020302020300A2020312020322020312020302020202020200A2020322020332020322020302020202020200A2020332020342020312020302020202020200A2020342020352020322020302020202020200A2020352020362020312020302020202020200A2020312020362020322020302020202020200A2020372020382020322020302020202020200A2020342020372020312020302020202020200A2031302031312020312020302020202020200A2020392031302020312020302020202020200A2020322020392020312020302020202020200A2020312031322020312020302020202020200A4D2020454E44
Contributor: UBE SCIENTIFIC ANALYSIS LABORATORY
InstType: EI
InstName: HITACHI M-60
IoniMethod: _ENERGY 70 eV
IonPolarity: pos
Date: 2010-10-09 19:48:36+02:00
Num Peaks: 91
14 6 15 21 19 2 25 3 26 53 27 323 28 29 29 498 30 11 31 9 
37 19 38 47 39 130 40 9 41 11 42 9 43 33 44 1 45 22 46 1 
47 1 49 13 50 91 51 154 52 137 53 211 54 36 55 80 56 4 57 5 
60 14 61 10 62 45 63 109 64 64 65 71 66 18 67 12 68 3 69 10 
71 1 73 2 74 9 75 19 76 3 77 18 78 5 79 67 80 40 81 314 
82 72 83 4 87 30 89 1 90 3 91 47 92 37 93 14 94 5 95 13 
96 2 103 1 105 5 107 16 108 37 109 348 110 79 111 9 115 21 119 13 
120 9 121 16 122 3 123 10 124 1 135 4 136 116 137 999 138 661 139 72 
140 9 147 1 149 10 150 1 163 2 164 1 165 23 166 661 167 126 168 14 
169 1 
