Name: (3-METHYLTHIO)BENZYL BENZOATE
MW: 258
Formula: C15H14O2S
Synonym: MassBank: JP009672
Synonym: (3-METHYLTHIO)BENZYL BENZOATE
Structure: 28332D4D455448594C5448494F2942454E5A594C2042454E5A4F4154452E6D6F6C0A20204368656D447261773130323030393233303732440A2031382031392020302020302020302020302020302020302020302020303939392056323030300A2020202D322E383537392020202D302E3631393020202020302E303030302043202020302020302020302020302020302020302020302020302020302020302020302020300A2020202D322E313433342020202D312E3033313520202020302E303030302043202020302020302020302020302020302020302020302020302020302020302020302020300A2020202D312E343238392020202D302E3631393020202020302E303030302043202020302020302020302020302020302020302020302020302020302020302020302020300A2020202D312E3432383920202020302E3230363020202020302E303030302043202020302020302020302020302020302020302020302020302020302020302020302020300A2020202D322E3134333420202020302E3631383520202020302E303030302043202020302020302020302020302020302020302020302020302020302020302020302020300A2020202D322E3835373920202020302E3230363020202020302E303030302043202020302020302020302020302020302020302020302020302020302020302020302020300A2020202D302E373134352020202D312E3033313520202020302E303030302043202020302020302020302020302020302020302020302020302020302020302020302020300A20202020302E303030302020202D302E3631393020202020302E30303030204F202020302020302020302020302020302020302020302020302020302020302020302020300A20202020302E373134352020202D312E3033313520202020302E303030302043202020302020302020302020302020302020302020302020302020302020302020302020300A2020202D302E373134352020202D312E3835363520202020302E30303030204F202020302020302020302020302020302020302020302020302020302020302020302020300A20202020312E343238392020202D302E3631393020202020302E303030302043202020302020302020302020302020302020302020302020302020302020302020302020300A20202020322E313433342020202D312E3033313520202020302E303030302043202020302020302020302020302020302020302020302020302020302020302020302020300A20202020322E383537392020202D302E3631393020202020302E303030302043202020302020302020302020302020302020302020302020302020302020302020302020300A20202020322E3835373920202020302E3230363020202020302E303030302043202020302020302020302020302020302020302020302020302020302020302020302020300A20202020322E3134333420202020302E3631383520202020302E303030302043202020302020302020302020302020302020302020302020302020302020302020302020300A20202020312E3432383920202020302E3230363020202020302E303030302043202020302020302020302020302020302020302020302020302020302020302020302020300A20202020322E3134333420202020312E3434333520202020302E303030302053202020302020302020302020302020302020302020302020302020302020302020302020300A20202020312E3632303920202020312E3835363520202020302E303030302043202020302020302020302020302020302020302020302020302020302020302020302020300A2020312020322020322020302020202020200A2020322020332020312020302020202020200A2020332020342020322020302020202020200A2020342020352020312020302020202020200A2020352020362020322020302020202020200A2020362020312020312020302020202020200A2020332020372020312020302020202020200A2020372020382020312020302020202020200A2020382020392020312020302020202020200A2020372031302020322020302020202020200A2020392031312020312020302020202020200A2031312031322020322020302020202020200A2031322031332020312020302020202020200A2031332031342020322020302020202020200A2031342031352020312020302020202020200A2031352031362020322020302020202020200A2031362031312020312020302020202020200A2031352031372020312020302020202020200A2031372031382020312020302020202020200A4D202053545920203120202031205355500A4D2020534C4220203120202031202020310A4D202053414C20202031202031202031380A4D202053424C20202031202031202031390A4D2020534D5420202031204D650A4D2020534256202020312031392020202D382E3135333720202020362E323738340A4D2020454E44
Contributor: THE INSTITUTE OF SCIENTIFIC AND INDUSTRIALRESEARCH
InstType: EI
InstName: JEOL JMS-DX-300
IoniMethod: _ENERGY 70 eV
IonPolarity: pos
Date: 2010-10-09 19:48:36+02:00
Num Peaks: 56
27 27 29 23 38 19 39 5 41 26 43 29 44 43 45 9 50 97 51 210 
52 30 53 1 55 18 57 27 60 10 63 3 65 32 66 13 69 16 71 1 
73 13 74 30 75 23 76 4 77 434 78 86 79 30 83 1 89 35 90 10 
91 60 93 1 94 13 97 12 103 10 104 2 105 999 106 82 107 15 108 1 
109 30 110 12 121 56 122 27 123 42 125 46 135 29 137 10 138 15 151 15 
152 74 153 5 154 18 258 385 259 67 260 25 
