Name: ETHYL 4-NITROPHENYLACETATE
MW: 209
Formula: C10H11NO4
Synonym: MassBank: JP005695
Synonym: ETHYL 4-NITROPHENYLACETATE
Structure: 455448594C20342D4E4954524F5048454E594C414345544154452E6D6F6C0A20204368656D447261773038313131303138313932440A2031352031352020302020302020302020302020302020302020302020303939392056323030300A2020202D312E3738363220202020302E3832353020202020302E303030302043202020302020302020302020302020302020302020302020302020302020302020302020300A2020202D312E3037313720202020312E3233373520202020302E303030302043202020302020302020302020302020302020302020302020302020302020302020302020300A2020202D322E3530303620202020312E3233373520202020302E30303030204F202020302020302020302020302020302020302020302020302020302020302020302020300A2020202D312E3738363220202020302E3030303020202020302E30303030204F202020302020302020302020302020302020302020302020302020302020302020302020300A2020202D302E3335373220202020302E3832353020202020302E303030302043202020302020302020302020302020302020302020302020302020302020302020302020300A20202020302E3335373220202020312E3233373520202020302E303030302043202020302020302020302020302020302020302020302020302020302020302020302020300A20202020312E3037313720202020302E3832353020202020302E303030302043202020302020302020302020302020302020302020302020302020302020302020302020300A20202020312E3037313720202020302E3030303020202020302E303030302043202020302020302020302020302020302020302020302020302020302020302020302020300A20202020302E333537322020202D302E3431323520202020302E303030302043202020302020302020302020302020302020302020302020302020302020302020302020300A2020202D302E333537322020202D302E3030303020202020302E303030302043202020302020302020302020302020302020302020302020302020302020302020302020300A20202020312E373836322020202D302E3431323520202020302E30303030204E202020302020332020302020302020302020302020302020302020302020302020302020300A20202020312E373836322020202D312E3233373520202020302E30303030204F202020302020302020302020302020302020302020302020302020302020302020302020300A20202020322E3530303620202020302E3030303020202020302E30303030204F202020302020352020302020302020302020302020302020302020302020302020302020300A2020202D322E353030362020202D302E3431323520202020302E303030302043202020302020302020302020302020302020302020302020302020302020302020302020300A2020202D322E353030362020202D312E3233373520202020302E303030302043202020302020302020302020302020302020302020302020302020302020302020302020300A2020312020322020312020302020202020200A2020312020332020322020302020202020200A2020312020342020312020302020202020200A2020352020362020312020302020202020200A2020362020372020322020302020202020200A2020372020382020312020302020202020200A2020382020392020322020302020202020200A2020392031302020312020302020202020200A2020352031302020322020302020202020200A2020322020352020312020302020202020200A2031312031322020322020302020202020200A2031312031332020312020302020202020200A2020382031312020312020302020202020200A2031342031352020312020302020202020200A2020342031342020312020302020202020200A4D202043484720203220203131202020312020313320202D310A4D2020454E44
Contributor: MASS SPECTROSCOPY SOC. OF JAPAN (MSSJ)
InstType: EI
InstName: HITACHI M-80
IoniMethod: _ENERGY 70 eV
IonPolarity: pos
Date: 2010-10-09 19:48:36+02:00
Num Peaks: 84
15 13 18 15 26 18 27 151 28 32 29 999 30 256 31 10 38 23 39 104 
40 21 41 45 42 10 43 336 44 14 45 26 46 11 50 41 51 77 52 44 
53 13 55 6 61 10 62 61 63 230 64 95 65 26 66 5 73 19 74 12 
75 15 76 12 77 101 78 409 79 74 80 7 85 4 86 12 87 18 88 13 
89 551 90 541 91 135 92 12 93 5 103 6 104 8 105 15 106 202 107 385 
108 30 109 4 117 20 118 9 119 90 120 194 121 49 122 6 133 15 134 6 
135 42 136 677 137 988 138 83 139 7 147 3 148 17 149 4 150 12 151 2 
163 26 164 138 165 42 166 6 181 50 182 14 183 2 193 32 194 7 207 3 
208 5 209 407 210 110 211 13 
