Name: 2-CYCLOHEXEN-1-OL
MW: 98
Formula: C6H10O
Synonym: MassBank: JP006563
Synonym: 2-CYCLOHEXEN-1-OL
Structure: 310A31390A322D4359434C4F484558454E2D312D4F4C2E6D6F6C0A20204368656D447261773031303331303132303832440A2020372020372020302020302020302020302020302020302020302020303939392056323030300A2020202D302E3431323520202020302E3030303020202020302E303030302043202020302020302020302020302020302020302020302020302020302020302020302020300A20202020302E3030303020202020302E3731343520202020302E303030302043202020302020302020302020302020302020302020302020302020302020302020302020300A20202020302E3832353020202020302E3731343520202020302E303030302043202020302020302020302020302020302020302020302020302020302020302020302020300A20202020312E323337352020202D302E3030303020202020302E303030302043202020302020302020302020302020302020302020302020302020302020302020302020300A20202020302E383235302020202D302E3731343520202020302E303030302043202020302020302020302020302020302020302020302020302020302020302020302020300A20202020302E303030302020202D302E3731343520202020302E303030302043202020302020302020302020302020302020302020302020302020302020302020302020300A2020202D312E3233373520202020302E3030303020202020302E30303030204F202020302020302020302020302020302020302020302020302020302020302020302020300A2020312020322020312020302020202020200A2020322020332020322020302020202020200A2020332020342020312020302020202020200A2020342020352020312020302020202020200A2020352020362020312020302020202020200A2020312020362020312020302020202020200A2020312020372020312020302020202020200A4D2020454E44
Contributor: HISAHIRO HAGIWARA, CHEMICAL RESEARCH INSTITUTE OF NON-AQUEOUSSOLUTIONS TOHOKU UNIV.
InstType: EI
InstName: HITACHI M-80B
IoniMethod: _ENERGY 70 eV
IonPolarity: pos
Date: 2010-10-09 19:48:36+02:00
Num Peaks: 40
15 26 26 35 27 221 28 40 29 147 31 58 37 13 38 48 39 333 40 64 
41 283 42 192 43 156 44 37 50 54 51 83 52 42 53 92 54 75 55 275 
56 36 57 106 63 15 65 28 66 16 67 65 68 30 69 261 70 999 71 54 
77 66 78 15 79 130 80 53 81 32 83 365 84 16 97 294 98 342 99 19 
