Name: META-METHOXYPHENOL
MW: 124
Formula: C7H8O2
Synonym: MassBank: JP004010
Synonym: META-METHOXYPHENOL
Structure: 310A32330A4D4554412D4D4554484F58595048454E4F4C2E6D6F6C0A20204368656D447261773032323231303233313432440A2020392020392020302020302020302020302020302020302020302020303939392056323030300A20202020312E303731372020202D302E3431323520202020302E303030302043202020302020302020302020302020302020302020302020302020302020302020302020300A20202020302E333537322020202D302E3832353020202020302E303030302043202020302020302020302020302020302020302020302020302020302020302020302020300A2020202D302E333537322020202D302E3431323520202020302E303030302043202020302020302020302020302020302020302020302020302020302020302020302020300A2020202D302E3335373220202020302E3431323520202020302E303030302043202020302020302020302020302020302020302020302020302020302020302020302020300A20202020302E3335373220202020302E3832353020202020302E303030302043202020302020302020302020302020302020302020302020302020302020302020302020300A20202020312E3037313720202020302E3431323520202020302E303030302043202020302020302020302020302020302020302020302020302020302020302020302020300A2020202D312E303731372020202D302E3832353020202020302E30303030204F202020302020302020302020302020302020302020302020302020302020302020302020300A2020202D312E373836322020202D302E3431323520202020302E303030302043202020302020302020302020302020302020302020302020302020302020302020302020300A20202020312E373836322020202D302E3832353020202020302E30303030204F202020302020302020302020302020302020302020302020302020302020302020302020300A2020312020322020312020302020202020200A2020322020332020322020302020202020200A2020332020342020312020302020202020200A2020342020352020322020302020202020200A2020352020362020312020302020202020200A2020312020362020322020302020202020200A2020372020382020312020302020202020200A2020332020372020312020302020202020200A2020312020392020312020302020202020200A4D2020454E44
Contributor: MASS SPECTROSCOPY SOC. OF JAPAN (MSSJ)
InstType: EI
InstName: HITACHI RMU-6L
IoniMethod: _ENERGY 70 eV
IonPolarity: pos
Date: 2010-10-09 19:48:36+02:00
Num Peaks: 58
25 20 26 70 27 25 28 5 29 39 30 30 31 30 37 7 38 149 39 362 
40 66 41 12 42 41 43 41 45 25 50 11 51 152 52 135 53 320 55 12 
61 30 62 84 63 145 64 8 65 146 66 213 67 69 68 4 69 106 73 23 
74 34 75 3 76 42 77 98 78 75 79 6 80 48 81 395 82 31 90 2 
91 24 92 18 93 56 94 59 95 349 96 37 105 30 106 2 107 80 108 52 
109 81 110 3 121 30 122 25 123 88 124 999 125 78 136 65 
