Name: 2-BUTOXY-3-PYRIDINECARBOXYLIC ACID TRIMETHYLSILYL ESTER
MW: 267
Formula: C13H21NO3Si
Synonym: MassBank: JP003464
Synonym: 2-BUTOXY-3-PYRIDINECARBOXYLIC ACID TRIMETHYLSILYL ESTER
Structure: 322D4255544F58592D332D5059524944494E45434152424F58594C49432041434944205452494D455448594C53494C594C2045535445522E6D6F6C0A20204368656D447261773132323130393233323432440A2031382031382020302020302020302020302020302020302020302020303939392056323030300A20202020312E303331322020202D312E3037313720202020302E303030302043202020302020302020302020302020302020302020302020302020302020302020302020300A20202020302E363138372020202D312E3738363220202020302E303030302043202020302020302020302020302020302020302020302020302020302020302020302020300A20202020312E303331322020202D322E3530303620202020302E303030302043202020302020302020302020302020302020302020302020302020302020302020302020300A20202020312E383536322020202D322E3530303620202020302E303030302043202020302020302020302020302020302020302020302020302020302020302020302020300A20202020322E323638382020202D312E3738363220202020302E303030302043202020302020302020302020302020302020302020302020302020302020302020302020300A20202020312E383536332020202D312E3037313720202020302E30303030204E202020302020302020302020302020302020302020302020302020302020302020302020300A2020202D302E323036332020202D312E3738363220202020302E303030302043202020302020302020302020302020302020302020302020302020302020302020302020300A2020202D302E363138382020202D322E3530303620202020302E30303030204F202020302020302020302020302020302020302020302020302020302020302020302020300A2020202D302E363138382020202D312E3037313720202020302E30303030204F202020302020302020302020302020302020302020302020302020302020302020302020300A20202020302E363138372020202D302E3335373220202020302E30303030204F202020302020302020302020302020302020302020302020302020302020302020302020300A20202020312E3033313220202020302E3335373220202020302E303030302043202020302020302020302020302020302020302020302020302020302020302020302020300A20202020302E3631383720202020312E3037313720202020302E303030302043202020302020302020302020302020302020302020302020302020302020302020302020300A20202020312E3033313220202020312E3738363220202020302E303030302043202020302020302020302020302020302020302020302020302020302020302020302020300A20202020302E3631383720202020322E3530303620202020302E303030302043202020302020302020302020302020302020302020302020302020302020302020302020300A2020202D312E343433382020202D312E3037313720202020302E303030302053692020302020302020302020302020302020302020302020302020302020302020302020300A2020202D312E343433382020202D302E3234363720202020302E303030302043202020302020302020302020302020302020302020302020302020302020302020302020300A2020202D322E323638382020202D312E3037313720202020302E303030302043202020302020302020302020302020302020302020302020302020302020302020302020300A2020202D312E343433382020202D312E3839363720202020302E303030302043202020302020302020302020302020302020302020302020302020302020302020302020300A2020312020322020312020302020202020200A2020322020332020322020302020202020200A2020332020342020312020302020202020200A2020342020352020322020302020202020200A2020352020362020312020302020202020200A2020312020362020322020302020202020200A2020372020382020322020302020202020200A2020372020392020312020302020202020200A2020322020372020312020302020202020200A2031312031322020312020302020202020200A2031322031332020312020302020202020200A2031332031342020312020302020202020200A2031302031312020312020302020202020200A2020312031302020312020302020202020200A2031352031362020312020302020202020200A2031352031372020312020302020202020200A2031352031382020312020302020202020200A2020392031352020312020302020202020200A4D2020454E44
Contributor: MASS SPECTROSCOPY SOC. OF JAPAN (MSSJ)
InstType: EI
InstName: HITACHI M-60
IoniMethod: _ENERGY 20 eV
IonPolarity: pos
Date: 2010-10-09 19:48:36+02:00
Num Peaks: 114
41 95 42 1 45 3 55 8 56 27 57 123 58 6 61 2 66 5 67 1 
72 5 73 100 74 9 75 207 76 16 77 19 78 4 79 5 80 5 83 2 
89 2 92 9 93 130 94 39 95 6 96 3 97 2 103 6 104 1 105 2 
106 17 107 9 108 9 109 3 117 27 118 9 119 3 120 22 121 11 122 517 
123 47 124 39 125 7 126 5 132 5 133 2 134 165 135 29 136 38 137 6 
138 9 139 4 143 23 145 12 146 3 147 2 148 45 149 26 150 487 151 116 
152 341 153 53 154 30 155 5 156 1 159 5 165 54 166 210 167 313 168 82 
169 19 170 5 176 16 177 5 178 105 179 14 180 46 181 14 182 14 183 7 
184 9 188 6 195 82 196 999 197 402 198 111 199 11 208 4 209 29 210 85 
211 173 212 120 213 22 214 6 222 11 223 20 224 129 225 26 226 8 236 3 
237 27 238 30 239 6 240 1 249 1 250 2 252 143 253 24 254 9 266 9 
267 48 268 37 269 6 270 1 
