Name: 2-BUTYL-4-METHYLTHIAZOLE
MW: 155
Formula: C8H13NS
Synonym: MassBank: JP007799
Synonym: 2-BUTYL-4-METHYLTHIAZOLE
Structure: 322D425554594C2D342D4D455448594C544849415A4F4C452E6D6F6C0A20204368656D447261773031303331303130313532440A2031302031302020302020302020302020302020302020302020302020303939392056323030300A2020202D302E3039343820202020302E3430383020202020302E303030302053202020302020302020302020302020302020302020302020302020302020302020302020300A2020202D302E303038362020202D302E3431323520202020302E303030302043202020302020302020302020302020302020302020302020302020302020302020302020300A2020202D302E373632332020202D302E3734383120202020302E30303030204E202020302020302020302020302020302020302020302020302020302020302020302020300A2020202D312E333134332020202D302E3133353020202020302E303030302043202020302020302020302020302020302020302020302020302020302020302020302020300A2020202D302E3930313820202020302E3537393520202020302E303030302043202020302020302020302020302020302020302020302020302020302020302020302020300A2020202D322E313334382020202D302E3232313220202020302E303030302043202020302020302020302020302020302020302020302020302020302020302020302020300A20202020302E373035392020202D302E3832353020202020302E303030302043202020302020302020302020302020302020302020302020302020302020302020302020300A20202020312E343230332020202D302E3431323520202020302E303030302043202020302020302020302020302020302020302020302020302020302020302020302020300A20202020312E3432303320202020302E3431323520202020302E303030302043202020302020302020302020302020302020302020302020302020302020302020302020300A20202020322E3133343820202020302E3832353020202020302E303030302043202020302020302020302020302020302020302020302020302020302020302020302020300A2020312020322020312020302020202020200A2020322020332020322020302020202020200A2020332020342020312020302020202020200A2020342020352020322020302020202020200A2020312020352020312020302020202020200A2020342020362020312020302020202020200A2020372020382020312020302020202020200A2020382020392020312020302020202020200A2020392031302020312020302020202020200A2020322020372020312020302020202020200A4D2020454E44
Contributor: HASHIMOTO K, KYOTO COLLEGE OF PHARMACY
InstType: EI
InstName: HITACHI M-80
IoniMethod: _ENERGY 20 eV
IonPolarity: pos
Date: 2010-10-09 19:48:36+02:00
Num Peaks: 22
39 40 41 56 42 20 45 23 54 12 68 90 71 200 72 268 73 140 74 21 
85 11 100 11 112 210 114 179 115 130 126 450 127 291 128 36 140 150 154 21 
155 80 156 20 
