Name: MassBank: JP005053
MW: 242
Formula: C16H22N2
Synonym: MassBank: JP005053
Synonym: 1-ETHYL-1,3,3-TRIMETHYL-1,2,3,4-TETRAHYDRO-GAMMA-CARBOLINE
Structure: 312D455448594C2D312C332C332D5452494D455448594C2D312C322C332C342D5445545241485944524F2D47414D4D412D434152424F4C494E452E6D6F6C0A20204368656D447261773131313830393031343532440A2031382032302020302020302020302020302020302020302020302020303939392056323030300A2020202D312E3532383820202020302E3235383020202020302E30303030204E202020302020302020302020302020302020302020302020302020302020302020302020300A2020202D312E353238382020202D302E3536373020202020302E303030302043202020302020302020302020302020302020302020302020302020302020302020302020300A2020202D302E383134332020202D302E3937393520202020302E303030302043202020302020302020302020302020302020302020302020302020302020302020302020300A2020202D302E303939392020202D302E3536373020202020302E303030302043202020302020302020302020302020302020302020302020302020302020302020302020300A2020202D302E3039393920202020302E3235383020202020302E303030302043202020302020302020302020302020302020302020302020302020302020302020302020300A2020202D302E3831343320202020302E3637303520202020302E303030302043202020302020302020302020302020302020302020302020302020302020302020302020300A20202020302E363834372020202D302E3832323020202020302E30303030204E202020302020302020302020302020302020302020302020302020302020302020302020300A20202020312E313639372020202D302E3135343520202020302E303030302043202020302020302020302020302020302020302020302020302020302020302020302020300A20202020302E3638343720202020302E3531323920202020302E303030302043202020302020302020302020302020302020302020302020302020302020302020302020300A20202020312E393930312020202D302E3036383320202020302E303030302043202020302020302020302020302020302020302020302020302020302020302020302020300A20202020322E3332353720202020302E3638353420202020302E303030302043202020302020302020302020302020302020302020302020302020302020302020302020300A20202020312E3834303820202020312E3335323820202020302E303030302043202020302020302020302020302020302020302020302020302020302020302020302020300A20202020312E3032303320202020312E3236363620202020302E303030302043202020302020302020302020302020302020302020302020302020302020302020302020300A2020202D302E3430313820202020312E3338353020202020302E303030302043202020302020302020302020302020302020302020302020302020302020302020302020300A2020202D312E3339373720202020312E3235333820202020302E303030302043202020302020302020302020302020302020302020302020302020302020302020302020300A2020202D322E3139343620202020312E3034303320202020302E303030302043202020302020302020302020302020302020302020302020302020302020302020302020300A2020202D322E333235372020202D302E3738303520202020302E303030302043202020302020302020302020302020302020302020302020302020302020302020302020300A2020202D312E363336352020202D312E3338353020202020302E303030302043202020302020302020302020302020302020302020302020302020302020302020302020300A2020312020322020312020302020202020200A2020322020332020312020302020202020200A2020332020342020312020302020202020200A2020342020352020322020302020202020200A2020352020362020312020302020202020200A2020362020312020312020302020202020200A2020342020372020312020302020202020200A2020372020382020312020302020202020200A2020382020392020322020302020202020200A2020392020352020312020302020202020200A2020382031302020312020302020202020200A2031302031312020322020302020202020200A2031312031322020312020302020202020200A2031322031332020322020302020202020200A2031332020392020312020302020202020200A2020362031342020312020302020202020200A2020362031352020312020302020202020200A2031352031362020312020302020202020200A2020322031372020312020312020202020200A2020322031382020312020362020202020200A4D2020454E44
Contributor: SASAKI S, TOYOHASHI UNIV. OF TECH.
InstType: EI
InstName: Unknown
IoniMethod: _ENERGY 75 eV
IonPolarity: pos
Date: 2010-10-09 19:48:36+02:00
Num Peaks: 28
42 32 43 53 44 80 45 2 55 26 56 34 57 25 77 2 99 10 128 26 
129 26 130 3 154 37 155 33 156 49 157 3 170 21 171 78 172 21 182 2 
185 32 212 22 213 999 214 16 227 139 228 45 241 10 242 29 
