Name: 1-PARA-MENTHEN-3-YL ACETATE
MW: 196
Formula: C12H20O2
Synonym: MassBank: JP001218
Synonym: 1-PARA-MENTHEN-3-YL ACETATE
Structure: 312D504152412D4D454E5448454E2D332D594C20414345544154452E6D6F6C0A20204368656D447261773131323230393231353532440A2031342031342020302020302020302020302020302020302020302020303939392056323030300A20202020312E303331332020202D312E3037313720202020302E303030302043202020302020302020302020302020302020302020302020302020302020302020302020300A20202020302E363138372020202D312E3738363220202020302E303030302043202020302020302020302020302020302020302020302020302020302020302020302020300A20202020312E383536332020202D312E3037313720202020302E30303030204F202020302020302020302020302020302020302020302020302020302020302020302020300A20202020302E363138382020202D302E3335373220202020302E30303030204F202020302020302020302020302020302020302020302020302020302020302020302020300A2020202D302E323036322020202D302E3335373220202020302E303030302043202020302020302020302020302020302020302020302020302020302020302020302020300A2020202D302E3631383720202020302E3335373220202020302E303030302043202020302020302020302020302020302020302020302020302020302020302020302020300A2020202D312E3434333720202020302E3335373220202020302E303030302043202020302020302020302020302020302020302020302020302020302020302020302020300A2020202D312E383536332020202D302E3335373220202020302E303030302043202020302020302020302020302020302020302020302020302020302020302020302020300A2020202D312E343433382020202D312E3037313720202020302E303030302043202020302020302020302020302020302020302020302020302020302020302020302020300A2020202D302E363138382020202D312E3037313720202020302E303030302043202020302020302020302020302020302020302020302020302020302020302020302020300A2020202D312E383536332020202D312E3738363220202020302E303030302043202020302020302020302020302020302020302020302020302020302020302020302020300A2020202D302E3230363220202020312E3037313720202020302E303030302043202020302020302020302020302020302020302020302020302020302020302020302020300A20202020302E3631383820202020312E3037313720202020302E303030302043202020302020302020302020302020302020302020302020302020302020302020302020300A2020202D302E3631383720202020312E3738363220202020302E303030302043202020302020302020302020302020302020302020302020302020302020302020302020300A2020312020322020312020302020202020200A2020312020332020322020302020202020200A2020312020342020312020302020202020200A2020352020362020312020302020202020200A2020362020372020312020302020202020200A2020372020382020312020302020202020200A2020382020392020312020302020202020200A2020392031302020322020302020202020200A2020352031302020312020302020202020200A2020392031312020312020302020202020200A2031322031332020312020302020202020200A2031322031342020312020302020202020200A2020362031322020312020302020202020200A2020342020352020312020302020202020200A4D2020454E44
Contributor: SASAKI S, TOYOHASHI UNIV. OF TECH.
InstType: EI
InstName: HITACHI RMU-6D
IoniMethod: _ENERGY 70 eV
IonPolarity: pos
Date: 2010-10-09 19:48:36+02:00
Num Peaks: 74
15 45 17 10 18 50 27 18 28 110 29 140 31 20 40 15 41 30 42 500 
43 60 44 88 45 40 46 20 51 30 52 1 53 110 54 70 55 390 56 12 
58 20 59 20 61 10 63 1 65 40 67 5 68 230 69 14 70 320 71 70 
72 530 73 4 77 140 78 130 79 110 80 64 81 350 82 150 83 80 84 8 
85 30 91 120 92 80 93 45 94 160 95 999 96 300 97 6 99 30 100 5 
105 10 106 2 108 100 109 80 110 40 111 2 112 50 118 30 120 120 122 34 
123 30 128 640 136 90 137 4 138 640 139 90 140 5 141 2 154 5 155 5 
156 25 157 1 158 15 57 180 
