Name: MassBank: JP002155
MW: 302
Formula: C22H22O
Synonym: MassBank: JP002155
Synonym: 2,6-DI(ALPHA-METHYLBENZYL(5D))PHENOL
Structure: 322C362D444928414C5048412D4D455448594C42454E5A594C28354429295048454E4F4C2E6D6F6C0A20204368656D447261773132323130393033343432440A2033332033352020302020302020302020302020302020302020302020303939392056323030300A2020202D302E3731343520202020302E3431323520202020302E303030302043202020302020302020302020302020302020302020302020302020302020302020302020300A2020202D302E373134352020202D302E3431323520202020302E303030302043202020302020302020302020302020302020302020302020302020302020302020302020300A20202020302E303030302020202D302E3832353020202020302E303030302043202020302020302020302020302020302020302020302020302020302020302020302020300A20202020302E373134352020202D302E3431323520202020302E303030302043202020302020302020302020302020302020302020302020302020302020302020302020300A20202020302E3731343520202020302E3431323520202020302E303030302043202020302020302020302020302020302020302020302020302020302020302020302020300A20202020302E3030303020202020302E3832353020202020302E303030302043202020302020302020302020302020302020302020302020302020302020302020302020300A20202020302E303030302020202D312E3635303020202020302E303030302043202020302020302020302020302020302020302020302020302020302020302020302020300A20202020312E343238392020202D302E3832353020202020302E30303030204F202020302020302020302020302020302020302020302020302020302020302020302020300A20202020312E3432383920202020302E3832353020202020302E303030302043202020302020302020302020302020302020302020302020302020302020302020302020300A20202020302E373134352020202D322E3036323520202020302E303030302043202020302020302020302020302020302020302020302020302020302020302020302020300A2020202D302E373134352020202D322E3036323520202020302E303030302043202020302020302020302020302020302020302020302020302020302020302020302020300A20202020312E3432383920202020312E3635303020202020302E303030302043202020302020302020302020302020302020302020302020302020302020302020302020300A20202020322E3134333420202020302E3431323520202020302E303030302043202020302020302020302020302020302020302020302020302020302020302020302020300A2020202D312E343238392020202D312E3635303020202020302E303030302043202020302020302020302020302020302020302020302020302020302020302020302020300A2020202D322E313433342020202D322E3036323520202020302E303030302043202020302020302020302020302020302020302020302020302020302020302020302020300A2020202D322E313433342020202D322E3838373520202020302E303030302043202020302020302020302020302020302020302020302020302020302020302020302020300A2020202D312E343238392020202D332E3330303020202020302E303030302043202020302020302020302020302020302020302020302020302020302020302020302020300A2020202D302E373134352020202D322E3838373520202020302E303030302043202020302020302020302020302020302020302020302020302020302020302020302020300A20202020302E3731343520202020322E3036323520202020302E303030302043202020302020302020302020302020302020302020302020302020302020302020302020300A20202020302E3731343520202020322E3838373520202020302E303030302043202020302020302020302020302020302020302020302020302020302020302020302020300A20202020312E3432383920202020332E3330303020202020302E303030302043202020302020302020302020302020302020302020302020302020302020302020302020300A20202020322E3134333420202020322E3838373520202020302E303030302043202020302020302020302020302020302020302020302020302020302020302020302020300A20202020322E3134333420202020322E3036323520202020302E303030302043202020302020302020302020302020302020302020302020302020302020302020302020300A2020202D312E343238392020202D302E3832353020202020302E303030302048202020312020302020302020302020302020302020302020302020302020302020302020300A2020202D322E383537392020202D312E3635303020202020302E303030302048202020312020302020302020302020302020302020302020302020302020302020302020300A2020202D322E383537392020202D332E3330303020202020302E303030302048202020312020302020302020302020302020302020302020302020302020302020302020300A2020202D312E343238392020202D342E3132353020202020302E303030302048202020312020302020302020302020302020302020302020302020302020302020302020300A20202020302E303030302020202D332E3330303020202020302E303030302048202020312020302020302020302020302020302020302020302020302020302020302020300A2020202D302E3030303020202020332E3330303020202020302E303030302048202020312020302020302020302020302020302020302020302020302020302020302020300A20202020312E3432383920202020342E3132353020202020302E303030302048202020312020302020302020302020302020302020302020302020302020302020302020300A20202020322E3835373920202020332E3330303020202020302E303030302048202020312020302020302020302020302020302020302020302020302020302020302020300A20202020322E3835373920202020312E3635303020202020302E303030302048202020312020302020302020302020302020302020302020302020302020302020302020300A2020202D302E3030303020202020312E3635303020202020302E303030302048202020312020302020302020302020302020302020302020302020302020302020302020300A2020312020322020322020302020202020200A2020322020332020312020302020202020200A2020332020342020322020302020202020200A2020342020352020312020302020202020200A2020352020362020322020302020202020200A2020362020312020312020302020202020200A2020332020372020312020302020202020200A2020342020382020312020302020202020200A2020352020392020312020302020202020200A2020372031302020312020302020202020200A2020372031312020312020302020202020200A2020392031322020312020302020202020200A2020392031332020312020302020202020200A2031312031342020322020302020202020200A2031342031352020312020302020202020200A2031352031362020322020302020202020200A2031362031372020312020302020202020200A2031372031382020322020302020202020200A2031382031312020312020302020202020200A2031322031392020322020302020202020200A2031392032302020312020302020202020200A2032302032312020322020302020202020200A2032312032322020312020302020202020200A2032322032332020322020302020202020200A2032332031322020312020302020202020200A2031342032342020312020302020202020200A2031352032352020312020302020202020200A2031362032362020312020302020202020200A2031372032372020312020302020202020200A2031382032382020312020302020202020200A2032302032392020312020302020202020200A2032312033302020312020302020202020200A2032322033312020312020302020202020200A2032332033322020312020302020202020200A2031392033332020312020302020202020200A4D202049534F202038202032342020203220203235202020322020323620202032202032372020203220203238202020322020323920202032202033302020203220203331202020320A4D202049534F202032202033322020203220203333202020320A4D2020454E44
Contributor: KOGA M, UNIV. OF OCCUPATIONAL AND ENVIRONMENTAL HEALTH
InstType: EI
InstName: JEOL JMS-01-SG
IoniMethod: _ENERGY 70 eV
IonPolarity: pos
Date: 2010-10-09 19:48:36+02:00
Num Peaks: 20
96 90 108 64 109 96 110 21 169 116 170 104 188 339 189 8 202 112 213 146 
214 430 215 13 227 95 228 91 229 133 296 12 297 999 298 259 312 592 313 195 
