Name: MYRTENOL
MW: 152
Formula: C10H16O
Synonym: MassBank: JP007033
Synonym: MYRTENOL
Structure: 4D595254454E4F4C2E6D6F6C0A20204368656D447261773038313231303031303132440A2031312031322020302020302020302020302020302020302020302020303939392056323030300A20202020302E393337312020202D302E3836313320202020302E303030302043202020302020302020302020302020302020302020302020302020302020302020302020300A20202020302E333533372020202D302E3237373920202020302E303030302043202020302020302020302020302020302020302020302020302020302020302020302020300A20202020302E3533323520202020302E3338303020202020302E303030302043202020302020302020302020302020302020302020302020302020302020302020302020300A20202020302E3035313220202020302E3836313320202020302E303030302043202020302020302020302020302020302020302020302020302020302020302020302020300A2020202D302E3630353520202020302E3637393620202020302E303030302043202020302020302020302020302020302020302020302020302020302020302020302020300A20202020302E3130393020202020302E3236373120202020302E303030302043202020302020302020302020302020302020302020302020302020302020302020302020300A2020202D312E303138302020202D302E3033343920202020302E303030302043202020302020302020302020302020302020302020302020302020302020302020302020300A2020202D312E3733323520202020302E3337373620202020302E303030302043202020302020302020302020302020302020302020302020302020302020302020302020300A2020202D312E343330352020202D302E3734393320202020302E303030302043202020302020302020302020302020302020302020302020302020302020302020302020300A2020202D302E333033352020202D302E3434373420202020302E303030302043202020302020302020302020302020302020302020302020302020302020302020302020300A20202020312E373332352020202D302E3634393220202020302E30303030204F202020302020302020302020302020302020302020302020302020302020302020302020300A2020312020322020312020302020202020200A2020322020332020322020302020202020200A2020332020342020312020302020202020200A2020342020352020312020302020202020200A2020352020362020312020302020202020200A2020352020372020312020302020202020200A2020372020382020312020302020202020200A2020372020392020312020302020202020200A2020372031302020312020302020202020200A2020362031302020312020302020202020200A2020322031302020312020302020202020200A2020312031312020312020302020202020200A4D2020454E44
Contributor: SODA AROMATIC CO., LTD.
InstType: EI
InstName: HITACHI M-80B
IoniMethod: _ENERGY 70 eV
IonPolarity: pos
Date: 2010-10-09 19:48:36+02:00
Num Peaks: 51
27 115 28 14 29 69 31 89 39 171 40 27 41 241 42 23 43 126 50 16 
51 66 52 31 53 98 54 17 55 106 56 13 57 14 59 17 63 18 65 66 
66 30 67 121 68 31 69 45 70 15 77 170 78 61 79 999 80 90 81 79 
82 27 83 27 85 24 91 407 92 82 93 167 94 27 95 48 96 30 103 17 
105 76 106 29 107 74 108 281 109 80 117 14 119 147 120 14 121 84 134 16 
152 45 
