Name: MassBank: JP000734
MW: 182
Formula: C9H10O4
Synonym: MassBank: JP000734
Synonym: 2-HYDROXY-6-METHOXY-3,5-DIMETHYL-1,4-BENZOQUINONE
Structure: 322D485944524F58592D362D4D4554484F58592D332C352D44494D455448594C2D312C342D42454E5A4F5155494E4F4E452E6D6F6C0A20204368656D447261773031323131303231333632440A2031332031332020302020302020302020302020302020302020302020303939392056323030300A20202020302E3731343520202020302E3230363220202020302E303030302043202020302020302020302020302020302020302020302020302020302020302020302020300A20202020302E373134352020202D302E3631383820202020302E303030302043202020302020302020302020302020302020302020302020302020302020302020302020300A2020202D302E303030302020202D312E3033313320202020302E303030302043202020302020302020302020302020302020302020302020302020302020302020302020300A2020202D302E373134352020202D302E3631383820202020302E303030302043202020302020302020302020302020302020302020302020302020302020302020302020300A2020202D302E3731343520202020302E3230363220202020302E303030302043202020302020302020302020302020302020302020302020302020302020302020302020300A20202020302E3030303020202020302E3631383820202020302E303030302043202020302020302020302020302020302020302020302020302020302020302020302020300A2020202D312E343238392020202D312E3033313320202020302E30303030204F202020302020302020302020302020302020302020302020302020302020302020302020300A20202020312E3432383920202020302E3631383820202020302E30303030204F202020302020302020302020302020302020302020302020302020302020302020302020300A2020202D312E3432383920202020302E3631383720202020302E303030302043202020302020302020302020302020302020302020302020302020302020302020302020300A2020202D302E303030302020202D312E3835363320202020302E303030302043202020302020302020302020302020302020302020302020302020302020302020302020300A20202020302E3030303020202020312E3434333720202020302E30303030204F202020302020302020302020302020302020302020302020302020302020302020302020300A2020202D302E3731343520202020312E3835363320202020302E303030302043202020302020302020302020302020302020302020302020302020302020302020302020300A20202020312E343238392020202D312E3033313320202020302E30303030204F202020302020302020302020302020302020302020302020302020302020302020302020300A2020312020322020312020302020202020200A2020322020332020322020302020202020200A2020332020342020312020302020202020200A2020342020352020312020302020202020200A2020352020362020322020302020202020200A2020312020362020312020302020202020200A2020342020372020322020302020202020200A2020312020382020322020302020202020200A2020352020392020312020302020202020200A2020332031302020312020302020202020200A2031312031322020312020302020202020200A2020362031312020312020302020202020200A2020322031332020312020302020202020200A4D2020454E44
Contributor: NAKAYAMA M, MASS SPECTROSCOPY SOC. OF JAPAN (MSSJ)
InstType: EI
InstName: HITACHI RMU-6L
IoniMethod: _ENERGY 70 eV
IonPolarity: pos
Date: 2010-10-09 19:48:36+02:00
Num Peaks: 85
37 50 38 120 39 470 40 70 41 160 42 30 43 250 44 10 45 20 49 10 
50 60 51 90 52 60 53 240 54 140 55 660 56 180 57 20 59 10 61 10 
62 20 63 50 64 20 65 180 66 150 67 280 68 60 69 90 70 30 71 30 
77 60 78 100 79 70 80 60 81 60 82 60 83 999 84 80 85 40 90 10 
91 20 92 10 93 60 94 60 95 100 96 100 97 60 98 10 99 40 105 10 
106 30 107 50 108 60 109 40 110 10 111 690 112 60 121 10 122 20 123 30 
124 40 125 40 126 20 127 10 135 20 136 80 137 20 138 10 139 650 140 70 
141 10 151 10 152 30 153 50 154 130 155 10 163 10 164 30 165 20 167 70 
168 10 181 30 182 440 183 100 184 10 
