Name: 3-METHYL-2-PHENYLINDOLE
CAS: 10257-92-8
MW: 207
Formula: C15H13N
Synonym: MassBank: JP004360
Synonym: 3-METHYL-2-PHENYLINDOLE
Structure: 332D4D455448594C2D322D5048454E594C494E444F4C452E6D6F6C0A20204368656D447261773033323031303030323232440A2031362031382020302020302020302020302020302020302020302020303939392056323030300A2020202D302E3337333220202020302E3938313020202020302E30303030204E202020302020302020302020302020302020302020302020302020302020302020302020300A20202020302E3131313720202020302E3331333520202020302E303030302043202020302020302020302020302020302020302020302020302020302020302020302020300A2020202D302E333733322020202D302E3335333920202020302E303030302043202020302020302020302020302020302020302020302020302020302020302020302020300A2020202D312E313537382020202D302E3039393020202020302E303030302043202020302020302020302020302020302020302020302020302020302020302020302020300A2020202D312E383732332020202D302E3531313520202020302E303030302043202020302020302020302020302020302020302020302020302020302020302020302020300A2020202D322E353836372020202D302E3039393020202020302E303030302043202020302020302020302020302020302020302020302020302020302020302020302020300A2020202D322E3538363720202020302E3732363020202020302E303030302043202020302020302020302020302020302020302020302020302020302020302020302020300A2020202D312E3837323320202020312E3133383520202020302E303030302043202020302020302020302020302020302020302020302020302020302020302020302020300A2020202D312E3135373820202020302E3732363020202020302E303030302043202020302020302020302020302020302020302020302020302020302020302020302020300A20202020302E3933363720202020302E3331333520202020302E303030302043202020302020302020302020302020302020302020302020302020302020302020302020300A20202020312E3334393220202020312E3032383020202020302E303030302043202020302020302020302020302020302020302020302020302020302020302020302020300A20202020322E3137343220202020312E3032383020202020302E303030302043202020302020302020302020302020302020302020302020302020302020302020302020300A20202020322E3538363720202020302E3331333520202020302E303030302043202020302020302020302020302020302020302020302020302020302020302020302020300A20202020322E313734322020202D302E3430303920202020302E303030302043202020302020302020302020302020302020302020302020302020302020302020302020300A20202020312E333439322020202D302E3430303920202020302E303030302043202020302020302020302020302020302020302020302020302020302020302020302020300A2020202D302E313138322020202D312E3133383520202020302E303030302043202020302020302020302020302020302020302020302020302020302020302020302020300A2020312020322020312020302020202020200A2020322020332020322020302020202020200A2020332020342020312020302020202020200A2020342020352020312020302020202020200A2020352020362020322020302020202020200A2020362020372020312020302020202020200A2020372020382020322020302020202020200A2020382020392020312020302020202020200A2020312020392020312020302020202020200A2020342020392020322020302020202020200A2031302031312020312020302020202020200A2031312031322020322020302020202020200A2031322031332020312020302020202020200A2031332031342020322020302020202020200A2031342031352020312020302020202020200A2031302031352020322020302020202020200A2020322031302020312020302020202020200A2020332031362020312020302020202020200A4D2020454E44
Contributor: SASAKI S, TOYOHASHI UNIV. OF TECH.
InstType: EI
InstName: MX-1303
IoniMethod: _ENERGY 50 eV
IonPolarity: pos
Date: 2010-10-09 19:48:36+02:00
Num Peaks: 44
39 13 50 11 51 36 52 1 63 19 75 21 76 33 77 10 78 15 88 21 
89 28 89.5 1 90 28 90.5 28 95.5 19 101 3 101.5 19 102 96 102.5 71 103 5 
103.5 56 104 19 115 10 128 12 129 23 130 210 131 22 151 1 152 15 165 10 
176 22 177 2 178 84 179 59 180 15 190 1 191 20 203 33 204 203 205 10 
206 858 207 999 208 150 209 12 
