Name: METHYL 10-UNDECENOATE
MW: 198
Formula: C12H22O2
Synonym: MassBank: JP005892
Synonym: METHYL 10-UNDECENOATE
Structure: 4D455448594C2031302D554E444543454E4F4154452E6D6F6C0A20204368656D447261773038313131303233323332440A2031342031332020302020302020302020302020302020302020302020303939392056323030300A2020202D332E3231353120202020302E3230363220202020302E303030302043202020302020302020302020302020302020302020302020302020302020302020302020300A2020202D322E353030362020202D302E3230363220202020302E303030302043202020302020302020302020302020302020302020302020302020302020302020302020300A2020202D312E3738363220202020302E3230363220202020302E303030302043202020302020302020302020302020302020302020302020302020302020302020302020300A2020202D312E303731372020202D302E3230363220202020302E303030302043202020302020302020302020302020302020302020302020302020302020302020302020300A2020202D302E3335373220202020302E3230363220202020302E303030302043202020302020302020302020302020302020302020302020302020302020302020302020300A20202020302E333537322020202D302E3230363220202020302E303030302043202020302020302020302020302020302020302020302020302020302020302020302020300A20202020312E3037313720202020302E3230363320202020302E303030302043202020302020302020302020302020302020302020302020302020302020302020302020300A20202020312E373836322020202D302E3230363220202020302E303030302043202020302020302020302020302020302020302020302020302020302020302020302020300A20202020322E3530303620202020302E3230363320202020302E303030302043202020302020302020302020302020302020302020302020302020302020302020302020300A20202020332E323135312020202D302E3230363220202020302E303030302043202020302020302020302020302020302020302020302020302020302020302020302020300A20202020332E3932393620202020302E3230363320202020302E303030302043202020302020302020302020302020302020302020302020302020302020302020302020300A2020202D332E3231353120202020312E3033313320202020302E30303030204F202020302020302020302020302020302020302020302020302020302020302020302020300A2020202D332E393239362020202D302E3230363220202020302E30303030204F202020302020302020302020302020302020302020302020302020302020302020302020300A2020202D332E393239362020202D312E3033313320202020302E303030302043202020302020302020302020302020302020302020302020302020302020302020302020300A2020312020322020312020302020202020200A2020322020332020312020302020202020200A2020332020342020312020302020202020200A2020342020352020312020302020202020200A2020352020362020312020302020202020200A2020362020372020312020302020202020200A2020372020382020312020302020202020200A2020382020392020312020302020202020200A2020392031302020312020302020202020200A2031302031312020322020302020202020200A2020312031322020322020302020202020200A2020312031332020312020302020202020200A2031332031342020312020302020202020200A4D2020454E44
Contributor: YAMAMOTO M, DEP. CHEMISTRY, FAC. SCIENCE, NARA WOMEN'S UNIV.
InstType: EI
InstName: HITACHI RMU-6M
IoniMethod: _ENERGY 20 eV
IonPolarity: pos
Date: 2010-10-09 19:48:36+02:00
Num Peaks: 84
15 13 28 21 29 25 41 141 42 48 43 207 45 23 54 97 55 744 56 116 
57 63 59 125 66 14 67 180 68 290 69 530 70 76 71 79 72 32 73 101 
74 200 75 211 76 16 79 34 80 58 81 206 82 569 83 572 84 772 85 113 
86 13 87 999 88 117 89 11 93 34 94 94 95 142 96 716 97 316 98 493 
99 59 100 21 101 142 102 28 106 20 107 41 108 34 109 79 110 210 111 117 
112 35 113 70 114 127 115 137 119 45 120 17 122 176 123 247 124 758 125 209 
126 23 127 51 128 94 129 54 130 24 133 20 137 148 138 121 139 20 141 59 
142 20 143 28 148 111 149 192 150 25 151 20 155 47 156 17 157 12 166 578 
167 189 168 25 169 21 198 34 
