Name: L-CIS-CARVEOL
MW: 152
Formula: C10H16O
Synonym: MassBank: JP008537
Synonym: L-CIS-CARVEOL
Structure: 4C2D4349532D43415256454F4C2E6D6F6C0A20204368656D447261773038313131303232303432440A2031312031312020302020302020302020302020302020302020302020303939392056323030300A2020202D302E3631383820202020302E3335373220202020302E303030302043202020302020302020302020302020302020302020302020302020302020302020302020300A20202020302E3230363220202020302E3335373220202020302E303030302043202020302020302020302020302020302020302020302020302020302020302020302020300A20202020302E363138382020202D302E3335373220202020302E303030302043202020302020302020302020302020302020302020302020302020302020302020302020300A20202020312E343433372020202D302E3335373220202020302E303030302043202020302020302020302020302020302020302020302020302020302020302020302020300A20202020312E383536322020202D312E3037313720202020302E303030302043202020302020302020302020302020302020302020302020302020302020302020302020300A20202020312E3835363320202020302E3335373220202020302E303030302043202020302020302020302020302020302020302020302020302020302020302020302020300A20202020302E323036322020202D312E3037313720202020302E303030302043202020302020302020302020302020302020302020302020302020302020302020302020300A2020202D302E363138382020202D312E3037313720202020302E303030302043202020302020302020302020302020302020302020302020302020302020302020302020300A2020202D312E303331332020202D302E3335373220202020302E303030302043202020302020302020302020302020302020302020302020302020302020302020302020300A2020202D312E383536332020202D302E3335373220202020302E303030302043202020302020302020302020302020302020302020302020302020302020302020302020300A2020202D312E3033313320202020312E3037313720202020302E30303030204F202020302020302020302020302020302020302020302020302020302020302020302020300A2020312020322020312020302020202020200A2020322020332020312020302020202020200A2020332020342020312020312020202020200A2020342020352020322020302020202020200A2020342020362020312020302020202020200A2020332020372020312020302020202020200A2020372020382020312020302020202020200A2020382020392020322020302020202020200A2020392031302020312020302020202020200A2020312020392020312020302020202020200A2020312031312020312020312020202020200A4D2020454E44
Contributor: SODA AROMATIC CO., LTD.
InstType: EI
InstName: HITACHI M-80B
IoniMethod: _ENERGY 70 eV
IonPolarity: pos
Date: 2010-10-09 19:48:36+02:00
Num Peaks: 71
15 16 18 23 26 12 27 231 28 39 29 150 31 28 38 23 39 376 40 58 
41 496 42 44 43 282 44 36 45 23 50 26 51 91 52 33 53 229 54 46 
55 420 56 191 57 37 59 23 62 10 63 34 64 10 65 96 66 43 67 208 
68 72 69 338 70 23 71 25 72 23 77 185 78 40 79 217 80 208 81 221 
82 91 83 397 84 999 85 50 91 210 92 128 93 218 94 187 95 218 96 55 
97 52 103 15 105 86 106 42 107 49 108 67 109 517 110 59 111 17 115 11 
117 13 119 222 120 19 121 23 123 105 124 21 134 481 135 52 137 98 138 10 
152 32 
