Name: CROTYLHYDRAZINE
MW: 86
Formula: C4H10N2
Synonym: MassBank: JP000372
Synonym: CROTYLHYDRAZINE
Synonym: 2-BUTENYLHYDRAZINE
Structure: 310A31360A43524F54594C48594452415A494E452E6D6F6C0A20204368656D447261773132323130393233323332440A2020362020352020302020302020302020302020302020302020302020303939392056323030300A2020202D312E3037313720202020302E3230363320202020302E30303030204E202020302020302020302020302020302020302020302020302020302020302020302020300A2020202D312E373836322020202D302E3230363320202020302E30303030204E202020302020302020302020302020302020302020302020302020302020302020302020300A2020202D302E333537322020202D302E3230363220202020302E303030302043202020302020302020302020302020302020302020302020302020302020302020302020300A20202020302E3335373220202020302E3230363320202020302E303030302043202020302020302020302020302020302020302020302020302020302020302020302020300A20202020312E303731372020202D302E3230363220202020302E303030302043202020302020302020302020302020302020302020302020302020302020302020302020300A20202020312E3738363220202020302E3230363320202020302E303030302043202020302020302020302020302020302020302020302020302020302020302020302020300A2020312020322020312020302020202020200A2020332020342020312020302020202020200A2020342020352020322020302020202020200A2020352020362020312020302020202020200A2020312020332020312020302020202020200A4D2020454E44
Contributor: SASAKI S, TOYOHASHI UNIV. OF TECH.
InstType: EI
InstName: SHIMADZU LKB-2091
IoniMethod: _ENERGY 70 eV
IonPolarity: pos
Date: 2010-10-09 19:48:36+02:00
Num Peaks: 37
26 33 27 246 28 233 29 42 30 77 31 260 32 999 33 2 37 16 38 33 
39 260 40 3 41 192 42 66 43 92 44 12 45 192 50 32 51 29 52 2 
53 120 54 67 55 671 56 9 57 22 58 49 59 38 67 1 68 74 69 34 
70 21 71 29 72 21 85 16 86 329 87 4 88 8 
