Name: MECLIZINE
MW: 390
Formula: C25H27ClN2
Synonym: MassBank: JP003079
Synonym: MECLIZINE
Structure: 303536315F4D45434C495A494E452E6D6F6C0A20204368656D447261773039303631303138343132440A2032382033312020302020302020302020302020302020302020302020303939392056323030300A20202020302E3731333120202020312E3635313420202020302E303030302043202020302020302020302020302020302020302020302020302020302020302020302020300A20202020302E3731333120202020302E3832363420202020302E303030302043202020302020302020302020302020302020302020302020302020302020302020302020300A20202020312E3432373620202020302E3431333920202020302E303030302043202020302020302020302020302020302020302020302020302020302020302020302020300A20202020322E3134323120202020302E3832363420202020302E303030302043202020302020302020302020302020302020302020302020302020302020302020302020300A20202020322E3134323120202020312E3635313420202020302E303030302043202020302020302020302020302020302020302020302020302020302020302020302020300A20202020312E3432373620202020322E3036333920202020302E303030302043202020302020302020302020302020302020302020302020302020302020302020302020300A20202020312E343237362020202D302E3431313120202020302E303030302043202020302020302020302020302020302020302020302020302020302020302020302020300A20202020302E373134342020202D302E3832333620202020302E30303030204E202020302020302020302020302020302020302020302020302020302020302020302020300A2020202D302E303031332020202D302E3431313120202020302E303030302043202020302020302020302020302020302020302020302020302020302020302020302020300A2020202D302E373135382020202D302E3832333620202020302E303030302043202020302020302020302020302020302020302020302020302020302020302020302020300A2020202D302E373134322020202D312E3634383820202020302E30303030204E202020302020302020302020302020302020302020302020302020302020302020302020300A2020202D302E303031332020202D322E3036313120202020302E303030302043202020302020302020302020302020302020302020302020302020302020302020302020300A20202020302E373133312020202D312E3634383620202020302E303030302043202020302020302020302020302020302020302020302020302020302020302020302020300A20202020322E313432312020202D302E3832333620202020302E303030302043202020302020302020302020302020302020302020302020302020302020302020302020300A20202020322E313432312020202D312E3634383620202020302E303030302043202020302020302020302020302020302020302020302020302020302020302020302020300A20202020322E383536352020202D322E3036313120202020302E303030302043202020302020302020302020302020302020302020302020302020302020302020302020300A20202020332E353731302020202D312E3634383620202020302E303030302043202020302020302020302020302020302020302020302020302020302020302020302020300A20202020332E353731302020202D302E3832333620202020302E303030302043202020302020302020302020302020302020302020302020302020302020302020302020300A20202020322E383536352020202D302E3431313120202020302E303030302043202020302020302020302020302020302020302020302020302020302020302020302020300A20202020342E323837342020202D322E3036333920202020302E3030303020436C2020302020302020302020302020302020302020302020302020302020302020302020300A2020202D312E343239352020202D322E3036313420202020302E303030302043202020302020302020302020302020302020302020302020302020302020302020302020300A2020202D322E313434302020202D312E3634383920202020302E303030302043202020302020302020302020302020302020302020302020302020302020302020302020300A2020202D322E313434302020202D302E3832333920202020302E303030302043202020302020302020302020302020302020302020302020302020302020302020302020300A2020202D322E383538342020202D302E3431313420202020302E303030302043202020302020302020302020302020302020302020302020302020302020302020302020300A2020202D332E353732392020202D302E3832333920202020302E303030302043202020302020302020302020302020302020302020302020302020302020302020302020300A2020202D332E353732392020202D312E3634383920202020302E303030302043202020302020302020302020302020302020302020302020302020302020302020302020300A2020202D322E383538342020202D322E3036313420202020302E303030302043202020302020302020302020302020302020302020302020302020302020302020302020300A2020202D342E323837342020202D322E3036313420202020302E303030302043202020302020302020302020302020302020302020302020302020302020302020302020300A2020312020322020322020302020202020200A2020322020332020312020302020202020200A2020332020342020322020302020202020200A2020342020352020312020302020202020200A2020352020362020322020302020202020200A2020362020312020312020302020202020200A2020332020372020312020302020202020200A2020372031342020312020302020202020200A2020372020382020312020302020202020200A2020382020392020312020302020202020200A2020392031302020312020302020202020200A2031302031312020312020302020202020200A2031312031322020312020302020202020200A2031322031332020312020302020202020200A2031332020382020312020302020202020200A2031342031352020322020302020202020200A2031352031362020312020302020202020200A2031362031372020322020302020202020200A2031372031382020312020302020202020200A2031382031392020322020302020202020200A2031342031392020312020302020202020200A2031372032302020312020302020202020200A2031312032312020312020302020202020200A2032312032322020312020302020202020200A2032322032332020322020302020202020200A2032332032342020312020302020202020200A2032342032352020322020302020202020200A2032352032362020312020302020202020200A2032362032372020322020302020202020200A2032322032372020312020302020202020200A2032362032382020312020302020202020200A4D2020454E44
Contributor: SASAKI S, TOYOHASHI UNIV. OF TECH.
InstType: EI
InstName: Unknown
IoniMethod: EI
IonPolarity: pos
Date: 2010-10-09 19:48:36+02:00
Num Peaks: 125
53 9 54 19 55 29 56 5 57 19 58 19 70 19 71 1 72 49 73 9 
75 14 76 1 77 64 78 29 79 64 80 1 83 24 84 19 85 9 89 2 
90 4 91 49 92 9 102 1 103 49 104 39 105 840 106 9 107 14 108 9 
116 14 117 1 118 19 119 29 120 19 121 1 125 19 126 9 127 14 128 1 
129 4 130 9 131 9 132 3 133 14 134 94 135 14 138 1 139 19 140 9 
144 9 145 1 146 69 147 59 148 74 149 2 150 9 159 4 160 29 161 1 
162 84 163 29 164 29 165 21 166 174 167 44 168 9 169 0 173 9 174 19 
175 19 176 0 180 9 181 4 182 9 187 1 188 14 189 999 190 144 191 1 
192 4 199 14 200 9 201 20 202 39 203 74 204 19 205 0 206 11 216 31 
217 9 218 2 227 9 228 11 229 59 230 7 231 34 232 24 233 9 239 1 
240 19 241 29 242 64 243 3 244 34 245 14 246 9 256 1 257 4 258 9 
279 9 280 0 285 174 286 39 287 64 288 2 312 9 313 14 314 9 389 0 
390 174 391 59 392 64 393 2 394 9 
