Name: FURFURYLAMINE
CAS: 617-89-0
MW: 97
Formula: C5H7NO
Synonym: MassBank: JP007325
Synonym: FURFURYLAMINE
Synonym: 2-FRANMETHANAMINE
Structure: 310A31390A465552465552594C414D494E452E6D6F6C0A20204368656D447261773031303331303133353332440A2020372020372020302020302020302020302020302020302020302020303939392056323030300A20202020312E3336373320202020302E3238393820202020302E30303030204E202020302020302020302020302020302020302020302020302020302020302020302020300A20202020302E3635323920202020302E3730323320202020302E303030302043202020302020302020302020302020302020302020302020302020302020302020302020300A2020202D302E3036313620202020302E3238393820202020302E303030302043202020302020302020302020302020302020302020302020302020302020302020302020300A2020202D302E313437392020202D302E3533303720202020302E303030302043202020302020302020302020302020302020302020302020302020302020302020302020300A2020202D302E393534382020202D302E3730323320202020302E303030302043202020302020302020302020302020302020302020302020302020302020302020302020300A2020202D312E3336373320202020302E3031323220202020302E303030302043202020302020302020302020302020302020302020302020302020302020302020302020300A2020202D302E3831353320202020302E3632353320202020302E30303030204F202020302020302020302020302020302020302020302020302020302020302020302020300A2020322020332020312020302020202020200A2020332020342020322020302020202020200A2020342020352020312020302020202020200A2020352020362020322020302020202020200A2020362020372020312020302020202020200A2020332020372020312020302020202020200A2020312020322020312020302020202020200A4D2020454E44
Contributor: YAMAMOTO M, DEP. CHEMISTRY, FAC. SCIENCE, NARA WOMEN'S UNIV.
InstType: EI
InstName: HITACHI RMU-6M
IoniMethod: _ENERGY 70 eV
IonPolarity: pos
Date: 2010-10-09 19:48:36+02:00
Num Peaks: 42
14 15 15 41 26 35 27 156 28 500 29 67 30 344 33.5 11 34.5 33 37 69 
38 130 39 341 40 71 41 411 42 110 43 362 44 12 48 19 49 16 50 62 
51 105 52 96 53 383 54 96 55 12 56 14 65 17 66 22 67 57 68 268 
69 702 70 37 78 72 79 15 80 232 81 357 82 20 94 31 95 13 96 563 
97 999 98 63 
