Name: MassBank: JP005798
CAS: 89-79-2
MW: 154
Formula: C10H18O
Synonym: MassBank: JP005798
Synonym: (1R-(1ALPHA,2BETA,5ALPHA))-5-METHYL-2-(1-M
Synonym: ETHYLETHENYL)CYCLOHEXANOLISO-PULEGOL
Structure: 2831522D2831414C5048412C32424554412C35414C50484129292D352D4D455448594C2D322D28312D4D455448594C455448454E594C294359434C4F484558414E4F4C2049534F2D50554C45474F4C2E6D6F6C0A20204368656D447261773130313930393133353232440A2031342031342020302020302020302020302020302020302020302020303939392056323030300A2020202D302E3537343220202020302E3732383520202020302E303030302043202020302020302020302020302020302020302020302020302020302020302020302020300A2020202D302E353734322020202D302E3039363520202020302E303030302043202020302020302020302020302020302020302020302020302020302020302020302020300A20202020302E313430322020202D302E3530393020202020302E303030302043202020302020302020302020302020302020302020302020302020302020302020302020300A20202020302E383534372020202D302E3039363520202020302E303030302043202020302020302020302020302020302020302020302020302020302020302020302020300A20202020302E3835343720202020302E3732383520202020302E303030302043202020302020302020302020302020302020302020302020302020302020302020302020300A20202020302E3134303220202020312E3134313020202020302E303030302043202020302020302020302020302020302020302020302020302020302020302020302020300A2020202D302E3835353320202020312E3530323720202020302E303030302048202020302020302020302020302020302020302020302020302020302020302020302020300A20202020312E3636383920202020302E3538353220202020302E303030302048202020302020302020302020302020302020302020302020302020302020302020302020300A2020202D302E383535332020202D302E3837333420202020302E303030302043202020302020302020302020302020302020302020302020302020302020302020302020300A20202020312E3133363920202020312E3530333720202020302E303030302043202020302020302020302020302020302020302020302020302020302020302020302020300A2020202D312E3338343420202020302E3538343420202020302E30303030204F202020302020302020302020302020302020302020302020302020302020302020302020300A2020202D312E3338343420202020302E3034343820202020302E303030302048202020302020302020302020302020302020302020302020302020302020302020302020300A2020202D302E333236312020202D312E3530333720202020302E303030302043202020302020302020302020302020302020302020302020302020302020302020302020300A2020202D312E363638392020202D312E3031353020202020302E303030302043202020302020302020302020302020302020302020302020302020302020302020302020300A2020312020322020312020302020202020200A2020322020332020312020302020202020200A2020332020342020312020302020202020200A2020342020352020312020302020202020200A2020352020362020312020302020202020200A2020362020312020312020302020202020200A2020312020372020312020312020202020200A2020352020382020312020312020202020200A2020322020392020312020312020202020200A2020352031302020312020362020202020200A2020312031312020312020362020202020200A2020322031322020312020362020202020200A2020392031332020322020302020202020200A2020392031342020312020302020202020200A4D2020454E44
Contributor: FUJISE Y, HAMAMATSU UNIV. SCHOOL OF MEDICINE
InstType: EI
InstName: JEOL JMS-D-300
IoniMethod: _ENERGY 70 eV
IonPolarity: pos
Date: 2010-10-09 19:48:36+02:00
Num Peaks: 68
51 17 52 102 53 56 54 387 55 88 56 885 57 627 58 47 63 25 64 11 
65 109 66 59 67 807 68 906 69 984 70 263 71 891 72 97 73 23 77 241 
78 46 79 602 80 308 81 999 82 207 83 365 84 600 85 171 86 21 91 209 
92 169 93 851 94 293 95 544 96 121 97 331 98 234 99 51 103 15 104 9 
105 83 106 27 107 346 108 103 109 252 110 283 111 387 112 209 113 21 115 17 
117 23 119 59 120 15 121 840 122 85 123 89 124 14 125 26 132 14 134 18 
135 16 136 542 137 59 139 198 140 19 145 12 154 153 155 23 
