Name: MassBank: JP000446
MW: 147
Formula: C10H13N
Synonym: MassBank: JP000446
Synonym: 2-METHYL-1,2,3,4-TETRAHYDROQUINOLINE
Structure: 322D4D455448594C2D312C322C332C342D5445545241485944524F5155494E4F4C494E452E6D6F6C0A20204368656D447261773031323231303032323932440A2031312031322020302020302020302020302020302020302020302020303939392056323030300A20202020302E3335373220202020302E3832353020202020302E30303030204E202020302020302020302020302020302020302020302020302020302020302020302020300A20202020312E3037313720202020302E3431323520202020302E303030302043202020302020302020302020302020302020302020302020302020302020302020302020300A20202020312E303731372020202D302E3431323520202020302E303030302043202020302020302020302020302020302020302020302020302020302020302020302020300A20202020302E333537322020202D302E3832353020202020302E303030302043202020302020302020302020302020302020302020302020302020302020302020302020300A2020202D302E333537322020202D302E3431323520202020302E303030302043202020302020302020302020302020302020302020302020302020302020302020302020300A2020202D312E303731372020202D302E3832353020202020302E303030302043202020302020302020302020302020302020302020302020302020302020302020302020300A2020202D312E373836322020202D302E3431323520202020302E303030302043202020302020302020302020302020302020302020302020302020302020302020302020300A2020202D312E3738363220202020302E3431323520202020302E303030302043202020302020302020302020302020302020302020302020302020302020302020302020300A2020202D312E3037313720202020302E3832353020202020302E303030302043202020302020302020302020302020302020302020302020302020302020302020302020300A2020202D302E3335373220202020302E3431323520202020302E303030302043202020302020302020302020302020302020302020302020302020302020302020302020300A20202020312E3738363220202020302E3832353020202020302E303030302043202020302020302020302020302020302020302020302020302020302020302020302020300A2020312020322020312020302020202020200A2020322020332020312020302020202020200A2020332020342020312020302020202020200A2020342020352020312020302020202020200A2020352020362020312020302020202020200A2020362020372020322020302020202020200A2020372020382020312020302020202020200A2020382020392020322020302020202020200A2020392031302020312020302020202020200A2020312031302020312020302020202020200A2020352031302020322020302020202020200A2020322031312020312020302020202020200A4D2020454E44
Contributor: SASAKI S, TOYOHASHI UNIV. OF TECH.
InstType: EI
InstName: MX-1303
IoniMethod: _ENERGY 50 eV
IonPolarity: pos
Date: 2010-10-09 19:48:36+02:00
Num Peaks: 81
25 30 26 148 27 231 29 8 30 15 31 17 36 16 37 6 38 94 39 245 
40 44 41 11 42 331 45 49 50 39 51 8 52 32 53 28 54 14 55 4 
56 15 57 51 58.5 24 59 5 60 17 62 17 63 45 64 2 64.5 19 65 55 
65.5 35 66 3 67 19 69 19 70 11 71 1 71.5 20 73 17 74 22 75 4 
76 39 77 121 78 90 79 4 81 14 82 10 83 16 84 1 87 12 89 37 
90 30 91 5 93 13 97 12 98 12 101 4 102 35 103 47 104 36 105 5 
106 17 114 10 115 117 116 5 117 184 118 49 128 91 129 3 130 131 131 68 
132 999 133 10 140 16 141 14 142 60 143 43 144 82 145 19 146 53 147 32 
148 40 
