Name: (Z)-9-OCTADECEN-1-OL
MW: 268
Formula: C18H36O
Synonym: MassBank: JP003297
Synonym: (Z)-9-OCTADECEN-1-OL
Structure: 285A292D392D4F435441444543454E2D312D4F4C2E6D6F6C0A20204368656D447261773130323230393231343132440A2032312032302020302020302020302020302020302020302020302020303939392056323030300A2020202D302E323036332020202D312E3432383920202020302E303030302043202020302020302020302020302020302020302020302020302020302020302020302020300A20202020302E363138372020202D312E3432383920202020302E303030302043202020302020302020302020302020302020302020302020302020302020302020302020300A2020202D302E363138382020202D322E3134333420202020302E303030302048202020302020302020302020302020302020302020302020302020302020302020302020300A20202020312E303331322020202D302E3731343520202020302E303030302043202020302020302020302020302020302020302020302020302020302020302020302020300A20202020312E303331322020202D322E3134333420202020302E303030302048202020302020302020302020302020302020302020302020302020302020302020302020300A2020202D302E363138382020202D302E3731343520202020302E303030302043202020302020302020302020302020302020302020302020302020302020302020302020300A2020202D312E343433372020202D302E3731343520202020302E303030302043202020302020302020302020302020302020302020302020302020302020302020302020300A2020202D312E3835363220202020302E3030303020202020302E303030302043202020302020302020302020302020302020302020302020302020302020302020302020300A2020202D322E3638313220202020302E3030303020202020302E303030302043202020302020302020302020302020302020302020302020302020302020302020302020300A2020202D332E3039333720202020302E3731343520202020302E303030302043202020302020302020302020302020302020302020302020302020302020302020302020300A2020202D332E3931383720202020302E3731343520202020302E303030302043202020302020302020302020302020302020302020302020302020302020302020302020300A2020202D342E3333313220202020312E3432383920202020302E303030302043202020302020302020302020302020302020302020302020302020302020302020302020300A2020202D352E3135363220202020312E3432383920202020302E303030302043202020302020302020302020302020302020302020302020302020302020302020302020300A2020202D352E3536383720202020322E3134333420202020302E30303030204F202020302020302020302020302020302020302020302020302020302020302020302020300A20202020312E383536322020202D302E3731343520202020302E303030302043202020302020302020302020302020302020302020302020302020302020302020302020300A20202020322E3236383720202020302E3030303020202020302E303030302043202020302020302020302020302020302020302020302020302020302020302020302020300A20202020332E3039333720202020302E3030303020202020302E303030302043202020302020302020302020302020302020302020302020302020302020302020302020300A20202020332E3530363220202020302E3731343520202020302E303030302043202020302020302020302020302020302020302020302020302020302020302020302020300A20202020342E3333313220202020302E3731343520202020302E303030302043202020302020302020302020302020302020302020302020302020302020302020302020300A20202020342E3734333720202020312E3432393020202020302E303030302043202020302020302020302020302020302020302020302020302020302020302020302020300A20202020352E3536383720202020312E3432393020202020302E303030302043202020302020302020302020302020302020302020302020302020302020302020302020300A2020312020322020322020302020202020200A2020312020332020312020302020202020200A2020322020342020312020302020202020200A2020322020352020312020302020202020200A2020312020362020312020302020202020200A2020372020362020312020302020202020200A2020382020372020312020302020202020200A2020392020382020312020302020202020200A2031302020392020312020302020202020200A2031312031302020312020302020202020200A2031322031312020312020302020202020200A2031332031322020312020302020202020200A2031342031332020312020302020202020200A2031352020342020312020302020202020200A2031362031352020312020302020202020200A2031372031362020312020302020202020200A2031382031372020312020302020202020200A2031392031382020312020302020202020200A2032302031392020312020302020202020200A2032312032302020312020302020202020200A4D2020454E44
Contributor: KOGA M, UNIV. OF OCCUPATIONAL AND ENVIRONMENTAL HEALTH
InstType: EI
InstName: JEOL JMS-01-SG-2
IoniMethod: _ENERGY 75 eV
IonPolarity: pos
Date: 2010-10-09 19:48:36+02:00
Num Peaks: 56
45 39 51 14 53 137 54 999 55 552 56 728 57 29 58 14 65 33 66 87 
67 894 70 268 71 197 72 14 77 44 78 14 79 111 80 82 81 822 82 926 
83 780 84 148 85 106 91 23 93 39 94 36 95 655 96 784 97 492 98 77 
99 25 107 17 108 15 109 255 110 251 111 165 112 51 113 15 121 18 123 120 
124 138 125 72 126 22 135 15 137 66 138 79 139 31 140 18 151 24 152 41 
153 15 166 28 168 17 180 14 194 22 208 14 
