Name: MassBank: JP005354
MW: 292
Formula: C19H32O2
Synonym: MassBank: JP005354
Synonym: (Z,Z,Z)-9,12,15-OCTADECATRIENOIC ACID METHYL ESTER
Synonym: METHYL ALPHA-LINOLENATE
Structure: 285A2C5A2C5A292D392C31322C31352D4F43544144454341545249454E4F49432041434944204D455448594C2045535445522E6D6F6C0A20204368656D447261773130323230393232323332440A2032372032362020302020302020302020302020302020302020302020303939392056323030300A2020202D332E3931383720202020312E3037313720202020302E303030302043202020302020302020302020302020302020302020302020302020302020302020302020300A2020202D332E3039333720202020312E3037313720202020302E303030302043202020302020302020302020302020302020302020302020302020302020302020302020300A2020202D322E3638313220202020302E3335373220202020302E303030302043202020302020302020302020302020302020302020302020302020302020302020302020300A2020202D312E3835363220202020302E3335373220202020302E303030302043202020302020302020302020302020302020302020302020302020302020302020302020300A2020202D312E343433372020202D302E3335373220202020302E303030302043202020302020302020302020302020302020302020302020302020302020302020302020300A2020202D302E363138372020202D302E3335373220202020302E303030302043202020302020302020302020302020302020302020302020302020302020302020302020300A2020202D302E323036322020202D312E3037313720202020302E303030302043202020302020302020302020302020302020302020302020302020302020302020302020300A20202020302E363138372020202D312E3037313720202020302E303030302043202020302020302020302020302020302020302020302020302020302020302020302020300A20202020312E303331332020202D312E3738363220202020302E303030302043202020302020302020302020302020302020302020302020302020302020302020302020300A20202020312E383536322020202D312E3738363220202020302E303030302043202020302020302020302020302020302020302020302020302020302020302020302020300A20202020322E323638382020202D312E3037313720202020302E303030302043202020302020302020302020302020302020302020302020302020302020302020302020300A20202020332E303933372020202D312E3037313720202020302E303030302043202020302020302020302020302020302020302020302020302020302020302020302020300A20202020332E353036332020202D302E3335373220202020302E303030302043202020302020302020302020302020302020302020302020302020302020302020302020300A20202020332E3039333820202020302E3335373220202020302E303030302043202020302020302020302020302020302020302020302020302020302020302020302020300A20202020332E3530363320202020312E3037313720202020302E303030302043202020302020302020302020302020302020302020302020302020302020302020302020300A20202020332E3039333820202020312E3738363220202020302E303030302043202020302020302020302020302020302020302020302020302020302020302020302020300A20202020322E3236383820202020312E3738363220202020302E303030302043202020302020302020302020302020302020302020302020302020302020302020302020300A20202020312E3835363320202020322E3530303620202020302E303030302043202020302020302020302020302020302020302020302020302020302020302020302020300A2020202D342E3333313320202020302E3335373220202020302E30303030204F202020302020302020302020302020302020302020302020302020302020302020302020300A2020202D342E3333313320202020312E3738363220202020302E30303030204F202020302020302020302020302020302020302020302020302020302020302020302020300A2020202D332E3931383720202020322E3530303620202020302E303030302043202020302020302020302020302020302020302020302020302020302020302020302020300A20202020302E363138372020202D322E3530303620202020302E303030302048202020302020302020302020302020302020302020302020302020302020302020302020300A20202020322E323638372020202D322E3530303620202020302E303030302048202020302020302020302020302020302020302020302020302020302020302020302020300A20202020332E353036322020202D312E3738363220202020302E303030302048202020302020302020302020302020302020302020302020302020302020302020302020300A20202020342E333331332020202D302E3335373220202020302E303030302048202020302020302020302020302020302020302020302020302020302020302020302020300A20202020342E3333313320202020312E3037313720202020302E303030302048202020302020302020302020302020302020302020302020302020302020302020302020300A20202020332E3530363320202020322E3530303620202020302E303030302048202020302020302020302020302020302020302020302020302020302020302020302020300A2020312020322020312020302020202020200A2020322020332020312020302020202020200A2020332020342020312020302020202020200A2020342020352020312020302020202020200A2020352020362020312020302020202020200A2020362020372020312020302020202020200A2020372020382020312020302020202020200A2020382020392020312020302020202020200A2020392031302020322020302020202020200A2031302031312020312020302020202020200A2031312031322020312020302020202020200A2031322031332020322020302020202020200A2031332031342020312020302020202020200A2031342031352020312020302020202020200A2031352031362020322020302020202020200A2031362031372020312020302020202020200A2031372031382020312020302020202020200A2020312031392020322020302020202020200A2020312032302020312020302020202020200A2032302032312020312020302020202020200A2020392032322020312020302020202020200A2031302032332020312020302020202020200A2031322032342020312020302020202020200A2031332032352020312020302020202020200A2031352032362020312020302020202020200A2031362032372020312020302020202020200A4D2020454E44
Contributor: YAMAOKA R, KYOTO INSTITUTE OF TECHNOLOGY
InstType: EI
InstName: HITACHI M-80B
IoniMethod: _ENERGY 20 eV
IonPolarity: pos
Date: 2010-10-09 19:48:36+02:00
Num Peaks: 73
41 128 43 104 45 12 53 13 54 48 55 248 56 34 57 71 59 62 60 12 
65 16 66 87 67 516 68 147 69 134 74 59 77 63 78 130 79 999 80 469 
81 499 82 108 83 76 85 37 87 114 89 10 91 131 92 47 93 594 94 294 
95 613 96 87 97 77 99 23 101 46 105 80 106 42 107 293 108 567 109 169 
111 15 115 33 117 10 119 15 120 17 121 220 122 125 123 56 129 20 131 29 
133 18 134 17 135 133 136 108 137 30 141 11 145 20 147 37 149 120 150 56 
151 15 161 13 163 37 164 33 173 37 178 13 191 24 223 21 236 57 237 10 
261 34 292 73 293 13 
