Name: MassBank: JP001963
MW: 152
Formula: C10H16O
Synonym: MassBank: JP001963
Synonym: 3,3-DIMETHYL-5-METHYLENEHEPT-6-EN-2-ONE
Structure: 332C332D44494D455448594C2D352D4D455448594C454E45484550542D362D454E2D322D4F4E452E6D6F6C0A20204368656D447261773032323131303231313532440A2031312031302020302020302020302020302020302020302020302020303939392056323030300A2020202D312E3635303020202020302E3431323520202020302E303030302043202020302020302020302020302020302020302020302020302020302020302020302020300A2020202D312E323337352020202D302E3330323020202020302E303030302043202020302020302020302020302020302020302020302020302020302020302020302020300A2020202D302E343132352020202D302E3330323020202020302E303030302043202020302020302020302020302020302020302020302020302020302020302020302020300A20202020302E343132352020202D302E3330323020202020302E303030302043202020302020302020302020302020302020302020302020302020302020302020302020300A20202020302E3832353020202020302E3431323520202020302E303030302043202020302020302020302020302020302020302020302020302020302020302020302020300A20202020302E3431323520202020312E3132373020202020302E303030302043202020302020302020302020302020302020302020302020302020302020302020302020300A2020202D302E3431323520202020312E3132373020202020302E303030302043202020302020302020302020302020302020302020302020302020302020302020302020300A2020202D312E363530302020202D312E3031363420202020302E30303030204F202020302020302020302020302020302020302020302020302020302020302020302020300A20202020312E3635303020202020302E3431323520202020302E303030302043202020302020302020302020302020302020302020302020302020302020302020302020300A2020202D302E343132352020202D312E3132373020202020302E303030302043202020302020302020302020302020302020302020302020302020302020302020302020300A2020202D302E3431323520202020302E3532333020202020302E303030302043202020302020302020302020302020302020302020302020302020302020302020302020300A2020312020322020312020302020202020200A2020322020332020312020302020202020200A2020332020342020312020302020202020200A2020342020352020312020302020202020200A2020352020362020312020302020202020200A2020362020372020322020302020202020200A2020322020382020322020302020202020200A2020352020392020322020302020202020200A2020332031302020312020312020202020200A2020332031312020312020312020202020200A4D2020454E44
Contributor: MASS SPECTROSCOPY SOC. OF JAPAN (MSSJ)
InstType: EI
InstName: JEOL JMS-D-3000
IoniMethod: _ENERGY 70 eV
IonPolarity: pos
Date: 2010-10-09 19:48:36+02:00
Num Peaks: 30
42 306 43 477 44 36 51 46 52 24 53 179 55 261 56 21 57 56 65 67 
67 861 68 94 69 79 77 81 79 125 81 262 91 102 93 91 94 66 95 62 
105 24 107 56 108 22 109 999 110 97 119 128 123 24 134 107 137 79 152 179 
