Name: MassBank: JP002682
MW: 372
Formula: C21H40O5
Synonym: MassBank: JP002682
Synonym: 1-TETRADECYL-2,3-DI-O-ACETHYL GLYCEROL
Structure: 312D5445545241444543594C2D322C332D44492D4F2D4143455448594C20474C594345524F4C2E6D6F6C0A20204368656D447261773131323230393232343532440A2032362032352020302020302020302020302020302020302020302020303939392056323030300A2020202D332E3731323520202020312E3738363220202020302E303030302043202020302020302020302020302020302020302020302020302020302020302020302020300A2020202D322E3838373520202020312E3738363220202020302E303030302043202020302020302020302020302020302020302020302020302020302020302020302020300A2020202D342E3132353020202020322E3530303620202020302E303030302043202020302020302020302020302020302020302020302020302020302020302020302020300A2020202D342E3132353020202020312E3037313720202020302E30303030204F202020302020302020302020302020302020302020302020302020302020302020302020300A2020202D322E3437353020202020312E3037313720202020302E30303030204F202020302020302020302020302020302020302020302020302020302020302020302020300A2020202D312E3635303020202020312E3037313720202020302E303030302043202020302020302020302020302020302020302020302020302020302020302020302020300A2020202D312E3233373520202020302E3335373220202020302E303030302043202020302020302020302020302020302020302020302020302020302020302020302020300A2020202D302E3431323520202020302E3335373220202020302E303030302043202020302020302020302020302020302020302020302020302020302020302020302020300A20202020302E303030302020202D302E3335373220202020302E303030302043202020302020302020302020302020302020302020302020302020302020302020302020300A20202020302E383235302020202D302E3335373220202020302E303030302043202020302020302020302020302020302020302020302020302020302020302020302020300A20202020312E323337352020202D312E3037313720202020302E303030302043202020302020302020302020302020302020302020302020302020302020302020302020300A20202020322E303632352020202D312E3037313720202020302E303030302043202020302020302020302020302020302020302020302020302020302020302020302020300A20202020322E343735302020202D312E3738363220202020302E303030302043202020302020302020302020302020302020302020302020302020302020302020302020300A20202020332E333030302020202D312E3738363220202020302E303030302043202020302020302020302020302020302020302020302020302020302020302020302020300A20202020332E373132352020202D322E3530303620202020302E303030302043202020302020302020302020302020302020302020302020302020302020302020302020300A20202020342E353337352020202D322E3530303620202020302E303030302043202020302020302020302020302020302020302020302020302020302020302020302020300A2020202D342E3935303020202020312E3037313720202020302E303030302043202020302020302020302020302020302020302020302020302020302020302020302020300A2020202D352E3336323520202020312E3738363220202020302E30303030204F202020302020302020302020302020302020302020302020302020302020302020302020300A2020202D352E3336323520202020302E3335373220202020302E303030302043202020302020302020302020302020302020302020302020302020302020302020302020300A2020202D342E3935303020202020322E3530303620202020302E30303030204F202020302020302020302020302020302020302020302020302020302020302020302020300A2020202D352E3336323520202020332E3231353120202020302E303030302043202020302020302020302020302020302020302020302020302020302020302020302020300A2020202D362E3138373520202020332E3231353120202020302E303030302043202020302020302020302020302020302020302020302020302020302020302020302020300A2020202D342E3935303020202020332E3932393620202020302E30303030204F202020302020302020302020302020302020302020302020302020302020302020302020300A20202020342E393530302020202D332E3231353120202020302E303030302043202020302020302020302020302020302020302020302020302020302020302020302020300A20202020352E373735302020202D332E3231353120202020302E303030302043202020302020302020302020302020302020302020302020302020302020302020302020300A20202020362E313837352020202D332E3932393620202020302E303030302043202020302020302020302020302020302020302020302020302020302020302020302020300A2020312020322020312020302020202020200A2020312020332020312020302020202020200A2020312020342020312020302020202020200A2020322020352020312020302020202020200A2020352020362020312020302020202020200A2020362020372020312020302020202020200A2020372020382020312020302020202020200A2020382020392020312020302020202020200A2020392031302020312020302020202020200A2031302031312020312020302020202020200A2031312031322020312020302020202020200A2031322031332020312020302020202020200A2031332031342020312020302020202020200A2031342031352020312020302020202020200A2031352031362020312020302020202020200A2020342031372020312020302020202020200A2031372031382020322020302020202020200A2031372031392020312020302020202020200A2020332032302020312020302020202020200A2032302032312020312020302020202020200A2032312032322020312020302020202020200A2032312032332020322020302020202020200A2031362032342020312020302020202020200A2032342032352020312020302020202020200A2032352032362020312020302020202020200A4D2020454E44
Contributor: HAYASHI A, DEPT. OF CHEMISTRY, FAC. OF SCI. AND TECHNOLOGY, KINKI UNIV.
InstType: EI
InstName: SHIMADZU LKB-9000B
IoniMethod: _ENERGY 70 eV
IonPolarity: pos
Date: 2010-10-09 19:48:36+02:00
Num Peaks: 155
41 25 43 210 44 15 45 15 54 21 55 252 56 118 57 69 58 73 59 12 
60 33 61 8 66 10 67 100 68 102 69 45 70 177 71 873 72 59 73 47 
74 61 75 44 77 29 79 3 80 25 81 174 82 282 83 52 84 161 85 907 
86 214 87 4 91 15 93 24 94 44 95 23 96 269 97 587 98 174 99 48 
100 724 101 223 102 31 103 65 104 38 105 23 107 28 108 4 109 166 110 191 
111 412 112 26 113 317 114 31 115 118 116 34 117 999 118 63 119 61 120 1 
121 52 122 35 123 131 124 12 125 312 126 103 127 250 128 3 129 41 130 15 
133 32 135 10 136 33 137 100 138 82 139 13 140 54 141 183 142 27 143 2 
144 11 145 192 146 15 147 5 149 84 150 23 151 76 152 6 153 63 154 28 
155 88 156 4 157 15 159 582 160 50 161 1 163 28 165 54 166 59 167 5 
168 39 169 13 171 14 177 4 178 10 179 25 180 13 181 4 185 23 189 21 
191 38 192 2 193 24 194 83 195 78 196 4 197 221 198 34 199 12 205 3 
206 14 207 252 208 61 209 65 210 15 211 19 213 15 219 1 221 10 223 114 
224 38 225 16 226 28 227 647 228 107 229 1 239 22 241 10 252 105 253 6 
255 15 257 81 258 14 267 1 269 855 270 184 271 24 281 5 282 14 283 17 
299 33 311 2 312 12 313 16 341 12 
