Name: MassBank: JP007231
CAS: 99-50-3
MW: 154
Formula: C7H6O4
Synonym: MassBank: JP007231
Synonym: 3,4-DIHYDROXYBENZOIC ACID
Synonym: PROTOCATECHUIC ACID
Structure: 332C342D4449485944524F585942454E5A4F494320414349442E6D6F6C0A20204368656D447261773032323131303232333432440A2031312031312020302020302020302020302020302020302020302020303939392056323030300A2020202D312E343433372020202D302E3335373220202020302E303030302043202020302020302020302020302020302020302020302020302020302020302020302020300A2020202D302E363138372020202D302E3335373220202020302E303030302043202020302020302020302020302020302020302020302020302020302020302020302020300A2020202D302E3230363220202020302E3335373220202020302E303030302043202020302020302020302020302020302020302020302020302020302020302020302020300A20202020302E3631383820202020302E3335373220202020302E303030302043202020302020302020302020302020302020302020302020302020302020302020302020300A20202020312E303331332020202D302E3335373220202020302E303030302043202020302020302020302020302020302020302020302020302020302020302020302020300A20202020302E363138382020202D312E3037313720202020302E303030302043202020302020302020302020302020302020302020302020302020302020302020302020300A2020202D302E323036322020202D312E3037313720202020302E303030302043202020302020302020302020302020302020302020302020302020302020302020302020300A2020202D312E383536332020202D312E3037313720202020302E30303030204F202020302020302020302020302020302020302020302020302020302020302020302020300A2020202D312E3835363320202020302E3335373220202020302E30303030204F202020302020302020302020302020302020302020302020302020302020302020302020300A20202020312E383536332020202D302E3335373220202020302E30303030204F202020302020302020302020302020302020302020302020302020302020302020302020300A20202020312E3033313320202020312E3037313720202020302E30303030204F202020302020302020302020302020302020302020302020302020302020302020302020300A2020312020322020312020302020202020200A2020322020332020312020302020202020200A2020332020342020322020302020202020200A2020342020352020312020302020202020200A2020352020362020322020302020202020200A2020362020372020312020302020202020200A2020322020372020322020302020202020200A2020312020382020322020302020202020200A2020312020392020312020302020202020200A2020352031302020312020302020202020200A2020342031312020312020302020202020200A4D2020454E44
Contributor: ENDO K, PHARMACEUTICAL INST., TOHOKU UNIV.
InstType: EI
InstName: HITACHI M-52
IoniMethod: _ENERGY 25 eV
IonPolarity: pos
Date: 2010-10-09 19:48:36+02:00
Num Peaks: 27
17 139 18 964 27 51 28 5 39 26 43 36 44 51 51 1 52 67 53 41 
55 67 57 9 63 72 64 62 71 15 79 2 80 5 81 118 97 36 108 1 
109 236 110 200 111 15 137 87 138 72 154 999 155 82 
