Name: 1-HEPTADECANOYLPYRROLIDINE
MW: 323
Formula: C21H41NO
Synonym: MassBank: JP001855
Synonym: 1-HEPTADECANOYLPYRROLIDINE
Synonym: N-PALMITOYLPYRROLIDINE
Structure: 312D4845505441444543414E4F594C505952524F4C4944494E452E6D6F6C0A20204368656D447261773131313930393134313532440A2032332032332020302020302020302020302020302020302020302020303939392056323030300A20202020352E3036323920202020302E3332393020202020302E30303030204E202020302020302020302020302020302020302020302020302020302020302020302020300A20202020352E3134393120202020312E3134393520202020302E303030302043202020302020302020302020302020302020302020302020302020302020302020302020300A20202020352E3935363120202020312E3332313020202020302E303030302043202020302020302020302020302020302020302020302020302020302020302020302020300A20202020362E3336383620202020302E3630363520202020302E303030302043202020302020302020302020302020302020302020302020302020302020302020302020300A20202020352E383136362020202D302E3030363620202020302E303030302043202020302020302020302020302020302020302020302020302020302020302020302020300A20202020342E333438342020202D302E3038333520202020302E303030302043202020302020302020302020302020302020302020302020302020302020302020302020300A20202020342E333438342020202D302E3930383520202020302E303030302043202020302020302020302020302020302020302020302020302020302020302020302020300A20202020332E363334302020202D312E3332313020202020302E303030302043202020302020302020302020302020302020302020302020302020302020302020302020300A20202020322E393139352020202D302E3930383520202020302E303030302043202020302020302020302020302020302020302020302020302020302020302020302020300A20202020322E323035302020202D312E3332313020202020302E303030302043202020302020302020302020302020302020302020302020302020302020302020302020300A20202020312E343930362020202D302E3930383520202020302E303030302043202020302020302020302020302020302020302020302020302020302020302020302020300A20202020302E373736312020202D312E3332313020202020302E303030302043202020302020302020302020302020302020302020302020302020302020302020302020300A20202020302E303631362020202D302E3930383520202020302E303030302043202020302020302020302020302020302020302020302020302020302020302020302020300A2020202D302E363532392020202D312E3332313020202020302E303030302043202020302020302020302020302020302020302020302020302020302020302020302020300A2020202D312E333637332020202D302E3930383520202020302E303030302043202020302020302020302020302020302020302020302020302020302020302020302020300A2020202D322E303831382020202D312E3332313020202020302E303030302043202020302020302020302020302020302020302020302020302020302020302020302020300A2020202D322E373936332020202D302E3930383520202020302E303030302043202020302020302020302020302020302020302020302020302020302020302020302020300A2020202D332E353130372020202D312E3332313020202020302E303030302043202020302020302020302020302020302020302020302020302020302020302020302020300A2020202D342E323235322020202D302E3930383520202020302E303030302043202020302020302020302020302020302020302020302020302020302020302020302020300A2020202D342E393339372020202D312E3332313020202020302E303030302043202020302020302020302020302020302020302020302020302020302020302020302020300A2020202D352E363534322020202D302E3930383520202020302E303030302043202020302020302020302020302020302020302020302020302020302020302020302020300A2020202D362E333638362020202D312E3332313020202020302E303030302043202020302020302020302020302020302020302020302020302020302020302020302020300A20202020332E3633343020202020302E3332393020202020302E30303030204F202020302020302020302020302020302020302020302020302020302020302020302020300A2020312020322020312020302020202020200A2020322020332020312020302020202020200A2020332020342020312020302020202020200A2020342020352020312020302020202020200A2020312020352020312020302020202020200A2020362020372020312020302020202020200A2020372020382020312020302020202020200A2020382020392020312020302020202020200A2020392031302020312020302020202020200A2031302031312020312020302020202020200A2031312031322020312020302020202020200A2031322031332020312020302020202020200A2031332031342020312020302020202020200A2031342031352020312020302020202020200A2031352031362020312020302020202020200A2031362031372020312020302020202020200A2031372031382020312020302020202020200A2031382031392020312020302020202020200A2031392032302020312020302020202020200A2032302032312020312020302020202020200A2032312032322020312020302020202020200A2020362032332020322020302020202020200A2020312020362020312020302020202020200A4D2020454E44
Contributor: SEYAMA Y, DEPT. OF PHYSIOL. CHEMISTRY AND NUTRITION, FAC. OF MEDICINE, UNIV. OF TOKYO
InstType: EI
InstName: SHIMADZU QP-1000
IoniMethod: _ENERGY 70 eV
IonPolarity: pos
Date: 2010-10-09 19:48:36+02:00
Num Peaks: 20
98 90 99 12 112 17 113 999 126 247 127 61 140 12 154 29 168 6 182 17 
196 7 210 2 224 2 238 2 252 2 280 2 294 5 308 3 323 5 324 2 
