Name: FORMIC ACID ISOBUTYL ESTER
MW: 102
Formula: C5H10O2
Synonym: MassBank: JP002108
Synonym: FORMIC ACID ISOBUTYL ESTER
Synonym: ISOBUTYL FORMATE
Structure: 310A31380A464F524D494320414349442049534F425554594C2045535445522E6D6F6C0A20204368656D447261773038313131303139333332440A2020372020362020302020302020302020302020302020302020302020303939392056323030300A2020202D302E383235302020202D302E3030303020202020302E303030302043202020302020302020302020302020302020302020302020302020302020302020302020300A2020202D312E363530302020202D302E3030303020202020302E30303030204F202020302020302020302020302020302020302020302020302020302020302020302020300A2020202D302E343132352020202D302E3731343520202020302E30303030204F202020302020302020302020302020302020302020302020302020302020302020302020300A20202020302E343132352020202D302E3731343520202020302E303030302043202020302020302020302020302020302020302020302020302020302020302020302020300A20202020302E3832353020202020302E3030303020202020302E303030302043202020302020302020302020302020302020302020302020302020302020302020302020300A20202020302E3431323520202020302E3731343520202020302E303030302043202020302020302020302020302020302020302020302020302020302020302020302020300A20202020312E3635303020202020302E3030303020202020302E303030302043202020302020302020302020302020302020302020302020302020302020302020302020300A2020312020322020322020302020202020200A2020312020332020312020302020202020200A2020342020352020312020302020202020200A2020352020362020312020302020202020200A2020352020372020312020302020202020200A2020332020342020312020302020202020200A4D2020454E44
Contributor: TAJIMA S, GUNMA COLLEGE OF TECHNOLOGY
InstType: EI
InstName: HITACHI RMU-7M
IoniMethod: _ENERGY 70 eV
IonPolarity: pos
Date: 2010-10-09 19:48:36+02:00
Num Peaks: 24
15 16 26 14 27 225 28 81 29 164 31 419 32 48 33 120 38 14 39 155 
40 32 41 763 42 289 43 999 44 117 45 41 55 99 56 721 57 113 59 61 
60 361 61 96 73 26 74 17 
