Name: TETRAHYDROCORTICOSTERONE
MW: 350
Formula: C21H34O4
Synonym: MassBank: JP009701
Synonym: TETRAHYDROCORTICOSTERONE
Synonym: 3ALPHA,11BETA,21-TRIHYDROXY-5BETA-PREGNAN-20-ONE
Structure: 33414C5048412C3131424554412C32312D545249485944524F58592D35424554412D505245474E414E2D32302D4F4E452E6D6F6C0A20204368656D447261773038313131303135313532440A2032392033322020302020302020302020302020302020302020302020303939392056323030300A2020202D322E333532322020202D312E3433303220202020302E303030302043202020302020302020302020302020302020302020302020302020302020302020302020300A2020202D322E333532322020202D302E3630353220202020302E303030302043202020302020302020302020302020302020302020302020302020302020302020302020300A2020202D312E363337372020202D302E3139323720202020302E303030302043202020302020302020302020302020302020302020302020302020302020302020302020300A2020202D312E363337372020202D312E3834323720202020302E303030302043202020302020302020302020302020302020302020302020302020302020302020302020300A2020202D302E393233332020202D312E3433303220202020302E303030302043202020302020302020302020302020302020302020302020302020302020302020302020300A2020202D302E323038382020202D312E3834323720202020302E303030302043202020302020302020302020302020302020302020302020302020302020302020302020300A20202020302E353035372020202D312E3433303220202020302E303030302043202020302020302020302020302020302020302020302020302020302020302020302020300A20202020302E353035372020202D302E3630353220202020302E303030302043202020302020302020302020302020302020302020302020302020302020302020302020300A20202020312E323230312020202D302E3139323720202020302E303030302043202020302020302020302020302020302020302020302020302020302020302020302020300A20202020322E303034382020202D302E3434373720202020302E303030302043202020302020302020302020302020302020302020302020302020302020302020302020300A20202020322E3438393720202020302E3231393820202020302E303030302043202020302020302020302020302020302020302020302020302020302020302020302020300A20202020322E3030343820202020302E3838373220202020302E303030302043202020302020302020302020302020302020302020302020302020302020302020302020300A20202020322E3235393720202020312E3637313820202020302E303030302043202020302020302020302020302020302020302020302020302020302020302020302020300A20202020312E3637363320202020322E3235353220202020302E303030302043202020302020302020302020302020302020302020302020302020302020302020302020300A20202020312E3232303120202020302E3633323320202020302E303030302043202020302020302020302020302020302020302020302020302020302020302020302020300A20202020312E3232303120202020312E3435373320202020302E303030302043202020302020302020302020302020302020302020302020302020302020302020302020300A20202020302E3530353720202020312E3034343820202020302E303030302043202020302020302020302020302020302020302020302020302020302020302020302020300A2020202D302E3230383820202020302E3633323320202020302E303030302043202020302020302020302020302020302020302020302020302020302020302020302020300A2020202D302E323038382020202D302E3139323720202020302E303030302043202020302020302020302020302020302020302020302020302020302020302020302020300A2020202D302E393233332020202D302E3630353220202020302E303030302043202020302020302020302020302020302020302020302020302020302020302020302020300A2020202D302E3932333320202020302E3231393820202020302E303030302043202020302020302020302020302020302020302020302020302020302020302020302020300A20202020332E3036363720202020312E3834333420202020302E30303030204F202020302020302020302020302020302020302020302020302020302020302020302020300A20202020302E3837393520202020322E3034313720202020302E30303030204F202020302020302020302020302020302020302020302020302020302020302020302020300A2020202D302E3932333320202020312E3034343820202020302E30303030204F202020302020302020302020302020302020302020302020302020302020302020302020300A2020202D332E303636372020202D312E3834323720202020302E30303030204F202020302020302020302020302020302020302020302020302020302020302020302020300A2020202D302E393233332020202D322E3235353220202020302E303030302048202020302020302020302020302020302020302020302020302020302020302020302020300A2020202D302E323038382020202D312E3031373720202020302E303030302048202020302020302020302020302020302020302020302020302020302020302020302020300A20202020302E3530353720202020302E3231393820202020302E303030302048202020302020302020302020302020302020302020302020302020302020302020302020300A20202020312E323230312020202D312E3031373720202020302E303030302048202020302020302020302020302020302020302020302020302020302020302020302020300A2020312020322020312020302020202020200A2020322020332020312020302020202020200A2020312020342020312020302020202020200A2020342020352020312020302020202020200A2020352020362020312020302020202020200A2020362020372020312020302020202020200A2020372020382020312020302020202020200A2020382020392020312020302020202020200A2020392031302020312020302020202020200A2031302031312020312020302020202020200A2031312031322020312020302020202020200A2031322031332020312020312020202020200A2031332031342020312020302020202020200A2031322031352020312020302020202020200A2020392031352020312020302020202020200A2031352031362020312020312020202020200A2031352031372020312020302020202020200A2031372031382020312020302020202020200A2031382031392020312020302020202020200A2020382031392020312020302020202020200A2031392032302020312020302020202020200A2020332032302020312020302020202020200A2020352032302020312020302020202020200A2032302032312020312020312020202020200A2031332032322020322020302020202020200A2031342032332020312020302020202020200A2031382032342020312020312020202020200A2020312032352020312020362020202020200A2020352032362020312020312020202020200A2031392032372020312020362020202020200A2020382032382020312020312020202020200A2020392032392020312020362020202020200A4D2020454E44
Contributor: HASHIMOTO K, KYOTO COLLEGE OF PHARMACY
InstType: EI
InstName: HITACHI M-80
IoniMethod: _ENERGY 20 eV
IonPolarity: pos
Date: 2010-10-09 19:48:36+02:00
Num Peaks: 77
67 17 69 18 79 11 81 61 83 18 91 11 93 40 95 56 96 10 97 11 
105 36 107 74 108 13 109 37 119 31 120 11 121 54 122 10 123 20 125 10 
131 23 132 11 133 49 134 10 135 54 136 10 137 17 145 66 146 10 147 92 
148 16 149 46 151 11 157 16 159 86 160 13 161 114 162 17 163 25 165 10 
171 16 173 54 174 13 175 38 177 19 185 22 187 25 189 13 199 38 200 10 
201 28 213 61 214 15 215 16 227 15 228 11 229 22 238 11 239 11 241 14 
153 499 256 116 257 15 273 402 274 92 283 12 284 36 285 12 299 15 301 54 
302 13 314 17 317 15 319 999 320 223 321 33 332 21 
