Name: 2-PROPIONYLFURAN
CAS: 3194-15-8
MW: 124
Formula: C7H8O2
Synonym: MassBank: JP007736
Synonym: 2-PROPIONYLFURAN
Synonym: 1-(2-FURANYL)-1-PROPANONE
Structure: 322D50524F50494F4E594C465552414E2E6D6F6C0A20204368656D447261773131313730393136353532440A2031322031322020302020302020302020302020302020302020302020303939392056323030300A2020202D302E3737323620202020302E3236323420202020302E30303030204F202020302020302020302020302020302020302020302020302020302020302020302020300A20202020302E3034373820202020302E3334383620202020302E303030302043202020302020302020302020302020302020302020302020302020302020302020302020300A20202020302E333833342020202D302E3430353120202020302E303030302043202020302020302020302020302020302020302020302020302020302020302020302020300A2020202D302E323239372020202D302E3935373120202020302E303030302043202020302020302020302020302020302020302020302020302020302020302020302020300A2020202D302E393434322020202D302E3534343620202020302E303030302043202020302020302020302020302020302020302020302020302020302020302020302020300A20202020302E3436303320202020312E3036333120202020302E303030302043202020302020302020302020302020302020302020302020302020302020302020302020300A20202020302E3034373820202020312E3737373620202020302E30303030204F202020302020302020302020302020302020302020302020302020302020302020302020300A20202020312E3238353320202020312E3036333120202020302E303030302043202020302020302020302020302020302020302020302020302020302020302020302020300A20202020312E3639373820202020312E3737373620202020302E303030302043202020302020302020302020302020302020302020302020302020302020302020302020300A2020202D312E363937382020202D302E3838303120202020302E303030302048202020302020302020302020302020302020302020302020302020302020302020302020300A2020202D302E313433352020202D312E3737373620202020302E303030302048202020302020302020302020302020302020302020302020302020302020302020302020300A20202020312E313930342020202D302E3537363620202020302E303030302048202020302020302020302020302020302020302020302020302020302020302020302020300A2020312020322020312020302020202020200A2020322020332020322020302020202020200A2020332020342020312020302020202020200A2020342020352020322020302020202020200A2020312020352020312020302020202020200A2020362020372020322020302020202020200A2020362020382020312020302020202020200A2020382020392020312020302020202020200A2020322020362020312020302020202020200A2020352031302020312020302020202020200A2020342031312020312020302020202020200A2020332031322020312020302020202020200A4D2020454E44
Contributor: HASHIMOTO K, KYOTO COLLEGE OF PHARMACY
InstType: EI
InstName: HITACHI M-80
IoniMethod: _ENERGY 20 eV
IonPolarity: pos
Date: 2010-10-09 19:48:36+02:00
Num Peaks: 16
27 17 28 10 29 129 39 160 40 12 51 11 53 15 55 15 57 26 67 47 
68 30 95 999 96 112 97 10 124 413 125 27 
