Name: 13-DOCOSENOIC ACID METHYL ESTER
MW: 352
Formula: C23H44O2
Synonym: MassBank: JP002191
Synonym: 13-DOCOSENOIC ACID METHYL ESTER
Synonym: ERUCIC ACID METHYL ESTER
Structure: 31332D444F434F53454E4F49432041434944204D455448594C2045535445522E6D6F6C0A20204368656D447261773132313030393231343732440A2032352032342020302020302020302020302020302020302020302020303939392056323030300A2020202D302E323036322020202D372E3134343720202020302E303030302043202020302020302020302020302020302020302020302020302020302020302020302020300A20202020302E323036322020202D362E3433303220202020302E303030302043202020302020302020302020302020302020302020302020302020302020302020302020300A2020202D302E323036322020202D352E3731353820202020302E303030302043202020302020302020302020302020302020302020302020302020302020302020302020300A20202020302E323036322020202D352E3030313320202020302E303030302043202020302020302020302020302020302020302020302020302020302020302020302020300A2020202D302E323036322020202D342E3238363820202020302E303030302043202020302020302020302020302020302020302020302020302020302020302020302020300A20202020302E323036322020202D332E3537323420202020302E303030302043202020302020302020302020302020302020302020302020302020302020302020302020300A2020202D302E323036332020202D322E3835373920202020302E303030302043202020302020302020302020302020302020302020302020302020302020302020302020300A20202020302E323036322020202D322E3134333420202020302E303030302043202020302020302020302020302020302020302020302020302020302020302020302020300A2020202D302E323036332020202D312E3432383920202020302E303030302043202020302020302020302020302020302020302020302020302020302020302020302020300A20202020302E323036322020202D302E3731343520202020302E303030302043202020302020302020302020302020302020302020302020302020302020302020302020300A2020202D302E3230363320202020302E3030303020202020302E303030302043202020302020302020302020302020302020302020302020302020302020302020302020300A20202020302E3230363220202020302E3731343520202020302E303030302043202020302020302020302020302020302020302020302020302020302020302020302020300A2020202D302E3230363320202020312E3432383920202020302E303030302043202020302020302020302020302020302020302020302020302020302020302020302020300A20202020302E3230363220202020322E3134333420202020302E303030302043202020302020302020302020302020302020302020302020302020302020302020302020300A2020202D302E3230363320202020322E3835373920202020302E303030302043202020302020302020302020302020302020302020302020302020302020302020302020300A20202020302E3230363220202020332E3537323420202020302E303030302043202020302020302020302020302020302020302020302020302020302020302020302020300A2020202D302E3230363320202020342E3238363820202020302E303030302043202020302020302020302020302020302020302020302020302020302020302020302020300A20202020302E3230363220202020352E3030313320202020302E303030302043202020302020302020302020302020302020302020302020302020302020302020302020300A2020202D302E3230363320202020352E3731353820202020302E303030302043202020302020302020302020302020302020302020302020302020302020302020302020300A20202020302E3230363220202020362E3433303220202020302E303030302043202020302020302020302020302020302020302020302020302020302020302020302020300A2020202D302E3230363320202020372E3134343720202020302E303030302043202020302020302020302020302020302020302020302020302020302020302020302020300A20202020302E3230363220202020372E3835393220202020302E303030302043202020302020302020302020302020302020302020302020302020302020302020302020300A2020202D312E303331332020202D372E3134343720202020302E30303030204F202020302020302020302020302020302020302020302020302020302020302020302020300A20202020302E323036322020202D372E3835393220202020302E30303030204F202020302020302020302020302020302020302020302020302020302020302020302020300A20202020312E303331332020202D372E3835393220202020302E303030302043202020302020302020302020302020302020302020302020302020302020302020302020300A2020312020322020312020302020202020200A2020322020332020312020302020202020200A2020332020342020312020302020202020200A2020342020352020312020302020202020200A2020352020362020312020302020202020200A2020362020372020312020302020202020200A2020372020382020312020302020202020200A2020382020392020312020302020202020200A2020392031302020312020302020202020200A2031302031312020312020302020202020200A2031312031322020312020302020202020200A2031322031332020312020302020202020200A2031332031342020322020302020202020200A2031342031352020312020302020202020200A2031352031362020312020302020202020200A2031362031372020312020302020202020200A2031372031382020312020302020202020200A2031382031392020312020302020202020200A2031392032302020312020302020202020200A2032302032312020312020302020202020200A2032312032322020312020302020202020200A2020312032332020322020302020202020200A2020312032342020312020302020202020200A2032342032352020312020302020202020200A4D2020454E44
Contributor: KOGA M, UNIV. OF OCCUPATIONAL AND ENVIRONMENTAL HEALTH
InstType: EI
InstName: JEOL JMS-01-SG
IoniMethod: _ENERGY 70 eV
IonPolarity: pos
Date: 2010-10-09 19:48:36+02:00
Num Peaks: 149
42 124 43 29 45 95 46 1 53 37 54 145 55 999 56 37 57 659 58 49 
59 153 60 2 61 8 62 8 66 8 67 24 68 149 69 568 70 165 71 16 
73 29 74 390 75 74 76 1 77 29 79 53 80 37 81 29 82 203 83 531 
84 278 85 9 86 62 87 273 88 29 89 1 91 12 92 16 93 33 94 6 
95 211 96 311 97 452 98 27 99 45 100 24 101 58 106 1 107 45 108 37 
109 141 110 17 111 240 112 78 113 29 114 3 115 45 118 8 119 16 120 2 
121 82 122 29 123 128 124 11 125 132 126 12 127 29 128 2 129 53 133 33 
134 41 135 6 136 16 137 70 138 87 139 8 140 16 141 53 143 53 144 1 
146 8 147 16 148 24 149 5 150 12 151 45 152 82 153 5 155 8 161 12 
162 20 163 2 164 12 165 24 166 45 167 2 169 20 171 12 172 8 173 2 
177 12 179 24 180 20 181 1 182 8 183 8 185 8 191 1 193 24 194 29 
195 8 196 2 200 16 204 16 206 16 208 2 217 16 220 20 221 20 222 6 
224 16 225 20 227 12 232 1 235 24 236 66 237 24 238 1 239 20 241 12 
249 16 250 3 255 12 256 16 263 20 264 4 270 12 277 24 278 74 279 2 
291 29 292 20 302 24 320 23 321 132 322 37 352 33 353 1 354 12 
