Name: DIMETHYLAMINE
CAS: 124-40-3
MW: 45
Formula: C2H7N
Synonym: MassBank: JP009051
Synonym: DIMETHYLAMINE
Structure: 310A31300A44494D455448594C414D494E452E6D6F6C0A20204368656D447261773130313831303137303732440A2020332020322020302020302020302020302020302020302020302020303939392056323030300A2020202D302E3030303020202020302E3230363220202020302E30303030204E202020302020302020302020302020302020302020302020302020302020302020302020300A20202020302E373134352020202D302E3230363220202020302E303030302043202020302020302020302020302020302020302020302020302020302020302020302020300A2020202D302E373134352020202D302E3230363220202020302E303030302043202020302020302020302020302020302020302020302020302020302020302020302020300A2020312020322020312020302020202020200A2020312020332020312020302020202020200A4D2020454E44
Contributor: SODA AROMATIC CO., LTD.
InstType: EI
InstName: HITACHI M-80B
IoniMethod: _ENERGY 70 eV
IonPolarity: pos
Date: 2010-10-09 19:48:36+02:00
Num Peaks: 13
15 36 29 23 30 68 31 20 38 13 39 18 40 48 41 40 42 144 43 123 
44 999 45 576 46 19 
