Name: MassBank: JP005612
MW: 198
Formula: C8H7FN2O3
Synonym: MassBank: JP005612
Synonym: 1-(4,5-DEHYDROTETRAHYDRO-2-FURANYL)-5-FLUOROURACIL
Structure: 312D28342C352D4445485944524F5445545241485944524F2D322D465552414E594C292D352D464C554F524F55524143494C2E6D6F6C0A20204368656D447261773131313730393137333132440A2031372031382020302020302020302020302020302020302020302020303939392056323030300A2020202D302E373134352020202D302E3535363020202020302E303030302043202020302020302020302020302020302020302020302020302020302020302020302020300A2020202D302E373134352020202D312E3338313020202020302E303030302043202020302020302020302020302020302020302020302020302020302020302020302020300A2020202D302E303030302020202D312E3739333520202020302E303030302043202020302020302020302020302020302020302020302020302020302020302020302020300A20202020302E373134352020202D312E3338313020202020302E30303030204E202020302020302020302020302020302020302020302020302020302020302020302020300A20202020302E373134352020202D302E3535363020202020302E303030302043202020302020302020302020302020302020302020302020302020302020302020302020300A2020202D302E303030302020202D302E3134333520202020302E30303030204E202020302020302020302020302020302020302020302020302020302020302020302020300A2020202D302E3030303020202020302E3638313520202020302E303030302043202020302020302020302020302020302020302020302020302020302020302020302020300A20202020302E3636373420202020312E3136363420202020302E303030302043202020302020302020302020302020302020302020302020302020302020302020302020300A20202020302E3431323520202020312E3935313120202020302E303030302043202020302020302020302020302020302020302020302020302020302020302020302020300A2020202D302E3431323520202020312E3935313120202020302E303030302043202020302020302020302020302020302020302020302020302020302020302020302020300A2020202D302E3636373420202020312E3136363420202020302E30303030204F202020302020302020302020302020302020302020302020302020302020302020302020300A2020202D312E343238392020202D302E3134333520202020302E303030302048202020302020302020302020302020302020302020302020302020302020302020302020300A2020202D312E343238392020202D312E3739333520202020302E303030302046202020302020302020302020302020302020302020302020302020302020302020302020300A2020202D302E303030302020202D322E3631383520202020302E30303030204F202020302020302020302020302020302020302020302020302020302020302020302020300A20202020312E343238392020202D302E3134333520202020302E30303030204F202020302020302020302020302020302020302020302020302020302020302020302020300A2020202D302E3839373420202020322E3631383520202020302E303030302048202020302020302020302020302020302020302020302020302020302020302020302020300A20202020302E3839373420202020322E3631383520202020302E303030302048202020302020302020302020302020302020302020302020302020302020302020302020300A2020312020322020322020302020202020200A2020322020332020312020302020202020200A2020332020342020312020302020202020200A2020342020352020312020302020202020200A2020352020362020312020302020202020200A2020362020312020312020302020202020200A2020362020372020312020302020202020200A2020372020382020312020302020202020200A2020382020392020312020302020202020200A2020392031302020322020302020202020200A2031302031312020312020302020202020200A2031312020372020312020302020202020200A2020312031322020312020302020202020200A2020322031332020312020302020202020200A2020332031342020322020302020202020200A2020352031352020322020302020202020200A2031302031362020312020302020202020200A2020392031372020312020302020202020200A4D2020454E44
Contributor: MASS SPECTROSCOPY SOC. OF JAPAN (MSSJ)
InstType: EI
InstName: JEOL JMS-D-300
IoniMethod: _ENERGY 24 eV
IonPolarity: pos
Date: 2010-10-09 19:48:36+02:00
Num Peaks: 29
39 150 40 70 41 250 42 0 43 10 44 40 45 10 51 0 52 10 58 10 
59 20 61 0 68 999 69 750 70 120 71 2 79 30 86 10 87 220 88 0 
97 20 98 120 99 50 126 2 127 40 130 380 131 80 198 1 199 20 
