Name: ISOSERICENINE
MW: 260
Formula: C16H20O3
Synonym: MassBank: JP003659
Synonym: ISOSERICENINE
Structure: 303639335F49534F5345524943454E494E452E6D6F6C0A20204368656D447261773039303631303139353032440A2031392032302020302020302020302020302020302020302020302020303939392056323030300A2020202D302E3633343820202020302E3031333320202020302E303030302043202020302020302020302020302020302020302020302020302020302020302020302020300A2020202D302E363334382020202D302E3831313720202020302E303030302043202020302020302020302020302020302020302020302020302020302020302020302020300A20202020302E303739372020202D312E3232343220202020302E303030302043202020302020302020302020302020302020302020302020302020302020302020302020300A20202020302E373934322020202D302E3831313720202020302E303030302043202020302020302020302020302020302020302020302020302020302020302020302020300A20202020302E3739343220202020302E3031333320202020302E303030302043202020302020302020302020302020302020302020302020302020302020302020302020300A20202020302E3037393720202020302E3432353820202020302E303030302043202020302020302020302020302020302020302020302020302020302020302020302020300A20202020312E353739312020202D312E3036373220202020302E30303030204F202020302020302020302020302020302020302020302020302020302020302020302020300A20202020322E303633372020202D302E3339393220202020302E303030302043202020302020302020302020302020302020302020302020302020302020302020302020300A20202020312E3537383820202020302E3236383320202020302E303030302043202020302020302020302020302020302020302020302020302020302020302020302020300A20202020312E3833333720202020312E3035323920202020302E303030302043202020302020302020302020302020302020302020302020302020302020302020302020300A2020202D312E343234342020202D302E3537323820202020302E303030302043202020302020302020302020302020302020302020302020302020302020302020302020300A2020202D302E393632362020202D312E3536383720202020302E303030302043202020302020302020302020302020302020302020302020302020302020302020302020300A2020202D312E373832322020202D312E3636333320202020302E303030302043202020302020302020302020302020302020302020302020302020302020302020302020300A2020202D312E3334393220202020302E3432353820202020302E303030302043202020302020302020302020302020302020302020302020302020302020302020302020300A2020202D322E3036333720202020302E3031333320202020302E303030302043202020302020302020302020302020302020302020302020302020302020302020302020300A2020202D312E3334393220202020312E3235303820202020302E303030302043202020302020302020302020302020302020302020302020302020302020302020302020300A2020202D322E3036333720202020312E3636333320202020302E30303030204F202020302020302020302020302020302020302020302020302020302020302020302020300A2020202D302E3633343820202020312E3636333320202020302E30303030204F202020302020302020302020302020302020302020302020302020302020302020302020300A20202020302E3037393720202020312E3235303820202020302E303030302043202020302020302020302020302020302020302020302020302020302020302020302020300A2020312020322020312020302020202020200A2020322020332020312020302020202020200A2020332020342020312020302020202020200A2020342020352020322020302020202020200A2020352020362020312020302020202020200A2020362020312020312020302020202020200A2020342020372020312020302020202020200A2020372020382020312020302020202020200A2020382020392020322020302020202020200A2020392020352020312020302020202020200A2020392031302020312020302020202020200A2020322031312020312020302020202020200A2020322031322020312020302020202020200A2031322031332020322020302020202020200A2020312031342020312020302020202020200A2031342031352020322020302020202020200A2031342031362020312020302020202020200A2031362031372020322020302020202020200A2031362031382020312020302020202020200A2031382031392020312020302020202020200A4D2020454E44
Contributor: SASAKI S, TOYOHASHI UNIV. OF TECH.
InstType: EI
InstName: Unknown
IoniMethod: EI
IonPolarity: pos
Date: 2010-10-09 19:48:36+02:00
Num Peaks: 105
15 22 18 6 27 72 28 3 29 51 31 12 38 11 39 10 40 31 41 96 
42 39 43 7 44 11 45 30 50 31 51 7 52 37 53 85 55 114 56 1 
57 11 59 62 62 8 63 4 64 16 65 71 66 30 67 4 68 11 69 30 
70 9 71 1 74 9 75 11 76 11 77 15 78 45 79 150 80 31 81 2 
82 8 83 9 84 4 85 1 89 10 90 5 91 135 92 0 93 32 94 5 
95 23 96 1 97 4 98 15 103 6 104 0 105 85 106 8 107 11 108 999 
109 102 110 11 115 31 116 0 117 19 118 7 119 22 120 1 121 14 122 5 
126 4 127 1 128 19 129 15 130 4 131 1 132 11 133 26 134 6 135 1 
141 6 142 5 143 10 145 3 146 7 147 9 148 62 149 3 157 5 159 8 
160 4 161 2 171 5 172 3 173 5 185 1 192 10 199 2 200 3 201 1 
205 3 228 2 229 2 260 1 261 2 
