Name: MassBank: JP004517
CAS: 51861-91-7
MW: 371
Formula: C24H37NO2
Synonym: MassBank: JP004517
Synonym: (3-PYRIDYL)METHYL (Z,Z)-9,12-OCTADECDIENOATE
Synonym: BETA-PICOLINYL LINOLEATE
Structure: 28332D5059524944594C294D455448594C20285A2C5A292D392C31322D4F4354414445434449454E4F4154452E6D6F6C0A20204368656D447261773130323030393233323332440A2033312033312020302020302020302020302020302020302020302020303939392056323030300A20202020332E393239352020202D302E3431323520202020302E303030302043202020302020302020302020302020302020302020302020302020302020302020302020300A20202020342E363434302020202D302E3832353020202020302E303030302043202020302020302020302020302020302020302020302020302020302020302020302020300A20202020352E333538332020202D302E3431323520202020302E303030302043202020302020302020302020302020302020302020302020302020302020302020302020300A20202020352E3335383320202020302E3431323520202020302E303030302043202020302020302020302020302020302020302020302020302020302020302020302020300A20202020342E3634343020202020302E3832353020202020302E30303030204E202020302020302020302020302020302020302020302020302020302020302020302020300A20202020332E3932393520202020302E3431323520202020302E303030302043202020302020302020302020302020302020302020302020302020302020302020302020300A20202020332E323135302020202D302E3832353020202020302E303030302043202020302020302020302020302020302020302020302020302020302020302020302020300A20202020322E353030352020202D302E3431323520202020302E30303030204F202020302020302020302020302020302020302020302020302020302020302020302020300A20202020312E373836312020202D302E3832353020202020302E303030302043202020302020302020302020302020302020302020302020302020302020302020302020300A20202020312E303731372020202D302E3431323520202020302E303030302043202020302020302020302020302020302020302020302020302020302020302020302020300A20202020302E333537322020202D302E3832353020202020302E303030302043202020302020302020302020302020302020302020302020302020302020302020302020300A2020202D302E333537322020202D302E3431323520202020302E303030302043202020302020302020302020302020302020302020302020302020302020302020302020300A2020202D312E303731372020202D302E3832353020202020302E303030302043202020302020302020302020302020302020302020302020302020302020302020302020300A2020202D312E373836312020202D302E3431323520202020302E303030302043202020302020302020302020302020302020302020302020302020302020302020302020300A2020202D322E353030352020202D302E3832353020202020302E303030302043202020302020302020302020302020302020302020302020302020302020302020302020300A2020202D332E323135302020202D302E3431323520202020302E303030302043202020302020302020302020302020302020302020302020302020302020302020302020300A2020202D332E393239352020202D302E3832353020202020302E303030302043202020302020302020302020302020302020302020302020302020302020302020302020300A20202020312E373836312020202D312E3635303020202020302E30303030204F202020302020302020302020302020302020302020302020302020302020302020302020300A2020202D332E393239352020202D312E3635303020202020302E303030302048202020302020302020302020302020302020302020302020302020302020302020302020300A2020202D342E363434302020202D302E3431323520202020302E303030302043202020302020302020302020302020302020302020302020302020302020302020302020300A2020202D352E333538332020202D302E3832353020202020302E303030302048202020302020302020302020302020302020302020302020302020302020302020302020300A2020202D342E3634343020202020302E3431323520202020302E303030302043202020302020302020302020302020302020302020302020302020302020302020302020300A2020202D332E3932393520202020302E3832353020202020302E303030302043202020302020302020302020302020302020302020302020302020302020302020302020300A2020202D332E3231353020202020302E3431323520202020302E303030302043202020302020302020302020302020302020302020302020302020302020302020302020300A2020202D322E3530303520202020302E3832353020202020302E303030302043202020302020302020302020302020302020302020302020302020302020302020302020300A2020202D312E3738363120202020302E3431323520202020302E303030302043202020302020302020302020302020302020302020302020302020302020302020302020300A2020202D312E3037313720202020302E3832353020202020302E303030302043202020302020302020302020302020302020302020302020302020302020302020302020300A2020202D302E3335373220202020302E3431323520202020302E303030302043202020302020302020302020302020302020302020302020302020302020302020302020300A20202020302E3335373220202020302E3832353020202020302E303030302043202020302020302020302020302020302020302020302020302020302020302020302020300A2020202D332E3932393520202020312E3635303020202020302E303030302048202020302020302020302020302020302020302020302020302020302020302020302020300A2020202D332E3030313520202020312E3230393420202020302E303030302048202020302020302020302020302020302020302020302020302020302020302020302020300A2020312020322020322020302020202020200A2020322020332020312020302020202020200A2020332020342020322020302020202020200A2020342020352020312020302020202020200A2020352020362020322020302020202020200A2020362020312020312020302020202020200A2020312020372020312020302020202020200A2020372020382020312020302020202020200A2020382020392020312020302020202020200A2020392031302020312020302020202020200A2031302031312020312020302020202020200A2031312031322020312020302020202020200A2031322031332020312020302020202020200A2031332031342020312020302020202020200A2031342031352020312020302020202020200A2031352031362020312020302020202020200A2031362031372020312020302020202020200A2020392031382020322020302020202020200A2031372031392020312020302020202020200A2031372032302020322020302020202020200A2032302032312020312020302020202020200A2032302032322020312020302020202020200A2032322032332020312020302020202020200A2032332032342020322020302020202020200A2032342032352020312020302020202020200A2032352032362020312020302020202020200A2032362032372020312020302020202020200A2032372032382020312020302020202020200A2032382032392020312020302020202020200A2032332033302020312020302020202020200A2032342033312020312020302020202020200A4D2020454E44
Contributor: SEYAMA Y, DEPT. OF PHYSIOL. CHEMISTRY AND NUTRITION, FAC. OF MEDICINE, UNIV. OF TOKYO
InstType: EI
InstName: SHIMADZU QP-1000
IoniMethod: _ENERGY 70 eV
IonPolarity: pos
Date: 2010-10-09 19:48:36+02:00
Num Peaks: 110
40 54 41 676 42 76 43 243 51 27 52 18 53 102 54 173 55 461 56 51 
57 54 63 19 64 33 65 270 66 54 67 489 68 62 69 147 70 15 77 77 
78 37 79 248 80 126 81 267 82 23 83 42 91 124 92 999 93 479 94 72 
95 138 97 15 105 13 106 18 107 39 108 573 109 259 110 74 119 13 121 31 
123 28 131 13 133 24 134 11 135 24 137 17 145 11 146 12 148 14 149 16 
151 186 152 23 164 546 165 72 177 12 178 96 179 20 190 19 192 35 193 13 
204 37 205 40 206 79 207 11 218 15 220 92 221 20 232 12 233 11 234 40 
235 10 246 21 247 36 248 26 256 15 258 13 260 127 261 52 262 21 272 26 
273 14 274 110 275 30 276 12 279 15 286 25 287 12 288 45 289 11 296 14 
298 11 300 57 301 24 302 19 310 11 314 98 315 33 316 26 328 73 329 18 
330 16 342 32 343 13 344 10 356 12 370 59 371 267 372 101 373 48 374 11 
