Name: 2-PENTAFLOROETYLBENZIMIDAZ0L
MW: 236
Formula: C9H5F5N2
Synonym: MassBank: JP007923
Synonym: 2-PENTAFLOROETYLBENZIMIDAZ0L
Structure: 322D50454E5441464C4F524F4554594C42454E5A494D4944415A304C2E6D6F6C0A20204368656D447261773032323131303133343532440A2031362031372020302020302020302020302020302020302020302020303939392056323030300A2020202D322E3538363720202020302E3431323520202020302E303030302043202020302020302020302020302020302020302020302020302020302020302020302020300A2020202D322E353836372020202D302E3431323520202020302E303030302043202020302020302020302020302020302020302020302020302020302020302020302020300A2020202D312E383732332020202D302E3832353020202020302E303030302043202020302020302020302020302020302020302020302020302020302020302020302020300A2020202D312E313537382020202D302E3431323520202020302E303030302043202020302020302020302020302020302020302020302020302020302020302020302020300A2020202D312E3135373820202020302E3431323520202020302E303030302043202020302020302020302020302020302020302020302020302020302020302020302020300A2020202D312E3837323320202020302E3832353020202020302E303030302043202020302020302020302020302020302020302020302020302020302020302020302020300A2020202D302E333733322020202D302E3636373420202020302E30303030204E202020302020302020302020302020302020302020302020302020302020302020302020300A20202020302E3131313720202020302E3030303020202020302E303030302043202020302020302020302020302020302020302020302020302020302020302020302020300A2020202D302E3337333220202020302E3636373420202020302E30303030204E202020302020302020302020302020302020302020302020302020302020302020302020300A20202020302E3933363720202020302E3030303020202020302E303030302043202020302020302020302020302020302020302020302020302020302020302020302020300A20202020312E3736313720202020302E3030303020202020302E303030302043202020302020302020302020302020302020302020302020302020302020302020302020300A20202020322E3538363720202020302E3030303020202020302E303030302046202020302020302020302020302020302020302020302020302020302020302020302020300A20202020302E3933363720202020302E3832353020202020302E303030302046202020302020302020302020302020302020302020302020302020302020302020302020300A20202020302E393336372020202D302E3832353020202020302E303030302046202020302020302020302020302020302020302020302020302020302020302020302020300A20202020312E3736313720202020302E3832353020202020302E303030302046202020302020302020302020302020302020302020302020302020302020302020302020300A20202020312E373631372020202D302E3832353020202020302E303030302046202020302020302020302020302020302020302020302020302020302020302020302020300A2020312020322020322020302020202020200A2020322020332020312020302020202020200A2020332020342020322020302020202020200A2020342020352020312020302020202020200A2020352020362020322020302020202020200A2020362020312020312020302020202020200A2020342020372020312020302020202020200A2020372020382020312020302020202020200A2020382020392020322020302020202020200A2020392020352020312020302020202020200A2020382031302020312020302020202020200A2031302031312020312020302020202020200A2031312031322020312020302020202020200A2031302031332020312020312020202020200A2031302031342020312020312020202020200A2031312031352020312020312020202020200A2031312031362020312020312020202020200A4D2020454E44
Contributor: MAKI Y, GOVERMENT INDUSTRIAL RESEARCH INSTITUTE, NAGOYA
InstType: EI
InstName: HITACHI M-80
IoniMethod: _ENERGY 20 eV
IonPolarity: pos
Date: 2010-10-09 19:48:36+02:00
Num Peaks: 16
45 12 90 46 95 52 100 13 102 48 108 31 140 104 147 93 148 10 167 907 
168 89 186 34 217 49 235 13 236 999 237 108 
