Name: METHYL PIVALATE
MW: 116
Formula: C6H12O2
Synonym: MassBank: JP005871
Synonym: METHYL PIVALATE
Structure: 310A32300A4D455448594C20504956414C4154452E6D6F6C0A20204368656D447261773038313231303030333732440A2020382020372020302020302020302020302020302020302020302020303939392056323030300A2020202D302E333032302020202D302E3631383820202020302E303030302043202020302020302020302020302020302020302020302020302020302020302020302020300A2020202D302E3330323020202020302E3230363220202020302E303030302043202020302020302020302020302020302020302020302020302020302020302020302020300A20202020302E3532333020202020302E3230363220202020302E303030302043202020302020302020302020302020302020302020302020302020302020302020302020300A2020202D312E3132373020202020302E3230363220202020302E303030302043202020302020302020302020302020302020302020302020302020302020302020302020300A2020202D302E3330323020202020312E3033313320202020302E303030302043202020302020302020302020302020302020302020302020302020302020302020302020300A2020202D312E303136342020202D312E3033313320202020302E30303030204F202020302020302020302020302020302020302020302020302020302020302020302020300A20202020302E343132352020202D312E3033313320202020302E30303030204F202020302020302020302020302020302020302020302020302020302020302020302020300A20202020312E313237302020202D302E3631383820202020302E303030302043202020302020302020302020302020302020302020302020302020302020302020302020300A2020312020322020312020302020202020200A2020322020332020312020302020202020200A2020322020342020312020302020202020200A2020322020352020312020302020202020200A2020312020362020322020302020202020200A2020312020372020312020302020202020200A2020372020382020312020302020202020200A4D2020454E44
Contributor: YAMAMOTO M, DEP. CHEMISTRY, FAC. SCIENCE, NARA WOMEN'S UNIV.
InstType: EI
InstName: HITACHI RMU-6M
IoniMethod: _ENERGY 70 eV
IonPolarity: pos
Date: 2010-10-09 19:48:36+02:00
Num Peaks: 20
15 94 27 61 28 28 29 231 31 12 39 90 40 17 41 359 42 31 43 12 
55 30 56 263 57 999 58 49 59 42 69 28 73 76 85 87 101 35 116 61 
