Name: 5-BROMO-1-DIETHOXYPHOSPHORYL-4-HYDROXYPENTAN-2-ONE
MW: 316
Formula: C9H18BrO5P
Synonym: MassBank: JP009347
Synonym: 5-BROMO-1-DIETHOXYPHOSPHORYL-4-HYDROXYPENTAN-2-ONE
Structure: 352D42524F4D4F2D312D44494554484F585950484F5350484F52594C2D342D485944524F585950454E54414E2D322D4F4E452E6D6F6C0A20204368656D447261773034323331303034323432440A2031362031352020302020302020302020302020302020302020302020303939392056323030300A2020202D302E383130322020202D302E3832353020202020302E303030302043202020302020302020302020302020302020302020302020302020302020302020302020300A2020202D302E303935372020202D312E3233373520202020302E303030302043202020302020302020302020302020302020302020302020302020302020302020302020300A20202020302E363138382020202D302E3832353020202020302E303030302043202020302020302020302020302020302020302020302020302020302020302020302020300A20202020312E333333322020202D312E3233373520202020302E303030302043202020302020302020302020302020302020302020302020302020302020302020302020300A20202020322E303437372020202D302E3832353020202020302E303030302043202020302020302020302020302020302020302020302020302020302020302020302020300A2020202D302E303935372020202D322E3036323520202020302E30303030204F202020302020302020302020302020302020302020302020302020302020302020302020300A20202020312E333333322020202D322E3036323520202020302E30303030204F202020302020302020302020302020302020302020302020302020302020302020302020300A2020202D302E3831303220202020302E3030303020202020302E303030302050202020302020302020302020302020302020302020302020302020302020302020302020300A20202020302E3031343820202020302E3030303020202020302E30303030204F202020302020302020302020302020302020302020302020302020302020302020302020300A2020202D312E3633353220202020302E3030303020202020302E30303030204F202020302020302020302020302020302020302020302020302020302020302020302020300A2020202D302E3831303220202020302E3832353020202020302E30303030204F202020302020302020302020302020302020302020302020302020302020302020302020300A2020202D322E303437372020202D302E3731343520202020302E303030302043202020302020302020302020302020302020302020302020302020302020302020302020300A2020202D312E363335322020202D312E3432383920202020302E303030302043202020302020302020302020302020302020302020302020302020302020302020302020300A2020202D302E3039353720202020312E3233373520202020302E303030302043202020302020302020302020302020302020302020302020302020302020302020302020300A2020202D302E3039353720202020322E3036323520202020302E303030302043202020302020302020302020302020302020302020302020302020302020302020302020300A20202020322E3034373720202020302E3030303020202020302E303030302042722020302020302020302020302020302020302020302020302020302020302020302020300A2020312020322020312020302020202020200A2020322020332020312020302020202020200A2020332020342020312020302020202020200A2020342020352020312020302020202020200A2020322020362020322020302020202020200A2020342020372020312020302020202020200A2020382020392020322020302020202020200A2020382031302020312020302020202020200A2020382031312020312020302020202020200A2031322031332020312020302020202020200A2031302031322020312020302020202020200A2031342031352020312020302020202020200A2031312031342020312020302020202020200A2020312020382020312020302020202020200A2020352031362020312020302020202020200A4D2020454E44
Contributor: KANEMASA S, INST. OF ADVANCED MATERIAL STUDY KYUSHU UNIV.
InstType: EI
InstName: JEOL JMS-01-SG-2
IoniMethod: _ENERGY 75 eV
IonPolarity: pos
Date: 2010-10-09 19:48:36+02:00
Num Peaks: 56
38 90 40 74 41 116 42 271 44 74 58 62 65 135 77 75 78 62 79 85 
80 409 91 63 96 129 97 257 105 109 108 107 109 319 121 152 123 589 124 63 
125 359 137 109 139 337 149 111 151 330 152 178 162 37 163 187 164 22 166 32 
167 223 177 22 179 395 180 31 190 20 191 93 194 599 195 230 196 21 209 27 
218 59 219 471 220 63 221 16 223 999 224 95 236 19 237 131 271 21 273 20 
299 73 301 78 317 173 318 20 319 168 320 18 
