Name: ETHYL 2-ETHOXYCARBONYL-3-(1-PHENETHYL)-5-HEXENOATE
MW: 318
Formula: C19H26O4
Synonym: MassBank: JP004890
Synonym: ETHYL 2-ETHOXYCARBONYL-3-(1-PHENETHYL)-5-HEXENOATE
Structure: 303932305F455448594C20322D4554484F5859434152424F4E594C2D332D28312D5048454E455448594C292D352D484558454E4F4154452E6D6F6C0A20204368656D447261773039303631303230343732440A2032332032332020302020302020302020302020302020302020302020303939392056323030300A2020202D312E373836312020202D312E3835363320202020302E303030302043202020302020302020302020302020302020302020302020302020302020302020302020300A2020202D312E373836312020202D322E3638313320202020302E303030302043202020302020302020302020302020302020302020302020302020302020302020302020300A2020202D312E303731362020202D332E3039333820202020302E303030302043202020302020302020302020302020302020302020302020302020302020302020302020300A2020202D302E333537322020202D322E3638313320202020302E303030302043202020302020302020302020302020302020302020302020302020302020302020302020300A2020202D302E333537322020202D312E3835363320202020302E303030302043202020302020302020302020302020302020302020302020302020302020302020302020300A2020202D312E303731362020202D312E3434333820202020302E303030302043202020302020302020302020302020302020302020302020302020302020302020302020300A2020202D312E303731362020202D302E3631383820202020302E303030302043202020302020302020302020302020302020302020302020302020302020302020302020300A2020202D312E373836312020202D302E3230363320202020302E303030302043202020302020302020302020302020302020302020302020302020302020302020302020300A2020202D302E333537322020202D302E3230363320202020302E303030302043202020302020302020302020302020302020302020302020302020302020302020302020300A20202020302E333537332020202D302E3631383820202020302E303030302043202020302020302020302020302020302020302020302020302020302020302020302020300A2020202D302E3335373220202020302E3631383720202020302E303030302043202020302020302020302020302020302020302020302020302020302020302020302020300A20202020302E333537332020202D312E3434333820202020302E303030302043202020302020302020302020302020302020302020302020302020302020302020302020300A20202020312E303731382020202D312E3835363320202020302E303030302043202020302020302020302020302020302020302020302020302020302020302020302020300A20202020302E3335373320202020312E3033313320202020302E303030302043202020302020302020302020302020302020302020302020302020302020302020302020300A20202020302E3335373620202020312E3835343920202020302E30303030204F202020302020302020302020302020302020302020302020302020302020302020302020300A20202020312E3037323120202020302E3631383820202020302E30303030204F202020302020302020302020302020302020302020302020302020302020302020302020300A20202020312E303731382020202D302E3230363220202020302E303030302043202020302020302020302020302020302020302020302020302020302020302020302020300A2020202D312E3037313620202020312E3033313220202020302E303030302043202020302020302020302020302020302020302020302020302020302020302020302020300A2020202D312E3738363120202020302E3631383720202020302E30303030204F202020302020302020302020302020302020302020302020302020302020302020302020300A2020202D312E3037313620202020312E3835363220202020302E30303030204F202020302020302020302020302020302020302020302020302020302020302020302020300A2020202D302E3335373220202020322E3236383820202020302E303030302043202020302020302020302020302020302020302020302020302020302020302020302020300A20202020312E373836312020202D302E3631393020202020302E303030302043202020302020302020302020302020302020302020302020302020302020302020302020300A2020202D302E3335373220202020332E3039333820202020302E303030302043202020302020302020302020302020302020302020302020302020302020302020302020300A2020312020322020322020302020202020200A2020322020332020312020302020202020200A2020332020342020322020302020202020200A2020342020352020312020302020202020200A2020352020362020322020302020202020200A2020362020312020312020302020202020200A2020362020372020312020302020202020200A2020372020382020312020302020202020200A2020372020392020312020302020202020200A2020392031302020312020302020202020200A2020392031312020312020302020202020200A2031302031322020312020302020202020200A2031322031332020322020302020202020200A2031312031342020312020302020202020200A2031312031382020312020302020202020200A2031342031352020322020302020202020200A2031342031362020312020302020202020200A2031362031372020312020302020202020200A2031382031392020322020302020202020200A2031382032302020312020302020202020200A2032302032312020312020302020202020200A2031372032322020312020302020202020200A2032312032332020312020302020202020200A4D2020454E44
Contributor: KATO T, DEPT. OF CHEM., FAC. OF SCI., TOHOKU UNIV.
InstType: EI
InstName: Unknown
IoniMethod: _ENERGY 14 eV
IonPolarity: pos
Date: 2010-10-09 19:48:36+02:00
Num Peaks: 27
104 20 105 221 118 34 129 1 131 13 132 18 143 137 157 1 158 306 159 25 
160 999 161 22 162 29 173 111 178 10 184 1 185 54 198 53 213 11 214 1 
227 94 228 21 230 10 272 6 273 115 274 31 318 104 
