Name: MassBank: JP006362
MW: 282
Formula: C20H26O
Synonym: MassBank: JP006362
Synonym: (1R,2S,5R)-5-METHYL-2-(1-METHYL-1-(2'-NAPHTHYL)ETHYL)-CYCLOHEXANOL
Structure: 2831522C32532C3552292D352D4D455448594C2D322D28312D4D455448594C2D312D2832272D4E4150485448594C29455448594C292D4359434C4F484558414E4F4C2E6D6F6C0A20204368656D447261773130313930393133333432440A2032342032362020302020302020302020302020302020302020302020303939392056323030300A2020202D322E3737353720202020302E3334383420202020302E303030302043202020302020302020302020302020302020302020302020302020302020302020302020300A2020202D322E383736322020202D302E3437303320202020302E303030302043202020302020302020302020302020302020302020302020302020302020302020302020300A2020202D322E323137342020202D302E3936363820202020302E303030302043202020302020302020302020302020302020302020302020302020302020302020302020300A2020202D312E343538302020202D302E3634343620202020302E303030302043202020302020302020302020302020302020302020302020302020302020302020302020300A2020202D312E3335373520202020302E3137343220202020302E303030302043202020302020302020302020302020302020302020302020302020302020302020302020300A2020202D322E3031363320202020302E3637303820202020302E303030302043202020302020302020302020302020302020302020302020302020302020302020302020300A2020202D332E363635312020202D302E3232393120202020302E303030302048202020302020302020302020302020302020302020302020302020302020302020302020300A2020202D302E3034373320202020302E3031343420202020302E303030302043202020302020302020302020302020302020302020302020302020302020302020302020300A2020202D302E363334312020202D302E3630313420202020302E303030302048202020302020302020302020302020302020302020302020302020302020302020302020300A20202020302E3030353520202020302E3833363720202020302E303030302043202020302020302020302020302020302020302020302020302020302020302020302020300A20202020302E3737373720202020302E3031343420202020302E303030302043202020302020302020302020302020302020302020302020302020302020302020302020300A2020202D302E303034312020202D302E3831303520202020302E303030302043202020302020302020302020302020302020302020302020302020302020302020302020300A2020202D312E323732342020202D312E3434383420202020302E30303030204F202020302020302020302020302020302020302020302020302020302020302020302020300A20202020312E313930322020202D302E3639343920202020302E303030302043202020302020302020302020302020302020302020302020302020302020302020302020300A20202020322E303135312020202D302E3639343920202020302E303030302043202020302020302020302020302020302020302020302020302020302020302020302020300A20202020322E3432373620202020302E3031393520202020302E303030302043202020302020302020302020302020302020302020302020302020302020302020302020300A20202020322E3031353120202020302E3733333920202020302E303030302043202020302020302020302020302020302020302020302020302020302020302020302020300A20202020312E3139303220202020302E3733333920202020302E303030302043202020302020302020302020302020302020302020302020302020302020302020302020300A20202020332E3235323620202020302E3031393520202020302E303030302043202020302020302020302020302020302020302020302020302020302020302020302020300A20202020332E3636353120202020302E3733333920202020302E303030302043202020302020302020302020302020302020302020302020302020302020302020302020300A20202020332E3235323620202020312E3434383420202020302E303030302043202020302020302020302020302020302020302020302020302020302020302020302020300A20202020322E3432373620202020312E3434383420202020302E303030302043202020302020302020302020302020302020302020302020302020302020302020302020300A2020202D312E3034383420202020302E3933393220202020302E303030302048202020302020302020302020302020302020302020302020302020302020302020302020300A2020202D332E323530372020202D312E3230353420202020302E303030302043202020302020302020302020302020302020302020302020302020302020302020302020300A2020312020322020312020302020202020200A2020322020332020312020302020202020200A2020332020342020312020302020202020200A2020342020352020312020302020202020200A2020352020362020312020302020202020200A2020362020312020312020302020202020200A2020322020372020312020312020202020200A2020352020382020312020312020202020200A2020342020392020312020312020202020200A2020382031302020312020302020202020200A2020382031312020312020302020202020200A2020382031322020312020302020202020200A2020342031332020312020362020202020200A2031312031342020322020302020202020200A2031342031352020312020302020202020200A2031352031362020322020302020202020200A2031362031372020312020302020202020200A2031372031382020322020302020202020200A2031382031312020312020302020202020200A2031362031392020312020302020202020200A2031392032302020322020302020202020200A2032302032312020312020302020202020200A2032312032322020322020302020202020200A2032322031372020312020302020202020200A2020352032332020312020362020202020200A2020322032342020312020362020202020200A4D2020454E44
Contributor: HISAHIRO HAGIWARA, CHEMICAL RESEARCH INSTITUTE OF NON-AQUEOUSSOLUTIONS TOHOKU UNIV.
InstType: EI
InstName: JEOL JMS-DX-300
IoniMethod: _ENERGY 70 eV
IonPolarity: pos
Date: 2010-10-09 19:48:36+02:00
Num Peaks: 47
32 460 37 16 38 14 39 33 40 32 41 30 42 42 43 999 44 36 45 26 
58 458 59 28 67 42 69 23 71 10 77 11 81 22 82 96 91 11 95 35 
107 15 109 33 124 14 126 13 127 19 128 41 129 32 134 12 141 198 142 12 
148 19 150 43 152 19 153 49 155 54 156 2 164 15 168 102 170 580 171 4 
178 12 182 11 264 15 280 31 281 13 282 54 283 18 
