Name: METHYL 3-NITROPHENYL KETONE
MW: 165
Formula: C8H7NO3
Synonym: MassBank: JP009614
Synonym: METHYL 3-NITROPHENYL KETONE
Synonym: 3-NITROACETOPHENONE
Structure: 4D455448594C20332D4E4954524F5048454E594C204B45544F4E452E6D6F6C0A20204368656D447261773033323031303137333332440A2031322031322020302020302020302020302020302020302020302020303939392056323030300A20202020312E3432383920202020302E3431323520202020302E303030302043202020302020302020302020302020302020302020302020302020302020302020302020300A20202020312E3432383920202020312E3233373520202020302E30303030204F202020302020302020302020302020302020302020302020302020302020302020302020300A20202020302E3731343520202020302E3030303020202020302E303030302043202020302020302020302020302020302020302020302020302020302020302020302020300A2020202D302E3030303020202020302E3431323520202020302E303030302043202020302020302020302020302020302020302020302020302020302020302020302020300A2020202D302E3731343520202020302E3030303020202020302E303030302043202020302020302020302020302020302020302020302020302020302020302020302020300A2020202D302E373134352020202D302E3832353020202020302E303030302043202020302020302020302020302020302020302020302020302020302020302020302020300A20202020302E303030302020202D312E3233373520202020302E303030302043202020302020302020302020302020302020302020302020302020302020302020302020300A20202020302E373134352020202D302E3832353020202020302E303030302043202020302020302020302020302020302020302020302020302020302020302020302020300A2020202D312E3432383920202020302E3431323520202020302E30303030204E202020302020332020302020302020302020302020302020302020302020302020302020300A2020202D312E3432383920202020312E3233373520202020302E30303030204F202020302020302020302020302020302020302020302020302020302020302020302020300A2020202D322E3134333420202020302E3030303020202020302E30303030204F202020302020352020302020302020302020302020302020302020302020302020302020300A20202020322E3134333420202020302E3030303020202020302E303030302043202020302020302020302020302020302020302020302020302020302020302020302020300A2020312020322020322020302020202020200A2020332020342020312020302020202020200A2020342020352020322020302020202020200A2020352020362020312020302020202020200A2020362020372020322020302020202020200A2020372020382020312020302020202020200A2020332020382020322020302020202020200A2020392031302020322020302020202020200A2020392031312020312020302020202020200A2020352020392020312020302020202020200A2020312020332020312020302020202020200A2020312031322020312020302020202020200A4D202043484720203220202039202020312020313120202D310A4D2020454E44
Contributor: THE INSTITUTE OF SCIENTIFIC AND INDUSTRIALRESEARCH
InstType: EI
InstName: JEOL JMS-DX-300
IoniMethod: _ENERGY 70 eV
IonPolarity: pos
Date: 2010-10-09 19:48:36+02:00
Num Peaks: 29
27 10 30 28 38 22 39 4 42 19 43 506 44 12 50 19 51 82 62 22 
63 56 64 3 65 52 74 68 75 110 76 30 77 90 89 30 90 16 91 9 
92 68 104 355 105 28 119 2 122 27 150 999 151 82 165 33 166 30 
