Name: MYRTENYL FORMATE
MW: 180
Formula: C11H16O2
Synonym: MassBank: JP008355
Synonym: MYRTENYL FORMATE
Synonym: FORMIC ACID MYRTENYL ESTER
Structure: 464F524D49432041434944204D595254454E594C2045535445522E6D6F6C0A20204368656D447261773038313131303139333332440A2031332031342020302020302020302020302020302020302020302020303939392056323030300A20202020312E363235372020202D312E3034363920202020302E303030302043202020302020302020302020302020302020302020302020302020302020302020302020300A20202020322E343232362020202D302E3833333420202020302E30303030204F202020302020302020302020302020302020302020302020302020302020302020302020300A20202020312E303432332020202D302E3436333620202020302E30303030204F202020302020302020302020302020302020302020302020302020302020302020302020300A20202020302E323437302020202D302E3637353620202020302E303030302043202020302020302020302020302020302020302020302020302020302020302020302020300A2020202D302E333336342020202D302E3039323220202020302E303030302043202020302020302020302020302020302020302020302020302020302020302020302020300A2020202D302E3135373620202020302E3536353720202020302E303030302043202020302020302020302020302020302020302020302020302020302020302020302020300A2020202D302E3633383920202020312E3034363920202020302E303030302043202020302020302020302020302020302020302020302020302020302020302020302020300A2020202D312E3239353620202020302E3836353320202020302E303030302043202020302020302020302020302020302020302020302020302020302020302020302020300A2020202D302E3538313120202020302E3435323820202020302E303030302043202020302020302020302020302020302020302020302020302020302020302020302020300A2020202D312E3730383120202020302E3135303820202020302E303030302043202020302020302020302020302020302020302020302020302020302020302020302020300A2020202D322E3432323620202020302E3536333320202020302E303030302043202020302020302020302020302020302020302020302020302020302020302020302020300A2020202D322E313230362020202D302E3536333620202020302E303030302043202020302020302020302020302020302020302020302020302020302020302020302020300A2020202D302E393933362020202D302E3236313720202020302E303030302043202020302020302020302020302020302020302020302020302020302020302020302020300A2020312020322020322020302020202020200A2020312020332020312020302020202020200A2020342020352020312020302020202020200A2020352020362020322020302020202020200A2020362020372020312020302020202020200A2020372020382020312020302020202020200A2020382020392020312020302020202020200A2020382031302020312020302020202020200A2031302031312020312020302020202020200A2031302031322020312020302020202020200A2031302031332020312020302020202020200A2020392031332020312020302020202020200A2020352031332020312020302020202020200A2020332020342020312020302020202020200A4D2020454E44
Contributor: SODA AROMATIC CO., LTD.
InstType: EI
InstName: HITACHI M-80B
IoniMethod: _ENERGY 70 eV
IonPolarity: pos
Date: 2010-10-09 19:48:36+02:00
Num Peaks: 45
27 60 29 62 31 32 39 92 40 15 41 165 42 12 43 73 51 33 52 15 
53 73 55 55 57 11 63 13 65 50 66 16 67 45 68 20 69 21 77 122 
78 71 79 174 80 21 81 22 90 24 91 999 92 275 93 125 94 12 95 12 
103 17 104 11 105 82 106 31 107 32 108 86 109 11 115 10 117 19 119 256 
120 22 121 22 134 96 135 17 136 36 
