Name: MassBank: JP007825
MW: 145
Formula: C10H11N
Synonym: MassBank: JP007825
Synonym: 5,7-DIMETHYLINDOLE
Structure: 352C372D44494D455448594C494E444F4C452E6D6F6C0A20204368656D447261773034323331303032333332440A2031312031322020302020302020302020302020302020302020302020303939392056323030300A20202020312E3232313620202020302E3235343920202020302E30303030204E202020302020302020302020302020302020302020302020302020302020302020302020300A20202020312E373036352020202D302E3431323520202020302E303030302043202020302020302020302020302020302020302020302020302020302020302020302020300A20202020312E323231362020202D312E3037393920202020302E303030302043202020302020302020302020302020302020302020302020302020302020302020302020300A20202020302E343336392020202D302E3832353020202020302E303030302043202020302020302020302020302020302020302020302020302020302020302020302020300A2020202D302E323737352020202D312E3233373520202020302E303030302043202020302020302020302020302020302020302020302020302020302020302020302020300A2020202D302E393932302020202D302E3832353020202020302E303030302043202020302020302020302020302020302020302020302020302020302020302020302020300A2020202D302E393932302020202D302E3030303020202020302E303030302043202020302020302020302020302020302020302020302020302020302020302020302020300A2020202D302E3237373520202020302E3431323520202020302E303030302043202020302020302020302020302020302020302020302020302020302020302020302020300A20202020302E3433363920202020302E3030303020202020302E303030302043202020302020302020302020302020302020302020302020302020302020302020302020300A2020202D302E3237373520202020312E3233373520202020302E303030302043202020302020302020302020302020302020302020302020302020302020302020302020300A2020202D312E373036352020202D312E3233373520202020302E303030302043202020302020302020302020302020302020302020302020302020302020302020302020300A2020312020322020312020302020202020200A2020322020332020322020302020202020200A2020332020342020312020302020202020200A2020342020352020312020302020202020200A2020352020362020322020302020202020200A2020362020372020312020302020202020200A2020372020382020322020302020202020200A2020382020392020312020302020202020200A2020312020392020312020302020202020200A2020342020392020322020302020202020200A2020382031302020312020302020202020200A2020362031312020312020302020202020200A4D2020454E44
Contributor: HASHIMOTO K, KYOTO COLLEGE OF PHARMACY
InstType: EI
InstName: HITACHI M-80
IoniMethod: _ENERGY 20 eV
IonPolarity: pos
Date: 2010-10-09 19:48:36+02:00
Num Peaks: 19
27 12 28 10 38 31 39 123 51 114 58.5 81 63 74 65 103 77 71 89 41 
91 62 103 35 115 123 117 76 130 631 131 68 144 731 145 999 146 109 
