Name: MassBank: JP009507
CAS: 55688-44-3
MW: 396
Formula: C28H44O
Synonym: MassBank: JP009507
Synonym: ERGSTA-4,24(28)-DIEN-3-ONE
Structure: 303731315F4552475354412D342C3234283238292D4449454E2D332D4F4E452E6D6F6C0A20204368656D447261773130313931303232333532440A2033342033372020302020302020302020302020302020302020302020303939392056323030300A2020202D322E383436302020202D322E3939393420202020302E303030302043202020302020302020302020302020302020302020302020302020302020302020302020300A2020202D332E353630322020202D332E3431323620202020302E30303030204F202020302020302020302020302020302020302020302020302020302020302020302020300A2020202D322E383436302020202D322E3137343420202020302E303030302043202020302020302020302020302020302020302020302020302020302020302020302020300A2020202D322E313331352020202D312E3736313920202020302E303030302043202020302020302020302020302020302020302020302020302020302020302020302020300A2020202D322E313331352020202D332E3431313920202020302E303030302043202020302020302020302020302020302020302020302020302020302020302020302020300A2020202D312E343137312020202D322E3939393420202020302E303030302043202020302020302020302020302020302020302020302020302020302020302020302020300A2020202D302E373032362020202D332E3431313920202020302E303030302043202020302020302020302020302020302020302020302020302020302020302020302020300A20202020302E303131392020202D322E3939393420202020302E303030302043202020302020302020302020302020302020302020302020302020302020302020302020300A20202020302E303131392020202D322E3137343420202020302E303030302043202020302020302020302020302020302020302020302020302020302020302020302020300A20202020302E373236332020202D312E3736313920202020302E303030302043202020302020302020302020302020302020302020302020302020302020302020302020300A20202020312E353131302020202D322E3031363820202020302E303030302043202020302020302020302020302020302020302020302020302020302020302020302020300A20202020312E393935392020202D312E3334393420202020302E303030302043202020302020302020302020302020302020302020302020302020302020302020302020300A20202020312E353131302020202D302E3638313920202020302E303030302043202020302020302020302020302020302020302020302020302020302020302020302020300A20202020312E3736353920202020302E3130323720202020302E303030302043202020302020302020302020302020302020302020302020302020302020302020302020300A20202020302E373236332020202D302E3933363920202020302E303030302043202020302020302020302020302020302020302020302020302020302020302020302020300A20202020302E373236332020202D302E3131313920202020302E303030302043202020302020302020302020302020302020302020302020302020302020302020302020300A20202020302E303131392020202D302E3532343420202020302E303030302043202020302020302020302020302020302020302020302020302020302020302020302020300A2020202D302E373032362020202D302E3933363920202020302E303030302043202020302020302020302020302020302020302020302020302020302020302020302020300A2020202D302E373032362020202D312E3736313920202020302E303030302043202020302020302020302020302020302020302020302020302020302020302020302020300A2020202D312E343137312020202D322E3137343420202020302E303030302043202020302020302020302020302020302020302020302020302020302020302020302020300A2020202D302E373031362020202D322E3538373620202020302E303030302048202020302020302020302020302020302020302020302020302020302020302020302020300A20202020302E373237362020202D322E3538373620202020302E303030302048202020302020302020302020302020302020302020302020302020302020302020302020300A2020202D312E343137312020202D312E3334393420202020302E303030302043202020302020302020302020302020302020302020302020302020302020302020302020300A20202020322E333130382020202D302E3838343020202020302E303030302048202020302020302020302020302020302020302020302020302020302020302020302020300A20202020312E3137343620202020302E3637363720202020302E303030302048202020302020302020302020302020302020302020302020302020302020302020302020300A20202020322E3231333020202020302E3739363020202020302E303030302043202020302020302020302020302020302020302020302020302020302020302020302020300A20202020322E353239352020202D302E3230393720202020302E303030302043202020302020302020302020302020302020302020302020302020302020302020302020300A20202020312E3833363220202020312E3532393920202020302E303030302043202020302020302020302020302020302020302020302020302020302020302020302020300A20202020322E3234383720202020322E3234343420202020302E303030302043202020302020302020302020302020302020302020302020302020302020302020302020300A20202020312E3533343220202020322E3635363920202020302E303030302043202020302020302020302020302020302020302020302020302020302020302020302020300A20202020322E3834363820202020322E3538373620202020302E303030302043202020302020302020302020302020302020302020302020302020302020302020302020300A20202020302E303131392020202D312E3334393420202020302E303030302048202020302020302020302020302020302020302020302020302020302020302020302020300A20202020332E3536303220202020322E3137333220202020302E303030302043202020302020302020302020302020302020302020302020302020302020302020302020300A20202020322E3834393020202020332E3431323620202020302E303030302043202020302020302020302020302020302020302020302020302020302020302020302020300A2020312020322020322020302020202020200A2020312020332020312020302020202020200A2020332020342020312020302020202020200A2020312020352020312020302020202020200A2020352020362020322020302020202020200A2020362020372020312020302020202020200A2020372020382020312020302020202020200A2020382020392020312020302020202020200A2020392031302020312020302020202020200A2031302031312020312020302020202020200A2031312031322020312020302020202020200A2031322031332020312020302020202020200A2031332031342020312020302020202020200A2031332031352020312020302020202020200A2031302031352020312020302020202020200A2031352031362020312020312020202020200A2031352031372020312020302020202020200A2031372031382020312020302020202020200A2031382031392020312020302020202020200A2020392031392020312020302020202020200A2031392032302020312020302020202020200A2020342032302020312020302020202020200A2020362032302020312020302020202020200A2031392032312020312020362020202020200A2031302032322020312020362020202020200A2032302032332020312020312020202020200A2031332032342020312020362020202020200A2031342032352020312020312020202020200A2031342032362020312020302020202020200A2031342032372020312020302020202020200A2032362032382020312020302020202020200A2032382032392020312020302020202020200A2032392033302020322020302020202020200A2032392033312020312020302020202020200A2020392033322020312020362020202020200A2033312033332020312020302020202020200A2033312033342020312020302020202020200A4D2020454E44
Contributor: NARA WOMEN'S UNIVERSITY
InstType: EI
InstName: HITACHI M-80
IoniMethod: _ENERGY 70 eV
IonPolarity: pos
Date: 2010-10-09 19:48:36+02:00
Num Peaks: 202
18 27 27 39 28 27 29 72 39 41 40 12 41 277 42 37 43 205 44 13 
45 14 53 46 54 21 55 306 56 59 57 111 60 44 61 19 65 19 66 12 
67 128 68 60 69 356 70 60 71 71 73 46 74 14 77 52 78 13 79 126 
80 28 81 200 82 132 83 165 84 95 85 49 87 12 91 104 92 23 93 133 
94 47 95 168 96 50 97 96 98 29 99 18 101 10 103 15 105 103 106 32 
107 121 108 43 109 123 110 31 111 51 112 20 113 17 115 22 116 13 117 32 
118 15 119 84 120 38 121 112 122 67 123 110 124 171 125 43 126 19 127 15 
128 14 129 48 130 12 131 52 132 25 133 88 134 52 135 91 136 84 137 74 
138 30 139 11 141 13 143 25 144 14 145 57 146 29 147 101 148 73 149 108 
150 28 151 17 152 12 155 13 157 25 158 13 159 50 160 29 161 65 162 30 
163 45 164 12 165 12 166 12 167 16 169 12 171 24 172 17 173 47 174 42 
175 63 176 30 177 30 178 11 183 14 185 38 186 17 187 45 188 36 189 79 
190 23 191 18 192 11 197 12 199 24 200 13 201 36 202 23 203 41 204 12 
209 15 211 19 212 11 213 36 214 13 215 34 216 16 217 31 218 20 219 19 
225 15 226 12 227 108 228 43 229 101 230 66 231 203 232 39 234 39 241 20 
242 27 243 116 244 54 245 92 246 21 252 15 253 21 255 31 256 136 257 47 
258 10 259 17 262 11 263 13 264 11 267 11 268 138 269 443 270 234 271 103 
272 26 273 17 279 14 281 27 282 12 283 52 284 53 285 20 294 12 295 13 
296 13 297 357 298 296 299 115 300 25 310 12 311 19 312 999 313 604 314 138 
315 19 328 22 353 18 380 13 381 116 382 41 394 23 395 13 396 416 397 151 
398 44 399 11 
