Name: METHYL ISOPROPYL KETONE
MW: 86
Formula: C5H10O
Synonym: MassBank: JP002130
Synonym: METHYL ISOPROPYL KETONE
Synonym: 3-METHYL-2-BUTANONE
Structure: 310A31360A4D455448594C2049534F50524F50594C204B45544F4E452E6D6F6C0A20204368656D447261773033313931303233353732440A2020362020352020302020302020302020302020302020302020302020303939392056323030300A2020202D302E3335373220202020302E3230363320202020302E303030302043202020302020302020302020302020302020302020302020302020302020302020302020300A2020202D312E303731372020202D302E3230363320202020302E30303030204F202020302020302020302020302020302020302020302020302020302020302020302020300A20202020302E333537322020202D302E3230363320202020302E303030302043202020302020302020302020302020302020302020302020302020302020302020302020300A20202020312E3037313720202020302E3230363220202020302E303030302043202020302020302020302020302020302020302020302020302020302020302020302020300A20202020302E333537322020202D312E3033313220202020302E303030302043202020302020302020302020302020302020302020302020302020302020302020302020300A2020202D302E3335373220202020312E3033313220202020302E303030302043202020302020302020302020302020302020302020302020302020302020302020302020300A2020312020322020322020302020202020200A2020332020342020312020302020202020200A2020332020352020312020302020202020200A2020312020332020312020302020202020200A2020312020362020312020302020202020200A4D2020454E44
Contributor: TAJIMA S, GUNMA COLLEGE OF TECHNOLOGY
InstType: EI
InstName: HITACHI RMU-7M
IoniMethod: _ENERGY 70 eV
IonPolarity: pos
Date: 2010-10-09 19:48:36+02:00
Num Peaks: 14
15 37 27 74 28 19 29 34 39 31 41 126 42 38 43 999 44 31 45 13 
57 37 71 55 86 157 87 15 
