Name: PARA AMINO ISOBUTYLBENZOATE
MW: 193
Formula: C11H15NO2
Synonym: MassBank: JP000182
Synonym: PARA AMINO ISOBUTYLBENZOATE
Structure: 303031355F5041524120414D494E4F2049534F425554594C42454E5A4F4154452E6D6F6C0A20204368656D447261773130303131303230333332440A2031342031342020302020302020302020302020302020302020302020303939392056323030300A20202020302E343132352020202D302E3030303020202020302E303030302043202020302020302020302020302020302020302020302020302020302020302020302020300A20202020302E303030302020202D302E3731343520202020302E303030302043202020302020302020302020302020302020302020302020302020302020302020302020300A20202020302E343132352020202D312E3432383920202020302E303030302043202020302020302020302020302020302020302020302020302020302020302020302020300A20202020302E303030302020202D322E3134333420202020302E303030302043202020302020302020302020302020302020302020302020302020302020302020302020300A2020202D302E383234392020202D322E3134333420202020302E303030302043202020302020302020302020302020302020302020302020302020302020302020302020300A2020202D312E323337352020202D312E3432383920202020302E303030302043202020302020302020302020302020302020302020302020302020302020302020302020300A2020202D302E383235302020202D302E3731343520202020302E303030302043202020302020302020302020302020302020302020302020302020302020302020302020300A20202020312E323337352020202D302E3030303020202020302E30303030204F202020302020302020302020302020302020302020302020302020302020302020302020300A20202020302E3030303020202020302E3731343420202020302E30303030204F202020302020302020302020302020302020302020302020302020302020302020302020300A2020202D312E323337342020202D322E3835373820202020302E30303030204E202020302020302020302020302020302020302020302020302020302020302020302020300A20202020302E3431323620202020312E3432383920202020302E303030302043202020302020302020302020302020302020302020302020302020302020302020302020300A20202020302E3030303120202020322E3134333420202020302E303030302043202020302020302020302020302020302020302020302020302020302020302020302020300A20202020302E3431323620202020322E3835373820202020302E303030302043202020302020302020302020302020302020302020302020302020302020302020302020300A2020202D302E3832343920202020322E3134333420202020302E303030302043202020302020302020302020302020302020302020302020302020302020302020302020300A2020312020322020312020302020202020200A2020322020332020312020302020202020200A2020332020342020322020302020202020200A2020342020352020312020302020202020200A2020352020362020322020302020202020200A2020362020372020312020302020202020200A2020322020372020322020302020202020200A2020312020382020322020302020202020200A2020312020392020312020302020202020200A2020352031302020312020302020202020200A2020392031312020312020302020202020200A2031312031322020312020302020202020200A2031322031332020312020302020202020200A2031322031342020312020302020202020200A4D2020454E44
Contributor: TAJIMA S, GUNMA COLLEGE OF TECHNOLOGY
InstType: EI
InstName: HITACHI RMU-7M
IoniMethod: _ENERGY 70 eV
IonPolarity: pos
Date: 2010-10-09 19:48:36+02:00
Num Peaks: 30
15 15 27 62 29 47 38 17 39 132 40 17 41 99 43 69 45 378 51 27 
63 55 64 30 65 280 66 20 77 27 79 12 89 45 90 198 91 267 92 233 
93 23 118 252 119 77 120 999 121 103 136 182 137 702 138 70 193 104 194 12 
