Name: MassBank: JP007839
MW: 160
Formula: C12H16
Synonym: MassBank: JP007839
Synonym: 1,1,6-TRIMETHYLINDAN
Structure: 312C312C362D5452494D455448594C494E44414E2E6D6F6C0A20204368656D447261773130323330393033323732440A2031322031332020302020302020302020302020302020302020302020303939392056323030300A20202020312E313036382020202D302E3336393420202020302E303030302043202020302020302020302020302020302020302020302020302020302020302020302020300A20202020312E3539313620202020302E3239383120202020302E303030302043202020302020302020302020302020302020302020302020302020302020302020302020300A20202020312E3130363820202020302E3936353520202020302E303030302043202020302020302020302020302020302020302020302020302020302020302020302020300A20202020302E3332323220202020302E3731303620202020302E303030302043202020302020302020302020302020302020302020302020302020302020302020302020300A2020202D302E3339323320202020312E3132333120202020302E303030302043202020302020302020302020302020302020302020302020302020302020302020302020300A2020202D312E3130363820202020302E3731303620202020302E303030302043202020302020302020302020302020302020302020302020302020302020302020302020300A2020202D312E313036382020202D302E3131343420202020302E303030302043202020302020302020302020302020302020302020302020302020302020302020302020300A2020202D302E333932332020202D302E3532363920202020302E303030302043202020302020302020302020302020302020302020302020302020302020302020302020300A20202020302E333232322020202D302E3131343420202020302E303030302043202020302020302020302020302020302020302020302020302020302020302020302020300A20202020302E373731322020202D312E3132333120202020302E303030302043202020302020302020302020302020302020302020302020302020302020302020302020300A20202020312E383231322020202D302E3738313920202020302E303030302043202020302020302020302020302020302020302020302020302020302020302020302020300A2020202D312E383231322020202D302E3532363920202020302E303030302043202020302020302020302020302020302020302020302020302020302020302020302020300A2020312020322020312020302020202020200A2020322020332020312020302020202020200A2020332020342020312020302020202020200A2020342020352020312020302020202020200A2020352020362020322020302020202020200A2020362020372020312020302020202020200A2020372020382020322020302020202020200A2020382020392020312020302020202020200A2020312020392020312020302020202020200A2020342020392020322020302020202020200A2020312031302020312020312020202020200A2020312031312020312020362020202020200A2020372031322020312020302020202020200A4D2020454E44
Contributor: HASHIMOTO K, KYOTO COLLEGE OF PHARMACY
InstType: EI
InstName: HITACHI M-80
IoniMethod: _ENERGY 20 eV
IonPolarity: pos
Date: 2010-10-09 19:48:36+02:00
Num Peaks: 21
14 10 15 66 27 59 28 49 39 70 41 31 51 51 53 28 65 35 70.5 36 
77 47 79 16 91 43 103 17 105 65 115 96 128 104 129 78 145 999 160 167 
161 21 
