Name: ETHYL (4S)-4-METHYL-3-OXOHEXANOATE
MW: 172
Formula: C9H16O3
Synonym: MassBank: JP007277
Synonym: ETHYL (4S)-4-METHYL-3-OXOHEXANOATE
Structure: 303339335F455448594C20283453292D342D4D455448594C2D332D4F584F484558414E4F4154452E6D6F6C0A20204368656D447261773130313931303230323132440A2031332031322020302020302020302020302020302020302020302020303939392056323030300A20202020302E333537322020202D302E3230363220202020302E303030302043202020302020302020302020302020302020302020302020302020302020302020302020300A2020202D302E3335373220202020302E3230363320202020302E303030302043202020302020302020302020302020302020302020302020302020302020302020302020300A2020202D312E303731372020202D302E3230363220202020302E303030302043202020302020302020302020302020302020302020302020302020302020302020302020300A2020202D312E3738363220202020302E3230363220202020302E303030302043202020302020302020302020302020302020302020302020302020302020302020302020300A2020202D322E353030362020202D302E3230363220202020302E303030302043202020302020302020302020302020302020302020302020302020302020302020302020300A2020202D322E353030362020202D312E3033313320202020302E303030302043202020302020302020302020302020302020302020302020302020302020302020302020300A20202020302E333537322020202D312E3033313220202020302E30303030204F202020302020302020302020302020302020302020302020302020302020302020302020300A20202020312E3037313720202020302E3230363320202020302E30303030204F202020302020302020302020302020302020302020302020302020302020302020302020300A2020202D312E303731372020202D312E3033313220202020302E30303030204F202020302020302020302020302020302020302020302020302020302020302020302020300A2020202D312E3738363220202020312E3033313320202020302E303030302043202020302020302020302020302020302020302020302020302020302020302020302020300A20202020312E373836322020202D302E3230363220202020302E303030302043202020302020302020302020302020302020302020302020302020302020302020302020300A20202020322E3530303620202020302E3230363320202020302E303030302043202020302020302020302020302020302020302020302020302020302020302020302020300A2020202D312E373836322020202D302E3631383820202020302E303030302048202020302020302020302020302020302020302020302020302020302020302020302020300A2020312020322020312020302020202020200A2020322020332020312020302020202020200A2020332020342020312020302020202020200A2020342020352020312020302020202020200A2020352020362020312020302020202020200A2020312020372020322020302020202020200A2020312020382020312020302020202020200A2020332020392020322020302020202020200A2020342031302020312020312020202020200A2031312031322020312020302020202020200A2020382031312020312020302020202020200A2020342031332020312020312020202020200A4D2020454E44
Contributor: ITO S, DEPT. OF CHEM., TOHOKU UNIV.
InstType: EI
InstName: HITACHI M-52
IoniMethod: _ENERGY 14 eV
IonPolarity: pos
Date: 2010-10-09 19:48:36+02:00
Num Peaks: 33
43 47 45 127 46 67 56 12 57 158 58 70 61 31 69 19 71 44 72 23 
74 21 83 2 84 73 85 861 88 171 89 5 98 999 99 23 101 83 111 14 
115 117 126 86 127 18 129 2 130 26 131 18 143 21 144 68 145 23 157 34 
158 21 172 67 173 80 
