Name: TRIMETHYLENE OXIDE
MW: 58
Formula: C3H6O
Synonym: MassBank: JP004287
Synonym: TRIMETHYLENE OXIDE
Structure: 310A31330A5452494D455448594C454E45204F584944452E6D6F6C0A20204368656D447261773038313231303038343432440A2020342020342020302020302020302020302020302020302020302020303939392056323030300A20202020302E343132352020202D302E3431323520202020302E303030302043202020302020302020302020302020302020302020302020302020302020302020302020300A2020202D302E343132352020202D302E3431323520202020302E303030302043202020302020302020302020302020302020302020302020302020302020302020302020300A2020202D302E3431323520202020302E3431323520202020302E303030302043202020302020302020302020302020302020302020302020302020302020302020302020300A20202020302E3431323520202020302E3431323520202020302E30303030204F202020302020302020302020302020302020302020302020302020302020302020302020300A2020312020322020312020302020202020200A2020322020332020312020302020202020200A2020312020342020312020302020202020200A2020332020342020312020302020202020200A4D2020454E44
Contributor: TAJIMA S, GUNMA COLLEGE OF TECHNOLOGY
InstType: EI
InstName: HITACHI RMU-7M
IoniMethod: _ENERGY 70 eV
IonPolarity: pos
Date: 2010-10-09 19:48:36+02:00
Num Peaks: 15
25 14 26 149 27 209 28 999 29 206 30 47 31 72 39 26 41 14 42 15 
43 12 44 27 57 114 58 275 59 22 
