Name: N-ACETYL-GLYCYL-ALANYL-ALANINE METHYL ESTER
MW: 273
Formula: C11H19N3O5
Synonym: MassBank: JP000300
Synonym: N-ACETYL-GLYCYL-ALANYL-ALANINE METHYL ESTER
Structure: 303132355F4E2D41434554594C2D474C5943594C2D414C414E594C2D414C414E494E45204D455448594C2045535445522E6D6F6C0A20204368656D447261773039303331303138303232440A2032312032302020302020302020302020302020302020302020302020303939392056323030300A20202020332E3231353120202020302E3230363320202020302E303030302043202020302020302020302020302020302020302020302020302020302020302020302020300A20202020312E3738363220202020302E3230363320202020302E30303030204E202020302020302020302020302020302020302020302020302020302020302020302020300A20202020322E353030362020202D302E3230363220202020302E303030302043202020302020302020302020302020302020302020302020302020302020302020302020300A20202020322E353030362020202D312E3033313220202020302E303030302043202020302020302020302020302020302020302020302020302020302020302020302020300A20202020332E3231353120202020312E3033313320202020302E30303030204F202020302020302020302020302020302020302020302020302020302020302020302020300A20202020332E393239362020202D302E3230363220202020302E30303030204F202020302020302020302020302020302020302020302020302020302020302020302020300A20202020312E303731372020202D302E3230363220202020302E303030302043202020302020302020302020302020302020302020302020302020302020302020302020300A2020202D302E333537322020202D302E3230363220202020302E30303030204E202020302020302020302020302020302020302020302020302020302020302020302020300A20202020302E3335373220202020302E3230363320202020302E303030302043202020302020302020302020302020302020302020302020302020302020302020302020300A20202020302E3335373220202020312E3033313320202020302E303030302043202020302020302020302020302020302020302020302020302020302020302020302020300A20202020312E303731372020202D312E3033313220202020302E30303030204F202020302020302020302020302020302020302020302020302020302020302020302020300A2020202D312E3037313720202020302E3230363220202020302E303030302043202020302020302020302020302020302020302020302020302020302020302020302020300A2020202D322E3530303620202020302E3230363220202020302E30303030204E202020302020302020302020302020302020302020302020302020302020302020302020300A2020202D312E373836322020202D302E3230363220202020302E303030302043202020302020302020302020302020302020302020302020302020302020302020302020300A2020202D312E3037313720202020312E3033313320202020302E30303030204F202020302020302020302020302020302020302020302020302020302020302020302020300A2020202D332E323135312020202D302E3230363220202020302E303030302043202020302020302020302020302020302020302020302020302020302020302020302020300A2020202D332E323135312020202D312E3033313320202020302E30303030204F202020302020302020302020302020302020302020302020302020302020302020302020300A2020202D332E3932393620202020302E3230363220202020302E303030302043202020302020302020302020302020302020302020302020302020302020302020302020300A20202020332E393239362020202D312E3033313220202020302E303030302043202020302020302020302020302020302020302020302020302020302020302020302020300A20202020312E3038343220202020302E3539363420202020302E303030302048202020302020302020302020302020302020302020302020302020302020302020302020300A20202020322E3530303620202020302E3631383820202020302E303030302048202020302020302020302020302020302020302020302020302020302020302020302020300A2020322020332020312020302020202020200A2020312020332020312020302020202020200A2020332020342020312020312020202020200A2020312020352020322020302020202020200A2020312020362020312020302020202020200A2020392020382020312020312020202020200A2020372020392020312020302020202020200A2020392031302020312020302020202020200A2020372031312020322020302020202020200A2031332031342020312020302020202020200A2031322031342020312020302020202020200A2031322031352020322020302020202020200A2020382031322020312020302020202020200A2020322020372020312020302020202020200A2031362031372020322020302020202020200A2031362031382020312020302020202020200A2031332031362020312020302020202020200A2020362031392020312020302020202020200A2020392032302020312020312020202020200A2020332032312020312020312020202020200A4D2020454E44
Contributor: YAMAMOTO M, DEP. CHEMISTRY, FAC. SCIENCE, NARA WOMEN'S UNIV.
InstType: EI
InstName: HITACHI RMU-6M
IoniMethod: _ENERGY 70 eV
IonPolarity: pos
Date: 2010-10-09 19:48:36+02:00
Num Peaks: 35
15 54 27 16 28 77 29 1 30 223 31 16 32 20 41 1 42 43 43 110 
44 999 45 4 55 14 56 17 57 37 59 1 60 12 70 39 71 10 72 9 
73 46 85 28 99 12 100 9 101 10 102 17 104 16 113 1 141 45 143 90 
144 130 145 1 171 44 201 14 214 28 
