Name: MassBank: JP003741
MW: 188
Formula: C12H16N2
Synonym: MassBank: JP003741
Synonym: N,N-DIMETHYLTRYPTAMINE
Structure: 4E2C4E2D44494D455448594C5452595054414D494E452E6D6F6C0A20204368656D447261773038313231303032343132440A2031342031352020302020302020302020302020302020302020302020303939392056323030300A20202020312E3834313620202020302E3630343120202020302E30303030204E202020302020302020302020302020302020302020302020302020302020302020302020300A20202020312E3232383520202020302E3035323120202020302E303030302043202020302020302020302020302020302020302020302020302020302020302020302020300A20202020302E3434333920202020302E3330373020202020302E303030302043202020302020302020302020302020302020302020302020302020302020302020302020300A2020202D302E313639322020202D302E3234353020202020302E303030302043202020302020302020302020302020302020302020302020302020302020302020302020300A2020202D302E303833302020202D312E3036353520202020302E303030302043202020302020302020302020302020302020302020302020302020302020302020302020300A2020202D302E383336372020202D312E3430313020202020302E30303030204E202020302020302020302020302020302020302020302020302020302020302020302020300A2020202D312E333838372020202D302E3738373920202020302E303030302043202020302020302020302020302020302020302020302020302020302020302020302020300A2020202D322E323133372020202D302E3738373920202020302E303030302043202020302020302020302020302020302020302020302020302020302020302020302020300A2020202D322E363236322020202D302E3037333520202020302E303030302043202020302020302020302020302020302020302020302020302020302020302020302020300A2020202D322E3231333720202020302E3634313020202020302E303030302043202020302020302020302020302020302020302020302020302020302020302020302020300A2020202D312E3338383720202020302E3634313020202020302E303030302043202020302020302020302020302020302020302020302020302020302020302020302020300A2020202D302E393736322020202D302E3037333520202020302E303030302043202020302020302020302020302020302020302020302020302020302020302020302020300A20202020312E3632383120202020312E3430313020202020302E303030302043202020302020302020302020302020302020302020302020302020302020302020302020300A20202020322E3632363220202020302E3334393220202020302E303030302043202020302020302020302020302020302020302020302020302020302020302020302020300A2020312020322020312020302020202020200A2020322020332020312020302020202020200A2020332020342020312020302020202020200A2020342020352020322020302020202020200A2020352020362020312020302020202020200A2020362020372020312020302020202020200A2020372020382020322020302020202020200A2020382020392020312020302020202020200A2020392031302020322020302020202020200A2031302031312020312020302020202020200A2031312031322020322020302020202020200A2020342031322020312020302020202020200A2020372031322020312020302020202020200A2020312031332020312020302020202020200A2020312031342020312020302020202020200A4D2020454E44
Contributor: SASAKI S, TOYOHASHI UNIV. OF TECH.
InstType: EI
InstName: Unknown
IoniMethod: EI
IonPolarity: pos
Date: 2010-10-09 19:48:36+02:00
Num Peaks: 57
39 7 41 11 42 38 43 1 44 211 50 4 51 8 52 0 57 12 58 999 
59 33 62 0 63 7 64 2 65 3 73 1 74 2 75 5 76 5 77 0 
78 3 89 7 90 3 91 0 92 2 93 2 101 3 102 1 103 10 104 1 
114 2 115 0 116 5 117 6 118 1 128 1 129 14 130 49 131 8 140 0 
141 3 142 7 143 41 144 2 145 2 155 1 156 1 157 0 169 1 170 1 
171 2 172 0 185 4 186 13 187 3 188 6 189 7 
