Name: P-METHYLBENZYL ALCOHOL
MW: 122
Formula: C8H10O
Synonym: MassBank: JP009151
Synonym: P-METHYLBENZYL ALCOHOL
Structure: 310A32330A502D4D455448594C42454E5A594C20414C434F484F4C2E6D6F6C0A20204368656D447261773038313231303034303832440A2020392020392020302020302020302020302020302020302020302020303939392056323030300A2020202D312E343433372020202D302E3030303020202020302E303030302043202020302020302020302020302020302020302020302020302020302020302020302020300A2020202D302E363138372020202D302E3030303020202020302E303030302043202020302020302020302020302020302020302020302020302020302020302020302020300A2020202D302E3230363220202020302E3731343520202020302E303030302043202020302020302020302020302020302020302020302020302020302020302020302020300A20202020302E3631383820202020302E3731343520202020302E303030302043202020302020302020302020302020302020302020302020302020302020302020302020300A20202020312E303331332020202D302E3030303020202020302E303030302043202020302020302020302020302020302020302020302020302020302020302020302020300A20202020302E363138382020202D302E3731343520202020302E303030302043202020302020302020302020302020302020302020302020302020302020302020302020300A2020202D302E323036322020202D302E3731343520202020302E303030302043202020302020302020302020302020302020302020302020302020302020302020302020300A20202020312E383536332020202D302E3030303020202020302E303030302043202020302020302020302020302020302020302020302020302020302020302020302020300A2020202D312E3835363320202020302E3731343520202020302E30303030204F202020302020302020302020302020302020302020302020302020302020302020302020300A2020312020322020312020302020202020200A2020322020332020312020302020202020200A2020332020342020322020302020202020200A2020342020352020312020302020202020200A2020352020362020322020302020202020200A2020362020372020312020302020202020200A2020322020372020322020302020202020200A2020352020382020312020302020202020200A2020312020392020312020302020202020200A4D2020454E44
Contributor: SODA AROMATIC CO., LTD.
InstType: EI
InstName: HITACHI M-80B
IoniMethod: _ENERGY 70 eV
IonPolarity: pos
Date: 2010-10-09 19:48:36+02:00
Num Peaks: 46
15 14 26 14 27 98 29 75 31 74 38 35 39 230 40 18 41 60 50 80 
51 180 52 52 53 56 55 11 60 53 61 11 62 49 63 135 64 24 65 245 
66 21 74 19 75 16 76 12 77 580 78 133 79 692 80 48 89 66 90 19 
91 552 92 62 93 469 94 40 102 12 103 72 104 127 105 197 106 16 107 999 
108 85 119 44 120 16 121 182 122 993 123 90 
