Name: MassBank: JP006324
MW: 218
Formula: C10H18O5
Synonym: MassBank: JP006324
Synonym: METHYL 2,3-O-ISOPROPYLIDENE-ALPHA-L-RHAMNOPYRANOSIDE
Structure: 4D455448594C20322C332D4F2D49534F50524F50594C4944454E452D414C5048412D4C2D5248414D4E4F505952414E4F534944452E6D6F6C0A20204368656D447261773038313131303233343232440A2031352031362020302020302020302020302020302020302020302020303939392056323030300A20202020312E3235353120202020312E3236323620202020302E30303030204F202020302020302020302020302020302020302020302020302020302020302020302020300A20202020302E3534303620202020302E3835303120202020302E303030302043202020302020302020302020302020302020302020302020302020302020302020302020300A20202020302E3534303620202020302E3032353120202020302E303030302043202020302020302020302020302020302020302020302020302020302020302020302020300A20202020312E313533372020202D302E3532363920202020302E30303030204F202020302020302020302020302020302020302020302020302020302020302020302020300A2020202D302E313733382020202D302E3338373420202020302E303030302043202020302020302020302020302020302020302020302020302020302020302020302020300A2020202D302E303032332020202D312E3139343420202020302E30303030204F202020302020302020302020302020302020302020302020302020302020302020302020300A2020202D302E3838383320202020302E3032353120202020302E303030302043202020302020302020302020302020302020302020302020302020302020302020302020300A2020202D312E363032382020202D302E3338373420202020302E30303030204F202020302020302020302020302020302020302020302020302020302020302020302020300A2020202D302E3838383320202020302E3835303120202020302E303030302043202020302020302020302020302020302020302020302020302020302020302020302020300A2020202D302E3137333820202020312E3236323620202020302E30303030204F202020302020302020302020302020302020302020302020302020302020302020302020300A2020202D312E3630323820202020312E3236323620202020302E303030302043202020302020302020302020302020302020302020302020302020302020302020302020300A20202020302E383138322020202D312E3238303620202020302E303030302043202020302020302020302020302020302020302020302020302020302020302020302020300A20202020312E363032382020202D312E3533353620202020302E303030302043202020302020302020302020302020302020302020302020302020302020302020302020300A20202020302E363436362020202D322E3038373620202020302E303030302043202020302020302020302020302020302020302020302020302020302020302020302020300A20202020312E3235353120202020322E3038373620202020302E303030302043202020302020302020302020302020302020302020302020302020302020302020302020300A2020322020312020312020312020202020200A2020322020332020312020302020202020200A2020332020342020312020362020202020200A2020332020352020312020302020202020200A2020352020362020312020362020202020200A2020352020372020312020302020202020200A2020372020382020312020312020202020200A2020372020392020312020302020202020200A2020392031302020312020302020202020200A2020392031312020312020362020202020200A2020322031302020312020302020202020200A2031322031332020312020302020202020200A2031322031342020312020302020202020200A2020342031322020312020302020202020200A2020362031322020312020302020202020200A2020312031352020312020302020202020200A4D2020454E44
Contributor: EGUCHI S, FAC. OF SCIENCE, HIROSHIMA UNIV.
InstType: EI
InstName: HITACHI RMU-6L
IoniMethod: _ENERGY 70 eV
IonPolarity: pos
Date: 2010-10-09 19:48:36+02:00
Num Peaks: 73
40 31 41 177 42 66 43 16 44 43 45 214 46 14 47 5 48 23 49 24 
50 14 51 1 53 46 54 40 55 343 56 10 57 217 58 187 59 491 60 9 
61 122 70 11 71 583 72 5 73 166 74 44 75 69 81 2 82 40 83 140 
84 29 85 62 86 46 87 124 88 17 89 1 97 29 98 14 99 320 100 999 
101 271 102 21 103 22 111 14 112 54 113 20 114 13 115 5 116 21 117 13 
118 11 119 1 125 13 127 14 128 20 129 11 130 14 131 13 140 11 141 1 
143 63 144 13 171 57 172 1 185 17 186 19 187 91 188 2 203 144 204 21 
205 10 218 1 219 8 
