Name: DIHYDROJASMONE
MW: 166
Formula: C11H18O
Synonym: MassBank: JP006000
Synonym: DIHYDROJASMONE
Synonym: 3-METHYL-2-PENTYL-2-CYCLOPENTEN-1-ONE
Structure: 4449485944524F4A41534D4F4E452E6D6F6C0A20204368656D447261773033323031303030313932440A2031322031322020302020302020302020302020302020302020302020303939392056323030300A20202020312E3537383020202020302E3230393420202020302E303030302043202020302020302020302020302020302020302020302020302020302020302020302020300A20202020312E373439352020202D302E3539373620202020302E303030302043202020302020302020302020302020302020302020302020302020302020302020302020300A20202020312E303335302020202D312E3031303120202020302E303030302043202020302020302020302020302020302020302020302020302020302020302020302020300A20202020302E343231392020202D302E3435383120202020302E303030302043202020302020302020302020302020302020302020302020302020302020302020302020300A2020202D302E333835302020202D302E3632393620202020302E303030302043202020302020302020302020302020302020302020302020302020302020302020302020300A20202020302E3735373520202020302E3239353620202020302E303030302043202020302020302020302020302020302020302020302020302020302020302020302020300A20202020302E3334353020202020312E3031303120202020302E303030302043202020302020302020302020302020302020302020302020302020302020302020302020300A2020202D302E3438303020202020312E3031303120202020302E303030302043202020302020302020302020302020302020302020302020302020302020302020302020300A2020202D302E3839323520202020302E3239353620202020302E303030302043202020302020302020302020302020302020302020302020302020302020302020302020300A2020202D312E3731373520202020302E3239353620202020302E303030302043202020302020302020302020302020302020302020302020302020302020302020302020300A20202020322E3133303020202020302E3832323520202020302E30303030204F202020302020302020302020302020302020302020302020302020302020302020302020300A2020202D322E3133303020202020312E3031303120202020302E303030302043202020302020302020302020302020302020302020302020302020302020302020302020300A2020312020322020312020302020202020200A2020322020332020312020302020202020200A2020332020342020312020302020202020200A2020342020352020312020302020202020200A2020342020362020322020302020202020200A2020312020362020312020302020202020200A2020362020372020312020302020202020200A2020372020382020312020302020202020200A2020382020392020312020302020202020200A2020392031302020312020302020202020200A2020312031312020322020302020202020200A2031302031322020312020302020202020200A4D2020454E44
Contributor: YAMAMOTO M, DEP. CHEMISTRY, FAC. SCIENCE, NARA WOMEN'S UNIV.
InstType: EI
InstName: HITACHI RMU-6M
IoniMethod: _ENERGY 70 eV
IonPolarity: pos
Date: 2010-10-09 19:48:36+02:00
Num Peaks: 60
15 5 17 41 18 184 26 1 27 152 28 34 29 124 32 1 38 6 39 133 
40 30 41 28 42 16 43 41 50 11 51 4 52 35 53 136 54 24 55 10 
56 9 57 7 63 10 65 5 66 32 67 225 68 39 69 2 77 65 78 17 
79 109 80 2 81 170 82 108 83 17 91 3 92 5 93 41 94 10 95 12 
96 25 97 15 105 12 107 1 108 7 109 164 110 999 111 20 112 15 119 6 
121 7 122 1 123 199 124 109 125 12 133 1 137 244 138 28 149 9 151 463 
