Name: 1-OCTYLSILATRANE
MW: 287
Formula: C14H29NO3Si
Synonym: MassBank: JP005001
Synonym: 1-OCTYLSILATRANE
Structure: 312D4F4354594C53494C415452414E452E6D6F6C0A20204368656D447261773131323230393231343132440A2031392032302020302020302020302020302020302020302020302020303939392056323030300A2020202D312E3433343020202020302E3633363520202020302E303030302053692020302020302020302020302020302020302020302020302020302020302020302020300A2020202D302E3835303720202020302E3035333120202020302E30303030204F202020302020302020302020302020302020302020302020302020302020302020302020300A2020202D302E383530372020202D302E3736393320202020302E303030302043202020302020302020302020302020302020302020302020302020302020302020302020300A2020202D312E343239322020202D312E3334373920202020302E303030302043202020302020302020302020302020302020302020302020302020302020302020302020300A2020202D322E323434322020202D312E3334373920202020302E30303030204E202020302020302020302020302020302020302020302020302020302020302020302020300A2020202D332E333133392020202D302E3837373320202020302E303030302043202020302020302020302020302020302020302020302020302020302020302020302020300A2020202D332E3436303620202020302E3238393120202020302E303030302043202020302020302020302020302020302020302020302020302020302020302020302020300A2020202D322E3534343820202020312E3032363320202020302E30303030204F202020302020302020302020302020302020302020302020302020302020302020302020300A2020202D322E383139322020202D302E3737323920202020302E303030302043202020302020302020302020302020302020302020302020302020302020302020302020300A2020202D322E3831393220202020302E3033383320202020302E303030302043202020302020302020302020302020302020302020302020302020302020302020302020300A2020202D322E3234353920202020302E3631313620202020302E30303030204F202020302020302020302020302020302020302020302020302020302020302020302020300A2020202D312E3032333320202020312E3334373920202020302E303030302043202020302020302020302020302020302020302020302020302020302020302020302020300A2020202D302E3138373520202020312E3239373820202020302E303030302043202020302020302020302020302020302020302020302020302020302020302020302020300A20202020302E3232353020202020302E3538333320202020302E303030302043202020302020302020302020302020302020302020302020302020302020302020302020300A20202020312E3032343320202020302E3534303620202020302E303030302043202020302020302020302020302020302020302020302020302020302020302020302020300A20202020312E343336382020202D302E3137333920202020302E303030302043202020302020302020302020302020302020302020302020302020302020302020302020300A20202020322E323336312020202D302E3231363720202020302E303030302043202020302020302020302020302020302020302020302020302020302020302020302020300A20202020322E363438362020202D302E3933313120202020302E303030302043202020302020302020302020302020302020302020302020302020302020302020302020300A20202020332E343630362020202D302E3936363920202020302E303030302043202020302020302020302020302020302020302020302020302020302020302020302020300A2020312020322020312020302020202020200A2020322020332020312020302020202020200A2020332020342020312020302020202020200A2020342020352020312020302020202020200A2020352020362020312020302020202020200A2020362020372020312020302020202020200A2020372020382020312020302020202020200A2020312020382020312020302020202020200A2020352020392020312020302020202020200A2020392031302020312020302020202020200A2031302031312020312020302020202020200A2020312031312020312020302020202020200A2031322031332020312020302020202020200A2031332031342020312020302020202020200A2031342031352020312020302020202020200A2031352031362020312020302020202020200A2031362031372020312020302020202020200A2031372031382020312020302020202020200A2031382031392020312020302020202020200A2020312031322020312020302020202020200A4D2020454E44
Contributor: MASS SPECTROSCOPY SOC. OF JAPAN (MSSJ)
InstType: EI
InstName: JEOL JMS-D-3000
IoniMethod: _ENERGY 70 eV
IonPolarity: pos
Date: 2010-10-09 19:48:36+02:00
Num Peaks: 8
102 14 130 25 132 14 149 16 174 999 175 125 176 48 287 18 
