Name: 2-PHENYL-4-METHYL-IMIDAZOLINE
MW: 161
Formula: C10H13N2
Synonym: MassBank: JP003266
Synonym: 2-PHENYL-4-METHYL-IMIDAZOLINE
Structure: 322D5048454E594C2D342D4D455448594C2D494D4944415A4F4C494E452E6D6F6C0A20204368656D447261773032323131303134313332440A2031322031332020302020302020302020302020302020302020302020303939392056323030300A20202020302E323639302020202D302E3039313520202020302E303030302043202020302020302020302020302020302020302020302020302020302020302020302020300A20202020302E3735333920202020302E3537363020202020302E30303030204E202020302020302020302020302020302020302020302020302020302020302020302020300A20202020312E3533383620202020302E3332313020202020302E303030302043202020302020302020302020302020302020302020302020302020302020302020302020300A20202020312E353338362020202D302E3530343020202020302E303030302043202020302020302020302020302020302020302020302020302020302020302020302020300A20202020302E373533392020202D302E3735383920202020302E30303030204E202020302020302020302020302020302020302020302020302020302020302020302020300A20202020322E3230363020202020302E3830353920202020302E303030302043202020302020302020302020302020302020302020302020302020302020302020302020300A2020202D302E353536302020202D302E3039313520202020302E303030302043202020302020302020302020302020302020302020302020302020302020302020302020300A2020202D302E393638352020202D302E3830353920202020302E303030302043202020302020302020302020302020302020302020302020302020302020302020302020300A2020202D312E373933352020202D302E3830353920202020302E303030302043202020302020302020302020302020302020302020302020302020302020302020302020300A2020202D322E323036302020202D302E3039313520202020302E303030302043202020302020302020302020302020302020302020302020302020302020302020302020300A2020202D312E3739333520202020302E3632333020202020302E303030302043202020302020302020302020302020302020302020302020302020302020302020302020300A2020202D302E3936383520202020302E3632333020202020302E303030302043202020302020302020302020302020302020302020302020302020302020302020302020300A2020312020322020322020302020202020200A2020322020332020312020302020202020200A2020332020342020312020302020202020200A2020342020352020312020302020202020200A2020312020352020312020302020202020200A2020332020362020312020302020202020200A2020372020382020312020302020202020200A2020382020392020322020302020202020200A2020392031302020312020302020202020200A2031302031312020322020302020202020200A2031312031322020312020302020202020200A2020372031322020322020302020202020200A2020312020372020312020302020202020200A4D2020454E44
Contributor: MASS SPECTROSCOPY SOC. OF JAPAN (MSSJ)
InstType: EI
InstName: HITACHI RMU-7
IoniMethod: _ENERGY 70 eV
IonPolarity: pos
Date: 2010-10-09 19:48:36+02:00
Num Peaks: 18
161 120 160 750 159 210 146 220 145 980 131 590 130 370 118 260 117 999 101 580 
100 380 90 160 89 150 77 500 76 140 63 80 55 120 51 220 
