Name: ETHYLENE GLYCOL DIDEUTEROACETYL ESTER
MW: 146
Formula: C6H10O4
Synonym: MassBank: JP001229
Synonym: ETHYLENE GLYCOL DIDEUTEROACETYL ESTER
Synonym: ETHYLENE DI((2H3)ACETATE)
Structure: 303233325F455448594C454E4520474C59434F4C2044494445555445524F41434554594C2045535445522E6D6F6C0A20204368656D447261773039303631303135333532440A2031362031352020302020302020302020302020302020302020302020303939392056323030300A2020202D332E323135312020202D302E3230363220202020302E303030302048202020312020302020302020302020302020302020302020302020302020302020302020300A2020202D322E3530303620202020302E3230363220202020302E303030302043202020302020302020302020302020302020302020302020302020302020302020302020300A2020202D312E373836322020202D302E3230363220202020302E303030302043202020302020302020302020302020302020302020302020302020302020302020302020300A2020202D312E3037313720202020302E3230363220202020302E30303030204F202020302020302020302020302020302020302020302020302020302020302020302020300A2020202D302E333537322020202D302E3230363220202020302E303030302043202020302020302020302020302020302020302020302020302020302020302020302020300A20202020302E3335373220202020302E3230363220202020302E303030302043202020302020302020302020302020302020302020302020302020302020302020302020300A20202020312E303731372020202D302E3230363220202020302E30303030204F202020302020302020302020302020302020302020302020302020302020302020302020300A20202020312E3738363220202020302E3230363220202020302E303030302043202020302020302020302020302020302020302020302020302020302020302020302020300A20202020322E353030362020202D302E3230363220202020302E303030302043202020302020302020302020302020302020302020302020302020302020302020302020300A20202020332E3231353120202020302E3230363220202020302E303030302048202020312020302020302020302020302020302020302020302020302020302020302020300A2020202D322E3530303620202020312E3033313320202020302E303030302048202020312020302020302020302020302020302020302020302020302020302020302020300A2020202D322E353030362020202D302E3631383720202020302E303030302048202020312020302020302020302020302020302020302020302020302020302020302020300A2020202D312E373836322020202D312E3033313320202020302E30303030204F202020302020302020302020302020302020302020302020302020302020302020302020300A20202020312E3738363220202020312E3033313320202020302E30303030204F202020302020302020302020302020302020302020302020302020302020302020302020300A20202020322E353030362020202D312E3033313320202020302E303030302048202020312020302020302020302020302020302020302020302020302020302020302020300A20202020322E3530303620202020302E3631383720202020302E303030302048202020312020302020302020302020302020302020302020302020302020302020302020300A2020312020322020312020302020202020200A2020322020332020312020302020202020200A2020332020342020312020302020202020200A2020342020352020312020302020202020200A2020352020362020312020302020202020200A2020362020372020312020302020202020200A2020372020382020312020302020202020200A2020382020392020312020302020202020200A2020392031302020312020302020202020200A2020322031312020312020302020202020200A2020322031322020312020302020202020200A2020332031332020322020302020202020200A2020382031342020322020302020202020200A2020392031352020312020302020202020200A2020392031362020312020302020202020200A4D202049534F2020362020203120202032202031302020203220203131202020322020313220202032202031352020203220203136202020320A4D2020454E44
Contributor: SASAKI S, TOYOHASHI UNIV. OF TECH.
InstType: EI
InstName: HITACHI RMU-6D
IoniMethod: _ENERGY 70 eV
IonPolarity: pos
Date: 2010-10-09 19:48:36+02:00
Num Peaks: 11
18 66 28 24 44 22 45 4 46 999 47 22 76 34 89 5 92 42 109 28 
122 34 
