Name: ORTHO-CRESOLPHTHALEIN
MW: 346
Formula: C22H18O4
Synonym: MassBank: JP009577
Synonym: ORTHO-CRESOLPHTHALEIN
Structure: 303732345F4F5254484F2D435245534F4C50485448414C45494E2E6D6F6C0A20204368656D447261773130313931303232343532440A2032362032392020302020302020302020302020302020302020302020303939392056323030300A2020202D312E3733343520202020312E3832353420202020302E303030302043202020302020302020302020302020302020302020302020302020302020302020302020300A2020202D312E3733343520202020312E3030303420202020302E303030302043202020302020302020302020302020302020302020302020302020302020302020302020300A2020202D312E3031383920202020302E3538373220202020302E303030302043202020302020302020302020302020302020302020302020302020302020302020302020300A2020202D302E3330313420202020312E3030313520202020302E303030302043202020302020302020302020302020302020302020302020302020302020302020302020300A2020202D302E3330313420202020312E3833313020202020302E303030302043202020302020302020302020302020302020302020302020302020302020302020302020300A2020202D312E3032303220202020322E3234363120202020302E303030302043202020302020302020302020302020302020302020302020302020302020302020302020300A20202020302E3430393220202020302E3539313320202020302E303030302043202020302020302020302020302020302020302020302020302020302020302020302020300A20202020302E3734343420202020312E3335383820202020302E30303030204F202020302020302020302020302020302020302020302020302020302020302020302020300A20202020312E3033303320202020302E3033323920202020302E303030302043202020302020302020302020302020302020302020302020302020302020302020302020300A2020202D302E303732392020202D302E3037313120202020302E303030302043202020302020302020302020302020302020302020302020302020302020302020302020300A20202020312E303330332020202D302E3739363320202020302E303030302043202020302020302020302020302020302020302020302020302020302020302020302020300A20202020312E373433392020202D312E3230383320202020302E303030302043202020302020302020302020302020302020302020302020302020302020302020302020300A20202020322E343530382020202D302E3830303220202020302E303030302043202020302020302020302020302020302020302020302020302020302020302020302020300A20202020322E3435303820202020302E3031353720202020302E303030302043202020302020302020302020302020302020302020302020302020302020302020302020300A20202020312E3733393820202020302E3432363220202020302E303030302043202020302020302020302020302020302020302020302020302020302020302020302020300A20202020312E3537303920202020312E3238303020202020302E303030302043202020302020302020302020302020302020302020302020302020302020302020302020300A20202020322E3132313620202020312E3839343220202020302E30303030204F202020302020302020302020302020302020302020302020302020302020302020302020300A2020202D302E3839333320202020302E3031353720202020302E303030302043202020302020302020302020302020302020302020302020302020302020302020302020300A2020202D312E333738372020202D302E3635313320202020302E303030302043202020302020302020302020302020302020302020302020302020302020302020302020300A2020202D312E303433372020202D312E3430353320202020302E303030302043202020302020302020302020302020302020302020302020302020302020302020302020300A2020202D302E323233332020202D312E3439323120202020302E303030302043202020302020302020302020302020302020302020302020302020302020302020302020300A20202020302E323632312020202D302E3832353120202020302E303030302043202020302020302020302020302020302020302020302020302020302020302020302020300A2020202D312E353239322020202D322E3037323320202020302E30303030204F202020302020302020302020302020302020302020302020302020302020302020302020300A20202020302E313131372020202D322E3234363120202020302E303030302043202020302020302020302020302020302020302020302020302020302020302020302020300A2020202D322E3434393020202020302E3538373920202020302E303030302043202020302020302020302020302020302020302020302020302020302020302020302020300A2020202D322E3435303820202020322E3233343920202020302E30303030204F202020302020302020302020302020302020302020302020302020302020302020302020300A2020312020322020322020302020202020200A2020322020332020312020302020202020200A2020332020342020322020302020202020200A2020342020352020312020302020202020200A2020352020362020322020302020202020200A2020362020312020312020302020202020200A2020342020372020312020302020202020200A2020372020382020312020302020202020200A2020372020392020312020302020202020200A2020372031302020312020302020202020200A2020392031312020322020302020202020200A2031312031322020312020302020202020200A2031322031332020322020302020202020200A2031332031342020312020302020202020200A2031342031352020322020302020202020200A2031352020392020312020302020202020200A2020382031362020312020302020202020200A2031362031352020312020302020202020200A2031362031372020322020302020202020200A2031302031382020322020302020202020200A2031382031392020312020302020202020200A2031392032302020322020302020202020200A2032302032312020312020302020202020200A2032312032322020322020302020202020200A2032322031302020312020302020202020200A2032302032332020312020302020202020200A2032312032342020312020302020202020200A2020322032352020312020302020202020200A2020312032362020312020302020202020200A4D2020454E44
Contributor: HAMAMATSU UNIV. SCHOOL OF MEDICINE
InstType: EI
InstName: JEOL JMS-AX-505-H
IoniMethod: _ENERGY 70 eV
IonPolarity: pos
Date: 2010-10-09 19:48:36+02:00
Num Peaks: 111
27 11 39 25 51 22 52 11 53 20 55 17 63 14 75 14 76 51 77 105 
78 21 79 39 88 12 89 10 91 19 94 10 101 22 104 55 105 35 106 14 
107 50 108 10 113 32 114 12 115 29 119 33 120 17 121 13 125 12 126 19 
127 18 128 22 129 15 133 17 134 26 135 164 136 23 139 24 141 13 142 11 
143 26 150 14 151 20 152 55 153 35 154 13 155 21 163 17 164 31 165 104 
166 29 168 34 173 42 176 13 181 38 182 17 183 13 189 24 193 13 194 35 
195 105 196 26 197 11 202 35 203 13 210 10 211 115 212 21 213 25 214 21 
215 41 216 14 226 38 227 23 228 21 229 16 231 16 238 11 239 355 240 78 
241 23 242 18 243 14 244 24 245 15 252 11 255 30 256 15 257 30 258 33 
259 15 268 11 269 21 271 27 272 15 273 13 284 12 285 150 286 43 287 999 
288 246 289 37 301 201 302 437 303 104 304 15 317 12 345 13 346 478 347 130 
348 21 
