Name: MassBank: JP001970
MW: 252
Formula: C15H28OSi
Synonym: MassBank: JP001970
Synonym: 2,2,5,5-TETRAMETHYL-3-(TRIMETHYLSILYLMETHYL)-3-VINYLCYCLOPENTANONE
Structure: 322C322C352C352D54455452414D455448594C2D332D285452494D455448594C53494C594C4D455448594C292D332D56494E594C4359434C4F50454E54414E4F4E452E6D6F6C0A20204368656D447261773132313930393134353132440A2031372031372020302020302020302020302020302020302020302020303939392056323030300A20202020302E373030302020202D302E3838393020202020302E303030302043202020302020302020302020302020302020302020302020302020302020302020302020300A2020202D302E303533372020202D302E3535333420202020302E303030302043202020302020302020302020302020302020302020302020302020302020302020302020300A20202020302E3033323520202020302E3236373020202020302E303030302043202020302020302020302020302020302020302020302020302020302020302020302020300A20202020302E3833393520202020302E3433383620202020302E303030302043202020302020302020302020302020302020302020302020302020302020302020302020300A20202020312E323532302020202D302E3237353920202020302E303030302043202020302020302020302020302020302020302020302020302020302020302020302020300A2020202D302E3035333720202020312E3038373520202020302E303030302043202020302020302020302020302020302020302020302020302020302020302020302020300A20202020302E3631333720202020312E3537323420202020302E303030302043202020302020302020302020302020302020302020302020302020302020302020302020300A2020202D302E3739323520202020302E3236373020202020302E303030302043202020302020302020302020302020302020302020302020302020302020302020302020300A2020202D312E3230353020202020302E3938313520202020302E303030302053692020302020302020302020302020302020302020302020302020302020302020302020300A2020202D312E3631373520202020312E3639363020202020302E303030302043202020302020302020302020302020302020302020302020302020302020302020302020300A2020202D302E3439303520202020312E3339343020202020302E303030302043202020302020302020302020302020302020302020302020302020302020302020302020300A2020202D312E3931393420202020302E3536393020202020302E303030302043202020302020302020302020302020302020302020302020302020302020302020302020300A20202020312E3931393420202020302E3230393020202020302E303030302043202020302020302020302020302020302020302020302020302020302020302020302020300A20202020312E383034302020202D302E3838393020202020302E303030302043202020302020302020302020302020302020302020302020302020302020302020302020300A2020202D302E333038362020202D312E3333383120202020302E303030302043202020302020302020302020302020302020302020302020302020302020302020302020300A2020202D302E383630372020202D302E3338313920202020302E303030302043202020302020302020302020302020302020302020302020302020302020302020302020300A20202020302E383731352020202D312E3639363020202020302E30303030204F202020302020302020302020302020302020302020302020302020302020302020302020300A2020312020322020312020302020202020200A2020322020332020312020302020202020200A2020332020342020312020302020202020200A2020342020352020312020302020202020200A2020312020352020312020302020202020200A2020362020372020322020302020202020200A2020332020362020312020302020202020200A2020392031302020312020302020202020200A2020392031312020312020312020202020200A2020392031322020312020312020202020200A2020382020392020312020302020202020200A2020332020382020312020302020202020200A2020352031332020312020312020202020200A2020352031342020312020362020202020200A2020322031352020312020362020202020200A2020322031362020312020312020202020200A2020312031372020322020302020202020200A4D2020454E44
Contributor: MASS SPECTROSCOPY SOC. OF JAPAN (MSSJ)
InstType: EI
InstName: JEOL JMS-D-3000
IoniMethod: _ENERGY 70 eV
IonPolarity: pos
Date: 2010-10-09 19:48:36+02:00
Num Peaks: 32
42 67 43 43 45 98 55 46 59 110 67 80 73 999 74 86 75 150 81 50 
91 36 93 37 95 541 96 47 107 33 113 35 119 34 144 40 147 39 153 51 
158 161 168 54 179 35 181 70 185 238 186 37 196 38 209 43 237 127 238 33 
252 133 253 31 
