Name: MassBank: JP001359
MW: 262
Formula: C18H18Si
Synonym: MassBank: JP001359
Synonym: 1,1-DIMETHYL-2,5DIPHENYL-1-SILACYCLOPENTA-2,4-DIENE
Synonym: 1,1-DIMETHYL-2,5-DIPHENYLSILOLE
Structure: 312C312D44494D455448594C2D322C3544495048454E594C2D312D53494C414359434C4F50454E54412D322C342D4449454E452E6D6F6C0A20204368656D447261773130323330393130333532440A2032312032332020302020302020302020302020302020302020302020303939392056323030300A20202020302E303433342020202D302E3239323120202020302E303030302053692020302020302020302020302020302020302020302020302020302020302020302020300A2020202D302E3434313520202020302E3337353420202020302E303030302043202020302020302020302020302020302020302020302020302020302020302020302020300A20202020302E3034333420202020312E3034323820202020302E303030302043202020302020302020302020302020302020302020302020302020302020302020302020300A20202020302E3832383020202020302E3738373920202020302E303030302043202020302020302020302020302020302020302020302020302020302020302020302020300A20202020302E383238302020202D302E3033373120202020302E303030302043202020302020302020302020302020302020302020302020302020302020302020302020300A20202020312E343935342020202D302E3532323020202020302E303030302043202020302020302020302020302020302020302020302020302020302020302020302020300A20202020322E323439312020202D302E3138363520202020302E303030302043202020302020302020302020302020302020302020302020302020302020302020302020300A20202020322E393136352020202D302E3637313420202020302E303030302043202020302020302020302020302020302020302020302020302020302020302020302020300A20202020322E383330332020202D312E3439313920202020302E303030302043202020302020302020302020302020302020302020302020302020302020302020302020300A20202020322E303736362020202D312E3832373420202020302E303030302043202020302020302020302020302020302020302020302020302020302020302020302020300A20202020312E343039322020202D312E3334323520202020302E303030302043202020302020302020302020302020302020302020302020302020302020302020302020300A2020202D312E3236363520202020302E3337353420202020302E303030302043202020302020302020302020302020302020302020302020302020302020302020302020300A2020202D312E363739302020202D302E3333393120202020302E303030302043202020302020302020302020302020302020302020302020302020302020302020302020300A2020202D322E353034302020202D302E3333393120202020302E303030302043202020302020302020302020302020302020302020302020302020302020302020302020300A2020202D322E3931363520202020302E3337353420202020302E303030302043202020302020302020302020302020302020302020302020302020302020302020302020300A2020202D322E3530343020202020312E3038393920202020302E303030302043202020302020302020302020302020302020302020302020302020302020302020302020300A2020202D312E3637393020202020312E3038393920202020302E303030302043202020302020302020302020302020302020302020302020302020302020302020302020300A20202020302E333738392020202D312E3034353720202020302E303030302043202020302020302020302020302020302020302020302020302020302020302020302020300A2020202D302E363731312020202D302E3730343620202020302E303030302043202020302020302020302020302020302020302020302020302020302020302020302020300A2020202D302E3231313620202020312E3832373420202020302E303030302048202020302020302020302020302020302020302020302020302020302020302020302020300A20202020312E3439353420202020312E3237323820202020302E303030302048202020302020302020302020302020302020302020302020302020302020302020302020300A2020312020322020312020302020202020200A2020322020332020322020302020202020200A2020332020342020312020302020202020200A2020342020352020322020302020202020200A2020312020352020312020302020202020200A2020362020372020312020302020202020200A2020372020382020322020302020202020200A2020382020392020312020302020202020200A2020392031302020322020302020202020200A2031302031312020312020302020202020200A2020362031312020322020302020202020200A2020352020362020312020302020202020200A2031322031332020312020302020202020200A2031332031342020322020302020202020200A2031342031352020312020302020202020200A2031352031362020322020302020202020200A2031362031372020312020302020202020200A2031322031372020322020302020202020200A2020322031322020312020302020202020200A2020312031382020312020362020202020200A2020312031392020312020312020202020200A2020332032302020312020302020202020200A2020342032312020312020302020202020200A4D2020454E44
Contributor: MASS SPECTROSCOPY SOC. OF JAPAN (MSSJ)
InstType: EI
InstName: JEOL JMS-D-3000
IoniMethod: _ENERGY 70 eV
IonPolarity: pos
Date: 2010-10-09 19:48:36+02:00
Num Peaks: 68
43 157 44 49 45 10 51 14 53 32 58 14 59 16 67 12 69 13 77 24 
91 20 92 10 93 10 102 24 103 17 105 260 106 30 107 17 115 25 116 18 
117 22 119 25 120 14 121 305 122 48 123 43 124 16 129 44 130 17 131 77 
132 12 143 40 144 10 145 156 146 28 147 11 158 36 159 34 160 11 167 14 
169 66 170 12 171 36 183 37 184 61 185 21 197 26 202 33 203 29 204 21 
205 11 207 24 215 21 217 19 218 16 219 16 220 15 221 40 234 23 245 44 
246 12 247 282 248 68 249 18 262 999 263 259 264 67 265 10 
