Name: MassBank: JP004436
MW: 168
Formula: C8H12N2O2
Synonym: MassBank: JP004436
Synonym: 5-SEC-BUTYL-1,2,3,4-TETRAHYDROPYRIMIDINE-2,4-DIONE
Synonym: 5-SEC-BUTYLURACIL
Structure: 352D5345432D425554594C2D312C322C332C342D5445545241485944524F505952494D4944494E452D322C342D44494F4E452E6D6F6C0A20204368656D447261773034323331303037343632440A2031322031322020302020302020302020302020302020302020302020303939392056323030300A2020202D312E303331332020202D302E3335373220202020302E303030302043202020302020302020302020302020302020302020302020302020302020302020302020300A2020202D302E3631383820202020302E3335373220202020302E30303030204E202020302020302020302020302020302020302020302020302020302020302020302020300A20202020302E3230363220202020302E3335373220202020302E303030302043202020302020302020302020302020302020302020302020302020302020302020302020300A20202020302E363138372020202D302E3335373220202020302E303030302043202020302020302020302020302020302020302020302020302020302020302020302020300A20202020302E323036322020202D312E3037313720202020302E303030302043202020302020302020302020302020302020302020302020302020302020302020302020300A2020202D302E363138382020202D312E3037313720202020302E30303030204E202020302020302020302020302020302020302020302020302020302020302020302020300A2020202D312E383536332020202D302E3335373220202020302E30303030204F202020302020302020302020302020302020302020302020302020302020302020302020300A20202020302E3631383720202020312E3037313720202020302E30303030204F202020302020302020302020302020302020302020302020302020302020302020302020300A20202020312E343433372020202D302E3335373220202020302E303030302043202020302020302020302020302020302020302020302020302020302020302020302020300A20202020312E3835363320202020302E3335373220202020302E303030302043202020302020302020302020302020302020302020302020302020302020302020302020300A20202020312E3434333720202020312E3037313720202020302E303030302043202020302020302020302020302020302020302020302020302020302020302020302020300A20202020312E383536322020202D312E3037313720202020302E303030302043202020302020302020302020302020302020302020302020302020302020302020302020300A2020312020322020312020302020202020200A2020322020332020312020302020202020200A2020332020342020312020302020202020200A2020342020352020322020302020202020200A2020352020362020312020302020202020200A2020312020362020312020302020202020200A2020312020372020322020302020202020200A2020332020382020322020302020202020200A2020392031302020312020302020202020200A2031302031312020312020302020202020200A2020392031322020312020302020202020200A2020342020392020312020302020202020200A4D2020454E44
Contributor: SASAKI S, TOYOHASHI UNIV. OF TECH.
InstType: EI
InstName: MS-902
IoniMethod: _ENERGY 70 eV
IonPolarity: pos
Date: 2010-10-09 19:48:36+02:00
Num Peaks: 70
36 21 37 6 38 16 39 16 40 35 41 202 42 41 43 1 44 36 50 10 
51 20 52 3 53 71 54 87 55 30 56 1 57 3 62 2 63 4 64 0 
65 16 66 19 67 58 68 15 69 54 70 18 71 5 76 0 76.5 8 77 8 
78 11 79 1 80 34 81 31 82 73 83 1 84 3 92 4 93 2 94 1 
95 6 96 582 97 36 98 0 108 4 109 3 110 67 111 1 112 3 113 7 
114 3 122 0 123 6 124 5 125 38 126 4 127 2 137 2 138 5 139 999 
140 100 141 8 151 5 152 0 153 98 158 8 167 7 168 19 169 19 170 2 
