Name: TRANS-2-NONENOIC ACID
MW: 156
Formula: C9H16O2
Synonym: MassBank: JP009196
Synonym: TRANS-2-NONENOIC ACID
Structure: 5452414E532D322D4E4F4E454E4F494320414349442E6D6F6C0A20204368656D447261773038313231303037353532440A2031312031302020302020302020302020302020302020302020302020303939392056323030300A2020202D322E353030362020202D302E3230363220202020302E303030302043202020302020302020302020302020302020302020302020302020302020302020302020300A2020202D312E373836322020202D302E3631383820202020302E303030302043202020302020302020302020302020302020302020302020302020302020302020302020300A2020202D312E303731372020202D302E3230363220202020302E303030302043202020302020302020302020302020302020302020302020302020302020302020302020300A2020202D302E333537322020202D302E3631383820202020302E303030302043202020302020302020302020302020302020302020302020302020302020302020302020300A20202020302E333537322020202D302E3230363220202020302E303030302043202020302020302020302020302020302020302020302020302020302020302020302020300A20202020312E303731372020202D302E3631383820202020302E303030302043202020302020302020302020302020302020302020302020302020302020302020302020300A20202020312E373836322020202D302E3230363220202020302E303030302043202020302020302020302020302020302020302020302020302020302020302020302020300A20202020322E353030362020202D302E3631383820202020302E303030302043202020302020302020302020302020302020302020302020302020302020302020302020300A20202020332E323135312020202D302E3230363220202020302E303030302043202020302020302020302020302020302020302020302020302020302020302020302020300A2020202D322E3530303620202020302E3631383820202020302E30303030204F202020302020302020302020302020302020302020302020302020302020302020302020300A2020202D332E323135312020202D302E3631383820202020302E30303030204F202020302020302020302020302020302020302020302020302020302020302020302020300A2020312020322020312020302020202020200A2020322020332020322020302020202020200A2020332020342020312020302020202020200A2020342020352020312020302020202020200A2020352020362020312020302020202020200A2020362020372020312020302020202020200A2020372020382020312020302020202020200A2020382020392020312020302020202020200A2020312031302020322020302020202020200A2020312031312020312020302020202020200A4D2020454E44
Contributor: SODA AROMATIC CO., LTD.
InstType: EI
InstName: HITACHI M-80B
IoniMethod: _ENERGY 70 eV
IonPolarity: pos
Date: 2010-10-09 19:48:36+02:00
Num Peaks: 68
14 11 15 26 18 51 26 37 27 591 28 52 29 686 30 19 31 36 32 10 
38 25 39 550 40 88 41 913 42 385 43 999 44 39 45 139 50 19 51 42 
52 29 53 146 54 121 55 611 56 397 57 101 58 30 59 21 60 73 63 11 
65 27 66 23 67 126 68 169 69 197 70 141 71 79 72 10 73 685 74 32 
77 18 79 25 80 15 81 136 82 49 83 49 84 298 85 37 86 239 87 87 
88 33 94 60 95 55 96 260 97 86 98 13 99 152 100 65 101 48 109 51 
110 36 113 49 114 50 115 14 123 23 127 33 138 100 139 23 
