Name: MassBank: JP007999
MW: 288
Formula: C19H28O2
Synonym: MassBank: JP007999
Synonym: (4AS,5S,8AS)-(+)-5BETA,8ABETA-DIMETHYL-2-FORMYL-5ALPHA-(4-METHYL-3-PENTENYL)-4A,5,6,7,8,8A-HEXAHYDRONAPHTHALEN-1(4H)-ONE
Structure: 283441532C35532C384153292D282B292D35424554412C3841424554412D44494D455448594C2D322D464F524D594C2D35414C5048412D28342D4D455448594C2D332D50454E54454E594C292D34412C352C362C372C382C38412D48455841485944524F4E4150485448414C454E2D31283448292D4F4E452E6D6F6C0A20204368656D447261773130323130393135313132440A2032332032342020302020302020302020302020302020302020302020303939392056323030300A2020202D302E373639382020202D302E3936313220202020302E303030302043202020302020302020302020302020302020302020302020302020302020302020302020300A2020202D302E373639382020202D312E3738363120202020302E303030302043202020302020302020302020302020302020302020302020302020302020302020302020300A2020202D302E303535342020202D322E3139383620202020302E303030302043202020302020302020302020302020302020302020302020302020302020302020302020300A20202020302E363539312020202D312E3738363120202020302E303030302043202020302020302020302020302020302020302020302020302020302020302020302020300A20202020302E363539312020202D302E3936313220202020302E303030302043202020302020302020302020302020302020302020302020302020302020302020302020300A2020202D302E303535342020202D302E3534383720202020302E303030302043202020302020302020302020302020302020302020302020302020302020302020302020300A20202020312E333733362020202D322E3139383620202020302E303030302043202020302020302020302020302020302020302020302020302020302020302020302020300A20202020322E303838302020202D312E3738363120202020302E303030302043202020302020302020302020302020302020302020302020302020302020302020302020300A20202020322E303838302020202D302E3936313220202020302E303030302043202020302020302020302020302020302020302020302020302020302020302020302020300A20202020312E333733362020202D302E3534383720202020302E303030302043202020302020302020302020302020302020302020302020302020302020302020302020300A2020202D302E303535342020202D332E3032333620202020302E30303030204F202020302020302020302020302020302020302020302020302020302020302020302020300A2020202D312E343834322020202D322E3139383620202020302E303030302043202020302020302020302020302020302020302020302020302020302020302020302020300A20202020302E363539312020202D302E3133363220202020302E303030302048202020302020302020302020302020302020302020302020302020302020302020302020300A20202020302E3936313120202020302E3136353820202020302E303030302043202020302020302020302020302020302020302020302020302020302020302020302020300A2020202D312E343834322020202D302E3534383720202020302E303030302048202020302020302020302020302020302020302020302020302020302020302020302020300A20202020312E3337333620202020302E3838303320202020302E303030302043202020302020302020302020302020302020302020302020302020302020302020302020300A20202020302E3936313120202020312E3539343720202020302E303030302043202020302020302020302020302020302020302020302020302020302020302020302020300A20202020312E3337333620202020322E3330393120202020302E303030302043202020302020302020302020302020302020302020302020302020302020302020302020300A20202020302E3936313120202020332E3032333620202020302E303030302043202020302020302020302020302020302020302020302020302020302020302020302020300A20202020322E3139383620202020322E3330393120202020302E303030302043202020302020302020302020302020302020302020302020302020302020302020302020300A2020202D322E313938362020202D322E3631313120202020302E30303030204F202020302020302020302020302020302020302020302020302020302020302020302020300A20202020302E363538332020202D322E3631313120202020302E303030302043202020302020302020302020302020302020302020302020302020302020302020302020300A20202020312E3738353820202020302E3136363320202020302E303030302043202020302020302020302020302020302020302020302020302020302020302020302020300A2020312020322020322020302020202020200A2020322020332020312020302020202020200A2020332020342020312020302020202020200A2020342020352020312020302020202020200A2020352020362020312020302020202020200A2020362020312020312020302020202020200A2020342020372020312020302020202020200A2020372020382020312020302020202020200A2020382020392020312020302020202020200A2020392031302020312020302020202020200A2031302020352020312020302020202020200A2020332031312020322020302020202020200A2020322031322020312020302020202020200A2020352031332020312020362020202020200A2031302031342020312020362020202020200A2020312031352020312020302020202020200A2031342031362020312020302020202020200A2031362031372020312020302020202020200A2031372031382020322020302020202020200A2031382031392020312020302020202020200A2031382032302020312020302020202020200A2031322032312020322020302020202020200A2020342032322020312020302020202020200A2031302032332020312020302020202020200A4D202053545920203120202031205355500A4D2020534C4220203120202031202020310A4D202053414C20202031202031202032320A4D202053424C20202031202031202032330A4D2020534D5420202031204D650A4D2020534256202020312032332020202D372E3038323020202020362E393233380A4D202053545920203120202032205355500A4D2020534C4220203120202032202020320A4D202053414C20202032202031202032330A4D202053424C20202032202031202032340A4D2020534D5420202032204D650A4D2020534256202020322032342020202D362E3636393020202020382E343633380A4D2020454E44
Contributor: HISAHIRO HAGIWARA, CHEMICAL RESEARCH INSTITUTE OF NON-AQUEOUSSOLUTIONS TOHOKU UNIV.
InstType: EI
InstName: JEOL JMS-DX-300
IoniMethod: _ENERGY 70 eV
IonPolarity: pos
Date: 2010-10-09 19:48:36+02:00
Num Peaks: 57
32 101 39 119 41 532 42 128 43 999 53 99 55 288 57 57 58 743 67 168 
68 50 69 521 77 86 79 113 81 218 82 64 83 173 91 112 93 139 95 135 
97 62 105 77 107 131 108 59 109 370 110 66 121 132 122 101 123 158 133 76 
134 53 135 147 136 109 137 224 138 174 147 1 149 176 150 226 151 71 159 69 
161 125 162 187 163 156 164 51 175 176 176 64 177 120 189 168 191 79 192 51 
203 53 245 309 246 58 260 76 273 291 274 61 288 121 
