Name: MassBank: JP000474
MW: 122
Formula: C7H10N2
Synonym: MassBank: JP000474
Synonym: 3,4-TETRAMETHYLENEPYRAZOLE
Synonym: 4,5,6,7-TETRAHYDROBENZO(C)PYRAZOLE
Structure: 310A32340A332C342D54455452414D455448594C454E45505952415A4F4C452E6D6F6C0A20204368656D447261773032323231303030313832440A2020392031302020302020302020302020302020302020302020302020303939392056323030300A2020202D312E333439322020202D302E3030303020202020302E30303030204E202020302020302020302020302020302020302020302020302020302020302020302020300A2020202D302E3836343320202020302E3636373420202020302E30303030204E202020302020302020302020302020302020302020302020302020302020302020302020300A2020202D302E3037393720202020302E3431323520202020302E303030302043202020302020302020302020302020302020302020302020302020302020302020302020300A2020202D302E303739372020202D302E3431323520202020302E303030302043202020302020302020302020302020302020302020302020302020302020302020302020300A2020202D302E383634332020202D302E3636373420202020302E303030302043202020302020302020302020302020302020302020302020302020302020302020302020300A20202020302E3633343820202020302E3832353020202020302E303030302043202020302020302020302020302020302020302020302020302020302020302020302020300A20202020312E3334393220202020302E3431323520202020302E303030302043202020302020302020302020302020302020302020302020302020302020302020302020300A20202020312E333439322020202D302E3431323520202020302E303030302043202020302020302020302020302020302020302020302020302020302020302020302020300A20202020302E363334382020202D302E3832353020202020302E303030302043202020302020302020302020302020302020302020302020302020302020302020302020300A2020312020322020312020302020202020200A2020322020332020322020302020202020200A2020332020342020312020302020202020200A2020342020352020322020302020202020200A2020312020352020312020302020202020200A2020362020372020312020302020202020200A2020372020382020312020302020202020200A2020382020392020312020302020202020200A2020332020362020312020302020202020200A2020342020392020312020302020202020200A4D2020454E44
Contributor: SASAKI S, TOYOHASHI UNIV. OF TECH.
InstType: EI
InstName: MX-1303
IoniMethod: _ENERGY 50 eV
IonPolarity: pos
Date: 2010-10-09 19:48:36+02:00
Num Peaks: 49
26 13 27 58 28 94 29 1 38 16 39 122 40 41 41 10 42 48 43 18 
50 11 51 3 52 58 53 45 54 49 55 3 57 11 60 25 63 16 64 1 
65 46 66 28 67 92 68 3 69 19 77 27 78 11 79 1 80 29 81 57 
82 14 83 1 91 16 92 21 93 66 94 999 95 155 96 12 107 14 108 0 
109 16 110 14 118 4 119 2 120 7 121 170 122 514 123 5 124 3 
