Name: ISOBUTYLBENZENE
MW: 134
Formula: C10H14
Synonym: MassBank: JP008088
Synonym: ISOBUTYLBENZENE
Structure: 49534F425554594C42454E5A454E452E6D6F6C0A20204368656D447261773038313131303231313432440A2031302031302020302020302020302020302020302020302020302020303939392056323030300A20202020302E333537322020202D302E3431323520202020302E303030302043202020302020302020302020302020302020302020302020302020302020302020302020300A20202020302E3335373220202020302E3431323520202020302E303030302043202020302020302020302020302020302020302020302020302020302020302020302020300A20202020312E3037313720202020302E3832353020202020302E303030302043202020302020302020302020302020302020302020302020302020302020302020302020300A20202020312E3738363220202020302E3431323520202020302E303030302043202020302020302020302020302020302020302020302020302020302020302020302020300A20202020312E373836322020202D302E3431323520202020302E303030302043202020302020302020302020302020302020302020302020302020302020302020302020300A20202020312E303731372020202D302E3832353020202020302E303030302043202020302020302020302020302020302020302020302020302020302020302020302020300A2020202D302E333537322020202D302E3832353020202020302E303030302043202020302020302020302020302020302020302020302020302020302020302020302020300A2020202D312E303731372020202D302E3431323520202020302E303030302043202020302020302020302020302020302020302020302020302020302020302020302020300A2020202D312E373836322020202D302E3832353020202020302E303030302043202020302020302020302020302020302020302020302020302020302020302020302020300A2020202D312E3037313720202020302E3431323520202020302E303030302043202020302020302020302020302020302020302020302020302020302020302020302020300A2020312020322020312020302020202020200A2020322020332020322020302020202020200A2020332020342020312020302020202020200A2020342020352020322020302020202020200A2020352020362020312020302020202020200A2020312020362020322020302020202020200A2020372020382020312020302020202020200A2020382020392020312020302020202020200A2020382031302020312020302020202020200A2020312020372020312020302020202020200A4D2020454E44
Contributor: YAMAMOTO M, DEP. CHEMISTRY, FAC. SCIENCE, NARA WOMEN'S UNIV.
InstType: EI
InstName: HITACHI RMU-6M
IoniMethod: _ENERGY 20 eV
IonPolarity: pos
Date: 2010-10-09 19:48:36+02:00
Num Peaks: 15
27 12 41 37 43 147 45 7 55 8 56 25 78 22 91 999 92 869 93 66 
105 12 117 11 118 18 134 423 135 48 
