Name: DIMETHYLHYDRAZONE BUTYRALDEHYDE
MW: 114
Formula: C6H14N2
Synonym: MassBank: JP000830
Synonym: DIMETHYLHYDRAZONE BUTYRALDEHYDE
Synonym: BUTYRALDEHYDE DIMETHYLHYDRAZONE
Structure: 310A32300A44494D455448594C48594452415A4F4E45204255545952414C4445485944452E6D6F6C0A20204368656D447261773039303631303034353932440A2020382020372020302020302020302020302020302020302020302020303939392056323030300A2020202D302E3030303020202020302E3230363220202020302E303030302043202020302020302020302020302020302020302020302020302020302020302020302020300A20202020302E3731343520202020302E3631383820202020302E303030302043202020302020302020302020302020302020302020302020302020302020302020302020300A20202020312E3432383920202020302E3230363220202020302E303030302043202020302020302020302020302020302020302020302020302020302020302020302020300A20202020322E3134333420202020302E3631383820202020302E303030302043202020302020302020302020302020302020302020302020302020302020302020302020300A2020202D302E3731343520202020302E3631383820202020302E30303030204E202020302020302020302020302020302020302020302020302020302020302020302020300A2020202D312E3432383920202020302E3230363220202020302E30303030204E202020302020302020302020302020302020302020302020302020302020302020302020300A2020202D312E343238392020202D302E3631383820202020302E303030302043202020302020302020302020302020302020302020302020302020302020302020302020300A2020202D322E3134333420202020302E3631383820202020302E303030302043202020302020302020302020302020302020302020302020302020302020302020302020300A2020312020322020312020302020202020200A2020322020332020312020302020202020200A2020332020342020312020302020202020200A2020352020362020312020302020202020200A2020362020372020312020302020202020200A2020362020382020312020302020202020200A2020312020352020322020302020202020200A4D2020454E44
Contributor: SASAKI S, TOYOHASHI UNIV. OF TECH.
InstType: EI
InstName: SHIMADZU LKB-2091
IoniMethod: _ENERGY 70 eV
IonPolarity: pos
Date: 2010-10-09 19:48:36+02:00
Num Peaks: 32
28 125 29 75 30 67 39 7 40 23 41 154 42 458 43 46 44 999 45 375 
46 19 53 1 54 9 55 38 56 56 57 4 58 123 59 94 68 15 69 1 
70 46 71 87 72 58 73 1 83 12 85 791 86 162 99 11 100 8 113 28 
114 582 115 52 
