Name: PIPERIDINE
MW: 85
Formula: C5H11N
Synonym: MassBank: JP005858
Synonym: PIPERIDINE
Synonym: HEXAHYDROPYRIDINE
Structure: 310A31370A50495045524944494E452E6D6F6C0A20204368656D447261773038313231303035353032440A2020362020362020302020302020302020302020302020302020302020303939392056323030300A20202020302E373134352020202D302E3431323520202020302E30303030204E202020302020302020302020302020302020302020302020302020302020302020302020300A20202020302E303030302020202D302E3832353020202020302E303030302043202020302020302020302020302020302020302020302020302020302020302020302020300A2020202D302E373134352020202D302E3431323520202020302E303030302043202020302020302020302020302020302020302020302020302020302020302020302020300A2020202D302E3731343520202020302E3431323520202020302E303030302043202020302020302020302020302020302020302020302020302020302020302020302020300A20202020302E3030303020202020302E3832353020202020302E303030302043202020302020302020302020302020302020302020302020302020302020302020302020300A20202020302E3731343520202020302E3431323520202020302E303030302043202020302020302020302020302020302020302020302020302020302020302020302020300A2020312020322020312020302020202020200A2020322020332020312020302020202020200A2020332020342020312020302020202020200A2020342020352020312020302020202020200A2020352020362020312020302020202020200A2020312020362020312020302020202020200A4D2020454E44
Contributor: YAMAMOTO M, DEP. CHEMISTRY, FAC. SCIENCE, NARA WOMEN'S UNIV.
InstType: EI
InstName: HITACHI RMU-6M
IoniMethod: _ENERGY 70 eV
IonPolarity: pos
Date: 2010-10-09 19:48:36+02:00
Num Peaks: 32
15 39 26 28 27 144 28 285 29 257 30 275 31 10 38 11 39 93 40 15 
41 113 42 242 43 216 44 324 50 11 51 15 52 13 53 26 54 33 55 95 
56 388 57 381 58 18 67 23 68 21 69 10 70 126 80 13 82 23 84 999 
85 577 89 31 
