Name: TRIMETHYLSILYL CHOLESTEROL
MW: 458
Formula: C30H54OSi
Synonym: MassBank: JP002750
Synonym: TRIMETHYLSILYL CHOLESTEROL
Structure: 303132325F5452494D455448594C53494C594C2043484F4C45535445524F4C2E6D6F6C0A20204368656D447261773038313931303233343532440A2033352033382020302020302020302020302020302020302020302020303939392056323030300A2020202D332E353733382020202D312E3736313920202020302E303030302043202020302020302020302020302020302020302020302020302020302020302020302020300A2020202D332E353733382020202D302E3933363920202020302E303030302043202020302020302020302020302020302020302020302020302020302020302020302020300A2020202D322E383539332020202D302E3532343420202020302E303030302043202020302020302020302020302020302020302020302020302020302020302020302020300A2020202D322E383539332020202D322E3137343420202020302E303030302043202020302020302020302020302020302020302020302020302020302020302020302020300A2020202D322E313434382020202D312E3736313920202020302E303030302043202020302020302020302020302020302020302020302020302020302020302020302020300A2020202D312E343330332020202D322E3137343420202020302E303030302043202020302020302020302020302020302020302020302020302020302020302020302020300A2020202D302E373135392020202D312E3736313920202020302E303030302043202020302020302020302020302020302020302020302020302020302020302020302020300A2020202D302E373135392020202D302E3933363920202020302E303030302043202020302020302020302020302020302020302020302020302020302020302020302020300A2020202D302E303031342020202D302E3532343420202020302E303030302043202020302020302020302020302020302020302020302020302020302020302020302020300A20202020302E373833322020202D302E3737393320202020302E303030302043202020302020302020302020302020302020302020302020302020302020302020302020300A20202020312E323638312020202D302E3131313920202020302E303030302043202020302020302020302020302020302020302020302020302020302020302020302020300A20202020302E3738333220202020302E3535353520202020302E303030302043202020302020302020302020302020302020302020302020302020302020302020302020300A20202020312E3033383220202020312E3334303220202020302E303030302043202020302020302020302020302020302020302020302020302020302020302020302020300A20202020312E3833353120202020312E3535333720202020302E303030302043202020302020302020302020302020302020302020302020302020302020302020302020300A20202020322E3034383620202020322E3335303620202020302E303030302043202020302020302020302020302020302020302020302020302020302020302020302020300A20202020322E3834353520202020322E3536343120202020302E303030302043202020302020302020302020302020302020302020302020302020302020302020302020300A20202020332E3035393020202020332E3336313020202020302E303030302043202020302020302020302020302020302020302020302020302020302020302020302020300A20202020332E3835353920202020332E3537343520202020302E303030302043202020302020302020302020302020302020302020302020302020302020302020302020300A20202020322E3437353620202020332E3934343320202020302E303030302043202020302020302020302020302020302020302020302020302020302020302020302020300A20202020302E3435343820202020312E3932333520202020302E303030302043202020302020302020302020302020302020302020302020302020302020302020302020300A2020202D302E3030313420202020302E3330303620202020302E303030302043202020302020302020302020302020302020302020302020302020302020302020302020300A2020202D302E3030313420202020312E3132353620202020302E303030302043202020302020302020302020302020302020302020302020302020302020302020302020300A2020202D302E3731353920202020302E3731333120202020302E303030302043202020302020302020302020302020302020302020302020302020302020302020302020300A2020202D312E3433303320202020302E3330303620202020302E303030302043202020302020302020302020302020302020302020302020302020302020302020302020300A2020202D312E343330332020202D302E3532343420202020302E303030302043202020302020302020302020302020302020302020302020302020302020302020302020300A2020202D322E313434382020202D302E3933363920202020302E303030302043202020302020302020302020302020302020302020302020302020302020302020302020300A2020202D322E313434382020202D302E3131313920202020302E303030302043202020302020302020302020302020302020302020302020302020302020302020302020300A2020202D332E383535392020202D322E3533373120202020302E30303030204F202020302020302020302020302020302020302020302020302020302020302020302020300A2020202D312E343330332020202D312E3334393420202020302E303030302048202020302020302020302020302020302020302020302020302020302020302020302020300A2020202D302E373135392020202D302E3131313920202020302E303030302048202020302020302020302020302020302020302020302020302020302020302020302020300A2020202D302E303031342020202D312E3334393420202020302E303030302048202020302020302020302020302020302020302020302020302020302020302020302020300A2020202D332E333235362020202D332E3136393020202020302E303030302053692020302020302020302020302020302020302020302020302020302020302020302020300A2020202D332E363037372020202D332E3934343320202020302E303030302043202020302020302020302020302020302020302020302020302020302020302020302020300A2020202D322E353133312020202D332E3032353720202020302E303030302043202020302020302020302020302020302020302020302020302020302020302020302020300A2020202D332E303433342020202D322E3339333820202020302E303030302043202020302020302020302020302020302020302020302020302020302020302020302020300A2020312020322020312020302020202020200A2020322020332020312020302020202020200A2020312020342020312020302020202020200A2020342020352020312020302020202020200A2020352020362020322020302020202020200A2020362020372020312020302020202020200A2020372020382020312020302020202020200A2020382020392020312020302020202020200A2020392031302020312020302020202020200A2031302031312020312020302020202020200A2031322031312020312020312020202020200A2031322031332020312020302020202020200A2031332031342020312020302020202020200A2031342031352020312020302020202020200A2031352031362020312020302020202020200A2031362031372020312020302020202020200A2031372031382020312020302020202020200A2031372031392020312020302020202020200A2031332032302020312020362020202020200A2031322032312020312020302020202020200A2020392032312020312020302020202020200A2032312032322020312020312020202020200A2032312032332020312020302020202020200A2032332032342020312020302020202020200A2032342032352020312020302020202020200A2020382032352020312020302020202020200A2032352032362020312020302020202020200A2020332032362020312020302020202020200A2020352032362020312020302020202020200A2032362032372020312020312020202020200A2020312032382020312020302020202020200A2032352032392020312020362020202020200A2020382033302020312020312020202020200A2020392033312020312020362020202020200A2032382033322020312020302020202020200A2033322033332020312020302020202020200A2033322033342020312020302020202020200A2033322033352020312020302020202020200A4D2020454E44
Contributor: HAYASHI A, DEPT. OF CHEMISTRY, FAC. OF SCI. AND TECHNOLOGY, KINKI UNIV.
InstType: EI
InstName: SHIMADZU LKB-9000B
IoniMethod: _ENERGY 70 eV
IonPolarity: pos
Date: 2010-10-09 19:48:36+02:00
Num Peaks: 202
55 22 57 29 67 26 69 5 71 38 73 105 74 12 75 15 76 11 77 20 
79 45 81 10 82 13 83 53 85 14 91 8 92 20 93 101 94 27 95 19 
96 19 97 55 101 16 103 2 104 14 105 144 106 50 107 20 108 42 109 137 
110 20 111 5 113 13 115 30 116 23 117 6 118 36 119 172 120 117 121 22 
122 39 123 84 124 10 125 3 127 19 128 21 129 732 130 13 131 144 132 45 
133 150 134 5 135 141 136 27 137 49 139 1 141 27 142 28 143 133 144 5 
145 257 146 83 147 186 148 6 149 94 150 16 151 41 153 1 155 61 156 25 
157 75 158 6 159 204 160 135 161 176 162 4 163 109 164 17 165 39 167 1 
168 12 169 34 170 16 171 5 172 27 173 100 174 38 175 7 176 15 177 57 
178 10 179 3 180 11 182 16 183 19 184 1 185 50 186 20 187 46 188 2 
189 59 190 11 191 37 192 1 193 48 194 13 195 24 196 3 197 33 198 15 
199 64 200 3 201 56 202 15 203 75 204 1 205 40 206 30 207 43 208 1 
209 16 211 20 212 12 213 16 214 51 215 69 216 21 217 7 218 18 219 57 
220 18 221 2 227 32 228 43 229 41 230 1 231 17 233 55 234 13 235 2 
239 11 241 25 242 10 243 1 245 38 246 35 247 257 248 6 249 14 251 12 
253 24 254 1 255 214 256 49 257 14 259 4 260 39 261 24 273 25 274 3 
275 103 276 24 283 22 287 1 299 13 300 10 301 40 302 1 303 10 311 15 
313 17 314 2 325 12 326 36 327 53 328 14 329 999 330 263 331 35 339 2 
340 30 351 13 352 12 353 41 354 125 355 26 364 11 366 3 367 39 368 639 
369 199 370 3 443 114 444 44 445 15 456 1 457 12 181 27 458 163 459 6 
460 20 461 5 
