Name: BENZYL(TRIMETHYLSILYLMETHYL)AMINE
MW: 193
Formula: C11H19NSi
Synonym: MassBank: JP002505
Synonym: BENZYL(TRIMETHYLSILYLMETHYL)AMINE
Structure: 42454E5A594C285452494D455448594C53494C594C4D455448594C29414D494E452E6D6F6C0A20204368656D447261773039303531303131333132440A2031332031332020302020302020302020302020302020302020302020303939392056323030300A2020202D302E323036322020202D312E3031363420202020302E30303030204E202020302020302020302020302020302020302020302020302020302020302020302020300A2020202D302E363138382020202D302E3330323020202020302E303030302043202020302020302020302020302020302020302020302020302020302020302020302020300A2020202D312E343433382020202D302E3330323020202020302E303030302053692020302020302020302020302020302020302020302020302020302020302020302020300A2020202D312E3434333820202020302E3532333020202020302E303030302043202020302020302020302020302020302020302020302020302020302020302020302020300A2020202D312E343433382020202D312E3132373020202020302E303030302043202020302020302020302020302020302020302020302020302020302020302020302020300A2020202D322E323638382020202D302E3330323020202020302E303030302043202020302020302020302020302020302020302020302020302020302020302020302020300A20202020302E363138372020202D312E3031363420202020302E303030302043202020302020302020302020302020302020302020302020302020302020302020302020300A20202020312E303331332020202D302E3330323020202020302E303030302043202020302020302020302020302020302020302020302020302020302020302020302020300A20202020302E3631383820202020302E3431323520202020302E303030302043202020302020302020302020302020302020302020302020302020302020302020302020300A20202020312E3033313220202020312E3132373020202020302E303030302043202020302020302020302020302020302020302020302020302020302020302020302020300A20202020312E3835363220202020312E3132373020202020302E303030302043202020302020302020302020302020302020302020302020302020302020302020302020300A20202020322E3236383820202020302E3431323520202020302E303030302043202020302020302020302020302020302020302020302020302020302020302020302020300A20202020312E383536322020202D302E3330323020202020302E303030302043202020302020302020302020302020302020302020302020302020302020302020302020300A2020332020342020312020302020202020200A2020332020352020312020302020202020200A2020332020362020312020302020202020200A2020322020332020312020302020202020200A2020312020322020312020302020202020200A2020372020382020312020302020202020200A2020382020392020312020302020202020200A2020392031302020322020302020202020200A2031302031312020312020302020202020200A2031312031322020322020302020202020200A2031322031332020312020302020202020200A2020382031332020322020302020202020200A2020312020372020312020302020202020200A4D2020454E44
Contributor: MASS SPECTROSCOPY SOC. OF JAPAN (MSSJ)
InstType: EI
InstName: JEOL JMS-D-3000
IoniMethod: _ENERGY 70 eV
IonPolarity: pos
Date: 2010-10-09 19:48:36+02:00
Num Peaks: 30
43 32 45 79 59 66 60 11 63 15 65 86 72 13 73 569 74 45 75 28 
86 15 89 21 90 14 91 999 92 77 100 122 101 15 102 732 103 72 104 30 
118 28 119 12 120 145 121 27 133 11 149 10 178 38 179 10 190 10 193 0 
