Name: CAFFEINE
MW: 194
Formula: C8H10N4O2
Synonym: MassBank: JP003477
Synonym: CAFFEINE
Structure: 4341464645494E452E6D6F6C0A20204368656D447261773039303631303039343332440A2031342031352020302020302020302020302020302020302020302020303939392056323030300A2020202D302E3835393120202020312E3738313720202020302E30303030204F202020302020302020302020302020302020302020302020302020302020302020302020300A2020202D302E3434363620202020312E3036373320202020302E303030302043202020302020302020302020302020302020302020302020302020302020302020302020300A20202020302E3337383420202020312E3036373320202020302E30303030204E202020302020302020302020302020302020302020302020302020302020302020302020300A20202020302E3739303920202020312E3738313720202020302E303030302043202020302020302020302020302020302020302020302020302020302020302020302020300A20202020302E3739303920202020302E3335323820202020302E303030302043202020302020302020302020302020302020302020302020302020302020302020302020300A20202020302E333738342020202D302E3336313720202020302E303030302043202020302020302020302020302020302020302020302020302020302020302020302020300A20202020302E393330342020202D302E3937343820202020302E30303030204E202020302020302020302020302020302020302020302020302020302020302020302020300A20202020302E373538392020202D312E3738313720202020302E303030302043202020302020302020302020302020302020302020302020302020302020302020302020300A20202020312E363834312020202D302E3633393220202020302E303030302043202020302020302020302020302020302020302020302020302020302020302020302020300A20202020312E3539373920202020302E3138313320202020302E30303030204E202020302020302020302020302020302020302020302020302020302020302020302020300A2020202D302E3835393120202020302E3335323820202020302E30303030204E202020302020302020302020302020302020302020302020302020302020302020302020300A2020202D312E3638343120202020302E3335323820202020302E303030302043202020302020302020302020302020302020302020302020302020302020302020302020300A2020202D302E343436362020202D302E3336313720202020302E303030302043202020302020302020302020302020302020302020302020302020302020302020302020300A2020202D302E383539312020202D312E3037363120202020302E30303030204F202020302020302020302020302020302020302020302020302020302020302020302020300A2020312020322020322020302020202020200A2020322020332020312020302020202020200A2020332020342020312020302020202020200A2020332020352020312020302020202020200A2020352020362020322020302020202020200A2020362020372020312020302020202020200A2020372020382020312020302020202020200A2020372020392020312020302020202020200A2020392031302020322020302020202020200A2020352031302020312020302020202020200A2020322031312020312020302020202020200A2031312031322020312020302020202020200A2031312031332020312020302020202020200A2020362031332020312020302020202020200A2031332031342020322020302020202020200A4D2020454E44
Contributor: MASS SPECTROSCOPY SOC. OF JAPAN (MSSJ)
InstType: EI
InstName: HITACHI M-60
IoniMethod: _ENERGY 20 eV
IonPolarity: pos
Date: 2010-10-09 19:48:36+02:00
Num Peaks: 58
41 15 42 95 52 5 54 12 55 509 56 32 57 3 58 3 61 14 67 191 
68 33 69 14 70 27 71 2 72 8 80 3 81 35 82 271 83 27 84 2 
87 16 94 23 95 5 96 6 97 18 98 2 107 3 108 28 109 713 110 105 
111 11 113 1 121 1 122 5 123 6 124 7 125 8 126 2 135 5 136 53 
137 107 138 24 139 3 149 5 150 4 151 2 153 2 154 17 155 1 156 2 
164 4 165 53 166 12 192 27 193 114 194 999 195 167 196 15 
