Name: P-HYDROXYBENZOIC ACID TMS ETHER TMS ESTER
MW: 282
Formula: C13H22O3Si2
Synonym: MassBank: JP005752
Synonym: P-HYDROXYBENZOIC ACID TMS ETHER TMS ESTER
Structure: 303235365F502D485944524F585942454E5A4F4943204143494420544D5320455448455220544D532045535445522E6D6F6C0A20204368656D447261773130313931303139333032440A2031382031382020302020302020302020302020302020302020302020303939392056323030300A2020202D302E3635393520202020302E3838313020202020302E303030302043202020302020302020302020302020302020302020302020302020302020302020302020300A2020202D302E3635393520202020302E3035363020202020302E303030302043202020302020302020302020302020302020302020302020302020302020302020302020300A20202020302E303535302020202D302E3335363520202020302E303030302043202020302020302020302020302020302020302020302020302020302020302020302020300A20202020302E3736393520202020302E3035363020202020302E303030302043202020302020302020302020302020302020302020302020302020302020302020302020300A20202020302E3736393520202020302E3838313020202020302E303030302043202020302020302020302020302020302020302020302020302020302020302020302020300A20202020302E3035353020202020312E3239333520202020302E303030302043202020302020302020302020302020302020302020302020302020302020302020302020300A20202020302E3035353020202020322E3131383520202020302E30303030204F202020302020302020302020302020302020302020302020302020302020302020302020300A20202020302E373639352020202D312E3539343020202020302E30303030204F202020302020302020302020302020302020302020302020302020302020302020302020300A20202020302E303535302020202D312E3138313520202020302E303030302043202020302020302020302020302020302020302020302020302020302020302020302020300A2020202D302E363538392020202D312E3539353420202020302E30303030204F202020302020302020302020302020302020302020302020302020302020302020302020300A20202020302E3737303020202020322E3533313020202020302E303030302053692020302020302020302020302020302020302020302020302020302020302020302020300A20202020302E3335373020202020332E3234353420202020302E303030302043202020302020302020302020302020302020302020302020302020302020302020302020300A20202020312E3438333920202020322E3934333520202020302E303030302043202020302020302020302020302020302020302020302020302020302020302020302020300A20202020312E3138323020202020312E3831363520202020302E303030302043202020302020302020302020302020302020302020302020302020302020302020302020300A2020202D302E363538392020202D322E3432303420202020302E303030302053692020302020302020302020302020302020302020302020302020302020302020302020300A20202020302E313636312020202D322E3432303420202020302E303030302043202020302020302020302020302020302020302020302020302020302020302020302020300A2020202D302E363538392020202D332E3234353420202020302E303030302043202020302020302020302020302020302020302020302020302020302020302020302020300A2020202D312E343833392020202D322E3432303420202020302E303030302043202020302020302020302020302020302020302020302020302020302020302020302020300A2020312020322020322020302020202020200A2020322020332020312020302020202020200A2020332020342020322020302020202020200A2020342020352020312020302020202020200A2020352020362020322020302020202020200A2020362020312020312020302020202020200A2020362020372020312020302020202020200A2020372031312020312020302020202020200A2020332020392020312020302020202020200A2020382020392020322020302020202020200A2020392031302020312020302020202020200A2031312031322020312020302020202020200A2031312031332020312020302020202020200A2031312031342020312020302020202020200A2031302031352020312020302020202020200A2031352031362020312020302020202020200A2031352031372020312020302020202020200A2031352031382020312020302020202020200A4D2020454E44
Contributor: MASS SPECTROSCOPY SOC. OF JAPAN (MSSJ)
InstType: EI
InstName: HITACHI M-80
IoniMethod: _ENERGY 70 eV
IonPolarity: pos
Date: 2010-10-09 19:48:36+02:00
Num Peaks: 59
15 23 29 15 39 18 43 84 44 32 45 165 47 23 50 18 58 22 59 41 
61 17 63 23 64 20 65 25 72 19 73 999 74 99 75 138 76 46 77 34 
79 15 85 14 89 37 90 17 91 67 92 37 93 19 103 21 104 23 105 23 
119 23 120 15 121 36 126 127 126.5 26 133 41 135 63 147 36 149 54 150 20 
151 53 179 37 191 17 193 566 194 99 195 98 207 31 210 30 223 492 224 108 
225 46 267 983 268 227 269 94 270 15 281 23 282 430 283 106 284 42 
