Name: MassBank: JP000415
MW: 172
Formula: C8H20N4
Synonym: MassBank: JP000415
Synonym: 1,1-DIISOPROPYL-4,4-DIMETHYL-2-TETRAZENE
Structure: 312C312D444949534F50524F50594C2D342C342D44494D455448594C2D322D54455452415A454E452E6D6F6C0A20204368656D447261773130323330393130323432440A2031322031312020302020302020302020302020302020302020302020303939392056323030300A20202020302E3731343520202020302E3030303020202020302E30303030204E202020302020302020302020302020302020302020302020302020302020302020302020300A2020202D302E303030302020202D302E3431323520202020302E30303030204E202020302020302020302020302020302020302020302020302020302020302020302020300A2020202D302E373134352020202D302E3030303020202020302E30303030204E202020302020302020302020302020302020302020302020302020302020302020302020300A2020202D312E343238392020202D302E3431323520202020302E30303030204E202020302020302020302020302020302020302020302020302020302020302020302020300A2020202D312E343238392020202D312E3233373520202020302E303030302043202020302020302020302020302020302020302020302020302020302020302020302020300A2020202D322E313433342020202D302E3030303020202020302E303030302043202020302020302020302020302020302020302020302020302020302020302020302020300A20202020302E3731343520202020302E3832353020202020302E303030302043202020302020302020302020302020302020302020302020302020302020302020302020300A20202020312E3432383920202020312E3233373520202020302E303030302043202020302020302020302020302020302020302020302020302020302020302020302020300A2020202D302E3030303020202020312E3233373520202020302E303030302043202020302020302020302020302020302020302020302020302020302020302020302020300A20202020312E343238392020202D302E3431323520202020302E303030302043202020302020302020302020302020302020302020302020302020302020302020302020300A20202020322E313433342020202D302E3030303020202020302E303030302043202020302020302020302020302020302020302020302020302020302020302020302020300A20202020312E343238392020202D312E3233373520202020302E303030302043202020302020302020302020302020302020302020302020302020302020302020302020300A2020312020322020312020302020202020200A2020322020332020322020302020202020200A2020332020342020312020302020202020200A2020342020352020312020302020202020200A2020342020362020312020302020202020200A2020372020382020312020302020202020200A2020372020392020312020302020202020200A2020312020372020312020302020202020200A2031302031312020312020302020202020200A2031302031322020312020302020202020200A2020312031302020312020302020202020200A4D2020454E44
Contributor: SASAKI S, TOYOHASHI UNIV. OF TECH.
InstType: EI
InstName: SHIMADZU LKB-2091
IoniMethod: _ENERGY 70 eV
IonPolarity: pos
Date: 2010-10-09 19:48:36+02:00
Num Peaks: 28
27 195 29 21 30 79 39 5 40 15 41 207 42 300 43 86 44 999 45 73 
56 39 57 2 58 773 59 636 60 15 70 10 71 11 72 359 73 15 84 5 
85 12 86 61 99 9 100 1 157 66 158 6 172 819 173 68 
