Name: NICOTINIC ACID TRIMETHYLSILYL ESTER
MW: 195
Formula: C9H13NO2Si
Synonym: MassBank: JP007498
Synonym: NICOTINIC ACID TRIMETHYLSILYL ESTER
Synonym: PYRIDINE-3-CARBOXYLIC ACID TRIMETHYLSILYLESTER
Structure: 5059524944494E452D332D434152424F58594C49432041434944205452494D455448594C53494C594C2045535445522E6D6F6C0A20204368656D447261773038313231303036323632440A2031332031332020302020302020302020302020302020302020302020303939392056323030300A2020202D312E3033313220202020302E3330323020202020302E303030302043202020302020302020302020302020302020302020302020302020302020302020302020300A2020202D302E363138372020202D302E3431323520202020302E303030302043202020302020302020302020302020302020302020302020302020302020302020302020300A2020202D312E303331322020202D312E3132373020202020302E303030302043202020302020302020302020302020302020302020302020302020302020302020302020300A2020202D312E383536322020202D312E3132373020202020302E303030302043202020302020302020302020302020302020302020302020302020302020302020302020300A2020202D322E323638382020202D302E3431323520202020302E303030302043202020302020302020302020302020302020302020302020302020302020302020302020300A2020202D312E3835363320202020302E3330323020202020302E30303030204E202020302020302020302020302020302020302020302020302020302020302020302020300A20202020302E323036332020202D302E3431323520202020302E303030302043202020302020302020302020302020302020302020302020302020302020302020302020300A20202020302E363138382020202D312E3132373020202020302E30303030204F202020302020302020302020302020302020302020302020302020302020302020302020300A20202020302E3631383820202020302E3330323020202020302E30303030204F202020302020302020302020302020302020302020302020302020302020302020302020300A20202020312E3434333820202020302E3330323020202020302E303030302053692020302020302020302020302020302020302020302020302020302020302020302020300A20202020312E3434333820202020312E3132373020202020302E303030302043202020302020302020302020302020302020302020302020302020302020302020302020300A20202020322E3236383820202020302E3330323020202020302E303030302043202020302020302020302020302020302020302020302020302020302020302020302020300A20202020312E343433382020202D302E3532333020202020302E303030302043202020302020302020302020302020302020302020302020302020302020302020302020300A2020312020322020312020302020202020200A2020322020332020322020302020202020200A2020332020342020312020302020202020200A2020342020352020322020302020202020200A2020352020362020312020302020202020200A2020312020362020322020302020202020200A2020372020382020322020302020202020200A2020372020392020312020302020202020200A2020322020372020312020302020202020200A2031302031312020312020302020202020200A2031302031322020312020302020202020200A2031302031332020312020302020202020200A2020392031302020312020302020202020200A4D2020454E44
Contributor: KOGA M, UNIV. OF OCCUPATIONAL AND ENVIRONMENTAL HEALTH
InstType: EI
InstName: JEOL JMS-01-SG
IoniMethod: _ENERGY 70 eV
IonPolarity: pos
Date: 2010-10-09 19:48:36+02:00
Num Peaks: 30
43 16 44 32 45 55 47 4 50 26 51 156 52 16 53 1 59 16 72 16 
73 13 74 2 75 19 76 6 77 13 78 36 79 26 90 29 106 434 107 3 
136 477 137 55 138 13 180 999 181 137 182 42 186 6 194 1 195 52 196 6 
