Name: M-HYDROXY NITROBEZENE
MW: 139
Formula: C6H5NO3
Synonym: MassBank: JP002915
Synonym: M-HYDROXY NITROBEZENE
Structure: 303534305F4D2D485944524F5859204E4954524F42455A454E452E6D6F6C0A20204368656D447261773039303631303138333132440A2031302031302020302020302020302020302020302020302020302020303939392056323030300A2020202D302E323036322020202D302E3335373220202020302E303030302043202020302020302020302020302020302020302020302020302020302020302020302020300A20202020302E3230363220202020302E3335373220202020302E303030302043202020302020302020302020302020302020302020302020302020302020302020302020300A20202020312E3033313320202020302E3335373220202020302E303030302043202020302020302020302020302020302020302020302020302020302020302020302020300A20202020312E343433382020202D302E3335373220202020302E303030302043202020302020302020302020302020302020302020302020302020302020302020302020300A20202020312E303331332020202D312E3037313720202020302E303030302043202020302020302020302020302020302020302020302020302020302020302020302020300A20202020302E323036322020202D312E3037313720202020302E303030302043202020302020302020302020302020302020302020302020302020302020302020302020300A2020202D312E303331332020202D302E3335373220202020302E30303030204E202020302020332020302020302020302020302020302020302020302020302020302020300A2020202D312E3434333820202020302E3335373220202020302E30303030204F202020302020302020302020302020302020302020302020302020302020302020302020300A2020202D312E343433382020202D312E3037313720202020302E30303030204F202020302020352020302020302020302020302020302020302020302020302020302020300A20202020312E3434333820202020312E3037313720202020302E30303030204F202020302020302020302020302020302020302020302020302020302020302020302020300A2020312020322020312020302020202020200A2020322020332020322020302020202020200A2020332020342020312020302020202020200A2020342020352020322020302020202020200A2020352020362020312020302020202020200A2020312020362020322020302020202020200A2020372020382020322020302020202020200A2020372020392020312020302020202020200A2020312020372020312020302020202020200A2020332031302020312020302020202020200A4D202043484720203220202037202020312020203920202D310A4D2020454E44
Contributor: MASS SPECTROSCOPY SOC. OF JAPAN (MSSJ)
InstType: EI
InstName: Unknown
IoniMethod: EI
IonPolarity: pos
Date: 2010-10-09 19:48:36+02:00
Num Peaks: 24
27 62 29 36 30 106 37 38 38 119 39 704 43 22 50 52 51 41 53 171 
61 27 62 74 63 173 64 89 65 782 66 69 74 23 81 188 93 623 94 41 
109 62 123 22 139 999 140 72 
