Name: DL-2-PHENYLPROPIONALDEHYDE
CAS: 34713-70-7
MW: 134
Formula: C9H10O
Synonym: MassBank: JP006282
Synonym: DL-2-PHENYLPROPIONALDEHYDE
Structure: 444C2D322D5048454E594C50524F50494F4E414C4445485944452E6D6F6C0A20204368656D447261773130313831303136353832440A2031302031302020302020302020302020302020302020302020302020303939392056323030300A20202020312E3434333820202020302E3335373220202020302E303030302043202020302020302020302020302020302020302020302020302020302020302020302020300A20202020312E303331332020202D302E3335373220202020302E303030302043202020302020302020302020302020302020302020302020302020302020302020302020300A20202020312E343433382020202D312E3037313720202020302E303030302043202020302020302020302020302020302020302020302020302020302020302020302020300A20202020312E3033313320202020312E3037313720202020302E30303030204F202020302020302020302020302020302020302020302020302020302020302020302020300A20202020302E323036332020202D302E3335373220202020302E303030302043202020302020302020302020302020302020302020302020302020302020302020302020300A2020202D302E323036322020202D312E3037313720202020302E303030302043202020302020302020302020302020302020302020302020302020302020302020302020300A2020202D312E303331322020202D312E3037313720202020302E303030302043202020302020302020302020302020302020302020302020302020302020302020302020300A2020202D312E343433382020202D302E3335373220202020302E303030302043202020302020302020302020302020302020302020302020302020302020302020302020300A2020202D312E3033313320202020302E3335373220202020302E303030302043202020302020302020302020302020302020302020302020302020302020302020302020300A2020202D302E3230363220202020302E3335373220202020302E303030302043202020302020302020302020302020302020302020302020302020302020302020302020300A2020312020322020312020302020202020200A2020322020332020312020302020202020200A2020312020342020322020302020202020200A2020352020362020312020302020202020200A2020362020372020322020302020202020200A2020372020382020312020302020202020200A2020382020392020322020302020202020200A2020392031302020312020302020202020200A2020352031302020322020302020202020200A2020322020352020312020302020202020200A4D2020454E44
Contributor: MASS SPECTROSCOPY SOC. OF JAPAN (MSSJ)
InstType: EI
InstName: HITACHI M-80
IoniMethod: _ENERGY 70 eV
IonPolarity: pos
Date: 2010-10-09 19:48:36+02:00
Num Peaks: 45
14 23 15 53 29 355 30 12 31 109 32 97 37 9 38 31 39 122 40 11 
41 11 43 13 50 99 51 202 52 39 53 24 61 11 62 31 63 84 64 15 
65 44 66 5 73 6 74 41 75 30 76 27 77 294 78 113 79 207 80 13 
89 31 90 12 91 128 92 11 101 6 102 34 103 205 104 99 105 999 106 104 
107 8 132 23 133 3 134 146 135 15 
