Name: MassBank: JP005539
MW: 308
Formula: C20H20O3
Synonym: MassBank: JP005539
Synonym: 3,5-DIPHENYL-2,4,7-OCTANETRIONE (1,1,1-D3)
Structure: 332C352D44495048454E594C2D322C342C372D4F4354414E455452494F4E452028312C312C312D4433292E6D6F6C0A20204368656D447261773032323231303031343932440A2032362032372020302020302020302020302020302020302020302020303939392056323030300A2020202D302E3335373220202020312E3730353320202020302E303030302043202020302020302020302020302020302020302020302020302020302020302020302020300A20202020302E3335373220202020312E3239323820202020302E303030302043202020302020302020302020302020302020302020302020302020302020302020302020300A20202020302E3335373220202020302E3436373820202020302E303030302043202020302020302020302020302020302020302020302020302020302020302020302020300A2020202D302E3335373220202020302E3035353320202020302E303030302043202020302020302020302020302020302020302020302020302020302020302020302020300A2020202D302E333537322020202D302E3736393720202020302E303030302043202020302020302020302020302020302020302020302020302020302020302020302020300A20202020302E333537322020202D312E3138323220202020302E303030302043202020302020302020302020302020302020302020302020302020302020302020302020300A20202020302E333537322020202D322E3030373220202020302E303030302043202020302020302020302020302020302020302020302020302020302020302020302020300A2020202D302E333537322020202D322E3431393720202020302E303030302043202020302020302020302020302020302020302020302020302020302020302020302020300A20202020312E3037313720202020312E3730353320202020302E30303030204F202020302020302020302020302020302020302020302020302020302020302020302020300A2020202D312E3037313720202020302E3436373820202020302E30303030204F202020302020302020302020302020302020302020302020302020302020302020302020300A20202020312E303731372020202D322E3431393720202020302E30303030204F202020302020302020302020302020302020302020302020302020302020302020302020300A2020202D302E3736393720202020302E3939303820202020302E303030302048202020312020302020302020302020302020302020302020302020302020302020302020300A2020202D312E3037313720202020322E3131373820202020302E303030302048202020312020302020302020302020302020302020302020302020302020302020302020300A20202020302E3035353320202020322E3431393720202020302E303030302048202020312020302020302020302020302020302020302020302020302020302020302020300A2020202D312E303731372020202D312E3138323220202020302E303030302043202020302020302020302020302020302020302020302020302020302020302020302020300A2020202D312E373836322020202D302E3736393720202020302E303030302043202020302020302020302020302020302020302020302020302020302020302020302020300A2020202D322E353030362020202D312E3138323220202020302E303030302043202020302020302020302020302020302020302020302020302020302020302020302020300A2020202D322E353030362020202D322E3030373220202020302E303030302043202020302020302020302020302020302020302020302020302020302020302020302020300A2020202D312E373836322020202D322E3431393720202020302E303030302043202020302020302020302020302020302020302020302020302020302020302020302020300A2020202D312E303731372020202D322E3030373220202020302E303030302043202020302020302020302020302020302020302020302020302020302020302020302020300A20202020312E3037313720202020302E3035353320202020302E303030302043202020302020302020302020302020302020302020302020302020302020302020302020300A20202020312E3738363220202020302E3436373820202020302E303030302043202020302020302020302020302020302020302020302020302020302020302020302020300A20202020322E3530303620202020302E3035353320202020302E303030302043202020302020302020302020302020302020302020302020302020302020302020302020300A20202020322E353030362020202D302E3736393720202020302E303030302043202020302020302020302020302020302020302020302020302020302020302020302020300A20202020312E373836322020202D312E3138323220202020302E303030302043202020302020302020302020302020302020302020302020302020302020302020302020300A20202020312E303731372020202D302E3736393720202020302E303030302043202020302020302020302020302020302020302020302020302020302020302020302020300A2020312020322020312020302020202020200A2020322020332020312020302020202020200A2020332020342020312020302020202020200A2020342020352020312020302020202020200A2020352020362020312020302020202020200A2020362020372020312020302020202020200A2020372020382020312020302020202020200A2020322020392020322020302020202020200A2020342031302020322020302020202020200A2020372031312020322020302020202020200A2020312031322020312020302020202020200A2020312031332020312020302020202020200A2020312031342020312020302020202020200A2031352031362020312020302020202020200A2031362031372020322020302020202020200A2031372031382020312020302020202020200A2031382031392020322020302020202020200A2031392032302020312020302020202020200A2031352032302020322020302020202020200A2020352031352020312020302020202020200A2032312032322020312020302020202020200A2032322032332020322020302020202020200A2032332032342020312020302020202020200A2032342032352020322020302020202020200A2032352032362020312020302020202020200A2032312032362020322020302020202020200A2020332032312020312020302020202020200A4D202049534F2020332020313220202032202031332020203220203134202020320A4D2020454E44
Contributor: MASS SPECTROSCOPY SOC. OF JAPAN (MSSJ)
InstType: EI
InstName: HITACHI RMU-6L
IoniMethod: _ENERGY 70 eV
IonPolarity: pos
Date: 2010-10-09 19:48:36+02:00
Num Peaks: 99
27 19 28 230 29 20 30 30 32 68 39 29 41 21 43 446 44 22 45 64 
46 138 51 308 52 11 55 22 56 24 57 135 58 297 59 13 63 25 65 20 
69 13 77 69 78 36 79 30 80 16 81 24 82 15 83 11 89 36 90 34 
91 53 92 27 93 24 94 10 102 19 103 40 104 32 105 73 106 22 107 23 
108 36 115 24 116 15 117 31 118 49 119 33 127 11 128 13 129 13 131 18 
133 18 134 16 135 82 136 230 137 40 138 7 147 36 148 21 149 13 161 17 
162 47 163 365 164 999 165 135 166 17 174 16 175 23 176 11 178 24 189 12 
190 11 202 16 203 15 204 13 205 21 206 12 207 11 224 10 233 7 247 127 
248 60 249 34 250 34 251 16 265 7 267 11 268 17 275 8 276 9 291 15 
292 91 293 230 294 44 295 8 309 4 310 34 311 74 312 19 313 3 
