Name: M-BROMOBENZALDEHYDE
MW: 183
Formula: C7H5BrO
Synonym: MassBank: JP006758
Synonym: M-BROMOBENZALDEHYDE
Structure: 310A32330A4D2D42524F4D4F42454E5A414C4445485944452E6D6F6C0A20204368656D447261773038313131303232323432440A2020392020392020302020302020302020302020302020302020302020303939392056323030300A20202020312E303731372020202D302E3832353020202020302E303030302043202020302020302020302020302020302020302020302020302020302020302020302020300A20202020302E333537322020202D302E3431323520202020302E303030302043202020302020302020302020302020302020302020302020302020302020302020302020300A2020202D302E333537322020202D302E3832353020202020302E303030302043202020302020302020302020302020302020302020302020302020302020302020302020300A2020202D312E303731372020202D302E3431323520202020302E303030302043202020302020302020302020302020302020302020302020302020302020302020302020300A2020202D312E3037313720202020302E3431323520202020302E303030302043202020302020302020302020302020302020302020302020302020302020302020302020300A2020202D302E3335373220202020302E3832353020202020302E303030302043202020302020302020302020302020302020302020302020302020302020302020302020300A20202020302E3335373220202020302E3431323520202020302E303030302043202020302020302020302020302020302020302020302020302020302020302020302020300A20202020312E373836322020202D302E3431323520202020302E30303030204F202020302020302020302020302020302020302020302020302020302020302020302020300A2020202D312E373836322020202D302E3832353020202020302E303030302042722020302020302020302020302020302020302020302020302020302020302020302020300A2020312020322020312020302020202020200A2020322020332020312020302020202020200A2020332020342020322020302020202020200A2020342020352020312020302020202020200A2020352020362020322020302020202020200A2020362020372020312020302020202020200A2020322020372020322020302020202020200A2020312020382020322020302020202020200A2020342020392020312020302020202020200A4D2020454E44
Contributor: MASS SPECTROSCOPY SOC. OF JAPAN (MSSJ)
InstType: EI
InstName: HITACHI RMS-4
IoniMethod: _ENERGY 70 eV
IonPolarity: pos
Date: 2010-10-09 19:48:36+02:00
Num Peaks: 56
40 63 43 15 44 24 45 2 48 21 49 142 50 999 51 56 52 42 53 42 
60 24 61 7 62 72 63 45 65 24 72 2 73 145 74 485 75 560 76 59 
77 587 78 54 79 45 80 2 81 42 82 15 84 15 85 2 86 27 87 15 
89 15 91 1 92 12 93 12 103 15 104 5 105 24 106 15 107 18 116 1 
117 15 118 12 119 15 128 2 129 24 130 18 131 24 155 48 156 235 157 458 
158 69 183 78 184 681 185 801 186 702 187 66 
