Name: MassBank: JP004533
MW: 192
Formula: C8H16O5
Synonym: MassBank: JP004533
Synonym: METHYL 2,3-DI-O-METHYLXYLOPYRANOSIDE
Structure: 303836345F4D455448594C20322C332D44492D4F2D4D455448594C58594C4F505952414E4F534944452E6D6F6C0A20204368656D447261773039303631303230323832440A2031332031332020302020302020302020302020302020302020302020303939392056323030300A20202020312E3037313720202020312E3033313220202020302E30303030204F202020302020302020302020302020302020302020302020302020302020302020302020300A20202020302E3335373220202020302E3631383720202020302E303030302043202020302020302020302020302020302020302020302020302020302020302020302020300A20202020302E333537322020202D302E3230363320202020302E303030302043202020302020302020302020302020302020302020302020302020302020302020302020300A20202020312E303731372020202D302E3631383820202020302E30303030204F202020302020302020302020302020302020302020302020302020302020302020302020300A2020202D302E333537322020202D302E3631383820202020302E303030302043202020302020302020302020302020302020302020302020302020302020302020302020300A2020202D302E333537322020202D312E3434333820202020302E30303030204F202020302020302020302020302020302020302020302020302020302020302020302020300A2020202D312E303731372020202D302E3230363220202020302E303030302043202020302020302020302020302020302020302020302020302020302020302020302020300A2020202D312E373836312020202D302E3631383720202020302E30303030204F202020302020302020302020302020302020302020302020302020302020302020302020300A2020202D312E3037313720202020302E3631383820202020302E303030302043202020302020302020302020302020302020302020302020302020302020302020302020300A2020202D302E3335373220202020312E3033313320202020302E30303030204F202020302020302020302020302020302020302020302020302020302020302020302020300A2020202D312E303731372020202D312E3835363220202020302E303030302043202020302020302020302020302020302020302020302020302020302020302020302020300A20202020312E373836312020202D302E3230363320202020302E303030302043202020302020302020302020302020302020302020302020302020302020302020302020300A20202020312E3037313720202020312E3835363220202020302E303030302043202020302020302020302020302020302020302020302020302020302020302020302020300A2020322020312020312020362020202020200A2020322020332020312020302020202020200A2020332020342020312020362020202020200A2020332020352020312020302020202020200A2020352020362020312020312020202020200A2020352020372020312020302020202020200A2020372020382020312020362020202020200A2020372020392020312020302020202020200A2020392031302020312020302020202020200A2020322031302020312020302020202020200A2020362031312020312020302020202020200A2020342031322020312020302020202020200A2020312031332020312020302020202020200A4D2020454E44
Contributor: HAYASHI A, DEPT. OF CHEMISTRY, FAC. OF SCI. AND TECHNOLOGY, KINKI UNIV.
InstType: EI
InstName: SHIMADZU LKB-9000B
IoniMethod: _ENERGY 70 eV
IonPolarity: pos
Date: 2010-10-09 19:48:36+02:00
Num Peaks: 34
410 78 420 16 430 73 440 1 45 169 47 8 53 11 55 4 56 6 57 43 
59 51 67 1 69 13 71 38 72 117 73 18 74 24 75 384 76 6 83 1 
85 32 88 999 89 57 97 3 99 10 101 246 102 10 111 0 114 8 115 2 
119 28 129 8 131 29 176 23 
