Name: MassBank: JP006360
MW: 260
Formula: C17H24O2
Synonym: MassBank: JP006360
Synonym: (2S,5R)-5-METHYL-2-(1-METHYL-1-(4-METHOXYPHENYL)ETHYL)-CYCLOHEXANONE
Structure: 2832532C3552292D352D4D455448594C2D322D28312D4D455448594C2D312D28342D4D4554484F58595048454E594C29455448594C292D4359434C4F484558414E4F4E452E6D6F6C0A20204368656D447261773130323030393232333232440A2032312032322020302020302020302020302020302020302020302020303939392056323030300A2020202D322E3730303620202020302E3338373220202020302E303030302043202020302020302020302020302020302020302020302020302020302020302020302020300A2020202D322E373030362020202D302E3433373820202020302E303030302043202020302020302020302020302020302020302020302020302020302020302020302020300A2020202D312E393836312020202D302E3835303320202020302E303030302043202020302020302020302020302020302020302020302020302020302020302020302020300A2020202D312E323731362020202D302E3433373820202020302E303030302043202020302020302020302020302020302020302020302020302020302020302020302020300A2020202D312E3237313620202020302E3338373220202020302E303030302043202020302020302020302020302020302020302020302020302020302020302020302020300A2020202D312E3938363120202020302E3739393720202020302E303030302043202020302020302020302020302020302020302020302020302020302020302020302020300A2020202D302E3139393120202020302E3338373220202020302E303030302043202020302020302020302020302020302020302020302020302020302020302020302020300A2020202D332E353132352020202D302E3239343520202020302E303030302048202020302020302020302020302020302020302020302020302020302020302020302020300A2020202D312E3035373320202020312E3138333620202020302E303030302048202020302020302020302020302020302020302020302020302020302020302020302020300A2020202D302E363339332020202D302E3936383120202020302E30303030204F202020302020302020302020302020302020302020302020302020302020302020302020300A20202020302E3632353920202020302E3338373220202020302E303030302043202020302020302020302020302020302020302020302020302020302020302020302020300A2020202D302E313939312020202D302E3433373820202020302E303030302043202020302020302020302020302020302020302020302020302020302020302020302020300A2020202D302E3139393120202020312E3231323220202020302E303030302043202020302020302020302020302020302020302020302020302020302020302020302020300A20202020312E303338342020202D302E3332373320202020302E303030302043202020302020302020302020302020302020302020302020302020302020302020302020300A20202020312E383633342020202D302E3332373320202020302E303030302043202020302020302020302020302020302020302020302020302020302020302020302020300A20202020322E3237353920202020302E3338373220202020302E303030302043202020302020302020302020302020302020302020302020302020302020302020302020300A20202020312E3836333420202020312E3130313720202020302E303030302043202020302020302020302020302020302020302020302020302020302020302020302020300A20202020312E3033383420202020312E3130313720202020302E303030302043202020302020302020302020302020302020302020302020302020302020302020302020300A20202020332E3130313720202020302E3338373220202020302E30303030204F202020302020302020302020302020302020302020302020302020302020302020302020300A2020202D322E393833332020202D312E3231323220202020302E303030302043202020302020302020302020302020302020302020302020302020302020302020302020300A20202020332E3531323520202020312E3130323220202020302E303030302043202020302020302020302020302020302020302020302020302020302020302020302020300A2020312020322020312020302020202020200A2020322020332020312020302020202020200A2020332020342020312020302020202020200A2020342020352020312020302020202020200A2020352020362020312020302020202020200A2020362020312020312020302020202020200A2020352020372020312020312020202020200A2020322020382020312020312020202020200A2020352020392020312020362020202020200A2020342031302020322020302020202020200A2020372031312020312020302020202020200A2020372031322020312020302020202020200A2020372031332020312020302020202020200A2031312031342020322020302020202020200A2031342031352020312020302020202020200A2031352031362020322020302020202020200A2031362031372020312020302020202020200A2031372031382020322020302020202020200A2031382031312020312020302020202020200A2031362031392020312020302020202020200A2020322032302020312020362020202020200A2031392032312020312020302020202020200A4D202053545920203120202031205355500A4D2020534C4220203120202031202020310A4D202053414C20202031202031202032300A4D202053424C20202031202031202032310A4D2020534D5420202031204D650A4D2020534256202020312032312020202D372E3837383820202020352E303136350A4D202053545920203120202032205355500A4D2020534C4220203120202032202020320A4D202053414C20202032202031202032310A4D202053424C20202032202031202032320A4D2020534D5420202032204D650A4D2020534256202020322032322020202D372E3138353320202020362E353036300A4D2020454E44
Contributor: HISAHIRO HAGIWARA, CHEMICAL RESEARCH INSTITUTE OF NON-AQUEOUSSOLUTIONS TOHOKU UNIV.
InstType: EI
InstName: JEOL JMS-DX-300
IoniMethod: _ENERGY 70 eV
IonPolarity: pos
Date: 2010-10-09 19:48:36+02:00
Num Peaks: 74
32 137 39 189 41 218 43 297 51 52 53 65 55 96 56 33 58 107 63 31 
65 64 69 85 77 146 78 57 79 64 81 42 89 34 90 39 91 251 92 46 
93 61 94 87 95 72 103 81 104 30 105 97 107 90 109 365 110 31 112 30 
115 136 117 59 118 32 119 48 121 638 122 70 128 68 129 52 131 71 133 101 
134 115 135 611 136 46 137 50 139 80 145 31 147 105 148 104 150 999 151 90 
153 59 154 35 157 34 158 30 159 50 161 112 162 35 169 41 171 55 175 39 
177 82 185 109 186 30 199 94 200 132 201 42 214 88 215 41 227 121 242 71 
243 34 246 44 260 428 261 81 
