Name: 4-NITROBENZONITRILE
CAS: 619-72-7
MW: 148
Formula: C7H4N2O2
Synonym: MassBank: JP005716
Synonym: 4-NITROBENZONITRILE
Structure: 342D4E4954524F42454E5A4F4E495452494C452E6D6F6C0A20204368656D447261773034323231303137303932440A2031312031312020302020302020302020302020302020302020302020303939392056323030300A20202020312E343433382020202D302E3030303020202020302E303030302043202020302020302020302020302020302020302020302020302020302020302020302020300A20202020302E363138382020202D302E3030303020202020302E303030302043202020302020302020302020302020302020302020302020302020302020302020302020300A20202020302E323036322020202D302E3731343520202020302E303030302043202020302020302020302020302020302020302020302020302020302020302020302020300A2020202D302E363138372020202D302E3731343520202020302E303030302043202020302020302020302020302020302020302020302020302020302020302020302020300A2020202D312E3033313320202020302E3030303020202020302E303030302043202020302020302020302020302020302020302020302020302020302020302020302020300A2020202D302E3631383820202020302E3731343520202020302E303030302043202020302020302020302020302020302020302020302020302020302020302020302020300A20202020302E3230363320202020302E3731343520202020302E303030302043202020302020302020302020302020302020302020302020302020302020302020302020300A20202020322E323638382020202D302E3030303020202020302E30303030204E202020302020302020302020302020302020302020302020302020302020302020302020300A2020202D312E3835363220202020302E3030303020202020302E30303030204E202020302020332020302020302020302020302020302020302020302020302020302020300A2020202D322E323638382020202D302E3731343520202020302E30303030204F202020302020302020302020302020302020302020302020302020302020302020302020300A2020202D322E3236383720202020302E3731343520202020302E30303030204F202020302020352020302020302020302020302020302020302020302020302020302020300A2020312020322020312020302020202020200A2020322020332020312020302020202020200A2020332020342020322020302020202020200A2020342020352020312020302020202020200A2020352020362020322020302020202020200A2020362020372020312020302020202020200A2020322020372020322020302020202020200A2020312020382020332020302020202020200A2020392031302020322020302020202020200A2020392031312020312020302020202020200A2020352020392020312020302020202020200A4D202043484720203220202039202020312020313120202D310A4D2020454E44
Contributor: MASS SPECTROSCOPY SOC. OF JAPAN (MSSJ)
InstType: EI
InstName: HITACHI M-80
IoniMethod: _ENERGY 70 eV
IonPolarity: pos
Date: 2010-10-09 19:48:36+02:00
Num Peaks: 43
18 37 26 11 27 35 28 26 30 517 37 47 38 43 39 50 46 41 49 32 
50 213 51 239 52 56 61 25 62 38 63 72 64 58 65 7 73 25 74 86 
75 388 76 218 77 16 86 6 87 8 88 8 89 11 90 291 91 23 99 30 
100 21 101 16 102 999 103 85 104 5 105 9 118 99 119 9 132 24 148 691 
149 65 150 10 151 3 
