Name: MassBank: JP006721
MW: 261
Formula: C15H19NO3
Synonym: MassBank: JP006721
Synonym: N-(3,3-DIDEUTERO-3-(4-METHOXYPHENYL)PROPIONYL)PIPERIDIN-2-ONE
Structure: 313139305F4E2D28332C332D44494445555445524F2D332D28342D4D4554484F58595048454E594C2950524F50494F4E594C2950495045524944494E2D322D4F4E452E6D6F6C0A20204368656D447261773039303731303131333632440A2032312032322020302020302020302020302020302020302020302020303939392056323030300A20202020312E343433372020202D312E3432383920202020302E30303030204E202020302020302020302020302020302020302020302020302020302020302020302020300A20202020322E323638312020202D312E3432383920202020302E303030302043202020302020302020302020302020302020302020302020302020302020302020302020300A20202020322E363830362020202D322E3134333420202020302E303030302043202020302020302020302020302020302020302020302020302020302020302020302020300A20202020322E323638312020202D322E3835373820202020302E303030302043202020302020302020302020302020302020302020302020302020302020302020302020300A20202020312E343433312020202D322E3835373820202020302E303030302043202020302020302020302020302020302020302020302020302020302020302020302020300A20202020312E303330372020202D322E3134333420202020302E303030302043202020302020302020302020302020302020302020302020302020302020302020302020300A20202020322E363831382020202D302E3731353120202020302E30303030204F202020302020302020302020302020302020302020302020302020302020302020302020300A20202020312E303330372020202D302E3731343520202020302E303030302043202020302020302020302020302020302020302020302020302020302020302020302020300A20202020312E343433372020202D302E3030313020202020302E30303030204F202020302020302020302020302020302020302020302020302020302020302020302020300A20202020302E323035372020202D302E3731343520202020302E303030302043202020302020302020302020302020302020302020302020302020302020302020302020300A2020202D302E323036382020202D302E3030303020202020302E303030302043202020302020302020302020302020302020302020302020302020302020302020302020300A2020202D302E393231322020202D302E3431323520202020302E303030302048202020312020302020302020302020302020302020302020302020302020302020302020300A20202020302E3530373820202020302E3431323220202020302E303030302048202020312020302020302020302020302020302020302020302020302020302020302020300A2020202D302E3631393320202020302E3731343420202020302E303030302043202020302020302020302020302020302020302020302020302020302020302020302020300A2020202D302E3230363820202020312E3432383920202020302E303030302043202020302020302020302020302020302020302020302020302020302020302020302020300A2020202D302E3631393320202020322E3134333420202020302E303030302043202020302020302020302020302020302020302020302020302020302020302020302020300A2020202D312E3434343320202020322E3134333420202020302E303030302043202020302020302020302020302020302020302020302020302020302020302020302020300A2020202D312E3835363820202020312E3432383920202020302E303030302043202020302020302020302020302020302020302020302020302020302020302020302020300A2020202D312E3434343320202020302E3731343420202020302E303030302043202020302020302020302020302020302020302020302020302020302020302020302020300A2020202D312E3835363820202020322E3835373820202020302E30303030204F202020302020302020302020302020302020302020302020302020302020302020302020300A2020202D322E3638313820202020322E3835373820202020302E303030302043202020302020302020302020302020302020302020302020302020302020302020302020300A2020312020322020312020302020202020200A2020322020332020312020302020202020200A2020332020342020312020302020202020200A2020342020352020312020302020202020200A2020352020362020312020302020202020200A2020312020362020312020302020202020200A2020322020372020322020302020202020200A2020382020392020322020302020202020200A2020382031302020312020302020202020200A2031302031312020312020302020202020200A2031312031322020312020312020202020200A2031312031342020312020302020202020200A2031312031332020312020312020202020200A2020312020382020312020302020202020200A2031342031352020322020302020202020200A2031352031362020312020302020202020200A2031362031372020322020302020202020200A2031372031382020312020302020202020200A2031382031392020322020302020202020200A2031342031392020312020302020202020200A2031372032302020312020302020202020200A2032302032312020312020302020202020200A4D202049534F202032202031322020203220203133202020320A4D2020454E44
Contributor: MASS SPECTROSCOPY SOC. OF JAPAN (MSSJ)
InstType: EI
InstName: HITACHI RMU-6G
IoniMethod: _ENERGY 20 eV
IonPolarity: pos
Date: 2010-10-09 19:48:36+02:00
Num Peaks: 50
43 15 45 10 55 15 56 15 57 35 60 12 69 35 70 15 71 25 73 15 
81 30 82 15 83 15 84 15 85 15 93 11 95 13 97 13 98 15 99 25 
100 65 101 215 102 18 105 12 107 15 108 17 109 17 112 10 113 18 120 43 
121 20 122 20 123 180 124 20 133 30 134 22 135 999 136 230 137 40 138 10 
140 10 149 32 162 12 163 35 164 95 261 3 262 2 263 250 264 42 265 8 
