Name: TRIMETHYLSILYL FUCOSTEROL
MW: 484
Formula: C32H56OSi
Synonym: MassBank: JP002752
Synonym: TRIMETHYLSILYL FUCOSTEROL
Structure: 303131335F5452494D455448594C53494C594C204655434F535445524F4C2E6D6F6C0A20204368656D447261773038313931303233343332440A2034302034332020302020302020302020302020302020302020302020303939392056323030300A2020202D332E343130382020202D302E3436353120202020302E303030302043202020302020302020302020302020302020302020302020302020302020302020302020300A2020202D332E343130382020202D312E3239303120202020302E303030302043202020302020302020302020302020302020302020302020302020302020302020302020300A2020202D322E363936332020202D312E3730323620202020302E303030302043202020302020302020302020302020302020302020302020302020302020302020302020300A2020202D312E393831382020202D312E3239303120202020302E303030302043202020302020302020302020302020302020302020302020302020302020302020302020300A2020202D312E393831382020202D302E3436353120202020302E303030302043202020302020302020302020302020302020302020302020302020302020302020302020300A2020202D322E363936332020202D302E3035323620202020302E303030302043202020302020302020302020302020302020302020302020302020302020302020302020300A2020202D312E323637342020202D312E3730323620202020302E303030302043202020302020302020302020302020302020302020302020302020302020302020302020300A2020202D302E353532392020202D312E3239303120202020302E303030302043202020302020302020302020302020302020302020302020302020302020302020302020300A2020202D302E353532392020202D302E3436353120202020302E303030302043202020302020302020302020302020302020302020302020302020302020302020302020300A2020202D312E323637342020202D302E3035323620202020302E303030302043202020302020302020302020302020302020302020302020302020302020302020302020300A20202020302E313631362020202D302E3035323620202020302E303030302043202020302020302020302020302020302020302020302020302020302020302020302020300A20202020302E3136313620202020302E3737323420202020302E303030302043202020302020302020302020302020302020302020302020302020302020302020302020300A2020202D302E3535323920202020312E3138343920202020302E303030302043202020302020302020302020302020302020302020302020302020302020302020302020300A2020202D312E3236373420202020302E3737323420202020302E303030302043202020302020302020302020302020302020302020302020302020302020302020302020300A20202020302E393436322020202D302E3330373520202020302E303030302043202020302020302020302020302020302020302020302020302020302020302020302020300A20202020312E3433313120202020302E3335393920202020302E303030302043202020302020302020302020302020302020302020302020302020302020302020302020300A20202020302E3934363220202020312E3032373420202020302E303030302043202020302020302020302020302020302020302020302020302020302020302020302020300A2020202D312E323637342020202D302E3837373620202020302E303030302043202020302020302020302020302020302020302020302020302020302020302020302020300A20202020302E303330352020202D312E3034383420202020302E303030302048202020302020302020302020302020302020302020302020302020302020302020302020300A20202020302E353734312020202D302E3736373020202020302E303030302048202020302020302020302020302020302020302020302020302020302020302020302020300A2020202D312E3938313820202020302E3335393920202020302E303030302048202020302020302020302020302020302020302020302020302020302020302020302020300A20202020302E3234373820202020312E3539323920202020302E303030302043202020302020302020302020302020302020302020302020302020302020302020302020300A20202020302E3934363220202020312E3835323420202020302E303030302043202020302020302020302020302020302020302020302020302020302020302020302020300A20202020312E3734333120202020312E3234303920202020302E303030302048202020302020302020302020302020302020302020302020302020302020302020302020300A20202020302E3233313720202020322E3236343920202020302E303030302043202020302020302020302020302020302020302020302020302020302020302020302020300A20202020312E3734333120202020322E3036353920202020302E303030302043202020302020302020302020302020302020302020302020302020302020302020302020300A20202020312E3035333920202020322E3637303320202020302E303030302048202020302020302020302020302020302020302020302020302020302020302020302020300A20202020322E3332363520202020322E3634393320202020302E303030302043202020302020302020302020302020302020302020302020302020302020302020302020300A20202020332E3135313520202020322E3634393320202020302E303030302043202020302020302020302020302020302020302020302020302020302020302020302020300A20202020332E3336353020202020312E3835323420202020302E303030302043202020302020302020302020302020302020302020302020302020302020302020302020300A20202020332E3934383320202020312E3236393020202020302E303030302043202020302020302020302020302020302020302020302020302020302020302020302020300A20202020332E3934383320202020322E3836323820202020302E303030302043202020302020302020302020302020302020302020302020302020302020302020302020300A20202020342E3636323820202020322E3435303320202020302E303030302043202020302020302020302020302020302020302020302020302020302020302020302020300A20202020342E3035363020202020332E3638303720202020302E303030302043202020302020302020302020302020302020302020302020302020302020302020302020300A2020202D332E363234332020202D322E3038373020202020302E30303030204F202020302020302020302020302020302020302020302020302020302020302020302020300A2020202D342E313235322020202D302E3837373620202020302E303030302048202020302020302020302020302020302020302020302020302020302020302020302020300A2020202D332E383337382020202D322E3838333820202020302E303030302053692020302020302020302020302020302020302020302020302020302020302020302020300A2020202D332E363234332020202D332E3638303720202020302E303030302043202020302020302020302020302020302020302020302020302020302020302020302020300A2020202D342E363632382020202D322E3838333820202020302E303030302043202020302020302020302020302020302020302020302020302020302020302020302020300A2020202D332E303430392020202D322E3637303320202020302E303030302043202020302020302020302020302020302020302020302020302020302020302020302020300A2020312020322020312020302020202020200A2020322020332020312020302020202020200A2020332020342020312020302020202020200A2020342020352020312020302020202020200A2020352020362020312020302020202020200A2020362020312020312020302020202020200A2020342020372020322020302020202020200A2020372020382020312020302020202020200A2020382020392020312020302020202020200A2020392031302020312020302020202020200A2031302020352020312020302020202020200A2020392031312020312020302020202020200A2031312031322020312020302020202020200A2031322031332020312020302020202020200A2031332031342020312020302020202020200A2031342031302020312020302020202020200A2031312031352020312020302020202020200A2031352031362020312020302020202020200A2031362031372020312020302020202020200A2031372031322020312020302020202020200A2020352031382020312020312020202020200A2020392031392020312020312020202020200A2031312032302020312020362020202020200A2031302032312020312020362020202020200A2031322032322020312020312020202020200A2031372032332020312020302020202020200A2031372032342020312020362020202020200A2032332032352020312020302020202020200A2032332032362020312020302020202020200A2032332032372020312020312020202020200A2032362032382020312020302020202020200A2032382032392020312020302020202020200A2032392033302020322020302020202020200A2033302033312020312020302020202020200A2032392033322020312020302020202020200A2033322033332020312020302020202020200A2033322033342020312020302020202020200A2020322033352020312020312020202020200A2020322033362020312020362020202020200A2033352033372020312020302020202020200A2033372033382020312020302020202020200A2033372033392020312020302020202020200A2033372034302020312020302020202020200A4D2020454E44
Contributor: HAYASHI A, DEPT. OF CHEMISTRY, FAC. OF SCI. AND TECHNOLOGY, KINKI UNIV.
InstType: EI
InstName: SHIMADZU LKB-9000B
IoniMethod: _ENERGY 70 eV
IonPolarity: pos
Date: 2010-10-09 19:48:36+02:00
Num Peaks: 246
55 68 57 10 67 43 68 1 69 120 70 10 71 20 73 17 74 19 75 205 
76 17 77 3 79 65 80 11 81 165 82 2 83 110 84 13 85 21 89 1 
91 119 92 29 93 150 94 4 95 244 96 26 97 230 98 2 99 11 101 19 
103 20 104 2 105 200 106 62 107 266 108 6 109 210 110 36 111 114 112 1 
113 10 115 36 116 22 118 5 119 308 120 160 121 307 122 6 123 137 124 17 
125 38 127 1 128 28 129 999 130 161 131 21 132 74 133 230 134 71 135 18 
136 37 137 108 138 29 139 5 140 10 141 35 142 34 143 20 144 74 145 338 
146 104 147 25 148 70 149 131 150 23 151 4 152 10 153 14 154 10 155 8 
156 45 157 122 158 125 159 32 160 150 161 290 162 56 163 12 164 22 165 40 
166 10 167 1 168 17 169 69 170 24 171 9 172 69 173 163 174 68 175 16 
176 41 177 62 178 14 179 2 181 32 182 22 183 43 184 2 185 97 186 45 
187 104 188 4 189 128 190 27 191 34 192 1 193 17 194 12 195 34 196 4 
197 76 198 33 199 111 200 5 201 106 202 38 203 101 204 2 205 20 207 14 
208 11 209 2 210 11 211 164 212 61 213 26 214 109 215 124 216 34 217 9 
218 18 219 24 220 10 221 2 223 13 225 41 226 28 227 12 228 122 229 87 
230 22 231 5 232 12 233 27 234 12 235 2 239 54 240 34 241 64 242 3 
243 119 244 32 245 44 246 2 247 19 248 15 249 12 251 1 252 13 253 209 
254 82 255 22 256 114 257 416 258 86 259 3 266 11 267 47 268 30 269 2 
270 25 271 41 272 21 273 14 274 36 281 410 282 118 283 8 284 21 285 26 
286 13 287 1 294 10 295 33 296 890 297 25 301 59 302 23 303 26 304 3 
305 10 317 11 318 28 327 3 330 15 337 12 339 13 340 1 342 16 343 89 
344 43 345 2 351 20 352 31 353 49 354 8 355 430 356 116 357 27 365 2 
366 24 371 134 372 61 373 2 379 257 380 87 381 15 386 81 387 270 388 82 
389 19 392 3 393 27 394 312 395 98 396 2 469 132 470 56 471 17 482 1 
483 12 484 87 485 37 486 1 487 4 117 81 
