Name: METHACRYLIC ACID ISOPROPYL ESTER-D1
MW: 128
Formula: C7H12O2
Synonym: MassBank: JP000992
Synonym: METHACRYLIC ACID ISOPROPYL ESTER-D1
Synonym: ISOPROPYL METHACRYLATE-D1
Structure: 303139305F4D455448414352594C494320414349442049534F50524F50594C2045535445522D44312E6D6F6C0A20204368656D447261773039303631303134333732440A2031302020392020302020302020302020302020302020302020302020303939392056323030300A2020202D302E333539322020202D302E3230363220202020302E303030302043202020302020302020302020302020302020302020302020302020302020302020302020300A2020202D312E3037333720202020302E3230363220202020302E303030302043202020302020302020302020302020302020302020302020302020302020302020302020300A2020202D312E373838322020202D302E3230363220202020302E303030302043202020302020302020302020302020302020302020302020302020302020302020302020300A2020202D312E3037333720202020312E3033313220202020302E303030302043202020302020302020302020302020302020302020302020302020302020302020302020300A2020202D302E333539322020202D312E3033313220202020302E30303030204F202020302020302020302020302020302020302020302020302020302020302020302020300A20202020302E3335353220202020302E3230363220202020302E30303030204F202020302020302020302020302020302020302020302020302020302020302020302020300A20202020312E303639372020202D302E3230363220202020302E303030302043202020302020302020302020302020302020302020302020302020302020302020302020300A20202020312E3738343120202020302E3230363220202020302E303030302043202020302020302020302020302020302020302020302020302020302020302020302020300A20202020312E303639372020202D312E3033313220202020302E303030302043202020302020302020302020302020302020302020302020302020302020302020302020300A20202020312E373838322020202D302E3631313720202020302E303030302048202020312020302020302020302020302020302020302020302020302020302020302020300A2020312020322020312020302020202020200A2020322020332020312020302020202020200A2020322020342020322020302020202020200A2020312020352020322020302020202020200A2020312020362020312020302020202020200A2020372020382020312020302020202020200A2020372020392020312020302020202020200A2020362020372020312020302020202020200A2020372031302020312020302020202020200A4D202049534F20203120203130202020320A4D2020454E44
Contributor: TAJIMA S, GUNMA COLLEGE OF TECHNOLOGY
InstType: EI
InstName: HITACHI RMU-5B
IoniMethod: _ENERGY 70 eV
IonPolarity: pos
Date: 2010-10-09 19:48:36+02:00
Num Peaks: 30
15 18 27 12 28 56 29 92 30 12 31 15 33 20 37 14 38 35 39 393 
40 145 41 884 42 299 43 169 44 999 45 32 46 58 58 12 59 49 60 145 
68 17 69 999 70 60 71 36 84 17 86 45 87 459 88 34 114 36 129 31 
