Name: 4-FLUOROBUTYROPHENONE
MW: 166
Formula: C10H11FO
Synonym: MassBank: JP003745
Synonym: 4-FLUOROBUTYROPHENONE
Structure: 342D464C554F524F42555459524F5048454E4F4E452E6D6F6C0A20204368656D447261773033323531303232313332440A2031322031322020302020302020302020302020302020302020302020303939392056323030300A2020202D302E303030302020202D302E3335373220202020302E303030302043202020302020302020302020302020302020302020302020302020302020302020302020300A20202020302E3431323520202020302E3335373220202020302E303030302043202020302020302020302020302020302020302020302020302020302020302020302020300A20202020312E3233373520202020302E3335373220202020302E303030302043202020302020302020302020302020302020302020302020302020302020302020302020300A20202020312E3635303020202020312E3037313720202020302E303030302043202020302020302020302020302020302020302020302020302020302020302020302020300A20202020302E343132352020202D312E3037313720202020302E30303030204F202020302020302020302020302020302020302020302020302020302020302020302020300A2020202D302E383235302020202D302E3335373220202020302E303030302043202020302020302020302020302020302020302020302020302020302020302020302020300A2020202D312E323337352020202D312E3037313720202020302E303030302043202020302020302020302020302020302020302020302020302020302020302020302020300A2020202D322E303632352020202D312E3037313720202020302E303030302043202020302020302020302020302020302020302020302020302020302020302020302020300A2020202D322E343735302020202D302E3335373220202020302E303030302043202020302020302020302020302020302020302020302020302020302020302020302020300A2020202D322E3036323520202020302E3335373220202020302E303030302043202020302020302020302020302020302020302020302020302020302020302020302020300A2020202D312E3233373520202020302E3335373220202020302E303030302043202020302020302020302020302020302020302020302020302020302020302020302020300A20202020322E3437353020202020312E3037313720202020302E303030302046202020302020302020302020302020302020302020302020302020302020302020302020300A2020312020322020312020302020202020200A2020322020332020312020302020202020200A2020332020342020312020302020202020200A2020362020372020312020302020202020200A2020372020382020322020302020202020200A2020382020392020312020302020202020200A2020392031302020322020302020202020200A2031302031312020312020302020202020200A2020362031312020322020302020202020200A2020312020352020322020302020202020200A2020312020362020312020302020202020200A2020342031322020312020302020202020200A4D2020454E44
Contributor: SASAKI S, TOYOHASHI UNIV. OF TECH.
InstType: EI
InstName: Unknown
IoniMethod: EI
IonPolarity: pos
Date: 2010-10-09 19:48:36+02:00
Num Peaks: 102
12 1 13 1 14 5 15 2 16 1 17 1 18 2 25 0 26 9 27 63 
28 16 29 1 31 4 32 2 33 1 36 0 37 3 38 6 39 40 40 0 
41 26 42 23 43 22 44 0 45 5 47 1 48 1 49 0 50 48 51 30 
52 1 53 0 55 16 56 3 57 15 60 0 61 5 62 2 63 3 64 0 
65 1 67 1 68 16 69 3 70 7 71 4 72 1 73 1 74 25 75 131 
76 6 77 1 80 7 81 5 82 1 83 0 85 1 86 1 87 1 89 0 
90 1 91 1 92 3 93 1 94 26 95 367 96 16 97 0 98 1 99 1 
101 4 102 0 103 1 104 2 105 4 106 0 107 4 108 1 109 19 110 0 
115 2 120 3 121 2 122 0 123 999 131 1 132 1 133 0 134 1 135 1 
136 1 137 0 138 130 145 1 146 1 147 0 148 6 149 1 151 16 164 0 
165 8 166 69 
