Name: HEXAETHYLDISILAZANE
MW: 245
Formula: C12H31NSi2
Synonym: MassBank: JP004769
Synonym: HEXAETHYLDISILAZANE
Synonym: BIS(TRIETHYLSILYL)AMINE
Structure: 48455841455448594C444953494C415A414E452E6D6F6C0A20204368656D447261773039303631303030353732440A2031352031342020302020302020302020302020302020302020302020303939392056323030300A2020202D302E373033362020202D302E3435333020202020302E303030302053692020302020302020302020302020302020302020302020302020302020302020302020300A20202020302E313231342020202D302E3435333020202020302E30303030204E202020302020302020302020302020302020302020302020302020302020302020302020300A20202020302E3533333920202020302E3236313520202020302E303030302053692020302020302020302020302020302020302020302020302020302020302020302020300A2020202D302E373033362020202D312E3237383020202020302E303030302043202020302020302020302020302020302020302020302020302020302020302020302020300A20202020302E303130392020202D312E3639303520202020302E303030302043202020302020302020302020302020302020302020302020302020302020302020302020300A2020202D312E353238362020202D302E3435333020202020302E303030302043202020302020302020302020302020302020302020302020302020302020302020302020300A2020202D312E393431312020202D312E3136373420202020302E303030302043202020302020302020302020302020302020302020302020302020302020302020302020300A2020202D302E3730333620202020302E3337323020202020302E303030302043202020302020302020302020302020302020302020302020302020302020302020302020300A2020202D312E3431383120202020302E3738343520202020302E303030302043202020302020302020302020302020302020302020302020302020302020302020302020300A20202020302E3132313420202020302E3937363020202020302E303030302043202020302020302020302020302020302020302020302020302020302020302020302020300A20202020302E3533333920202020312E3639303520202020302E303030302043202020302020302020302020302020302020302020302020302020302020302020302020300A20202020312E313635392020202D302E3236383820202020302E303030302043202020302020302020302020302020302020302020302020302020302020302020302020300A20202020312E303232362020202D312E3038313320202020302E303030302043202020302020302020302020302020302020302020302020302020302020302020302020300A20202020312E3136353920202020302E3739313820202020302E303030302043202020302020302020302020302020302020302020302020302020302020302020302020300A20202020312E3934313120202020302E3530393620202020302E303030302043202020302020302020302020302020302020302020302020302020302020302020302020300A2020312020322020312020302020202020200A2020322020332020312020302020202020200A2020342020352020312020302020202020200A2020312020342020312020302020202020200A2020362020372020312020302020202020200A2020312020362020312020302020202020200A2020382020392020312020302020202020200A2020312020382020312020302020202020200A2031302031312020312020302020202020200A2020332031302020312020312020202020200A2031322031332020312020302020202020200A2020332031322020312020312020202020200A2020332031342020312020302020202020200A2031342031352020312020302020202020200A4D2020454E44
Contributor: MASS SPECTROSCOPY SOC. OF JAPAN (MSSJ)
InstType: EI
InstName: JEOL JMS-D-3000
IoniMethod: _ENERGY 70 eV
IonPolarity: pos
Date: 2010-10-09 19:48:36+02:00
Num Peaks: 27
51 36 57 27 59 119 65 110 72 33 74 20 76 55 80 100 87 59 94 49 
100 43 102 93 104 83 130 79 132 99 158 41 160 216 161 38 186 43 188 382 
189 88 190 26 216 999 217 228 218 81 219 9 245 9 
