Name: MassBank: JP000894
MW: 112
Formula: C6H12N2
Synonym: MassBank: JP000894
Synonym: 1,3,4-TRIMETHYL-2-PYRAZOLINE
Structure: 310A32310A312C332C342D5452494D455448594C2D322D505952415A4F4C494E452E6D6F6C0A20204368656D447261773131313130393137353332440A2020382020382020302020302020302020302020302020302020302020303939392056323030300A2020202D302E3030303020202020302E3535363020202020302E30303030204E202020302020302020302020302020302020302020302020302020302020302020302020300A20202020302E3636373420202020302E3037313120202020302E30303030204E202020302020302020302020302020302020302020302020302020302020302020302020300A20202020302E343132352020202D302E3731333620202020302E303030302043202020302020302020302020302020302020302020302020302020302020302020302020300A2020202D302E343132352020202D302E3731333620202020302E303030302043202020302020302020302020302020302020302020302020302020302020302020302020300A2020202D302E3636373420202020302E3037313120202020302E303030302043202020302020302020302020302020302020302020302020302020302020302020302020300A2020202D302E383937342020202D312E3338313020202020302E303030302043202020302020302020302020302020302020302020302020302020302020302020302020300A20202020302E383937342020202D312E3338313020202020302E303030302043202020302020302020302020302020302020302020302020302020302020302020302020300A2020202D302E3030303020202020312E3338313020202020302E303030302043202020302020302020302020302020302020302020302020302020302020302020302020300A2020312020322020312020302020202020200A2020322020332020322020302020202020200A2020332020342020312020302020202020200A2020342020352020312020302020202020200A2020312020352020312020302020202020200A2020342020362020312020302020202020200A2020332020372020312020302020202020200A2020312020382020312020302020202020200A4D2020454E44
Contributor: SASAKI S, TOYOHASHI UNIV. OF TECH.
InstType: EI
InstName: SHIMADZU LKB-2091
IoniMethod: _ENERGY 70 eV
IonPolarity: pos
Date: 2010-10-09 19:48:36+02:00
Num Peaks: 37
26 18 27 81 28 187 29 4 30 78 38 10 39 94 40 3 41 178 42 625 
43 141 44 3 51 10 52 10 53 31 54 3 55 26 56 260 57 14 66 1 
67 11 68 108 69 88 70 14 71 10 80 4 81 10 82 2 95 28 96 17 
97 999 98 6 109 14 110 23 111 438 112 73 113 53 
