Name: METHYL VINYL KETONE
MW: 70
Formula: C4H6O
Synonym: MassBank: JP002135
Synonym: METHYL VINYL KETONE
Structure: 310A31340A4D455448594C2056494E594C204B45544F4E452E6D6F6C0A20204368656D447261773038313231303030343532440A2020352020342020302020302020302020302020302020302020302020303939392056323030300A20202020302E333537322020202D302E3230363220202020302E303030302043202020302020302020302020302020302020302020302020302020302020302020302020300A20202020302E3335373220202020302E3631383820202020302E30303030204F202020302020302020302020302020302020302020302020302020302020302020302020300A2020202D302E333537322020202D302E3631383820202020302E303030302043202020302020302020302020302020302020302020302020302020302020302020302020300A2020202D312E303731372020202D302E3230363220202020302E303030302043202020302020302020302020302020302020302020302020302020302020302020302020300A20202020312E303731372020202D302E3631383820202020302E303030302043202020302020302020302020302020302020302020302020302020302020302020302020300A2020312020322020322020302020202020200A2020332020342020322020302020202020200A2020312020332020312020302020202020200A2020312020352020312020302020202020200A4D2020454E44
Contributor: TAJIMA S, GUNMA COLLEGE OF TECHNOLOGY
InstType: EI
InstName: HITACHI RMU-7M
IoniMethod: _ENERGY 70 eV
IonPolarity: pos
Date: 2010-10-09 19:48:36+02:00
Num Peaks: 25
15 81 27 137 28 174 29 50 39 113 40 28 41 434 42 59 43 999 44 292 
45 24 50 16 51 32 52 16 53 83 54 21 55 244 56 16 57 24 65 37 
67 124 68 24 69 128 70 55 71 24 
