Name: MassBank: JP000394
MW: 112
Formula: C6H12N2
Synonym: MassBank: JP000394
Synonym: 1,1-DIALLYLHYDRAZINE
Structure: 310A32300A312C312D4449414C4C594C48594452415A494E452E6D6F6C0A20204368656D447261773130323330393033343132440A2020382020372020302020302020302020302020302020302020302020303939392056323030300A2020202D302E303030302020202D302E3230363220202020302E30303030204E202020302020302020302020302020302020302020302020302020302020302020302020300A2020202D302E3030303020202020302E3631383820202020302E30303030204E202020302020302020302020302020302020302020302020302020302020302020302020300A20202020302E373134352020202D302E3631383820202020302E303030302043202020302020302020302020302020302020302020302020302020302020302020302020300A20202020312E343238392020202D302E3230363220202020302E303030302043202020302020302020302020302020302020302020302020302020302020302020302020300A2020202D302E373134352020202D302E3631383820202020302E303030302043202020302020302020302020302020302020302020302020302020302020302020302020300A2020202D312E343238392020202D302E3230363220202020302E303030302043202020302020302020302020302020302020302020302020302020302020302020302020300A2020202D322E313433342020202D302E3631383720202020302E303030302043202020302020302020302020302020302020302020302020302020302020302020302020300A20202020322E313433342020202D302E3631383720202020302E303030302043202020302020302020302020302020302020302020302020302020302020302020302020300A2020312020322020312020302020202020200A2020332020342020312020302020202020200A2020312020332020312020302020202020200A2020352020362020312020302020202020200A2020362020372020322020302020202020200A2020312020352020312020302020202020200A2020342020382020322020302020202020200A4D2020454E44
Contributor: SASAKI S, TOYOHASHI UNIV. OF TECH.
InstType: EI
InstName: SHIMADZU LKB-2091
IoniMethod: _ENERGY 70 eV
IonPolarity: pos
Date: 2010-10-09 19:48:36+02:00
Num Peaks: 25
27 310 29 164 30 76 31 13 38 25 39 293 40 36 41 999 42 107 43 167 
44 215 45 7 54 67 55 41 56 74 57 2 67 10 68 18 69 23 70 2 
71 479 72 69 85 54 112 20 113 18 
