Name: ETHYL BROMIDE
MW: 107
Formula: C2H5Br
Synonym: MassBank: JP008921
Synonym: ETHYL BROMIDE
Structure: 310A31300A455448594C2042524F4D4944452E6D6F6C0A20204368656D447261773038313131303138323432440A2020332020322020302020302020302020302020302020302020302020303939392056323030300A20202020302E3030303020202020302E3230363320202020302E303030302043202020302020302020302020302020302020302020302020302020302020302020302020300A20202020302E373134352020202D302E3230363320202020302E303030302043202020302020302020302020302020302020302020302020302020302020302020302020300A2020202D302E373134352020202D302E3230363320202020302E303030302042722020302020302020302020302020302020302020302020302020302020302020302020300A2020312020322020312020302020202020200A2020312020332020312020302020202020200A4D2020454E44
Contributor: YAMAMOTO M, DEP. CHEMISTRY, FAC. SCIENCE, NARA WOMEN'S UNIV.
InstType: EI
InstName: HITACHI RMU-6M
IoniMethod: _ENERGY 70 eV
IonPolarity: pos
Date: 2010-10-09 19:48:36+02:00
Num Peaks: 19
14 33 15 29 25 40 26 26 27 813 28 190 29 999 30 2 79 43 80 17 
81 41 82 2 93 34 95 29 107 12 108 57 109 17 110 563 111 16 
