Name: MassBank: JP000504
MW: 102
Formula: C5H14N2
Synonym: MassBank: JP000504
Synonym: 1,1-DIMETHYL-2-PROPYLHYDRAZINE
Structure: 310A31380A312C312D44494D455448594C2D322D50524F50594C48594452415A494E452E6D6F6C0A20204368656D447261773130323330393130343232440A2020372020362020302020302020302020302020302020302020302020303939392056323030300A2020202D312E303731372020202D302E3230363220202020302E30303030204E202020302020302020302020302020302020302020302020302020302020302020302020300A2020202D302E333537322020202D302E3631383820202020302E30303030204E202020302020302020302020302020302020302020302020302020302020302020302020300A20202020302E333537322020202D302E3230363220202020302E303030302043202020302020302020302020302020302020302020302020302020302020302020302020300A20202020312E303731372020202D302E3631383820202020302E303030302043202020302020302020302020302020302020302020302020302020302020302020302020300A20202020312E373836322020202D302E3230363220202020302E303030302043202020302020302020302020302020302020302020302020302020302020302020302020300A2020202D312E3037313720202020302E3631383820202020302E303030302043202020302020302020302020302020302020302020302020302020302020302020302020300A2020202D312E373836322020202D302E3631383820202020302E303030302043202020302020302020302020302020302020302020302020302020302020302020302020300A2020312020322020312020302020202020200A2020332020342020312020302020202020200A2020342020352020312020302020202020200A2020322020332020312020302020202020200A2020312020362020312020302020202020200A2020312020372020312020302020202020200A4D2020454E44
Contributor: SASAKI S, TOYOHASHI UNIV. OF TECH.
InstType: EI
InstName: SHIMADZU LKB-2091
IoniMethod: _ENERGY 70 eV
IonPolarity: pos
Date: 2010-10-09 19:48:36+02:00
Num Peaks: 27
26 7 27 56 28 91 29 3 30 113 31 11 38 42 39 1 40 7 41 49 
42 147 43 13 44 158 45 169 46 60 56 1 57 18 58 25 59 999 60 4 
71 11 72 7 73 253 74 1 87 33 102 381 103 33 
