Name: ALLYLAMINE
CAS: 107-11-9
MW: 57
Formula: C3H7N
Synonym: MassBank: JP007319
Synonym: ALLYLAMINE
Synonym: 2-PROPEN-1-AMINE
Structure: 310A31320A414C4C594C414D494E452E6D6F6C0A20204368656D447261773032323131303134343532440A2020342020332020302020302020302020302020302020302020302020303939392056323030300A2020202D312E3037313720202020302E3230363220202020302E30303030204E202020302020302020302020302020302020302020302020302020302020302020302020300A2020202D302E333537322020202D302E3230363220202020302E303030302043202020302020302020302020302020302020302020302020302020302020302020302020300A20202020302E3335373220202020302E3230363220202020302E303030302043202020302020302020302020302020302020302020302020302020302020302020302020300A20202020312E303731372020202D302E3230363220202020302E303030302043202020302020302020302020302020302020302020302020302020302020302020302020300A2020322020332020312020302020202020200A2020332020342020322020302020202020200A2020312020322020312020302020202020200A4D2020454E44
Contributor: YAMAMOTO M, DEP. CHEMISTRY, FAC. SCIENCE, NARA WOMEN'S UNIV.
InstType: EI
InstName: HITACHI RMU-6M
IoniMethod: _ENERGY 70 eV
IonPolarity: pos
Date: 2010-10-09 19:48:36+02:00
Num Peaks: 25
15 18 18 28 25 13 26 68 26.5 20 27 95 27.5 19 28 538 29 116 30 815 
31 15 37 24 38 39 39 169 40 20 41 63 42 27 44 17 51 21 52 44 
54 69 55 22 56 999 57 471 58 20 
