Name: (2S)-N-CARBOBENZOXY-2-(PYRROLIDINE-2-YL)PYRROLIDINE
MW: 274
Formula: C16H22N2O2
Synonym: MassBank: JP005503
Synonym: (2S)-N-CARBOBENZOXY-2-(PYRROLIDINE-2-YL)PYRROLIDINE
Structure: 283253292D4E2D434152424F42454E5A4F58592D322D28505952524F4C4944494E452D322D594C29505952524F4C4944494E452E6D6F6C0A20204368656D447261773130323030393134313532440A2032312032332020302020302020302020302020302020302020302020303939392056323030300A20202020312E3537363820202020302E3033343920202020302E303030302043202020302020302020302020302020302020302020302020302020302020302020302020300A20202020322E333833362020202D302E3133353320202020302E303030302043202020302020302020302020302020302020302020302020302020302020302020302020300A20202020322E3739363020202020302E3537393020202020302E303030302043202020302020302020302020302020302020302020302020302020302020302020302020300A20202020322E3234333020202020312E3139313620202020302E303030302043202020302020302020302020302020302020302020302020302020302020302020302020300A20202020312E3439313020202020302E3835343020202020302E30303030204E202020302020302020302020302020302020302020302020302020302020302020302020300A20202020302E3735313820202020302E3033343920202020302E303030302048202020302020302020302020302020302020302020302020302020302020302020302020300A20202020312E343931342020202D302E3738363120202020302E303030302043202020302020302020302020302020302020302020302020302020302020302020302020300A20202020302E373736382020202D312E3139383620202020302E303030302043202020302020302020302020302020302020302020302020302020302020302020302020300A20202020302E393439372020202D322E3030353920202020302E303030302043202020302020302020302020302020302020302020302020302020302020302020302020300A20202020312E373730322020202D322E3039313120202020302E303030302043202020302020302020302020302020302020302020302020302020302020302020302020300A20202020322E313034392020202D312E3333383220202020302E30303030204E202020302020302020302020302020302020302020302020302020302020302020302020300A20202020302E3737363520202020312E3236363520202020302E303030302043202020302020302020302020302020302020302020302020302020302020302020302020300A20202020302E3036313820202020302E3835333820202020302E30303030204F202020302020302020302020302020302020302020302020302020302020302020302020300A20202020302E3737363520202020322E3039313120202020302E30303030204F202020302020302020302020302020302020302020302020302020302020302020302020300A2020202D302E3635323620202020312E3236363220202020302E303030302043202020302020302020302020302020302020302020302020302020302020302020302020300A2020202D312E3336373120202020302E3835333720202020302E303030302043202020302020302020302020302020302020302020302020302020302020302020302020300A2020202D322E3038313520202020312E3236363220202020302E303030302043202020302020302020302020302020302020302020302020302020302020302020302020300A2020202D322E3739363020202020302E3835333620202020302E303030302043202020302020302020302020302020302020302020302020302020302020302020302020300A2020202D322E3739363020202020302E3032383620202020302E303030302043202020302020302020302020302020302020302020302020302020302020302020302020300A2020202D322E303831362020202D302E3338333920202020302E303030302043202020302020302020302020302020302020302020302020302020302020302020302020300A2020202D312E3336373120202020302E3032383620202020302E303030302043202020302020302020302020302020302020302020302020302020302020302020302020300A2020312020322020312020302020202020200A2020322020332020312020302020202020200A2020332020342020312020302020202020200A2020342020352020312020302020202020200A2020352020312020312020302020202020200A2020312020362020312020362020202020200A2020312020372020312020312020202020200A2020372020382020312020302020202020200A2020382020392020312020302020202020200A2020392031302020312020302020202020200A2031302031312020312020302020202020200A2031312020372020312020302020202020200A2020352031322020312020302020202020200A2031322031332020312020302020202020200A2031322031342020322020302020202020200A2031332031352020312020302020202020200A2031352031362020312020302020202020200A2031362031372020322020302020202020200A2031372031382020312020302020202020200A2031382031392020322020302020202020200A2031392032302020312020302020202020200A2032302032312020322020302020202020200A2032312031362020312020302020202020200A4D2020454E44
Contributor: HIRAMA M, TOHOKU UNIV. FACULTY OF SCIENCE DEPT. OF CHEMISTRY YUKIBUNSEKI
InstType: EI
InstName: HITACHI M-52
IoniMethod: _ENERGY 25 eV
IonPolarity: pos
Date: 2010-10-09 19:48:36+02:00
Num Peaks: 6
69 16 70 999 71 11 91 67 274 3 275 3 
