Name: 2-PROPYLFURAN
CAS: 4229-91-8
MW: 110
Formula: C7H10O
Synonym: MassBank: JP007729
Synonym: 2-PROPYLFURAN
Structure: 310A32310A322D50524F50594C465552414E2E6D6F6C0A20204368656D447261773032323131303135303532440A2020382020382020302020302020302020302020302020302020302020303939392056323030300A2020202D312E3137323520202020302E3632353320202020302E30303030204F202020302020302020302020302020302020302020302020302020302020302020302020300A2020202D302E3431383920202020302E3238393820202020302E303030302043202020302020302020302020302020302020302020302020302020302020302020302020300A2020202D302E353035312020202D302E3533303720202020302E303030302043202020302020302020302020302020302020302020302020302020302020302020302020300A2020202D312E333132312020202D302E3730323320202020302E303030302043202020302020302020302020302020302020302020302020302020302020302020302020300A2020202D312E3732343620202020302E3031323220202020302E303030302043202020302020302020302020302020302020302020302020302020302020302020302020300A20202020302E3239353620202020302E3730323320202020302E303030302043202020302020302020302020302020302020302020302020302020302020302020302020300A20202020312E3031303120202020302E3238393820202020302E303030302043202020302020302020302020302020302020302020302020302020302020302020302020300A20202020312E3732343620202020302E3730323320202020302E303030302043202020302020302020302020302020302020302020302020302020302020302020302020300A2020312020322020312020302020202020200A2020322020332020322020302020202020200A2020332020342020312020302020202020200A2020342020352020322020302020202020200A2020312020352020312020302020202020200A2020362020372020312020302020202020200A2020372020382020312020302020202020200A2020322020362020312020302020202020200A4D2020454E44
Contributor: HASHIMOTO K, KYOTO COLLEGE OF PHARMACY
InstType: EI
InstName: HITACHI M-80
IoniMethod: _ENERGY 20 eV
IonPolarity: pos
Date: 2010-10-09 19:48:36+02:00
Num Peaks: 21
27 70 29 21 39 41 40 11 41 86 43 21 52 13 53 435 54 30 55 10 
65 10 66 10 67 15 68 15 81 999 82 138 94 13 95 21 109 12 110 422 
111 24 
