Name: MassBank: JP005804
CAS: 94-59-7
MW: 162
Formula: C10H10O2
Synonym: MassBank: JP005804
Synonym: 5-(2-PROPENYL)-1,3-BENZODIOXOLE
Synonym: SAFROLE
Structure: 352D28322D50524F50454E594C292D312C332D42454E5A4F44494F584F4C452E6D6F6C0A20204368656D447261773034323331303033303432440A2031322031332020302020302020302020302020302020302020302020303939392056323030300A2020202D312E3933363020202020302E3636373420202020302E30303030204F202020302020302020302020302020302020302020302020302020302020302020302020300A2020202D322E343230392020202D302E3030303020202020302E303030302043202020302020302020302020302020302020302020302020302020302020302020302020300A2020202D312E393336302020202D302E3636373420202020302E30303030204F202020302020302020302020302020302020302020302020302020302020302020302020300A2020202D312E313531342020202D302E3431323520202020302E303030302043202020302020302020302020302020302020302020302020302020302020302020302020300A2020202D312E3135313420202020302E3431323520202020302E303030302043202020302020302020302020302020302020302020302020302020302020302020302020300A2020202D302E343336392020202D302E3832353020202020302E303030302043202020302020302020302020302020302020302020302020302020302020302020302020300A20202020302E323737352020202D302E3431323520202020302E303030302043202020302020302020302020302020302020302020302020302020302020302020302020300A20202020302E3237373520202020302E3431323520202020302E303030302043202020302020302020302020302020302020302020302020302020302020302020302020300A2020202D302E3433363920202020302E3832353020202020302E303030302043202020302020302020302020302020302020302020302020302020302020302020302020300A20202020302E393932302020202D302E3832353020202020302E303030302043202020302020302020302020302020302020302020302020302020302020302020302020300A20202020312E373036352020202D302E3431323520202020302E303030302043202020302020302020302020302020302020302020302020302020302020302020302020300A20202020322E343230392020202D302E3832353020202020302E303030302043202020302020302020302020302020302020302020302020302020302020302020302020300A2020312020322020312020302020202020200A2020322020332020312020302020202020200A2020332020342020312020302020202020200A2020342020352020312020302020202020200A2020312020352020312020302020202020200A2020362020372020312020302020202020200A2020372020382020322020302020202020200A2020382020392020312020302020202020200A2020352020392020322020302020202020200A2020342020362020322020302020202020200A2031302031312020312020302020202020200A2031312031322020322020302020202020200A2020372031302020312020302020202020200A4D2020454E44
Contributor: FUJISE Y, HAMAMATSU UNIV. SCHOOL OF MEDICINE
InstType: EI
InstName: JEOL JMS-D-300
IoniMethod: _ENERGY 70 eV
IonPolarity: pos
Date: 2010-10-09 19:48:36+02:00
Num Peaks: 37
51 71 52 201 53 47 54 27 62 23 63 60 64 15 65 33 66 14 67 15 
74 11 75 14 76 37 77 235 78 117 79 54 80 21 81 21 89 12 91 38 
92 12 102 33 103 165 104 270 105 78 106 11 121 11 131 320 132 145 133 22 
134 12 135 270 136 25 161 248 162 999 163 109 164 9 
