Name: MassBank: JP006699
MW: 388
Formula: C16H20O9S
Synonym: MassBank: JP006699
Synonym: 2-METHYLSULFONYLMETHYL-3,4,5-TRIACETOXYBENZYL METHYL ETHER
Structure: 322D4D455448594C53554C464F4E594C4D455448594C2D332C342C352D545249414345544F585942454E5A594C204D455448594C2045544845522E6D6F6C0A20204368656D447261773032323131303036303332440A2032362032362020302020302020302020302020302020302020302020303939392056323030300A2020202D322E3036323520202020312E3432383920202020302E30303030204F202020302020302020302020302020302020302020302020302020302020302020302020300A2020202D322E3437353020202020322E3134333420202020302E303030302043202020302020302020302020302020302020302020302020302020302020302020302020300A2020202D312E3233373520202020312E3432383920202020302E303030302043202020302020302020302020302020302020302020302020302020302020302020302020300A2020202D302E3832353020202020302E3731343520202020302E303030302043202020302020302020302020302020302020302020302020302020302020302020302020300A20202020302E3030303020202020302E3731343520202020302E303030302043202020302020302020302020302020302020302020302020302020302020302020302020300A20202020302E343132352020202D302E3030303020202020302E303030302043202020302020302020302020302020302020302020302020302020302020302020302020300A20202020302E303030302020202D302E3731343520202020302E303030302043202020302020302020302020302020302020302020302020302020302020302020302020300A2020202D302E383235302020202D302E3731343520202020302E303030302043202020302020302020302020302020302020302020302020302020302020302020302020300A2020202D312E3233373520202020302E3030303020202020302E303030302043202020302020302020302020302020302020302020302020302020302020302020302020300A2020202D312E323337352020202D312E3432383920202020302E30303030204F202020302020302020302020302020302020302020302020302020302020302020302020300A2020202D322E303632352020202D312E3432383920202020302E303030302043202020302020302020302020302020302020302020302020302020302020302020302020300A2020202D322E343735302020202D302E3731343520202020302E30303030204F202020302020302020302020302020302020302020302020302020302020302020302020300A2020202D322E343735302020202D322E3134333420202020302E303030302043202020302020302020302020302020302020302020302020302020302020302020302020300A20202020302E343132352020202D312E3432383920202020302E30303030204F202020302020302020302020302020302020302020302020302020302020302020302020300A20202020302E303030302020202D322E3134333420202020302E303030302043202020302020302020302020302020302020302020302020302020302020302020302020300A2020202D302E383235302020202D322E3134333420202020302E30303030204F202020302020302020302020302020302020302020302020302020302020302020302020300A20202020302E343132352020202D322E3835373920202020302E303030302043202020302020302020302020302020302020302020302020302020302020302020302020300A20202020312E323337352020202D302E3030303020202020302E30303030204F202020302020302020302020302020302020302020302020302020302020302020302020300A20202020312E3635303020202020302E3731343520202020302E303030302043202020302020302020302020302020302020302020302020302020302020302020302020300A20202020322E3437353020202020302E3731343520202020302E30303030204F202020302020302020302020302020302020302020302020302020302020302020302020300A20202020312E3233373520202020312E3432383920202020302E303030302043202020302020302020302020302020302020302020302020302020302020302020302020300A20202020302E3431323520202020312E3432383920202020302E303030302043202020302020302020302020302020302020302020302020302020302020302020302020300A20202020302E3030303020202020322E3134333420202020302E303030302053202020302020302020302020302020302020302020302020302020302020302020302020300A2020202D302E3731343520202020312E3733303920202020302E30303030204F202020302020302020302020302020302020302020302020302020302020302020302020300A20202020302E3731343520202020322E3535353920202020302E30303030204F202020302020302020302020302020302020302020302020302020302020302020302020300A2020202D302E3431323520202020322E3835373920202020302E303030302043202020302020302020302020302020302020302020302020302020302020302020302020300A2020312020322020312020302020202020200A2020332020342020312020302020202020200A2020342020352020312020302020202020200A2020352020362020322020302020202020200A2020362020372020312020302020202020200A2020372020382020322020302020202020200A2020382020392020312020302020202020200A2020342020392020322020302020202020200A2031312031322020322020302020202020200A2031312031332020312020302020202020200A2031302031312020312020302020202020200A2020382031302020312020302020202020200A2031352031362020322020302020202020200A2031352031372020312020302020202020200A2031342031352020312020302020202020200A2020372031342020312020302020202020200A2031392032302020322020302020202020200A2031392032312020312020302020202020200A2031382031392020312020302020202020200A2020362031382020312020302020202020200A2032332032342020322020302020202020200A2032332032352020322020302020202020200A2032332032362020312020302020202020200A2032322032332020312020302020202020200A2020352032322020312020302020202020200A2020312020332020312020302020202020200A4D2020454E44
Contributor: MASS SPECTROSCOPY SOC. OF JAPAN (MSSJ)
InstType: EI
InstName: JEOL JMS-D-300
IoniMethod: _ENERGY 70 eV
IonPolarity: pos
Date: 2010-10-09 19:48:36+02:00
Num Peaks: 40
43 999 44 25 65 40 77 3 79 20 81 20 93 30 94 2 107 30 108 20 
122 35 123 4 137 120 138 20 152 40 153 8 165 915 166 160 181 110 182 19 
183 70 201 100 202 190 203 7 206 20 207 150 208 30 224 30 225 655 226 20 
245 25 267 34 268 50 287 105 288 20 307 3 308 35 346 120 347 18 388 35 
