Name: MassBank: JP005096
MW: 173
Formula: C12H15N
Synonym: MassBank: JP005096
Synonym: 2,2,4-TRIMETHYL-1,2-DIHYDROQUINOLINE
Structure: 322C322C342D5452494D455448594C2D312C322D4449485944524F5155494E4F4C494E452E6D6F6C0A20204368656D447261773132313930393039323132440A2031332031342020302020302020302020302020302020302020302020303939392056323030300A2020202D302E3330383220202020312E3035363120202020302E30303030204E202020302020302020302020302020302020302020302020302020302020302020302020300A2020202D312E3032323720202020302E3634333620202020302E303030302043202020302020302020302020302020302020302020302020302020302020302020302020300A2020202D312E303232372020202D302E3138313420202020302E303030302043202020302020302020302020302020302020302020302020302020302020302020302020300A2020202D302E333038322020202D302E3539333920202020302E303030302043202020302020302020302020302020302020302020302020302020302020302020302020300A20202020302E343036322020202D302E3138313420202020302E303030302043202020302020302020302020302020302020302020302020302020302020302020302020300A20202020312E313230372020202D302E3539333920202020302E303030302043202020302020302020302020302020302020302020302020302020302020302020302020300A20202020312E383335322020202D302E3138313420202020302E303030302043202020302020302020302020302020302020302020302020302020302020302020302020300A20202020312E3833353220202020302E3634333620202020302E303030302043202020302020302020302020302020302020302020302020302020302020302020302020300A20202020312E3132303720202020312E3035363120202020302E303030302043202020302020302020302020302020302020302020302020302020302020302020302020300A20202020302E3430363220202020302E3634333620202020302E303030302043202020302020302020302020302020302020302020302020302020302020302020302020300A2020202D302E333038322020202D312E3431383920202020302E303030302043202020302020302020302020302020302020302020302020302020302020302020302020300A2020202D312E3330343920202020312E3431383920202020302E303030302043202020302020302020302020302020302020302020302020302020302020302020302020300A2020202D312E3833353220202020302E3530303420202020302E303030302043202020302020302020302020302020302020302020302020302020302020302020302020300A2020312020322020312020302020202020200A2020322020332020312020302020202020200A2020332020342020322020302020202020200A2020342020352020312020302020202020200A2020352020362020312020302020202020200A2020362020372020322020302020202020200A2020372020382020312020302020202020200A2020382020392020322020302020202020200A2020392031302020312020302020202020200A2020312031302020312020302020202020200A2020352031302020322020302020202020200A2020342031312020312020302020202020200A2020322031322020312020312020202020200A2020322031332020312020362020202020200A4D2020454E44
Contributor: SASAKI S, TOYOHASHI UNIV. OF TECH.
InstType: EI
InstName: MX-1303
IoniMethod: _ENERGY 50 eV
IonPolarity: pos
Date: 2010-10-09 19:48:36+02:00
Num Peaks: 48
15 43 17 12 18 48 26 2 27 31 38 10 39 35 41 2 42 29 43 333 
51 19 58 11 63 19 65 29 65.5 12 71.5 2 77 41 77.5 13 78 14 78.5 2 
79 40 85.5 17 89 22 91 3 101 12 102 13 103 13 115 9 116 33 117 18 
118 12 127 2 128 33 129 26 130 35 131 1 140 13 141 12 142 34 143 6 
144 14 154 16 156 55 157 17 158 999 159 126 160 13 172 25 
