Name: MassBank: JP000599
MW: 426
Formula: C18H30O6Si3
Synonym: MassBank: JP000599
Synonym: 1,2,3-BENZENETRICARBOXYLIC ACID TRI(TRIMETHYLSILYL) ESTER
Structure: 312C322C332D42454E5A454E45545249434152424F58594C4943204143494420545249285452494D455448594C53494C594C292045535445522E6D6F6C0A20204368656D447261773130323330393133303032440A2032372032372020302020302020302020302020302020302020302020303939392056323030300A2020202D302E333537322020202D312E3033313320202020302E303030302043202020302020302020302020302020302020302020302020302020302020302020302020300A20202020302E333537322020202D302E3631383820202020302E303030302043202020302020302020302020302020302020302020302020302020302020302020302020300A20202020312E303731372020202D312E3033313320202020302E303030302043202020302020302020302020302020302020302020302020302020302020302020302020300A20202020312E303731372020202D312E3835363320202020302E303030302043202020302020302020302020302020302020302020302020302020302020302020302020300A20202020302E333537322020202D322E3236383820202020302E303030302043202020302020302020302020302020302020302020302020302020302020302020302020300A2020202D302E333537322020202D312E3835363320202020302E303030302043202020302020302020302020302020302020302020302020302020302020302020302020300A2020202D312E303731372020202D302E3631383720202020302E303030302043202020302020302020302020302020302020302020302020302020302020302020302020300A2020202D312E3037313720202020302E3230363320202020302E30303030204F202020302020302020302020302020302020302020302020302020302020302020302020300A2020202D312E373836322020202D312E3033313220202020302E30303030204F202020302020302020302020302020302020302020302020302020302020302020302020300A20202020302E3335373220202020302E3230363320202020302E303030302043202020302020302020302020302020302020302020302020302020302020302020302020300A2020202D302E3335373220202020302E3631383820202020302E30303030204F202020302020302020302020302020302020302020302020302020302020302020302020300A20202020312E3037313720202020302E3631383820202020302E30303030204F202020302020302020302020302020302020302020302020302020302020302020302020300A20202020312E373836322020202D302E3631383820202020302E303030302043202020302020302020302020302020302020302020302020302020302020302020302020300A20202020322E353030362020202D312E3033313320202020302E30303030204F202020302020302020302020302020302020302020302020302020302020302020302020300A20202020312E3738363220202020302E3230363320202020302E30303030204F202020302020302020302020302020302020302020302020302020302020302020302020300A2020202D322E353030362020202D302E3631383720202020302E303030302053692020302020302020302020302020302020302020302020302020302020302020302020300A2020202D332E323135312020202D302E3230363220202020302E303030302043202020302020302020302020302020302020302020302020302020302020302020302020300A2020202D322E3038383120202020302E3039353720202020302E303030302043202020302020302020302020302020302020302020302020302020302020302020302020300A2020202D322E393133312020202D312E3333333220202020302E303030302043202020302020302020302020302020302020302020302020302020302020302020302020300A20202020312E3037313720202020312E3434333820202020302E303030302053692020302020302020302020302020302020302020302020302020302020302020302020300A20202020302E3234363720202020312E3434333820202020302E303030302043202020302020302020302020302020302020302020302020302020302020302020302020300A20202020312E3839363720202020312E3434333820202020302E303030302043202020302020302020302020302020302020302020302020302020302020302020302020300A20202020312E3037313720202020322E3236383820202020302E303030302043202020302020302020302020302020302020302020302020302020302020302020302020300A20202020322E3530303620202020302E3631383820202020302E303030302053692020302020302020302020302020302020302020302020302020302020302020302020300A20202020322E3038383120202020312E3333333220202020302E303030302043202020302020302020302020302020302020302020302020302020302020302020302020300A20202020332E3231353120202020312E3033313320202020302E303030302043202020302020302020302020302020302020302020302020302020302020302020302020300A20202020322E393133312020202D302E3039353720202020302E303030302043202020302020302020302020302020302020302020302020302020302020302020302020300A2020312020322020312020302020202020200A2020322020332020322020302020202020200A2020332020342020312020302020202020200A2020342020352020322020302020202020200A2020352020362020312020302020202020200A2020312020362020322020302020202020200A2020372020382020322020302020202020200A2020372020392020312020302020202020200A2020312020372020312020302020202020200A2031302031312020322020302020202020200A2031302031322020312020302020202020200A2020322031302020312020302020202020200A2031332031342020322020302020202020200A2031332031352020312020302020202020200A2020332031332020312020302020202020200A2031362031372020312020302020202020200A2031362031382020312020312020202020200A2031362031392020312020312020202020200A2020392031362020312020302020202020200A2032302032312020312020302020202020200A2032302032322020312020302020202020200A2032302032332020312020302020202020200A2031322032302020312020302020202020200A2032342032352020312020312020202020200A2032342032362020312020302020202020200A2032342032372020312020312020202020200A2031352032342020312020302020202020200A4D2020454E44
Contributor: KOGA M, UNIV. OF OCCUPATIONAL AND ENVIRONMENTAL HEALTH
InstType: EI
InstName: JEOL JMS-01-SG
IoniMethod: _ENERGY 70 eV
IonPolarity: pos
Date: 2010-10-09 19:48:36+02:00
Num Peaks: 15
43 224 45 85 47 247 49 13 63 126 65 179 73 431 75 91 76 133 77 999 
93 750 94 9 95 272 147 121 249 176 
