Name: 3-DIMETHYLAMINO-2-METHOXYMETHYL-2-BUTEN-4-OLIDE
MW: 171
Formula: C8H13NO3
Synonym: MassBank: JP008124
Synonym: 3-DIMETHYLAMINO-2-METHOXYMETHYL-2-BUTEN-4-OLIDE
Structure: 332D44494D455448594C414D494E4F2D322D4D4554484F58594D455448594C2D322D425554454E2D342D4F4C4944452E6D6F6C0A20204368656D447261773032323231303137303032440A2031322031322020302020302020302020302020302020302020302020303939392056323030300A2020202D302E3838313420202020302E3935393120202020302E303030302043202020302020302020302020302020302020302020302020302020302020302020302020300A2020202D302E3339363520202020302E3239313720202020302E303030302043202020302020302020302020302020302020302020302020302020302020302020302020300A2020202D302E383831342020202D302E3337353820202020302E303030302043202020302020302020302020302020302020302020302020302020302020302020302020300A2020202D312E363636302020202D302E3132303820202020302E303030302043202020302020302020302020302020302020302020302020302020302020302020302020300A20202020302E3432383520202020302E3239313720202020302E303030302043202020302020302020302020302020302020302020302020302020302020302020302020300A20202020302E383431302020202D302E3432323820202020302E30303030204F202020302020302020302020302020302020302020302020302020302020302020302020300A20202020312E363636302020202D302E3432323820202020302E303030302043202020302020302020302020302020302020302020302020302020302020302020302020300A2020202D302E363236352020202D312E3136303420202020302E30303030204E202020302020302020302020302020302020302020302020302020302020302020302020300A20202020302E313730342020202D312E3337333920202020302E303030302043202020302020302020302020302020302020302020302020302020302020302020302020300A2020202D312E323039382020202D312E3734333720202020302E303030302043202020302020302020302020302020302020302020302020302020302020302020302020300A2020202D302E3632363520202020312E3734333720202020302E30303030204F202020302020302020302020302020302020302020302020302020302020302020302020300A2020202D312E3636363020202020302E3730343220202020302E30303030204F202020302020302020302020302020302020302020302020302020302020302020302020300A2020312020322020312020302020202020200A2020322020332020322020302020202020200A2020332020342020312020302020202020200A2020362020372020312020302020202020200A2020352020362020312020302020202020200A2020322020352020312020302020202020200A2020382020392020312020302020202020200A2020382031302020312020302020202020200A2020332020382020312020302020202020200A2020312031312020322020302020202020200A2020312031322020312020302020202020200A2020342031322020312020302020202020200A4D2020454E44
Contributor: YAMAMOTO M, DEP. CHEMISTRY, FAC. SCIENCE, NARA WOMEN'S UNIV.
InstType: EI
InstName: JEOL JMS-HX-100
IoniMethod: _ENERGY 70 eV
IonPolarity: pos
Date: 2010-10-09 19:48:36+02:00
Num Peaks: 70
39 13 40 4 41 22 42 63 43 19 44 46 45 83 46 9 52 6 53 17 
54 7 55 30 56 37 57 12 58 37 61 7 66 18 67 39 68 27 69 29 
70 17 71 7 72 17 73 3 74 5 79 4 80 9 81 28 82 62 83 20 
84 12 85 10 86 676 87 39 88 7 94 31 95 11 96 161 97 19 98 14 
99 4 108 4 109 4 110 13 111 26 112 29 113 6 115 9 116 3 118 16 
122 6 124 8 126 21 127 23 128 14 129 3 138 21 139 53 140 999 141 446 
142 43 143 7 149 13 154 16 156 45 157 5 170 31 171 509 172 56 173 8 
