Name: MassBank: JP004776
MW: 202
Formula: C14H18O
Synonym: MassBank: JP004776
Synonym: 2,2,4-TRIMETHYL-4-PHENYLCYCLOPENTANONE
Structure: 322C322C342D5452494D455448594C2D342D5048454E594C4359434C4F50454E54414E4F4E452E6D6F6C0A20204368656D447261773132313930393039323832440A2031352031362020302020302020302020302020302020302020302020303939392056323030300A20202020312E313731372020202D302E3238393020202020302E303030302043202020302020302020302020302020302020302020302020302020302020302020302020300A20202020312E3334333220202020302E3531373920202020302E303030302043202020302020302020302020302020302020302020302020302020302020302020302020300A20202020302E3632383720202020302E3933303420202020302E303030302043202020302020302020302020302020302020302020302020302020302020302020302020300A20202020302E3031353620202020302E3337383420202020302E303030302043202020302020302020302020302020302020302020302020302020302020302020302020300A20202020302E333531322020202D302E3337353320202020302E303030302043202020302020302020302020302020302020302020302020302020302020302020302020300A2020202D302E363938392020202D302E3033343120202020302E303030302043202020302020302020302020302020302020302020302020302020302020302020302020300A2020202D302E363938392020202D302E3835393120202020302E303030302043202020302020302020302020302020302020302020302020302020302020302020302020300A2020202D312E343133332020202D312E3237313620202020302E303030302043202020302020302020302020302020302020302020302020302020302020302020302020300A2020202D322E313237382020202D302E3835393120202020302E303030302043202020302020302020302020302020302020302020302020302020302020302020302020300A2020202D322E313237382020202D302E3033343120202020302E303030302043202020302020302020302020302020302020302020302020302020302020302020302020300A2020202D312E3431333320202020302E3337383420202020302E303030302043202020302020302020302020302020302020302020302020302020302020302020302020300A2020202D302E3436393320202020312E3034353820202020302E303030302043202020302020302020302020302020302020302020302020302020302020302020302020300A20202020322E3132373820202020302E3236333020202020302E303030302043202020302020302020302020302020302020302020302020302020302020302020302020300A20202020312E3637383720202020312E3237313620202020302E303030302043202020302020302020302020302020302020302020302020302020302020302020302020300A20202020312E373233372020202D302E3930323120202020302E30303030204F202020302020302020302020302020302020302020302020302020302020302020302020300A2020312020322020312020302020202020200A2020322020332020312020302020202020200A2020332020342020312020302020202020200A2020342020352020312020302020202020200A2020312020352020312020302020202020200A2020362020372020312020302020202020200A2020372020382020322020302020202020200A2020382020392020312020302020202020200A2020392031302020322020302020202020200A2031302031312020312020302020202020200A2020362031312020322020302020202020200A2020342020362020312020302020202020200A2020342031322020312020302020202020200A2020322031332020312020312020202020200A2020322031342020312020362020202020200A2020312031352020322020302020202020200A4D2020454E44
Contributor: MASS SPECTROSCOPY SOC. OF JAPAN (MSSJ)
InstType: EI
InstName: JEOL JMS-D-3000
IoniMethod: _ENERGY 70 eV
IonPolarity: pos
Date: 2010-10-09 19:48:36+02:00
Num Peaks: 30
41 83 43 17 51 40 53 18 55 32 56 57 65 28 70 20 77 83 78 71 
79 16 91 107 102 18 103 102 105 28 115 70 116 22 117 217 118 999 119 117 
128 23 129 23 131 29 145 238 146 48 159 79 160 22 187 35 202 339 203 53 
