Name: ORTHO-METHOXYBENZALDEHYDE
MW: 136
Formula: C8H8O2
Synonym: MassBank: JP004048
Synonym: ORTHO-METHOXYBENZALDEHYDE
Structure: 4F5254484F2D4D4554484F585942454E5A414C4445485944452E6D6F6C0A20204368656D447261773038313231303033333932440A2031302031302020302020302020302020302020302020302020302020303939392056323030300A20202020302E383235302020202D312E3037313720202020302E303030302043202020302020302020302020302020302020302020302020302020302020302020302020300A20202020302E343132352020202D302E3335373220202020302E303030302043202020302020302020302020302020302020302020302020302020302020302020302020300A2020202D302E343132352020202D302E3335373220202020302E303030302043202020302020302020302020302020302020302020302020302020302020302020302020300A2020202D302E3832353020202020302E3335373220202020302E303030302043202020302020302020302020302020302020302020302020302020302020302020302020300A2020202D302E3431323520202020312E3037313720202020302E303030302043202020302020302020302020302020302020302020302020302020302020302020302020300A20202020302E3431323520202020312E3037313720202020302E303030302043202020302020302020302020302020302020302020302020302020302020302020302020300A20202020302E3832353020202020302E3335373220202020302E303030302043202020302020302020302020302020302020302020302020302020302020302020302020300A20202020312E363530302020202D312E3037313720202020302E30303030204F202020302020302020302020302020302020302020302020302020302020302020302020300A2020202D302E383235302020202D312E3037313720202020302E30303030204F202020302020302020302020302020302020302020302020302020302020302020302020300A2020202D312E363530302020202D312E3037313720202020302E303030302043202020302020302020302020302020302020302020302020302020302020302020302020300A2020312020322020312020302020202020200A2020322020332020312020302020202020200A2020332020342020322020302020202020200A2020342020352020312020302020202020200A2020352020362020322020302020202020200A2020362020372020312020302020202020200A2020322020372020322020302020202020200A2020312020382020322020302020202020200A2020392031302020312020302020202020200A2020332020392020312020302020202020200A4D2020454E44
Contributor: MASS SPECTROSCOPY SOC. OF JAPAN (MSSJ)
InstType: EI
InstName: HITACHI RMU-6L
IoniMethod: _ENERGY 70 eV
IonPolarity: pos
Date: 2010-10-09 19:48:36+02:00
Num Peaks: 52
15 23 18 20 26 16 27 3 28 29 29 30 31 21 37 2 38 73 39 204 
40 19 49 2 50 90 51 179 52 34 53 5 56 22 61 25 62 35 63 14 
64 116 65 220 74 45 75 4 76 291 77 570 78 217 79 17 80 22 81 51 
89 27 90 14 91 140 92 212 93 73 94 9 104 220 105 173 106 18 107 11 
108 20 109 100 118 245 119 27 120 70 121 149 122 35 124 8 135 525 136 999 
137 100 138 31 
