Name: DIETHYL SULFIDE
MW: 90
Formula: C4H10S
Synonym: MassBank: JP005417
Synonym: DIETHYL SULFIDE
Synonym: DIETHYL THIOETHER
Structure: 310A31340A4449455448594C2053554C464944452E6D6F6C0A20204368656D447261773039323131303230303932440A2020352020342020302020302020302020302020302020302020302020303939392056323030300A20202020302E303030302020202D302E3230363220202020302E303030302053202020302020302020302020302020302020302020302020302020302020302020302020300A2020202D302E3731343520202020302E3230363220202020302E303030302043202020302020302020302020302020302020302020302020302020302020302020302020300A2020202D312E343238392020202D302E3230363220202020302E303030302043202020302020302020302020302020302020302020302020302020302020302020302020300A20202020302E3731343520202020302E3230363220202020302E303030302043202020302020302020302020302020302020302020302020302020302020302020302020300A20202020312E343238392020202D302E3230363220202020302E303030302043202020302020302020302020302020302020302020302020302020302020302020302020300A2020322020332020312020302020202020200A2020312020322020312020302020202020200A2020342020352020312020302020202020200A2020312020342020312020302020202020200A4D2020454E44
Contributor: TAJIMA S, GUNMA COLLEGE OF TECHNOLOGY
InstType: EI
InstName: HITACHI RMU-7M
IoniMethod: _ENERGY 70 eV
IonPolarity: pos
Date: 2010-10-09 19:48:36+02:00
Num Peaks: 29
26 29 27 231 28 59 29 303 34 29 35 103 41 137 45 91 46 115 47 669 
48 20 49 33 55 11 56 14 57 29 58 45 59 71 60 103 61 500 62 523 
63 40 64 23 75 999 76 43 77 46 89 37 90 957 91 97 92 46 
