Name: TRIETHANOLAMINE
CAS: 102-71-6
MW: 149
Formula: C6H15NO3
Synonym: MassBank: JP005709
Synonym: TRIETHANOLAMINE
Structure: 545249455448414E4F4C414D494E452E6D6F6C0A20204368656D447261773038313231303038323932440A2031302020392020302020302020302020302020302020302020302020303939392056323030300A20202020302E333537322020202D302E3431323520202020302E30303030204E202020302020302020302020302020302020302020302020302020302020302020302020300A2020202D302E3335373220202020302E3832353020202020302E303030302043202020302020302020302020302020302020302020302020302020302020302020302020300A20202020302E3335373220202020302E3431323520202020302E303030302043202020302020302020302020302020302020302020302020302020302020302020302020300A2020202D312E3037313720202020302E3431323520202020302E30303030204F202020302020302020302020302020302020302020302020302020302020302020302020300A20202020312E373836322020202D302E3431323520202020302E303030302043202020302020302020302020302020302020302020302020302020302020302020302020300A20202020312E303731372020202D302E3832353020202020302E303030302043202020302020302020302020302020302020302020302020302020302020302020302020300A20202020312E3738363220202020302E3431323520202020302E30303030204F202020302020302020302020302020302020302020302020302020302020302020302020300A2020202D312E303731372020202D302E3431323520202020302E303030302043202020302020302020302020302020302020302020302020302020302020302020302020300A2020202D302E333537322020202D302E3832353020202020302E303030302043202020302020302020302020302020302020302020302020302020302020302020302020300A2020202D312E373836322020202D302E3832353020202020302E30303030204F202020302020302020302020302020302020302020302020302020302020302020302020300A2020322020332020312020302020202020200A2020322020342020312020302020202020200A2020312020332020312020302020202020200A2020352020362020312020302020202020200A2020352020372020312020302020202020200A2020312020362020312020302020202020200A2020382020392020312020302020202020200A2020382031302020312020302020202020200A2020312020392020312020302020202020200A4D2020454E44
Contributor: MASS SPECTROSCOPY SOC. OF JAPAN (MSSJ)
InstType: EI
InstName: HITACHI M-80
IoniMethod: _ENERGY 70 eV
IonPolarity: pos
Date: 2010-10-09 19:48:36+02:00
Num Peaks: 46
15 14 18 7 19 9 26 3 27 32 28 42 29 32 30 84 31 51 41 17 
42 80 43 43 44 60 45 126 46 3 54 6 55 3 56 225 57 14 58 17 
70 15 71 2 72 12 73 4 74 329 75 15 86 11 87 4 88 24 89 2 
100 12 101 1 102 4 103 1 104 14 105 3 106 6 116 3 118 999 119 61 
120 6 130 4 132 3 148 5 149 20 150 23 
