Name: STIGMASTERONE
MW: 410
Formula: C29H46O
Synonym: MassBank: JP008290
Synonym: STIGMASTERONE
Structure: 303533375F535449474D41535445524F4E452E6D6F6C0A20204368656D447261773038323031303035323132440A2033362033392020302020302020302020302020302020302020302020303939392056323030300A2020202D332E373635382020202D302E3939353920202020302E303030302043202020302020302020302020302020302020302020302020302020302020302020302020300A2020202D332E373635382020202D312E3832303920202020302E303030302043202020302020302020302020302020302020302020302020302020302020302020302020300A2020202D332E303531332020202D322E3233333420202020302E303030302043202020302020302020302020302020302020302020302020302020302020302020302020300A2020202D322E333336382020202D312E3832303920202020302E303030302043202020302020302020302020302020302020302020302020302020302020302020302020300A2020202D322E333336382020202D302E3939353920202020302E303030302043202020302020302020302020302020302020302020302020302020302020302020302020300A2020202D332E303531332020202D302E3538333420202020302E303030302043202020302020302020302020302020302020302020302020302020302020302020302020300A2020202D312E363232342020202D322E3233333420202020302E303030302043202020302020302020302020302020302020302020302020302020302020302020302020300A2020202D302E393037392020202D312E3832303920202020302E303030302043202020302020302020302020302020302020302020302020302020302020302020302020300A2020202D302E393037392020202D302E3939353920202020302E303030302043202020302020302020302020302020302020302020302020302020302020302020302020300A2020202D312E363232342020202D302E3538333420202020302E303030302043202020302020302020302020302020302020302020302020302020302020302020302020300A2020202D302E313933342020202D302E3538333420202020302E303030302043202020302020302020302020302020302020302020302020302020302020302020302020300A20202020302E353931322020202D302E3833383320202020302E303030302043202020302020302020302020302020302020302020302020302020302020302020302020300A20202020312E303736312020202D302E3137303920202020302E303030302043202020302020302020302020302020302020302020302020302020302020302020302020300A20202020302E3539313220202020302E3439363620202020302E303030302043202020302020302020302020302020302020302020302020302020302020302020302020300A20202020302E3834363120202020312E3238313220202020302E303030302043202020302020302020302020302020302020302020302020302020302020302020302020300A20202020302E3034393320202020312E3439343720202020302E303030302043202020302020302020302020302020302020302020302020302020302020302020302020300A20202020302E3834363120202020322E3130363220202020302E303030302048202020302020302020302020302020302020302020302020302020302020302020302020300A20202020312E3637313120202020312E3238313220202020302E303030302043202020302020302020302020302020302020302020302020302020302020302020302020300A20202020322E3235343520202020312E3836343620202020302E303030302043202020302020302020302020302020302020302020302020302020302020302020302020300A20202020332E3035313420202020312E3635313020202020302E303030302043202020302020302020302020302020302020302020302020302020302020302020302020300A20202020332E3633353620202020322E3233333420202020302E303030302048202020302020302020302020302020302020302020302020302020302020302020302020300A20202020332E3736353920202020312E3233383520202020302E303030302043202020302020302020302020302020302020302020302020302020302020302020302020300A20202020342E3438303320202020312E3635313020202020302E303030302043202020302020302020302020302020302020302020302020302020302020302020302020300A20202020332E3736353920202020302E3431333520202020302E303030302043202020302020302020302020302020302020302020302020302020302020302020302020300A20202020332E3233373920202020302E3233343320202020302E303030302043202020302020302020302020302020302020302020302020302020302020302020302020300A20202020322E3733353720202020302E3838383820202020302E303030302043202020302020302020302020302020302020302020302020302020302020302020302020300A20202020312E3431363220202020302E3439363620202020302E303030302048202020302020302020302020302020302020302020302020302020302020302020302020300A2020202D302E313933342020202D312E3430383420202020302E303030302048202020302020302020302020302020302020302020302020302020302020302020302020300A20202020302E333839392020202D312E3136363720202020302E303030302048202020302020302020302020302020302020302020302020302020302020302020302020300A2020202D302E3930373920202020302E3635343120202020302E303030302043202020302020302020302020302020302020302020302020302020302020302020302020300A2020202D312E3632323420202020302E3234313620202020302E303030302043202020302020302020302020302020302020302020302020302020302020302020302020300A2020202D302E3139333420202020302E3234313620202020302E303030302043202020302020302020302020302020302020302020302020302020302020302020302020300A2020202D302E3139333420202020312E3036363620202020302E303030302043202020302020302020302020302020302020302020302020302020302020302020302020300A2020202D342E343830332020202D322E3233333420202020302E30303030204F202020302020302020302020302020302020302020302020302020302020302020302020300A2020202D312E363232342020202D312E3430383420202020302E303030302043202020302020302020302020302020302020302020302020302020302020302020302020300A2020202D322E3230353720202020302E3030303020202020302E303030302048202020302020302020302020302020302020302020302020302020302020302020302020300A2020312020322020312020302020202020200A2020322020332020312020302020202020200A2020332020342020312020302020202020200A2020342020352020312020302020202020200A2020352020362020312020302020202020200A2020362020312020312020302020202020200A2020342020372020322020302020202020200A2020372020382020312020302020202020200A2020382020392020312020302020202020200A2020392031302020312020302020202020200A2031302020352020312020302020202020200A2020392031312020312020302020202020200A2031312033322020312020302020202020200A2033322033302020312020302020202020200A2033312031302020312020302020202020200A2031312031322020312020302020202020200A2031322031332020312020302020202020200A2031332031342020312020302020202020200A2031342033322020312020302020202020200A2031342031352020312020302020202020200A2031352031362020312020302020202020200A2031352031372020312020312020202020200A2031352031382020312020302020202020200A2031382031392020322020302020202020200A2031392032302020312020302020202020200A2032302032312020312020312020202020200A2032302032362020312020302020202020200A2032302032322020312020302020202020200A2032322032332020312020302020202020200A2032322032342020312020302020202020200A2032352032362020312020302020202020200A2031342032372020312020362020202020200A2020392032382020312020312020202020200A2031312032392020312020362020202020200A2033302033312020312020302020202020200A2033322033332020312020312020202020200A2020322033342020322020302020202020200A2020352033352020312020312020202020200A2031302033362020312020362020202020200A4D2020454E44
Contributor: UBE SCIENTIFIC ANALYSIS LABORATORY
InstType: EI
InstName: HITACHI M-60
IoniMethod: _ENERGY 70 eV
IonPolarity: pos
Date: 2010-10-09 19:48:36+02:00
Num Peaks: 144
29 129 41 413 43 489 53 39 55 999 56 34 57 232 67 256 68 31 69 563 
70 28 71 128 77 91 79 237 80 37 81 559 82 97 83 449 84 63 85 55 
91 181 92 21 93 292 94 78 95 390 96 93 97 421 98 30 105 204 106 43 
107 242 108 64 109 243 110 43 111 86 117 43 119 141 120 57 121 216 122 115 
123 324 124 561 125 80 129 22 131 83 132 18 133 161 134 62 135 213 136 59 
137 171 138 28 139 21 143 28 145 99 146 32 147 254 148 110 149 242 150 29 
151 42 157 42 159 90 160 23 161 140 162 31 163 77 165 15 166 22 171 28 
173 74 174 39 175 106 176 27 177 54 185 35 187 71 188 10 189 41 191 21 
197 15 199 14 201 58 202 17 203 56 211 28 213 33 215 62 217 29 225 17 
227 52 228 16 229 241 230 68 231 71 241 10 243 86 244 43 245 190 246 34 
247 15 253 126 254 26 255 40 256 72 257 77 258 13 260 50 261 80 262 10 
268 63 269 281 270 165 271 479 272 121 273 22 281 34 283 65 284 15 285 24 
286 10 297 106 298 187 299 113 300 32 311 5 312 57 313 42 327 22 342 53 
343 7 349 29 367 176 368 85 369 24 370 7 381 10 384 139 385 25 395 9 
396 6 410 200 411 65 412 35 
