Name: 2-AMINOMETHYLTHIAZOLE-4-CARBOXYLIC ACID
CAS: 25438-22-6
MW: 158
Formula: C5H6N2O2S
Synonym: MassBank: JP009549
Synonym: 2-AMINOMETHYLTHIAZOLE-4-CARBOXYLIC ACID
Structure: 322D414D494E4F4D455448594C544849415A4F4C452D342D434152424F58594C494320414349442E6D6F6C0A20204368656D447261773132323130393232323932440A2031302031302020302020302020302020302020302020302020302020303939392056323030300A20202020302E353433302020202D302E3530343020202020302E303030302053202020302020302020302020302020302020302020302020302020302020302020302020300A20202020302E3534333020202020302E3332313020202020302E303030302043202020302020302020302020302020302020302020302020302020302020302020302020300A2020202D302E3234313720202020302E3537363020202020302E30303030204E202020302020302020302020302020302020302020302020302020302020302020302020300A2020202D302E373236362020202D302E3039313520202020302E303030302043202020302020302020302020302020302020302020302020302020302020302020302020300A2020202D302E323431372020202D302E3735383920202020302E303030302043202020302020302020302020302020302020302020302020302020302020302020302020300A2020202D312E353531362020202D302E3039313520202020302E303030302043202020302020302020302020302020302020302020302020302020302020302020302020300A2020202D312E393634312020202D302E3830353920202020302E30303030204F202020302020302020302020302020302020302020302020302020302020302020302020300A2020202D312E3936343120202020302E3632333020202020302E30303030204F202020302020302020302020302020302020302020302020302020302020302020302020300A20202020312E3231303420202020302E3830353920202020302E303030302043202020302020302020302020302020302020302020302020302020302020302020302020300A20202020312E3936343120202020302E3437303420202020302E30303030204E202020302020302020302020302020302020302020302020302020302020302020302020300A2020312020322020312020302020202020200A2020322020332020322020302020202020200A2020332020342020312020302020202020200A2020342020352020322020302020202020200A2020312020352020312020302020202020200A2020362020372020322020302020202020200A2020362020382020312020302020202020200A2020342020362020312020302020202020200A2020392031302020312020302020202020200A2020322020392020312020302020202020200A4D2020454E44
Contributor: NARA WOMEN'S UNIVERSITY
InstType: EI
InstName: HITACHI M-80
IoniMethod: _ENERGY 70 eV
IonPolarity: pos
Date: 2010-10-09 19:48:36+02:00
Num Peaks: 62
14 34 15 20 16 15 17 31 18 106 26 17 27 17 28 468 29 65 30 999 
31 106 32 81 35 86 36 304 37 32 38 106 39 28 40 44 41 48 42 56 
43 17 44 32 45 278 46 31 47 12 51 23 52 31 53 70 54 13 55 31 
56 34 57 155 58 87 59 33 60 12 61 14 68 17 69 32 70 28 71 15 
72 14 73 11 82 24 83 31 84 65 85 42 86 15 111 28 112 318 113 33 
114 20 130 286 131 41 132 14 139 119 140 186 141 38 142 16 157 28 158 198 
159 44 160 13 
