Name: (2S)-N-CARBOBENZOXY-2-(4-(1-ETHOXYETHOXY)-1-OXOBUTYL)PYRROLIDINE
MW: 363
Formula: C20H29NO5
Synonym: MassBank: JP005506
Synonym: (2S)-N-CARBOBENZOXY-2-(4-(1-ETHOXYETHOXY)-1-OXOBUTYL)PYRROLIDINE
Structure: 283253292D4E2D434152424F42454E5A4F58592D322D28342D28312D4554484F58594554484F5859292D312D4F584F425554594C29505952524F4C4944494E452E6D6F6C0A20204368656D447261773130323030393134313232440A2032372032382020302020302020302020302020302020302020302020303939392056323030300A2020202D302E323138322020202D312E3035363820202020302E303030302043202020302020302020302020302020302020302020302020302020302020302020302020300A20202020302E363035372020202D312E3031343920202020302E303030302043202020302020302020302020302020302020302020302020302020302020302020302020300A20202020302E383230332020202D302E3231383320202020302E303030302043202020302020302020302020302020302020302020302020302020302020302020302020300A20202020302E3132393020202020302E3233323020202020302E303030302043202020302020302020302020302020302020302020302020302020302020302020302020300A2020202D302E353131322020202D302E3238373220202020302E30303030204E202020302020302020302020302020302020302020302020302020302020302020302020300A2020202D312E333037392020202D302E3037323920202020302E303030302043202020302020302020302020302020302020302020302020302020302020302020302020300A2020202D312E383931332020202D302E3635363320202020302E30303030204F202020302020302020302020302020302020302020302020302020302020302020302020300A2020202D312E3532303620202020302E3732343220202020302E30303030204F202020302020302020302020302020302020302020302020302020302020302020302020300A2020202D322E363838322020202D302E3434323720202020302E303030302043202020302020302020302020302020302020302020302020302020302020302020302020300A2020202D332E323731352020202D312E3032363120202020302E303030302043202020302020302020302020302020302020302020302020302020302020302020302020300A2020202D342E303638342020202D302E3831323620202020302E303030302043202020302020302020302020302020302020302020302020302020302020302020302020300A2020202D342E363531382020202D312E3339353920202020302E303030302043202020302020302020302020302020302020302020302020302020302020302020302020300A2020202D342E343338332020202D322E3139323820202020302E303030302043202020302020302020302020302020302020302020302020302020302020302020302020300A2020202D332E363431342020202D322E3430363320202020302E303030302043202020302020302020302020302020302020302020302020302020302020302020302020300A2020202D332E303538302020202D312E3832333020202020302E303030302043202020302020302020302020302020302020302020302020302020302020302020302020300A20202020302E3634383620202020302E3837323820202020302E303030302043202020302020302020302020302020302020302020302020302020302020302020302020300A2020202D302E3435343320202020302E3831353320202020302E303030302048202020302020302020302020302020302020302020302020302020302020302020302020300A20202020312E3436333420202020302E3734333220202020302E303030302043202020302020302020302020302020302020302020302020302020302020302020302020300A20202020302E3335333520202020312E3634333220202020302E30303030204F202020302020302020302020302020302020302020302020302020302020302020302020300A20202020312E3938333020202020312E3338343020202020302E303030302043202020302020302020302020302020302020302020302020302020302020302020302020300A20202020322E3739373820202020312E3235343420202020302E303030302043202020302020302020302020302020302020302020302020302020302020302020302020300A20202020332E3331373420202020312E3839353220202020302E30303030204F202020302020302020302020302020302020302020302020302020302020302020302020300A20202020342E3133323220202020312E3736353520202020302E303030302043202020302020302020302020302020302020302020302020302020302020302020302020300A20202020342E3635313820202020322E3430363320202020302E303030302043202020302020302020302020302020302020302020302020302020302020302020302020300A20202020342E3432373320202020302E3939353120202020302E30303030204F202020302020302020302020302020302020302020302020302020302020302020302020300A20202020332E3930373720202020302E3335343320202020302E303030302043202020302020302020302020302020302020302020302020302020302020302020302020300A20202020342E323032382020202D302E3431363120202020302E303030302043202020302020302020302020302020302020302020302020302020302020302020302020300A2020312020322020312020302020202020200A2020322020332020312020302020202020200A2020332020342020312020302020202020200A2020342020352020312020302020202020200A2020352020312020312020302020202020200A2020352020362020312020302020202020200A2020362020372020312020302020202020200A2020362020382020322020302020202020200A2020372020392020312020302020202020200A2020392031302020312020302020202020200A2031302031312020322020302020202020200A2031312031322020312020302020202020200A2031322031332020322020302020202020200A2031332031342020312020302020202020200A2031342031352020322020302020202020200A2031352031302020312020302020202020200A2020342031362020312020362020202020200A2020342031372020312020312020202020200A2031362031382020312020302020202020200A2031362031392020322020302020202020200A2031382032302020312020302020202020200A2032302032312020312020302020202020200A2032312032322020312020302020202020200A2032322032332020312020302020202020200A2032332032342020312020302020202020200A2032332032352020312020302020202020200A2032352032362020312020302020202020200A2032362032372020312020302020202020200A4D2020454E44
Contributor: HIRAMA M, TOHOKU UNIV. FACULTY OF SCIENCE DEPT. OF CHEMISTRY YUKIBUNSEKI
InstType: EI
InstName: HITACHI M-52
IoniMethod: _ENERGY 14 eV
IonPolarity: pos
Date: 2010-10-09 19:48:36+02:00
Num Peaks: 18
45 177 70 13 73 858 79 15 83 65 87 18 91 999 101 191 107 36 108 143 
151 22 160 960 161 118 204 846 205 67 222 95 230 95 303 24 
