Name: MassBank: JP004380
MW: 346
Formula: C22H34O3
Synonym: MassBank: JP004380
Synonym: (4BR,8AS)-(+)-4B,5,6,7,8,8A,9,10-OCTAHYDRO-2-ISOPROPYL-4B-((METHOXYMETHOXY)METHYL)-8,8-DIMETHYLPHENANTHREN-3-OL
Synonym: PISIFEROL (METHOXYMETHOXY)METHYL ETHRE
Structure: 283442522C384153292D282B292D34422C352C362C372C382C38412C392C31302D4F435441485944524F2D322D49534F50524F50594C2D34422D28284D4554484F58594D4554484F5859294D455448594C292D382C382D44494D455448594C5048454E414E544852454E2D332D4F4C2E6D6F6C0A20204368656D447261773130323130393137353832440A2032362032382020302020302020302020302020302020302020302020303939392056323030300A2020202D322E353030342020202D302E3637343420202020302E303030302043202020302020302020302020302020302020302020302020302020302020302020302020300A2020202D322E353030342020202D312E3439393420202020302E303030302043202020302020302020302020302020302020302020302020302020302020302020302020300A2020202D312E373835392020202D312E3931313920202020302E303030302043202020302020302020302020302020302020302020302020302020302020302020302020300A2020202D312E303731342020202D312E3439393420202020302E303030302043202020302020302020302020302020302020302020302020302020302020302020302020300A2020202D312E303731342020202D302E3637343420202020302E303030302043202020302020302020302020302020302020302020302020302020302020302020302020300A2020202D312E373835392020202D302E3236313920202020302E303030302043202020302020302020302020302020302020302020302020302020302020302020302020300A2020202D302E333537302020202D312E3931313920202020302E303030302043202020302020302020302020302020302020302020302020302020302020302020302020300A20202020302E333537352020202D312E3439393420202020302E303030302043202020302020302020302020302020302020302020302020302020302020302020302020300A20202020302E333537352020202D302E3637343420202020302E303030302043202020302020302020302020302020302020302020302020302020302020302020302020300A2020202D302E333537302020202D302E3236313920202020302E303030302043202020302020302020302020302020302020302020302020302020302020302020302020300A20202020312E303732302020202D302E3236313920202020302E303030302043202020302020302020302020302020302020302020302020302020302020302020302020300A20202020312E3037323020202020302E3536333120202020302E303030302043202020302020302020302020302020302020302020302020302020302020302020302020300A20202020302E3335373520202020302E3937353620202020302E303030302043202020302020302020302020302020302020302020302020302020302020302020302020300A2020202D302E3335373020202020302E3536333120202020302E303030302043202020302020302020302020302020302020302020302020302020302020302020302020300A2020202D312E3037313420202020302E3135303620202020302E303030302043202020302020302020302020302020302020302020302020302020302020302020302020300A20202020302E3335373520202020312E3830303620202020302E30303030204F202020302020302020302020302020302020302020302020302020302020302020302020300A20202020312E3738363420202020302E3937353620202020302E303030302043202020302020302020302020302020302020302020302020302020302020302020302020300A2020202D302E323734362020202D312E3238353920202020302E303030302048202020302020302020302020302020302020302020302020302020302020302020302020300A20202020322E3530303920202020302E3536333120202020302E303030302043202020302020302020302020302020302020302020302020302020302020302020302020300A20202020312E3738363420202020312E3830303620202020302E303030302043202020302020302020302020302020302020302020302020302020302020302020302020300A2020202D312E3738353920202020302E3536333120202020302E30303030204F202020302020302020302020302020302020302020302020302020302020302020302020300A2020202D312E3738353920202020312E3338383120202020302E303030302043202020302020302020302020302020302020302020302020302020302020302020302020300A2020202D322E3530303420202020312E3830303620202020302E30303030204F202020302020302020302020302020302020302020302020302020302020302020302020300A2020202D312E333733342020202D322E3632353620202020302E303030302043202020302020302020302020302020302020302020302020302020302020302020302020300A2020202D322E313938342020202D322E3632353620202020302E303030302043202020302020302020302020302020302020302020302020302020302020302020302020300A2020202D322E3530303920202020322E3632353620202020302E303030302043202020302020302020302020302020302020302020302020302020302020302020302020300A2020312020322020312020302020202020200A2020322020332020312020302020202020200A2020332020342020312020302020202020200A2020342020352020312020302020202020200A2020352020362020312020302020202020200A2020362020312020312020302020202020200A2020342020372020312020302020202020200A2020372020382020312020302020202020200A2020382020392020312020302020202020200A2020392031302020322020302020202020200A2031302020352020312020302020202020200A2020392031312020312020302020202020200A2031312031322020322020302020202020200A2031322031332020312020302020202020200A2031332031342020322020302020202020200A2031342031302020312020302020202020200A2020352031352020312020312020202020200A2031332031362020312020302020202020200A2031322031372020312020302020202020200A2020342031382020312020362020202020200A2031372031392020312020302020202020200A2031372032302020312020302020202020200A2031352032312020312020302020202020200A2032312032322020312020302020202020200A2032322032332020312020302020202020200A2020332032342020312020362020202020200A2020332032352020312020312020202020200A2032332032362020312020302020202020200A4D202053545920203120202031205355500A4D2020534C4220203120202031202020310A4D202053414C20202031202031202032340A4D202053424C20202031202031202032360A4D2020534D5420202031204D650A4D2020534256202020312032362020202D362E3039363520202020362E363134340A4D202053545920203120202032205355500A4D2020534C4220203120202032202020320A4D202053414C20202032202031202032350A4D202053424C20202032202031202032370A4D2020534D5420202032204D650A4D2020534256202020322032372020202D362E3932313520202020362E363134340A4D202053545920203120202033205355500A4D2020534C4220203120202033202020330A4D202053414C20202033202031202032360A4D202053424C20202033202031202032380A4D2020534D5420202033204D650A4D2020534256202020332032382020202D362E3530393620202020382E313533310A4D2020454E44
Contributor: HAGIWARA H, CHEM. RES. INST. OF NON-AQUEOUS SOLUTIONS, TOHOKU UNIV.
InstType: EI
InstName: JEOL JMS-DX-300
IoniMethod: _ENERGY 70 eV
IonPolarity: pos
Date: 2010-10-09 19:48:36+02:00
Num Peaks: 74
28 512 29 95 32 111 39 32 41 317 43 290 45 769 53 34 55 164 57 26 
67 36 69 576 70 35 77 38 79 29 81 28 83 70 91 59 95 34 97 36 
105 31 107 35 115 73 117 28 127 38 128 67 129 57 131 45 133 87 141 68 
142 31 143 29 144 44 145 102 147 62 149 54 152 31 153 43 155 40 157 88 
158 39 159 98 161 40 163 42 165 36 169 29 171 76 172 34 173 119 175 349 
176 52 183 27 185 72 186 33 187 135 188 29 189 327 190 53 199 98 201 25 
202 75 203 55 211 24 213 46 215 88 227 41 229 104 241 31 269 57 271 999 
272 212 273 28 346 111 347 24 
