Name: DIETHYLSILANE
MW: 88
Formula: C4H12Si
Synonym: MassBank: JP005333
Synonym: DIETHYLSILANE
Structure: 310A31340A4449455448594C53494C414E452E6D6F6C0A20204368656D447261773039323131303230343432440A2020352020342020302020302020302020302020302020302020302020303939392056323030300A20202020302E303030302020202D302E3230363320202020302E303030302053692020302020302020302020302020302020302020302020302020302020302020302020300A2020202D302E3731343520202020302E3230363320202020302E303030302043202020302020302020302020302020302020302020302020302020302020302020302020300A2020202D312E343238392020202D302E3230363320202020302E303030302043202020302020302020302020302020302020302020302020302020302020302020302020300A20202020302E3731343520202020302E3230363220202020302E303030302043202020302020302020302020302020302020302020302020302020302020302020302020300A20202020312E343238392020202D302E3230363320202020302E303030302043202020302020302020302020302020302020302020302020302020302020302020302020300A2020322020332020312020302020202020200A2020312020322020312020302020202020200A2020342020352020312020302020202020200A2020312020342020312020302020202020200A4D2020454E44
Contributor: YAMAMOTO M, DEP. CHEMISTRY, FAC. SCIENCE, NARA WOMEN'S UNIV.
InstType: EI
InstName: HITACHI RMU-6M
IoniMethod: _ENERGY 70 eV
IonPolarity: pos
Date: 2010-10-09 19:48:36+02:00
Num Peaks: 25
26 10 27 51 28 38 29 11 30 27 31 315 32 21 33 1 42 25 43 238 
44 26 45 3 53 47 54 16 55 62 56 6 57 100 58 999 59 969 60 10 
61 37 86 162 87 177 88 17 89 20 
