Name: MassBank: JP004356
MW: 220
Formula: C15H12N2
Synonym: MassBank: JP004356
Synonym: 1,4-DIPHENYLPYRAZOLE
Structure: 312C342D44495048454E594C505952415A4F4C452E6D6F6C0A20204368656D447261773131313630393132303532440A2031392032312020302020302020302020302020302020302020302020303939392056323030300A20202020302E3831313920202020302E3034373820202020302E30303030204E202020302020302020302020302020302020302020302020302020302020302020302020300A20202020302E373235362020202D302E3737323620202020302E30303030204E202020302020302020302020302020302020302020302020302020302020302020302020300A2020202D302E303831332020202D302E3934343220202020302E303030302043202020302020302020302020302020302020302020302020302020302020302020302020300A2020202D302E343933382020202D302E3232393720202020302E303030302043202020302020302020302020302020302020302020302020302020302020302020302020300A20202020302E3035383220202020302E3338333420202020302E303030302043202020302020302020302020302020302020302020302020302020302020302020302020300A2020202D312E333134332020202D302E3134333520202020302E303030302043202020302020302020302020302020302020302020302020302020302020302020302020300A2020202D312E373939322020202D302E3831303920202020302E303030302043202020302020302020302020302020302020302020302020302020302020302020302020300A2020202D322E363139372020202D302E3732343720202020302E303030302043202020302020302020302020302020302020302020302020302020302020302020302020300A2020202D322E3935353320202020302E3032393020202020302E303030302043202020302020302020302020302020302020302020302020302020302020302020302020300A2020202D322E3437303420202020302E3639363520202020302E303030302043202020302020302020302020302020302020302020302020302020302020302020302020300A2020202D312E3634393920202020302E3631303220202020302E303030302043202020302020302020302020302020302020302020302020302020302020302020302020300A20202020312E3532363320202020302E3436303320202020302E303030302043202020302020302020302020302020302020302020302020302020302020302020302020300A20202020312E3532363320202020312E3238353320202020302E303030302043202020302020302020302020302020302020302020302020302020302020302020302020300A20202020322E3234303820202020312E3639373820202020302E303030302043202020302020302020302020302020302020302020302020302020302020302020302020300A20202020322E3935353320202020312E3238353320202020302E303030302043202020302020302020302020302020302020302020302020302020302020302020302020300A20202020322E3935353320202020302E3436303320202020302E303030302043202020302020302020302020302020302020302020302020302020302020302020302020300A20202020322E3234303820202020302E3034373820202020302E303030302043202020302020302020302020302020302020302020302020302020302020302020302020300A2020202D302E3131333320202020312E3139303420202020302E303030302048202020302020302020302020302020302020302020302020302020302020302020302020300A2020202D302E343136392020202D312E3639373820202020302E303030302048202020302020302020302020302020302020302020302020302020302020302020302020300A2020312020322020312020302020202020200A2020322020332020322020302020202020200A2020332020342020312020302020202020200A2020342020352020322020302020202020200A2020312020352020312020302020202020200A2020362020372020312020302020202020200A2020372020382020322020302020202020200A2020382020392020312020302020202020200A2020392031302020322020302020202020200A2031302031312020312020302020202020200A2020362031312020322020302020202020200A2020342020362020312020302020202020200A2031322031332020312020302020202020200A2031332031342020322020302020202020200A2031342031352020312020302020202020200A2031352031362020322020302020202020200A2031362031372020312020302020202020200A2031322031372020322020302020202020200A2020312031322020312020302020202020200A2020352031382020312020302020202020200A2020332031392020312020302020202020200A4D2020454E44
Contributor: SASAKI S, TOYOHASHI UNIV. OF TECH.
InstType: EI
InstName: MX-1303
IoniMethod: _ENERGY 50 eV
IonPolarity: pos
Date: 2010-10-09 19:48:36+02:00
Num Peaks: 43
27 17 28 59 39 32 40 8 50 19 51 138 52 17 63 4 64 16 65 12 
75 14 76 2 77 123 78 20 88 10 89 11 90 93 91 17 102 28 103 1 
104 64 109.5 12 110 48 115 2 116 73 117 102 118 18 142 1 143 11 144 11 
164 13 165 10 166 25 190 16 191 49 192 5 193 69 194 19 218 258 219 25 
220 999 221 175 222 13 
