Name: (10-METHYL-9-ANTHRYL)METHYL PIVALATE
MW: 306
Formula: C21H22O2
Synonym: MassBank: JP009340
Synonym: (10-METHYL-9-ANTHRYL)METHYL PIVALATE
Structure: 2831302D4D455448594C2D392D414E544852594C294D455448594C20504956414C4154452E6D6F6C0A20204368656D447261773130303630393135333132440A2032332032352020302020302020302020302020302020302020302020303939392056323030300A2020202D322E3139323420202020312E3635303020202020302E303030302043202020302020302020302020302020302020302020302020302020302020302020302020300A2020202D322E3139323420202020302E3832353020202020302E303030302043202020302020302020302020302020302020302020302020302020302020302020302020300A2020202D312E3437373920202020302E3431323520202020302E303030302043202020302020302020302020302020302020302020302020302020302020302020302020300A2020202D302E3736333520202020302E3832353020202020302E303030302043202020302020302020302020302020302020302020302020302020302020302020302020300A2020202D302E3736333520202020312E3635303020202020302E303030302043202020302020302020302020302020302020302020302020302020302020302020302020300A2020202D312E3437373920202020322E3036323520202020302E303030302043202020302020302020302020302020302020302020302020302020302020302020302020300A2020202D302E3034393020202020302E3431323520202020302E303030302043202020302020302020302020302020302020302020302020302020302020302020302020300A20202020302E3636353520202020302E3832353020202020302E303030302043202020302020302020302020302020302020302020302020302020302020302020302020300A20202020302E3636353520202020312E3635303020202020302E303030302043202020302020302020302020302020302020302020302020302020302020302020302020300A2020202D302E3034393020202020322E3036323520202020302E303030302043202020302020302020302020302020302020302020302020302020302020302020302020300A20202020312E3337393920202020302E3431323520202020302E303030302043202020302020302020302020302020302020302020302020302020302020302020302020300A20202020322E3039343420202020302E3832353020202020302E303030302043202020302020302020302020302020302020302020302020302020302020302020302020300A20202020322E3039343420202020312E3635303020202020302E303030302043202020302020302020302020302020302020302020302020302020302020302020302020300A20202020312E3337393920202020322E3036323520202020302E303030302043202020302020302020302020302020302020302020302020302020302020302020302020300A2020202D302E303439302020202D302E3431323520202020302E303030302043202020302020302020302020302020302020302020302020302020302020302020302020300A20202020302E363635352020202D302E3832353020202020302E30303030204F202020302020302020302020302020302020302020302020302020302020302020302020300A20202020302E363635352020202D312E3635303020202020302E303030302043202020302020302020302020302020302020302020302020302020302020302020302020300A20202020312E333739392020202D322E3036323520202020302E303030302043202020302020302020302020302020302020302020302020302020302020302020302020300A20202020322E313932342020202D322E3230353820202020302E303030302043202020302020302020302020302020302020302020302020302020302020302020302020300A2020202D302E303439302020202D322E3036323520202020302E30303030204F202020302020302020302020302020302020302020302020302020302020302020302020300A20202020312E363632312020202D312E3238373320202020302E303030302043202020302020302020302020302020302020302020302020302020302020302020302020300A20202020312E333739392020202D322E3838373520202020302E303030302043202020302020302020302020302020302020302020302020302020302020302020302020300A2020202D302E3034393320202020322E3838373520202020302E303030302043202020302020302020302020302020302020302020302020302020302020302020302020300A2020312020322020322020302020202020200A2020322020332020312020302020202020200A2020332020342020322020302020202020200A2020342020352020312020302020202020200A2020352020362020322020302020202020200A2020362020312020312020302020202020200A2020342020372020312020302020202020200A2020372020382020322020302020202020200A2020382020392020312020302020202020200A2020392031302020322020302020202020200A2031302020352020312020302020202020200A2020382031312020312020302020202020200A2031312031322020322020302020202020200A2031322031332020312020302020202020200A2031332031342020322020302020202020200A2031342020392020312020302020202020200A2020372031352020312020302020202020200A2031352031362020312020302020202020200A2031362031372020312020302020202020200A2031372031382020312020302020202020200A2031382031392020312020302020202020200A2031372032302020322020302020202020200A2031382032312020312020312020202020200A2031382032322020312020312020202020200A2031302032332020312020302020202020200A4D202053545920203120202031205355500A4D2020534C4220203120202031202020310A4D202053414C20202031202031202032330A4D202053424C20202031202031202032350A4D2020534D5420202031204D650A4D2020534256202020312032352020202D362E3938353120202020362E343134340A4D2020454E44
Contributor: YAMAMOTO M, DEP. CHEMISTRY, FAC. SCIENCE, NARA WOMEN'S UNIV.
InstType: EI
InstName: HITACHI RMU-6M
IoniMethod: _ENERGY 70 eV
IonPolarity: pos
Date: 2010-10-09 19:48:36+02:00
Num Peaks: 56
39 81 40 17 41 238 42 2 43 12 44 29 50 17 51 2 53 12 55 41 
56 81 57 24 58 12 63 17 75 17 76 4 77 17 87 17 88 52 89 6 
95 12 100 35 101 122 102 4 103 12 127 23 128 12 150 1 151 17 152 17 
163 12 165 4 174 12 175 12 176 35 177 2 178 70 179 17 187 12 189 7 
190 41 191 81 192 29 193 2 200 41 201 52 202 250 203 24 204 570 205 999 
206 198 207 2 248 12 292 12 306 308 307 100 
