Name: MassBank: JP004971
MW: 262
Formula: C11H16Cl2OSi
Synonym: MassBank: JP004971
Synonym: 2,2-DICHLORO-1-PHENYL-2-TRIMETHYLSILYLETHANOL
Structure: 322C322D444943484C4F524F2D312D5048454E594C2D322D5452494D455448594C53494C594C455448414E4F4C2E6D6F6C0A20204368656D447261773132323030393036333032440A2031352031352020302020302020302020302020302020302020302020303939392056323030300A2020202D302E3731343520202020302E3436373820202020302E303030302043202020302020302020302020302020302020302020302020302020302020302020302020300A20202020302E3030303020202020302E3838303320202020302E303030302043202020302020302020302020302020302020302020302020302020302020302020302020300A20202020302E3731343520202020312E3239323820202020302E303030302053692020302020302020302020302020302020302020302020302020302020302020302020300A20202020312E3132373020202020302E3537383320202020302E303030302043202020302020302020302020302020302020302020302020302020302020302020302020300A20202020312E3432383920202020312E3730353320202020302E303030302043202020302020302020302020302020302020302020302020302020302020302020302020300A20202020302E3330323020202020322E3030373220202020302E303030302043202020302020302020302020302020302020302020302020302020302020302020302020300A2020202D302E373134352020202D302E3335373220202020302E303030302043202020302020302020302020302020302020302020302020302020302020302020302020300A2020202D312E343238392020202D302E3736393720202020302E303030302043202020302020302020302020302020302020302020302020302020302020302020302020300A2020202D312E343238392020202D312E3539343720202020302E303030302043202020302020302020302020302020302020302020302020302020302020302020302020300A2020202D302E373134352020202D322E3030373220202020302E303030302043202020302020302020302020302020302020302020302020302020302020302020302020300A20202020302E303030302020202D312E3539343720202020302E303030302043202020302020302020302020302020302020302020302020302020302020302020302020300A20202020302E303030302020202D302E3736393720202020302E303030302043202020302020302020302020302020302020302020302020302020302020302020302020300A20202020302E3431323520202020302E3136353820202020302E3030303020436C2020302020302020302020302020302020302020302020302020302020302020302020300A2020202D302E3431323520202020312E3539343720202020302E3030303020436C2020302020302020302020302020302020302020302020302020302020302020302020300A2020202D312E3432383920202020302E3838303320202020302E30303030204F202020302020302020302020302020302020302020302020302020302020302020302020300A2020312020322020312020302020202020200A2020332020342020312020312020202020200A2020332020352020312020302020202020200A2020332020362020312020312020202020200A2020322020332020312020302020202020200A2020372020382020312020302020202020200A2020382020392020322020302020202020200A2020392031302020312020302020202020200A2031302031312020322020302020202020200A2031312031322020312020302020202020200A2020372031322020322020302020202020200A2020312020372020312020302020202020200A2020322031332020312020312020202020200A2020322031342020312020312020202020200A2020312031352020312020302020202020200A4D2020454E44
Contributor: MASS SPECTROSCOPY SOC. OF JAPAN (MSSJ)
InstType: EI
InstName: JEOL JMS-D-3000
IoniMethod: _ENERGY 70 eV
IonPolarity: pos
Date: 2010-10-09 19:48:36+02:00
Num Peaks: 26
43 31 44 27 45 60 51 34 65 31 73 260 74 27 75 152 77 90 79 181 
91 50 93 164 95 81 102 34 105 45 107 999 108 78 119 115 137 67 155 36 
172 190 174 120 179 170 180 29 183 25 226 14 
