Name: MassBank: JP001157
MW: 346
Formula: C22H34O3
Synonym: MassBank: JP001157
Synonym: L-MENTHYL 3-ETHYL-4-OXOTRICYCLO(4.3.0.0(1,))NONANE-5-CARBOXYLATE
Structure: 303231395F4C2D4D454E5448594C20332D455448594C2D342D4F584F5452494359434C4F28342E332E302E3028312C29294E4F4E414E452D352D434152424F58594C4154452E6D6F6C0A20204368656D447261773039303631303135333032440A2032352032382020302020302020302020302020302020302020302020303939392056323030300A2020202D302E303632372020202D302E3537303020202020302E303030302043202020302020302020302020302020302020302020302020302020302020302020302020300A20202020302E333439382020202D312E3238343420202020302E30303030204F202020302020302020302020302020302020302020302020302020302020302020302020300A20202020302E3334393820202020302E3134343520202020302E30303030204F202020302020302020302020302020302020302020302020302020302020302020302020300A20202020312E3137343720202020302E3134343520202020302E303030302043202020302020302020302020302020302020302020302020302020302020302020302020300A20202020312E3538373220202020302E3835383920202020302E303030302043202020302020302020302020302020302020302020302020302020302020302020302020300A20202020322E3431323220202020302E3835383920202020302E303030302043202020302020302020302020302020302020302020302020302020302020302020302020300A20202020322E3832343720202020302E3134343520202020302E303030302043202020302020302020302020302020302020302020302020302020302020302020302020300A20202020322E343132322020202D302E3537303020202020302E303030302043202020302020302020302020302020302020302020302020302020302020302020302020300A20202020312E353837322020202D302E3537303020202020302E303030302043202020302020302020302020302020302020302020302020302020302020302020302020300A20202020322E383234372020202D312E3238343420202020302E303030302043202020302020302020302020302020302020302020302020302020302020302020302020300A20202020312E3137343720202020312E3537333420202020302E303030302043202020302020302020302020302020302020302020302020302020302020302020302020300A20202020302E3334393820202020312E3537333420202020302E303030302043202020302020302020302020302020302020302020302020302020302020302020302020300A20202020312E3538373220202020322E3238373920202020302E303030302043202020302020302020302020302020302020302020302020302020302020302020302020300A2020202D302E383837372020202D302E3537303020202020302E303030302043202020302020302020302020302020302020302020302020302020302020302020302020300A2020202D312E3337323620202020302E3039373520202020302E303030302043202020302020302020302020302020302020302020302020302020302020302020302020300A2020202D322E313537332020202D302E3135373520202020302E303030302043202020302020302020302020302020302020302020302020302020302020302020302020300A2020202D322E313537332020202D302E3938323520202020302E303030302043202020302020302020302020302020302020302020302020302020302020302020302020300A2020202D312E333732362020202D312E3233373420202020302E303030302043202020302020302020302020302020302020302020302020302020302020302020302020300A2020202D302E3535313320202020302E3137353020202020302E303030302043202020302020302020302020302020302020302020302020302020302020302020302020300A2020202D312E313137372020202D322E3032323020202020302E30303030204F202020302020302020302020302020302020302020302020302020302020302020302020300A2020202D322E383234372020202D312E3436373420202020302E303030302043202020302020302020302020302020302020302020302020302020302020302020302020300A2020202D322E373338352020202D322E3238373920202020302E303030302043202020302020302020302020302020302020302020302020302020302020302020302020300A2020202D302E3337313220202020302E3938303120202020302E303030302043202020302020302020302020302020302020302020302020302020302020302020302020300A2020202D312E3038313220202020312E3430303220202020302E303030302043202020302020302020302020302020302020302020302020302020302020302020302020300A2020202D312E3730303220202020302E3835343720202020302E303030302043202020302020302020302020302020302020302020302020302020302020302020302020300A2020312020322020322020302020202020200A2020312020332020312020302020202020200A2020342020352020312020302020202020200A2020352020362020312020302020202020200A2020362020372020312020302020202020200A2020372020382020312020302020202020200A2020382020392020312020302020202020200A2020342020392020312020302020202020200A2020382031302020312020312020202020200A2031312031322020312020302020202020200A2031312031332020312020302020202020200A2031312020352020312020362020202020200A2020342020332020312020312020202020200A2020312031342020312020302020202020200A2031342031352020312020302020202020200A2031352031362020312020302020202020200A2031362031372020312020302020202020200A2031372031382020312020302020202020200A2031382031342020312020302020202020200A2031352031392020312020302020202020200A2031392031342020312020302020202020200A2031382032302020322020302020202020200A2031372032312020312020302020202020200A2032312032322020312020302020202020200A2031392032332020312020302020202020200A2032332032342020312020302020202020200A2032342032352020312020302020202020200A2032352031352020312020302020202020200A4D2020454E44
Contributor: NAKAYAMA M, MASS SPECTROSCOPY SOC. OF JAPAN (MSSJ)
InstType: EI
InstName: HITACHI RMU-6L
IoniMethod: _ENERGY 70 eV
IonPolarity: pos
Date: 2010-10-09 19:48:36+02:00
Num Peaks: 107
39 120 40 30 41 440 42 70 43 360 44 70 45 20 50 20 51 40 52 30 
53 80 54 50 55 620 56 120 57 480 58 30 60 20 63 20 64 20 65 40 
66 30 67 260 68 80 69 420 70 70 71 110 73 20 77 160 78 50 79 190 
80 130 81 420 82 130 83 890 84 80 85 40 86 20 91 100 92 30 93 170 
94 100 95 450 96 110 97 170 98 30 99 30 102 20 103 20 104 20 105 50 
106 30 107 80 108 40 109 60 110 30 111 30 113 20 115 20 117 30 119 30 
120 40 121 80 122 30 123 190 124 40 125 30 127 20 129 20 131 20 133 30 
134 50 135 130 136 60 137 40 138 400 139 220 140 30 141 30 143 20 145 20 
147 20 149 70 151 20 152 200 153 30 161 30 162 120 163 100 164 440 165 80 
166 20 167 20 175 20 179 20 180 210 181 30 186 20 189 30 190 230 191 999 
192 50 193 30 208 380 209 520 210 20 346 8 347 6 
