Name: 2-(2'-HYDROXY-3'-TERT-BUTYL-5'-METHYLPHENYL)-5-CHLORO-BENZOTRIAZOLE
MW: 315
Formula: C17H18ClN3O
Synonym: MassBank: JP003570
Synonym: 2-(2'-HYDROXY-3'-TERT-BUTYL-5'-METHYLPHENYL)-5-CHLORO-BENZOTRIAZOLE
Structure: 322D2832272D485944524F58592D33272D544552542D425554594C2D35272D4D455448594C5048454E594C292D352D43484C4F524F2D42454E5A4F545249415A4F4C452E6D6F6C0A20204368656D447261773132323130393035353832440A2032322032342020302020302020302020302020302020302020302020303939392056323030300A2020202D302E3337333220202020312E3032343720202020302E30303030204E202020302020302020302020302020302020302020302020302020302020302020302020300A20202020302E3131313720202020302E3335373220202020302E30303030204E202020302020302020302020302020302020302020302020302020302020302020302020300A2020202D302E333733322020202D302E3331303220202020302E30303030204E202020302020302020302020302020302020302020302020302020302020302020302020300A2020202D312E313537382020202D302E3035353320202020302E303030302043202020302020302020302020302020302020302020302020302020302020302020302020300A2020202D312E3135373820202020302E3736393720202020302E303030302043202020302020302020302020302020302020302020302020302020302020302020302020300A2020202D312E383732332020202D302E3436373820202020302E303030302043202020302020302020302020302020302020302020302020302020302020302020302020300A2020202D322E353836372020202D302E3035353320202020302E303030302043202020302020302020302020302020302020302020302020302020302020302020302020300A2020202D322E3538363720202020302E3736393720202020302E303030302043202020302020302020302020302020302020302020302020302020302020302020302020300A2020202D312E3837323320202020312E3138323220202020302E303030302043202020302020302020302020302020302020302020302020302020302020302020302020300A2020202D332E333031322020202D302E3436373820202020302E3030303020436C2020302020302020302020302020302020302020302020302020302020302020302020300A20202020302E3933363720202020302E3335373220202020302E303030302043202020302020302020302020302020302020302020302020302020302020302020302020300A20202020312E333439322020202D302E3335373220202020302E303030302043202020302020302020302020302020302020302020302020302020302020302020302020300A20202020322E313734322020202D302E3335373220202020302E303030302043202020302020302020302020302020302020302020302020302020302020302020302020300A20202020322E3538363720202020302E3335373220202020302E303030302043202020302020302020302020302020302020302020302020302020302020302020302020300A20202020322E3137343220202020312E3037313720202020302E303030302043202020302020302020302020302020302020302020302020302020302020302020302020300A20202020312E3334393220202020312E3037313720202020302E303030302043202020302020302020302020302020302020302020302020302020302020302020302020300A20202020322E3538363720202020312E3738363220202020302E303030302043202020302020302020302020302020302020302020302020302020302020302020302020300A20202020322E353836372020202D312E3037313720202020302E303030302043202020302020302020302020302020302020302020302020302020302020302020302020300A20202020332E333031322020202D302E3635393220202020302E303030302043202020302020302020302020302020302020302020302020302020302020302020302020300A20202020312E383732332020202D312E3438343220202020302E303030302043202020302020302020302020302020302020302020302020302020302020302020302020300A20202020322E393939322020202D312E3738363220202020302E303030302043202020302020302020302020302020302020302020302020302020302020302020302020300A20202020302E393336372020202D312E3037313720202020302E30303030204F202020302020302020302020302020302020302020302020302020302020302020302020300A2020312020322020312020302020202020200A2020322020332020312020302020202020200A2020332020342020322020302020202020200A2020342020352020312020302020202020200A2020312020352020322020302020202020200A2020362020372020322020302020202020200A2020372020382020312020302020202020200A2020382020392020322020302020202020200A2020352020392020312020302020202020200A2020342020362020312020302020202020200A2020372031302020312020302020202020200A2031312031322020312020302020202020200A2031322031332020322020302020202020200A2031332031342020312020302020202020200A2031342031352020322020302020202020200A2031352031362020312020302020202020200A2031312031362020322020302020202020200A2031352031372020312020302020202020200A2031382031392020312020302020202020200A2031382032312020312020302020202020200A2031382032302020312020302020202020200A2031332031382020312020302020202020200A2031322032322020312020302020202020200A2020322031312020312020302020202020200A4D2020454E44
Contributor: MASS SPECTROSCOPY SOC. OF JAPAN (MSSJ)
InstType: EI
InstName: Unknown
IoniMethod: EI
IonPolarity: pos
Date: 2010-10-09 19:48:36+02:00
Num Peaks: 40
29 48 39 79 41 145 51 25 53 26 63 24 65 63 76 34 77 96 78 23 
79 39 90 29 91 125 103 60 104 24 105 65 115 23 117 73 119 263 126 110 
128 36 131 22 132 27 133 22 145 32 147 86 154 44 160 43 161 42 272 224 
273 56 274 66 300 999 301 191 302 352 303 57 315 522 316 109 317 188 318 30 
