Name: PINANE (10-D)
MW: 138
Formula: C10H18
Synonym: MassBank: JP006008
Synonym: PINANE (10-D)
Synonym: 2,6,6-TRIMETHYLBICYCLO(3.1.1)HEPTANE (10-D)
Structure: 50494E414E45202831302D44292E6D6F6C0A20204368656D447261773132323130393032343432440A2031332031342020302020302020302020302020302020302020302020303939392056323030300A20202020302E343539372020202D302E3031333820202020302E303030302043202020302020302020302020302020302020302020302020302020302020302020302020300A20202020312E3034333120202020302E3536393620202020302E303030302043202020302020302020302020302020302020302020302020302020302020302020302020300A20202020302E363338352020202D302E3637313720202020302E303030302043202020302020302020302020302020302020302020302020302020302020302020302020300A20202020302E313537322020202D312E3135323920202020302E303030302043202020302020302020302020302020302020302020302020302020302020302020302020300A2020202D302E343939352020202D302E3937313320202020302E303030302043202020302020302020302020302020302020302020302020302020302020302020302020300A20202020302E323135302020202D302E3535383820202020302E303030302043202020302020302020302020302020302020302020302020302020302020302020302020300A2020202D302E393132302020202D302E3235363820202020302E303030302043202020302020302020302020302020302020302020302020302020302020302020302020300A2020202D312E363236352020202D302E3636393320202020302E303030302043202020302020302020302020302020302020302020302020302020302020302020302020300A2020202D312E3332343520202020302E3435373620202020302E303030302043202020302020302020302020302020302020302020302020302020302020302020302020300A2020202D302E3139373520202020302E3135353720202020302E303030302043202020302020302020302020302020302020302020302020302020302020302020302020300A20202020312E3632363520202020312E3135323920202020302E303030302048202020312020302020302020302020302020302020302020302020302020302020302020300A20202020302E3435393720202020312E3135323920202020302E303030302043202020302020302020302020302020302020302020302020302020302020302020302020300A20202020312E363236352020202D302E3031333820202020302E303030302043202020302020302020302020302020302020302020302020302020302020302020302020300A2020312020322020312020302020202020200A2020312020332020312020302020202020200A2020332020342020312020302020202020200A2020342020352020312020302020202020200A2020352020362020312020302020202020200A2020352020372020312020302020202020200A2020372020382020312020362020202020200A2020372020392020312020312020202020200A2020372031302020312020302020202020200A2020362031302020312020302020202020200A2020312031302020312020302020202020200A2020322031312020312020302020202020200A2020322031322020312020302020202020200A2020322031332020312020302020202020200A4D202049534F20203120203131202020320A4D2020454E44
Contributor: YAMAMOTO M, DEP. CHEMISTRY, FAC. SCIENCE, NARA WOMEN'S UNIV.
InstType: EI
InstName: HITACHI M-80
IoniMethod: _ENERGY 15 eV
IonPolarity: pos
Date: 2010-10-09 19:48:36+02:00
Num Peaks: 34
41 41 45 13 55 141 56 69 57 40 61 12 67 86 68 81 69 409 70 73 
72 11 73 13 79 20 80 14 81 170 82 733 83 340 84 363 85 57 86 12 
93 29 94 24 95 165 96 999 97 282 98 71 109 46 110 56 111 65 123 80 
124 229 125 19 139 95 140 9 
