Name: ISOPROPYLHYDRAZONE ACETALDEHYDE
MW: 100
Formula: C5H12N2
Synonym: MassBank: JP000521
Synonym: ISOPROPYLHYDRAZONE ACETALDEHYDE
Synonym: ACETALDEHYDE ISOPROPYLHYDRAZONE
Structure: 310A31380A49534F50524F50594C48594452415A4F4E452041434554414C4445485944452E6D6F6C0A20204368656D447261773036323431303035343332440A2020372020362020302020302020302020302020302020302020302020303939392056323030300A2020202D312E303731372020202D302E3631383820202020302E303030302043202020302020302020302020302020302020302020302020302020302020302020302020300A2020202D312E373836322020202D302E3230363220202020302E303030302043202020302020302020302020302020302020302020302020302020302020302020302020300A2020202D302E333537322020202D302E3230363220202020302E30303030204E202020302020302020302020302020302020302020302020302020302020302020302020300A20202020302E333537322020202D302E3631383720202020302E30303030204E202020302020302020302020302020302020302020302020302020302020302020302020300A20202020312E303731372020202D302E3230363220202020302E303030302043202020302020302020302020302020302020302020302020302020302020302020302020300A20202020312E3037313720202020302E3631383820202020302E303030302043202020302020302020302020302020302020302020302020302020302020302020302020300A20202020312E373836322020202D302E3631383720202020302E303030302043202020302020302020302020302020302020302020302020302020302020302020302020300A2020312020322020312020302020202020200A2020332020342020312020302020202020200A2020352020362020312020302020202020200A2020352020372020312020302020202020200A2020342020352020312020302020202020200A2020312020332020322020302020202020200A4D2020454E44
Contributor: SASAKI S, TOYOHASHI UNIV. OF TECH.
InstType: EI
InstName: SHIMADZU LKB-2091
IoniMethod: _ENERGY 70 eV
IonPolarity: pos
Date: 2010-10-09 19:48:36+02:00
Num Peaks: 23
28 228 29 86 30 119 31 4 39 61 40 30 41 193 42 28 43 228 44 738 
45 30 55 1 56 42 57 105 58 124 59 2 68 10 69 11 85 999 86 6 
99 21 100 385 101 47 
