Name: 2-ISOBUTYLTHIAZOLE
MW: 141
Formula: C7H11NS
Synonym: MassBank: JP007797
Synonym: 2-ISOBUTYLTHIAZOLE
Structure: 310A32330A322D49534F425554594C544849415A4F4C452E6D6F6C0A20204368656D447261773031323231303030313132440A2020392020392020302020302020302020302020302020302020302020303939392056323030300A2020202D312E3137323520202020302E3632353320202020302E303030302053202020302020302020302020302020302020302020302020302020302020302020302020300A2020202D302E3431383920202020302E3238393820202020302E303030302043202020302020302020302020302020302020302020302020302020302020302020302020300A2020202D302E353035312020202D302E3533303720202020302E30303030204E202020302020302020302020302020302020302020302020302020302020302020302020300A2020202D312E333132312020202D302E3730323320202020302E303030302043202020302020302020302020302020302020302020302020302020302020302020302020300A2020202D312E3732343620202020302E3031323220202020302E303030302043202020302020302020302020302020302020302020302020302020302020302020302020300A20202020302E3239353620202020302E3730323320202020302E303030302043202020302020302020302020302020302020302020302020302020302020302020302020300A20202020312E3031303120202020302E3238393820202020302E303030302043202020302020302020302020302020302020302020302020302020302020302020302020300A20202020312E3732343620202020302E3730323320202020302E303030302043202020302020302020302020302020302020302020302020302020302020302020302020300A20202020312E303130312020202D302E3533353220202020302E303030302043202020302020302020302020302020302020302020302020302020302020302020302020300A2020312020322020312020302020202020200A2020322020332020322020302020202020200A2020332020342020312020302020202020200A2020342020352020322020302020202020200A2020312020352020312020302020202020200A2020362020372020312020302020202020200A2020372020382020312020302020202020200A2020372020392020312020302020202020200A2020322020362020312020302020202020200A4D2020454E44
Contributor: HASHIMOTO K, KYOTO COLLEGE OF PHARMACY
InstType: EI
InstName: HITACHI M-80
IoniMethod: _ENERGY 20 eV
IonPolarity: pos
Date: 2010-10-09 19:48:36+02:00
Num Peaks: 24
27 89 28 16 29 49 39 39 41 41 42 239 43 310 44 10 45 30 54 90 
55 10 56 10 57 29 58 490 59 182 60 20 86 10 98 105 99 999 100 105 
101 84 126 200 140 30 141 21 
