Name: 1-BUTYL-5-METHYL-2-PYRAZOLINE
MW: 140
Formula: C8H16N2
Synonym: MassBank: JP000409
Synonym: 1-BUTYL-5-METHYL-2-PYRAZOLINE
Structure: 312D425554594C2D352D4D455448594C2D322D505952415A4F4C494E452E6D6F6C0A20204368656D447261773131313730393233353732440A2031312031312020302020302020302020302020302020302020302020303939392056323030300A20202020302E333031362020202D302E3737363120202020302E30303030204E202020302020302020302020302020302020302020302020302020302020302020302020300A2020202D302E353138392020202D302E3836323320202020302E30303030204E202020302020302020302020302020302020302020302020302020302020302020302020300A2020202D302E363930342020202D312E3636393320202020302E303030302043202020302020302020302020302020302020302020302020302020302020302020302020300A20202020302E303234302020202D322E3038313820202020302E303030302043202020302020302020302020302020302020302020302020302020302020302020302020300A20202020302E363337312020202D312E3532393820202020302E303030302043202020302020302020302020302020302020302020302020302020302020302020302020300A20202020312E343434312020202D312E3730313320202020302E303030302043202020302020302020302020302020302020302020302020302020302020302020302020300A20202020302E373134312020202D302E3036313620202020302E303030302043202020302020302020302020302020302020302020302020302020302020302020302020300A20202020302E3330313620202020302E3635323920202020302E303030302043202020302020302020302020302020302020302020302020302020302020302020302020300A20202020302E3731343120202020312E3336373320202020302E303030302043202020302020302020302020302020302020302020302020302020302020302020302020300A20202020302E3330313620202020322E3038313820202020302E303030302043202020302020302020302020302020302020302020302020302020302020302020302020300A2020202D312E343434312020202D322E3030343920202020302E303030302048202020302020302020302020302020302020302020302020302020302020302020302020300A2020312020322020312020302020202020200A2020322020332020322020302020202020200A2020332020342020312020302020202020200A2020342020352020312020302020202020200A2020312020352020312020302020202020200A2020352020362020312020302020202020200A2020372020382020312020302020202020200A2020382020392020312020302020202020200A2020392031302020312020302020202020200A2020312020372020312020302020202020200A2020332031312020312020302020202020200A4D2020454E44
Contributor: SASAKI S, TOYOHASHI UNIV. OF TECH.
InstType: EI
InstName: SHIMADZU LKB-2091
IoniMethod: _ENERGY 70 eV
IonPolarity: pos
Date: 2010-10-09 19:48:36+02:00
Num Peaks: 33
26 5 27 55 29 67 30 5 39 33 40 7 41 86 42 6 43 17 44 8 
52 2 53 1 54 16 55 73 56 31 57 3 68 25 69 245 70 21 80 1 
81 5 82 5 83 15 84 1 95 4 97 999 98 50 111 0 125 46 126 4 
139 5 140 11 141 10 
