Name: PLATINUM DIACETYLACETONATE
MW: 393
Formula: C10H14O4Pt
Synonym: MassBank: JP000340
Synonym: PLATINUM DIACETYLACETONATE
Structure: 303733395F504C4154494E554D20444941434554594C414345544F4E4154452E6D6F6C0A20204368656D447261773038323031303039353032440A2031352031342020302020302020302020302020302020302020302020303939392056323030300A2020202D322E3134333420202020302E3631383820202020302E303030302043202020302020302020302020302020302020302020302020302020302020302020302020300A2020202D312E3432383920202020302E3230363220202020302E303030302043202020302020302020302020302020302020302020302020302020302020302020302020300A2020202D302E3731343520202020302E3631383720202020302E30303030204F202020302020302020302020302020302020302020302020302020302020302020302020300A2020202D302E3030303020202020302E3230363220202020302E303030302050742020302020302020302020302020302020302020302020302020302020302020302020300A20202020302E3731343520202020302E3631383720202020302E30303030204F202020302020302020302020302020302020302020302020302020302020302020302020300A20202020312E3432383920202020302E3230363220202020302E303030302043202020302020302020302020302020302020302020302020302020302020302020302020300A20202020322E3134333420202020302E3631383820202020302E303030302043202020302020302020302020302020302020302020302020302020302020302020302020300A20202020322E383537392020202D302E3631383720202020302E30303030204F202020302020302020302020302020302020302020302020302020302020302020302020300A20202020322E3835373920202020302E3230363320202020302E303030302043202020302020302020302020302020302020302020302020302020302020302020302020300A20202020332E3537323420202020302E3631383820202020302E303030302043202020302020302020302020302020302020302020302020302020302020302020302020300A2020202D322E383537392020202D302E3631383820202020302E30303030204F202020302020302020302020302020302020302020302020302020302020302020302020300A2020202D322E3835373920202020302E3230363220202020302E303030302043202020302020302020302020302020302020302020302020302020302020302020302020300A2020202D332E3537323420202020302E3631383720202020302E303030302043202020302020302020302020302020302020302020302020302020302020302020302020300A20202020312E343238392020202D302E3631383820202020302E303030302043202020302020302020302020302020302020302020302020302020302020302020302020300A2020202D312E343238392020202D302E3631383820202020302E303030302043202020302020302020302020302020302020302020302020302020302020302020302020300A2031322020312020312020302020202020200A2020312020322020322020302020202020200A2020322020332020312020302020202020200A2020332020342020312020302020202020200A2020342020352020312020302020202020200A2020352020362020312020302020202020200A2020362020372020322020302020202020200A2020372020392020312020302020202020200A2020382020392020322020302020202020200A2020392031302020312020302020202020200A2031312031322020322020302020202020200A2031322031332020312020302020202020200A2020362031342020312020302020202020200A2020322031352020312020302020202020200A4D2020454E44
Contributor: SASAKI S, TOYOHASHI UNIV. OF TECH.
InstType: EI
InstName: HITACHI RMU-6D
IoniMethod: _ENERGY 70 eV
IonPolarity: pos
Date: 2010-10-09 19:48:36+02:00
Num Peaks: 90
15 30 18 13 26 20 27 8 28 185 29 35 31 20 37 0 38 17 39 60 
40 8 41 1 42 60 43 999 44 40 45 0 50 3 53 20 55 35 56 0 
57 3 58 40 69 15 71 0 72 20 85 300 86 10 100 20 101 30 196 3 
197 3 208 1 209 20 210 3 220 10 221 0 222 40 223 30 224 10 225 1 
233 10 234 13 235 20 236 0 237 23 238 10 239 8 247 0 248 3 249 10 
250 20 251 0 252 10 261 3 262 3 263 0 264 20 265 20 266 13 267 1 
277 3 278 3 279 13 280 2 281 17 282 5 291 5 292 2 293 21 294 20 
295 13 296 1 307 5 308 10 309 10 310 0 321 10 322 13 323 10 334 0 
335 3 336 3 349 10 350 0 351 10 392 80 393 90 394 1 395 5 396 13 
