Name: CYCLOPENTANONE
MW: 84
Formula: C5H8O
Synonym: MassBank: JP001546
Synonym: CYCLOPENTANONE
Structure: 310A31370A4359434C4F50454E54414E4F4E452E6D6F6C0A20204368656D447261773039323031303039303332440A2020362020362020302020302020302020302020302020302020302020303939392056323030300A2020202D302E323232332020202D302E3030303020202020302E303030302043202020302020302020302020302020302020302020302020302020302020302020302020300A20202020302E3236323720202020302E3636373420202020302E303030302043202020302020302020302020302020302020302020302020302020302020302020302020300A20202020312E3034373320202020302E3431323520202020302E303030302043202020302020302020302020302020302020302020302020302020302020302020302020300A20202020312E303437332020202D302E3431323520202020302E303030302043202020302020302020302020302020302020302020302020302020302020302020302020300A20202020302E323632372020202D302E3636373420202020302E303030302043202020302020302020302020302020302020302020302020302020302020302020302020300A2020202D312E303437332020202D302E3030303020202020302E30303030204F202020302020302020302020302020302020302020302020302020302020302020302020300A2020312020322020312020302020202020200A2020322020332020312020302020202020200A2020332020342020312020302020202020200A2020342020352020312020302020202020200A2020312020352020312020302020202020200A2020312020362020322020302020202020200A4D2020454E44
Contributor: YAMAMOTO M, DEP. CHEMISTRY, FAC. SCIENCE, NARA WOMEN'S UNIV.
InstType: EI
InstName: HITACHI RMU-6M
IoniMethod: _ENERGY 70 eV
IonPolarity: pos
Date: 2010-10-09 19:48:36+02:00
Num Peaks: 24
14 17 15 23 26 97 27 257 28 652 29 83 37 18 38 30 39 172 40 42 
41 404 42 118 43 38 50 27 51 26 52 11 53 27 54 15 55 999 56 271 
57 21 83 21 84 424 85 27 
