Name: MassBank: JP007880
MW: 269
Formula: C20H15N
Synonym: MassBank: JP007880
Synonym: 2,7-DIPHENYLINDOLE
Structure: 322C372D44495048454E594C494E444F4C452E6D6F6C0A20204368656D447261773132323130393034353832440A2032312032342020302020302020302020302020302020302020302020303939392056323030300A2020202D302E3036353020202020302E3235353920202020302E30303030204E202020302020302020302020302020302020302020302020302020302020302020302020300A2020202D302E383138362020202D302E3037393720202020302E303030302043202020302020302020302020302020302020302020302020302020302020302020302020300A2020202D302E373332342020202D302E3930303220202020302E303030302043202020302020302020302020302020302020302020302020302020302020302020302020300A20202020302E303734362020202D312E3037313720202020302E303030302043202020302020302020302020302020302020302020302020302020302020302020302020300A20202020302E343837312020202D312E3738363220202020302E303030302043202020302020302020302020302020302020302020302020302020302020302020302020300A20202020312E333132312020202D312E3738363220202020302E303030302043202020302020302020302020302020302020302020302020302020302020302020302020300A20202020312E373234362020202D312E3037313720202020302E303030302043202020302020302020302020302020302020302020302020302020302020302020302020300A20202020312E333132312020202D302E3335373220202020302E303030302043202020302020302020302020302020302020302020302020302020302020302020302020300A20202020302E343837312020202D302E3335373220202020302E303030302043202020302020302020302020302020302020302020302020302020302020302020302020300A20202020312E3732343620202020302E3335373220202020302E303030302043202020302020302020302020302020302020302020302020302020302020302020302020300A20202020322E3534393620202020302E3335373220202020302E303030302043202020302020302020302020302020302020302020302020302020302020302020302020300A20202020322E3936323120202020312E3037313720202020302E303030302043202020302020302020302020302020302020302020302020302020302020302020302020300A20202020322E3534393620202020312E3738363220202020302E303030302043202020302020302020302020302020302020302020302020302020302020302020302020300A20202020312E3732343620202020312E3738363220202020302E303030302043202020302020302020302020302020302020302020302020302020302020302020302020300A20202020312E3331323120202020312E3037313720202020302E303030302043202020302020302020302020302020302020302020302020302020302020302020302020300A2020202D312E3533333120202020302E3333323820202020302E303030302043202020302020302020302020302020302020302020302020302020302020302020302020300A2020202D312E3533333120202020312E3135373820202020302E303030302043202020302020302020302020302020302020302020302020302020302020302020302020300A2020202D322E3234373620202020312E3537303320202020302E303030302043202020302020302020302020302020302020302020302020302020302020302020302020300A2020202D322E3936323120202020312E3135373820202020302E303030302043202020302020302020302020302020302020302020302020302020302020302020302020300A2020202D322E3936323120202020302E3333323820202020302E303030302043202020302020302020302020302020302020302020302020302020302020302020302020300A2020202D322E323437362020202D302E3037393720202020302E303030302043202020302020302020302020302020302020302020302020302020302020302020302020300A2020312020322020312020302020202020200A2020322020332020322020302020202020200A2020332020342020312020302020202020200A2020342020352020312020302020202020200A2020352020362020322020302020202020200A2020362020372020312020302020202020200A2020372020382020322020302020202020200A2020382020392020312020302020202020200A2020312020392020312020302020202020200A2020342020392020322020302020202020200A2031302031312020312020302020202020200A2031312031322020322020302020202020200A2031322031332020312020302020202020200A2031332031342020322020302020202020200A2031342031352020312020302020202020200A2031302031352020322020302020202020200A2020382031302020312020302020202020200A2031362031372020312020302020202020200A2031372031382020322020302020202020200A2031382031392020312020302020202020200A2031392032302020322020302020202020200A2032302032312020312020302020202020200A2031362032312020322020302020202020200A2020322031362020312020302020202020200A4D2020454E44
Contributor: SASAKI S, TOYOHASHI UNIV. OF TECH.
InstType: EI
InstName: MX-1303
IoniMethod: _ENERGY 50 eV
IonPolarity: pos
Date: 2010-10-09 19:48:36+02:00
Num Peaks: 29
120.5 19 127 15 132.5 17 133 1 133.5 33 134 15 134.5 46 135 1 139 14 163 18 
164 25 165 10 166 24 167 10 191 21 192 1 193 34 240 21 241 34 242 1 
253 12 264 16 265 52 266 7 267 155 268 199 269 999 270 28 271 45 
