Name: METHYL-2-O-METHYLFUCOSIDE
MW: 192
Formula: C8H16O5
Synonym: MassBank: JP000985
Synonym: METHYL-2-O-METHYLFUCOSIDE
Structure: 303138385F4D455448594C2D322D4F2D4D455448594C4655434F534944452E6D6F6C0A20204368656D447261773039303631303134333532440A2031332031332020302020302020302020302020302020302020302020303939392056323030300A20202020312E3037313720202020302E3832353020202020302E30303030204F202020302020302020302020302020302020302020302020302020302020302020302020300A20202020302E3335373220202020302E3431323520202020302E303030302043202020302020302020302020302020302020302020302020302020302020302020302020300A20202020302E333537322020202D302E3431323520202020302E303030302043202020302020302020302020302020302020302020302020302020302020302020302020300A20202020312E303731372020202D302E3832353020202020302E30303030204F202020302020302020302020302020302020302020302020302020302020302020302020300A2020202D302E333537322020202D302E3832353020202020302E303030302043202020302020302020302020302020302020302020302020302020302020302020302020300A2020202D302E333537322020202D312E3635303020202020302E30303030204F202020302020302020302020302020302020302020302020302020302020302020302020300A2020202D312E303731372020202D302E3431323520202020302E303030302043202020302020302020302020302020302020302020302020302020302020302020302020300A2020202D312E373836312020202D302E3832353020202020302E30303030204F202020302020302020302020302020302020302020302020302020302020302020302020300A2020202D312E3037313720202020302E3431323520202020302E303030302043202020302020302020302020302020302020302020302020302020302020302020302020300A2020202D302E3335373220202020302E3832353020202020302E30303030204F202020302020302020302020302020302020302020302020302020302020302020302020300A2020202D312E3738363120202020302E3832353020202020302E303030302043202020302020302020302020302020302020302020302020302020302020302020302020300A20202020312E373836312020202D302E3431323520202020302E303030302043202020302020302020302020302020302020302020302020302020302020302020302020300A20202020312E3037313720202020312E3635303020202020302E303030302043202020302020302020302020302020302020302020302020302020302020302020302020300A2020322020312020312020362020202020200A2020322020332020312020302020202020200A2020332020342020312020362020202020200A2020332020352020312020302020202020200A2020352020362020312020312020202020200A2020352020372020312020302020202020200A2020372020382020312020312020202020200A2020372020392020312020302020202020200A2020392031302020312020302020202020200A2020392031312020312020312020202020200A2020322031302020312020302020202020200A2020342031322020312020302020202020200A2020312031332020312020302020202020200A4D2020454E44
Contributor: HORI T, DEPT. OF CHEMISTRY, FAC. OF LIBERAL ARTS AND EDUCATION, SHIGA UNIV.
InstType: EI
InstName: SHIMADZU LKB-9000
IoniMethod: _ENERGY 70 eV
IonPolarity: pos
Date: 2010-10-09 19:48:36+02:00
Num Peaks: 36
41 100 42 60 43 170 44 20 45 310 53 20 55 80 56 25 57 160 58 90 
59 140 60 30 61 100 69 40 70 15 71 175 72 50 73 125 74 999 75 180 
83 30 85 150 86 20 87 365 88 310 89 50 99 30 101 135 102 15 111 10 
114 15 115 15 116 15 117 70 130 40 161 20 
