Name: (2S)-N-CARBOBENZOXY-2-(4-HYDROXY-1-OXOBUTYL)PYRROLIDINE
MW: 291
Formula: C16H21NO4
Synonym: MassBank: JP005505
Synonym: (2S)-N-CARBOBENZOXY-2-(4-HYDROXY-1-OXOBUTYL)PYRROLIDINE
Structure: 283253292D4E2D434152424F42454E5A4F58592D322D28342D485944524F58592D312D4F584F425554594C29505952524F4C4944494E452E6D6F6C0A20204368656D447261773130323030393134313332440A2032322032332020302020302020302020302020302020302020302020303939392056323030300A20202020302E343439302020202D302E3830313320202020302E303030302043202020302020302020302020302020302020302020302020302020302020302020302020300A20202020312E323732392020202D302E3735393420202020302E303030302043202020302020302020302020302020302020302020302020302020302020302020302020300A20202020312E3438373520202020302E3033373320202020302E303030302043202020302020302020302020302020302020302020302020302020302020302020302020300A20202020302E3739363220202020302E3438373620202020302E303030302043202020302020302020302020302020302020302020302020302020302020302020302020300A20202020302E313536302020202D302E3033313720202020302E30303030204E202020302020302020302020302020302020302020302020302020302020302020302020300A2020202D302E3634303720202020302E3138323720202020302E303030302043202020302020302020302020302020302020302020302020302020302020302020302020300A2020202D312E323234312020202D302E3430303820202020302E30303030204F202020302020302020302020302020302020302020302020302020302020302020302020300A2020202D302E3835333420202020302E3937393820202020302E30303030204F202020302020302020302020302020302020302020302020302020302020302020302020300A2020202D322E303231302020202D302E3138373220202020302E303030302043202020302020302020302020302020302020302020302020302020302020302020302020300A2020202D322E363034332020202D302E3737303620202020302E303030302043202020302020302020302020302020302020302020302020302020302020302020302020300A2020202D332E343031322020202D302E3535373120202020302E303030302043202020302020302020302020302020302020302020302020302020302020302020302020300A2020202D332E393834362020202D312E3134303420202020302E303030302043202020302020302020302020302020302020302020302020302020302020302020302020300A2020202D332E373731312020202D312E3933373320202020302E303030302043202020302020302020302020302020302020302020302020302020302020302020302020300A2020202D322E393734322020202D322E3135303820202020302E303030302043202020302020302020302020302020302020302020302020302020302020302020302020300A2020202D322E333930382020202D312E3536373520202020302E303030302043202020302020302020302020302020302020302020302020302020302020302020302020300A20202020312E3331353820202020312E3132383420202020302E303030302043202020302020302020302020302020302020302020302020302020302020302020302020300A20202020302E3231323920202020312E3037303920202020302E303030302048202020302020302020302020302020302020302020302020302020302020302020302020300A20202020322E3133303620202020302E3939383820202020302E303030302043202020302020302020302020302020302020302020302020302020302020302020302020300A20202020312E3032303720202020312E3839383820202020302E30303030204F202020302020302020302020302020302020302020302020302020302020302020302020300A20202020322E3635303220202020312E3633393620202020302E303030302043202020302020302020302020302020302020302020302020302020302020302020302020300A20202020332E3436353020202020312E3531303020202020302E303030302043202020302020302020302020302020302020302020302020302020302020302020302020300A20202020332E3938343620202020322E3135303820202020302E30303030204F202020302020302020302020302020302020302020302020302020302020302020302020300A2020312020322020312020302020202020200A2020322020332020312020302020202020200A2020332020342020312020302020202020200A2020342020352020312020302020202020200A2020352020312020312020302020202020200A2020352020362020312020302020202020200A2020362020372020312020302020202020200A2020362020382020322020302020202020200A2020372020392020312020302020202020200A2020392031302020312020302020202020200A2031302031312020322020302020202020200A2031312031322020312020302020202020200A2031322031332020322020302020202020200A2031332031342020312020302020202020200A2031342031352020322020302020202020200A2031352031302020312020302020202020200A2020342031362020312020362020202020200A2020342031372020312020312020202020200A2031362031382020312020302020202020200A2031362031392020322020302020202020200A2031382032302020312020302020202020200A2032302032312020312020302020202020200A2032312032322020312020302020202020200A4D2020454E44
Contributor: HIRAMA M, TOHOKU UNIV. FACULTY OF SCIENCE DEPT. OF CHEMISTRY YUKIBUNSEKI
InstType: EI
InstName: HITACHI M-52
IoniMethod: _ENERGY 25 eV
IonPolarity: pos
Date: 2010-10-09 19:48:36+02:00
Num Peaks: 7
70 13 91 999 92 22 114 11 160 226 204 196 291 1 
