Name: METHSUXIMIDE
MW: 203
Formula: C12H13NO2
Synonym: MassBank: JP007975
Synonym: METHSUXIMIDE
Synonym: 1,3-DIMETHYL-3-PHENYL-2,5-PYRROLIDINEDIONE
Structure: 4D455448535558494D4944452E6D6F6C0A20204368656D447261773131313230393131343432440A2031352031362020302020302020302020302020302020302020302020303939392056323030300A20202020312E343337302020202D302E3032343020202020302E30303030204E202020302020302020302020302020302020302020302020302020302020302020302020300A20202020312E3032343520202020302E3639303420202020302E303030302043202020302020302020302020302020302020302020302020302020302020302020302020300A20202020302E3231373520202020302E3531383920202020302E303030302043202020302020302020302020302020302020302020302020302020302020302020302020300A20202020302E313331332020202D302E3330313620202020302E303030302043202020302020302020302020302020302020302020302020302020302020302020302020300A20202020302E383835302020202D302E3633373120202020302E303030302043202020302020302020302020302020302020302020302020302020302020302020302020300A20202020312E3336303120202020312E3434343120202020302E30303030204F202020302020302020302020302020302020302020302020302020302020302020302020300A20202020312E303536352020202D312E3434343120202020302E30303030204F202020302020302020302020302020302020302020302020302020302020302020302020300A2020202D302E3630373520202020302E3531383920202020302E303030302043202020302020302020302020302020302020302020302020302020302020302020302020300A2020202D312E303230302020202D302E3139353620202020302E303030302043202020302020302020302020302020302020302020302020302020302020302020302020300A2020202D312E383435302020202D302E3139353620202020302E303030302043202020302020302020302020302020302020302020302020302020302020302020302020300A2020202D322E3235373520202020302E3531383920202020302E303030302043202020302020302020302020302020302020302020302020302020302020302020302020300A2020202D312E3834353020202020312E3233333420202020302E303030302043202020302020302020302020302020302020302020302020302020302020302020302020300A2020202D312E3032303020202020312E3233333420202020302E303030302043202020302020302020302020302020302020302020302020302020302020302020302020300A20202020302E3133313320202020312E3333393420202020302E303030302043202020302020302020302020302020302020302020302020302020302020302020302020300A20202020322E323537352020202D302E3131303320202020302E303030302043202020302020302020302020302020302020302020302020302020302020302020302020300A2020312020322020312020302020202020200A2020322020332020312020302020202020200A2020332020342020312020302020202020200A2020342020352020312020302020202020200A2020312020352020312020302020202020200A2020322020362020322020302020202020200A2020352020372020322020302020202020200A2020382020392020312020302020202020200A2020392031302020322020302020202020200A2031302031312020312020302020202020200A2031312031322020322020302020202020200A2031322031332020312020302020202020200A2020382031332020322020302020202020200A2020332020382020312020302020202020200A2020332031342020312020302020202020200A2020312031352020312020302020202020200A4D2020454E44
Contributor: HAMAMATSU UNIV. SCHOOL OF MEDICINE
InstType: EI
InstName: JEOL JMS-D-300
IoniMethod: _ENERGY 70 eV
IonPolarity: pos
Date: 2010-10-09 19:48:36+02:00
Num Peaks: 29
51 32 52 85 53 15 55 17 57 13 58 42 63 28 65 26 74 10 75 17 
76 20 77 143 78 128 79 15 89 16 90 13 91 83 92 10 102 34 103 179 
104 18 115 80 116 26 117 351 118 999 119 111 149 13 203 271 204 43 
