Name: MassBank: JP004975
MW: 276
Formula: C12H18Cl2OSi
Synonym: MassBank: JP004975
Synonym: 1,1-DICHLORO-2-PHENYL-2-TRIMETHYLSILOXYPROPANE
Structure: 312C312D444943484C4F524F2D322D5048454E594C2D322D5452494D455448594C53494C4F585950524F50414E452E6D6F6C0A20204368656D447261773130323330393033353432440A2031362031362020302020302020302020302020302020302020302020303939392056323030300A2020202D302E3838363220202020312E3336363520202020302E303030302043202020302020302020302020302020302020302020302020302020302020302020302020300A2020202D302E3738313420202020302E3534373720202020302E303030302043202020302020302020302020302020302020302020302020302020302020302020302020300A2020202D312E3630393020202020302E3439343920202020302E303030302043202020302020302020302020302020302020302020302020302020302020302020302020300A20202020302E3237313920202020302E3530343620202020302E30303030204F202020302020302020302020302020302020302020302020302020302020302020302020300A20202020312E3033303220202020312E3236323920202020302E303030302053692020302020302020302020302020302020302020302020302020302020302020302020300A20202020302E3532303320202020312E3933343820202020302E303030302043202020302020302020302020302020302020302020302020302020302020302020302020300A20202020312E3634353720202020312E3830393920202020302E303030302043202020302020302020302020302020302020302020302020302020302020302020302020300A20202020312E3630303420202020302E3639323820202020302E303030302043202020302020302020302020302020302020302020302020302020302020302020302020300A2020202D302E373831342020202D302E3237373320202020302E303030302043202020302020302020302020302020302020302020302020302020302020302020302020300A2020202D312E343833332020202D302E3638383720202020302E303030302043202020302020302020302020302020302020302020302020302020302020302020302020300A2020202D312E343833332020202D312E3531383920202020302E303030302043202020302020302020302020302020302020302020302020302020302020302020302020300A2020202D302E373633302020202D312E3933343820202020302E303030302043202020302020302020302020302020302020302020302020302020302020302020302020300A2020202D302E303431392020202D312E3531383520202020302E303030302043202020302020302020302020302020302020302020302020302020302020302020302020300A2020202D302E303431392020202D302E3638353620202020302E303030302043202020302020302020302020302020302020302020302020302020302020302020302020300A2020202D302E3232373420202020312E3836333020202020302E3030303020436C2020302020302020302020302020302020302020302020302020302020302020302020300A2020202D312E3634353720202020312E3638383920202020302E3030303020436C2020302020302020302020302020302020302020302020302020302020302020302020300A2020312020322020312020302020202020200A2020322020332020312020302020202020200A2020342020352020312020302020202020200A2020352020362020312020312020202020200A2020352020372020312020302020202020200A2020352020382020312020312020202020200A2020322020342020312020302020202020200A2020392031302020312020302020202020200A2031302031312020322020302020202020200A2031312031322020312020302020202020200A2031322031332020322020302020202020200A2031332031342020312020302020202020200A2020392031342020322020302020202020200A2020322020392020312020302020202020200A2020312031352020312020302020202020200A2020312031362020312020302020202020200A4D2020454E44
Contributor: MASS SPECTROSCOPY SOC. OF JAPAN (MSSJ)
InstType: EI
InstName: JEOL JMS-D-3000
IoniMethod: _ENERGY 70 eV
IonPolarity: pos
Date: 2010-10-09 19:48:36+02:00
Num Peaks: 27
45 118 47 36 51 41 65 33 73 745 74 123 75 29 78 52 79 28 81 49 
89 31 91 33 93 67 95 70 103 56 105 355 106 47 115 98 125 27 133 252 
134 42 177 35 193 999 194 179 195 78 261 5 263 3 
