Name: O-ALLYLPHENOL
MW: 134
Formula: C9H10O
Synonym: MassBank: JP009216
Synonym: O-ALLYLPHENOL
Structure: 4F2D414C4C594C5048454E4F4C2E6D6F6C0A20204368656D447261773038313231303033303332440A2031302031302020302020302020302020302020302020302020302020303939392056323030300A2020202D302E3631383720202020302E3335373220202020302E303030302043202020302020302020302020302020302020302020302020302020302020302020302020300A2020202D302E323036322020202D302E3335373220202020302E303030302043202020302020302020302020302020302020302020302020302020302020302020302020300A2020202D302E363138372020202D312E3037313720202020302E303030302043202020302020302020302020302020302020302020302020302020302020302020302020300A2020202D312E343433372020202D312E3037313720202020302E303030302043202020302020302020302020302020302020302020302020302020302020302020302020300A2020202D312E383536332020202D302E3335373220202020302E303030302043202020302020302020302020302020302020302020302020302020302020302020302020300A2020202D312E3434333820202020302E3335373220202020302E303030302043202020302020302020302020302020302020302020302020302020302020302020302020300A20202020302E363138382020202D302E3335373220202020302E303030302043202020302020302020302020302020302020302020302020302020302020302020302020300A20202020312E303331332020202D312E3037313720202020302E303030302043202020302020302020302020302020302020302020302020302020302020302020302020300A20202020312E383536332020202D312E3037313720202020302E303030302043202020302020302020302020302020302020302020302020302020302020302020302020300A2020202D302E3230363220202020312E3037313720202020302E30303030204F202020302020302020302020302020302020302020302020302020302020302020302020300A2020312020322020312020302020202020200A2020322020332020322020302020202020200A2020332020342020312020302020202020200A2020342020352020322020302020202020200A2020352020362020312020302020202020200A2020312020362020322020302020202020200A2020372020382020312020302020202020200A2020382020392020322020302020202020200A2020322020372020312020302020202020200A2020312031302020312020302020202020200A4D2020454E44
Contributor: SODA AROMATIC CO., LTD.
InstType: EI
InstName: HITACHI M-80B
IoniMethod: _ENERGY 70 eV
IonPolarity: pos
Date: 2010-10-09 19:48:36+02:00
Num Peaks: 57
15 14 26 42 27 231 28 11 29 24 37 18 38 69 39 363 40 36 41 37 
43 32 50 129 51 291 52 113 53 120 54 11 55 93 58 15 61 14 62 43 
63 147 64 35 65 118 66 80 67 13 68 15 74 39 75 35 76 26 77 463 
78 255 79 199 80 15 87 12 89 81 90 54 91 510 92 49 94 25 102 16 
103 82 104 16 105 220 106 41 107 246 108 20 115 328 116 77 117 116 118 27 
119 347 120 27 131 37 132 14 133 348 134 999 135 100 
