Name: GLYCERYL TRIACETATE
MW: 218
Formula: C9H14O6
Synonym: MassBank: JP003356
Synonym: GLYCERYL TRIACETATE
Structure: 303634315F474C59434552594C20545249414345544154452E6D6F6C0A20204368656D447261773039303631303139333432440A2031352031342020302020302020302020302020302020302020302020303939392056323030300A2020202D312E3036393220202020312E3032383520202020302E30303030204F202020302020302020302020302020302020302020302020302020302020302020302020300A2020202D302E3335373620202020302E3632303120202020302E303030302043202020302020302020302020302020302020302020302020302020302020302020302020300A20202020302E3335363920202020312E3033323620202020302E303030302043202020302020302020302020302020302020302020302020302020302020302020302020300A20202020312E3037333220202020302E3632303120202020302E30303030204F202020302020302020302020302020302020302020302020302020302020302020302020300A2020202D312E373836352020202D302E3230343920202020302E30303030204F202020302020302020302020302020302020302020302020302020302020302020302020300A2020202D312E3738363520202020302E3632303120202020302E303030302043202020302020302020302020302020302020302020302020302020302020302020302020300A2020202D322E3530313020202020312E3033323620202020302E303030302043202020302020302020302020302020302020302020302020302020302020302020302020300A20202020312E3738373420202020312E3835363320202020302E30303030204F202020302020302020302020302020302020302020302020302020302020302020302020300A20202020312E3738363520202020312E3033323620202020302E303030302043202020302020302020302020302020302020302020302020302020302020302020302020300A20202020322E3530313020202020302E3632303120202020302E303030302043202020302020302020302020302020302020302020302020302020302020302020302020300A2020202D302E333537362020202D302E3230343920202020302E303030302043202020302020302020302020302020302020302020302020302020302020302020302020300A20202020302E333538312020202D302E3631383820202020302E30303030204F202020302020302020302020302020302020302020302020302020302020302020302020300A20202020312E303732362020202D312E3835363320202020302E30303030204F202020302020302020302020302020302020302020302020302020302020302020302020300A20202020302E333538312020202D312E3434333820202020302E303030302043202020302020302020302020302020302020302020302020302020302020302020302020300A2020202D302E333536342020202D312E3835363320202020302E303030302043202020302020302020302020302020302020302020302020302020302020302020302020300A2020362020312020312020302020202020200A2020312020322020312020302020202020200A2020322020332020312020302020202020200A2020332020342020312020302020202020200A2020342020392020312020302020202020200A2020322031312020312020302020202020200A2020352020362020322020302020202020200A2020362020372020312020302020202020200A2020382020392020322020302020202020200A2020392031302020312020302020202020200A2031312031322020312020302020202020200A2031322031342020312020302020202020200A2031332031342020322020302020202020200A2031342031352020312020302020202020200A4D2020454E44
Contributor: KOGA M, UNIV. OF OCCUPATIONAL AND ENVIRONMENTAL HEALTH
InstType: EI
InstName: JEOL JMS-01-SG-2
IoniMethod: _ENERGY 75 eV
IonPolarity: pos
Date: 2010-10-09 19:48:36+02:00
Num Peaks: 22
41 411 45 54 54 45 55 72 56 171 60 126 73 185 74 16 75 31 86 199 
98 45 99 6 103 999 104 54 115 316 116 44 117 85 145 891 146 58 158 4 
159 746 160 58 
