Name: HEXANENITRILE
MW: 97
Formula: C6H11N
Synonym: MassBank: JP004004
Synonym: HEXANENITRILE
Structure: 310A31380A484558414E454E495452494C452E6D6F6C0A20204368656D447261773038313131303230333232440A2020372020362020302020302020302020302020302020302020302020303939392056323030300A20202020312E3432383920202020302E3030303020202020302E303030302043202020302020302020302020302020302020302020302020302020302020302020302020300A20202020302E373134352020202D302E3431323520202020302E303030302043202020302020302020302020302020302020302020302020302020302020302020302020300A2020202D302E303030302020202D302E3030303020202020302E303030302043202020302020302020302020302020302020302020302020302020302020302020302020300A2020202D302E373134352020202D302E3431323520202020302E303030302043202020302020302020302020302020302020302020302020302020302020302020302020300A2020202D312E343238392020202D302E3030303020202020302E303030302043202020302020302020302020302020302020302020302020302020302020302020302020300A2020202D322E313433342020202D302E3431323520202020302E303030302043202020302020302020302020302020302020302020302020302020302020302020302020300A20202020322E3134333420202020302E3431323520202020302E30303030204E202020302020302020302020302020302020302020302020302020302020302020302020300A2020312020322020312020302020202020200A2020322020332020312020302020202020200A2020332020342020312020302020202020200A2020342020352020312020302020202020200A2020352020362020312020302020202020200A2020312020372020332020302020202020200A4D2020454E44
Contributor: MASS SPECTROSCOPY SOC. OF JAPAN (MSSJ)
InstType: EI
InstName: HITACHI RMU-6L
IoniMethod: _ENERGY 70 eV
IonPolarity: pos
Date: 2010-10-09 19:48:36+02:00
Num Peaks: 35
13 18 14 31 15 110 26 11 27 591 28 213 29 438 30 2 37 35 38 53 
39 340 40 9 41 999 42 129 43 289 44 2 50 20 51 35 52 38 53 5 
54 689 55 540 56 42 57 29 58 15 64 12 66 15 67 2 68 241 69 185 
70 29 71 2 82 201 83 15 96 96 
