Name: MassBank: JP009431
MW: 202
Formula: C13H14O2
Synonym: MassBank: JP009431
Synonym: 1,6-DIMETHYL-3,4-(5'-METHYLBENZO)-2-OXABICYCLO(4.1.0)HEPT-3-EN-5-ONE
Structure: 312C362D44494D455448594C2D332C342D2835272D4D455448594C42454E5A4F292D322D4F584142494359434C4F28342E312E3029484550542D332D454E2D352D4F4E452E6D6F6C0A20204368656D447261773131313630393134333032440A2031352031372020302020302020302020302020302020302020302020303939392056323030300A20202020312E3432383920202020302E3637343020202020302E303030302043202020302020302020302020302020302020302020302020302020302020302020302020300A20202020312E343238392020202D302E3135313020202020302E303030302043202020302020302020302020302020302020302020302020302020302020302020302020300A20202020302E373134352020202D302E3536333520202020302E303030302043202020302020302020302020302020302020302020302020302020302020302020302020300A2020202D302E303030302020202D302E3135313020202020302E303030302043202020302020302020302020302020302020302020302020302020302020302020302020300A2020202D302E373134342020202D302E3536333520202020302E303030302043202020302020302020302020302020302020302020302020302020302020302020302020300A2020202D312E343238392020202D302E3135313020202020302E303030302043202020302020302020302020302020302020302020302020302020302020302020302020300A2020202D312E3432383920202020302E3637343020202020302E303030302043202020302020302020302020302020302020302020302020302020302020302020302020300A2020202D302E3731343420202020312E3038363520202020302E303030302043202020302020302020302020302020302020302020302020302020302020302020302020300A2020202D302E3030303020202020302E3637343020202020302E303030302043202020302020302020302020302020302020302020302020302020302020302020302020300A20202020302E3731343520202020312E3038363520202020302E30303030204F202020302020302020302020302020302020302020302020302020302020302020302020300A20202020322E3134333320202020302E3236313520202020302E303030302043202020302020302020302020302020302020302020302020302020302020302020302020300A20202020302E373134352020202D312E3338383520202020302E30303030204F202020302020302020302020302020302020302020302020302020302020302020302020300A2020202D322E3134333320202020312E3038363520202020302E303030302043202020302020302020302020302020302020302020302020302020302020302020302020300A20202020312E383431342020202D302E3836353520202020302E303030302043202020302020302020302020302020302020302020302020302020302020302020302020300A20202020312E3834313420202020312E3338383520202020302E303030302043202020302020302020302020302020302020302020302020302020302020302020302020300A2020312020322020312020302020202020200A2020322020332020312020302020202020200A2020332020342020312020302020202020200A2020342020352020312020302020202020200A2020352020362020322020302020202020200A2020362020372020312020302020202020200A2020372020382020322020302020202020200A2020382020392020312020302020202020200A2020342020392020322020302020202020200A2020392031302020312020302020202020200A2020312031302020312020302020202020200A2020312031312020312020302020202020200A2020322031312020312020302020202020200A2020332031322020322020302020202020200A2020372031332020312020302020202020200A2020322031342020312020302020202020200A2020312031352020312020302020202020200A4D2020454E44
Contributor: EGUCHI S, FAC. OF SCIENCE, HIROSHIMA UNIV.
InstType: EI
InstName: HITACHI RMU-7L
IoniMethod: _ENERGY 70 eV
IonPolarity: pos
Date: 2010-10-09 19:48:36+02:00
Num Peaks: 91
50 120 51 260 52 150 53 245 54 20 55 50 56 10 57 10 61 10 62 70 
63 260 64 85 65 145 66 10 67 140 68 15 69 99 73 10 74 15 75 40 
76 45 77 380 78 240 79 125 80 10 85 15 86 125 87 50 88 20 89 410 
90 425 91 325 102 20 103 30 104 20 105 125 106 95 107 200 108 415 109 30 
110 10 115 210 116 99 117 30 118 380 119 60 120 15 121 50 127 20 128 70 
129 50 130 20 131 125 132 30 133 10 134 50 135 630 136 50 137 10 138 20 
139 10 140 10 141 20 142 10 143 30 144 40 145 260 146 50 147 10 157 50 
158 70 159 960 160 260 161 130 162 500 163 50 164 10 165 40 172 10 173 290 
174 20 175 10 185 20 186 10 187 545 188 60 189 20 201 80 202 999 203 160 
204 20 
