Name: RUBRATOXIN B
MW: 518
Formula: C26H30O11
Synonym: MassBank: JP002972
Synonym: RUBRATOXIN B
Structure: 303630325F5255425241544F58494E20422E6D6F6C0A20204368656D447261773038323031303036333532440A2034322034352020302020302020302020302020302020302020302020303939392056323030300A2020202D342E313135362020202D312E3237373120202020302E303030302043202020302020302020302020302020302020302020302020302020302020302020302020300A2020202D342E313135362020202D322E3130323120202020302E303030302043202020302020302020302020302020302020302020302020302020302020302020302020300A2020202D332E343031312020202D322E3531343620202020302E303030302043202020302020302020302020302020302020302020302020302020302020302020302020300A2020202D322E363836362020202D322E3130323120202020302E30303030204F202020302020302020302020302020302020302020302020302020302020302020302020300A2020202D322E363836362020202D312E3237373120202020302E303030302043202020302020302020302020302020302020302020302020302020302020302020302020300A2020202D332E343031312020202D302E3836343620202020302E303030302043202020302020302020302020302020302020302020302020302020302020302020302020300A2020202D332E343031312020202D332E3333393620202020302E30303030204F202020302020302020302020302020302020302020302020302020302020302020302020300A2020202D312E393537342020202D302E3830323720202020302E303030302043202020302020302020302020302020302020302020302020302020302020302020302020300A2020202D312E393732322020202D312E3638393620202020302E303030302048202020302020302020302020302020302020302020302020302020302020302020302020300A2020202D312E323730392020202D312E3330333520202020302E30303030204F202020302020302020302020302020302020302020302020302020302020302020302020300A2020202D312E323432392020202D302E3339303220202020302E303030302048202020302020302020302020302020302020302020302020302020302020302020302020300A2020202D322E313730392020202D302E3030353820202020302E303030302043202020302020302020302020302020302020302020302020302020302020302020302020300A2020202D312E3436323420202020302E3437363120202020302E303030302043202020302020302020302020302020302020302020302020302020302020302020302020300A2020202D322E3735343220202020302E3537373620202020302E303030302043202020302020302020302020302020302020302020302020302020302020302020302020300A2020202D322E383835332020202D302E3431383320202020302E303030302048202020302020302020302020302020302020302020302020302020302020302020302020300A2020202D322E3735343220202020312E3430323620202020302E303030302043202020302020302020302020302020302020302020302020302020302020302020302020300A2020202D322E3038363820202020312E3838373520202020302E303030302043202020302020302020302020302020302020302020302020302020302020302020302020300A2020202D322E3334313720202020322E3637323120202020302E303030302043202020302020302020302020302020302020302020302020302020302020302020302020300A2020202D332E3136363720202020322E3637323120202020302E30303030204F202020302020302020302020302020302020302020302020302020302020302020302020300A2020202D332E3432313720202020312E3838373520202020302E303030302043202020302020302020302020302020302020302020302020302020302020302020302020300A2020202D342E3230363320202020312E3633323620202020302E30303030204F202020302020302020302020302020302020302020302020302020302020302020302020300A2020202D312E3835363820202020332E3333393620202020302E30303030204F202020302020302020302020302020302020302020302020302020302020302020302020300A2020202D312E3337323320202020312E3437353020202020302E303030302043202020302020302020302020302020302020302020302020302020302020302020302020300A2020202D302E3537353420202020312E3638383520202020302E303030302043202020302020302020302020302020302020302020302020302020302020302020302020300A2020202D312E3935353720202020302E3839313620202020302E303030302048202020302020302020302020302020302020302020302020302020302020302020302020300A2020202D312E3337323320202020322E3330303020202020302E30303030204F202020302020302020302020302020302020302020302020302020302020302020302020300A2020202D302E3136323920202020322E3430333020202020302E303030302043202020302020302020302020302020302020302020302020302020302020302020302020300A20202020302E3633333920202020322E3138393520202020302E303030302043202020302020302020302020302020302020302020302020302020302020302020302020300A20202020302E3035303620202020332E3139393920202020302E30303030204F202020302020302020302020302020302020302020302020302020302020302020302020300A2020202D302E3837373420202020322E3831353520202020302E303030302048202020302020302020302020302020302020302020302020302020302020302020302020300A20202020312E3334383420202020322E3630323020202020302E303030302043202020302020302020302020302020302020302020302020302020302020302020302020300A20202020322E3036323920202020322E3138393520202020302E303030302043202020302020302020302020302020302020302020302020302020302020302020302020300A20202020322E3737373420202020322E3630323020202020302E303030302043202020302020302020302020302020302020302020302020302020302020302020302020300A20202020332E3439313820202020322E3138393520202020302E303030302043202020302020302020302020302020302020302020302020302020302020302020302020300A20202020342E3230363320202020322E3630323020202020302E303030302043202020302020302020302020302020302020302020302020302020302020302020302020300A2020202D302E3132393120202020312E3030373920202020302E303030302043202020302020302020302020302020302020302020302020302020302020302020302020300A2020202D302E3731323520202020302E3432343520202020302E303030302043202020302020302020302020302020302020302020302020302020302020302020302020300A2020202D302E333337392020202D302E3331303520202020302E303030302043202020302020302020302020302020302020302020302020302020302020302020302020300A20202020302E343736392020202D302E3138313520202020302E30303030204F202020302020302020302020302020302020302020302020302020302020302020302020300A20202020302E3630363020202020302E3633333420202020302E303030302043202020302020302020302020302020302020302020302020302020302020302020302020300A20202020312E3334313120202020312E3030373920202020302E30303030204F202020302020302020302020302020302020302020302020302020302020302020302020300A2020202D302E373132352020202D312E3034353620202020302E30303030204F202020302020302020302020302020302020302020302020302020302020302020302020300A2020312020322020322020302020202020200A2020322020332020312020302020202020200A2020332020342020312020302020202020200A2020342020352020312020302020202020200A2020352020362020312020302020202020200A2020362020312020312020302020202020200A2020332020372020322020302020202020200A2020352020382020312020302020202020200A2020352020392020312020362020202020200A2020382031302020312020362020202020200A2020382031312020312020312020202020200A2020382031322020312020302020202020200A2031322031332020312020302020202020200A2031322031342020312020302020202020200A2031322031352020312020312020202020200A2031342031362020312020302020202020200A2031362031372020322020302020202020200A2031372031382020312020302020202020200A2031382031392020312020302020202020200A2031392032302020312020302020202020200A2032302031362020312020302020202020200A2032302032312020322020302020202020200A2031382032322020322020302020202020200A2031372032332020312020302020202020200A2032332032342020312020302020202020200A2032332032352020312020362020202020200A2032332032362020312020312020202020200A2032342032372020312020302020202020200A2032372032382020312020302020202020200A2032372032392020312020362020202020200A2032372033302020312020312020202020200A2032382033312020312020302020202020200A2033312033322020312020302020202020200A2033322033332020312020302020202020200A2033332033342020312020302020202020200A2033342033352020312020302020202020200A2032342033362020312020302020202020200A2033362033372020322020302020202020200A2033372033382020312020302020202020200A2033382033392020312020302020202020200A2033392034302020312020302020202020200A2034302033362020312020302020202020200A2034302034312020322020302020202020200A2033382034322020322020302020202020200A2033372031332020312020302020202020200A4D2020454E44
Contributor: SASAKI S, TOYOHASHI UNIV. OF TECH.
InstType: EI
InstName: Unknown
IoniMethod: EI
IonPolarity: pos
Date: 2010-10-09 19:48:36+02:00
Num Peaks: 143
27 151 29 52 30 7 31 2 39 127 40 36 41 370 42 7 43 999 44 732 
45 31 46 3 50 17 51 32 52 15 53 9 54 25 55 206 56 34 57 18 
58 33 60 13 63 25 64 1 65 52 66 20 67 52 68 1 69 88 70 28 
71 34 72 1 73 18 77 82 78 35 79 8 80 16 81 68 82 39 83 5 
84 17 85 228 86 16 89 2 91 119 92 21 93 25 94 3 95 60 96 17 
97 149 98 6 99 19 103 38 104 26 105 8 106 16 107 42 108 14 109 18 
110 60 111 44 113 472 114 4 115 163 116 78 117 65 118 0 119 37 120 13 
121 19 123 2 126 15 127 31 128 49 129 6 130 18 131 47 132 20 133 5 
134 18 135 35 136 21 137 2 141 25 143 29 144 212 145 7 146 32 147 50 
148 20 149 3 155 20 157 25 158 14 159 3 160 29 161 73 162 31 163 2 
165 20 169 19 171 20 173 4 174 20 175 27 185 19 187 2 189 22 225 19 
227 22 229 2 241 17 243 20 256 19 257 2 269 24 270 16 271 38 272 2 
273 16 274 21 275 25 287 2 289 16 297 15 315 37 316 2 330 21 331 19 
340 17 343 0 358 22 376 16 384 29 386 2 400 15 402 15 412 17 428 2 
438 11 456 27 474 4 
