Name: PENTYL 2-FURYLPROPIONATE
MW: 210
Formula: C12H18O3
Synonym: MassBank: JP007753
Synonym: PENTYL 2-FURYLPROPIONATE
Structure: 303932395F50454E54594C20322D465552594C50524F50494F4E4154452E6D6F6C0A20204368656D447261773038323031303131343232440A2031352031352020302020302020302020302020302020302020302020303939392056323030300A20202020302E3036383320202020302E3431323520202020302E303030302043202020302020302020302020302020302020302020302020302020302020302020302020300A20202020302E3738323620202020302E3832353020202020302E303030302043202020302020302020302020302020302020302020302020302020302020302020302020300A2020202D302E3634363220202020302E3832353020202020302E30303030204F202020302020302020302020302020302020302020302020302020302020302020302020300A20202020302E303638332020202D302E3431323520202020302E30303030204F202020302020302020302020302020302020302020302020302020302020302020302020300A20202020322E323834362020202D302E3336363720202020302E30303030204F202020302020302020302020302020302020302020302020302020302020302020302020300A20202020322E3139383420202020302E3435333720202020302E303030302043202020302020302020302020302020302020302020302020302020302020302020302020300A20202020322E3935323020202020302E3738393320202020302E303030302043202020302020302020302020302020302020302020302020302020302020302020302020300A20202020332E3530343020202020302E3137363220202020302E303030302043202020302020302020302020302020302020302020302020302020302020302020302020300A20202020332E303931352020202D302E3533383220202020302E303030302043202020302020302020302020302020302020302020302020302020302020302020302020300A2020202D302E363436322020202D302E3832353020202020302E303030302043202020302020302020302020302020302020302020302020302020302020302020302020300A2020202D312E333630372020202D302E3431323520202020302E303030302043202020302020302020302020302020302020302020302020302020302020302020302020300A2020202D322E303735322020202D302E3832353020202020302E303030302043202020302020302020302020302020302020302020302020302020302020302020302020300A2020202D322E373839362020202D302E3431323520202020302E303030302043202020302020302020302020302020302020302020302020302020302020302020302020300A2020202D332E353034302020202D302E3832353020202020302E303030302043202020302020302020302020302020302020302020302020302020302020302020302020300A20202020312E3435323220202020302E3334333020202020302E303030302043202020302020302020302020302020302020302020302020302020302020302020302020300A2020312020322020312020302020202020200A2020312020332020322020302020202020200A2020312020342020312020302020202020200A2020352020362020312020302020202020200A2020362020372020322020302020202020200A2020372020382020312020302020202020200A2020382020392020322020302020202020200A2020352020392020312020302020202020200A2031302031312020312020302020202020200A2031312031322020312020302020202020200A2031322031332020312020302020202020200A2031332031342020312020302020202020200A2020342031302020312020302020202020200A2020322031352020312020302020202020200A2031352020362020312020302020202020200A4D2020454E44
Contributor: HASHIMOTO K, KYOTO COLLEGE OF PHARMACY
InstType: EI
InstName: HITACHI M-80
IoniMethod: _ENERGY 20 eV
IonPolarity: pos
Date: 2010-10-09 19:48:36+02:00
Num Peaks: 18
29 26 41 74 43 450 53 21 55 42 67 64 68 30 69 10 71 40 81 999 
97 272 98 11 123 85 139 165 140 360 141 21 210 114 211 11 
