Name: CHLOROACETIC ACID ALLYL ESTER
MW: 134
Formula: C5H7ClO2
Synonym: MassBank: JP005279
Synonym: CHLOROACETIC ACID ALLYL ESTER
Synonym: ALLYL CHLOROACETATE
Structure: 310A32300A43484C4F524F414345544943204143494420414C4C594C2045535445522E6D6F6C0A20204368656D447261773038303631303034313832440A2020382020372020302020302020302020302020302020302020302020303939392056323030300A2020202D302E363138372020202D302E3030303020202020302E303030302043202020302020302020302020302020302020302020302020302020302020302020302020300A2020202D312E343433372020202D302E3030303020202020302E303030302043202020302020302020302020302020302020302020302020302020302020302020302020300A2020202D302E3230363220202020302E3731343520202020302E30303030204F202020302020302020302020302020302020302020302020302020302020302020302020300A2020202D302E323036322020202D302E3731343520202020302E30303030204F202020302020302020302020302020302020302020302020302020302020302020302020300A2020202D312E383536332020202D302E3731343520202020302E3030303020436C2020302020302020302020302020302020302020302020302020302020302020302020300A20202020302E363138382020202D302E3731343520202020302E303030302043202020302020302020302020302020302020302020302020302020302020302020302020300A20202020312E3033313320202020302E3030303020202020302E303030302043202020302020302020302020302020302020302020302020302020302020302020302020300A20202020312E3835363320202020302E3030303020202020302E303030302043202020302020302020302020302020302020302020302020302020302020302020302020300A2020312020322020312020302020202020200A2020312020332020322020302020202020200A2020312020342020312020302020202020200A2020322020352020312020302020202020200A2020362020372020312020302020202020200A2020372020382020322020302020202020200A2020342020362020312020302020202020200A4D2020454E44
Contributor: YAMAMOTO M, DEP. CHEMISTRY, FAC. SCIENCE, NARA WOMEN'S UNIV.
InstType: EI
InstName: HITACHI RMU-6M
IoniMethod: _ENERGY 70 eV
IonPolarity: pos
Date: 2010-10-09 19:48:36+02:00
Num Peaks: 35
14 35 15 39 26 46 27 123 28 45 29 88 30 11 31 29 37 20 38 43 
39 414 40 114 41 999 42 138 43 38 47 10 48 20 49 290 50 20 51 89 
55 32 57 273 58 839 59 28 70 17 71 48 75 12 76 33 77 542 78 20 
79 171 85 236 86 12 95 21 99 11 
