Name: MassBank: JP002962
MW: 123
Formula: C8H13N
Synonym: MassBank: JP002962
Synonym: 2-METHYL-2-AZATRICYCLO 5.1.0.0(4,8) OCTANE
Structure: 310A32350A322D4D455448594C2D322D415A415452494359434C4F20352E312E302E3028342C3829204F4354414E452E6D6F6C0A20204368656D447261773031323231303033303332440A2020392031312020302020302020302020302020302020302020302020303939392056323030300A20202020302E363438312020202D302E3436353620202020302E303030302043202020302020302020302020302020302020302020302020302020302020302020302020300A20202020312E343733312020202D302E3436353620202020302E303030302043202020302020302020302020302020302020302020302020302020302020302020302020300A20202020312E3732383120202020302E3331393020202020302E303030302043202020302020302020302020302020302020302020302020302020302020302020302020300A20202020312E3036303620202020302E3830333920202020302E303030302043202020302020302020302020302020302020302020302020302020302020302020302020300A20202020302E3339333220202020302E3331393020202020302E303030302043202020302020302020302020302020302020302020302020302020302020302020302020300A2020202D302E3339313420202020302E3036343120202020302E303030302043202020302020302020302020302020302020302020302020302020302020302020302020300A2020202D302E313336352020202D302E3732303520202020302E303030302043202020302020302020302020302020302020302020302020302020302020302020302020300A2020202D302E393433352020202D302E3534393020202020302E30303030204E202020302020302020302020302020302020302020302020302020302020302020302020300A2020202D312E373238312020202D302E3830333920202020302E303030302043202020302020302020302020302020302020302020302020302020302020302020302020300A2020312020322020312020302020202020200A2020322020332020312020302020202020200A2020332020342020312020302020202020200A2020342020352020312020302020202020200A2020352020312020312020302020202020200A2020352020362020312020302020202020200A2020362020372020312020302020202020200A2020372020312020312020302020202020200A2020362020382020312020302020202020200A2020382020372020312020302020202020200A2020382020392020312020302020202020200A4D2020454E44
Contributor: SASAKI S, TOYOHASHI UNIV. OF TECH.
InstType: EI
InstName: Unknown
IoniMethod: EI
IonPolarity: pos
Date: 2010-10-09 19:48:36+02:00
Num Peaks: 51
26 20 27 130 28 70 29 2 30 20 37 10 38 20 39 2 40 30 41 150 
42 370 43 0 44 110 50 30 51 70 52 1 53 120 54 30 55 50 56 0 
57 30 62 10 63 20 64 0 65 40 66 30 67 80 68 0 69 10 70 10 
77 80 78 0 79 190 80 110 81 70 82 2 83 10 91 240 92 10 93 4 
94 999 95 280 96 40 104 0 106 10 107 20 108 50 120 0 122 100 123 170 
124 20 
