Name: ANILINE-2-SULFONIC ACID
MW: 173
Formula: C6H7NO3S
Synonym: MassBank: JP004087
Synonym: ANILINE-2-SULFONIC ACID
Structure: 414E494C494E452D322D53554C464F4E494320414349442E6D6F6C0A20204368656D447261773038313331303132313932440A2031312031312020302020302020302020302020302020302020302020303939392056323030300A20202020302E3030303020202020312E3132373020202020302E30303030204E202020302020302020302020302020302020302020302020302020302020302020302020300A2020202D302E3431323520202020302E3431323520202020302E303030302043202020302020302020302020302020302020302020302020302020302020302020302020300A20202020302E303030302020202D302E3330323020202020302E303030302043202020302020302020302020302020302020302020302020302020302020302020302020300A2020202D302E343132352020202D312E3031363420202020302E303030302043202020302020302020302020302020302020302020302020302020302020302020302020300A2020202D312E323337352020202D312E3031363420202020302E303030302043202020302020302020302020302020302020302020302020302020302020302020302020300A2020202D312E363530302020202D302E3330323020202020302E303030302043202020302020302020302020302020302020302020302020302020302020302020302020300A2020202D312E3233373520202020302E3431323520202020302E303030302043202020302020302020302020302020302020302020302020302020302020302020302020300A20202020302E383235302020202D302E3330323020202020302E303030302053202020302020302020302020302020302020302020302020302020302020302020302020300A20202020302E3832353020202020302E3532333020202020302E30303030204F202020302020302020302020302020302020302020302020302020302020302020302020300A20202020302E383235302020202D312E3132373020202020302E30303030204F202020302020302020302020302020302020302020302020302020302020302020302020300A20202020312E363530302020202D302E3330323020202020302E30303030204F202020302020302020302020302020302020302020302020302020302020302020302020300A2020312020322020312020302020202020200A2020322020332020312020302020202020200A2020332020342020322020302020202020200A2020342020352020312020302020202020200A2020352020362020322020302020202020200A2020362020372020312020302020202020200A2020322020372020322020302020202020200A2020382020392020322020302020202020200A2020382031302020322020302020202020200A2020382031312020312020302020202020200A2020332020382020312020302020202020200A4D2020454E44
Contributor: YAMAMOTO M, DEP. CHEMISTRY, FAC. SCIENCE, NARA WOMEN'S UNIV.
InstType: EI
InstName: HITACHI M-68
IoniMethod: _ENERGY 70 eV
IonPolarity: pos
Date: 2010-10-09 19:48:36+02:00
Num Peaks: 44
17 26 18 92 26 19 27 44 28 111 36 27 38 132 40 6 41 120 42 33 
45 15 47 3 48 109 49 13 50 64 51 7 52 194 53 73 54 53 61 3 
62 74 63 208 64 330 65 67 66 317 67 44 77 15 78 3 79 33 80 179 
81 30 91 999 92 273 93 721 94 67 106 5 108 85 109 22 138 87 155 48 
156 55 173 820 174 68 175 40 
