Name: MassBank: JP004697
MW: 324
Formula: C12H30F2Si4
Synonym: MassBank: JP004697
Synonym: (Z)-1,2-BIS(FLUORODIMETHYLSILYL)-1,2-BIS(TRIMETHYLSILYL)ETHYLENE
Structure: 285A292D312C322D42495328464C554F524F44494D455448594C53494C594C292D312C322D424953285452494D455448594C53494C594C29455448594C454E452E6D6F6C0A20204368656D447261773130323230393139343132440A2031382031372020302020302020302020302020302020302020302020303939392056323030300A2020202D302E3636303020202020302E3030303020202020302E303030302043202020302020302020302020302020302020302020302020302020302020302020302020300A20202020302E3636303020202020302E3030303020202020302E303030302043202020302020302020302020302020302020302020302020302020302020302020302020300A20202020312E3037323520202020302E3731343520202020302E303030302053692020302020302020302020302020302020302020302020302020302020302020302020300A20202020312E303732352020202D302E3731343520202020302E303030302053692020302020302020302020302020302020302020302020302020302020302020302020300A20202020312E343835302020202D312E3432383920202020302E303030302043202020302020302020302020302020302020302020302020302020302020302020302020300A20202020312E373837302020202D302E3330323020202020302E303030302043202020302020302020302020302020302020302020302020302020302020302020302020300A20202020302E333538302020202D312E3132373020202020302E303030302043202020302020302020302020302020302020302020302020302020302020302020302020300A20202020312E3438353020202020312E3432383920202020302E303030302046202020302020302020302020302020302020302020302020302020302020302020302020300A20202020302E3335383020202020312E3132373020202020302E303030302043202020302020302020302020302020302020302020302020302020302020302020302020300A20202020312E3738373020202020302E3330323020202020302E303030302043202020302020302020302020302020302020302020302020302020302020302020302020300A2020202D312E303732352020202D302E3731343520202020302E303030302053692020302020302020302020302020302020302020302020302020302020302020302020300A2020202D312E3037323520202020302E3731343520202020302E303030302053692020302020302020302020302020302020302020302020302020302020302020302020300A2020202D312E343835302020202D312E3432383920202020302E303030302043202020302020302020302020302020302020302020302020302020302020302020302020300A2020202D312E373837302020202D302E3330323020202020302E303030302043202020302020302020302020302020302020302020302020302020302020302020302020300A2020202D302E333538302020202D312E3132373020202020302E303030302043202020302020302020302020302020302020302020302020302020302020302020302020300A2020202D312E3438353020202020312E3432383920202020302E303030302046202020302020302020302020302020302020302020302020302020302020302020302020300A2020202D302E3335383020202020312E3132373020202020302E303030302043202020302020302020302020302020302020302020302020302020302020302020302020300A2020202D312E3738373020202020302E3330323020202020302E303030302043202020302020302020302020302020302020302020302020302020302020302020302020300A2020312020322020322020302020202020200A2020322020332020312020302020202020200A2020322020342020312020302020202020200A2020342020352020312020302020202020200A2020342020362020312020312020202020200A2020342020372020312020312020202020200A2020332020382020312020302020202020200A2020332020392020312020302020202020200A2020332031302020312020302020202020200A2020312031312020312020302020202020200A2020312031322020312020302020202020200A2031312031332020312020302020202020200A2031312031342020312020312020202020200A2031312031352020312020312020202020200A2031322031362020312020302020202020200A2031322031372020312020302020202020200A2031322031382020312020302020202020200A4D2020454E44
Contributor: MASS SPECTROSCOPY SOC. OF JAPAN (MSSJ)
InstType: EI
InstName: Unknown
IoniMethod: _ENERGY 70 eV
IonPolarity: pos
Date: 2010-10-09 19:48:36+02:00
Num Peaks: 60
43 27 44 25 45 103 47 12 49 11 58 17 59 19 71 10 72 25 73 999 
74 70 75 47 77 52 83 28 85 9 96 12 97 47 99 12 101 10 115 16 
116 17 119 10 125 23 129 13 131 427 132 67 133 37 135 27 139 16 140 582 
141 94 142 43 143 16 144 9 145 12 149 18 153 10 155 336 156 55 157 33 
159 336 160 53 161 28 163 30 217 152 218 36 219 19 221 14 232 351 233 96 
234 47 235 12 236 21 247 9 251 14 309 155 310 49 311 29 324 35 325 14 
