Name: MassBank: JP003026
MW: 275
Formula: C11H17NO3S2
Synonym: MassBank: JP003026
Synonym: 2-ACETOXY-1-ACETYL-3,6-DI-(METHYLMERCAPTO)-1,2,3,6-TETRAHYDRO-PYRIDINE
Structure: 322D414345544F58592D312D41434554594C2D332C362D44492D284D455448594C4D4552434150544F292D312C322C332C362D5445545241485944524F2D5059524944494E452E6D6F6C0A20204368656D447261773132323130393231343132440A2031372031372020302020302020302020302020302020302020302020303939392056323030300A20202020302E323036322020202D302E3335373220202020302E303030302043202020302020302020302020302020302020302020302020302020302020302020302020300A2020202D302E363138382020202D302E3335373220202020302E303030302043202020302020302020302020302020302020302020302020302020302020302020302020300A2020202D312E3033313320202020302E3335373220202020302E303030302043202020302020302020302020302020302020302020302020302020302020302020302020300A2020202D302E3631383820202020312E3037313720202020302E303030302043202020302020302020302020302020302020302020302020302020302020302020302020300A20202020302E3230363220202020312E3037313720202020302E303030302043202020302020302020302020302020302020302020302020302020302020302020302020300A20202020302E3631383820202020302E3335373220202020302E30303030204E202020302020302020302020302020302020302020302020302020302020302020302020300A20202020302E3631383720202020312E3738363220202020302E303030302053202020302020302020302020302020302020302020302020302020302020302020302020300A20202020302E3230363220202020322E3530303620202020302E303030302043202020302020302020302020302020302020302020302020302020302020302020302020300A2020202D312E303331332020202D312E3037313720202020302E303030302053202020302020302020302020302020302020302020302020302020302020302020302020300A2020202D312E383536332020202D312E3037313720202020302E303030302043202020302020302020302020302020302020302020302020302020302020302020302020300A20202020312E3434333720202020302E3335373220202020302E303030302043202020302020302020302020302020302020302020302020302020302020302020302020300A20202020312E3835363320202020312E3037313720202020302E30303030204F202020302020302020302020302020302020302020302020302020302020302020302020300A20202020312E383536322020202D302E3335373220202020302E303030302043202020302020302020302020302020302020302020302020302020302020302020302020300A20202020302E363138382020202D312E3037313720202020302E30303030204F202020302020302020302020302020302020302020302020302020302020302020302020300A20202020302E323036322020202D312E3738363220202020302E303030302043202020302020302020302020302020302020302020302020302020302020302020302020300A20202020302E363138372020202D322E3530303620202020302E30303030204F202020302020302020302020302020302020302020302020302020302020302020302020300A2020202D302E363138382020202D312E3738363220202020302E303030302043202020302020302020302020302020302020302020302020302020302020302020302020300A2020312020322020312020302020202020200A2020322020332020312020302020202020200A2020332020342020322020302020202020200A2020342020352020312020302020202020200A2020352020362020312020302020202020200A2020312020362020312020302020202020200A2020372020382020312020302020202020200A2020352020372020312020302020202020200A2020392031302020312020302020202020200A2020322020392020312020302020202020200A2031312031322020322020302020202020200A2031312031332020312020302020202020200A2020362031312020312020302020202020200A2031352031362020322020302020202020200A2031352031372020312020302020202020200A2031342031352020312020302020202020200A2020312031342020312020302020202020200A4D2020454E44
Contributor: SASAKI S, TOYOHASHI UNIV. OF TECH.
InstType: EI
InstName: Unknown
IoniMethod: EI
IonPolarity: pos
Date: 2010-10-09 19:48:36+02:00
Num Peaks: 30
32 60 33 70 39 100 41 10 43 840 45 200 46 50 47 1 48 80 51 60 
52 100 53 2 54 70 68 80 78 120 79 3 80 520 90 170 96 420 111 1 
112 80 125 270 126 999 127 1 128 60 138 120 168 230 228 4 275 40 276 10 
