Name: 2-HYDROXY-3-METHOXY MANDELIC ACID
MW: 198
Formula: C9H10O5
Synonym: MassBank: JP002877
Synonym: 2-HYDROXY-3-METHOXY MANDELIC ACID
Structure: 322D485944524F58592D332D4D4554484F5859204D414E44454C494320414349442E6D6F6C0A20204368656D447261773031323131303134343432440A2031342031342020302020302020302020302020302020302020302020303939392056323030300A20202020302E3030303020202020312E3738363220202020302E303030302043202020302020302020302020302020302020302020302020302020302020302020302020300A20202020302E3431323520202020312E3037313720202020302E303030302043202020302020302020302020302020302020302020302020302020302020302020302020300A20202020312E3233373520202020312E3037313720202020302E30303030204F202020302020302020302020302020302020302020302020302020302020302020302020300A20202020302E3030303020202020302E3335373220202020302E303030302043202020302020302020302020302020302020302020302020302020302020302020302020300A20202020302E343132352020202D302E3335373220202020302E303030302043202020302020302020302020302020302020302020302020302020302020302020302020300A20202020302E303030302020202D312E3037313720202020302E303030302043202020302020302020302020302020302020302020302020302020302020302020302020300A2020202D302E383235302020202D312E3037313720202020302E303030302043202020302020302020302020302020302020302020302020302020302020302020302020300A2020202D312E323337352020202D302E3335373220202020302E303030302043202020302020302020302020302020302020302020302020302020302020302020302020300A2020202D302E3832353020202020302E3335373220202020302E303030302043202020302020302020302020302020302020302020302020302020302020302020302020300A2020202D302E3832353020202020312E3738363220202020302E30303030204F202020302020302020302020302020302020302020302020302020302020302020302020300A20202020302E3431323520202020322E3530303620202020302E30303030204F202020302020302020302020302020302020302020302020302020302020302020302020300A20202020302E343132352020202D312E3738363220202020302E30303030204F202020302020302020302020302020302020302020302020302020302020302020302020300A20202020302E303030302020202D322E3530303620202020302E303030302043202020302020302020302020302020302020302020302020302020302020302020302020300A20202020312E323337352020202D302E3335373220202020302E30303030204F202020302020302020302020302020302020302020302020302020302020302020302020300A2020312020322020312020302020202020200A2020322020332020312020302020202020200A2020322020342020312020302020202020200A2020342020352020312020302020202020200A2020352020362020322020302020202020200A2020362020372020312020302020202020200A2020372020382020322020302020202020200A2020382020392020312020302020202020200A2020342020392020322020302020202020200A2020312031302020322020302020202020200A2020312031312020312020302020202020200A2031322031332020312020302020202020200A2020362031322020312020302020202020200A2020352031342020312020302020202020200A4D2020454E44
Contributor: MASS SPECTROSCOPY SOC. OF JAPAN (MSSJ)
InstType: EI
InstName: Unknown
IoniMethod: EI
IonPolarity: pos
Date: 2010-10-09 19:48:36+02:00
Num Peaks: 62
27 125 29 109 31 35 38 36 39 278 41 32 43 28 44 81 45 70 50 74 
51 152 52 109 53 186 55 108 62 22 63 133 64 95 65 535 66 67 69 34 
75 20 76 88 77 136 78 168 79 69 80 45 81 192 92 142 93 999 94 98 
104 37 105 81 106 370 107 150 108 89 109 154 110 210 119 40 120 112 121 67 
122 120 123 44 124 26 125 277 134 75 135 130 136 208 137 265 138 170 139 24 
151 122 152 347 153 988 154 91 162 397 163 51 164 69 180 327 181 33 182 66 
198 591 199 61 
