Name: MassBank: JP006636
MW: 383
Formula: C20H22BrN3
Synonym: MassBank: JP006636
Synonym: 8-BROMO-2-METHYL-5-(2-(6-METHYL-3-PYRIDYL)ETHYL)-1,2,3,4-TETRAHYDRO-GAMMA-CARBOLINE
Structure: 382D42524F4D4F2D322D4D455448594C2D352D28322D28362D4D455448594C2D332D5059524944594C29455448594C292D312C322C332C342D5445545241485944524F2D47414D4D412D434152424F4C494E452E6D6F6C0A20204368656D447261773035323431303231313732440A2032342032372020302020302020302020302020302020302020302020303939392056323030300A2020202D312E393830332020202D312E3434333820202020302E303030302043202020302020302020302020302020302020302020302020302020302020302020302020300A2020202D312E393830332020202D322E3236383720202020302E303030302043202020302020302020302020302020302020302020302020302020302020302020302020300A2020202D312E323635382020202D322E3638313220202020302E303030302043202020302020302020302020302020302020302020302020302020302020302020302020300A2020202D302E353531332020202D322E3236383720202020302E303030302043202020302020302020302020302020302020302020302020302020302020302020302020300A2020202D302E353531332020202D312E3434333820202020302E303030302043202020302020302020302020302020302020302020302020302020302020302020302020300A2020202D312E323635382020202D312E3033313320202020302E303030302043202020302020302020302020302020302020302020302020302020302020302020302020300A20202020302E323333332020202D322E3532333720202020302E30303030204E202020302020302020302020302020302020302020302020302020302020302020302020300A20202020302E373138322020202D312E3835363320202020302E303030302043202020302020302020302020302020302020302020302020302020302020302020302020300A20202020302E323333332020202D312E3138383820202020302E303030302043202020302020302020302020302020302020302020302020302020302020302020302020300A20202020312E353338372020202D312E3737303020202020302E303030302043202020302020302020302020302020302020302020302020302020302020302020302020300A20202020312E383734332020202D312E3031363320202020302E303030302043202020302020302020302020302020302020302020302020302020302020302020302020300A20202020312E333839332020202D302E3334383920202020302E30303030204E202020302020302020302020302020302020302020302020302020302020302020302020300A20202020302E353638392020202D302E3433353120202020302E303030302043202020302020302020302020302020302020302020302020302020302020302020302020300A20202020322E363934372020202D302E3933303120202020302E303030302043202020302020302020302020302020302020302020302020302020302020302020302020300A2020202D312E323635382020202D332E3530363320202020302E303030302042722020302020302020302020302020302020302020302020302020302020302020302020300A2020202D312E323635382020202D302E3230363220202020302E303030302043202020302020302020302020302020302020302020302020302020302020302020302020300A2020202D312E3938303320202020302E3230363220202020302E303030302043202020302020302020302020302020302020302020302020302020302020302020302020300A2020202D312E3938303320202020312E3033313320202020302E303030302043202020302020302020302020302020302020302020302020302020302020302020302020300A2020202D312E3236353820202020312E3434333820202020302E303030302043202020302020302020302020302020302020302020302020302020302020302020302020300A2020202D312E3236353820202020322E3236383720202020302E303030302043202020302020302020302020302020302020302020302020302020302020302020302020300A2020202D312E3938303320202020322E3638313220202020302E303030302043202020302020302020302020302020302020302020302020302020302020302020302020300A2020202D322E3639343720202020322E3236383720202020302E30303030204E202020302020302020302020302020302020302020302020302020302020302020302020300A2020202D322E3639343720202020312E3434333820202020302E303030302043202020302020302020302020302020302020302020302020302020302020302020302020300A2020202D312E3938303320202020332E3530363320202020302E303030302043202020302020302020302020302020302020302020302020302020302020302020302020300A2020312020322020322020302020202020200A2020322020332020312020302020202020200A2020332020342020322020302020202020200A2020342020352020312020302020202020200A2020352020362020322020302020202020200A2020362020312020312020302020202020200A2020342020372020312020302020202020200A2020372020382020312020302020202020200A2020382020392020322020302020202020200A2020392020352020312020302020202020200A2020382031302020312020302020202020200A2031302031312020312020302020202020200A2031312031322020312020302020202020200A2031322031332020312020302020202020200A2031332020392020312020302020202020200A2031312031342020312020302020202020200A2020332031352020312020302020202020200A2020362031362020312020302020202020200A2031362031372020312020302020202020200A2031372031382020312020302020202020200A2031382031392020322020302020202020200A2031392032302020312020302020202020200A2032302032312020322020302020202020200A2032312032322020312020302020202020200A2032322032332020322020302020202020200A2032332031382020312020302020202020200A2032312032342020312020302020202020200A4D2020454E44
Contributor: SASAKI S, TOYOHASHI UNIV. OF TECH.
InstType: EI
InstName: JEOL JMS-01-SG-2
IoniMethod: _ENERGY 75 eV
IonPolarity: pos
Date: 2010-10-09 19:48:36+02:00
Num Peaks: 31
43 31 57 21 91 21 105 3 106 27 115 42 119 40 120 10 155 150 156 10 
221 883 222 6 223 861 224 54 234 999 235 8 236 956 237 67 261 57 263 2 
265 10 277 88 279 79 340 25 341 57 342 242 343 54 382 34 383 641 384 411 
385 622 
