Name: 2-METHYL-5-PROPIONYLTHIOPHENE
MW: 154
Formula: C8H10OS
Synonym: MassBank: JP007786
Synonym: 2-METHYL-5-PROPIONYLTHIOPHENE
Structure: 322D4D455448594C2D352D50524F50494F4E594C5448494F5048454E452E6D6F6C0A20204368656D447261773031323231303037323232440A2031302031302020302020302020302020302020302020302020302020303939392056323030300A20202020302E393537312020202D302E3430303320202020302E303030302043202020302020302020302020302020302020302020302020302020302020302020302020300A20202020302E353434362020202D312E3131343820202020302E303030302043202020302020302020302020302020302020302020302020302020302020302020302020300A2020202D302E323632342020202D302E3934333220202020302E303030302043202020302020302020302020302020302020302020302020302020302020302020302020300A2020202D302E333438362020202D302E3132323720202020302E303030302043202020302020302020302020302020302020302020302020302020302020302020302020300A20202020302E3430353120202020302E3231323820202020302E303030302053202020302020302020302020302020302020302020302020302020302020302020302020300A2020202D312E3036333120202020302E3238393820202020302E303030302043202020302020302020302020302020302020302020302020302020302020302020302020300A2020202D312E3036333120202020312E3131343820202020302E30303030204F202020302020302020302020302020302020302020302020302020302020302020302020300A2020202D312E373737362020202D302E3132323720202020302E303030302043202020302020302020302020302020302020302020302020302020302020302020302020300A2020202D312E373737362020202D302E3934373720202020302E303030302043202020302020302020302020302020302020302020302020302020302020302020302020300A20202020312E373737362020202D302E3331343020202020302E303030302043202020302020302020302020302020302020302020302020302020302020302020302020300A2020312020322020322020302020202020200A2020322020332020312020302020202020200A2020332020342020322020302020202020200A2020342020352020312020302020202020200A2020312020352020312020302020202020200A2020362020372020322020302020202020200A2020362020382020312020302020202020200A2020382020392020312020302020202020200A2020342020362020312020302020202020200A2020312031302020312020302020202020200A4D2020454E44
Contributor: HASHIMOTO K, KYOTO COLLEGE OF PHARMACY
InstType: EI
InstName: HITACHI M-80
IoniMethod: _ENERGY 20 eV
IonPolarity: pos
Date: 2010-10-09 19:48:36+02:00
Num Peaks: 28
29 61 41 15 42 14 43 97 53 520 54 20 55 41 57 22 59 10 60 36 
69 11 73 11 75 21 96 11 97 282 98 19 99 11 101 47 124 11 125 999 
126 281 127 282 128 10 139 19 143 10 154 545 155 132 156 65 
