Name: MassBank: JP009465
MW: 226
Formula: C13H10N2O2
Synonym: MassBank: JP009465
Synonym: 1-CARBOXY-5,10-DIHYDROPHENAZINE
Structure: 312D434152424F58592D352C31302D4449485944524F5048454E415A494E452E6D6F6C0A20204368656D447261773131313830393030333732440A2031372031392020302020302020302020302020302020302020302020303939392056323030300A2020202D312E323337352020202D302E3030303020202020302E303030302043202020302020302020302020302020302020302020302020302020302020302020302020300A2020202D312E3635303020202020302E3731343520202020302E303030302043202020302020302020302020302020302020302020302020302020302020302020302020300A2020202D312E3233373520202020312E3432383920202020302E303030302043202020302020302020302020302020302020302020302020302020302020302020302020300A2020202D302E3431323520202020312E3432383920202020302E303030302043202020302020302020302020302020302020302020302020302020302020302020302020300A2020202D302E3030303020202020302E3731343520202020302E303030302043202020302020302020302020302020302020302020302020302020302020302020302020300A20202020302E3832353020202020302E3731343520202020302E30303030204E202020302020302020302020302020302020302020302020302020302020302020302020300A20202020312E3233373520202020302E3030303020202020302E303030302043202020302020302020302020302020302020302020302020302020302020302020302020300A20202020322E3036323520202020302E3030303020202020302E303030302043202020302020302020302020302020302020302020302020302020302020302020302020300A20202020322E343735302020202D302E3731343520202020302E303030302043202020302020302020302020302020302020302020302020302020302020302020302020300A20202020322E303632352020202D312E3432383920202020302E303030302043202020302020302020302020302020302020302020302020302020302020302020302020300A20202020312E323337352020202D312E3432383920202020302E303030302043202020302020302020302020302020302020302020302020302020302020302020302020300A20202020302E383235302020202D302E3731343520202020302E303030302043202020302020302020302020302020302020302020302020302020302020302020302020300A20202020302E303030302020202D302E3731343520202020302E30303030204E202020302020302020302020302020302020302020302020302020302020302020302020300A2020202D302E3431323520202020302E3030303020202020302E303030302043202020302020302020302020302020302020302020302020302020302020302020302020300A2020202D312E363530302020202D302E3731343520202020302E303030302043202020302020302020302020302020302020302020302020302020302020302020302020300A2020202D312E323337352020202D312E3432383920202020302E30303030204F202020302020302020302020302020302020302020302020302020302020302020302020300A2020202D322E343735302020202D302E3731343520202020302E30303030204F202020302020302020302020302020302020302020302020302020302020302020302020300A2020312020322020312020302020202020200A2020322020332020322020302020202020200A2020332020342020312020302020202020200A2020342020352020322020302020202020200A2020352020362020312020302020202020200A2020362020372020312020302020202020200A2020372020382020312020302020202020200A2020382020392020322020302020202020200A2020392031302020312020302020202020200A2031302031312020322020302020202020200A2031312031322020312020302020202020200A2020372031322020322020302020202020200A2031322031332020312020302020202020200A2031332031342020312020302020202020200A2020352031342020312020302020202020200A2020312031342020322020302020202020200A2031352031362020322020302020202020200A2031352031372020312020302020202020200A2020312031352020312020302020202020200A4D2020454E44
Contributor: EGUCHI S, FAC. OF SCIENCE, HIROSHIMA UNIV.
InstType: EI
InstName: HITACHI RMU-7L
IoniMethod: _ENERGY 70 eV
IonPolarity: pos
Date: 2010-10-09 19:48:36+02:00
Num Peaks: 64
50 40 51 50 52 30 53 25 54 20 62 15 63 50 64 20 65 15 69 10 
71 15 74 25 75 45 76 60 76.5 25 77 85 78 30 84 5 85 5 86 10 
87 10 88 10 89 15 89.5 25 90 110 90.5 30 91 10 95 10 97 10 99 10 
100 15 101 20 102 50 103 30 103.5 15 104 100 104.5 20 105 15 113 20 124 5 
125 20 126 15 127 40 128 20 129 30 130 10 140 10 151 20 152 70 153 80 
154 40 155 15 179 320 180 999 181 200 182 25 207 60 208 170 209 35 210 10 
225 40 226 865 227 90 228 20 
