Name: DIMETHOATE
MW: 228
Formula: C5H12NO3PS2
Synonym: MassBank: JP003249
Synonym: DIMETHOATE
Structure: 44494D4554484F4154452E6D6F6C0A20204368656D447261773039323231303030353332440A2031322031312020302020302020302020302020302020302020302020303939392056323030300A2020202D302E3435333020202020302E3631383820202020302E303030302050202020302020302020302020302020302020302020302020302020302020302020302020300A2020202D302E3435333020202020312E3434333820202020302E30303030204F202020302020302020302020302020302020302020302020302020302020302020302020300A2020202D312E3237383020202020302E3631383820202020302E30303030204F202020302020302020302020302020302020302020302020302020302020302020302020300A2020202D302E343533302020202D302E3230363220202020302E303030302053202020302020302020302020302020302020302020302020302020302020302020302020300A20202020302E3337323020202020302E3631383820202020302E303030302053202020302020302020302020302020302020302020302020302020302020302020302020300A20202020302E323631352020202D302E3631383820202020302E303030302043202020302020302020302020302020302020302020302020302020302020302020302020300A20202020302E323631352020202D312E3434333820202020302E303030302043202020302020302020302020302020302020302020302020302020302020302020302020300A2020202D302E343533302020202D312E3835363320202020302E30303030204F202020302020302020302020302020302020302020302020302020302020302020302020300A20202020302E393736302020202D312E3835363320202020302E30303030204E202020302020302020302020302020302020302020302020302020302020302020302020300A20202020312E363930352020202D312E3434333720202020302E303030302043202020302020302020302020302020302020302020302020302020302020302020302020300A2020202D312E363930352020202D302E3039353720202020302E303030302043202020302020302020302020302020302020302020302020302020302020302020302020300A20202020302E3236313520202020312E3835363320202020302E303030302043202020302020302020302020302020302020302020302020302020302020302020302020300A2020312020322020312020302020202020200A2020312020332020312020302020202020200A2020312020342020312020302020202020200A2020312020352020322020302020202020200A2020362020372020312020302020202020200A2020372020382020322020302020202020200A2020392031302020312020302020202020200A2020372020392020312020302020202020200A2020342020362020312020302020202020200A2020332031312020312020302020202020200A2020322031322020312020302020202020200A4D2020454E44
Contributor: MASS SPECTROSCOPY SOC. OF JAPAN (MSSJ)
InstType: EI
InstName: HITACHI RMU-6E
IoniMethod: _ENERGY 70 eV
IonPolarity: pos
Date: 2010-10-09 19:48:36+02:00
Num Peaks: 14
229 380 143 290 126 220 125 800 105 150 104 170 93 810 88 220 87 999 79 340 
63 340 58 470 56 210 47 430 
