Name: 2-THIOPHENECARBOXYLIC ACID METHYL ESTER
CAS: 5380-42-7
MW: 142
Formula: C6H6O2S
Synonym: MassBank: JP004248
Synonym: 2-THIOPHENECARBOXYLIC ACID METHYL ESTER
Structure: 310A32330A322D5448494F5048454E45434152424F58594C49432041434944204D455448594C2045535445522E6D6F6C0A20204368656D447261773032323131303136323932440A2020392020392020302020302020302020302020302020302020302020303939392056323030300A20202020302E303136302020202D302E3335373220202020302E303030302043202020302020302020302020302020302020302020302020302020302020302020302020300A2020202D302E343638392020202D312E3032343720202020302E303030302043202020302020302020302020302020302020302020302020302020302020302020302020300A2020202D312E323533352020202D302E3736393720202020302E303030302043202020302020302020302020302020302020302020302020302020302020302020302020300A2020202D312E3235333520202020302E3035353320202020302E303030302043202020302020302020302020302020302020302020302020302020302020302020302020300A2020202D302E3436383920202020302E3331303220202020302E303030302053202020302020302020302020302020302020302020302020302020302020302020302020300A20202020302E383431302020202D302E3335373220202020302E303030302043202020302020302020302020302020302020302020302020302020302020302020302020300A20202020312E323533352020202D312E3037313720202020302E30303030204F202020302020302020302020302020302020302020302020302020302020302020302020300A20202020312E3235333520202020302E3335373220202020302E30303030204F202020302020302020302020302020302020302020302020302020302020302020302020300A20202020302E3834313020202020312E3037313720202020302E303030302043202020302020302020302020302020302020302020302020302020302020302020302020300A2020312020322020322020302020202020200A2020322020332020312020302020202020200A2020332020342020322020302020202020200A2020342020352020312020302020202020200A2020312020352020312020302020202020200A2020362020372020322020302020202020200A2020362020382020312020302020202020200A2020312020362020312020302020202020200A2020382020392020312020302020202020200A4D2020454E44
Contributor: KOGA M, UNIV. OF OCCUPATIONAL AND ENVIRONMENTAL HEALTH
InstType: EI
InstName: JEOL JMS-01-SG
IoniMethod: _ENERGY 70 eV
IonPolarity: pos
Date: 2010-10-09 19:48:36+02:00
Num Peaks: 14
38 13 39 223 57 13 81 1 82 17 83 87 97 8 111 999 112 70 113 43 
141 21 142 37 143 26 144 17 
