Name: 2-CHLORO-4-QUINOLINECARBOXYLIC ACID TRIMETHYLSILYL ESTER
MW: 279
Formula: C13H14ClNO2Si
Synonym: MassBank: JP003957
Synonym: 2-CHLORO-4-QUINOLINECARBOXYLIC ACID TRIMETHYLSILYL ESTER
Structure: 322D43484C4F524F2D342D5155494E4F4C494E45434152424F58594C49432041434944205452494D455448594C53494C594C2045535445522E6D6F6C0A20204368656D447261773031303331303130343232440A2031382031392020302020302020302020302020302020302020302020303939392056323030300A20202020302E3330323020202020322E3236383820202020302E30303030204E202020302020302020302020302020302020302020302020302020302020302020302020300A20202020312E3031363420202020312E3835363220202020302E303030302043202020302020302020302020302020302020302020302020302020302020302020302020300A20202020312E3031363420202020312E3033313320202020302E303030302043202020302020302020302020302020302020302020302020302020302020302020302020300A20202020302E3330323020202020302E3631383720202020302E303030302043202020302020302020302020302020302020302020302020302020302020302020302020300A2020202D302E3431323520202020312E3033313220202020302E303030302043202020302020302020302020302020302020302020302020302020302020302020302020300A2020202D312E3132373020202020302E3631383720202020302E303030302043202020302020302020302020302020302020302020302020302020302020302020302020300A2020202D312E3834313420202020312E3033313220202020302E303030302043202020302020302020302020302020302020302020302020302020302020302020302020300A2020202D312E3834313420202020312E3835363220202020302E303030302043202020302020302020302020302020302020302020302020302020302020302020302020300A2020202D312E3132373020202020322E3236383720202020302E303030302043202020302020302020302020302020302020302020302020302020302020302020302020300A2020202D302E3431323520202020312E3835363220202020302E303030302043202020302020302020302020302020302020302020302020302020302020302020302020300A20202020302E333032302020202D302E3230363320202020302E303030302043202020302020302020302020302020302020302020302020302020302020302020302020300A2020202D302E343132352020202D302E3631383820202020302E30303030204F202020302020302020302020302020302020302020302020302020302020302020302020300A20202020312E303136342020202D302E3631383820202020302E30303030204F202020302020302020302020302020302020302020302020302020302020302020302020300A20202020312E3733303920202020322E3236383820202020302E3030303020436C2020302020302020302020302020302020302020302020302020302020302020302020300A20202020312E303136342020202D312E3434333820202020302E303030302053692020302020302020302020302020302020302020302020302020302020302020302020300A20202020312E383431342020202D312E3434333820202020302E303030302043202020302020302020302020302020302020302020302020302020302020302020302020300A20202020312E303136342020202D322E3236383820202020302E303030302043202020302020302020302020302020302020302020302020302020302020302020302020300A20202020302E313931342020202D312E3434333820202020302E303030302043202020302020302020302020302020302020302020302020302020302020302020302020300A2020312020322020312020302020202020200A2020322020332020322020302020202020200A2020332020342020312020302020202020200A2020342020352020322020302020202020200A2020352020362020312020302020202020200A2020362020372020322020302020202020200A2020372020382020312020302020202020200A2020382020392020322020302020202020200A2020392031302020312020302020202020200A2020312031302020322020302020202020200A2020352031302020312020302020202020200A2031312031322020322020302020202020200A2031312031332020312020302020202020200A2020342031312020312020302020202020200A2020322031342020312020302020202020200A2031352031362020312020302020202020200A2031352031372020312020302020202020200A2031352031382020312020302020202020200A2031332031352020312020302020202020200A4D2020454E44
Contributor: MASS SPECTROSCOPY SOC. OF JAPAN (MSSJ)
InstType: EI
InstName: HITACHI M-60
IoniMethod: _ENERGY 20 eV
IonPolarity: pos
Date: 2010-10-09 19:48:36+02:00
Num Peaks: 80
49 4 71 3 72 15 73 150 74 11 75 10 76 4 77 106 78 9 79 5 
81 2 83 2 92 2 93 43 94 3 95 17 96 3 97 1 101 8 116 2 
117 18 126 5 127 28 128 4 129 3 132 12 133 2 138 7 149 4 156 3 
162 203 163 23 164 69 165 7 170 4 182 2 184 51 185 10 186 8 187 2 
190 330 191 41 192 125 193 14 198 1 200 6 201 4 202 2 206 3 218 2 
219 1 220 271 221 46 222 120 223 17 224 5 234 6 235 8 236 5 237 2 
244 16 245 4 246 23 247 4 248 5 250 28 252 13 261 40 262 11 264 999 
265 232 266 469 267 83 268 17 269 2 278 6 279 300 280 61 281 110 282 23 
