Name: ETHANETHIOL
MW: 62
Formula: C2H6S
Synonym: MassBank: JP005433
Synonym: ETHANETHIOL
Structure: 310A31300A455448414E455448494F4C2E6D6F6C0A20204368656D447261773038313131303137353932440A2020332020322020302020302020302020302020302020302020302020303939392056323030300A20202020302E3030303020202020302E3230363220202020302E303030302043202020302020302020302020302020302020302020302020302020302020302020302020300A20202020302E373134352020202D302E3230363220202020302E303030302043202020302020302020302020302020302020302020302020302020302020302020302020300A2020202D302E373134352020202D302E3230363220202020302E303030302053202020302020302020302020302020302020302020302020302020302020302020302020300A2020312020322020312020302020202020200A2020312020332020312020302020202020200A4D2020454E44
Contributor: TAJIMA S, GUNMA COLLEGE OF TECHNOLOGY
InstType: EI
InstName: HITACHI RMU-7M
IoniMethod: _ENERGY 70 eV
IonPolarity: pos
Date: 2010-10-09 19:48:36+02:00
Num Peaks: 18
26 94 27 488 28 240 29 792 33 30 34 146 35 126 45 142 46 111 47 613 
49 27 57 54 58 79 59 61 61 143 62 999 63 175 64 48 
