Name: MassBank: JP002382
MW: 235
Formula: C16H29N
Synonym: MassBank: JP002382
Synonym: N-(3,3,5-TRIMETHYLCYCLOHEXYL)-2-METHYLCYCLOHEXANIMINE
Structure: 4E2D28332C332C352D5452494D455448594C4359434C4F484558594C292D322D4D455448594C4359434C4F484558414E494D494E452E6D6F6C0A20204368656D447261773038313231303031313732440A2031372031382020302020302020302020302020302020302020302020303939392056323030300A2020202D312E303731372020202D302E3331363020202020302E303030302043202020302020302020302020302020302020302020302020302020302020302020302020300A2020202D312E373836322020202D302E3732383520202020302E303030302043202020302020302020302020302020302020302020302020302020302020302020302020300A2020202D322E353030362020202D302E3331363020202020302E303030302043202020302020302020302020302020302020302020302020302020302020302020302020300A2020202D322E3530303620202020302E3530393020202020302E303030302043202020302020302020302020302020302020302020302020302020302020302020302020300A2020202D312E3738363220202020302E3932313520202020302E303030302043202020302020302020302020302020302020302020302020302020302020302020302020300A2020202D312E3037313720202020302E3530393020202020302E303030302043202020302020302020302020302020302020302020302020302020302020302020302020300A2020202D312E373836322020202D312E3535333520202020302E303030302043202020302020302020302020302020302020302020302020302020302020302020302020300A2020202D302E333537322020202D302E3732383520202020302E30303030204E202020302020302020302020302020302020302020302020302020302020302020302020300A20202020302E333537322020202D302E3331363020202020302E303030302043202020302020302020302020302020302020302020302020302020302020302020302020300A20202020302E3335373220202020302E3530393020202020302E303030302043202020302020302020302020302020302020302020302020302020302020302020302020300A20202020312E3037313720202020302E3932313520202020302E303030302043202020302020302020302020302020302020302020302020302020302020302020302020300A20202020312E3738363220202020302E3530393020202020302E303030302043202020302020302020302020302020302020302020302020302020302020302020302020300A20202020312E373836322020202D302E3331363020202020302E303030302043202020302020302020302020302020302020302020302020302020302020302020302020300A20202020312E303731372020202D302E3732383520202020302E303030302043202020302020302020302020302020302020302020302020302020302020302020302020300A20202020322E353030362020202D302E3732383520202020302E303030302043202020302020302020302020302020302020302020302020302020302020302020302020300A20202020302E3534313420202020312E3535333520202020302E303030302043202020302020302020302020302020302020302020302020302020302020302020302020300A20202020312E3630323020202020312E3535333520202020302E303030302043202020302020302020302020302020302020302020302020302020302020302020302020300A2020312020322020312020302020202020200A2020322020332020312020302020202020200A2020332020342020312020302020202020200A2020342020352020312020302020202020200A2020352020362020312020302020202020200A2020312020362020312020302020202020200A2020322020372020312020302020202020200A2020312020382020322020302020202020200A2020392031302020312020302020202020200A2031302031312020312020302020202020200A2031312031322020312020302020202020200A2031322031332020312020302020202020200A2031332031342020312020302020202020200A2020392031342020312020302020202020200A2031332031352020312020302020202020200A2031312031362020312020302020202020200A2031312031372020312020302020202020200A2020382020392020312020302020202020200A4D2020454E44
Contributor: MASS SPECTROSCOPY SOC. OF JAPAN (MSSJ)
InstType: EI
InstName: JEOL JMS-D-300
IoniMethod: _ENERGY 70 eV
IonPolarity: pos
Date: 2010-10-09 19:48:36+02:00
Num Peaks: 26
43 112 53 82 55 364 57 152 67 170 68 105 69 999 70 83 79 81 81 118 
83 337 95 90 107 81 109 113 110 224 112 404 123 105 124 83 125 196 160 124 
174 94 178 122 218 132 220 269 233 96 235 190 
