Name: MassBank: JP003138
MW: 314
Formula: C18H18O5
Synonym: MassBank: JP003138
Synonym: 3,9,10-TRIMETHOXYPTEROCARPAN
Structure: 332C392C31302D5452494D4554484F5859505445524F43415250414E2E6D6F6C0A20204368656D447261773032323231303038353132440A2032352032382020302020302020302020302020302020302020302020303939392056323030300A2020202D312E3734383320202020312E3930333420202020302E303030302043202020302020302020302020302020302020302020302020302020302020302020302020300A2020202D312E3734383320202020312E3037383420202020302E303030302043202020302020302020302020302020302020302020302020302020302020302020302020300A2020202D312E3033333920202020302E3636353920202020302E303030302043202020302020302020302020302020302020302020302020302020302020302020302020300A2020202D302E3331393420202020312E3037383420202020302E303030302043202020302020302020302020302020302020302020302020302020302020302020302020300A2020202D302E3331393420202020312E3930333420202020302E303030302043202020302020302020302020302020302020302020302020302020302020302020302020300A2020202D312E3033333920202020322E3331353920202020302E303030302043202020302020302020302020302020302020302020302020302020302020302020302020300A20202020302E3339353020202020302E3636353920202020302E303030302043202020302020302020302020302020302020302020302020302020302020302020302020300A20202020312E3130393420202020312E3037383420202020302E303030302043202020302020302020302020302020302020302020302020302020302020302020302020300A20202020312E3130393420202020312E3930333420202020302E303030302043202020302020302020302020302020302020302020302020302020302020302020302020300A20202020302E3339353020202020322E3331353920202020302E30303030204F202020302020302020302020302020302020302020302020302020302020302020302020300A20202020302E353636352020202D302E3134313120202020302E30303030204F202020302020302020302020302020302020302020302020302020302020302020302020300A20202020312E333837302020202D302E3232373320202020302E303030302043202020302020302020302020302020302020302020302020302020302020302020302020300A20202020312E3732323520202020302E3532363320202020302E303030302043202020302020302020302020302020302020302020302020302020302020302020302020300A20202020312E383731392020202D302E3839343720202020302E303030302043202020302020302020302020302020302020302020302020302020302020302020302020300A20202020322E363932342020202D302E3830383420202020302E303030302043202020302020302020302020302020302020302020302020302020302020302020302020300A20202020332E303237392020202D302E3035343920202020302E303030302043202020302020302020302020302020302020302020302020302020302020302020302020300A20202020322E3534333020202020302E3631323620202020302E303030302043202020302020302020302020302020302020302020302020302020302020302020302020300A2020202D302E3331393420202020302E3235333420202020302E303030302048202020302020302020302020302020302020302020302020302020302020302020302020300A20202020312E3832333920202020312E3439303920202020302E303030302048202020302020302020302020302020302020302020302020302020302020302020302020300A2020202D322E3436323820202020322E3331353920202020302E30303030204F202020302020302020302020302020302020302020302020302020302020302020302020300A2020202D332E3137373320202020312E3930333420202020302E303030302043202020302020302020302020302020302020302020302020302020302020302020302020300A20202020332E313737332020202D312E3437353920202020302E30303030204F202020302020302020302020302020302020302020302020302020302020302020302020300A20202020322E383431382020202D322E3232393620202020302E303030302043202020302020302020302020302020302020302020302020302020302020302020302020300A20202020312E353336332020202D312E3634383420202020302E30303030204F202020302020302020302020302020302020302020302020302020302020302020302020300A20202020322E303231332020202D322E3331353920202020302E303030302043202020302020302020302020302020302020302020302020302020302020302020302020300A2020312020322020322020302020202020200A2020322020332020312020302020202020200A2020332020342020322020302020202020200A2020342020352020312020302020202020200A2020352020362020322020302020202020200A2020362020312020312020302020202020200A2020342020372020312020302020202020200A2020372020382020312020302020202020200A2020382020392020312020302020202020200A2020392031302020312020302020202020200A2031302020352020312020302020202020200A2020372031312020312020302020202020200A2031312031322020312020302020202020200A2031322031332020322020302020202020200A2031332020382020312020302020202020200A2031322031342020312020302020202020200A2031342031352020322020302020202020200A2031352031362020312020302020202020200A2031362031372020322020302020202020200A2031372031332020312020302020202020200A2020372031382020312020362020202020200A2020382031392020312020362020202020200A2020312032302020312020302020202020200A2032302032312020312020302020202020200A2031352032322020312020302020202020200A2032322032332020312020302020202020200A2031342032342020312020302020202020200A2032342032352020312020302020202020200A4D2020454E44
Contributor: NAKAYAMA M, MASS SPECTROSCOPY SOC. OF JAPAN (MSSJ)
InstType: EI
InstName: HITACHI RMU-7L
IoniMethod: _ENERGY 70 eV
IonPolarity: pos
Date: 2010-10-09 19:48:36+02:00
Num Peaks: 24
115 120 123 110 127 190 128 340 133 250 137 250 139 180 147 140 148 450 151 180 
152 90 157 340 161 410 162 100 165 130 166 160 168 90 178 180 185 90 191 100 
299 210 313 190 314 999 315 160 
