Name: MassBank: JP000775
MW: 246
Formula: C16H22O2
Synonym: MassBank: JP000775
Synonym: 15-METHOXYBICYCLO(8.3.2)PENTADECA-1(13),10(15),11-TRIEN-14-ONE
Structure: 31352D4D4554484F585942494359434C4F28382E332E322950454E5441444543412D31283133292C3130283135292C31312D545249454E2D31342D4F4E452E6D6F6C0A20204368656D447261773132313030393232313632440A2031382031392020302020302020302020302020302020302020302020303939392056323030300A2020202D312E313530322020202D302E3435393320202020302E303030302043202020302020302020302020302020302020302020302020302020302020302020302020300A2020202D302E383039382020202D312E3034383720202020302E303030302043202020302020302020302020302020302020302020302020302020302020302020302020300A2020202D302E323139372020202D312E3338393420202020302E303030302043202020302020302020302020302020302020302020302020302020302020302020302020300A20202020302E343633352020202D312E3338393420202020302E303030302043202020302020302020302020302020302020302020302020302020302020302020302020300A20202020312E303536382020202D312E3034363920202020302E303030302043202020302020302020302020302020302020302020302020302020302020302020302020300A20202020312E343030322020202D302E3435323120202020302E303030302043202020302020302020302020302020302020302020302020302020302020302020302020300A20202020312E3430303220202020302E3233363220202020302E303030302043202020302020302020302020302020302020302020302020302020302020302020302020300A20202020312E3035343920202020302E3833343220202020302E303030302043202020302020302020302020302020302020302020302020302020302020302020302020300A20202020302E3435353520202020312E3138303320202020302E303030302043202020302020302020302020302020302020302020302020302020302020302020302020300A2020202D302E3233363720202020312E3138303320202020302E303030302043202020302020302020302020302020302020302020302020302020302020302020302020300A2020202D312E3032363920202020312E3338393420202020302E303030302043202020302020302020302020302020302020302020302020302020302020302020302020300A2020202D312E3730353020202020302E3931393620202020302E303030302043202020302020302020302020302020302020302020302020302020302020302020302020300A2020202D312E3736303520202020302E3039363520202020302E303030302043202020302020302020302020302020302020302020302020302020302020302020302020300A2020202D302E333339342020202D302E3332393520202020302E303030302043202020302020302020302020302020302020302020302020302020302020302020302020300A20202020302E3037333120202020302E3338353020202020302E303030302043202020302020302020302020302020302020302020302020302020302020302020302020300A20202020302E313333312020202D312E3030393220202020302E30303030204F202020302020302020302020302020302020302020302020302020302020302020302020300A20202020302E3837313420202020302E3138383920202020302E30303030204F202020302020302020302020302020302020302020302020302020302020302020302020300A20202020312E3736303520202020302E3738383620202020302E303030302043202020302020302020302020302020302020302020302020302020302020302020302020300A2020312020322020312020302020202020200A2020322020332020312020302020202020200A2020332020342020312020302020202020200A2020342020352020312020302020202020200A2020352020362020312020302020202020200A2020362020372020312020302020202020200A2020372020382020312020302020202020200A2020382020392020312020302020202020200A2020392031302020312020302020202020200A2031302031312020312020302020202020200A2031312031322020322020302020202020200A2031322031332020312020302020202020200A2031342031352020312020302020202020200A2020312031332020322020302020202020200A2020312031342020312020302020202020200A2031302031352020322020302020202020200A2031342031362020322020302020202020200A2031372031382020312020302020202020200A2031352031372020312020302020202020200A4D2020454E44
Contributor: ITO S, DEPT. OF CHEM., TOHOKU UNIV.
InstType: EI
InstName: Unknown
IoniMethod: _ENERGY 25 eV
IonPolarity: pos
Date: 2010-10-09 19:48:36+02:00
Num Peaks: 82
53 50 55 130 65 100 67 9 77 120 78 75 79 160 81 7 91 420 92 80 
93 75 95 6 103 105 104 100 105 280 106 6 107 70 108 75 109 60 115 10 
116 70 117 140 118 60 119 14 120 100 121 200 122 80 123 6 128 50 129 105 
130 55 131 18 132 70 133 180 134 210 135 22 136 65 137 80 138 50 143 7 
144 75 145 150 146 70 147 19 148 75 149 110 150 125 151 7 157 90 158 65 
159 80 160 5 161 170 162 60 163 100 164 10 165 50 171 75 172 30 173 8 
175 130 176 65 177 210 178 5 185 70 186 45 187 65 188 29 189 60 190 30 
199 35 203 16 204 45 215 60 216 60 217 5 218 60 229 30 231 50 246 999 
247 215 248 40 
