Name: MassBank: JP001358
MW: 326
Formula: C19H32F2Si
Synonym: MassBank: JP001358
Synonym: TERT-BUTYLDIFLUORO(2,4,6-TRIISOPROPYLPHENYL)SILANE
Structure: 544552542D425554594C4449464C554F524F28322C342C362D54524949534F50524F50594C5048454E594C2953494C414E452E6D6F6C0A20204368656D447261773038313231303037303832440A2032322032322020302020302020302020302020302020302020302020303939392056323030300A20202020312E353731342020202D302E3232393220202020302E303030302053692020302020302020302020302020302020302020302020302020302020302020302020300A20202020302E3237313520202020302E3030303020202020302E303030302043202020302020302020302020302020302020302020302020302020302020302020302020300A2020202D302E313431302020202D302E3731343520202020302E303030302043202020302020302020302020302020302020302020302020302020302020302020302020300A2020202D302E393636302020202D302E3731343520202020302E303030302043202020302020302020302020302020302020302020302020302020302020302020302020300A2020202D312E3337383520202020302E3030303020202020302E303030302043202020302020302020302020302020302020302020302020302020302020302020302020300A2020202D302E3936363020202020302E3731343520202020302E303030302043202020302020302020302020302020302020302020302020302020302020302020302020300A2020202D302E3134313020202020302E3731343520202020302E303030302043202020302020302020302020302020302020302020302020302020302020302020302020300A20202020302E3134313220202020312E3438393720202020302E303030302043202020302020302020302020302020302020302020302020302020302020302020302020300A2020202D302E3434323220202020322E3037333120202020302E303030302043202020302020302020302020302020302020302020302020302020302020302020302020300A20202020302E3931363420202020312E3737313920202020302E303030302043202020302020302020302020302020302020302020302020302020302020302020302020300A2020202D322E3230333520202020302E3030303020202020302E303030302043202020302020302020302020302020302020302020302020302020302020302020302020300A2020202D322E3631363020202020302E3731343520202020302E303030302043202020302020302020302020302020302020302020302020302020302020302020302020300A2020202D322E363136302020202D302E3731343520202020302E303030302043202020302020302020302020302020302020302020302020302020302020302020302020300A20202020302E313431322020202D312E3438393720202020302E303030302043202020302020302020302020302020302020302020302020302020302020302020302020300A20202020302E393136342020202D312E3737313920202020302E303030302043202020302020302020302020302020302020302020302020302020302020302020302020300A2020202D302E343432322020202D322E3037333120202020302E303030302043202020302020302020302020302020302020302020302020302020302020302020302020300A20202020312E333831322020202D312E3033323020202020302E303030302046202020302020302020302020302020302020302020302020302020302020302020302020300A20202020322E333833392020202D302E3337323520202020302E303030302046202020302020302020302020302020302020302020302020302020302020302020302020300A20202020312E3830383120202020302E3536313120202020302E303030302043202020302020302020302020302020302020302020302020302020302020302020302020300A20202020312E3030303120202020302E3732383020202020302E303030302043202020302020302020302020302020302020302020302020302020302020302020302020300A20202020312E3930333820202020312E3338303520202020302E303030302043202020302020302020302020302020302020302020302020302020302020302020302020300A20202020322E3631363020202020302E3339343320202020302E303030302043202020302020302020302020302020302020302020302020302020302020302020302020300A2020322020332020312020302020202020200A2020332020342020322020302020202020200A2020342020352020312020302020202020200A2020352020362020322020302020202020200A2020362020372020312020302020202020200A2020322020372020322020302020202020200A2020382020392020312020302020202020200A2020382031302020312020302020202020200A2020372020382020312020302020202020200A2031312031322020312020302020202020200A2031312031332020312020302020202020200A2020352031312020312020302020202020200A2031342031352020312020302020202020200A2031342031362020312020302020202020200A2020332031342020312020302020202020200A2020312020322020312020302020202020200A2020312031372020312020302020202020200A2020312031382020312020302020202020200A2031392032302020312020302020202020200A2031392032322020312020302020202020200A2031392032312020312020302020202020200A2020312031392020312020302020202020200A4D2020454E44
Contributor: MASS SPECTROSCOPY SOC. OF JAPAN (MSSJ)
InstType: EI
InstName: JEOL JMS-D-3000
IoniMethod: _ENERGY 70 eV
IonPolarity: pos
Date: 2010-10-09 19:48:36+02:00
Num Peaks: 96
41 10 43 999 44 15 53 18 55 28 57 167 63 11 65 15 67 13 77 40 
78 12 79 21 81 144 82 12 91 68 93 10 103 19 105 44 107 18 115 42 
116 18 117 69 121 17 127 17 128 47 129 59 130 23 131 45 132 10 119 19 
133 15 141 24 142 20 143 40 144 13 145 54 146 10 147 19 155 14 157 18 
159 29 160 12 161 170 162 23 165 14 169 11 171 66 172 10 173 26 175 18 
183 15 185 81 186 16 187 36 188 12 189 89 190 24 197 15 199 45 201 10 
202 18 203 493 204 241 205 35 211 22 213 157 214 29 215 12 225 24 227 178 
228 77 229 22 235 12 239 18 241 50 242 13 249 40 250 10 253 25 255 267 
256 62 257 18 269 838 270 285 271 68 272 13 283 106 284 170 285 41 286 11 
311 84 312 37 313 16 326 446 327 123 328 32 
