Name: MassBank: JP009056
CAS: 110-87-2
MW: 84
Formula: C5H8O
Synonym: MassBank: JP009056
Synonym: 3,4-DIHYDRO-2H-PYRAN
Structure: 310A31370A332C342D4449485944524F2D32482D505952414E2E6D6F6C0A20204368656D447261773032323131303232323832440A2020362020362020302020302020302020302020302020302020302020303939392056323030300A2020202D302E373134352020202D302E3431323520202020302E303030302043202020302020302020302020302020302020302020302020302020302020302020302020300A20202020302E303030302020202D302E3832353020202020302E303030302043202020302020302020302020302020302020302020302020302020302020302020302020300A20202020302E373134352020202D302E3431323520202020302E303030302043202020302020302020302020302020302020302020302020302020302020302020302020300A20202020302E3731343520202020302E3431323520202020302E303030302043202020302020302020302020302020302020302020302020302020302020302020302020300A2020202D302E3030303020202020302E3832353020202020302E303030302043202020302020302020302020302020302020302020302020302020302020302020302020300A2020202D302E3731343520202020302E3431323520202020302E30303030204F202020302020302020302020302020302020302020302020302020302020302020302020300A2020312020322020312020302020202020200A2020322020332020312020302020202020200A2020332020342020312020302020202020200A2020342020352020322020302020202020200A2020352020362020312020302020202020200A2020312020362020312020302020202020200A4D2020454E44
Contributor: SODA AROMATIC CO., LTD.
InstType: EI
InstName: HITACHI M-80B
IoniMethod: _ENERGY 70 eV
IonPolarity: pos
Date: 2010-10-09 19:48:36+02:00
Num Peaks: 28
29 257 30 12 31 34 37 17 38 34 39 320 40 28 41 250 42 34 43 58 
44 11 45 21 49 12 50 70 51 76 52 25 53 161 54 270 55 999 56 321 
57 110 65 13 66 15 69 136 81 11 83 353 84 776 85 37 
