Name: MassBank: JP002466
MW: 210
Formula: C12H18O3
Synonym: MassBank: JP002466
Synonym: METHYL 4,4-DIMETHYL-8-OXO-1ALPHA,5ALPHA-BICYCLO(3.3.0)OCTANE-2BETA-CARBOXYLATE
Structure: 303432305F4D455448594C20342C342D44494D455448594C2D382D4F584F2D31414C5048412C35414C5048412D42494359434C4F28332E332E30294F4354414E452D32424554412D434152424F58594C4154452E6D6F6C0A20204368656D447261773039303631303136343932440A2031372031382020302020302020302020302020302020302020302020303939392056323030300A2020202D302E313238382020202D302E3238383520202020302E303030302043202020302020302020302020302020302020302020302020302020302020302020302020300A2020202D302E3338333720202020302E3439363120202020302E303030302043202020302020302020302020302020302020302020302020302020302020302020302020300A20202020302E3238333720202020302E3938313120202020302E303030302043202020302020302020302020302020302020302020302020302020302020302020302020300A20202020302E3935313220202020302E3439363120202020302E303030302043202020302020302020302020302020302020302020302020302020302020302020302020300A20202020302E363936322020202D302E3238383520202020302E303030302043202020302020302020302020302020302020302020302020302020302020302020302020300A20202020302E393531322020202D312E3037333120202020302E303030302043202020302020302020302020302020302020302020302020302020302020302020302020300A20202020302E323833372020202D312E3535383020202020302E303030302043202020302020302020302020302020302020302020302020302020302020302020302020300A2020202D302E333833372020202D312E3037333120202020302E303030302043202020302020302020302020302020302020302020302020302020302020302020302020300A2020202D312E3136383320202020302E3735313120202020302E303030302043202020302020302020302020302020302020302020302020302020302020302020302020300A2020202D312E3333393820202020312E3535383020202020302E30303030204F202020302020302020302020302020302020302020302020302020302020302020302020300A2020202D312E3735313720202020302E3136373720202020302E30303030204F202020302020302020302020302020302020302020302020302020302020302020302020300A2020202D312E313638332020202D312E3332383120202020302E30303030204F202020302020302020302020302020302020302020302020302020302020302020302020300A20202020312E3239393820202020312E3234333820202020302E303030302043202020302020302020302020302020302020302020302020302020302020302020302020300A20202020312E3735313720202020302E3239363520202020302E303030302043202020302020302020302020302020302020302020302020302020302020302020302020300A2020202D302E393533382020202D302E3238383520202020302E303030302048202020302020302020302020302020302020302020302020302020302020302020302020300A20202020312E353038372020202D302E3433313820202020302E303030302048202020302020302020302020302020302020302020302020302020302020302020302020300A2020202D312E353338322020202D302E3632393220202020302E303030302043202020302020302020302020302020302020302020302020302020302020302020302020300A2020312020322020312020302020202020200A2020322020332020312020302020202020200A2020332020342020312020302020202020200A2020342020352020312020302020202020200A2020352020362020312020302020202020200A2020362020372020312020302020202020200A2020372020382020312020302020202020200A2020312020382020312020302020202020200A2020312020352020312020302020202020200A2020392031302020322020302020202020200A2020392031312020312020302020202020200A2020322020392020312020312020202020200A2020382031322020322020302020202020200A2020342031332020312020302020202020200A2020342031342020312020302020202020200A2020312031352020312020362020202020200A2020352031362020312020362020202020200A2031312031372020312020302020202020200A4D2020454E44
Contributor: ITO S, DEPT. OF CHEM., TOHOKU UNIV.
InstType: EI
InstName: HITACHI M-52
IoniMethod: _ENERGY 13.5 eV
IonPolarity: pos
Date: 2010-10-09 19:48:36+02:00
Num Peaks: 20
18 31 22 26 94 26 96 4 109 64 110 39 122 334 123 12 124 28 128 116 
135 41 150 18 151 21 154 149 167 21 178 999 179 162 182 149 195 36 210 211 
