Name: ETHYL 3-BROMOPROPIONATE
CAS: 539-74-2
MW: 179
Formula: C5H9BrO2
Synonym: MassBank: JP009504
Synonym: ETHYL 3-BROMOPROPIONATE
Structure: 310A32300A424554412D42524F4D4F50524F50494F4E4943204143494420455448594C2045535445522E6D6F6C0A20204368656D447261773038313131303136303732440A2020382020372020302020302020302020302020302020302020302020303939392056323030300A20202020302E333537322020202D302E3230363220202020302E303030302043202020302020302020302020302020302020302020302020302020302020302020302020300A20202020312E303731372020202D302E3631383820202020302E303030302043202020302020302020302020302020302020302020302020302020302020302020302020300A20202020312E373836322020202D302E3230363220202020302E303030302043202020302020302020302020302020302020302020302020302020302020302020302020300A20202020302E3335373220202020302E3631383820202020302E30303030204F202020302020302020302020302020302020302020302020302020302020302020302020300A2020202D302E333537322020202D302E3631383820202020302E30303030204F202020302020302020302020302020302020302020302020302020302020302020302020300A20202020312E3738363220202020302E3631383820202020302E303030302042722020302020302020302020302020302020302020302020302020302020302020302020300A2020202D312E303731372020202D302E3230363320202020302E303030302043202020302020302020302020302020302020302020302020302020302020302020302020300A2020202D312E373836322020202D302E3631383820202020302E303030302043202020302020302020302020302020302020302020302020302020302020302020302020300A2020312020322020312020302020202020200A2020322020332020312020302020202020200A2020312020342020322020302020202020200A2020312020352020312020302020202020200A2020332020362020312020302020202020200A2020372020382020312020302020202020200A2020352020372020312020302020202020200A4D2020454E44
Contributor: NARA WOMEN'S UNIVERSITY
InstType: EI
InstName: HITACHI M-80
IoniMethod: _ENERGY 70 eV
IonPolarity: pos
Date: 2010-10-09 19:48:36+02:00
Num Peaks: 37
14 53 15 131 25 21 26 398 27 999 28 494 29 708 30 103 31 41 41 18 
42 72 43 117 44 19 45 108 53 17 55 97 56 21 73 125 79 49 80 18 
81 51 82 18 93 23 95 18 101 65 106 16 107 183 108 21 109 152 135 97 
137 104 152 176 153 11 154 171 155 11 180 12 182 10 
