Name: ETHYL 4-DIMETHYLAMINOBENZOATE
MW: 193
Formula: C11H15NO2
Synonym: MassBank: JP009594
Synonym: ETHYL 4-DIMETHYLAMINOBENZOATE
Structure: 455448594C20342D44494D455448594C414D494E4F42454E5A4F4154452E6D6F6C0A20204368656D447261773038313131303138313832440A2031342031342020302020302020302020302020302020302020302020303939392056323030300A20202020312E303331332020202D302E3335373220202020302E303030302043202020302020302020302020302020302020302020302020302020302020302020302020300A20202020302E323036332020202D302E3335373220202020302E303030302043202020302020302020302020302020302020302020302020302020302020302020302020300A2020202D302E323036332020202D312E3037313720202020302E303030302043202020302020302020302020302020302020302020302020302020302020302020302020300A2020202D312E303331322020202D312E3037313720202020302E303030302043202020302020302020302020302020302020302020302020302020302020302020302020300A2020202D312E343433382020202D302E3335373220202020302E303030302043202020302020302020302020302020302020302020302020302020302020302020302020300A2020202D312E3033313320202020302E3335373220202020302E303030302043202020302020302020302020302020302020302020302020302020302020302020302020300A2020202D302E3230363220202020302E3335373220202020302E303030302043202020302020302020302020302020302020302020302020302020302020302020302020300A20202020312E343433382020202D312E3037313720202020302E30303030204F202020302020302020302020302020302020302020302020302020302020302020302020300A20202020312E3434333820202020302E3335373220202020302E30303030204F202020302020302020302020302020302020302020302020302020302020302020302020300A2020202D322E323638372020202D302E3335373220202020302E30303030204E202020302020302020302020302020302020302020302020302020302020302020302020300A2020202D322E363831332020202D312E3037313720202020302E303030302043202020302020302020302020302020302020302020302020302020302020302020302020300A2020202D322E3638313220202020302E3335373220202020302E303030302043202020302020302020302020302020302020302020302020302020302020302020302020300A20202020322E3236383820202020302E3335373220202020302E303030302043202020302020302020302020302020302020302020302020302020302020302020302020300A20202020322E3638313320202020312E3037313720202020302E303030302043202020302020302020302020302020302020302020302020302020302020302020302020300A2020312020322020312020302020202020200A2020322020332020312020302020202020200A2020332020342020322020302020202020200A2020342020352020312020302020202020200A2020352020362020322020302020202020200A2020362020372020312020302020202020200A2020322020372020322020302020202020200A2020312020382020322020302020202020200A2020312020392020312020302020202020200A2031302031312020312020302020202020200A2031302031322020312020302020202020200A2020352031302020312020302020202020200A2031332031342020312020302020202020200A2020392031332020312020302020202020200A4D2020454E44
Contributor: THE INSTITUTE OF SCIENTIFIC AND INDUSTRIALRESEARCH
InstType: EI
InstName: JEOL JMS-DX-300
IoniMethod: _ENERGY 70 eV
IonPolarity: pos
Date: 2010-10-09 19:48:36+02:00
Num Peaks: 53
26 16 27 84 29 113 30 1 38 10 39 43 40 28 41 3 42 265 43 47 
44 99 45 2 50 65 51 84 52 28 53 2 60 12 63 41 64 12 65 5 
66 10 74 47 75 12 76 4 77 133 78 61 79 59 80 1 90 27 91 60 
92 29 93 2 103 22 104 99 105 106 106 1 117 12 118 68 119 68 120 12 
121 93 132 41 148 999 149 14 150 22 164 415 165 353 166 4 178 11 191 29 
192 121 193 90 194 112 
