Name: TRIBROMOACETIC ACID METHYL ESTER
MW: 307
Formula: C3H3Br3O2
Synonym: MassBank: JP004217
Synonym: TRIBROMOACETIC ACID METHYL ESTER
Structure: 310A32300A54524942524F4D4F4143455449432041434944204D455448594C2045535445522E6D6F6C0A20204368656D447261773038313231303038313932440A2020382020372020302020302020302020302020302020302020302020303939392056323030300A2020202D302E333032302020202D302E3631383720202020302E303030302043202020302020302020302020302020302020302020302020302020302020302020302020300A2020202D302E3330323020202020302E3230363320202020302E303030302043202020302020302020302020302020302020302020302020302020302020302020302020300A2020202D312E303136342020202D312E3033313320202020302E30303030204F202020302020302020302020302020302020302020302020302020302020302020302020300A20202020302E343132352020202D312E3033313320202020302E30303030204F202020302020302020302020302020302020302020302020302020302020302020302020300A2020202D312E3132373020202020302E3230363320202020302E303030302042722020302020302020302020302020302020302020302020302020302020302020302020300A2020202D302E3330323020202020312E3033313320202020302E303030302042722020302020302020302020302020302020302020302020302020302020302020302020300A20202020302E3532333020202020302E3230363320202020302E303030302042722020302020302020302020302020302020302020302020302020302020302020302020300A20202020312E313237302020202D302E3631383720202020302E303030302043202020302020302020302020302020302020302020302020302020302020302020302020300A2020312020322020312020302020202020200A2020312020332020322020302020202020200A2020312020342020312020302020202020200A2020322020352020312020302020202020200A2020322020362020312020302020202020200A2020322020372020312020302020202020200A2020342020382020312020302020202020200A4D2020454E44
Contributor: KOGA M, UNIV. OF OCCUPATIONAL AND ENVIRONMENTAL HEALTH
InstType: EI
InstName: JEOL JMS-01-SG
IoniMethod: _ENERGY 70 eV
IonPolarity: pos
Date: 2010-10-09 19:48:36+02:00
Num Peaks: 20
38 19 40 190 43 325 51 2 53 30 59 999 60 37 80 2 82 17 107 17 
121 176 123 17 149 70 151 75 173 19 187 2 213 28 215 53 216 26 217 28 
