Name: 2-METHYL-5-ETHYLPYRIDINE
MW: 121
Formula: C8H11N
Synonym: MassBank: JP003941
Synonym: 2-METHYL-5-ETHYLPYRIDINE
Structure: 310A32330A322D4D455448594C2D352D455448594C5059524944494E452E6D6F6C0A20204368656D447261773031323231303037313432440A2020392020392020302020302020302020302020302020302020302020303939392056323030300A20202020312E3033313320202020302E3030303020202020302E303030302043202020302020302020302020302020302020302020302020302020302020302020302020300A20202020302E363138372020202D302E3731343520202020302E303030302043202020302020302020302020302020302020302020302020302020302020302020302020300A2020202D302E323036322020202D302E3731343520202020302E303030302043202020302020302020302020302020302020302020302020302020302020302020302020300A2020202D302E3631383820202020302E3030303020202020302E303030302043202020302020302020302020302020302020302020302020302020302020302020302020300A2020202D302E3230363320202020302E3731343520202020302E303030302043202020302020302020302020302020302020302020302020302020302020302020302020300A20202020302E3631383820202020302E3731343520202020302E30303030204E202020302020302020302020302020302020302020302020302020302020302020302020300A2020202D312E3434333720202020302E3030303020202020302E303030302043202020302020302020302020302020302020302020302020302020302020302020302020300A2020202D312E3835363320202020302E3731343520202020302E303030302043202020302020302020302020302020302020302020302020302020302020302020302020300A20202020312E3835363320202020302E3030303020202020302E303030302043202020302020302020302020302020302020302020302020302020302020302020302020300A2020312020322020312020302020202020200A2020322020332020322020302020202020200A2020332020342020312020302020202020200A2020342020352020322020302020202020200A2020352020362020312020302020202020200A2020312020362020322020302020202020200A2020372020382020312020302020202020200A2020342020372020312020302020202020200A2020312020392020312020302020202020200A4D2020454E44
Contributor: MASS SPECTROSCOPY SOC. OF JAPAN (MSSJ)
InstType: EI
InstName: Unknown
IoniMethod: EI
IonPolarity: pos
Date: 2010-10-09 19:48:36+02:00
Num Peaks: 34
26 41 27 143 28 80 29 3 37 26 38 41 39 193 40 5 41 37 42 29 
50 65 51 13 52 79 53 92 54 33 62 3 63 34 64 34 65 75 66 3 
67 36 77 175 78 48 79 13 80 23 91 57 92 39 93 6 94 28 104 28 
106 999 107 9 120 172 121 540 
