Name: ETHYLISOPROPYLHYDRAZONE ACETALDEHYDE
MW: 128
Formula: C7H16N2
Synonym: MassBank: JP000834
Synonym: ETHYLISOPROPYLHYDRAZONE ACETALDEHYDE
Synonym: ACETALDEHYDE ETHYLISOPROPYLHYDRAZONE
Structure: 310A32320A455448594C49534F50524F50594C48594452415A4F4E452041434554414C4445485944452E6D6F6C0A20204368656D447261773036323431303035343032440A2020392020382020302020302020302020302020302020302020302020303939392056323030300A20202020312E303331332020202D302E3731343520202020302E303030302043202020302020302020302020302020302020302020302020302020302020302020302020300A20202020312E343433382020202D312E3432383920202020302E303030302043202020302020302020302020302020302020302020302020302020302020302020302020300A20202020302E323036332020202D302E3731343520202020302E30303030204E202020302020302020302020302020302020302020302020302020302020302020302020300A2020202D302E3230363320202020302E3030303020202020302E30303030204E202020302020302020302020302020302020302020302020302020302020302020302020300A20202020302E3230363320202020302E3731343520202020302E303030302043202020302020302020302020302020302020302020302020302020302020302020302020300A20202020312E3033313320202020302E3731343520202020302E303030302043202020302020302020302020302020302020302020302020302020302020302020302020300A2020202D302E3230363320202020312E3432383920202020302E303030302043202020302020302020302020302020302020302020302020302020302020302020302020300A2020202D312E3033313220202020302E3030303020202020302E303030302043202020302020302020302020302020302020302020302020302020302020302020302020300A2020202D312E343433382020202D302E3731343520202020302E303030302043202020302020302020302020302020302020302020302020302020302020302020302020300A2020312020322020312020302020202020200A2020332020342020312020302020202020200A2020352020362020312020302020202020200A2020352020372020312020302020202020200A2020342020352020312020302020202020200A2020382020392020312020302020202020200A2020342020382020312020302020202020200A2020312020332020322020302020202020200A4D2020454E44
Contributor: SASAKI S, TOYOHASHI UNIV. OF TECH.
InstType: EI
InstName: SHIMADZU LKB-2091
IoniMethod: _ENERGY 70 eV
IonPolarity: pos
Date: 2010-10-09 19:48:36+02:00
Num Peaks: 29
27 158 28 158 29 285 30 12 39 49 40 18 41 133 42 43 43 170 44 279 
45 11 54 1 55 19 56 146 57 69 58 4 68 17 69 21 70 194 71 45 
72 48 84 158 85 121 86 1 113 999 114 84 127 10 128 33 129 41 
