Name: ISOBORNEOL
MW: 154
Formula: C10H18O
Synonym: MassBank: JP000556
Synonym: ISOBORNEOL
Synonym: EXO-BORNEOL
Structure: 303134385F49534F424F524E454F4C2E6D6F6C0A20204368656D447261773039303331303138323032440A2031312031322020302020302020302020302020302020302020302020303939392056323030300A20202020302E343132352020202D302E3335373220202020302E303030302043202020302020302020302020302020302020302020302020302020302020302020302020300A20202020312E323337352020202D302E3335373220202020302E30303030204F202020302020302020302020302020302020302020302020302020302020302020302020300A2020202D302E3030303020202020302E3335373220202020302E303030302043202020302020302020302020302020302020302020302020302020302020302020302020300A2020202D302E3832353020202020302E3335373220202020302E303030302043202020302020302020302020302020302020302020302020302020302020302020302020300A2020202D312E323337352020202D302E3335373220202020302E303030302043202020302020302020302020302020302020302020302020302020302020302020302020300A2020202D302E383235302020202D312E3037313720202020302E303030302043202020302020302020302020302020302020302020302020302020302020302020302020300A2020202D302E303030302020202D312E3037313720202020302E303030302043202020302020302020302020302020302020302020302020302020302020302020302020300A2020202D302E323537312020202D302E3432363720202020302E303030302043202020302020302020302020302020302020302020302020302020302020302020302020300A20202020302E3431323520202020312E3037313720202020302E303030302043202020302020302020302020302020302020302020302020302020302020302020302020300A20202020302E343539312020202D302E3833363220202020302E303030302043202020302020302020302020302020302020302020302020302020302020302020302020300A2020202D302E3733383420202020302E3234333420202020302E303030302043202020302020302020302020302020302020302020302020302020302020302020302020300A2020312020322020312020312020202020200A2020312020332020312020302020202020200A2020332020342020312020302020202020200A2020342020352020312020302020202020200A2020352020362020312020302020202020200A2020362020372020312020302020202020200A2020372020312020312020302020202020200A2020332020382020312020312020202020200A2020362020382020312020312020202020200A2020332020392020312020302020202020200A2020382031302020312020312020202020200A2020382031312020312020312020202020200A4D2020454E44
Contributor: HASHIMOTO K, KYOTO COLLEGE OF PHARMACY
InstType: EI
InstName: HITACHI M-80
IoniMethod: _ENERGY 20 eV
IonPolarity: pos
Date: 2010-10-09 19:48:36+02:00
Num Peaks: 38
40 16 42 44 54 33 57 11 59 41 67 37 68 14 69 60 70 20 71 53 
72 51 79 12 80 12 81 49 82 97 83 56 84 50 85 11 92 92 93 188 
94 21 95 999 96 103 97 17 98 10 107 25 108 36 109 27 110 335 111 85 
121 144 122 15 123 14 136 260 138 26 139 146 140 16 154 26 
