Name: 2-METHYL-2-PENTEN-4-ONE
MW: 98
Formula: C6H10O
Synonym: MassBank: JP006447
Synonym: 2-METHYL-2-PENTEN-4-ONE
Synonym: 4-METHYL-3-PENTEN-2-ONE
Structure: 310A31380A322D4D455448594C2D322D50454E54454E2D342D4F4E452E6D6F6C0A20204368656D447261773031323231303033313132440A2020372020362020302020302020302020302020302020302020302020303939392056323030300A20202020312E3432383920202020302E3631383820202020302E303030302043202020302020302020302020302020302020302020302020302020302020302020302020300A20202020302E3731343520202020302E3230363220202020302E303030302043202020302020302020302020302020302020302020302020302020302020302020302020300A2020202D302E3030303020202020302E3631383820202020302E303030302043202020302020302020302020302020302020302020302020302020302020302020302020300A2020202D302E3731343520202020302E3230363220202020302E303030302043202020302020302020302020302020302020302020302020302020302020302020302020300A2020202D312E3432383920202020302E3631383820202020302E303030302043202020302020302020302020302020302020302020302020302020302020302020302020300A2020202D302E373134352020202D302E3631383820202020302E30303030204F202020302020302020302020302020302020302020302020302020302020302020302020300A20202020302E373134352020202D302E3631383820202020302E303030302043202020302020302020302020302020302020302020302020302020302020302020302020300A2020312020322020312020302020202020200A2020322020332020322020302020202020200A2020332020342020312020302020202020200A2020342020352020312020302020202020200A2020342020362020322020302020202020200A2020322020372020312020302020202020200A4D2020454E44
Contributor: HISAHIRO HAGIWARA, CHEMICAL RESEARCH INSTITUTE OF NON-AQUEOUSSOLUTIONS TOHOKU UNIV.
InstType: EI
InstName: HITACHI M-80B
IoniMethod: _ENERGY 70 eV
IonPolarity: pos
Date: 2010-10-09 19:48:36+02:00
Num Peaks: 27
14 13 15 121 26 39 27 317 29 370 37 19 38 61 39 398 40 42 41 112 
42 56 43 593 44 10 50 59 51 72 52 21 53 140 54 18 55 999 56 49 
67 13 79 16 82 11 83 978 84 54 98 425 99 25 
