Name: 2-AMINOETHANOL
MW: 61
Formula: C2H7NO
Synonym: MassBank: JP003518
Synonym: 2-AMINOETHANOL
Structure: 310A31320A322D414D494E4F455448414E4F4C2E6D6F6C0A20204368656D447261773132323130393232323832440A2020342020332020302020302020302020302020302020302020302020303939392056323030300A2020202D302E333537322020202D302E3230363320202020302E303030302043202020302020302020302020302020302020302020302020302020302020302020302020300A20202020302E3335373220202020302E3230363320202020302E303030302043202020302020302020302020302020302020302020302020302020302020302020302020300A20202020312E303731372020202D302E3230363320202020302E30303030204E202020302020302020302020302020302020302020302020302020302020302020302020300A2020202D312E3037313720202020302E3230363320202020302E30303030204F202020302020302020302020302020302020302020302020302020302020302020302020300A2020312020322020312020302020202020200A2020322020332020312020302020202020200A2020312020342020312020302020202020200A4D2020454E44
Contributor: YAMAMOTO M, DEP. CHEMISTRY, FAC. SCIENCE, NARA WOMEN'S UNIV.
InstType: EI
InstName: HITACHI M-68
IoniMethod: _ENERGY 70 eV
IonPolarity: pos
Date: 2010-10-09 19:48:36+02:00
Num Peaks: 18
14 12 16 10 17 16 18 66 26 12 27 48 28 20 29 110 30 999 31 92 
40 1 41 32 42 100 43 42 44 4 60 15 61 90 62 87 
