Name: CYCLOOCTANE
MW: 112
Formula: C8H16
Synonym: MassBank: JP001555
Synonym: CYCLOOCTANE
Structure: 310A32310A4359434C4F4F4354414E452E6D6F6C0A20204368656D447261773039323031303038353132440A2020382020382020302020302020302020302020302020302020302020303939392056323030300A20202020302E393935392020202D302E3431323520202020302E303030302043202020302020302020302020302020302020302020302020302020302020302020302020300A20202020302E343132352020202D302E3939353920202020302E303030302043202020302020302020302020302020302020302020302020302020302020302020302020300A2020202D302E343132352020202D302E3939353920202020302E303030302043202020302020302020302020302020302020302020302020302020302020302020302020300A2020202D302E393935392020202D302E3431323520202020302E303030302043202020302020302020302020302020302020302020302020302020302020302020302020300A2020202D302E3939353920202020302E3431323520202020302E303030302043202020302020302020302020302020302020302020302020302020302020302020302020300A2020202D302E3431323520202020302E3939353920202020302E303030302043202020302020302020302020302020302020302020302020302020302020302020302020300A20202020302E3431323520202020302E3939353920202020302E303030302043202020302020302020302020302020302020302020302020302020302020302020302020300A20202020302E3939353920202020302E3431323520202020302E303030302043202020302020302020302020302020302020302020302020302020302020302020302020300A2020312020322020312020302020202020200A2020322020332020312020302020202020200A2020332020342020312020302020202020200A2020342020352020312020302020202020200A2020352020362020312020302020202020200A2020362020372020312020302020202020200A2020372020382020312020302020202020200A2020312020382020312020302020202020200A4D2020454E44
Contributor: YAMAMOTO M, DEP. CHEMISTRY, FAC. SCIENCE, NARA WOMEN'S UNIV.
InstType: EI
InstName: HITACHI RMU-6M
IoniMethod: _ENERGY 70 eV
IonPolarity: pos
Date: 2010-10-09 19:48:36+02:00
Num Peaks: 35
15 19 26 21 27 316 28 89 29 269 38 14 39 361 40 66 41 952 42 616 
43 439 44 16 50 12 51 28 52 14 53 84 54 110 55 881 56 999 57 160 
65 16 67 115 68 215 69 556 70 633 71 79 79 12 81 17 82 117 83 515 
84 391 85 26 97 91 112 640 113 56 
