Name: MassBank: JP007875
MW: 264
Formula: C17H32N2
Synonym: MassBank: JP007875
Synonym: 1-DODECYL-3,5-DIMETHYLPYRAZOLE
Structure: 312D444F444543594C2D332C352D44494D455448594C505952415A4F4C452E6D6F6C0A20204368656D447261773131313830393031333932440A2032302032302020302020302020302020302020302020302020302020303939392056323030300A2020202D332E3232333720202020302E3636363620202020302E30303030204E202020302020302020302020302020302020302020302020302020302020302020302020300A2020202D332E3937373420202020312E3030323120202020302E30303030204E202020302020302020302020302020302020302020302020302020302020302020302020300A2020202D342E3532393420202020302E3338393120202020302E303030302043202020302020302020302020302020302020302020302020302020302020302020302020300A2020202D342E313136392020202D302E3332353420202020302E303030302043202020302020302020302020302020302020302020302020302020302020302020302020300A2020202D332E333130302020202D302E3135333920202020302E303030302043202020302020302020302020302020302020302020302020302020302020302020302020300A2020202D322E363936392020202D302E3730353920202020302E303030302043202020302020302020302020302020302020302020302020302020302020302020302020300A2020202D352E3334393920202020302E3437353320202020302E303030302043202020302020302020302020302020302020302020302020302020302020302020302020300A2020202D322E3530393320202020312E3037393120202020302E303030302043202020302020302020302020302020302020302020302020302020302020302020302020300A2020202D312E3739343820202020302E3636363620202020302E303030302043202020302020302020302020302020302020302020302020302020302020302020302020300A2020202D312E3038303320202020312E3037393120202020302E303030302043202020302020302020302020302020302020302020302020302020302020302020302020300A2020202D302E3336353820202020302E3636363620202020302E303030302043202020302020302020302020302020302020302020302020302020302020302020302020300A20202020302E3334383620202020312E3037393120202020302E303030302043202020302020302020302020302020302020302020302020302020302020302020302020300A20202020312E3036333120202020302E3636363620202020302E303030302043202020302020302020302020302020302020302020302020302020302020302020302020300A20202020312E3737373620202020312E3037393120202020302E303030302043202020302020302020302020302020302020302020302020302020302020302020302020300A20202020322E3439323020202020302E3636363620202020302E303030302043202020302020302020302020302020302020302020302020302020302020302020302020300A20202020332E3230363520202020312E3037393120202020302E303030302043202020302020302020302020302020302020302020302020302020302020302020302020300A20202020332E3932313020202020302E3636363620202020302E303030302043202020302020302020302020302020302020302020302020302020302020302020302020300A20202020342E3633353420202020312E3037393120202020302E303030302043202020302020302020302020302020302020302020302020302020302020302020302020300A20202020352E3334393920202020302E3636363620202020302E303030302043202020302020302020302020302020302020302020302020302020302020302020302020300A2020202D342E343532352020202D312E3037393120202020302E303030302048202020302020302020302020302020302020302020302020302020302020302020302020300A2020312020322020312020302020202020200A2020322020332020322020302020202020200A2020332020342020312020302020202020200A2020342020352020322020302020202020200A2020312020352020312020302020202020200A2020352020362020312020302020202020200A2020332020372020312020302020202020200A2020382020392020312020302020202020200A2020392031302020312020302020202020200A2031302031312020312020302020202020200A2031312031322020312020302020202020200A2031322031332020312020302020202020200A2031332031342020312020302020202020200A2031342031352020312020302020202020200A2031352031362020312020302020202020200A2031362031372020312020302020202020200A2031372031382020312020302020202020200A2031382031392020312020302020202020200A2020312020382020312020302020202020200A2020342032302020312020302020202020200A4D2020454E44
Contributor: SASAKI S, TOYOHASHI UNIV. OF TECH.
InstType: EI
InstName: MX-1303
IoniMethod: _ENERGY 50 eV
IonPolarity: pos
Date: 2010-10-09 19:48:36+02:00
Num Peaks: 55
26 23 27 87 28 62 29 16 30 14 39 89 40 28 41 39 42 146 43 240 
53 37 54 4 55 232 56 65 57 66 65 2 66 20 67 37 68 62 69 9 
70 23 71 20 79 14 80 2 81 30 82 31 83 29 94 1 95 104 96 495 
97 225 98 2 108 33 109 999 110 341 111 9 123 58 124 109 125 11 137 5 
138 20 151 214 152 29 165 19 166 27 179 62 180 11 193 3 207 45 221 45 
235 24 249 3 263 21 264 93 265 19 
