Name: MassBank: JP007920
MW: 254
Formula: C9H4F6N2
Synonym: MassBank: JP007920
Synonym: 2,5-BIS(TRIFLUOROMETHYL)BENZIMIDAZOLE
Structure: 322C352D42495328545249464C554F524F4D455448594C2942454E5A494D4944415A4F4C452E6D6F6C0A20204368656D447261773132323130393030323332440A2031372031382020302020302020302020302020302020302020302020303939392056323030300A20202020312E323338372020202D302E3335373220202020302E303030302043202020302020302020302020302020302020302020302020302020302020302020302020300A20202020302E3735333820202020302E3331303220202020302E30303030204E202020302020302020302020302020302020302020302020302020302020302020302020300A2020202D302E3033303820202020302E3035353320202020302E303030302043202020302020302020302020302020302020302020302020302020302020302020302020300A2020202D302E303330382020202D302E3736393720202020302E303030302043202020302020302020302020302020302020302020302020302020302020302020302020300A20202020302E373533382020202D312E3032343720202020302E30303030204E202020302020302020302020302020302020302020302020302020302020302020302020300A2020202D302E3734353320202020302E3436373820202020302E303030302043202020302020302020302020302020302020302020302020302020302020302020302020300A2020202D312E3435393820202020302E3035353320202020302E303030302043202020302020302020302020302020302020302020302020302020302020302020302020300A2020202D312E343539382020202D302E3736393720202020302E303030302043202020302020302020302020302020302020302020302020302020302020302020302020300A2020202D302E373435332020202D312E3138323220202020302E303030302043202020302020302020302020302020302020302020302020302020302020302020302020300A2020202D322E3137343220202020302E3436373820202020302E303030302043202020302020302020302020302020302020302020302020302020302020302020302020300A2020202D312E3736313720202020312E3138323220202020302E303030302046202020302020302020302020302020302020302020302020302020302020302020302020300A2020202D322E353836372020202D302E3234363720202020302E303030302046202020302020302020302020302020302020302020302020302020302020302020302020300A2020202D322E3838383720202020302E3838303320202020302E303030302046202020302020302020302020302020302020302020302020302020302020302020302020300A20202020322E303633372020202D302E3335373220202020302E303030302043202020302020302020302020302020302020302020302020302020302020302020302020300A20202020322E3036333720202020302E3436373820202020302E303030302046202020302020302020302020302020302020302020302020302020302020302020302020300A20202020322E383838372020202D302E3335373220202020302E303030302046202020302020302020302020302020302020302020302020302020302020302020302020300A20202020322E303633372020202D312E3138323220202020302E303030302046202020302020302020302020302020302020302020302020302020302020302020302020300A2020312020322020322020302020202020200A2020322020332020312020302020202020200A2020332020342020312020302020202020200A2020342020352020312020302020202020200A2020312020352020312020302020202020200A2020362020372020312020302020202020200A2020372020382020322020302020202020200A2020382020392020312020302020202020200A2020342020392020322020302020202020200A2020332020362020322020302020202020200A2031302031312020312020312020202020200A2031302031322020312020312020202020200A2031302031332020312020302020202020200A2020372031302020312020302020202020200A2031342031352020312020312020202020200A2031342031362020312020302020202020200A2031342031372020312020312020202020200A2020312031342020312020302020202020200A4D2020454E44
Contributor: MAKI Y, GOVERMENT INDUSTRIAL RESEARCH INSTITUTE, NAGOYA
InstType: EI
InstName: HITACHI M-80
IoniMethod: _ENERGY 20 eV
IonPolarity: pos
Date: 2010-10-09 19:48:36+02:00
Num Peaks: 19
69 17 138 13 139 14 140 13 165 14 170 37 184 97 185 34 204 45 213 19 
215 107 230 27 233 25 234 393 235 201 236 20 253 15 254 999 255 106 
