Name: NORTRIPTYLINE
MW: 263
Formula: C19H21N
Synonym: MassBank: JP003858
Synonym: NORTRIPTYLINE
Structure: 303732305F4E4F525452495054594C494E452E6D6F6C0A20204368656D447261773039303631303139353632440A2032302032322020302020302020302020302020302020302020302020303939392056323030300A2020202D302E383332392020202D312E3336393920202020302E303030302043202020302020302020302020302020302020302020302020302020302020302020302020300A2020202D302E383332392020202D322E3139343920202020302E303030302043202020302020302020302020302020302020302020302020302020302020302020302020300A2020202D302E313837392020202D322E3730393320202020302E303030302043202020302020302020302020302020302020302020302020302020302020302020302020300A20202020302E363136342020202D322E3532353720202020302E303030302043202020302020302020302020302020302020302020302020302020302020302020302020300A20202020302E393734342020202D312E3738323420202020302E303030302043202020302020302020302020302020302020302020302020302020302020302020302020300A20202020302E363136342020202D312E3033393120202020302E303030302043202020302020302020302020302020302020302020302020302020302020302020302020300A2020202D302E313837392020202D302E3835353520202020302E303030302043202020302020302020302020302020302020302020302020302020302020302020302020300A20202020312E373937312020202D312E3834343120202020302E303030302043202020302020302020302020302020302020302020302020302020302020302020302020300A20202020322E323631382020202D312E3136323420202020302E303030302043202020302020302020302020302020302020302020302020302020302020302020302020300A20202020312E393033392020202D302E3431393120202020302E303030302043202020302020302020302020302020302020302020302020302020302020302020302020300A20202020312E303831322020202D302E3335373520202020302E303030302043202020302020302020302020302020302020302020302020302020302020302020302020300A2020202D312E353437342020202D302E3935373420202020302E303030302043202020302020302020302020302020302020302020302020302020302020302020302020300A2020202D322E323631382020202D312E3336393920202020302E303030302043202020302020302020302020302020302020302020302020302020302020302020302020300A2020202D322E323631382020202D322E3139343920202020302E303030302043202020302020302020302020302020302020302020302020302020302020302020302020300A2020202D312E353437342020202D322E3630373420202020302E303030302043202020302020302020302020302020302020302020302020302020302020302020302020300A2020202D302E333731352020202D302E3035313220202020302E303030302043202020302020302020302020302020302020302020302020302020302020302020302020300A20202020302E3336383220202020322E3730393320202020302E303030302043202020302020302020302020302020302020302020302020302020302020302020302020300A20202020302E3538313720202020312E3931323420202020302E30303030204E202020302020302020302020302020302020302020302020302020302020302020302020300A2020202D302E3030313620202020312E3332393020202020302E303030302043202020302020302020302020302020302020302020302020302020302020302020302020300A20202020302E3231313920202020302E3533323120202020302E303030302043202020302020302020302020302020302020302020302020302020302020302020302020300A2020312020322020322020302020202020200A2020322020332020312020302020202020200A2020332020342020312020302020202020200A2020342020352020312020302020202020200A2020352020362020322020302020202020200A2020362020372020312020302020202020200A2020372020312020312020302020202020200A2020352020382020312020302020202020200A2020382020392020322020302020202020200A2020392031302020312020302020202020200A2031302031312020322020302020202020200A2031312020362020312020302020202020200A2020312031322020312020302020202020200A2031322031332020322020302020202020200A2031332031342020312020302020202020200A2031342031352020322020302020202020200A2031352020322020312020302020202020200A2020372031362020322020302020202020200A2031362032302020312020302020202020200A2031372031382020312020302020202020200A2031382031392020312020302020202020200A2031392032302020312020302020202020200A4D2020454E44
Contributor: SASAKI S, TOYOHASHI UNIV. OF TECH.
InstType: EI
InstName: Unknown
IoniMethod: _ENERGY 70 eV
IonPolarity: pos
Date: 2010-10-09 19:48:36+02:00
Num Peaks: 72
38 14 39 24 40 14 41 6 42 39 43 124 44 999 45 5 51 19 52 9 
53 19 54 1 55 54 56 44 57 134 58 3 60 14 67 19 68 14 69 3 
70 39 71 69 72 14 73 2 80 9 81 19 82 19 83 3 84 24 85 39 
90 9 91 4 92 9 95 9 96 19 97 3 98 24 99 19 104 9 105 3 
106 9 152 19 153 9 164 0 165 19 166 4 177 9 178 2 179 9 187 4 
188 19 189 1 190 19 191 9 192 9 198 2 199 9 200 4 201 29 202 3 
203 19 204 19 205 9 215 2 216 14 217 19 218 16 219 2 220 29 221 9 
263 24 264 4 
