Name: NICKEL DIACETYLACETONATE
MW: 256
Formula: C10H14NiO4
Synonym: MassBank: JP000333
Synonym: NICKEL DIACETYLACETONATE
Structure: 303133345F4E49434B454C20444941434554594C414345544F4E4154452E6D6F6C0A20204368656D447261773039303331303138313332440A2031352031342020302020302020302020302020302020302020302020303939392056323030300A2020202D302E303038342020202D302E3131393620202020302E30303030204E692020302020302020302020302020302020302020302020302020302020302020302020300A2020202D302E353832372020202D302E3731313920202020302E30303030204F202020302020302020302020302020302020302020302020302020302020302020302020300A20202020302E3531313020202020302E3532313420202020302E30303030204F202020302020302020302020302020302020302020302020302020302020302020302020300A20202020312E3333353820202020302E3533353420202020302E303030302043202020302020302020302020302020302020302020302020302020302020302020302020300A20202020312E383337312020202D302E3131393820202020302E303030302043202020302020302020302020302020302020302020302020302020302020302020302020300A20202020312E323437372020202D302E3639373020202020302E303030302043202020302020302020302020302020302020302020302020302020302020302020302020300A20202020302E343232372020202D302E3639373020202020302E30303030204F202020302020302020302020302020302020302020302020302020302020302020302020300A20202020312E353539332020202D312E3436303920202020302E303030302043202020302020302020302020302020302020302020302020302020302020302020302020300A20202020312E3639353020202020312E3237383120202020302E303030302043202020302020302020302020302020302020302020302020302020302020302020302020300A2020202D312E343037342020202D302E3639313920202020302E303030302043202020302020302020302020302020302020302020302020302020302020302020302020300A2020202D312E3830323520202020302E3033323420202020302E303030302043202020302020302020302020302020302020302020302020302020302020302020302020300A2020202D312E383337312020202D312E3339363220202020302E303030302043202020302020302020302020302020302020302020302020302020302020302020302020300A2020202D312E3337323820202020302E3733363620202020302E303030302043202020302020302020302020302020302020302020302020302020302020302020302020300A2020202D312E3736373920202020312E3436303920202020302E303030302043202020302020302020302020302020302020302020302020302020302020302020302020300A2020202D302E3534383020202020302E3731363620202020302E30303030204F202020302020302020302020302020302020302020302020302020302020302020302020300A2020312020322020312020302020202020200A2020312020332020312020302020202020200A2020332020342020312020302020202020200A2020342020352020322020302020202020200A2020352020362020312020302020202020200A2020362020372020322020302020202020200A2020362020382020312020302020202020200A2020342020392020312020302020202020200A2020322031302020312020302020202020200A2031302031312020322020302020202020200A2031302031322020312020302020202020200A2031312031332020312020302020202020200A2031332031342020312020302020202020200A2031332031352020322020302020202020200A4D2020454E44
Contributor: SASAKI S, TOYOHASHI UNIV. OF TECH.
InstType: EI
InstName: HITACHI RMU-6D
IoniMethod: _ENERGY 70 eV
IonPolarity: pos
Date: 2010-10-09 19:48:36+02:00
Num Peaks: 32
12 3 13 4 14 20 15 12 16 30 17 450 18 999 26 1 27 50 28 320 
29 193 30 0 31 313 32 210 36 3 37 1 38 10 39 40 41 50 42 7 
43 800 44 80 50 3 55 0 56 3 57 10 58 23 69 0 71 23 85 320 
100 220 101 10 
