Name: MassBank: JP001461
MW: 326
Formula: C18H26Si3
Synonym: MassBank: JP001461
Synonym: DIBENZO(D,F)-1,1,2,2,3,3-HEXAMETHYL-1,2,3-TRISILACYCLOHEPTA-4,6-DIENE
Structure: 444942454E5A4F28442C46292D312C312C322C322C332C332D484558414D455448594C2D312C322C332D54524953494C414359434C4F48455054412D342C362D4449454E452E6D6F6C0A20204368656D447261773039323131303136353232440A2032312032332020302020302020302020302020302020302020302020303939392056323030300A2020202D302E3538373620202020302E3131343420202020302E303030302043202020302020302020302020302020302020302020302020302020302020302020302020300A2020202D302E353837362020202D302E3731303620202020302E303030302043202020302020302020302020302020302020302020302020302020302020302020302020300A20202020302E303537342020202D312E3232353020202020302E303030302053692020302020302020302020302020302020302020302020302020302020302020302020300A20202020302E383631372020202D312E3034313420202020302E303030302053692020302020302020302020302020302020302020302020302020302020302020302020300A20202020312E323139372020202D302E3239383120202020302E303030302053692020302020302020302020302020302020302020302020302020302020302020302020300A20202020302E3836313720202020302E3434353220202020302E303030302043202020302020302020302020302020302020302020302020302020302020302020302020300A20202020302E3035373420202020302E3632383820202020302E303030302043202020302020302020302020302020302020302020302020302020302020302020302020300A20202020312E3432323920202020312E3035303020202020302E303030302043202020302020302020302020302020302020302020302020302020302020302020302020300A20202020312E3137393720202020312E3833383320202020302E303030302043202020302020302020302020302020302020302020302020302020302020302020302020300A20202020302E3337353420202020322E3032313920202020302E303030302043202020302020302020302020302020302020302020302020302020302020302020302020300A2020202D302E3138353820202020312E3431373120202020302E303030302043202020302020302020302020302020302020302020302020302020302020302020302020300A2020202D312E3330323120202020302E3532363920202020302E303030302043202020302020302020302020302020302020302020302020302020302020302020302020300A2020202D322E3031363620202020302E3131343420202020302E303030302043202020302020302020302020302020302020302020302020302020302020302020302020300A2020202D322E303136362020202D302E3731303620202020302E303030302043202020302020302020302020302020302020302020302020302020302020302020302020300A2020202D312E333032312020202D312E3132333120202020302E303030302043202020302020302020302020302020302020302020302020302020302020302020302020300A2020202D302E333535312020202D312E3933393520202020302E303030302043202020302020302020302020302020302020302020302020302020302020302020302020300A20202020312E303735322020202D312E3833383320202020302E303030302043202020302020302020302020302020302020302020302020302020302020302020302020300A20202020312E393334312020202D302E3731303620202020302E303030302043202020302020302020302020302020302020302020302020302020302020302020302020300A20202020302E323730392020202D322E3032313920202020302E303030302043202020302020302020302020302020302020302020302020302020302020302020302020300A20202020312E363538362020202D312E3235343920202020302E303030302043202020302020302020302020302020302020302020302020302020302020302020302020300A20202020322E303136362020202D302E3038343620202020302E303030302043202020302020302020302020302020302020302020302020302020302020302020302020300A2020312020322020322020302020202020200A2020322020332020312020302020202020200A2020332020342020312020302020202020200A2020342020352020312020302020202020200A2020352020362020312020302020202020200A2020362020372020322020302020202020200A2020372020312020312020302020202020200A2020362020382020312020302020202020200A2020382020392020322020302020202020200A2020392031302020312020302020202020200A2031302031312020322020302020202020200A2031312020372020312020302020202020200A2020312031322020312020302020202020200A2031322031332020322020302020202020200A2031332031342020312020302020202020200A2031342031352020322020302020202020200A2031352020322020312020302020202020200A2020332031362020312020312020202020200A2020342031372020312020312020202020200A2020352031382020312020312020202020200A2020332031392020312020362020202020200A2020342032302020312020362020202020200A2020352032312020312020362020202020200A4D2020454E44
Contributor: MASS SPECTROSCOPY SOC. OF JAPAN (MSSJ)
InstType: EI
InstName: JEOL JMS-D-3000
IoniMethod: _ENERGY 70 eV
IonPolarity: pos
Date: 2010-10-09 19:48:36+02:00
Num Peaks: 20
43 29 45 36 59 28 73 325 74 27 75 14 101 66 115 13 116 999 117 168 
118 90 131 10 165 37 193 11 195 109 196 23 253 19 311 10 326 27 327 10 
