Name: 3-PARA-MENTHEN-5-YL ACETATE
MW: 196
Formula: C12H20O2
Synonym: MassBank: JP001221
Synonym: 3-PARA-MENTHEN-5-YL ACETATE
Structure: 332D504152412D4D454E5448454E2D352D594C20414345544154452E6D6F6C0A20204368656D447261773033323331303037303532440A2031342031342020302020302020302020302020302020302020302020303939392056323030300A20202020312E303331332020202D312E3037313720202020302E303030302043202020302020302020302020302020302020302020302020302020302020302020302020300A20202020312E383536332020202D312E3037313720202020302E303030302043202020302020302020302020302020302020302020302020302020302020302020302020300A20202020302E363138372020202D312E3738363220202020302E30303030204F202020302020302020302020302020302020302020302020302020302020302020302020300A20202020302E363138372020202D302E3335373220202020302E30303030204F202020302020302020302020302020302020302020302020302020302020302020302020300A2020202D312E3434333720202020302E3335373220202020302E303030302043202020302020302020302020302020302020302020302020302020302020302020302020300A2020202D302E3631383720202020302E3335373220202020302E303030302043202020302020302020302020302020302020302020302020302020302020302020302020300A2020202D302E323036322020202D302E3335373220202020302E303030302043202020302020302020302020302020302020302020302020302020302020302020302020300A2020202D302E363138382020202D312E3037313720202020302E303030302043202020302020302020302020302020302020302020302020302020302020302020302020300A2020202D312E343433372020202D312E3037313720202020302E303030302043202020302020302020302020302020302020302020302020302020302020302020302020300A2020202D312E383536332020202D302E3335373220202020302E303030302043202020302020302020302020302020302020302020302020302020302020302020302020300A2020202D312E383536322020202D312E3738363220202020302E303030302043202020302020302020302020302020302020302020302020302020302020302020302020300A2020202D302E3230363220202020312E3037313720202020302E303030302043202020302020302020302020302020302020302020302020302020302020302020302020300A2020202D302E3631383720202020312E3738363220202020302E303030302043202020302020302020302020302020302020302020302020302020302020302020302020300A20202020302E3631383820202020312E3037313720202020302E303030302043202020302020302020302020302020302020302020302020302020302020302020302020300A2020312020322020312020302020202020200A2020312020332020322020302020202020200A2020312020342020312020302020202020200A2020352020362020322020302020202020200A2020362020372020312020302020202020200A2020372020382020312020302020202020200A2020382020392020312020302020202020200A2020392031302020312020302020202020200A2020352031302020312020302020202020200A2020392031312020312020302020202020200A2031322031332020312020302020202020200A2031322031342020312020302020202020200A2020362031322020312020302020202020200A2020342020372020312020302020202020200A4D2020454E44
Contributor: SASAKI S, TOYOHASHI UNIV. OF TECH.
InstType: EI
InstName: HITACHI RMU-6D
IoniMethod: _ENERGY 20 eV
IonPolarity: pos
Date: 2010-10-09 19:48:36+02:00
Num Peaks: 46
18 130 27 40 45 130 54 3 55 10 56 40 67 40 68 4 69 70 70 20 
71 160 72 1 78 45 79 80 80 330 81 19 82 65 83 10 84 20 90 12 
91 360 92 125 94 520 95 16 96 40 98 15 99 25 106 38 107 65 108 80 
109 40 110 21 111 50 112 40 121 780 122 12 123 500 124 90 137 999 138 14 
139 490 140 90 153 10 154 3 155 15 196 20 
