Name: MassBank: JP003042
MW: 123
Formula: C4H6Cl2
Synonym: MassBank: JP003042
Synonym: 1,2-DICHLOROBUT-3-ENE
Structure: 310A31360A312C322D444943484C4F524F4255542D332D454E452E6D6F6C0A20204368656D447261773131303330393233313032440A2020362020352020302020302020302020302020302020302020302020303939392056323030300A20202020302E343132352020202D302E3731343520202020302E303030302043202020302020302020302020302020302020302020302020302020302020302020302020300A20202020302E3030303020202020302E3030303020202020302E303030302043202020302020302020302020302020302020302020302020302020302020302020302020300A2020202D302E3832353020202020302E3030303020202020302E303030302043202020302020302020302020302020302020302020302020302020302020302020302020300A2020202D312E323337352020202D302E3731343520202020302E303030302043202020302020302020302020302020302020302020302020302020302020302020302020300A20202020302E3431323520202020302E3731343520202020302E3030303020436C2020302020302020302020302020302020302020302020302020302020302020302020300A20202020312E323337352020202D302E3731343520202020302E3030303020436C2020302020302020302020302020302020302020302020302020302020302020302020300A2020312020322020312020302020202020200A2020322020332020312020302020202020200A2020332020342020322020302020202020200A2020322020352020312020302020202020200A2020312020362020312020302020202020200A4D2020454E44
Contributor: SASAKI S, TOYOHASHI UNIV. OF TECH.
InstType: EI
InstName: Unknown
IoniMethod: EI
IonPolarity: pos
Date: 2010-10-09 19:48:36+02:00
Num Peaks: 59
25 11 26 90 27 353 28 8 29 16 35 11 36 45 37 3 38 48 39 398 
40 19 41 4 42 20 43 27 44 9 47 1 48 9 49 125 50 91 51 17 
52 40 53 387 54 80 55 5 56 8 57 25 60 8 61 4 62 102 63 28 
64 34 65 1 67 12 69 26 70 6 71 1 73 14 75 999 76 33 77 3 
78 13 81 20 83 19 85 1 87 36 88 182 89 477 90 1 91 159 92 9 
95 20 97 2 99 2 109 17 111 12 113 0 124 51 126 24 128 6 
