Name: MassBank: JP007232
CAS: 93-07-2
MW: 182
Formula: C9H10O4
Synonym: MassBank: JP007232
Synonym: 3,4-DIMETHOXYBENZOIC ACID
Structure: 332C342D44494D4554484F585942454E5A4F494320414349442E6D6F6C0A20204368656D447261773032323131303232333832440A2031332031332020302020302020302020302020302020302020302020303939392056323030300A2020202D312E363530302020202D302E3335373220202020302E303030302043202020302020302020302020302020302020302020302020302020302020302020302020300A2020202D302E383235302020202D302E3335373220202020302E303030302043202020302020302020302020302020302020302020302020302020302020302020302020300A2020202D302E3431323520202020302E3335373220202020302E303030302043202020302020302020302020302020302020302020302020302020302020302020302020300A20202020302E3431323520202020302E3335373220202020302E303030302043202020302020302020302020302020302020302020302020302020302020302020302020300A20202020302E383235302020202D302E3335373220202020302E303030302043202020302020302020302020302020302020302020302020302020302020302020302020300A20202020302E343132352020202D312E3037313720202020302E303030302043202020302020302020302020302020302020302020302020302020302020302020302020300A2020202D302E343132352020202D312E3037313720202020302E303030302043202020302020302020302020302020302020302020302020302020302020302020302020300A2020202D322E303632352020202D312E3037313720202020302E30303030204F202020302020302020302020302020302020302020302020302020302020302020302020300A2020202D322E3036323520202020302E3335373220202020302E30303030204F202020302020302020302020302020302020302020302020302020302020302020302020300A20202020312E363530302020202D302E3335373220202020302E30303030204F202020302020302020302020302020302020302020302020302020302020302020302020300A20202020322E303632352020202D312E3037313720202020302E303030302043202020302020302020302020302020302020302020302020302020302020302020302020300A20202020302E3832353020202020312E3037313720202020302E30303030204F202020302020302020302020302020302020302020302020302020302020302020302020300A20202020312E3635303020202020312E3037313720202020302E303030302043202020302020302020302020302020302020302020302020302020302020302020302020300A2020312020322020312020302020202020200A2020322020332020312020302020202020200A2020332020342020322020302020202020200A2020342020352020312020302020202020200A2020352020362020322020302020202020200A2020362020372020312020302020202020200A2020322020372020322020302020202020200A2020312020382020322020302020202020200A2020312020392020312020302020202020200A2031302031312020312020302020202020200A2020352031302020312020302020202020200A2031322031332020312020302020202020200A2020342031322020312020302020202020200A4D2020454E44
Contributor: ENDO K, PHARMACEUTICAL INST., TOHOKU UNIV.
InstType: EI
InstName: HITACHI M-52
IoniMethod: _ENERGY 70 eV
IonPolarity: pos
Date: 2010-10-09 19:48:36+02:00
Num Peaks: 80
39 46 40 25 41 64 42 2 43 59 44 13 45 33 50 6 51 109 52 23 
53 49 55 6 56 25 57 74 59 12 60 2 61 19 62 34 63 63 64 2 
65 61 66 12 67 50 68 4 69 53 70 17 71 30 73 2 74 18 76 31 
77 171 78 3 79 128 80 22 81 66 82 2 83 30 84 11 85 16 91 3 
92 24 93 75 94 30 95 18 96 47 97 20 98 10 105 1 107 35 108 14 
109 30 111 17 112 20 115 10 119 57 120 1 121 150 122 30 123 12 124 1 
125 20 129 11 135 13 136 2 137 34 138 11 139 77 149 7 150 12 151 20 
157 12 165 7 166 27 167 347 168 31 169 1 181 11 182 999 183 117 184 16 
