Name: MassBank: JP006646
MW: 304
Formula: C21H24N2
Synonym: MassBank: JP006646
Synonym: 6-METHYL-9-(2-(6-METHYL-3-PYRIDYL)ETHYL)-1,2,3,4-TETRAHYDROCARBAZOLE
Structure: 362D4D455448594C2D392D28322D28362D4D455448594C2D332D5059524944594C29455448594C292D312C322C332C342D5445545241485944524F43415242415A4F4C452E6D6F6C0A20204368656D447261773035313931303132353332440A2032332032362020302020302020302020302020302020302020302020303939392056323030300A20202020302E3139323620202020302E3931353220202020302E30303030204E202020302020302020302020302020302020302020302020302020302020302020302020300A2020202D302E3536313020202020312E3235303720202020302E303030302043202020302020302020302020302020302020302020302020302020302020302020302020300A2020202D312E3331343720202020302E3931353220202020302E303030302043202020302020302020302020302020302020302020302020302020302020302020302020300A2020202D312E3938323220202020312E3430303120202020302E303030302043202020302020302020302020302020302020302020302020302020302020302020302020300A2020202D312E3839353920202020322E3232303620202020302E303030302043202020302020302020302020302020302020302020302020302020302020302020302020300A2020202D312E3134323320202020322E3535363220202020302E303030302043202020302020302020302020302020302020302020302020302020302020302020302020300A2020202D302E3437343820202020322E3037313220202020302E303030302043202020302020302020302020302020302020302020302020302020302020302020302020300A20202020302E3333323220202020322E3234323820202020302E303030302043202020302020302020302020302020302020302020302020302020302020302020302020300A20202020302E3734343720202020322E3935373220202020302E303030302043202020302020302020302020302020302020302020302020302020302020302020302020300A20202020312E3536393720202020322E3935373220202020302E303030302043202020302020302020302020302020302020302020302020302020302020302020302020300A20202020312E3938323220202020322E3234323820202020302E303030302043202020302020302020302020302020302020302020302020302020302020302020302020300A20202020312E3536393720202020312E3532383320202020302E303030302043202020302020302020302020302020302020302020302020302020302020302020302020300A20202020302E3734343720202020312E3532383320202020302E303030302043202020302020302020302020302020302020302020302020302020302020302020302020300A20202020302E3336343220202020302E3130383220202020302E303030302043202020302020302020302020302020302020302020302020302020302020302020302020300A2020202D302E323438392020202D302E3434333820202020302E303030302043202020302020302020302020302020302020302020302020302020302020302020302020300A2020202D302E363930352020202D312E3830323820202020302E303030302043202020302020302020302020302020302020302020302020302020302020302020302020300A2020202D302E303737342020202D312E3235303820202020302E303030302043202020302020302020302020302020302020302020302020302020302020302020302020300A20202020302E373037322020202D312E3530353720202020302E303030302043202020302020302020302020302020302020302020302020302020302020302020302020300A20202020302E383738372020202D322E3331323720202020302E303030302043202020302020302020302020302020302020302020302020302020302020302020302020300A20202020302E323635362020202D322E3836343720202020302E303030302043202020302020302020302020302020302020302020302020302020302020302020302020300A2020202D302E353139302020202D322E3630393820202020302E30303030204E202020302020302020302020302020302020302020302020302020302020302020302020300A20202020302E343337322020202D332E3637313720202020302E303030302043202020302020302020302020302020302020302020302020302020302020302020302020300A20202020312E3938323220202020332E3637313720202020302E303030302043202020302020302020302020302020302020302020302020302020302020302020302020300A2020312020322020312020302020202020200A2020322020332020312020302020202020200A2020332020342020312020302020202020200A2020342020352020312020302020202020200A2020352020362020312020302020202020200A2020362020372020312020302020202020200A2020322020372020322020302020202020200A2020372020382020312020302020202020200A2020382020392020312020302020202020200A2020392031302020322020302020202020200A2031302031312020312020302020202020200A2031312031322020322020302020202020200A2031322031332020312020302020202020200A2020382031332020322020302020202020200A2020312031332020312020302020202020200A2031342031352020312020302020202020200A2031362031372020312020302020202020200A2031372031382020322020302020202020200A2031382031392020312020302020202020200A2031392032302020322020302020202020200A2032302032312020312020302020202020200A2031362032312020322020302020202020200A2032302032322020312020302020202020200A2031352031372020312020302020202020200A2020312031342020312020302020202020200A2031302032332020312020302020202020200A4D2020454E44
Contributor: SASAKI S, TOYOHASHI UNIV. OF TECH.
InstType: EI
InstName: JEOL JMS-01-SG-2
IoniMethod: _ENERGY 75 eV
IonPolarity: pos
Date: 2010-10-09 19:48:36+02:00
Num Peaks: 11
42 13 43 21 57 11 58 1 77 15 105 10 128 21 170 6 198 999 199 120 
304 281 
