Name: 2-(2-METHYLBENZOYL)INDOLE
MW: 235
Formula: C16H13NO
Synonym: MassBank: JP005047
Synonym: 2-(2-METHYLBENZOYL)INDOLE
Synonym: 2-INDOLYL O-TOLYL KETONE
Structure: 322D28322D4D455448594C42454E5A4F594C29494E444F4C452E6D6F6C0A20204368656D447261773132323130393134303032440A2031382032302020302020302020302020302020302020302020302020303939392056323030300A2020202D302E3234333620202020302E3538363020202020302E30303030204E202020302020302020302020302020302020302020302020302020302020302020302020300A2020202D302E313537332020202D302E3233343520202020302E303030302043202020302020302020302020302020302020302020302020302020302020302020302020300A2020202D302E393131302020202D302E3537303020202020302E303030302043202020302020302020302020302020302020302020302020302020302020302020302020300A2020202D312E3436333020202020302E3034333020202020302E303030302043202020302020302020302020302020302020302020302020302020302020302020302020300A2020202D322E3238383020202020302E3034333020202020302E303030302043202020302020302020302020302020302020302020302020302020302020302020302020300A2020202D322E3730303520202020302E3735373520202020302E303030302043202020302020302020302020302020302020302020302020302020302020302020302020300A2020202D322E3238383020202020312E3437323020202020302E303030302043202020302020302020302020302020302020302020302020302020302020302020302020300A2020202D312E3436333020202020312E3437323020202020302E303030302043202020302020302020302020302020302020302020302020302020302020302020302020300A2020202D312E3035303520202020302E3735373520202020302E303030302043202020302020302020302020302020302020302020302020302020302020302020302020300A20202020302E353537312020202D302E3634373020202020302E303030302043202020302020302020302020302020302020302020302020302020302020302020302020300A20202020312E323731362020202D302E3233343520202020302E303030302043202020302020302020302020302020302020302020302020302020302020302020302020300A20202020312E3237313620202020302E3539303520202020302E303030302043202020302020302020302020302020302020302020302020302020302020302020302020300A20202020312E3938363120202020312E3030333020202020302E303030302043202020302020302020302020302020302020302020302020302020302020302020302020300A20202020322E3730303520202020302E3539303520202020302E303030302043202020302020302020302020302020302020302020302020302020302020302020302020300A20202020322E373030352020202D302E3233343520202020302E303030302043202020302020302020302020302020302020302020302020302020302020302020302020300A20202020312E393836312020202D302E3634373020202020302E303030302043202020302020302020302020302020302020302020302020302020302020302020302020300A20202020302E353537312020202D312E3437323020202020302E30303030204F202020302020302020302020302020302020302020302020302020302020302020302020300A20202020302E3535373120202020312E3030333020202020302E303030302043202020302020302020302020302020302020302020302020302020302020302020302020300A2020312020322020312020302020202020200A2020322020332020322020302020202020200A2020332020342020312020302020202020200A2020342020352020312020302020202020200A2020352020362020322020302020202020200A2020362020372020312020302020202020200A2020372020382020322020302020202020200A2020382020392020312020302020202020200A2020312020392020312020302020202020200A2020342020392020322020302020202020200A2031302031312020312020302020202020200A2031312031322020312020302020202020200A2031322031332020322020302020202020200A2031332031342020312020302020202020200A2031342031352020322020302020202020200A2031352031362020312020302020202020200A2031312031362020322020302020202020200A2031302031372020322020302020202020200A2031322031382020312020302020202020200A2020322031302020312020302020202020200A4D2020454E44
Contributor: SASAKI S, TOYOHASHI UNIV. OF TECH.
InstType: EI
InstName: MX-1303
IoniMethod: _ENERGY 50 eV
IonPolarity: pos
Date: 2010-10-09 19:48:36+02:00
Num Peaks: 33
39 30 41 28 43 45 55 2 57 16 63 30 65 56 69 7 77 14 81 19 
89 298 90 13 91 269 115 30 116 34 117 2 118 98 119 45 130 94 143 2 
144 98 178 11 204 53 205 2 206 139 207 69 216 72 217 10 218 378 219 44 
220 49 235 999 236 153 
