Name: MassBank: JP004775
MW: 268
Formula: C14H16N4Si
Synonym: MassBank: JP004775
Synonym: 4,4,5,5-TETRACYANO-1-TRIMETHYLSILYLMETHYLCYCLOHEXENE
Structure: 342C342C352C352D54455452414359414E4F2D312D5452494D455448594C53494C594C4D455448594C4359434C4F484558454E452E6D6F6C0A20204368656D447261773130313831303136353332440A2031392031392020302020302020302020302020302020302020302020303939392056323030300A20202020302E3433393720202020302E3532323220202020302E303030302043202020302020302020302020302020302020302020302020302020302020302020302020300A20202020312E3135343120202020302E3130393720202020302E303030302043202020302020302020302020302020302020302020302020302020302020302020302020300A20202020312E313534312020202D302E3731353320202020302E303030302043202020302020302020302020302020302020302020302020302020302020302020302020300A20202020302E343339372020202D312E3132373820202020302E303030302043202020302020302020302020302020302020302020302020302020302020302020302020300A2020202D302E323734382020202D302E3731353320202020302E303030302043202020302020302020302020302020302020302020302020302020302020302020302020300A2020202D302E3237343820202020302E3130393720202020302E303030302043202020302020302020302020302020302020302020302020302020302020302020302020300A2020202D312E303731372020202D302E3530313720202020302E303030302043202020302020302020302020302020302020302020302020302020302020302020302020300A2020202D312E383638362020202D302E3238383220202020302E30303030204E202020302020302020302020302020302020302020302020302020302020302020302020300A2020202D302E363837332020202D312E3432393720202020302E303030302043202020302020302020302020302020302020302020302020302020302020302020302020300A2020202D312E303939382020202D322E3134343220202020302E30303030204E202020302020302020302020302020302020302020302020302020302020302020302020300A20202020302E303237322020202D312E3834323220202020302E303030302043202020302020302020302020302020302020302020302020302020302020302020302020300A2020202D302E353033312020202D322E3437343220202020302E30303030204E202020302020302020302020302020302020302020302020302020302020302020302020300A20202020312E303233302020202D312E3731313120202020302E303030302043202020302020302020302020302020302020302020302020302020302020302020302020300A20202020312E363036342020202D322E3239343520202020302E30303030204E202020302020302020302020302020302020302020302020302020302020302020302020300A20202020302E3433393720202020312E3334373220202020302E303030302043202020302020302020302020302020302020302020302020302020302020302020302020300A20202020312E3135343120202020312E3735393720202020302E303030302053692020302020302020302020302020302020302020302020302020302020302020302020300A20202020302E3734313620202020322E3437343220202020302E303030302043202020302020302020302020302020302020302020302020302020302020302020302020300A20202020312E3836383620202020322E3137323220202020302E303030302043202020302020302020302020302020302020302020302020302020302020302020302020300A20202020312E3536363620202020312E3034353320202020302E303030302043202020302020302020302020302020302020302020302020302020302020302020302020300A2020312020322020322020302020202020200A2020322020332020312020302020202020200A2020332020342020312020302020202020200A2020342020352020312020302020202020200A2020352020362020312020302020202020200A2020312020362020312020302020202020200A2020372020382020332020302020202020200A2020352020372020312020302020202020200A2020392031302020332020302020202020200A2020352020392020312020302020202020200A2031312031322020332020302020202020200A2020342031312020312020302020202020200A2031332031342020332020302020202020200A2020342031332020312020302020202020200A2031362031372020312020302020202020200A2031362031382020312020302020202020200A2031362031392020312020302020202020200A2031352031362020312020302020202020200A2020312031352020312020302020202020200A4D2020454E44
Contributor: MASS SPECTROSCOPY SOC. OF JAPAN (MSSJ)
InstType: EI
InstName: JEOL JMS-D-3000
IoniMethod: _ENERGY 18 eV
IonPolarity: pos
Date: 2010-10-09 19:48:36+02:00
Num Peaks: 22
32 27 73 875 74 70 75 36 113 59 151 200 152 68 165 21 190 999 191 172 
192 44 201 21 203 29 214 29 228 149 229 26 253 178 254 39 267 23 268 384 
269 81 270 21 
