Name: MassBank: JP004912
CAS: 764-41-0
MW: 123
Formula: C4H6Cl2
Synonym: MassBank: JP004912
Synonym: TRANS-1,4-DICHLORO-2-BUTENE
Structure: 310A31360A5452414E532D312C342D444943484C4F524F2D322D425554454E452E6D6F6C0A20204368656D447261773038313231303037343532440A2020362020352020302020302020302020302020302020302020302020303939392056323030300A2020202D312E3037313720202020302E3230363320202020302E303030302043202020302020302020302020302020302020302020302020302020302020302020302020300A2020202D302E333537322020202D302E3230363320202020302E303030302043202020302020302020302020302020302020302020302020302020302020302020302020300A20202020302E3335373220202020302E3230363320202020302E303030302043202020302020302020302020302020302020302020302020302020302020302020302020300A20202020312E303731372020202D302E3230363220202020302E303030302043202020302020302020302020302020302020302020302020302020302020302020302020300A20202020312E3738363220202020302E3230363320202020302E3030303020436C2020302020302020302020302020302020302020302020302020302020302020302020300A2020202D312E373836322020202D302E3230363320202020302E3030303020436C2020302020302020302020302020302020302020302020302020302020302020302020300A2020312020322020312020302020202020200A2020322020332020322020302020202020200A2020332020342020312020302020202020200A2020342020352020312020302020202020200A2020312020362020312020302020202020200A4D2020454E44
Contributor: MASS SPECTROSCOPY SOC. OF JAPAN (MSSJ)
InstType: EI
InstName: JEOL JMS-D-3000
IoniMethod: _ENERGY 70 eV
IonPolarity: pos
Date: 2010-10-09 19:48:36+02:00
Num Peaks: 26
49 65 50 51 51 106 52 25 53 402 54 106 57 14 61 25 62 236 63 31 
64 77 73 11 75 999 76 36 77 329 78 11 87 21 88 131 89 416 90 61 
91 120 93 31 95 17 124 173 126 115 128 19 
