Name: ETHYLHYDRAZONE PROPIONALDEHYDE
MW: 100
Formula: C5H12N2
Synonym: MassBank: JP000522
Synonym: ETHYLHYDRAZONE PROPIONALDEHYDE
Synonym: PROPIONALDEHYDE ETHYLHYDRAZONE
Structure: 310A32300A455448594C48594452415A4F4E452050524F50494F4E414C4445485944452E6D6F6C0A20204368656D447261773038313131303139313532440A2020382020372020302020302020302020302020302020302020302020303939392056323030300A2020202D312E3434333720202020302E3030303020202020302E303030302043202020302020302020302020302020302020302020302020302020302020302020302020300A2020202D302E3631383720202020302E3030303020202020302E303030302043202020302020302020302020302020302020302020302020302020302020302020302020300A2020202D302E3230363220202020302E3731343520202020302E303030302043202020302020302020302020302020302020302020302020302020302020302020302020300A2020202D312E383536332020202D302E3731343520202020302E30303030204F202020302020302020302020302020302020302020302020302020302020302020302020300A2020202D302E323036322020202D302E3731343520202020302E30303030204E202020302020302020302020302020302020302020302020302020302020302020302020300A20202020302E363138382020202D302E3731343520202020302E30303030204E202020302020302020302020302020302020302020302020302020302020302020302020300A20202020312E3033313320202020302E3030303020202020302E303030302043202020302020302020302020302020302020302020302020302020302020302020302020300A20202020312E3835363320202020302E3030303020202020302E303030302043202020302020302020302020302020302020302020302020302020302020302020302020300A2020312020322020312020302020202020200A2020322020332020312020302020202020200A2020312020342020322020302020202020200A2020352020362020312020302020202020200A2020372020382020312020302020202020200A2020362020372020312020302020202020200A2020322020352020322020302020202020200A4D2020454E44
Contributor: SASAKI S, TOYOHASHI UNIV. OF TECH.
InstType: EI
InstName: SHIMADZU LKB-2091
IoniMethod: _ENERGY 70 eV
IonPolarity: pos
Date: 2010-10-09 19:48:36+02:00
Num Peaks: 27
29 450 30 999 39 120 40 5 41 230 42 230 43 150 44 10 45 80 46 22 
54 54 55 3 56 330 57 70 58 80 59 2 69 30 70 17 71 135 72 2 
73 20 83 70 85 900 86 6 99 46 100 700 101 95 
