Name: MassBank: JP002068
MW: 170
Formula: C8H10O4
Synonym: MassBank: JP002068
Synonym: 3,4-DIHYDROXYPHENYLETHAN-1,2-DIOL
Synonym: 4-(1,2-DIHYDROXYETHYL)PYROCATECHOL
Structure: 332C342D4449485944524F58595048454E594C455448414E2D312C322D44494F4C2E6D6F6C0A20204368656D447261773032323131303232333732440A2031322031322020302020302020302020302020302020302020302020303939392056323030300A2020202D302E3731343520202020312E3835363320202020302E303030302043202020302020302020302020302020302020302020302020302020302020302020302020300A20202020302E3030303020202020312E3434333720202020302E303030302043202020302020302020302020302020302020302020302020302020302020302020302020300A2020202D312E3432383920202020312E3434333720202020302E30303030204F202020302020302020302020302020302020302020302020302020302020302020302020300A20202020302E3731343520202020312E3835363320202020302E30303030204F202020302020302020302020302020302020302020302020302020302020302020302020300A20202020302E3030303020202020302E3631383720202020302E303030302043202020302020302020302020302020302020302020302020302020302020302020302020300A20202020302E3731343520202020302E3230363220202020302E303030302043202020302020302020302020302020302020302020302020302020302020302020302020300A20202020302E373134352020202D302E3631383720202020302E303030302043202020302020302020302020302020302020302020302020302020302020302020302020300A2020202D302E303030302020202D312E3033313320202020302E303030302043202020302020302020302020302020302020302020302020302020302020302020302020300A2020202D302E373134352020202D302E3631383820202020302E303030302043202020302020302020302020302020302020302020302020302020302020302020302020300A2020202D302E3731343520202020302E3230363220202020302E303030302043202020302020302020302020302020302020302020302020302020302020302020302020300A2020202D302E303030302020202D312E3835363320202020302E30303030204F202020302020302020302020302020302020302020302020302020302020302020302020300A20202020312E343238392020202D312E3033313320202020302E30303030204F202020302020302020302020302020302020302020302020302020302020302020302020300A2020312020322020312020302020202020200A2020312020332020312020302020202020200A2020322020342020312020302020202020200A2020352020362020312020302020202020200A2020362020372020322020302020202020200A2020372020382020312020302020202020200A2020382020392020322020302020202020200A2020392031302020312020302020202020200A2020352031302020322020302020202020200A2020382031312020312020302020202020200A2020372031322020312020302020202020200A2020322020352020312020302020202020200A4D2020454E44
Contributor: ENDO K, PHARMACEUTICAL INST., TOHOKU UNIV.
InstType: EI
InstName: HITACHI M-52
IoniMethod: _ENERGY 25 eV
IonPolarity: pos
Date: 2010-10-09 19:48:36+02:00
Num Peaks: 67
17 37 18 183 27 55 28 2 29 43 31 43 39 98 40 2 41 49 42 12 
43 67 50 1 51 183 52 37 53 55 54 2 55 98 56 12 57 31 58 1 
59 24 60 12 63 24 64 2 65 494 66 67 67 43 68 2 69 18 76 24 
77 262 78 7 79 31 81 49 82 49 83 3 93 604 94 85 95 49 96 2 
97 18 105 73 106 18 107 2 109 37 110 49 111 177 112 2 121 18 122 24 
123 999 124 9 125 18 135 67 136 67 137 6 138 982 139 67 140 18 149 2 
152 293 153 55 154 18 170 18 171 18 71 24 73 12 
