Name: MassBank: JP006319
MW: 436
Formula: C26H44O5
Synonym: MassBank: JP006319
Synonym: LABDA-7,14-DIEN-13(R)-OL-ALPHA-L-6-DEOXYIDOPYRANOSIDE
Structure: 313131345F4C414244412D372C31342D4449454E2D31332852292D4F4C2D414C5048412D4C2D362D44454F585949444F505952414E4F534944452E6D6F6C0A20204368656D447261773039303731303131303332440A2033392034312020302020302020302020302020302020302020302020303939392056323030300A20202020302E3135363220202020322E3731363620202020302E303030302043202020302020302020302020302020302020302020302020302020302020302020302020300A20202020302E3135363220202020312E3839313620202020302E303030302043202020302020302020302020302020302020302020302020302020302020302020302020300A20202020302E3837303720202020312E3437393120202020302E303030302043202020302020302020302020302020302020302020302020302020302020302020302020300A20202020312E3538353220202020312E3839313620202020302E303030302043202020302020302020302020302020302020302020302020302020302020302020302020300A20202020312E3538353220202020322E3731363620202020302E303030302043202020302020302020302020302020302020302020302020302020302020302020302020300A20202020302E3837303720202020332E3132393120202020302E303030302043202020302020302020302020302020302020302020302020302020302020302020302020300A20202020322E3239393720202020312E3437393120202020302E303030302043202020302020302020302020302020302020302020302020302020302020302020302020300A20202020332E3031343120202020312E3839313620202020302E303030302043202020302020302020302020302020302020302020302020302020302020302020302020300A20202020332E3031343120202020322E3731363620202020302E303030302043202020302020302020302020302020302020302020302020302020302020302020302020300A20202020322E3239393720202020332E3132393120202020302E303030302043202020302020302020302020302020302020302020302020302020302020302020302020300A2020202D302E3535383220202020312E3437393120202020302E303030302043202020302020302020302020302020302020302020302020302020302020302020302020300A20202020322E3932363520202020332E3636353520202020302E303030302043202020302020302020302020302020302020302020302020302020302020302020302020300A20202020312E3230343420202020302E3732343620202020302E303030302043202020302020302020302020302020302020302020302020302020302020302020302020300A20202020312E3536323220202020312E3036363920202020302E303030302043202020302020302020302020302020302020302020302020302020302020302020302020300A20202020312E303635392020202D302E3038383720202020302E303030302043202020302020302020302020302020302020302020302020302020302020302020302020300A20202020312E373031302020202D302E3631353320202020302E303030302043202020302020302020302020302020302020302020302020302020302020302020302020300A20202020322E3232373620202020302E3031393820202020302E303030302043202020302020302020302020302020302020302020302020302020302020302020302020300A20202020322E333336312020202D312E3134313920202020302E303030302043202020302020302020302020302020302020302020302020302020302020302020302020300A20202020312E313734342020202D312E3235303420202020302E30303030204F202020302020302020302020302020302020302020302020302020302020302020302020300A20202020302E3235363920202020302E3932373820202020302E303030302048202020302020302020302020302020302020302020302020302020302020302020302020300A20202020312E3538353220202020332E3534313620202020302E303030302048202020302020302020302020302020302020302020302020302020302020302020302020300A20202020312E3832333220202020332E3830323620202020302E303030302043202020302020302020302020302020302020302020302020302020302020302020302020300A20202020332E313039372020202D302E3835353220202020302E303030302043202020302020302020302020302020302020302020302020302020302020302020302020300A2020202D312E393139392020202D312E3137373420202020302E303030302043202020302020302020302020302020302020302020302020302020302020302020302020300A2020202D332E313039372020202D322E3038333420202020302E303030302043202020302020302020302020302020302020302020302020302020302020302020302020300A2020202D312E393139392020202D322E3937373620202020302E303030302043202020302020302020302020302020302020302020302020302020302020302020302020300A2020202D302E303537362020202D322E3937373620202020302E303030302043202020302020302020302020302020302020302020302020302020302020302020302020300A20202020312E313739392020202D322E3038333420202020302E303030302043202020302020302020302020302020302020302020302020302020302020302020302020300A2020202D302E303537362020202D312E3137373420202020302E30303030204F202020302020302020302020302020302020302020302020302020302020302020302020300A2020202D332E313039372020202D312E3332323820202020302E303030302048202020302020302020302020302020302020302020302020302020302020302020302020300A2020202D332E313039372020202D322E3937373620202020302E30303030204F202020302020302020302020302020302020302020302020302020302020302020302020300A20202020312E313739392020202D322E3839363520202020302E303030302048202020302020302020302020302020302020302020302020302020302020302020302020300A2020202D302E303537362020202D322E3137383820202020302E303030302048202020302020302020302020302020302020302020302020302020302020302020302020300A2020202D302E303537362020202D332E3830323620202020302E30303030204F202020302020302020302020302020302020302020302020302020302020302020302020300A2020202D312E393139392020202D332E3830323620202020302E303030302048202020302020302020302020302020302020302020302020302020302020302020302020300A2020202D312E393139392020202D322E3232363520202020302E30303030204F202020302020302020302020302020302020302020302020302020302020302020302020300A2020202D312E393139392020202D302E3431363720202020302E303030302048202020302020302020302020302020302020302020302020302020302020302020302020300A2020202D312E393331382020202D312E3737333520202020302E303030302043202020302020302020302020302020302020302020302020302020302020302020302020300A2020202D302E3535383220202020332E3132393120202020302E303030302048202020302020302020302020302020302020302020302020302020302020302020302020300A2020312020322020322020302020202020200A2020322020332020312020302020202020200A2020332020342020312020302020202020200A2020342020352020312020302020202020200A2020352020362020312020302020202020200A2020362020312020312020302020202020200A2020342020372020312020302020202020200A2020372020382020312020302020202020200A2020382020392020312020302020202020200A2020392031302020312020302020202020200A2031302020352020312020302020202020200A2020322031312020312020302020202020200A2031302031322020312020312020202020200A2020332031332020312020312020202020200A2020342031342020312020312020202020200A2031332031352020312020302020202020200A2031352031362020312020302020202020200A2031362031372020312020312020202020200A2031362031382020312020302020202020200A2031362031392020312020312020202020200A2020332032302020312020362020202020200A2020352032312020312020362020202020200A2031302032322020312020362020202020200A2031382032332020322020302020202020200A2032342032352020312020302020202020200A2032352032362020312020312020202020200A2032362032372020312020312020202020200A2032382032372020312020312020202020200A2032382032392020312020302020202020200A2032342032392020312020302020202020200A2032352033302020312020302020202020200A2032352033312020312020302020202020200A2032382033322020312020302020202020200A2032372033332020312020302020202020200A2032372033342020312020302020202020200A2032362033352020312020302020202020200A2032362033362020312020302020202020200A2032342033372020312020302020202020200A2032342033382020312020302020202020200A2031392032382020312020302020202020200A2020312033392020312020302020202020200A4D2020454E44
Contributor: EGUCHI S, FAC. OF SCIENCE, HIROSHIMA UNIV.
InstType: EI
InstName: HITACHI RMU-6L
IoniMethod: _ENERGY 70 eV
IonPolarity: pos
Date: 2010-10-09 19:48:36+02:00
Num Peaks: 219
40 75 41 420 42 195 43 52 44 240 45 585 46 140 47 13 48 60 49 50 
50 28 51 6 52 35 53 255 54 85 55 76 56 145 57 500 58 235 59 17 
60 555 61 180 62 15 63 3 64 15 65 105 66 45 67 36 68 195 69 810 
70 140 71 51 72 125 73 525 74 115 75 22 76 590 77 205 78 305 79 11 
80 320 81 60 82 135 83 6 84 15 85 17 86 65 87 14 88 50 89 60 
90 20 91 28 92 95 93 430 94 170 95 56 96 130 97 180 98 120 99 14 
100 75 101 55 102 55 103 9 104 35 105 280 106 115 107 36 108 255 109 660 
110 140 111 17 112 90 113 55 114 25 115 9 116 30 117 150 118 50 119 36 
120 120 121 75 122 65 123 7 124 130 125 35 126 83 127 5 128 75 129 140 
130 30 131 8 132 45 133 225 134 115 135 28 136 130 137 165 138 85 139 7 
140 35 141 60 142 40 143 5 144 45 145 105 146 55 147 20 148 135 149 165 
150 60 151 11 152 50 153 50 154 25 155 4 156 20 157 45 158 25 159 8 
160 25 161 195 162 70 163 14 164 130 165 80 166 50 167 6 168 15 169 25 
170 15 171 4 172 15 173 85 174 30 175 10 176 50 177 150 178 55 179 5 
180 30 181 30 182 20 183 3 184 15 185 45 186 20 187 11 188 55 189 215 
190 75 191 23 192 71 193 55 194 35 195 3 196 15 197 15 198 10 199 4 
200 15 201 85 202 50 203 8 204 999 205 274 206 70 207 6 208 25 209 20 
215 35 216 2 217 45 218 45 219 50 220 6 221 45 222 25 233 20 243 2 
244 10 245 25 246 10 247 1 255 35 257 55 258 25 259 3 261 25 262 23 
263 15 270 3 271 95 272 75 273 50 274 3 275 30 276 20 286 10 287 1 
288 26 289 24 290 15 302 1 303 10 304 17 305 9 306 1 316 4 318 6 
320 5 322 1 331 11 332 5 337 4 350 0 403 1 418 2 436 3 
