Name: 1-BROMO-3-CHLOROPROPANE
MW: 155
Formula: C3H6BrCl
Synonym: MassBank: JP006049
Synonym: 1-BROMO-3-CHLOROPROPANE
Structure: 310A31340A312D42524F4D4F2D332D43484C4F524F50524F50414E452E6D6F6C0A20204368656D447261773131313730393233333432440A2020352020342020302020302020302020302020302020302020302020303939392056323030300A2020202D302E3731343520202020302E3230363220202020302E303030302043202020302020302020302020302020302020302020302020302020302020302020302020300A20202020302E303030302020202D302E3230363320202020302E303030302043202020302020302020302020302020302020302020302020302020302020302020302020300A20202020302E3731343520202020302E3230363320202020302E303030302043202020302020302020302020302020302020302020302020302020302020302020302020300A20202020312E343238392020202D302E3230363320202020302E3030303020436C2020302020302020302020302020302020302020302020302020302020302020302020300A2020202D312E343238392020202D302E3230363320202020302E303030302042722020302020302020302020302020302020302020302020302020302020302020302020300A2020312020322020312020302020202020200A2020322020332020312020302020202020200A2020332020342020312020302020202020200A2020312020352020312020302020202020200A4D2020454E44
Contributor: HASHIMOTO K, KYOTO COLLEGE OF PHARMACY
InstType: EI
InstName: HITACHI M-80
IoniMethod: _ENERGY 20 eV
IonPolarity: pos
Date: 2010-10-09 19:48:36+02:00
Num Peaks: 26
27 122 28 28 39 75 40 34 41 999 42 36 49 64 51 21 63 18 75 16 
76 448 77 745 78 165 79 237 93 13 95 12 107 85 109 83 120 18 122 17 
156 256 157 9 158 332 159 10 160 81 161 3 
