Name: 1-METHYL-1-PHENYLHYDRAZINE
CAS: 618-40-6
MW: 122
Formula: C7H10N2
Synonym: MassBank: JP008188
Synonym: 1-METHYL-1-PHENYLHYDRAZINE
Structure: 310A32330A312D4D455448594C2D312D5048454E594C48594452415A494E452E6D6F6C0A20204368656D447261773131313930393136323132440A2020392020392020302020302020302020302020302020302020302020303939392056323030300A2020202D312E3033313320202020302E3030303020202020302E30303030204E202020302020302020302020302020302020302020302020302020302020302020302020300A2020202D312E343433382020202D302E3731343520202020302E30303030204E202020302020302020302020302020302020302020302020302020302020302020302020300A2020202D302E3230363320202020302E3030303020202020302E303030302043202020302020302020302020302020302020302020302020302020302020302020302020300A20202020302E3230363220202020302E3731343520202020302E303030302043202020302020302020302020302020302020302020302020302020302020302020302020300A20202020312E3033313220202020302E3731343520202020302E303030302043202020302020302020302020302020302020302020302020302020302020302020302020300A20202020312E343433382020202D302E3030303020202020302E303030302043202020302020302020302020302020302020302020302020302020302020302020302020300A20202020312E303331322020202D302E3731343520202020302E303030302043202020302020302020302020302020302020302020302020302020302020302020302020300A20202020302E323036322020202D302E3731343520202020302E303030302043202020302020302020302020302020302020302020302020302020302020302020302020300A2020202D312E3434333820202020302E3731343520202020302E303030302043202020302020302020302020302020302020302020302020302020302020302020302020300A2020312020322020312020302020202020200A2020332020342020312020302020202020200A2020342020352020322020302020202020200A2020352020362020312020302020202020200A2020362020372020322020302020202020200A2020372020382020312020302020202020200A2020332020382020322020302020202020200A2020312020332020312020302020202020200A2020312020392020312020302020202020200A4D2020454E44
Contributor: NARA WOMEN'S UNIVERSITY
InstType: EI
InstName: HITACHI M-80
IoniMethod: _ENERGY 70 eV
IonPolarity: pos
Date: 2010-10-09 19:48:36+02:00
Num Peaks: 52
14 13 15 82 16 23 17 15 18 31 26 24 27 69 28 129 29 99 30 40 
37 28 38 65 39 146 40 21 41 18 42 19 43 46 44 15 45 29 50 162 
51 324 52 106 53 41 54 14 61 24 62 30 63 90 64 62 65 117 66 39 
73 13 74 59 75 39 76 42 77 999 78 271 79 259 80 35 90 16 91 64 
92 71 93 78 94 18 104 122 105 108 106 484 107 813 108 70 120 21 121 99 
122 923 123 86 
