Name: MassBank: JP002964
MW: 401
Formula: C27H47NO
Synonym: MassBank: JP002964
Synonym: (22R,25S)-22,26-EPIMINO-5ALPHA-CHOLESTAN-3BETA-OL
Structure: 283232522C323553292D32322C32362D4550494D494E4F2D35414C5048412D43484F4C455354414E2D33424554412D4F4C2E6D6F6C0A20204368656D447261773130313930393138313632440A2033382034322020302020302020302020302020302020302020302020303939392056323030300A2020202D322E393837372020202D312E3839313620202020302E303030302043202020302020302020302020302020302020302020302020302020302020302020302020300A2020202D322E393837372020202D322E3731363620202020302E303030302043202020302020302020302020302020302020302020302020302020302020302020302020300A2020202D322E323733322020202D332E3132393120202020302E303030302043202020302020302020302020302020302020302020302020302020302020302020302020300A2020202D312E353538372020202D322E3731363620202020302E303030302043202020302020302020302020302020302020302020302020302020302020302020302020300A2020202D312E353538372020202D312E3839313620202020302E303030302043202020302020302020302020302020302020302020302020302020302020302020302020300A2020202D322E323733322020202D312E3437393120202020302E303030302043202020302020302020302020302020302020302020302020302020302020302020302020300A2020202D302E383434322020202D332E3132393120202020302E303030302043202020302020302020302020302020302020302020302020302020302020302020302020300A2020202D302E313239382020202D322E3731363620202020302E303030302043202020302020302020302020302020302020302020302020302020302020302020302020300A2020202D302E313239382020202D312E3839313620202020302E303030302043202020302020302020302020302020302020302020302020302020302020302020302020300A2020202D302E383434322020202D312E3437393120202020302E303030302043202020302020302020302020302020302020302020302020302020302020302020302020300A20202020302E353834372020202D312E3437393120202020302E303030302043202020302020302020302020302020302020302020302020302020302020302020302020300A20202020302E353834372020202D302E3635343120202020302E303030302043202020302020302020302020302020302020302020302020302020302020302020302020300A2020202D302E313239382020202D302E3234313620202020302E303030302043202020302020302020302020302020302020302020302020302020302020302020302020300A2020202D302E383434322020202D302E3635343120202020302E303030302043202020302020302020302020302020302020302020302020302020302020302020302020300A20202020312E333639332020202D312E3733343020202020302E303030302043202020302020302020302020302020302020302020302020302020302020302020302020300A20202020312E383534322020202D312E3036363620202020302E303030302043202020302020302020302020302020302020302020302020302020302020302020302020300A20202020312E333639332020202D302E3339393220202020302E303030302043202020302020302020302020302020302020302020302020302020302020302020302020300A2020202D332E383030312020202D322E3537333320202020302E303030302048202020302020302020302020302020302020302020302020302020302020302020302020300A2020202D312E393837342020202D302E3831393320202020302E303030302048202020302020302020302020302020302020302020302020302020302020302020302020300A20202020302E393937322020202D322E3139333520202020302E303030302048202020302020302020302020302020302020302020302020302020302020302020302020300A20202020322E313137302020202D302E3035303520202020302E303030302048202020302020302020302020302020302020302020302020302020302020302020302020300A2020202D332E323639382020202D332E3439323020202020302E30303030204F202020302020302020302020302020302020302020302020302020302020302020302020300A20202020302E353834372020202D322E3330343120202020302E303030302048202020302020302020302020302020302020302020302020302020302020302020302020300A20202020302E3939303120202020312E3132313720202020302E303030302043202020302020302020302020302020302020302020302020302020302020302020302020300A20202020302E3138393620202020302E3932323220202020302E303030302048202020302020302020302020302020302020302020302020302020302020302020302020300A20202020302E3739303520202020312E3932323320202020302E303030302043202020302020302020302020302020302020302020302020302020302020302020302020300A20202020322E3033303820202020312E3338313320202020302E303030302043202020302020302020302020302020302020302020302020302020302020302020302020300A20202020322E3835313320202020312E3239353520202020302E303030302043202020302020302020302020302020302020302020302020302020302020302020302020300A20202020332E3333353820202020312E3936333220202020302E303030302043202020302020302020302020302020302020302020302020302020302020302020302020300A20202020322E3939393820202020322E3731363820202020302E303030302043202020302020302020302020302020302020302020302020302020302020302020302020300A20202020322E3137393220202020322E3830323520202020302E303030302043202020302020302020302020302020302020302020302020302020302020302020302020300A20202020312E3639353920202020322E3133343020202020302E30303030204E202020302020302020302020302020302020302020302020302020302020302020302020300A20202020332E3830303120202020322E3931363820202020302E303030302048202020302020302020302020302020302020302020302020302020302020302020302020300A20202020322E3038383620202020302E3535383220202020302E303030302048202020302020302020302020302020302020302020302020302020302020302020302020300A2020202D312E353538372020202D332E3534313620202020302E303030302048202020302020302020302020302020302020302020302020302020302020302020302020300A20202020322E3934303620202020332E3534313620202020302E303030302043202020302020302020302020302020302020302020302020302020302020302020302020300A20202020302E3532363120202020302E3137303220202020302E303030302043202020302020302020302020302020302020302020302020302020302020302020302020300A2020202D302E383434372020202D322E3330333520202020302E303030302043202020302020302020302020302020302020302020302020302020302020302020302020300A2020312020322020312020302020202020200A2020322020332020312020302020202020200A2020332020342020312020302020202020200A2020342020352020312020302020202020200A2020352020362020312020302020202020200A2020362020312020312020302020202020200A2020342020372020312020302020202020200A2020372020382020312020302020202020200A2020382020392020312020302020202020200A2020392031302020312020302020202020200A2031302020352020312020302020202020200A2020392031312020312020302020202020200A2031312031322020312020302020202020200A2031322031332020312020302020202020200A2031332031342020312020302020202020200A2031342031302020312020302020202020200A2031312031352020312020302020202020200A2031352031362020312020302020202020200A2031362031372020312020302020202020200A2031372031322020312020302020202020200A2020322031382020312020362020202020200A2031302031392020312020362020202020200A2031312032302020312020362020202020200A2031372032312020312020362020202020200A2020322032322020312020312020202020200A2020392032332020312020312020202020200A2031372032342020312020312020202020200A2032342032352020312020312020202020200A2032342032362020312020302020202020200A2032342032372020312020302020202020200A2032372032382020312020302020202020200A2032382032392020312020302020202020200A2032392033302020312020302020202020200A2033302033312020312020302020202020200A2033312033322020312020302020202020200A2033322032372020312020302020202020200A2033302033332020312020362020202020200A2032372033342020312020312020202020200A2020342033352020312020362020202020200A2033302033362020312020312020202020200A2031322033372020312020312020202020200A2020352033382020312020312020202020200A4D202053545920203120202031205355500A4D2020534C4220203120202031202020310A4D202053414C20202031202031202033360A4D202053424C20202031202031202034300A4D2020534D5420202031204D650A4D2020534256202020312034302020202D362E3833343320202020382E363632300A4D202053545920203120202032205355500A4D2020534C4220203120202032202020320A4D202053414C20202032202031202033370A4D202053424C20202032202031202034310A4D2020534D5420202032204D650A4D2020534256202020322034312020202D362E3833333720202020382E363631340A4D202053545920203120202033205355500A4D2020534C4220203120202033202020330A4D202053414C20202033202031202033380A4D202053424C20202033202031202034320A4D2020534D5420202033204D650A4D2020534256202020332034322020202D362E3036313120202020372E343235330A4D2020454E44
Contributor: SASAKI S, TOYOHASHI UNIV. OF TECH.
InstType: EI
InstName: Unknown
IoniMethod: EI
IonPolarity: pos
Date: 2010-10-09 19:48:36+02:00
Num Peaks: 52
53 9 54 5 55 42 56 4 57 13 58 4 67 30 68 1 69 24 70 15 
71 4 77 1 79 27 80 5 81 37 82 2 83 7 91 18 93 22 94 1 
95 20 96 24 97 13 98 999 99 90 100 5 105 14 107 2 108 7 109 9 
110 5 111 1 112 5 119 7 121 8 124 1 125 12 126 7 145 3 147 0 
150 3 159 3 161 4 384 0 385 1 386 2 387 1 398 0 399 1 400 3 
401 1 402 1 
