Name: ISOBUTYLHYDRAZINE
MW: 88
Formula: C4H12N2
Synonym: MassBank: JP000368
Synonym: ISOBUTYLHYDRAZINE
Structure: 310A31360A49534F425554594C48594452415A494E452E6D6F6C0A20204368656D447261773038313131303231313432440A2020362020352020302020302020302020302020302020302020302020303939392056323030300A2020202D312E303731372020202D302E3230363220202020302E30303030204E202020302020302020302020302020302020302020302020302020302020302020302020300A2020202D312E3037313720202020302E3631383820202020302E30303030204E202020302020302020302020302020302020302020302020302020302020302020302020300A2020202D302E333537322020202D302E3631383820202020302E303030302043202020302020302020302020302020302020302020302020302020302020302020302020300A20202020302E333537322020202D302E3230363220202020302E303030302043202020302020302020302020302020302020302020302020302020302020302020302020300A20202020302E3335373220202020302E3631383820202020302E303030302043202020302020302020302020302020302020302020302020302020302020302020302020300A20202020312E303731372020202D302E3631383720202020302E303030302043202020302020302020302020302020302020302020302020302020302020302020302020300A2020312020322020312020302020202020200A2020332020342020312020302020202020200A2020342020352020312020302020202020200A2020342020362020312020302020202020200A2020312020332020312020302020202020200A4D2020454E44
Contributor: SASAKI S, TOYOHASHI UNIV. OF TECH.
InstType: EI
InstName: SHIMADZU LKB-2091
IoniMethod: _ENERGY 70 eV
IonPolarity: pos
Date: 2010-10-09 19:48:36+02:00
Num Peaks: 29
26 10 27 87 28 167 29 12 30 67 31 107 32 87 38 1 39 77 40 11 
41 120 42 3 43 53 44 41 45 999 46 5 53 6 54 11 55 15 56 3 
57 30 58 7 59 13 70 1 71 11 73 7 87 6 88 28 89 46 
