Name: BIS(TERT-BUTYLDIMETHYLSILYL) ETHER
MW: 246
Formula: C12H30OSi2
Synonym: MassBank: JP002409
Synonym: BIS(TERT-BUTYLDIMETHYLSILYL) ETHER
Structure: 42495328544552542D425554594C44494D455448594C53494C594C292045544845522E6D6F6C0A20204368656D447261773039303631303030353232440A2031352031342020302020302020302020302020302020302020302020303939392056323030300A20202020302E3030303020202020302E3631383820202020302E30303030204F202020302020302020302020302020302020302020302020302020302020302020302020300A2020202D302E3731343520202020302E3230363220202020302E303030302053692020302020302020302020302020302020302020302020302020302020302020302020300A2020202D312E3132373020202020302E3932303720202020302E303030302043202020302020302020302020302020302020302020302020302020302020302020302020300A2020202D302E333032302020202D302E3530383220202020302E303030302043202020302020302020302020302020302020302020302020302020302020302020302020300A2020202D312E343238392020202D302E3230363220202020302E303030302043202020302020302020302020302020302020302020302020302020302020302020302020300A2020202D312E303136342020202D302E3932303720202020302E303030302043202020302020302020302020302020302020302020302020302020302020302020302020300A2020202D312E3834313420202020302E3530383220202020302E303030302043202020302020302020302020302020302020302020302020302020302020302020302020300A2020202D322E313433342020202D302E3631383820202020302E303030302043202020302020302020302020302020302020302020302020302020302020302020302020300A20202020302E3731343520202020302E3230363320202020302E303030302053692020302020302020302020302020302020302020302020302020302020302020302020300A20202020312E3132373020202020302E3932303720202020302E303030302043202020302020302020302020302020302020302020302020302020302020302020302020300A20202020302E333032302020202D302E3530383220202020302E303030302043202020302020302020302020302020302020302020302020302020302020302020302020300A20202020312E343238392020202D302E3230363220202020302E303030302043202020302020302020302020302020302020302020302020302020302020302020302020300A20202020312E303136342020202D302E3932303720202020302E303030302043202020302020302020302020302020302020302020302020302020302020302020302020300A20202020322E313433342020202D302E3631383820202020302E303030302043202020302020302020302020302020302020302020302020302020302020302020302020300A20202020312E3834313420202020302E3530383220202020302E303030302043202020302020302020302020302020302020302020302020302020302020302020302020300A2020322020332020312020302020202020200A2020322020342020312020302020202020200A2020352020362020312020312020202020200A2020352020382020312020302020202020200A2020352020372020312020312020202020200A2020322020352020312020302020202020200A2020312020322020312020302020202020200A2020392031302020312020312020202020200A2020392031312020312020312020202020200A2031322031332020312020312020202020200A2031322031352020312020312020202020200A2031322031342020312020302020202020200A2020392031322020312020302020202020200A2020312020392020312020302020202020200A4D2020454E44
Contributor: MASS SPECTROSCOPY SOC. OF JAPAN (MSSJ)
InstType: EI
InstName: JEOL JMS-D-3000
IoniMethod: _ENERGY 70 eV
IonPolarity: pos
Date: 2010-10-09 19:48:36+02:00
Num Peaks: 20
42 20 45 20 57 15 59 36 66 24 73 147 74 13 75 13 117 42 119 10 
131 40 133 52 147 999 148 158 149 79 189 270 190 52 191 23 231 12 246 8 
