Name: 10-METHYLDODECANOIC ACID TRIMETHYLSILYL ESTER
MW: 286
Formula: C16H34O2Si
Synonym: MassBank: JP000613
Synonym: 10-METHYLDODECANOIC ACID TRIMETHYLSILYL ESTER
Structure: 31302D4D455448594C444F444543414E4F49432041434944205452494D455448594C53494C594C2045535445522E6D6F6C0A20204368656D447261773132313030393136343532440A2031392031382020302020302020302020302020302020302020302020303939392056323030300A2020202D322E3332343020202020312E3037313720202020302E303030302043202020302020302020302020302020302020302020302020302020302020302020302020300A2020202D312E3931313520202020312E3738363220202020302E303030302043202020302020302020302020302020302020302020302020302020302020302020302020300A2020202D312E3038363520202020312E3738363220202020302E303030302043202020302020302020302020302020302020302020302020302020302020302020302020300A2020202D302E3637343020202020312E3037313720202020302E303030302043202020302020302020302020302020302020302020302020302020302020302020302020300A20202020302E3135313020202020312E3037313720202020302E303030302043202020302020302020302020302020302020302020302020302020302020302020302020300A20202020302E3536333520202020302E3335373220202020302E303030302043202020302020302020302020302020302020302020302020302020302020302020302020300A20202020312E3338383520202020302E3335373220202020302E303030302043202020302020302020302020302020302020302020302020302020302020302020302020300A20202020312E383031302020202D302E3335373220202020302E303030302043202020302020302020302020302020302020302020302020302020302020302020302020300A20202020322E363236302020202D302E3335373220202020302E303030302043202020302020302020302020302020302020302020302020302020302020302020302020300A20202020332E303338352020202D312E3037313720202020302E303030302043202020302020302020302020302020302020302020302020302020302020302020302020300A20202020332E383633352020202D312E3037313720202020302E303030302043202020302020302020302020302020302020302020302020302020302020302020302020300A20202020342E323736302020202D302E3335373220202020302E303030302043202020302020302020302020302020302020302020302020302020302020302020302020300A2020202D312E3931313520202020302E3335373220202020302E30303030204F202020302020302020302020302020302020302020302020302020302020302020302020300A2020202D332E3134393020202020312E3037313720202020302E30303030204F202020302020302020302020302020302020302020302020302020302020302020302020300A20202020322E363236302020202D312E3738363220202020302E303030302043202020302020302020302020302020302020302020302020302020302020302020302020300A2020202D332E3536313520202020302E3335373220202020302E303030302053692020302020302020302020302020302020302020302020302020302020302020302020300A2020202D322E383437302020202D302E3035353320202020302E303030302043202020302020302020302020302020302020302020302020302020302020302020302020300A2020202D332E393734302020202D302E3335373220202020302E303030302043202020302020302020302020302020302020302020302020302020302020302020302020300A2020202D342E3237363020202020302E3736393720202020302E303030302043202020302020302020302020302020302020302020302020302020302020302020302020300A2020312020322020312020302020202020200A2020322020332020312020302020202020200A2020332020342020312020302020202020200A2020342020352020312020302020202020200A2020352020362020312020302020202020200A2020362020372020312020302020202020200A2020372020382020312020302020202020200A2020382020392020312020302020202020200A2020392031302020312020302020202020200A2031302031312020312020302020202020200A2031312031322020312020302020202020200A2020312031332020322020302020202020200A2020312031342020312020302020202020200A2031302031352020312020302020202020200A2031362031372020312020302020202020200A2031362031382020312020302020202020200A2031362031392020312020302020202020200A2031342031362020312020302020202020200A4D2020454E44
Contributor: KOGA M, UNIV. OF OCCUPATIONAL AND ENVIRONMENTAL HEALTH
InstType: EI
InstName: JEOL JMS-01-SG
IoniMethod: _ENERGY 70 eV
IonPolarity: pos
Date: 2010-10-09 19:48:36+02:00
Num Peaks: 16
43 276 45 113 55 242 57 10 69 135 73 999 74 102 75 81 95 77 117 726 
129 242 131 14 132 278 145 144 271 226 272 66 
