Name: MAACKIAIN ACETATE
MW: 326
Formula: C18H14O6
Synonym: MassBank: JP003135
Synonym: MAACKIAIN ACETATE
Structure: 303538305F4D4141434B4941494E20414345544154452E6D6F6C0A20204368656D447261773039303631303138353432440A2032362033302020302020302020302020302020302020302020302020303939392056323030300A2020202D312E3339323220202020312E3735333120202020302E303030302043202020302020302020302020302020302020302020302020302020302020302020302020300A2020202D312E3339323220202020302E3932383120202020302E303030302043202020302020302020302020302020302020302020302020302020302020302020302020300A2020202D302E3637373720202020302E3531353620202020302E303030302043202020302020302020302020302020302020302020302020302020302020302020302020300A20202020302E3033363720202020302E3932383120202020302E303030302043202020302020302020302020302020302020302020302020302020302020302020302020300A20202020302E3033363720202020312E3735333120202020302E303030302043202020302020302020302020302020302020302020302020302020302020302020302020300A2020202D302E3637373720202020322E3136353620202020302E303030302043202020302020302020302020302020302020302020302020302020302020302020302020300A20202020302E3735313220202020302E3531353620202020302E303030302043202020302020302020302020302020302020302020302020302020302020302020302020300A20202020312E3436353720202020302E3932383120202020302E303030302043202020302020302020302020302020302020302020302020302020302020302020302020300A20202020312E3436353720202020312E3735333120202020302E303030302043202020302020302020302020302020302020302020302020302020302020302020302020300A20202020302E3735313520202020322E3136353620202020302E30303030204F202020302020302020302020302020302020302020302020302020302020302020302020300A2020202D322E3130353620202020322E3136353620202020302E30303030204F202020302020302020302020302020302020302020302020302020302020302020302020300A20202020302E393234312020202D302E3239323620202020302E30303030204F202020302020302020302020302020302020302020302020302020302020302020302020300A20202020312E373433322020202D302E3337373620202020302E303030302043202020302020302020302020302020302020302020302020302020302020302020302020300A20202020322E3037383820202020302E3337363120202020302E303030302043202020302020302020302020302020302020302020302020302020302020302020302020300A20202020302E3038343920202020302E3032393820202020302E303030302048202020302020302020302020302020302020302020302020302020302020302020302020300A20202020322E3232303720202020312E3236323420202020302E303030302048202020302020302020302020302020302020302020302020302020302020302020302020300A20202020322E323238312020202D312E3034353020202020302E303030302043202020302020302020302020302020302020302020302020302020302020302020302020300A20202020332E303438362020202D302E3935383820202020302E303030302043202020302020302020302020302020302020302020302020302020302020302020302020300A20202020332E333834322020202D302E3230353120202020302E303030302043202020302020302020302020302020302020302020302020302020302020302020302020300A20202020322E3839393320202020302E3436323320202020302E303030302043202020302020302020302020302020302020302020302020302020302020302020302020300A20202020332E353334362020202D312E3632373220202020302E30303030204F202020302020302020302020302020302020302020302020302020302020302020302020300A20202020322E393131302020202D322E3136353620202020302E303030302043202020302020302020302020302020302020302020302020302020302020302020302020300A20202020322E313430392020202D312E3836363220202020302E30303030204F202020302020302020302020302020302020302020302020302020302020302020302020300A2020202D322E3832303120202020302E3932383120202020302E30303030204F202020302020302020302020302020302020302020302020302020302020302020302020300A2020202D322E3832303120202020312E3735333120202020302E303030302043202020302020302020302020302020302020302020302020302020302020302020302020300A2020202D332E3533343620202020322E3136353620202020302E303030302043202020302020302020302020302020302020302020302020302020302020302020302020300A2020312020322020322020302020202020200A2020322020332020312020302020202020200A2020332020342020322020302020202020200A2020342020352020312020302020202020200A2020352020362020322020302020202020200A2020362020312020312020302020202020200A2020342020372020312020302020202020200A2020372020382020312020302020202020200A2020382020392020312020302020202020200A2020392031302020312020302020202020200A2031302020352020312020302020202020200A2020312031312020312020302020202020200A2020372031322020312020302020202020200A2031322031332020312020302020202020200A2031332031342020322020302020202020200A2031342020382020312020302020202020200A2020372031352020312020362020202020200A2020382031362020312020362020202020200A2031332031372020312020302020202020200A2031372031382020322020302020202020200A2031382031392020312020302020202020200A2031392032302020322020302020202020200A2032302031342020312020302020202020200A2031382032312020312020302020202020200A2032312032322020312020302020202020200A2031372032332020312020302020202020200A2032332032322020312020302020202020200A2031312032352020312020302020202020200A2032342032352020322020302020202020200A2032352032362020312020302020202020200A4D2020454E44
Contributor: NAKAYAMA M, MASS SPECTROSCOPY SOC. OF JAPAN (MSSJ)
InstType: EI
InstName: HITACHI RMU-7L
IoniMethod: _ENERGY 70 eV
IonPolarity: pos
Date: 2010-10-09 19:48:36+02:00
Num Peaks: 17
134 320 139 40 141 40 147 120 151 120 152 40 162 200 171 40 175 160 247 40 
253 40 267 40 283 120 284 999 285 120 326 280 329 40 
