Name: MassBank: JP003575
MW: 578
Formula: C34H42O4S2
Synonym: MassBank: JP003575
Synonym: TEREPHTHALOYL BIS(2,6-DI-METHYL-4-TERT-BUTYL-3-HYDROXY-BENZYL SULFIDE)
Structure: 303531305F5445524550485448414C4F594C2042495328322C362D44492D4D455448594C2D342D544552542D425554594C2D332D485944524F58592D42454E5A594C2053554C46494445292E6D6F6C0A20204368656D447261773038323031303034303132440A2034322034342020302020302020302020302020302020302020302020303939392056323030300A20202020302E393837362020202D312E3938353220202020302E303030302043202020302020302020302020302020302020302020302020302020302020302020302020300A20202020302E353735312020202D312E3237303820202020302E303030302043202020302020302020302020302020302020302020302020302020302020302020302020300A2020202D302E323439392020202D312E3237303820202020302E303030302043202020302020302020302020302020302020302020302020302020302020302020302020300A2020202D302E363632342020202D302E3535363320202020302E303030302043202020302020302020302020302020302020302020302020302020302020302020302020300A2020202D302E3234393920202020302E3135383220202020302E303030302043202020302020302020302020302020302020302020302020302020302020302020302020300A2020202D302E3636323420202020302E3837323520202020302E303030302043202020302020302020302020302020302020302020302020302020302020302020302020300A20202020302E3537353120202020302E3135383220202020302E303030302043202020302020302020302020302020302020302020302020302020302020302020302020300A20202020302E393837362020202D302E3535363320202020302E303030302043202020302020302020302020302020302020302020302020302020302020302020302020300A20202020302E353735312020202D322E3639393720202020302E30303030204F202020302020302020302020302020302020302020302020302020302020302020302020300A2020202D302E3234393920202020312E3538373020202020302E30303030204F202020302020302020302020302020302020302020302020302020302020302020302020300A20202020322E323235302020202D312E3237303820202020302E303030302053202020302020302020302020302020302020302020302020302020302020302020302020300A20202020312E383132352020202D312E3938353220202020302E303030302043202020302020302020302020302020302020302020302020302020302020302020302020300A20202020322E393339352020202D302E3835383320202020302E303030302043202020302020302020302020302020302020302020302020302020302020302020302020300A20202020332E363534302020202D312E3237303820202020302E303030302043202020302020302020302020302020302020302020302020302020302020302020302020300A20202020342E333638342020202D302E3835383320202020302E303030302043202020302020302020302020302020302020302020302020302020302020302020302020300A20202020352E303832382020202D312E3237303820202020302E303030302043202020302020302020302020302020302020302020302020302020302020302020302020300A20202020352E303832382020202D322E3039353820202020302E303030302043202020302020302020302020302020302020302020302020302020302020302020302020300A20202020342E333638342020202D322E3530383320202020302E303030302043202020302020302020302020302020302020302020302020302020302020302020302020300A20202020332E363534302020202D322E3039353820202020302E303030302043202020302020302020302020302020302020302020302020302020302020302020302020300A20202020352E373937332020202D302E3835383320202020302E30303030204F202020302020302020302020302020302020302020302020302020302020302020302020300A20202020352E373937332020202D322E3530383320202020302E303030302043202020302020302020302020302020302020302020302020302020302020302020302020300A20202020352E333834382020202D332E3232323720202020302E303030302043202020302020302020302020302020302020302020302020302020302020302020302020300A20202020362E323039382020202D312E3739333920202020302E303030302043202020302020302020302020302020302020302020302020302020302020302020302020300A20202020362E353131382020202D322E3932303720202020302E303030302043202020302020302020302020302020302020302020302020302020302020302020302020300A20202020322E393339352020202D322E3530383320202020302E303030302043202020302020302020302020302020302020302020302020302020302020302020302020300A20202020342E333638342020202D302E3033333320202020302E303030302043202020302020302020302020302020302020302020302020302020302020302020302020300A2020202D322E3232353020202020312E3237303920202020302E303030302053202020302020302020302020302020302020302020302020302020302020302020302020300A2020202D312E3438373420202020302E3837323520202020302E303030302043202020302020302020302020302020302020302020302020302020302020302020302020300A2020202D322E3933393520202020302E3835383420202020302E303030302043202020302020302020302020302020302020302020302020302020302020302020302020300A2020202D332E3635343020202020312E3237303920202020302E303030302043202020302020302020302020302020302020302020302020302020302020302020302020300A2020202D342E3336383420202020302E3835383420202020302E303030302043202020302020302020302020302020302020302020302020302020302020302020302020300A2020202D352E3038323820202020312E3237303920202020302E303030302043202020302020302020302020302020302020302020302020302020302020302020302020300A2020202D352E3038323820202020322E3039353920202020302E303030302043202020302020302020302020302020302020302020302020302020302020302020302020300A2020202D342E3336383420202020322E3530383420202020302E303030302043202020302020302020302020302020302020302020302020302020302020302020302020300A2020202D332E3635343020202020322E3039353920202020302E303030302043202020302020302020302020302020302020302020302020302020302020302020302020300A2020202D352E3739373320202020302E3835383420202020302E30303030204F202020302020302020302020302020302020302020302020302020302020302020302020300A2020202D352E3739373320202020322E3530383420202020302E303030302043202020302020302020302020302020302020302020302020302020302020302020302020300A2020202D362E3230393820202020312E3739333920202020302E303030302043202020302020302020302020302020302020302020302020302020302020302020302020300A2020202D362E3531313820202020322E3932303820202020302E303030302043202020302020302020302020302020302020302020302020302020302020302020302020300A2020202D352E3338343820202020332E3232323720202020302E303030302043202020302020302020302020302020302020302020302020302020302020302020302020300A2020202D322E3933393520202020322E3530383420202020302E303030302043202020302020302020302020302020302020302020302020302020302020302020302020300A2020202D342E3336383420202020302E3033333420202020302E303030302043202020302020302020302020302020302020302020302020302020302020302020302020300A2020312020322020312020302020202020200A2020322020332020312020302020202020200A2020332020342020322020302020202020200A2020342020352020312020302020202020200A2020352020362020312020302020202020200A2020352020372020322020302020202020200A2020372020382020312020302020202020200A2020322020382020322020302020202020200A2020312020392020322020302020202020200A2020362031302020322020302020202020200A2031312031322020312020302020202020200A2031332031342020312020302020202020200A2031342031352020312020302020202020200A2031352031362020322020302020202020200A2031362031372020312020302020202020200A2031372031382020322020302020202020200A2031382031392020312020302020202020200A2031342031392020322020302020202020200A2031362032302020312020302020202020200A2032312032322020312020302020202020200A2032312032342020312020302020202020200A2032312032332020312020302020202020200A2031372032312020312020302020202020200A2031392032352020312020302020202020200A2031352032362020312020302020202020200A2031312031332020312020302020202020200A2020312031322020312020302020202020200A2032372032382020312020302020202020200A2032392033302020312020302020202020200A2033302033312020312020302020202020200A2033312033322020322020302020202020200A2033322033332020312020302020202020200A2033332033342020322020302020202020200A2033342033352020312020302020202020200A2033302033352020322020302020202020200A2033322033362020312020302020202020200A2033372033382020312020302020202020200A2033372034302020312020302020202020200A2033372033392020312020302020202020200A2033332033372020312020302020202020200A2033352034312020312020302020202020200A2033312034322020312020302020202020200A2032372032392020312020302020202020200A2020362032382020312020302020202020200A4D2020454E44
Contributor: MASS SPECTROSCOPY SOC. OF JAPAN (MSSJ)
InstType: EI
InstName: Unknown
IoniMethod: EI
IonPolarity: pos
Date: 2010-10-09 19:48:36+02:00
Num Peaks: 27
41 28 43 45 55 38 57 42 69 54 91 57 92 27 104 44 105 34 121 41 
135 115 136 34 137 35 149 91 161 44 163 31 165 22 175 78 176 49 177 28 
189 31 190 488 191 999 192 131 355 32 578 61 579 22 
