Name: MassBank: JP005223
MW: 318
Formula: C19H26O4
Synonym: MassBank: JP005223
Synonym: METHYL 2-((1E),(3Z)-3-METHYL-7-OXOOCTA-1,3-DIENYL)-1,3-DIMETHYL-4-OXOCYCLOHEX-2-ENYL-1-CARBOXYLATE
Synonym: 9E-TRISPORIC ACID B METHYL ESTER
Structure: 4D455448594C20322D28283145292C28335A292D332D4D455448594C2D372D4F584F4F4354412D312C332D4449454E594C292D312C332D44494D455448594C2D342D4F584F4359434C4F4845582D322D454E594C2D312D434152424F58594C4154452E6D6F6C0A20204368656D447261773036323431303031313132440A2032332032332020302020302020302020302020302020302020302020303939392056323030300A2020202D312E3930363020202020302E3430303320202020302E303030302043202020302020302020302020302020302020302020302020302020302020302020302020300A2020202D312E343933352020202D302E3331343120202020302E303030302043202020302020302020302020302020302020302020302020302020302020302020302020300A2020202D312E393036302020202D312E3032383620202020302E303030302043202020302020302020302020302020302020302020302020302020302020302020302020300A2020202D322E373331302020202D312E3032383620202020302E303030302043202020302020302020302020302020302020302020302020302020302020302020302020300A2020202D332E313433352020202D302E3331343120202020302E303030302043202020302020302020302020302020302020302020302020302020302020302020302020300A2020202D322E3733313020202020302E3430303320202020302E303030302043202020302020302020302020302020302020302020302020302020302020302020302020300A2020202D322E3034393320202020312E3231323820202020302E303030302043202020302020302020302020302020302020302020302020302020302020302020302020300A2020202D312E3431373320202020312E3734333120202020302E30303030204F202020302020302020302020302020302020302020302020302020302020302020302020300A2020202D322E3832343520202020312E3439353020202020302E30303030204F202020302020302020302020302020302020302020302020302020302020302020302020300A2020202D332E313433352020202D312E3734333120202020302E30303030204F202020302020302020302020302020302020302020302020302020302020302020302020300A2020202D312E343933352020202D312E3734333120202020302E303030302043202020302020302020302020302020302020302020302020302020302020302020302020300A2020202D312E3133303820202020302E3638323520202020302E303030302043202020302020302020302020302020302020302020302020302020302020302020302020300A2020202D302E363638352020202D302E3331343120202020302E303030302043202020302020302020302020302020302020302020302020302020302020302020302020300A2020202D302E323536302020202D312E3032383620202020302E303030302043202020302020302020302020302020302020302020302020302020302020302020302020300A20202020302E353639302020202D312E3032383620202020302E303030302043202020302020302020302020302020302020302020302020302020302020302020302020300A20202020302E393831352020202D302E3331343120202020302E303030302043202020302020302020302020302020302020302020302020302020302020302020302020300A20202020312E383036352020202D302E3331343120202020302E303030302043202020302020302020302020302020302020302020302020302020302020302020302020300A20202020322E323139302020202D312E3032383620202020302E303030302043202020302020302020302020302020302020302020302020302020302020302020302020300A20202020332E303434302020202D312E3032383620202020302E303030302043202020302020302020302020302020302020302020302020302020302020302020302020300A20202020332E343536352020202D312E3734333120202020302E303030302043202020302020302020302020302020302020302020302020302020302020302020302020300A20202020332E343536352020202D302E3331343120202020302E30303030204F202020302020302020302020302020302020302020302020302020302020302020302020300A20202020302E393831352020202D312E3734333120202020302E303030302043202020302020302020302020302020302020302020302020302020302020302020302020300A2020202D332E3435363520202020302E3936343720202020302E303030302043202020302020302020302020302020302020302020302020302020302020302020302020300A2020312020322020312020302020202020200A2020322020332020322020302020202020200A2020332020342020312020302020202020200A2020342020352020312020302020202020200A2020352020362020312020302020202020200A2020312020362020312020302020202020200A2020372020382020322020302020202020200A2020372020392020312020302020202020200A2020312020372020312020362020202020200A2020342031302020322020302020202020200A2020332031312020312020302020202020200A2020312031322020312020312020202020200A2031332031342020322020302020202020200A2031342031352020312020302020202020200A2031352031362020322020302020202020200A2031362031372020312020302020202020200A2031372031382020312020302020202020200A2031382031392020312020302020202020200A2031392032302020312020302020202020200A2031392032312020322020302020202020200A2031352032322020312020302020202020200A2020322031332020312020302020202020200A2020392032332020312020302020202020200A4D2020454E44
Contributor: HISAHIRO HAGIWARA, CHEMICAL RESEARCH INSTITUTE OF NON-AQUEOUSSOLUTIONS TOHOKU UNIV.
InstType: EI
InstName: JEOL JMS-DX-300
IoniMethod: _ENERGY 70 eV
IonPolarity: pos
Date: 2010-10-09 19:48:36+02:00
Num Peaks: 47
41 171 43 999 55 317 77 17 79 203 81 128 91 259 93 29 95 105 105 210 
107 123 115 12 117 146 119 179 123 122 128 1 129 126 131 207 133 225 135 14 
136 133 143 142 145 264 147 2 149 150 157 200 158 117 159 40 160 293 161 276 
163 116 171 12 172 106 173 372 175 135 183 3 185 214 187 233 197 368 200 18 
201 384 215 394 243 129 260 26 275 203 318 644 319 142 
