Name: MassBank: JP004794
MW: 244
Formula: C6H18Cl2Si3
Synonym: MassBank: JP004794
Synonym: 1,3-DICHLORO-1,1,2,2,3,3-HEXAMETHYLTRISILANE
Structure: 312C332D444943484C4F524F2D312C312C322C322C332C332D484558414D455448594C54524953494C414E452E6D6F6C0A20204368656D447261773131313130393231333332440A2031312031302020302020302020302020302020302020302020302020303939392056323030300A2020202D312E3635303020202020302E3030303020202020302E3030303020436C2020302020302020302020302020302020302020302020302020302020302020302020300A2020202D302E3832353020202020302E3030303020202020302E303030302053692020302020302020302020302020302020302020302020302020302020302020302020300A20202020302E3030303020202020302E3030303020202020302E303030302053692020302020302020302020302020302020302020302020302020302020302020302020300A2020202D302E3832353020202020302E3832353020202020302E303030302043202020302020302020302020302020302020302020302020302020302020302020302020300A2020202D302E383235302020202D302E3832353020202020302E303030302043202020302020302020302020302020302020302020302020302020302020302020302020300A20202020302E3832353020202020302E3030303020202020302E303030302053692020302020302020302020302020302020302020302020302020302020302020302020300A20202020302E3030303020202020302E3832353020202020302E303030302043202020302020302020302020302020302020302020302020302020302020302020302020300A20202020302E303030302020202D302E3832353020202020302E303030302043202020302020302020302020302020302020302020302020302020302020302020302020300A20202020312E3635303020202020302E3030303020202020302E3030303020436C2020302020302020302020302020302020302020302020302020302020302020302020300A20202020302E3832353020202020302E3832353020202020302E303030302043202020302020302020302020302020302020302020302020302020302020302020302020300A20202020302E383235302020202D302E3832353020202020302E303030302043202020302020302020302020302020302020302020302020302020302020302020302020300A2020312020322020312020302020202020200A2020332020322020312020312020202020200A2020322020342020312020302020202020200A2020322020352020312020302020202020200A2020332020362020312020312020202020200A2020332020372020312020302020202020200A2020332020382020312020302020202020200A2020362020392020312020302020202020200A2020362031302020312020302020202020200A2020362031312020312020302020202020200A4D2020454E44
Contributor: MASS SPECTROSCOPY SOC. OF JAPAN (MSSJ)
InstType: EI
InstName: JEOL JMS-D-3000
IoniMethod: _ENERGY 70 eV
IonPolarity: pos
Date: 2010-10-09 19:48:36+02:00
Num Peaks: 42
43 75 44 12 45 76 55 14 58 21 59 39 63 21 65 36 67 11 73 999 
74 87 75 42 85 13 93 81 95 29 101 23 116 322 117 55 118 25 119 11 
121 10 131 90 132 15 133 15 135 23 137 10 147 18 151 394 152 61 153 155 
154 22 155 10 191 52 205 28 209 28 211 14 221 70 222 17 229 14 231 10 
244 7 246 5 
