Name: 3-DIMETHYLAMINOMETHYL-4-METHYLPHENYLAMINO-2(5H)-FURANONE
MW: 246
Formula: C14H18N2O2
Synonym: MassBank: JP005118
Synonym: 3-DIMETHYLAMINOMETHYL-4-METHYLPHENYLAMINO-2(5H)-FURANONE
Structure: 332D44494D455448594C414D494E4F4D455448594C2D342D4D455448594C5048454E594C414D494E4F2D32283548292D465552414E4F4E452E6D6F6C0A20204368656D447261773032323231303137303432440A2031382031392020302020302020302020302020302020302020302020303939392056323030300A20202020302E303738302020202D302E3036313620202020302E303030302043202020302020302020302020302020302020302020302020302020302020302020302020300A2020202D302E3333343520202020302E3635323920202020302E30303030204E202020302020302020302020302020302020302020302020302020302020302020302020300A2020202D312E3135393520202020302E3635323920202020302E303030302043202020302020302020302020302020302020302020302020302020302020302020302020300A2020202D312E353732302020202D302E3036313620202020302E303030302043202020302020302020302020302020302020302020302020302020302020302020302020300A2020202D322E333937302020202D302E3036313620202020302E303030302043202020302020302020302020302020302020302020302020302020302020302020302020300A2020202D322E3830393520202020302E3635323920202020302E303030302043202020302020302020302020302020302020302020302020302020302020302020302020300A2020202D322E3339373020202020312E3336373320202020302E303030302043202020302020302020302020302020302020302020302020302020302020302020302020300A2020202D312E3537323020202020312E3336373320202020302E303030302043202020302020302020302020302020302020302020302020302020302020302020302020300A20202020302E3037383020202020312E3336373320202020302E303030302043202020302020302020302020302020302020302020302020302020302020302020302020300A2020202D302E323537362020202D302E3831353320202020302E303030302043202020302020302020302020302020302020302020302020302020302020302020302020300A20202020302E333535352020202D312E3336373320202020302E30303030204F202020302020302020302020302020302020302020302020302020302020302020302020300A20202020312E303730302020202D302E3935343820202020302E303030302043202020302020302020302020302020302020302020302020302020302020302020302020300A20202020302E383938352020202D302E3134373920202020302E303030302043202020302020302020302020302020302020302020302020302020302020302020302020300A20202020312E3435303520202020302E3436353220202020302E303030302043202020302020302020302020302020302020302020302020302020302020302020302020300A20202020312E383233372020202D312E3239303420202020302E30303030204F202020302020302020302020302020302020302020302020302020302020302020302020300A20202020322E3235373520202020302E3239333720202020302E30303030204E202020302020302020302020302020302020302020302020302020302020302020302020300A20202020322E3830393520202020302E3930363820202020302E303030302043202020302020302020302020302020302020302020302020302020302020302020302020300A20202020322E353132342020202D302E3439303920202020302E303030302043202020302020302020302020302020302020302020302020302020302020302020302020300A2020332020342020312020302020202020200A2020342020352020322020302020202020200A2020352020362020312020302020202020200A2020362020372020322020302020202020200A2020372020382020312020302020202020200A2020332020382020322020302020202020200A2020322020332020312020302020202020200A2020322020392020312020302020202020200A2020312020322020312020302020202020200A2020312031302020312020302020202020200A2031302031312020312020302020202020200A2031312031322020312020302020202020200A2031322031332020312020302020202020200A2031332020312020322020302020202020200A2031332031342020312020302020202020200A2031322031352020322020302020202020200A2031342031362020312020302020202020200A2031362031372020312020302020202020200A2031362031382020312020302020202020200A4D2020454E44
Contributor: HAYASHI A, FAC. OF SCIENCE AND TECHNOLOGY, KINKI UNIV.
InstType: EI
InstName: JEOL JMS-HX-100
IoniMethod: _ENERGY 23 eV
IonPolarity: pos
Date: 2010-10-09 19:48:36+02:00
Num Peaks: 122
41 4 42 26 43 4 44 420 45 17 46 14 53 5 55 39 56 6 57 20 
58 105 59 5 66 51 67 7 68 13 69 10 70 4 72 4 77 9 79 5 
80 17 81 26 82 15 83 9 84 6 92 9 93 6 94 56 95 36 96 205 
97 17 98 16 103 14 104 26 105 20 106 31 107 410 108 40 109 7 110 5 
111 92 112 389 113 25 114 3 115 14 116 9 117 31 118 34 119 6 120 65 
121 8 122 13 123 5 124 10 125 3 126 10 127 3 128 10 129 29 130 44 
131 64 132 46 133 7 134 9 137 10 138 11 139 5 140 704 141 71 142 20 
143 166 144 149 145 49 146 65 147 9 148 185 149 22 153 8 154 6 155 52 
156 275 157 108 158 545 159 88 160 11 168 5 169 5 170 8 171 10 172 94 
173 37 174 49 175 10 184 10 185 13 186 15 187 38 188 22 189 5 199 14 
200 129 201 319 202 945 203 700 204 104 205 10 213 8 214 3 215 7 216 6 
217 5 227 5 229 3 230 3 231 999 232 179 233 20 245 60 246 486 247 104 
248 12 91 82 
