Name: PENTANEDIOIC ACID BIS(TRIMETHYLSILYL) ESTER
MW: 276
Formula: C11H24O4Si2
Synonym: MassBank: JP001922
Synonym: PENTANEDIOIC ACID BIS(TRIMETHYLSILYL) ESTER
Synonym: BIS(TRIMETHYLSILYL) GLUTARATE
Structure: 50454E54414E4544494F4943204143494420424953285452494D455448594C53494C594C292045535445522E6D6F6C0A20204368656D447261773038313231303034353532440A2031372031362020302020302020302020302020302020302020302020303939392056323030300A20202020312E343238392020202D302E3035353320202020302E303030302043202020302020302020302020302020302020302020302020302020302020302020302020300A20202020302E373134352020202D302E3436373820202020302E303030302043202020302020302020302020302020302020302020302020302020302020302020302020300A2020202D302E303030302020202D302E3035353320202020302E303030302043202020302020302020302020302020302020302020302020302020302020302020302020300A2020202D302E373134352020202D302E3436373820202020302E303030302043202020302020302020302020302020302020302020302020302020302020302020302020300A2020202D312E343238392020202D302E3035353320202020302E303030302043202020302020302020302020302020302020302020302020302020302020302020302020300A20202020312E3432383920202020302E3736393720202020302E30303030204F202020302020302020302020302020302020302020302020302020302020302020302020300A20202020322E313433342020202D302E3436373820202020302E30303030204F202020302020302020302020302020302020302020302020302020302020302020302020300A2020202D312E3432383920202020302E3736393720202020302E30303030204F202020302020302020302020302020302020302020302020302020302020302020302020300A2020202D322E313433342020202D302E3436373820202020302E30303030204F202020302020302020302020302020302020302020302020302020302020302020302020300A20202020322E383537392020202D302E3035353320202020302E303030302053692020302020302020302020302020302020302020302020302020302020302020302020300A20202020332E323730342020202D302E3736393720202020302E303030302043202020302020302020302020302020302020302020302020302020302020302020302020300A20202020322E3434353420202020302E3635393220202020302E303030302043202020302020302020302020302020302020302020302020302020302020302020302020300A20202020332E3537323420202020302E3335373220202020302E303030302043202020302020302020302020302020302020302020302020302020302020302020302020300A2020202D322E383537392020202D302E3035353320202020302E303030302053692020302020302020302020302020302020302020302020302020302020302020302020300A2020202D332E323730342020202D302E3736393720202020302E303030302043202020302020302020302020302020302020302020302020302020302020302020302020300A2020202D332E3537323420202020302E3335373220202020302E303030302043202020302020302020302020302020302020302020302020302020302020302020302020300A2020202D322E3434353420202020302E3635393220202020302E303030302043202020302020302020302020302020302020302020302020302020302020302020302020300A2020312020322020312020302020202020200A2020322020332020312020302020202020200A2020332020342020312020302020202020200A2020342020352020312020302020202020200A2020312020362020322020302020202020200A2020312020372020312020302020202020200A2020352020382020322020302020202020200A2020352020392020312020302020202020200A2031302031312020312020302020202020200A2031302031322020312020302020202020200A2031302031332020312020302020202020200A2020372031302020312020302020202020200A2031342031352020312020302020202020200A2031342031362020312020302020202020200A2031342031372020312020302020202020200A2020392031342020312020302020202020200A4D2020454E44
Contributor: KOGA M, UNIV. OF OCCUPATIONAL AND ENVIRONMENTAL HEALTH
InstType: EI
InstName: JEOL JMS-01-SG
IoniMethod: _ENERGY 70 eV
IonPolarity: pos
Date: 2010-10-09 19:48:36+02:00
Num Peaks: 16
43 75 45 141 55 466 73 88 74 93 75 405 97 144 129 12 147 999 148 202 
149 166 158 22 204 77 233 80 261 219 262 47 
