Name: 4-NITROPYRIDINE-N-OXIDE
CAS: 1124-33-0
MW: 140
Formula: C5H4N2O3
Synonym: MassBank: JP005700
Synonym: 4-NITROPYRIDINE-N-OXIDE
Structure: 342D4E4954524F5059524944494E452D4E2D4F584944452E6D6F6C0A20204368656D447261773034323231303137323532440A2031302031302020302020302020302020302020302020302020302020303939392056323030300A2020202D302E3631383820202020302E3731343520202020302E303030302043202020302020302020302020302020302020302020302020302020302020302020302020300A20202020302E3230363220202020302E3731343520202020302E303030302043202020302020302020302020302020302020302020302020302020302020302020302020300A20202020302E363138372020202D302E3030303020202020302E303030302043202020302020302020302020302020302020302020302020302020302020302020302020300A20202020302E323036322020202D302E3731343520202020302E303030302043202020302020302020302020302020302020302020302020302020302020302020302020300A2020202D302E363138382020202D302E3731343520202020302E303030302043202020302020302020302020302020302020302020302020302020302020302020302020300A2020202D312E3033313320202020302E3030303020202020302E30303030204E202020302020332020302020302020302020302020302020302020302020302020302020300A2020202D312E3835363320202020302E3030303020202020302E30303030204F202020302020352020302020302020302020302020302020302020302020302020302020300A20202020312E343433372020202D302E3030303020202020302E30303030204E202020302020332020302020302020302020302020302020302020302020302020302020300A20202020312E3835363320202020302E3731343520202020302E30303030204F202020302020302020302020302020302020302020302020302020302020302020302020300A20202020312E383536322020202D302E3731343520202020302E30303030204F202020302020352020302020302020302020302020302020302020302020302020302020300A2020312020322020322020302020202020200A2020322020332020312020302020202020200A2020332020342020322020302020202020200A2020342020352020312020302020202020200A2020352020362020322020302020202020200A2020312020362020312020302020202020200A2020362020372020312020302020202020200A2020382020392020322020302020202020200A2020382031302020312020302020202020200A2020332020382020312020302020202020200A4D202043484720203420202036202020312020203720202D3120202038202020312020313020202D310A4D2020454E44
Contributor: MASS SPECTROSCOPY SOC. OF JAPAN (MSSJ)
InstType: EI
InstName: HITACHI M-80
IoniMethod: _ENERGY 70 eV
IonPolarity: pos
Date: 2010-10-09 19:48:36+02:00
Num Peaks: 49
26 35 27 34 28 102 29 30 30 345 31 3 37 36 38 126 39 534 40 37 
41 7 42 6 46 21 48 3 49 25 50 133 51 179 52 37 53 85 54 26 
55 7 56 23 60 3 61 33 62 92 63 298 64 157 65 14 66 7 67 6 
68 9 75 13 76 16 77 17 78 60 79 7 82 37 84 31 93 3 94 80 
95 8 110 492 111 29 112 3 124 67 125 6 140 999 141 104 142 10 
