Name: TERT-PENTYLBENZENE
MW: 148
Formula: C11H16
Synonym: MassBank: JP009117
Synonym: TERT-PENTYLBENZENE
Structure: 28312E312D44494D455448594C50524F50594C2942454E5A454E452E6D6F6C0A20204368656D447261773130303630393135333932440A2031312031312020302020302020302020302020302020302020302020303939392056323030300A2020202D302E3235333720202020302E3832353020202020302E303030302043202020302020302020302020302020302020302020302020302020302020302020302020300A2020202D302E3235333720202020302E3030303020202020302E303030302043202020302020302020302020302020302020302020302020302020302020302020302020300A2020202D312E3037383720202020302E3832353020202020302E303030302043202020302020302020302020302020302020302020302020302020302020302020302020300A2020202D302E3235333720202020312E3635303020202020302E303030302043202020302020302020302020302020302020302020302020302020302020302020302020300A2020202D302E393638322020202D302E3431323520202020302E303030302043202020302020302020302020302020302020302020302020302020302020302020302020300A2020202D302E393638322020202D312E3233373520202020302E303030302043202020302020302020302020302020302020302020302020302020302020302020302020300A2020202D302E323533372020202D312E3635303020202020302E303030302043202020302020302020302020302020302020302020302020302020302020302020302020300A20202020302E343630372020202D312E3233373520202020302E303030302043202020302020302020302020302020302020302020302020302020302020302020302020300A20202020302E343630372020202D302E3431323520202020302E303030302043202020302020302020302020302020302020302020302020302020302020302020302020300A20202020302E3336343320202020302E3838313220202020302E303030302043202020302020302020302020302020302020302020302020302020302020302020302020300A20202020312E3037383720202020302E3436383720202020302E303030302043202020302020302020302020302020302020302020302020302020302020302020302020300A2020312020322020312020302020202020200A2020312020332020312020302020202020200A2020312020342020312020302020202020200A2020322020352020322020302020202020200A2020352020362020312020302020202020200A2020362020372020322020302020202020200A2020372020382020312020302020202020200A2020382020392020322020302020202020200A2020392020322020312020302020202020200A2020312031302020312020302020202020200A2031302031312020312020302020202020200A4D202053545920203120202031205355500A4D2020534C4220203120202031202020310A4D202053414C2020203120203220203130202031310A4D202053424C20202031202031202031300A4D2020534D5420202031204348324348330A4D2020534256202020312031302020202D352E3138333920202020352E323734340A4D2020454E44
Contributor: SODA AROMATIC CO., LTD.
InstType: EI
InstName: HITACHI M-80B
IoniMethod: _ENERGY 70 eV
IonPolarity: pos
Date: 2010-10-09 19:48:36+02:00
Num Peaks: 33
27 52 28 14 29 43 39 58 41 149 43 14 50 20 51 53 52 16 53 16 
55 31 63 23 65 34 76 12 77 82 78 45 79 70 89 12 91 640 92 42 
102 13 103 57 104 20 105 36 115 47 116 13 117 32 118 23 119 999 120 88 
133 23 148 136 149 14 
