Name: MassBank: JP005405
MW: 154
Formula: C5H5F3O2
Synonym: MassBank: JP005405
Synonym: 1,1,1-TRIFLUOROACETYLACETONE
Synonym: 1,1,1-TRIFLUORO-2,4-PENTADIONE
Structure: 312C312C312D545249464C554F524F41434554594C414345544F4E452E6D6F6C0A20204368656D447261773130323230393233303132440A2031302020392020302020302020302020302020302020302020302020303939392056323030300A2020202D312E3037313720202020302E3236313520202020302E303030302043202020302020302020302020302020302020302020302020302020302020302020302020300A2020202D302E333537322020202D302E3135313020202020302E303030302043202020302020302020302020302020302020302020302020302020302020302020302020300A2020202D302E333537322020202D302E3937363020202020302E30303030204F202020302020302020302020302020302020302020302020302020302020302020302020300A20202020302E3335373220202020302E3236313520202020302E303030302043202020302020302020302020302020302020302020302020302020302020302020302020300A20202020312E303731372020202D302E3135313020202020302E303030302043202020302020302020302020302020302020302020302020302020302020302020302020300A20202020312E303731372020202D302E3937363020202020302E30303030204F202020302020302020302020302020302020302020302020302020302020302020302020300A20202020312E3738363220202020302E3236313520202020302E303030302043202020302020302020302020302020302020302020302020302020302020302020302020300A2020202D312E343834322020202D302E3435333020202020302E303030302046202020302020302020302020302020302020302020302020302020302020302020302020300A2020202D312E3738363220202020302E3637343020202020302E303030302046202020302020302020302020302020302020302020302020302020302020302020302020300A2020202D302E3635393220202020302E3937363020202020302E303030302046202020302020302020302020302020302020302020302020302020302020302020302020300A2020312020322020312020302020202020200A2020322020332020322020302020202020200A2020322020342020312020302020202020200A2020342020352020312020302020202020200A2020352020362020322020302020202020200A2020352020372020312020302020202020200A2020312020382020312020312020202020200A2020312020392020312020302020202020200A2020312031302020312020312020202020200A4D2020454E44
Contributor: TAJIMA S, GUNMA COLLEGE OF TECHNOLOGY
InstType: EI
InstName: HITACHI RMU-7M
IoniMethod: _ENERGY 70 eV
IonPolarity: pos
Date: 2010-10-09 19:48:36+02:00
Num Peaks: 32
15 85 26 19 27 72 29 73 31 67 38 24 39 84 40 16 41 77 42 81 
43 999 44 46 45 60 50 22 51 35 53 17 55 39 69 501 70 17 77 15 
85 573 86 28 89 18 91 22 94 44 97 13 107 36 119 56 127 10 139 86 
154 111 155 18 
