Name: MassBank: JP004591
MW: 377
Formula: C25H31NO2
Synonym: MassBank: JP004591
Synonym: N-ISOBUTYL 9-(PARA-PHENOXYPHENYL)-2,4-NONADIENAMIDE
Structure: 4E2D49534F425554594C20392D28504152412D5048454E4F58595048454E594C292D322C342D4E4F4E414449454E414D4944452E6D6F6C0A20204368656D447261773038313231303032313032440A2032382032392020302020302020302020302020302020302020302020303939392056323030300A20202020332E393239362020202D302E3431323520202020302E303030302043202020302020302020302020302020302020302020302020302020302020302020302020300A20202020332E3231353120202020302E3030303020202020302E303030302043202020302020302020302020302020302020302020302020302020302020302020302020300A20202020322E353030362020202D302E3431323520202020302E303030302043202020302020302020302020302020302020302020302020302020302020302020302020300A20202020312E3738363220202020302E3030303020202020302E303030302043202020302020302020302020302020302020302020302020302020302020302020302020300A20202020312E303731372020202D302E3431323520202020302E303030302043202020302020302020302020302020302020302020302020302020302020302020302020300A20202020302E3335373220202020302E3030303020202020302E303030302043202020302020302020302020302020302020302020302020302020302020302020302020300A2020202D302E333537322020202D302E3431323520202020302E303030302043202020302020302020302020302020302020302020302020302020302020302020302020300A2020202D312E3037313720202020302E3030303020202020302E303030302043202020302020302020302020302020302020302020302020302020302020302020302020300A2020202D312E373836322020202D302E3431323520202020302E303030302043202020302020302020302020302020302020302020302020302020302020302020302020300A20202020332E393239362020202D312E3233373520202020302E30303030204F202020302020302020302020302020302020302020302020302020302020302020302020300A20202020342E3634343120202020302E3030303020202020302E30303030204E202020302020302020302020302020302020302020302020302020302020302020302020300A2020202D322E353030362020202D302E3030303020202020302E303030302043202020302020302020302020302020302020302020302020302020302020302020302020300A2020202D332E323135312020202D302E3431323520202020302E303030302043202020302020302020302020302020302020302020302020302020302020302020302020300A2020202D332E393239362020202D302E3030303020202020302E303030302043202020302020302020302020302020302020302020302020302020302020302020302020300A2020202D332E3932393620202020302E3832353020202020302E303030302043202020302020302020302020302020302020302020302020302020302020302020302020300A2020202D332E3231353120202020312E3233373520202020302E303030302043202020302020302020302020302020302020302020302020302020302020302020302020300A2020202D322E3530303620202020302E3832353020202020302E303030302043202020302020302020302020302020302020302020302020302020302020302020302020300A2020202D342E3634343120202020312E3233373520202020302E30303030204F202020302020302020302020302020302020302020302020302020302020302020302020300A2020202D352E3335383520202020302E3832353020202020302E303030302043202020302020302020302020302020302020302020302020302020302020302020302020300A2020202D352E333538352020202D302E3030303020202020302E303030302043202020302020302020302020302020302020302020302020302020302020302020302020300A2020202D362E303733302020202D302E3431323520202020302E303030302043202020302020302020302020302020302020302020302020302020302020302020302020300A2020202D362E373837352020202D302E3030303020202020302E303030302043202020302020302020302020302020302020302020302020302020302020302020302020300A2020202D362E3738373520202020302E3832353020202020302E303030302043202020302020302020302020302020302020302020302020302020302020302020302020300A2020202D362E3037333020202020312E3233373520202020302E303030302043202020302020302020302020302020302020302020302020302020302020302020302020300A20202020352E333538352020202D302E3431323520202020302E303030302043202020302020302020302020302020302020302020302020302020302020302020302020300A20202020362E3037333020202020302E3030303020202020302E303030302043202020302020302020302020302020302020302020302020302020302020302020302020300A20202020362E3037333020202020302E3832353020202020302E303030302043202020302020302020302020302020302020302020302020302020302020302020302020300A20202020362E373837352020202D302E3431323520202020302E303030302043202020302020302020302020302020302020302020302020302020302020302020302020300A2020312020322020312020302020202020200A2020322020332020322020302020202020200A2020332020342020312020302020202020200A2020342020352020322020302020202020200A2020352020362020312020302020202020200A2020362020372020312020302020202020200A2020372020382020312020302020202020200A2020382020392020312020302020202020200A2020312031302020322020302020202020200A2020312031312020312020302020202020200A2031322031332020312020302020202020200A2031332031342020322020302020202020200A2031342031352020312020302020202020200A2031352031362020322020302020202020200A2031362031372020312020302020202020200A2031322031372020322020302020202020200A2031392032302020312020302020202020200A2032302032312020322020302020202020200A2032312032322020312020302020202020200A2032322032332020322020302020202020200A2032332032342020312020302020202020200A2031392032342020322020302020202020200A2031382031392020312020302020202020200A2031352031382020312020302020202020200A2020392031322020312020302020202020200A2032352032362020312020302020202020200A2032362032372020312020302020202020200A2032362032382020312020302020202020200A2031312032352020312020302020202020200A4D2020454E44
Contributor: HAYASHI A, DEPT. OF CHEMISTRY, FAC. OF SCI. AND TECHNOLOGY, KINKI UNIV.
InstType: EI
InstName: JEOL JMS-HX-100
IoniMethod: _ENERGY 70 eV
IonPolarity: pos
Date: 2010-10-09 19:48:36+02:00
Num Peaks: 116
39 81 40 25 41 197 42 22 43 65 44 40 51 105 53 112 55 287 56 55 
57 278 58 23 60 105 65 80 66 127 67 99 68 23 69 41 71 25 72 36 
74 42 77 417 78 70 79 94 80 25 81 157 82 41 83 33 84 22 85 42 
86 21 89 36 90 41 91 120 93 34 94 70 95 56 96 84 98 79 100 43 
103 30 104 29 107 187 108 30 109 23 110 32 115 328 116 164 117 80 118 21 
121 24 126 49 127 27 128 106 129 80 130 38 131 27 138 28 141 318 142 53 
143 27 152 323 153 276 154 330 155 106 156 32 161 39 165 21 166 45 167 29 
168 55 169 66 170 78 180 88 181 98 182 29 183 999 184 197 185 32 194 476 
195 73 196 152 197 67 207 29 209 155 210 65 211 21 212 36 221 24 222 28 
223 41 233 21 235 51 236 49 237 43 238 22 240 31 249 21 250 49 254 22 
262 237 263 74 276 144 277 138 278 80 296 34 304 33 305 111 306 29 309 97 
310 25 322 61 376 24 377 718 378 219 379 36 
