Name: 3-ETHOXY-6-(1-METHYLTHIOMETHOXY-5-METHYL-4-HEXENYL)-2-CYCLOHEXEN-1-ONE
MW: 312
Formula: C17H28O3S
Synonym: MassBank: JP004624
Synonym: 3-ETHOXY-6-(1-METHYLTHIOMETHOXY-5-METHYL-4-HEXENYL)-2-CYCLOHEXEN-1-ONE
Structure: 332D4554484F58592D362D28312D4D455448594C5448494F4D4554484F58592D352D4D455448594C2D342D484558454E594C292D322D4359434C4F484558454E2D312D4F4E452E6D6F6C0A20204368656D447261773032323231303137323232440A2032312032312020302020302020302020302020302020302020302020303939392056323030300A20202020302E333537322020202D302E3431323520202020302E303030302043202020302020302020302020302020302020302020302020302020302020302020302020300A20202020312E303731372020202D302E3832353020202020302E303030302043202020302020302020302020302020302020302020302020302020302020302020302020300A20202020312E303731372020202D312E3635303020202020302E303030302043202020302020302020302020302020302020302020302020302020302020302020302020300A20202020302E333537322020202D322E3036323520202020302E303030302043202020302020302020302020302020302020302020302020302020302020302020302020300A2020202D302E333537322020202D312E3635303020202020302E303030302043202020302020302020302020302020302020302020302020302020302020302020302020300A2020202D302E333537322020202D302E3832353020202020302E303030302043202020302020302020302020302020302020302020302020302020302020302020302020300A20202020302E3335373220202020302E3431323520202020302E30303030204F202020302020302020302020302020302020302020302020302020302020302020302020300A2020202D312E303731372020202D302E3431323520202020302E303030302043202020302020302020302020302020302020302020302020302020302020302020302020300A20202020312E373836322020202D322E3036323520202020302E30303030204F202020302020302020302020302020302020302020302020302020302020302020302020300A20202020322E353030362020202D312E3635303020202020302E303030302043202020302020302020302020302020302020302020302020302020302020302020302020300A20202020332E323135312020202D322E3036323520202020302E303030302043202020302020302020302020302020302020302020302020302020302020302020302020300A2020202D312E373836322020202D302E3832353020202020302E30303030204F202020302020302020302020302020302020302020302020302020302020302020302020300A2020202D312E3037313720202020302E3431323520202020302E303030302043202020302020302020302020302020302020302020302020302020302020302020302020300A2020202D312E373836322020202D312E3635303020202020302E303030302043202020302020302020302020302020302020302020302020302020302020302020302020300A2020202D322E353030362020202D322E3036323520202020302E303030302053202020302020302020302020302020302020302020302020302020302020302020302020300A2020202D322E353030362020202D322E3838373520202020302E303030302043202020302020302020302020302020302020302020302020302020302020302020302020300A2020202D312E3738363220202020302E3832353020202020302E303030302043202020302020302020302020302020302020302020302020302020302020302020302020300A2020202D312E3738363220202020312E3635303020202020302E303030302043202020302020302020302020302020302020302020302020302020302020302020302020300A2020202D322E3530303620202020322E3036323520202020302E303030302043202020302020302020302020302020302020302020302020302020302020302020302020300A2020202D322E3530303620202020322E3838373520202020302E303030302043202020302020302020302020302020302020302020302020302020302020302020302020300A2020202D332E3231353120202020312E3635303020202020302E303030302043202020302020302020302020302020302020302020302020302020302020302020302020300A2020312020322020312020302020202020200A2020322020332020322020302020202020200A2020332020342020312020302020202020200A2020342020352020312020302020202020200A2020352020362020312020302020202020200A2020312020362020312020302020202020200A2020312020372020322020302020202020200A2020362020382020312020302020202020200A2031302031312020312020302020202020200A2020392031302020312020302020202020200A2020332020392020312020302020202020200A2020382031322020312020302020202020200A2020382031332020312020302020202020200A2031322031342020312020302020202020200A2031342031352020312020302020202020200A2031352031362020312020302020202020200A2031332031372020312020302020202020200A2031372031382020312020302020202020200A2031382031392020322020302020202020200A2031392032302020312020302020202020200A2031392032312020312020302020202020200A4D2020454E44
Contributor: KATO T, DEPT. OF CHEM., FAC. OF SCI., TOHOKU UNIV.
InstType: EI
InstName: Unknown
IoniMethod: _ENERGY 14 eV
IonPolarity: pos
Date: 2010-10-09 19:48:36+02:00
Num Peaks: 75
43 131 48 108 58 102 81 5 84 61 87 78 93 156 94 10 96 127 97 116 
99 36 106 12 107 98 109 139 110 54 112 8 113 62 116 40 121 66 123 4 
124 105 125 50 127 64 128 4 138 167 139 454 140 479 141 9 150 54 151 432 
152 59 153 12 154 65 163 40 164 57 165 7 166 450 167 999 168 65 169 14 
170 54 179 167 180 210 181 7 182 319 183 160 187 46 191 6 193 128 194 41 
195 39 205 9 206 81 207 263 215 47 219 7 221 34 229 69 232 283 233 81 
234 293 235 124 236 121 237 7 247 227 248 81 249 51 250 46 251 170 252 92 
264 299 265 12 266 37 312 61 313 30 
