Name: DIMETHYLPHENYL(TRIMETHYLSILYL)GERMANE
MW: 254
Formula: C11H20GeSi
Synonym: MassBank: JP001346
Synonym: DIMETHYLPHENYL(TRIMETHYLSILYL)GERMANE
Structure: 44494D455448594C5048454E594C285452494D455448594C53494C594C294745524D414E452E6D6F6C0A20204368656D447261773130313831303136333632440A2031332031332020302020302020302020302020302020302020302020303939392056323030300A2020202D302E3631353420202020302E3532393620202020302E303030302047652020302020302020302020302020302020302020302020302020302020302020302020300A2020202D312E303237392020202D302E3138343820202020302E303030302053692020302020302020302020302020302020302020302020302020302020302020302020300A2020202D312E343430342020202D302E3839393320202020302E303030302043202020302020302020302020302020302020302020302020302020302020302020302020300A2020202D312E3734323420202020302E3232373720202020302E303030302043202020302020302020302020302020302020302020302020302020302020302020302020300A2020202D302E333133342020202D302E3539373320202020302E303030302043202020302020302020302020302020302020302020302020302020302020302020302020300A20202020302E333133342020202D302E3030363620202020302E303030302043202020302020302020302020302020302020302020302020302020302020302020302020300A20202020312E3032373920202020302E3430353920202020302E303030302043202020302020302020302020302020302020302020302020302020302020302020302020300A20202020312E373432342020202D302E3030363620202020302E303030302043202020302020302020302020302020302020302020302020302020302020302020302020300A20202020312E373432342020202D302E3833313620202020302E303030302043202020302020302020302020302020302020302020302020302020302020302020302020300A20202020312E303237392020202D312E3234343120202020302E303030302043202020302020302020302020302020302020302020302020302020302020302020302020300A20202020302E333133342020202D302E3833313620202020302E303030302043202020302020302020302020302020302020302020302020302020302020302020302020300A2020202D312E3332393920202020302E3934323120202020302E303030302043202020302020302020302020302020302020302020302020302020302020302020302020300A2020202D302E3230323920202020312E3234343120202020302E303030302043202020302020302020302020302020302020302020302020302020302020302020302020300A2020322020332020312020302020202020200A2020322020342020312020302020202020200A2020322020352020312020302020202020200A2020312020322020312020302020202020200A2020362020372020312020302020202020200A2020372020382020322020302020202020200A2020382020392020312020302020202020200A2020392031302020322020302020202020200A2031302031312020312020302020202020200A2020362031312020322020302020202020200A2020312020362020312020302020202020200A2020312031322020312020302020202020200A2020312031332020312020302020202020200A4D2020454E44
Contributor: MASS SPECTROSCOPY SOC. OF JAPAN (MSSJ)
InstType: EI
InstName: JEOL JMS-D-3000
IoniMethod: _ENERGY 70 eV
IonPolarity: pos
Date: 2010-10-09 19:48:36+02:00
Num Peaks: 50
43 12 44 11 45 39 73 334 74 22 75 17 78 13 85 22 87 33 89 33 
91 11 100 13 102 15 104 29 107 17 119 10 121 10 135 999 136 133 137 49 
147 35 149 42 150 23 151 54 153 15 162 26 164 38 165 17 166 45 168 10 
177 62 179 85 180 38 181 113 182 12 183 28 235 81 236 19 237 123 238 51 
239 148 240 26 241 33 250 64 251 14 252 83 253 46 254 107 255 24 256 28 
