Name: MassBank: JP003715
MW: 229
Formula: C15H19NO
Synonym: MassBank: JP003715
Synonym: N,N-DIETHYL-O-(1-NAPHTHYLMETHYL)-HYDROXYLAMINE
Structure: 4E2C4E2D4449455448594C2D4F2D28312D4E4150485448594C4D455448594C292D485944524F58594C414D494E452E6D6F6C0A20204368656D447261773038313231303032333332440A2031372031382020302020302020302020302020302020302020302020303939392056323030300A2020202D312E343238392020202D302E3230363320202020302E30303030204E202020302020302020302020302020302020302020302020302020302020302020302020300A2020202D302E3731343520202020302E3230363320202020302E30303030204F202020302020302020302020302020302020302020302020302020302020302020302020300A20202020302E303030302020202D302E3230363220202020302E303030302043202020302020302020302020302020302020302020302020302020302020302020302020300A20202020302E3731343520202020302E3230363320202020302E303030302043202020302020302020302020302020302020302020302020302020302020302020302020300A20202020302E3731343520202020312E3033313320202020302E303030302043202020302020302020302020302020302020302020302020302020302020302020302020300A20202020312E3432383920202020312E3434333820202020302E303030302043202020302020302020302020302020302020302020302020302020302020302020302020300A20202020322E3134333420202020312E3033313320202020302E303030302043202020302020302020302020302020302020302020302020302020302020302020302020300A20202020322E3134333420202020302E3230363320202020302E303030302043202020302020302020302020302020302020302020302020302020302020302020302020300A20202020322E383537392020202D302E3230363220202020302E303030302043202020302020302020302020302020302020302020302020302020302020302020302020300A20202020322E383537392020202D312E3033313220202020302E303030302043202020302020302020302020302020302020302020302020302020302020302020302020300A20202020322E313433342020202D312E3434333720202020302E303030302043202020302020302020302020302020302020302020302020302020302020302020302020300A20202020312E343238392020202D312E3033313220202020302E303030302043202020302020302020302020302020302020302020302020302020302020302020302020300A20202020312E343238392020202D302E3230363220202020302E303030302043202020302020302020302020302020302020302020302020302020302020302020302020300A2020202D312E343238392020202D312E3033313220202020302E303030302043202020302020302020302020302020302020302020302020302020302020302020302020300A2020202D302E373134352020202D312E3434333820202020302E303030302043202020302020302020302020302020302020302020302020302020302020302020302020300A2020202D322E3134333420202020302E3230363320202020302E303030302043202020302020302020302020302020302020302020302020302020302020302020302020300A2020202D322E383537392020202D302E3230363220202020302E303030302043202020302020302020302020302020302020302020302020302020302020302020302020300A2020312020322020312020302020202020200A2020342020352020312020302020202020200A2020352020362020322020302020202020200A2020362020372020312020302020202020200A2020372020382020322020302020202020200A2020382020392020312020302020202020200A2020392031302020322020302020202020200A2031302031312020312020302020202020200A2031312031322020322020302020202020200A2031322031332020312020302020202020200A2020342031332020322020302020202020200A2020382031332020312020302020202020200A2020332020342020312020302020202020200A2020322020332020312020302020202020200A2031342031352020312020302020202020200A2020312031342020312020302020202020200A2031362031372020312020302020202020200A2020312031362020312020302020202020200A4D2020454E44
Contributor: SASAKI S, TOYOHASHI UNIV. OF TECH.
InstType: EI
InstName: Unknown
IoniMethod: EI
IonPolarity: pos
Date: 2010-10-09 19:48:36+02:00
Num Peaks: 50
38 40 39 26 40 33 41 11 42 127 43 26 44 67 45 0 46 127 50 20 
51 33 58 7 59 40 60 67 61 40 63 1 64 20 69 20 70 33 71 3 
72 33 73 67 74 26 75 0 76 33 77 20 86 127 87 3 88 26 89 13 
91 123 115 3 126 127 127 107 128 33 129 7 139 26 140 999 141 467 142 1 
143 20 153 20 154 73 155 1 156 57 182 40 183 20 198 0 199 13 213 7 
