Name: ETHYLENE BRASYLATE
MW: 270
Formula: C15H26O4
Synonym: MassBank: JP002940
Synonym: ETHYLENE BRASYLATE
Structure: 303534395F455448594C454E452042524153594C4154452E6D6F6C0A20204368656D447261773039303631303138333432440A2031392031392020302020302020302020302020302020302020302020303939392056323030300A2020202D302E333538352020202D312E3435313920202020302E303030302043202020302020302020302020302020302020302020302020302020302020302020302020300A2020202D312E303732372020202D312E3033393420202020302E303030302043202020302020302020302020302020302020302020302020302020302020302020302020300A2020202D312E303734352020202D302E3231343420202020302E303030302043202020302020302020302020302020302020302020302020302020302020302020302020300A2020202D302E3335383520202020312E3032343920202020302E303030302043202020302020302020302020302020302020302020302020302020302020302020302020300A20202020302E3335373520202020312E3433373420202020302E303030302043202020302020302020302020302020302020302020302020302020302020302020302020300A20202020312E3037313620202020312E3032343920202020302E30303030204F202020302020302020302020302020302020302020302020302020302020302020302020300A20202020312E373837362020202D302E3231343420202020302E303030302043202020302020302020302020302020302020302020302020302020302020302020302020300A20202020312E373835382020202D312E3033393420202020302E303030302043202020302020302020302020302020302020302020302020302020302020302020302020300A20202020312E303733342020202D312E3435313920202020302E303030302043202020302020302020302020302020302020302020302020302020302020302020302020300A2020202D312E3738363820202020302E3139393920202020302E303030302043202020302020302020302020302020302020302020302020302020302020302020302020300A2020202D312E3738363820202020312E3032333120202020302E303030302043202020302020302020302020302020302020302020302020302020302020302020302020300A2020202D312E3037323720202020312E3433373420202020302E30303030204F202020302020302020302020302020302020302020302020302020302020302020302020300A20202020312E3738373620202020312E3433353620202020302E303030302043202020302020302020302020302020302020302020302020302020302020302020302020300A20202020322E3530313720202020312E3032333120202020302E303030302043202020302020302020302020302020302020302020302020302020302020302020302020300A20202020322E3530313720202020302E3139363320202020302E303030302043202020302020302020302020302020302020302020302020302020302020302020302020300A20202020302E383232362020202D322E3236303620202020302E303030302043202020302020302020302020302020302020302020302020302020302020302020302020300A2020202D302E303835392020202D322E3236303620202020302E303030302043202020302020302020302020302020302020302020302020302020302020302020302020300A20202020312E3738383820202020322E3236303620202020302E30303030204F202020302020302020302020302020302020302020302020302020302020302020302020300A2020202D322E3530313720202020312E3433343820202020302E30303030204F202020302020302020302020302020302020302020302020302020302020302020302020300A2020312020322020312020302020202020200A2020322020332020312020302020202020200A2020342020352020312020302020202020200A2020352020362020312020302020202020200A2020372020382020312020302020202020200A2020382020392020312020302020202020200A2020332031302020312020302020202020200A2031302031312020312020302020202020200A2031312031322020312020302020202020200A2020342031322020312020302020202020200A2020362031332020312020302020202020200A2031332031342020312020302020202020200A2031342031352020312020302020202020200A2020372031352020312020302020202020200A2020392031362020312020302020202020200A2031362031372020312020302020202020200A2020312031372020312020302020202020200A2031332031382020322020302020202020200A2031312031392020322020302020202020200A4D2020454E44
Contributor: MASS SPECTROSCOPY SOC. OF JAPAN (MSSJ)
InstType: EI
InstName: Unknown
IoniMethod: EI
IonPolarity: pos
Date: 2010-10-09 19:48:36+02:00
Num Peaks: 86
15 31 27 168 28 109 29 288 31 25 39 119 40 38 41 664 42 303 43 386 
44 55 45 106 53 51 54 89 55 999 56 174 57 125 58 84 59 37 60 32 
61 43 67 189 68 111 69 328 70 111 71 83 73 44 79 53 80 52 81 175 
82 99 83 312 84 443 85 81 86 672 87 242 93 48 94 48 95 105 96 85 
97 196 98 798 99 470 100 50 101 30 104 42 105 24 107 57 108 29 109 52 
110 39 111 114 112 281 113 68 117 25 121 34 122 23 123 48 124 49 125 179 
126 49 127 26 137 33 138 25 139 38 141 39 149 74 152 30 155 92 159 35 
163 33 166 32 167 26 173 66 180 54 181 35 182 24 187 220 188 27 208 62 
209 25 211 171 212 28 227 413 228 64 270 53 
