Name: MassBank: JP004859
MW: 196
Formula: C11H16O3
Synonym: MassBank: JP004859
Synonym: 1,5-DIMETHOXYBICYCLO(3.2.2)NON-6-EN-2-ONE
Structure: 312C352D44494D4554484F585942494359434C4F28332E322E32294E4F4E2D362D454E2D322D4F4E452E6D6F6C0A20204368656D447261773131313630393132333932440A2031362031372020302020302020302020302020302020302020302020303939392056323030300A2020202D302E393033342020202D302E3233363320202020302E303030302043202020302020302020302020302020302020302020302020302020302020302020302020300A2020202D302E3634393920202020302E3635353520202020302E303030302043202020302020302020302020302020302020302020302020302020302020302020302020300A20202020302E3235303120202020302E3930343120202020302E303030302043202020302020302020302020302020302020302020302020302020302020302020302020300A20202020302E3930363420202020302E3234373820202020302E303030302043202020302020302020302020302020302020302020302020302020302020302020302020300A20202020302E373030382020202D302E3635323820202020302E303030302043202020302020302020302020302020302020302020302020302020302020302020302020300A20202020302E3437353920202020302E3134343920202020302E303030302043202020302020302020302020302020302020302020302020302020302020302020302020300A2020202D302E3332303120202020302E3334373020202020302E303030302043202020302020302020302020302020302020302020302020302020302020302020302020300A2020202D302E363738352020202D312E3033343020202020302E303030302043202020302020302020302020302020302020302020302020302020302020302020302020300A20202020302E313137352020202D312E3233363120202020302E303030302043202020302020302020302020302020302020302020302020302020302020302020302020300A2020202D312E3233333020202020312E3233363120202020302E30303030204F202020302020302020302020302020302020302020302020302020302020302020302020300A20202020312E343133362020202D312E3036333920202020302E30303030204F202020302020302020302020302020302020302020302020302020302020302020302020300A20202020322E313339322020202D302E3634333220202020302E303030302043202020302020302020302020302020302020302020302020302020302020302020302020300A2020202D312E373234392020202D302E3233383820202020302E30303030204F202020302020302020302020302020302020302020302020302020302020302020302020300A2020202D322E313339322020202D302E3935333120202020302E303030302043202020302020302020302020302020302020302020302020302020302020302020302020300A2020202D302E3533383520202020312E3134323320202020302E303030302048202020302020302020302020302020302020302020302020302020302020302020302020300A20202020312E3035333920202020302E3733333420202020302E303030302048202020302020302020302020302020302020302020302020302020302020302020302020300A2020312020322020312020302020202020200A2020322020332020312020302020202020200A2020332020342020312020302020202020200A2020342020352020312020302020202020200A2020352020362020312020302020202020200A2020362020372020322020302020202020200A2020382020392020312020302020202020200A2020312020372020312020302020202020200A2020312020382020312020302020202020200A2020352020392020312020302020202020200A2020322031302020322020302020202020200A2031312031322020312020302020202020200A2020352031312020312020302020202020200A2031332031342020312020302020202020200A2020312031332020312020302020202020200A2020372031352020312020302020202020200A2020362031362020312020302020202020200A4D2020454E44
Contributor: KATO T, DEPT. OF CHEM., FAC. OF SCI., TOHOKU UNIV.
InstType: EI
InstName: Unknown
IoniMethod: _ENERGY 14 eV
IonPolarity: pos
Date: 2010-10-09 19:48:36+02:00
Num Peaks: 38
89 30 91 30 93 30 94 3 96 30 101 36 104 52 106 3 107 42 108 121 
109 85 110 15 111 48 121 130 124 999 125 12 126 42 132 36 135 36 136 6 
137 64 138 39 139 55 140 21 141 52 146 42 148 39 149 6 150 33 153 33 
173 42 174 20 175 45 178 64 180 30 181 3 196 127 197 39 
