Name: BIS(2-ETHOXYETHYL) ETHER
CAS: 112-34-5
MW: 162
Formula: C8H18O3
Synonym: MassBank: JP007359
Synonym: BIS(2-ETHOXYETHYL) ETHER
Synonym: DIETHYL CARBITOL
Structure: 42495328322D4554484F5859455448594C292045544845522E6D6F6C0A20204368656D447261773039303531303231353232440A2031312031302020302020302020302020302020302020302020302020303939392056323030300A20202020302E3731343520202020302E3230363320202020302E30303030204F202020302020302020302020302020302020302020302020302020302020302020302020300A20202020302E303030302020202D302E3230363320202020302E303030302043202020302020302020302020302020302020302020302020302020302020302020302020300A2020202D302E3731343520202020302E3230363320202020302E303030302043202020302020302020302020302020302020302020302020302020302020302020302020300A2020202D312E343238392020202D302E3230363320202020302E30303030204F202020302020302020302020302020302020302020302020302020302020302020302020300A2020202D322E3134333420202020302E3230363220202020302E303030302043202020302020302020302020302020302020302020302020302020302020302020302020300A2020202D322E383537392020202D302E3230363320202020302E303030302043202020302020302020302020302020302020302020302020302020302020302020302020300A20202020312E343238392020202D302E3230363220202020302E303030302043202020302020302020302020302020302020302020302020302020302020302020302020300A20202020322E3134333420202020302E3230363320202020302E303030302043202020302020302020302020302020302020302020302020302020302020302020302020300A20202020322E383537392020202D302E3230363220202020302E303030302043202020302020302020302020302020302020302020302020302020302020302020302020300A2020202D332E3537323420202020302E3230363220202020302E30303030204F202020302020302020302020302020302020302020302020302020302020302020302020300A20202020332E3537323420202020302E3230363320202020302E303030302043202020302020302020302020302020302020302020302020302020302020302020302020300A2020322020332020312020302020202020200A2020352020362020312020302020202020200A2020342020352020312020302020202020200A2020332020342020312020302020202020200A2020312020322020312020302020202020200A2020372020382020312020302020202020200A2020382020392020312020302020202020200A2020312020372020312020302020202020200A2020362031302020312020302020202020200A2020392031312020312020302020202020200A4D2020454E44
Contributor: YAMAMOTO M, DEP. CHEMISTRY, FAC. SCIENCE, NARA WOMEN'S UNIV.
InstType: EI
InstName: HITACHI RMU-6M
IoniMethod: _ENERGY 70 eV
IonPolarity: pos
Date: 2010-10-09 19:48:36+02:00
Num Peaks: 20
27 96 28 58 29 202 31 284 41 15 43 104 44 81 45 999 46 23 58 12 
59 441 60 16 72 452 73 425 74 20 89 23 90 15 100 11 102 56 116 29 
