Name: TEREPHTHALIC ACID
MW: 166
Formula: C8H6O4
Synonym: MassBank: JP009592
Synonym: TEREPHTHALIC ACID
Structure: 5445524550485448414C494320414349442E6D6F6C0A20204368656D447261773131313430393232323832440A2031322031322020302020302020302020302020302020302020302020303939392056323030300A2020202D302E3030303020202020312E3635303020202020302E303030302043202020302020302020302020302020302020302020302020302020302020302020302020300A2020202D302E3030303020202020302E3832353020202020302E303030302043202020302020302020302020302020302020302020302020302020302020302020302020300A20202020302E3731343520202020302E3431323520202020302E303030302043202020302020302020302020302020302020302020302020302020302020302020302020300A20202020302E373134352020202D302E3431323520202020302E303030302043202020302020302020302020302020302020302020302020302020302020302020302020300A2020202D302E303030302020202D302E3832353020202020302E303030302043202020302020302020302020302020302020302020302020302020302020302020302020300A2020202D302E303030302020202D312E3635303020202020302E303030302043202020302020302020302020302020302020302020302020302020302020302020302020300A2020202D302E373134352020202D302E3431323520202020302E303030302043202020302020302020302020302020302020302020302020302020302020302020302020300A2020202D302E3731343520202020302E3431323520202020302E303030302043202020302020302020302020302020302020302020302020302020302020302020302020300A2020202D302E3731343520202020322E3036323520202020302E30303030204F202020302020302020302020302020302020302020302020302020302020302020302020300A20202020302E3731343520202020322E3036323520202020302E30303030204F202020302020302020302020302020302020302020302020302020302020302020302020300A20202020302E373134352020202D322E3036323520202020302E30303030204F202020302020302020302020302020302020302020302020302020302020302020302020300A2020202D302E373134352020202D322E3036323520202020302E30303030204F202020302020302020302020302020302020302020302020302020302020302020302020300A2020312020322020312020302020202020200A2020322020332020312020302020202020200A2020332020342020322020302020202020200A2020342020352020312020302020202020200A2020352020362020312020302020202020200A2020352020372020322020302020202020200A2020372020382020312020302020202020200A2020322020382020322020302020202020200A2020312020392020322020302020202020200A2020312031302020312020302020202020200A2020362031312020322020302020202020200A2020362031322020312020302020202020200A4D2020454E44
Contributor: HAMAMATSU UNIV. SCHOOL OF MEDICINE
InstType: EI
InstName: JEOL JMS-AX-505-H
IoniMethod: _ENERGY 70 eV
IonPolarity: pos
Date: 2010-10-09 19:48:36+02:00
Num Peaks: 65
23 10 26 17 27 72 29 93 31 35 32 36 37 48 38 106 39 293 40 26 
41 84 42 32 43 81 44 44 45 174 49 47 50 448 51 353 52 45 53 78 
55 18 56 22 57 31 59 32 60 28 61 40 62 85 63 108 65 937 66 71 
67 17 68 36 69 28 71 31 72 17 73 110 74 454 75 303 76 363 77 120 
78 35 81 44 83 18 86 12 90 15 92 11 93 86 98 10 101 28 102 23 
103 83 104 111 105 68 115 16 119 35 120 22 121 430 122 62 138 53 148 77 
149 999 150 92 166 888 167 67 168 14 
