Name: MassBank: JP004454
MW: 190
Formula: C10H7FN2O
Synonym: MassBank: JP004454
Synonym: 6-(3-FLUOROPHENYL)-3,4-DIHYDROPYRIMIDIN-4-ONE
Structure: 362D28332D464C554F524F5048454E594C292D332C342D4449485944524F505952494D4944494E2D342D4F4E452E6D6F6C0A20204368656D447261773035313331303231323432440A2031342031352020302020302020302020302020302020302020302020303939392056323030300A2020202D312E363530302020202D312E3037313720202020302E303030302043202020302020302020302020302020302020302020302020302020302020302020302020300A2020202D322E303632352020202D302E3335373220202020302E30303030204E202020302020302020302020302020302020302020302020302020302020302020302020300A2020202D312E3635303020202020302E3335373220202020302E303030302043202020302020302020302020302020302020302020302020302020302020302020302020300A2020202D302E3832353020202020302E3335373220202020302E303030302043202020302020302020302020302020302020302020302020302020302020302020302020300A2020202D302E343132352020202D302E3335373220202020302E303030302043202020302020302020302020302020302020302020302020302020302020302020302020300A2020202D302E383235302020202D312E3037313720202020302E30303030204E202020302020302020302020302020302020302020302020302020302020302020302020300A2020202D322E3036323520202020312E3037313720202020302E30303030204F202020302020302020302020302020302020302020302020302020302020302020302020300A20202020302E343132352020202D302E3335373220202020302E303030302043202020302020302020302020302020302020302020302020302020302020302020302020300A20202020302E3832353020202020302E3335373220202020302E303030302043202020302020302020302020302020302020302020302020302020302020302020302020300A20202020312E3635303020202020302E3335373220202020302E303030302043202020302020302020302020302020302020302020302020302020302020302020302020300A20202020322E303632352020202D302E3335373220202020302E303030302043202020302020302020302020302020302020302020302020302020302020302020302020300A20202020312E363530302020202D312E3037313720202020302E303030302043202020302020302020302020302020302020302020302020302020302020302020302020300A20202020302E383235302020202D312E3037313720202020302E303030302043202020302020302020302020302020302020302020302020302020302020302020302020300A20202020322E3036323520202020312E3037313720202020302E303030302046202020302020302020302020302020302020302020302020302020302020302020302020300A2020312020322020312020302020202020200A2020322020332020312020302020202020200A2020332020342020312020302020202020200A2020342020352020322020302020202020200A2020352020362020312020302020202020200A2020312020362020322020302020202020200A2020332020372020322020302020202020200A2020382020392020312020302020202020200A2020392031302020322020302020202020200A2031302031312020312020302020202020200A2031312031322020322020302020202020200A2031322031332020312020302020202020200A2020382031332020322020302020202020200A2031302031342020312020302020202020200A2020352020382020312020302020202020200A4D2020454E44
Contributor: SASAKI S, TOYOHASHI UNIV. OF TECH.
InstType: EI
InstName: MS-902
IoniMethod: _ENERGY 70 eV
IonPolarity: pos
Date: 2010-10-09 19:48:36+02:00
Num Peaks: 61
51 11 52 7 56 7 57 2 60 10 61 6 62 8 63 1 64 5 67.5 14 
68 59 69 1 70 6 73 6 74 19 75 4 76 11 79 6 82 6 83 1 
85 7 87 6 88 5 89 1 91 5 92 5 94 34 94.5 1 95 90 96 19 
99 10 101 1 106 6 107 54 108 47 110 1 111 15 115 11 120 49 121 3 
122 223 123 26 125 5 126 1 133 5 134 59 135 74 136 2 141 5 146 7 
147 21 149 1 160 6 161 27 162 122 163 2 171 22 189 624 190 999 191 11 
192 8 
