Name: CYCLOPENTANONE DIMETHYLHYDRAZONE
MW: 126
Formula: C7H14N2
Synonym: MassBank: JP001936
Synonym: CYCLOPENTANONE DIMETHYLHYDRAZONE
Structure: 310A32330A4359434C4F50454E54414E4F4E452044494D455448594C48594452415A4F4E452E6D6F6C0A20204368656D447261773039323031303039303432440A2020392020392020302020302020302020302020302020302020302020303939392056323030300A2020202D302E343138392020202D302E3238393820202020302E303030302043202020302020302020302020302020302020302020302020302020302020302020302020300A2020202D312E313732352020202D302E3632353320202020302E303030302043202020302020302020302020302020302020302020302020302020302020302020302020300A2020202D312E373234362020202D302E3031323220202020302E303030302043202020302020302020302020302020302020302020302020302020302020302020302020300A2020202D312E3331323120202020302E3730323320202020302E303030302043202020302020302020302020302020302020302020302020302020302020302020302020300A2020202D302E3530353120202020302E3533303720202020302E303030302043202020302020302020302020302020302020302020302020302020302020302020302020300A20202020302E323935362020202D302E3730323320202020302E30303030204E202020302020302020302020302020302020302020302020302020302020302020302020300A20202020312E303130312020202D302E3238393820202020302E30303030204E202020302020302020302020302020302020302020302020302020302020302020302020300A20202020312E3031303120202020302E3533353220202020302E303030302043202020302020302020302020302020302020302020302020302020302020302020302020300A20202020312E373234362020202D302E3730323320202020302E303030302043202020302020302020302020302020302020302020302020302020302020302020302020300A2020312020322020312020302020202020200A2020322020332020312020302020202020200A2020332020342020312020302020202020200A2020342020352020312020302020202020200A2020312020352020312020302020202020200A2020362020372020312020302020202020200A2020372020382020312020302020202020200A2020372020392020312020302020202020200A2020312020362020322020302020202020200A4D2020454E44
Contributor: MASS SPECTROSCOPY SOC. OF JAPAN (MSSJ)
InstType: EI
InstName: JEOL JMS-D-3000
IoniMethod: _ENERGY 70 eV
IonPolarity: pos
Date: 2010-10-09 19:48:36+02:00
Num Peaks: 24
41 293 42 482 43 970 44 999 45 248 52 51 53 92 54 234 55 464 56 59 
58 214 59 39 67 88 68 52 70 53 80 49 82 720 83 118 84 178 97 56 
111 289 125 137 126 896 127 78 
