Name: MassBank: JP007249
CAS: 57-83-0
MW: 314
Formula: C21H30O2
Synonym: MassBank: JP007249
Synonym: PREGN-4-EN-3,20-DIONE
Synonym: PROGESTERONE
Structure: 505245474E2D342D454E452D332C32302D44494F4E452E6D6F6C0A20204368656D447261773038313231303035353432440A2032362032392020302020302020302020302020302020302020302020303939392056323030300A2020202D322E333532322020202D312E3633363520202020302E303030302043202020302020302020302020302020302020302020302020302020302020302020302020300A2020202D322E333532322020202D302E3831313520202020302E303030302043202020302020302020302020302020302020302020302020302020302020302020302020300A2020202D312E363337372020202D302E3339393020202020302E303030302043202020302020302020302020302020302020302020302020302020302020302020302020300A2020202D312E363337372020202D322E3034393020202020302E303030302043202020302020302020302020302020302020302020302020302020302020302020302020300A2020202D302E393233332020202D312E3633363520202020302E303030302043202020302020302020302020302020302020302020302020302020302020302020302020300A2020202D302E323038382020202D322E3034393020202020302E303030302043202020302020302020302020302020302020302020302020302020302020302020302020300A20202020302E353035372020202D312E3633363520202020302E303030302043202020302020302020302020302020302020302020302020302020302020302020302020300A20202020302E353035372020202D302E3831313520202020302E303030302043202020302020302020302020302020302020302020302020302020302020302020302020300A20202020312E323230312020202D302E3339393020202020302E303030302043202020302020302020302020302020302020302020302020302020302020302020302020300A20202020322E303034382020202D302E3635333920202020302E303030302043202020302020302020302020302020302020302020302020302020302020302020302020300A20202020322E3438393720202020302E3031333520202020302E303030302043202020302020302020302020302020302020302020302020302020302020302020302020300A20202020322E3030343820202020302E3638313020202020302E303030302043202020302020302020302020302020302020302020302020302020302020302020302020300A20202020322E3235393720202020312E3436353620202020302E303030302043202020302020302020302020302020302020302020302020302020302020302020302020300A20202020312E3637363320202020322E3034393020202020302E303030302043202020302020302020302020302020302020302020302020302020302020302020302020300A20202020312E3232303120202020302E3432363020202020302E303030302043202020302020302020302020302020302020302020302020302020302020302020302020300A20202020312E3232303120202020312E3235313020202020302E303030302043202020302020302020302020302020302020302020302020302020302020302020302020300A20202020302E3530353720202020302E3833383520202020302E303030302043202020302020302020302020302020302020302020302020302020302020302020302020300A2020202D302E3230383820202020302E3432363020202020302E303030302043202020302020302020302020302020302020302020302020302020302020302020302020300A2020202D302E323038382020202D302E3339393020202020302E303030302043202020302020302020302020302020302020302020302020302020302020302020302020300A2020202D302E393233332020202D302E3831313520202020302E303030302043202020302020302020302020302020302020302020302020302020302020302020302020300A2020202D302E3932333320202020302E3031333520202020302E303030302043202020302020302020302020302020302020302020302020302020302020302020302020300A2020202D332E303636372020202D322E3034393020202020302E30303030204F202020302020302020302020302020302020302020302020302020302020302020302020300A20202020332E3036363720202020312E3633373120202020302E30303030204F202020302020302020302020302020302020302020302020302020302020302020302020300A2020202D302E323038382020202D312E3232343020202020302E303030302048202020302020302020302020302020302020302020302020302020302020302020302020300A20202020302E3530353720202020302E3031333520202020302E303030302048202020302020302020302020302020302020302020302020302020302020302020302020300A20202020312E323230312020202D312E3232343020202020302E303030302048202020302020302020302020302020302020302020302020302020302020302020302020300A2020312020322020312020302020202020200A2020322020332020312020302020202020200A2020312020342020312020302020202020200A2020342020352020322020302020202020200A2020352020362020312020302020202020200A2020362020372020312020302020202020200A2020372020382020312020302020202020200A2020382020392020312020302020202020200A2020392031302020312020302020202020200A2031302031312020312020302020202020200A2031312031322020312020302020202020200A2031322031332020312020312020202020200A2031332031342020312020302020202020200A2031322031352020312020302020202020200A2020392031352020312020302020202020200A2031352031362020312020312020202020200A2031352031372020312020302020202020200A2031372031382020312020302020202020200A2031382031392020312020302020202020200A2020382031392020312020302020202020200A2031392032302020312020302020202020200A2020332032302020312020302020202020200A2020352032302020312020302020202020200A2032302032312020312020312020202020200A2020312032322020322020302020202020200A2031332032332020322020302020202020200A2031392032342020312020362020202020200A2020382032352020312020312020202020200A2020392032362020312020362020202020200A4D2020454E44
Contributor: ENDO K, PHARMACEUTICAL INST., TOHOKU UNIV.
InstType: EI
InstName: HITACHI M-52
IoniMethod: _ENERGY 25 eV
IonPolarity: pos
Date: 2010-10-09 19:48:36+02:00
Num Peaks: 195
41 33 42 11 43 385 44 2 53 11 54 11 55 77 56 2 57 55 58 11 
59 11 60 2 67 55 68 22 69 66 70 3 71 154 72 11 73 33 74 2 
77 22 78 11 79 88 80 3 81 109 82 22 83 44 84 15 85 88 91 109 
92 33 93 15 94 55 95 187 96 55 97 7 98 11 99 22 103 22 105 11 
106 77 107 220 108 66 109 22 110 55 111 44 112 22 113 2 115 22 117 33 
118 22 119 17 120 88 121 143 122 132 123 17 124 999 125 132 126 22 127 1 
128 22 129 22 130 22 131 8 132 66 133 242 134 176 135 19 136 109 137 198 
138 55 139 2 142 11 143 77 144 11 145 12 146 44 147 231 148 121 149 23 
150 44 151 22 152 11 153 1 155 22 156 11 157 77 158 2 159 121 160 44 
161 77 162 4 163 88 164 11 165 11 167 2 169 22 170 11 171 33 172 6 
173 165 174 88 175 55 176 6 177 44 178 22 179 11 180 2 181 22 183 33 
184 22 185 8 186 22 187 187 188 66 189 2 190 187 191 330 192 77 193 4 
196 33 197 22 198 33 199 6 200 22 201 88 202 55 203 3 204 22 205 11 
206 11 207 1 209 11 211 99 212 22 213 3 214 44 215 55 216 33 217 1 
218 11 219 11 223 33 225 3 226 44 227 66 228 66 229 64 230 165 231 55 
232 22 233 1 234 11 236 22 237 11 238 2 239 55 241 22 242 22 243 7 
244 187 245 55 253 44 254 8 255 22 256 33 257 99 258 3 263 11 264 11 
266 11 267 2 268 22 269 33 270 22 271 12 272 748 273 165 274 22 275 1 
278 22 279 22 281 44 282 1 285 11 286 44 296 99 297 4 298 11 299 121 
300 33 313 3 314 913 315 253 316 44 
