Name: MassBank: JP002453
MW: 254
Formula: C8H15BrO4
Synonym: MassBank: JP002453
Synonym: (4S,5S)-2-(BROMOMETHYL)-4,5-BIS(METHOXYMETHYL)-1,3-DIOXOLANE
Structure: 2834532C3553292D322D2842524F4D4F4D455448594C292D342C352D424953284D4554484F58594D455448594C292D312C332D44494F584F4C414E452E6D6F6C0A20204368656D447261773130323230393032343932440A2031352031352020302020302020302020302020302020302020302020303939392056323030300A2020202D302E3038303620202020302E3235303520202020302E303030302043202020302020302020302020302020302020302020302020302020302020302020302020300A20202020302E3733393920202020302E3136343320202020302E30303030204F202020302020302020302020302020302020302020302020302020302020302020302020300A20202020312E3037353520202020302E3931373920202020302E303030302043202020302020302020302020302020302020302020302020302020302020302020302020300A20202020302E3436323320202020312E3436393020202020302E30303030204F202020302020302020302020302020302020302020302020302020302020302020302020300A2020202D302E3235323020202020312E3035373520202020302E303030302043202020302020302020302020302020302020302020302020302020302020302020302020300A20202020312E3838323320202020312E3038393820202020302E303030302043202020302020302020302020302020302020302020302020302020302020302020302020300A2020202D302E3538373120202020312E3831313420202020302E303030302048202020302020302020302020302020302020302020302020302020302020302020302020300A2020202D302E303830362020202D302E3537343520202020302E303030302043202020302020302020302020302020302020302020302020302020302020302020302020300A2020202D312E3033363720202020302E3830323820202020302E303030302043202020302020302020302020302020302020302020302020302020302020302020302020300A2020202D302E3930313020202020302E3136343320202020302E303030302048202020302020302020302020302020302020302020302020302020302020302020302020300A2020202D302E373935302020202D302E3938373020202020302E30303030204F202020302020302020302020302020302020302020302020302020302020302020302020300A2020202D312E3634393620202020312E3335353020202020302E30303030204F202020302020302020302020302020302020302020302020302020302020302020302020300A20202020322E3433343620202020302E3437373020202020302E303030302042722020302020302020302020302020302020302020302020302020302020302020302020300A2020202D302E373936312020202D312E3831313420202020302E303030302043202020302020302020302020302020302020302020302020302020302020302020302020300A2020202D322E3433343620202020312E3130313220202020302E303030302043202020302020302020302020302020302020302020302020302020302020302020302020300A2020312020322020312020302020202020200A2020322020332020312020302020202020200A2020332020342020312020302020202020200A2020342020352020312020302020202020200A2020352020312020312020302020202020200A2020332020362020312020302020202020200A2020352020372020312020312020202020200A2020312020382020312020312020202020200A2020352020392020312020362020202020200A2020312031302020312020362020202020200A2020382031312020312020302020202020200A2020392031322020312020302020202020200A2020362031332020312020302020202020200A2031312031342020312020302020202020200A2031322031352020312020302020202020200A4D202053545920203120202031205355500A4D2020534C4220203120202031202020310A4D202053414C20202031202031202031340A4D202053424C20202031202031202031340A4D2020534D5420202031204D650A4D2020534256202020312031342020202D362E3334363320202020372E303131340A4D202053545920203120202032205355500A4D2020534C4220203120202032202020320A4D202053414C20202032202031202031350A4D202053424C20202032202031202031350A4D2020534D5420202032204D650A4D2020534256202020322031352020202D372E3133303220202020372E353832300A4D2020454E44
Contributor: ITO S, DEPT. OF CHEM., TOHOKU UNIV.
InstType: EI
InstName: HITACHI M-52
IoniMethod: _ENERGY 25 eV
IonPolarity: pos
Date: 2010-10-09 19:48:36+02:00
Num Peaks: 37
39 25 41 81 42 39 43 23 44 37 45 532 55 89 57 4 58 64 59 377 
68 35 69 12 70 79 71 195 73 74 75 3 82 35 83 37 84 106 85 42 
87 675 88 30 94 20 100 4 101 42 103 52 115 121 116 7 129 143 151 35 
153 25 161 999 162 84 163 22 179 25 209 9 211 64 
