Name: MassBank: JP003334
MW: 402
Formula: C20H34O8
Synonym: MassBank: JP003334
Synonym: TRIBUTYL 2-CARBOXYMETHYL-1,2,3-PROPANE TRICARBOXYLATE
Structure: 545249425554594C20322D434152424F58594D455448594C2D312C322C332D50524F50414E4520545249434152424F58594C4154452E6D6F6C0A20204368656D447261773038313231303038323032440A2032382032372020302020302020302020302020302020302020302020303939392056323030300A20202020312E3032323320202020302E3735373820202020302E303030302043202020302020302020302020302020302020302020302020302020302020302020302020300A20202020302E383535342020202D302E3035303220202020302E303030302043202020302020302020302020302020302020302020302020302020302020302020302020300A2020202D302E3138303520202020302E3232373420202020302E303030302043202020302020302020302020302020302020302020302020302020302020302020302020300A20202020302E3430363020202020312E3330363220202020302E303030302043202020302020302020302020302020302020302020302020302020302020302020302020300A20202020302E3537323820202020322E3131343220202020302E30303030204F202020302020302020302020302020302020302020302020302020302020302020302020300A2020202D302E3337373120202020312E3034363720202020302E30303030204F202020302020302020302020302020302020302020302020302020302020302020302020300A20202020302E373833352020202D302E3837323020202020302E303030302043202020302020302020302020302020302020302020302020302020302020302020302020300A20202020302E303335382020202D312E3232303720202020302E30303030204F202020302020302020302020302020302020302020302020302020302020302020302020300A20202020312E343938302020202D312E3238343520202020302E30303030204F202020302020302020302020302020302020302020302020302020302020302020302020300A2020202D302E383536332020202D302E3234353820202020302E303030302043202020302020302020302020302020302020302020302020302020302020302020302020300A2020202D302E373834342020202D312E3036373720202020302E30303030204F202020302020302020302020302020302020302020302020302020302020302020302020300A2020202D312E3537303820202020302E3136363720202020302E30303030204F202020302020302020302020302020302020302020302020302020302020302020302020300A20202020312E363731372020202D302E3136393820202020302E303030302043202020302020302020302020302020302020302020302020302020302020302020302020300A20202020322E3138333420202020302E3437373420202020302E303030302043202020302020302020302020302020302020302020302020302020302020302020302020300A20202020322E3939393720202020302E3335373820202020302E30303030204F202020302020302020302020302020302020302020302020302020302020302020302020300A20202020312E3837383820202020312E3234343120202020302E30303030204F202020302020302020302020302020302020302020302020302020302020302020302020300A2020202D302E3939333420202020312E3539353220202020302E303030302043202020302020302020302020302020302020302020302020302020302020302020302020300A2020202D302E3832363620202020322E3430333120202020302E303030302043202020302020302020302020302020302020302020302020302020302020302020302020300A2020202D312E3434323920202020322E3935313620202020302E303030302043202020302020302020302020302020302020302020302020302020302020302020302020300A2020202D312E3237363120202020332E3735393520202020302E303030302043202020302020302020302020302020302020302020302020302020302020302020302020300A20202020312E343938302020202D322E3130393520202020302E303030302043202020302020302020302020302020302020302020302020302020302020302020302020300A20202020302E373833352020202D322E3532323020202020302E303030302043202020302020302020302020302020302020302020302020302020302020302020302020300A20202020302E373833352020202D332E3334373020202020302E303030302043202020302020302020302020302020302020302020302020302020302020302020302020300A20202020302E303639312020202D332E3735393520202020302E303030302043202020302020302020302020302020302020302020302020302020302020302020302020300A2020202D322E323835332020202D302E3234353820202020302E303030302043202020302020302020302020302020302020302020302020302020302020302020302020300A2020202D322E323835332020202D312E3037303820202020302E303030302043202020302020302020302020302020302020302020302020302020302020302020302020300A2020202D322E393939372020202D312E3438333320202020302E303030302043202020302020302020302020302020302020302020302020302020302020302020302020300A2020202D322E393939372020202D322E3330383320202020302E303030302043202020302020302020302020302020302020302020302020302020302020302020302020300A2020312020322020312020302020202020200A2020322020332020312020302020202020200A2020342020352020322020302020202020200A2020342020362020312020302020202020200A2020312020342020312020302020202020200A2020372020382020322020302020202020200A2020372020392020312020302020202020200A2020322020372020312020302020202020200A2031302031312020322020302020202020200A2031302031322020312020302020202020200A2020332031302020312020302020202020200A2031342031352020322020302020202020200A2031342031362020312020302020202020200A2031332031342020312020302020202020200A2020322031332020312020302020202020200A2031372031382020312020302020202020200A2031382031392020312020302020202020200A2031392032302020312020302020202020200A2020362031372020312020302020202020200A2032312032322020312020302020202020200A2032322032332020312020302020202020200A2032332032342020312020302020202020200A2020392032312020312020302020202020200A2032352032362020312020302020202020200A2032362032372020312020302020202020200A2032372032382020312020302020202020200A2031322032352020312020302020202020200A4D2020454E44
Contributor: KOGA M, UNIV. OF OCCUPATIONAL AND ENVIRONMENTAL HEALTH
InstType: EI
InstName: JEOL JMS-01-SG-2
IoniMethod: _ENERGY 75 eV
IonPolarity: pos
Date: 2010-10-09 19:48:36+02:00
Num Peaks: 58
43 999 44 560 45 44 50 27 51 23 53 31 54 189 55 45 56 568 57 25 
59 39 60 4 64 31 66 33 69 29 72 3 84 64 85 31 87 52 101 3 
102 58 103 53 111 70 112 23 113 76 115 23 129 472 130 3 138 39 139 138 
140 23 141 3 142 37 147 62 156 132 157 26 158 74 168 35 185 933 186 11 
203 46 212 64 213 126 217 5 241 23 259 904 260 123 268 4 269 87 273 74 
301 41 302 6 329 185 330 37 342 37 343 2 347 19 403 21 
