Name: CYCLOPENTOLATE
MW: 291
Formula: C17H25NO3
Synonym: MassBank: JP003108
Synonym: CYCLOPENTOLATE
Structure: 4359434C4F50454E544F4C4154452E6D6F6C0A20204368656D447261773039323031303039303832440A2032312032322020302020302020302020302020302020302020302020303939392056323030300A20202020322E3134333420202020322E3235393720202020302E303030302043202020302020302020302020302020302020302020302020302020302020302020302020300A20202020322E3134333420202020312E3433343720202020302E30303030204E202020302020302020302020302020302020302020302020302020302020302020302020300A20202020312E3432383920202020312E3032323220202020302E303030302043202020302020302020302020302020302020302020302020302020302020302020302020300A20202020302E3731343520202020312E3433343720202020302E303030302043202020302020302020302020302020302020302020302020302020302020302020302020300A2020202D302E3030303020202020312E3032323220202020302E30303030204F202020302020302020302020302020302020302020302020302020302020302020302020300A2020202D302E3030303020202020302E3139373220202020302E303030302043202020302020302020302020302020302020302020302020302020302020302020302020300A2020202D302E373134352020202D302E3231353320202020302E303030302043202020302020302020302020302020302020302020302020302020302020302020302020300A2020202D302E373134352020202D312E3034303320202020302E303030302043202020302020302020302020302020302020302020302020302020302020302020302020300A20202020302E313036302020202D302E3935343020202020302E303030302043202020302020302020302020302020302020302020302020302020302020302020302020300A20202020302E343431362020202D312E3730373720202020302E303030302043202020302020302020302020302020302020302020302020302020302020302020302020300A2020202D302E313731352020202D322E3235393720202020302E303030302043202020302020302020302020302020302020302020302020302020302020302020302020300A2020202D302E383836302020202D312E3834373220202020302E303030302043202020302020302020302020302020302020302020302020302020302020302020302020300A2020202D312E353335302020202D302E3935343020202020302E30303030204F202020302020302020302020302020302020302020302020302020302020302020302020300A2020202D312E3432383920202020302E3139373220202020302E303030302043202020302020302020302020302020302020302020302020302020302020302020302020300A2020202D322E313433342020202D302E3231353320202020302E303030302043202020302020302020302020302020302020302020302020302020302020302020302020300A2020202D322E3835373920202020302E3139373220202020302E303030302043202020302020302020302020302020302020302020302020302020302020302020302020300A2020202D322E3835373920202020312E3032323220202020302E303030302043202020302020302020302020302020302020302020302020302020302020302020302020300A2020202D322E3134333420202020312E3433343720202020302E303030302043202020302020302020302020302020302020302020302020302020302020302020302020300A2020202D312E3432383920202020312E3032323220202020302E303030302043202020302020302020302020302020302020302020302020302020302020302020302020300A20202020302E373134352020202D302E3231353320202020302E30303030204F202020302020302020302020302020302020302020302020302020302020302020302020300A20202020322E3835373920202020312E3032323220202020302E303030302043202020302020302020302020302020302020302020302020302020302020302020302020300A2020312020322020312020302020202020200A2020322020332020312020302020202020200A2020332020342020312020302020202020200A2020342020352020312020302020202020200A2020352020362020312020302020202020200A2020362020372020312020302020202020200A2020372020382020312020302020202020200A2020382020392020312020302020202020200A2020392031302020312020302020202020200A2031302031312020312020302020202020200A2031312031322020312020302020202020200A2020382031322020312020302020202020200A2020382031332020312020302020202020200A2020372031342020312020302020202020200A2031342031352020322020302020202020200A2031352031362020312020302020202020200A2031362031372020322020302020202020200A2031372031382020312020302020202020200A2031382031392020322020302020202020200A2031342031392020312020302020202020200A2020362032302020322020302020202020200A2020322032312020312020302020202020200A4D2020454E44
Contributor: SASAKI S, TOYOHASHI UNIV. OF TECH.
InstType: EI
InstName: Unknown
IoniMethod: EI
IonPolarity: pos
Date: 2010-10-09 19:48:36+02:00
Num Peaks: 98
25 5 26 61 27 135 28 27 29 61 30 104 31 11 32 1 36 7 37 17 
38 38 39 12 40 35 41 149 42 209 43 1 44 81 45 27 48 1 49 0 
50 39 51 41 52 12 53 2 54 17 55 277 56 143 57 3 58 999 59 45 
60 1 61 2 62 40 63 83 64 33 65 5 66 12 67 12 68 8 69 0 
70 25 71 196 72 41 73 1 74 8 75 8 76 3 77 0 78 8 79 8 
80 1 81 0 82 7 83 6 84 130 85 1 86 11 87 8 88 12 89 24 
90 244 91 111 92 15 93 0 101 3 102 2 103 1 115 1 116 4 117 9 
118 219 119 3 120 2 121 1 127 3 128 1 129 12 130 3 131 2 136 0 
141 8 142 3 143 3 144 0 152 1 153 2 154 1 155 0 156 3 157 3 
158 11 159 0 162 3 163 13 164 1 184 0 207 6 208 4 
