Name: 4-ETHYLNITROBENZENE
CAS: 100-12-9
MW: 151
Formula: C8H9NO2
Synonym: MassBank: JP008168
Synonym: 4-ETHYLNITROBENZENE
Structure: 342D455448594C4E4954524F42454E5A454E452E6D6F6C0A20204368656D447261773033323531303232303532440A2031312031312020302020302020302020302020302020302020302020303939392056323030300A2020202D302E383235302020202D302E3030303020202020302E303030302043202020302020302020302020302020302020302020302020302020302020302020302020300A2020202D302E3431323520202020302E3731343520202020302E303030302043202020302020302020302020302020302020302020302020302020302020302020302020300A20202020302E3431323520202020302E3731343520202020302E303030302043202020302020302020302020302020302020302020302020302020302020302020302020300A20202020302E383235302020202D302E3030303020202020302E303030302043202020302020302020302020302020302020302020302020302020302020302020302020300A20202020302E343132352020202D302E3731343520202020302E303030302043202020302020302020302020302020302020302020302020302020302020302020302020300A2020202D302E343132352020202D302E3731343520202020302E303030302043202020302020302020302020302020302020302020302020302020302020302020302020300A20202020312E363530302020202D302E3030303020202020302E303030302043202020302020302020302020302020302020302020302020302020302020302020302020300A20202020322E3036323520202020302E3731343520202020302E303030302043202020302020302020302020302020302020302020302020302020302020302020302020300A2020202D312E363530302020202D302E3030303020202020302E30303030204E202020302020332020302020302020302020302020302020302020302020302020302020300A2020202D322E303632352020202D302E3731343520202020302E30303030204F202020302020302020302020302020302020302020302020302020302020302020302020300A2020202D322E3036323520202020302E3731343520202020302E30303030204F202020302020352020302020302020302020302020302020302020302020302020302020300A2020312020322020312020302020202020200A2020322020332020322020302020202020200A2020332020342020312020302020202020200A2020342020352020322020302020202020200A2020352020362020312020302020202020200A2020312020362020322020302020202020200A2020372020382020312020302020202020200A2020342020372020312020302020202020200A2020392031302020322020302020202020200A2020392031312020312020302020202020200A2020312020392020312020302020202020200A4D202043484720203220202039202020312020313120202D310A4D2020454E44
Contributor: NARA WOMEN'S UNIVERSITY
InstType: EI
InstName: HITACHI M-80
IoniMethod: _ENERGY 70 eV
IonPolarity: pos
Date: 2010-10-09 19:48:36+02:00
Num Peaks: 45
15 12 27 42 28 10 29 17 30 58 31 34 32 30 38 9 39 47 46 17 
50 35 51 64 52 17 53 19 62 16 63 53 64 15 65 32 74 16 75 16 
76 15 77 273 78 141 79 224 80 16 89 59 90 40 91 61 92 11 93 91 
102 16 103 160 104 92 105 559 106 107 107 13 121 100 122 10 134 80 135 28 
136 167 137 13 151 999 152 96 153 9 
