Name: PROPANAL DIISOPROPYL ACETAL
MW: 160
Formula: C9H20O2
Synonym: MassBank: JP009284
Synonym: PROPANAL DIISOPROPYL ACETAL
Structure: 50524F50414E414C20444949534F50524F50594C2041434554414C2E6D6F6C0A20204368656D447261773038313231303035353932440A2031312031302020302020302020302020302020302020302020302020303939392056323030300A2020202D302E323036332020202D302E3335373220202020302E303030302043202020302020302020302020302020302020302020302020302020302020302020302020300A2020202D312E303331332020202D302E3335373220202020302E303030302043202020302020302020302020302020302020302020302020302020302020302020302020300A2020202D312E343433382020202D312E3037313720202020302E303030302043202020302020302020302020302020302020302020302020302020302020302020302020300A20202020302E3230363320202020302E3335373220202020302E30303030204F202020302020302020302020302020302020302020302020302020302020302020302020300A20202020302E323036332020202D312E3037313720202020302E30303030204F202020302020302020302020302020302020302020302020302020302020302020302020300A2020202D302E3230363320202020312E3037313720202020302E303030302043202020302020302020302020302020302020302020302020302020302020302020302020300A2020202D312E3033313320202020312E3037313720202020302E303030302043202020302020302020302020302020302020302020302020302020302020302020302020300A20202020302E3230363220202020312E3738363220202020302E303030302043202020302020302020302020302020302020302020302020302020302020302020302020300A20202020312E303331322020202D312E3037313720202020302E303030302043202020302020302020302020302020302020302020302020302020302020302020302020300A20202020312E343433382020202D302E3335373220202020302E303030302043202020302020302020302020302020302020302020302020302020302020302020302020300A20202020312E343433372020202D312E3738363220202020302E303030302043202020302020302020302020302020302020302020302020302020302020302020302020300A2020312020322020312020302020202020200A2020322020332020312020302020202020200A2020362020372020312020302020202020200A2020362020382020312020302020202020200A2020342020362020312020302020202020200A2020392031302020312020302020202020200A2020392031312020312020302020202020200A2020352020392020312020302020202020200A2020312020342020312020302020202020200A2020312020352020312020302020202020200A4D2020454E44
Contributor: SODA AROMATIC CO., LTD.
InstType: EI
InstName: HITACHI M-80B
IoniMethod: _ENERGY 70 eV
IonPolarity: pos
Date: 2010-10-09 19:48:36+02:00
Num Peaks: 24
15 30 26 15 27 161 28 27 29 82 31 104 32 43 39 7 41 206 42 46 
43 713 44 2 45 165 47 65 57 56 58 7 59 999 60 24 75 31 89 27 
90 13 101 206 102 18 131 79 
