Name: ANDROSTERONE
MW: 290
Formula: C19H30O2
Synonym: MassBank: JP003427
Synonym: ANDROSTERONE
Structure: 414E44524F535445524F4E452E6D6F6C0A20204368656D447261773038313331303132313632440A2032362032392020302020302020302020302020302020302020302020303939392056323030300A2020202D312E3239343020202020302E3039393020202020302E303030302043202020302020302020302020302020302020302020302020302020302020302020302020300A2020202D322E303038342020202D302E3331333520202020302E303030302043202020302020302020302020302020302020302020302020302020302020302020302020300A2020202D322E303038342020202D312E3133383520202020302E303030302043202020302020302020302020302020302020302020302020302020302020302020302020300A2020202D322E343230392020202D312E3835333020202020302E30303030204F202020302020302020302020302020302020302020302020302020302020302020302020300A2020202D312E323934302020202D312E3535313020202020302E303030302043202020302020302020302020302020302020302020302020302020302020302020302020300A2020202D302E353739352020202D312E3133383520202020302E303030302043202020302020302020302020302020302020302020302020302020302020302020302020300A20202020302E313335302020202D312E3535313020202020302E303030302043202020302020302020302020302020302020302020302020302020302020302020302020300A20202020302E383439342020202D312E3133383520202020302E303030302043202020302020302020302020302020302020302020302020302020302020302020302020300A20202020302E383439342020202D302E3331333520202020302E303030302043202020302020302020302020302020302020302020302020302020302020302020302020300A20202020312E3536333920202020302E3039393020202020302E303030302043202020302020302020302020302020302020302020302020302020302020302020302020300A20202020322E333438352020202D302E3135363020202020302E303030302043202020302020302020302020302020302020302020302020302020302020302020302020300A20202020322E3833333420202020302E3531313520202020302E303030302043202020302020302020302020302020302020302020302020302020302020302020302020300A20202020322E3334383520202020312E3137383920202020302E303030302043202020302020302020302020302020302020302020302020302020302020302020302020300A20202020322E3630333520202020312E3936333520202020302E30303030204F202020302020302020302020302020302020302020302020302020302020302020302020300A20202020312E3536333920202020302E3932343020202020302E303030302043202020302020302020302020302020302020302020302020302020302020302020302020300A20202020312E3536333920202020312E3734393020202020302E303030302043202020302020302020302020302020302020302020302020302020302020302020302020300A20202020302E3834393420202020312E3333363520202020302E303030302043202020302020302020302020302020302020302020302020302020302020302020302020300A20202020302E3133353020202020302E3932343020202020302E303030302043202020302020302020302020302020302020302020302020302020302020302020302020300A20202020302E3133353020202020302E3039393020202020302E303030302043202020302020302020302020302020302020302020302020302020302020302020302020300A2020202D302E353739352020202D302E3331333520202020302E303030302043202020302020302020302020302020302020302020302020302020302020302020302020300A2020202D302E3537393520202020302E3531313520202020302E303030302043202020302020302020302020302020302020302020302020302020302020302020302020300A20202020302E313335302020202D302E3732363020202020302E303030302048202020302020302020302020302020302020302020302020302020302020302020302020300A20202020312E343332382020202D302E3839363920202020302E303030302048202020302020302020302020302020302020302020302020302020302020302020302020300A20202020302E3733383920202020302E3039393020202020302E303030302048202020302020302020302020302020302020302020302020302020302020302020302020300A2020202D322E383333342020202D312E3133383520202020302E303030302048202020302020302020302020302020302020302020302020302020302020302020302020300A2020202D302E353739352020202D312E3936333520202020302E303030302048202020302020302020302020302020302020302020302020302020302020302020302020300A2020312020322020312020302020202020200A2020322020332020312020302020202020200A2020332020342020312020362020202020200A2020332020352020312020302020202020200A2020352020362020312020302020202020200A2020362020372020312020302020202020200A2020372020382020312020302020202020200A2020382020392020312020302020202020200A2020392031302020312020302020202020200A2031302031312020312020302020202020200A2031312031322020312020302020202020200A2031322031332020312020302020202020200A2031332031342020322020302020202020200A2031332031352020312020302020202020200A2031302031352020312020302020202020200A2031352031362020312020312020202020200A2031352031372020312020302020202020200A2031372031382020312020302020202020200A2031382031392020312020302020202020200A2020392031392020312020302020202020200A2031392032302020312020302020202020200A2020312032302020312020302020202020200A2020362032302020312020302020202020200A2032302032312020312020312020202020200A2031392032322020312020362020202020200A2020392032332020312020312020202020200A2031302032342020312020362020202020200A2020332032352020312020312020202020200A2020362032362020312020362020202020200A4D2020454E44
Contributor: KOGA M, UNIV. OF OCCUPATIONAL AND ENVIRONMENTAL HEALTH
InstType: EI
InstName: JEOL JMS-01-SG-2
IoniMethod: _ENERGY 75 eV
IonPolarity: pos
Date: 2010-10-09 19:48:36+02:00
Num Peaks: 46
43 190 44 282 53 124 55 361 57 117 67 363 69 146 77 15 79 313 81 292 
91 253 93 30 94 113 95 210 97 16 105 190 106 110 107 366 108 39 109 173 
110 132 119 132 120 11 121 147 122 132 124 195 133 11 145 100 147 179 149 117 
164 10 165 124 190 109 201 100 213 12 215 157 216 136 233 117 234 16 239 103 
246 243 257 173 272 19 275 132 290 999 291 214 
