Name: 2-METHYL-3-OXO-5-HYDROXYMETHYL TETRADECAN-5-OLIDE
MW: 284
Formula: C16H28O4
Synonym: MassBank: JP004373
Synonym: 2-METHYL-3-OXO-5-HYDROXYMETHYL TETRADECAN-5-OLIDE
Synonym: 6-HYDROXYMETHYL-3-METHYL-6-NONYLPERHYDROPYRANE-2,4-DIONE
Structure: 322D4D455448594C2D332D4F584F2D352D485944524F58594D455448594C205445545241444543414E2D352D4F4C4944452E6D6F6C0A20204368656D447261773031323231303033343032440A2032302032302020302020302020302020302020302020302020302020303939392056323030300A20202020332E3434393020202020302E3035333820202020302E303030302043202020302020302020302020302020302020302020302020302020302020302020302020300A20202020332E343439302020202D302E3737313220202020302E303030302043202020302020302020302020302020302020302020302020302020302020302020302020300A20202020322E373334352020202D312E3138333720202020302E303030302043202020302020302020302020302020302020302020302020302020302020302020302020300A20202020322E303230312020202D302E3737313220202020302E303030302043202020302020302020302020302020302020302020302020302020302020302020302020300A20202020322E3032303120202020302E3035333820202020302E303030302043202020302020302020302020302020302020302020302020302020302020302020302020300A20202020312E323037362020202D302E3038393520202020302E303030302043202020302020302020302020302020302020302020302020302020302020302020302020300A20202020302E3637373320202020302E3534323520202020302E303030302043202020302020302020302020302020302020302020302020302020302020302020302020300A2020202D302E3133353220202020302E3339393320202020302E303030302043202020302020302020302020302020302020302020302020302020302020302020302020300A2020202D302E3636353520202020312E3033313220202020302E303030302043202020302020302020302020302020302020302020302020302020302020302020302020300A2020202D312E3437373920202020302E3838383020202020302E303030302043202020302020302020302020302020302020302020302020302020302020302020302020300A2020202D322E3030383220202020312E3532303020202020302E303030302043202020302020302020302020302020302020302020302020302020302020302020302020300A2020202D322E3832303720202020312E3337363720202020302E303030302043202020302020302020302020302020302020302020302020302020302020302020302020300A2020202D332E3335313020202020322E3030383720202020302E303030302043202020302020302020302020302020302020302020302020302020302020302020302020300A2020202D342E3136333520202020312E3836353420202020302E303030302043202020302020302020302020302020302020302020302020302020302020302020302020300A20202020312E3733373920202020302E3832393020202020302E303030302043202020302020302020302020302020302020302020302020302020302020302020302020300A20202020302E3932353420202020302E3937323320202020302E30303030204F202020302020302020302020302020302020302020302020302020302020302020302020300A20202020322E373334352020202D322E3030383720202020302E30303030204F202020302020302020302020302020302020302020302020302020302020302020302020300A20202020342E313633352020202D312E3138333720202020302E303030302043202020302020302020302020302020302020302020302020302020302020302020302020300A20202020342E3136333520202020302E3436363320202020302E30303030204F202020302020302020302020302020302020302020302020302020302020302020302020300A20202020322E3733343520202020302E3436363320202020302E30303030204F202020302020302020302020302020302020302020302020302020302020302020302020300A2020312020322020312020302020202020200A2020322020332020312020302020202020200A2020332020342020312020302020202020200A2020342020352020312020302020202020200A2020352020362020312020302020202020200A2020362020372020312020302020202020200A2020372020382020312020302020202020200A2020382020392020312020302020202020200A2020392031302020312020302020202020200A2031302031312020312020302020202020200A2031312031322020312020302020202020200A2031322031332020312020302020202020200A2031332031342020312020302020202020200A2031352031362020312020302020202020200A2020352031352020312020302020202020200A2020332031372020322020302020202020200A2020322031382020312020302020202020200A2020312031392020322020302020202020200A2020312032302020312020302020202020200A2020352032302020312020302020202020200A4D2020454E44
Contributor: HAGIWARA H, CHEM. RES. INST. OF NON-AQUEOUS SOLUTIONS, TOHOKU UNIV.
InstType: EI
InstName: JEOL JMS-DX-300
IoniMethod: _ENERGY 20 eV
IonPolarity: pos
Date: 2010-10-09 19:48:36+02:00
Num Peaks: 27
28 76 43 194 55 89 56 131 57 253 67 80 69 114 71 305 81 155 82 62 
83 75 85 143 95 172 97 63 98 65 101 70 109 72 110 52 126 52 151 76 
154 52 155 716 156 74 211 159 235 102 253 999 254 166 
