Name: DIHYDROJASMONE
CAS: 1128-08-1
MW: 166
Formula: C11H18O
Synonym: MassBank: JP007720
Synonym: DIHYDROJASMONE
Synonym: 3-METHYL-2-PENTYL-2-CYCLOPENTEN-1-ONE
Structure: 4449485944524F4A41534D4F4E452E6D6F6C0A20204368656D447261773033323031303030313932440A2031322031322020302020302020302020302020302020302020302020303939392056323030300A20202020312E3537383020202020302E3230393420202020302E303030302043202020302020302020302020302020302020302020302020302020302020302020302020300A20202020312E373439352020202D302E3539373620202020302E303030302043202020302020302020302020302020302020302020302020302020302020302020302020300A20202020312E303335302020202D312E3031303120202020302E303030302043202020302020302020302020302020302020302020302020302020302020302020302020300A20202020302E343231392020202D302E3435383120202020302E303030302043202020302020302020302020302020302020302020302020302020302020302020302020300A2020202D302E333835302020202D302E3632393620202020302E303030302043202020302020302020302020302020302020302020302020302020302020302020302020300A20202020302E3735373520202020302E3239353620202020302E303030302043202020302020302020302020302020302020302020302020302020302020302020302020300A20202020302E3334353020202020312E3031303120202020302E303030302043202020302020302020302020302020302020302020302020302020302020302020302020300A2020202D302E3438303020202020312E3031303120202020302E303030302043202020302020302020302020302020302020302020302020302020302020302020302020300A2020202D302E3839323520202020302E3239353620202020302E303030302043202020302020302020302020302020302020302020302020302020302020302020302020300A2020202D312E3731373520202020302E3239353620202020302E303030302043202020302020302020302020302020302020302020302020302020302020302020302020300A20202020322E3133303020202020302E3832323520202020302E30303030204F202020302020302020302020302020302020302020302020302020302020302020302020300A2020202D322E3133303020202020312E3031303120202020302E303030302043202020302020302020302020302020302020302020302020302020302020302020302020300A2020312020322020312020302020202020200A2020322020332020312020302020202020200A2020332020342020312020302020202020200A2020342020352020312020302020202020200A2020342020362020322020302020202020200A2020312020362020312020302020202020200A2020362020372020312020302020202020200A2020372020382020312020302020202020200A2020382020392020312020302020202020200A2020392031302020312020302020202020200A2020312031312020322020302020202020200A2031302031322020312020302020202020200A4D2020454E44
Contributor: KYOTO INSTITUTE OF TECHNOLOGY
InstType: EI
InstName: SHIMADZU QP-1000
IoniMethod: _ENERGY 70 eV
IonPolarity: pos
Date: 2010-10-09 19:48:36+02:00
Num Peaks: 49
40 64 41 514 42 38 43 13 50 19 51 69 52 55 53 22 54 37 55 217 
56 19 57 2 63 16 65 92 66 48 67 40 68 56 69 45 77 104 78 2 
79 208 80 34 81 230 82 17 83 20 91 58 93 62 95 23 96 36 97 14 
105 18 107 2 108 26 109 247 110 999 111 18 112 13 122 20 123 191 124 9 
133 13 136 17 137 204 138 2 150 42 151 620 152 69 166 5 167 33 
