Name: 4-TRIMETHYLSILYLMETHYL-3-CYCLOHEXENYL 4-METHYL-3-PENTENYL KETONE
MW: 278
Formula: C17H30OSi
Synonym: MassBank: JP002489
Synonym: 4-TRIMETHYLSILYLMETHYL-3-CYCLOHEXENYL 4-METHYL-3-PENTENYL KETONE
Structure: 342D5452494D455448594C53494C594C4D455448594C2D332D4359434C4F484558454E594C20342D4D455448594C2D332D50454E54454E594C204B45544F4E452E6D6F6C0A20204368656D447261773034323331303030333332440A2031392031392020302020302020302020302020302020302020302020303939392056323030300A20202020302E333537322020202D302E3536333520202020302E303030302043202020302020302020302020302020302020302020302020302020302020302020302020300A20202020302E333537322020202D312E3338383520202020302E30303030204F202020302020302020302020302020302020302020302020302020302020302020302020300A20202020312E303731372020202D302E3135313020202020302E303030302043202020302020302020302020302020302020302020302020302020302020302020302020300A20202020312E373836322020202D302E3536333520202020302E303030302043202020302020302020302020302020302020302020302020302020302020302020302020300A20202020322E353030362020202D302E3135313020202020302E303030302043202020302020302020302020302020302020302020302020302020302020302020302020300A20202020332E323135312020202D302E3536333520202020302E303030302043202020302020302020302020302020302020302020302020302020302020302020302020300A20202020332E393239362020202D302E3135313020202020302E303030302043202020302020302020302020302020302020302020302020302020302020302020302020300A20202020332E323135312020202D312E3338383520202020302E303030302043202020302020302020302020302020302020302020302020302020302020302020302020300A2020202D302E333537322020202D302E3135313020202020302E303030302043202020302020302020302020302020302020302020302020302020302020302020302020300A2020202D312E303731372020202D302E3536333520202020302E303030302043202020302020302020302020302020302020302020302020302020302020302020302020300A2020202D312E373836322020202D302E3135313020202020302E303030302043202020302020302020302020302020302020302020302020302020302020302020302020300A2020202D312E3738363220202020302E3637343020202020302E303030302043202020302020302020302020302020302020302020302020302020302020302020302020300A2020202D312E3037313720202020312E3038363520202020302E303030302043202020302020302020302020302020302020302020302020302020302020302020302020300A2020202D302E3335373220202020302E3637343020202020302E303030302043202020302020302020302020302020302020302020302020302020302020302020302020300A2020202D322E3530303620202020312E3038363520202020302E303030302043202020302020302020302020302020302020302020302020302020302020302020302020300A2020202D332E3231353120202020302E3637343020202020302E303030302053692020302020302020302020302020302020302020302020302020302020302020302020300A2020202D322E383032362020202D302E3034303520202020302E303030302043202020302020302020302020302020302020302020302020302020302020302020302020300A2020202D332E3932393620202020302E3236313520202020302E303030302043202020302020302020302020302020302020302020302020302020302020302020302020300A2020202D332E3632373620202020312E3338383520202020302E303030302043202020302020302020302020302020302020302020302020302020302020302020302020300A2020312020322020322020302020202020200A2020332020342020312020302020202020200A2020342020352020312020302020202020200A2020352020362020322020302020202020200A2020362020372020312020302020202020200A2020362020382020312020302020202020200A2020312020332020312020302020202020200A2020392031302020312020302020202020200A2031302031312020312020302020202020200A2031312031322020322020302020202020200A2031322031332020312020302020202020200A2031332031342020312020302020202020200A2020392031342020312020302020202020200A2031362031372020312020312020202020200A2031362031382020312020302020202020200A2031362031392020312020312020202020200A2031352031362020312020302020202020200A2031322031352020312020302020202020200A2020312020392020312020302020202020200A4D2020454E44
Contributor: MASS SPECTROSCOPY SOC. OF JAPAN (MSSJ)
InstType: EI
InstName: JEOL JMS-D-3000
IoniMethod: _ENERGY 70 eV
IonPolarity: pos
Date: 2010-10-09 19:48:36+02:00
Num Peaks: 29
42 209 43 34 45 93 55 54 59 55 69 563 70 36 73 999 74 87 75 117 
79 45 83 27 91 57 93 40 94 41 95 33 117 36 119 116 121 40 132 40 
143 48 151 24 155 74 183 123 195 47 211 212 212 41 278 133 279 33 
