Name: 2-METHYLTETRAHYDROFURAN
CAS: 96-47-9
MW: 86
Formula: C5H10O
Synonym: MassBank: JP008186
Synonym: 2-METHYLTETRAHYDROFURAN
Synonym: TETRAHYDRO-2-METHYLFURAN
Structure: 310A31370A322D4D455448594C5445545241485944524F465552414E2E6D6F6C0A20204368656D447261773032323131303036303532440A2020362020362020302020302020302020302020302020302020302020303939392056323030300A20202020302E3236323720202020302E3636373420202020302E30303030204F202020302020302020302020302020302020302020302020302020302020302020302020300A2020202D302E3232323320202020302E3030303020202020302E303030302043202020302020302020302020302020302020302020302020302020302020302020302020300A20202020302E323632372020202D302E3636373420202020302E303030302043202020302020302020302020302020302020302020302020302020302020302020302020300A20202020312E303437332020202D302E3431323520202020302E303030302043202020302020302020302020302020302020302020302020302020302020302020302020300A20202020312E3034373320202020302E3431323520202020302E303030302043202020302020302020302020302020302020302020302020302020302020302020302020300A2020202D312E3034373320202020302E3030303020202020302E303030302043202020302020302020302020302020302020302020302020302020302020302020302020300A2020312020322020312020302020202020200A2020322020332020312020302020202020200A2020332020342020312020302020202020200A2020342020352020312020302020202020200A2020312020352020312020302020202020200A2020322020362020312020302020202020200A4D2020454E44
Contributor: NARA WOMEN'S UNIVERSITY
InstType: EI
InstName: HITACHI M-80
IoniMethod: _ENERGY 70 eV
IonPolarity: pos
Date: 2010-10-09 19:48:36+02:00
Num Peaks: 39
14 29 15 128 18 18 26 85 27 373 28 173 29 284 30 30 31 88 32 49 
37 20 38 48 39 339 40 90 41 625 42 474 43 803 44 40 45 220 50 23 
51 23 53 35 54 17 55 72 56 199 57 38 58 34 61 17 67 11 69 35 
70 20 71 999 72 47 73 12 83 14 84 26 85 65 86 192 87 37 
