Name: 4-METHYL-2-(5-HYDROXY-3-METHYLPENTOXY)TETRAHYDRO-2H-PYRAN
MW: 216
Formula: C12H24O3
Synonym: MassBank: JP009897
Synonym: 4-METHYL-2-(5-HYDROXY-3-METHYLPENTOXY)TETRAHYDRO-2H-PYRAN
Structure: 342D4D455448594C2D322D28352D485944524F58592D332D4D455448594C50454E544F5859295445545241485944524F2D32482D505952414E2E6D6F6C0A20204368656D447261773034323131303031323932440A2031352031352020302020302020302020302020302020302020302020303939392056323030300A2020202D322E353030362020202D302E3431323520202020302E303030302043202020302020302020302020302020302020302020302020302020302020302020302020300A2020202D322E353030362020202D312E3233373520202020302E303030302043202020302020302020302020302020302020302020302020302020302020302020302020300A2020202D312E373836322020202D312E3635303020202020302E303030302043202020302020302020302020302020302020302020302020302020302020302020302020300A2020202D312E303731372020202D312E3233373520202020302E303030302043202020302020302020302020302020302020302020302020302020302020302020302020300A2020202D312E303731372020202D302E3431323520202020302E303030302043202020302020302020302020302020302020302020302020302020302020302020302020300A2020202D312E3738363220202020302E3030303020202020302E30303030204F202020302020302020302020302020302020302020302020302020302020302020302020300A2020202D312E373836322020202D322E3437353020202020302E303030302043202020302020302020302020302020302020302020302020302020302020302020302020300A2020202D302E3335373220202020302E3030303020202020302E30303030204F202020302020302020302020302020302020302020302020302020302020302020302020300A2020202D302E3335373220202020302E3832353020202020302E303030302043202020302020302020302020302020302020302020302020302020302020302020302020300A20202020302E3335373220202020312E3233373520202020302E303030302043202020302020302020302020302020302020302020302020302020302020302020302020300A20202020302E3335373220202020322E3036323520202020302E303030302043202020302020302020302020302020302020302020302020302020302020302020302020300A20202020312E3037313720202020322E3437353020202020302E303030302043202020302020302020302020302020302020302020302020302020302020302020302020300A2020202D302E3335373220202020322E3437353020202020302E303030302043202020302020302020302020302020302020302020302020302020302020302020302020300A20202020312E3738363220202020322E3036323520202020302E303030302043202020302020302020302020302020302020302020302020302020302020302020302020300A20202020322E3530303620202020322E3437353020202020302E30303030204F202020302020302020302020302020302020302020302020302020302020302020302020300A2020312020322020312020302020202020200A2020322020332020312020302020202020200A2020332020342020312020302020202020200A2020342020352020312020302020202020200A2020352020362020312020302020202020200A2020362020312020312020302020202020200A2020332020372020312020302020202020200A2020352020382020312020302020202020200A2020382020392020312020302020202020200A2020392031302020312020302020202020200A2031302031312020312020302020202020200A2031312031322020312020302020202020200A2031312031332020312020302020202020200A2031322031342020312020302020202020200A2031342031352020312020302020202020200A4D2020454E44
Contributor: KURARAY CO., LTD.
InstType: EI
InstName: JEOL JMS-D-300
IoniMethod: _ENERGY 70 eV
IonPolarity: pos
Date: 2010-10-09 19:48:36+02:00
Num Peaks: 30
27 38 28 65 29 50 31 76 32 27 39 28 40 25 41 140 42 126 43 223 
44 18 45 40 55 360 56 30 57 72 67 25 69 77 70 96 71 55 73 13 
81 77 83 330 98 80 99 999 100 72 101 232 102 23 116 105 117 38 133 13 
