Name: 2-ETHYLBUTYRALDEHYDE
MW: 100
Formula: C6H12O
Synonym: MassBank: JP008931
Synonym: 2-ETHYLBUTYRALDEHYDE
Structure: 310A31380A322D455448594C4255545952414C4445485944452E6D6F6C0A20204368656D447261773031303331303132353832440A2020372020362020302020302020302020302020302020302020302020303939392056323030300A2020202D302E3335373220202020302E3431323520202020302E303030302043202020302020302020302020302020302020302020302020302020302020302020302020300A20202020302E333537322020202D302E3030303020202020302E303030302043202020302020302020302020302020302020302020302020302020302020302020302020300A20202020312E3037313720202020302E3431323520202020302E303030302043202020302020302020302020302020302020302020302020302020302020302020302020300A20202020312E3037313720202020312E3233373520202020302E303030302043202020302020302020302020302020302020302020302020302020302020302020302020300A2020202D312E303731372020202D302E3030303020202020302E30303030204F202020302020302020302020302020302020302020302020302020302020302020302020300A20202020302E333537322020202D302E3832353020202020302E303030302043202020302020302020302020302020302020302020302020302020302020302020302020300A20202020312E303731372020202D312E3233373520202020302E303030302043202020302020302020302020302020302020302020302020302020302020302020302020300A2020312020322020312020302020202020200A2020322020332020312020302020202020200A2020332020342020312020302020202020200A2020312020352020322020302020202020200A2020362020372020312020302020202020200A2020322020362020312020302020202020200A4D2020454E44
Contributor: YAMAMOTO M, DEP. CHEMISTRY, FAC. SCIENCE, NARA WOMEN'S UNIV.
InstType: EI
InstName: HITACHI RMU-6M
IoniMethod: _ENERGY 20 eV
IonPolarity: pos
Date: 2010-10-09 19:48:36+02:00
Num Peaks: 21
27 32 28 16 29 124 39 1 41 144 42 29 43 999 44 3 53 11 54 11 
55 89 56 2 57 102 58 29 69 11 70 2 71 250 72 367 73 17 82 3 
100 35 
