Name: 3-PHENYLINDOLE
MW: 193
Formula: C14H11N
Synonym: MassBank: JP004346
Synonym: 3-PHENYLINDOLE
Structure: 332D5048454E594C494E444F4C452E6D6F6C0A20204368656D447261773033323331303132333932440A2031352031372020302020302020302020302020302020302020302020303939392056323030300A20202020312E3334353520202020312E3138353420202020302E30303030204E202020302020302020302020302020302020302020302020302020302020302020302020300A20202020302E3532353020202020312E3237313620202020302E303030302043202020302020302020302020302020302020302020302020302020302020302020302020300A20202020302E3138393420202020302E3531373920202020302E303030302043202020302020302020302020302020302020302020302020302020302020302020302020300A20202020302E383032352020202D302E3033343120202020302E303030302043202020302020302020302020302020302020302020302020302020302020302020302020300A20202020302E383032352020202D302E3835393120202020302E303030302043202020302020302020302020302020302020302020302020302020302020302020302020300A20202020312E353137302020202D312E3237313620202020302E303030302043202020302020302020302020302020302020302020302020302020302020302020302020300A20202020322E323331352020202D302E3835393120202020302E303030302043202020302020302020302020302020302020302020302020302020302020302020302020300A20202020322E323331352020202D302E3033343120202020302E303030302043202020302020302020302020302020302020302020302020302020302020302020302020300A20202020312E3531373020202020302E3337383420202020302E303030302043202020302020302020302020302020302020302020302020302020302020302020302020300A2020202D302E3631373520202020302E3334363420202020302E303030302043202020302020302020302020302020302020302020302020302020302020302020302020300A2020202D312E3136393620202020302E3935393520202020302E303030302043202020302020302020302020302020302020302020302020302020302020302020302020300A2020202D312E3937363520202020302E3738383020202020302E303030302043202020302020302020302020302020302020302020302020302020302020302020302020300A2020202D322E3233313520202020302E3030333320202020302E303030302043202020302020302020302020302020302020302020302020302020302020302020302020300A2020202D312E363739342020202D302E3630393720202020302E303030302043202020302020302020302020302020302020302020302020302020302020302020302020300A2020202D302E383732352020202D302E3433383220202020302E303030302043202020302020302020302020302020302020302020302020302020302020302020302020300A2020312020322020312020302020202020200A2020322020332020322020302020202020200A2020332020342020312020302020202020200A2020342020352020312020302020202020200A2020352020362020322020302020202020200A2020362020372020312020302020202020200A2020372020382020322020302020202020200A2020382020392020312020302020202020200A2020312020392020312020302020202020200A2020342020392020322020302020202020200A2031302031312020312020302020202020200A2031312031322020322020302020202020200A2031322031332020312020302020202020200A2031332031342020322020302020202020200A2031342031352020312020302020202020200A2031302031352020322020302020202020200A2020332031302020312020302020202020200A4D2020454E44
Contributor: SASAKI S, TOYOHASHI UNIV. OF TECH.
InstType: EI
InstName: MX-1303
IoniMethod: _ENERGY 50 eV
IonPolarity: pos
Date: 2010-10-09 19:48:36+02:00
Num Peaks: 42
27 22 29 16 30 21 39 2 41 27 42 13 43 37 51 1 55 25 56 13 
57 19 63 2 67 11 69 15 70 11 71 1 77 18 81 11 82 17 83 2 
83.5 36 84 14 85.5 15 89 6 90 64 91 16 95.5 38 96 2 96.5 107 97 24 
115 15 139 2 163 23 164 26 165 155 166 3 190 40 191 64 192 78 193 999 
194 137 195 11 
