Name: MassBank: JP006637
MW: 305
Formula: C20H23N3
Synonym: MassBank: JP006637
Synonym: 2-METHYL-5-(2-(6-METHYL-3-PYRIDYL)ETHYL)-1,2,3,4-TETRAHYDRO-GAMMA-CARBOLINE
Structure: 322D4D455448594C2D352D28322D28362D4D455448594C2D332D5059524944594C29455448594C292D312C322C332C342D5445545241485944524F2D47414D4D412D434152424F4C494E452E6D6F6C0A20204368656D447261773031323231303037303832440A2032332032362020302020302020302020302020302020302020302020303939392056323030300A2020202D312E393830332020202D312E3835363320202020302E303030302043202020302020302020302020302020302020302020302020302020302020302020302020300A2020202D312E393830332020202D322E3638313220202020302E303030302043202020302020302020302020302020302020302020302020302020302020302020302020300A2020202D312E323635382020202D332E3039333820202020302E303030302043202020302020302020302020302020302020302020302020302020302020302020302020300A2020202D302E353531332020202D322E3638313220202020302E303030302043202020302020302020302020302020302020302020302020302020302020302020302020300A2020202D302E353531332020202D312E3835363320202020302E303030302043202020302020302020302020302020302020302020302020302020302020302020302020300A2020202D312E323635382020202D312E3434333820202020302E303030302043202020302020302020302020302020302020302020302020302020302020302020302020300A20202020302E323333332020202D322E3933363220202020302E30303030204E202020302020302020302020302020302020302020302020302020302020302020302020300A20202020302E373138322020202D322E3236383720202020302E303030302043202020302020302020302020302020302020302020302020302020302020302020302020300A20202020302E323333332020202D312E3630313320202020302E303030302043202020302020302020302020302020302020302020302020302020302020302020302020300A20202020312E353338372020202D322E3138323520202020302E303030302043202020302020302020302020302020302020302020302020302020302020302020302020300A20202020312E383734332020202D312E3432383820202020302E303030302043202020302020302020302020302020302020302020302020302020302020302020302020300A20202020312E333839332020202D302E3736313420202020302E30303030204E202020302020302020302020302020302020302020302020302020302020302020302020300A20202020302E353638392020202D302E3834373620202020302E303030302043202020302020302020302020302020302020302020302020302020302020302020302020300A20202020322E363934372020202D312E3334323620202020302E303030302043202020302020302020302020302020302020302020302020302020302020302020302020300A2020202D312E323635382020202D302E3631383820202020302E303030302043202020302020302020302020302020302020302020302020302020302020302020302020300A2020202D312E393830332020202D302E3230363220202020302E303030302043202020302020302020302020302020302020302020302020302020302020302020302020300A2020202D312E3938303320202020302E3631383820202020302E303030302043202020302020302020302020302020302020302020302020302020302020302020302020300A2020202D312E3236353820202020312E3033313320202020302E303030302043202020302020302020302020302020302020302020302020302020302020302020302020300A2020202D312E3236353820202020312E3835363320202020302E303030302043202020302020302020302020302020302020302020302020302020302020302020302020300A2020202D312E3938303320202020322E3236383720202020302E303030302043202020302020302020302020302020302020302020302020302020302020302020302020300A2020202D322E3639343720202020312E3835363320202020302E30303030204E202020302020302020302020302020302020302020302020302020302020302020302020300A2020202D322E3639343720202020312E3033313320202020302E303030302043202020302020302020302020302020302020302020302020302020302020302020302020300A2020202D312E3938303320202020332E3039333820202020302E303030302043202020302020302020302020302020302020302020302020302020302020302020302020300A2020312020322020322020302020202020200A2020322020332020312020302020202020200A2020332020342020322020302020202020200A2020342020352020312020302020202020200A2020352020362020322020302020202020200A2020362020312020312020302020202020200A2020342020372020312020302020202020200A2020372020382020312020302020202020200A2020382020392020322020302020202020200A2020392020352020312020302020202020200A2020382031302020312020302020202020200A2031302031312020312020302020202020200A2031312031322020312020302020202020200A2031322031332020312020302020202020200A2031332020392020312020302020202020200A2031312031342020312020302020202020200A2020362031352020312020302020202020200A2031352031362020312020302020202020200A2031362031372020312020302020202020200A2031372031382020322020302020202020200A2031382031392020312020302020202020200A2031392032302020322020302020202020200A2032302032312020312020302020202020200A2032312032322020322020302020202020200A2032322031372020312020302020202020200A2032302032332020312020302020202020200A4D2020454E44
Contributor: SASAKI S, TOYOHASHI UNIV. OF TECH.
InstType: EI
InstName: JEOL JMS-01-SG-2
IoniMethod: _ENERGY 75 eV
IonPolarity: pos
Date: 2010-10-09 19:48:36+02:00
Num Peaks: 29
42 10 43 82 44 21 57 2 58 10 77 25 91 20 92 2 105 32 106 43 
115 70 116 3 117 11 120 72 127 32 128 5 129 35 142 21 143 859 144 8 
155 33 156 999 157 92 185 2 199 76 262 185 263 60 304 36 305 512 
