Name: MassBank: JP002710
CAS: 51297-12-2
MW: 454
Formula: C31H50O2
Synonym: MassBank: JP002710
Synonym: STIGMASTA-5,24(28)-DIEN-3-OL ACETATE
Synonym: FUCOSTEROL ACETATE
Structure: 303534315F535449474D415354412D352C3234283238292D4449454E2D332D4F4C20414345544154452E6D6F6C0A20204368656D447261773038323031303035323632440A2033362033392020302020302020302020302020302020302020302020303939392056323030300A2020202D322E383238302020202D322E3436323020202020302E303030302043202020302020302020302020302020302020302020302020302020302020302020302020300A2020202D322E383238302020202D312E3633373020202020302E303030302043202020302020302020302020302020302020302020302020302020302020302020302020300A2020202D322E313133362020202D312E3232343520202020302E303030302043202020302020302020302020302020302020302020302020302020302020302020302020300A2020202D322E313133362020202D322E3837343520202020302E303030302043202020302020302020302020302020302020302020302020302020302020302020302020300A2020202D312E333939312020202D322E3436323020202020302E303030302043202020302020302020302020302020302020302020302020302020302020302020302020300A2020202D302E363834362020202D322E3837343520202020302E303030302043202020302020302020302020302020302020302020302020302020302020302020302020300A20202020302E303239392020202D322E3436323020202020302E303030302043202020302020302020302020302020302020302020302020302020302020302020302020300A20202020302E303239392020202D312E3633373020202020302E303030302043202020302020302020302020302020302020302020302020302020302020302020302020300A20202020302E373434332020202D312E3232343520202020302E303030302043202020302020302020302020302020302020302020302020302020302020302020302020300A20202020312E353238392020202D312E3437393420202020302E303030302043202020302020302020302020302020302020302020302020302020302020302020302020300A20202020322E303133392020202D302E3831323020202020302E303030302043202020302020302020302020302020302020302020302020302020302020302020302020300A20202020312E353238392020202D302E3134343520202020302E303030302043202020302020302020302020302020302020302020302020302020302020302020302020300A20202020312E3738333920202020302E3634303120202020302E303030302043202020302020302020302020302020302020302020302020302020302020302020302020300A20202020322E3538303820202020302E3835333620202020302E303030302043202020302020302020302020302020302020302020302020302020302020302020302020300A20202020322E3739343320202020312E3635303520202020302E303030302043202020302020302020302020302020302020302020302020302020302020302020302020300A20202020332E3539313220202020312E3836343020202020302E303030302043202020302020302020302020302020302020302020302020302020302020302020302020300A20202020332E3830343720202020322E3636303920202020302E303030302043202020302020302020302020302020302020302020302020302020302020302020302020300A20202020342E3630313620202020322E3837343520202020302E303030302043202020302020302020302020302020302020302020302020302020302020302020302020300A20202020342E3137343620202020312E3238303720202020302E303030302043202020302020302020302020302020302020302020302020302020302020302020302020300A20202020332E3936313020202020302E3438333820202020302E303030302043202020302020302020302020302020302020302020302020302020302020302020302020300A20202020342E3937313420202020312E3439343220202020302E303030302043202020302020302020302020302020302020302020302020302020302020302020302020300A20202020312E3230303520202020312E3232333520202020302E303030302043202020302020302020302020302020302020302020302020302020302020302020302020300A20202020302E373434332020202D302E3339393520202020302E303030302043202020302020302020302020302020302020302020302020302020302020302020302020300A20202020302E3734343320202020302E3432353520202020302E303030302043202020302020302020302020302020302020302020302020302020302020302020302020300A20202020302E3032393920202020302E3031333020202020302E303030302043202020302020302020302020302020302020302020302020302020302020302020302020300A2020202D302E363834362020202D302E3339393520202020302E303030302043202020302020302020302020302020302020302020302020302020302020302020302020300A2020202D302E363834362020202D312E3232343520202020302E303030302043202020302020302020302020302020302020302020302020302020302020302020302020300A2020202D312E333939312020202D312E3633373020202020302E303030302043202020302020302020302020302020302020302020302020302020302020302020302020300A2020202D312E333939312020202D302E3831323020202020302E303030302043202020302020302020302020302020302020302020302020302020302020302020302020300A2020202D342E323537302020202D322E3436323020202020302E303030302043202020302020302020302020302020302020302020302020302020302020302020302020300A2020202D342E393731342020202D322E3837343520202020302E303030302043202020302020302020302020302020302020302020302020302020302020302020302020300A2020202D342E323537302020202D312E3633373020202020302E30303030204F202020302020302020302020302020302020302020302020302020302020302020302020300A2020202D332E353432352020202D322E3837343520202020302E30303030204F202020302020302020302020302020302020302020302020302020302020302020302020300A2020202D302E363834362020202D322E3034393520202020302E303030302048202020302020302020302020302020302020302020302020302020302020302020302020300A20202020302E303239392020202D302E3831323020202020302E303030302048202020302020302020302020302020302020302020302020302020302020302020302020300A20202020302E373434332020202D322E3034393520202020302E303030302048202020302020302020302020302020302020302020302020302020302020302020302020300A2020312020322020312020302020202020200A2020322020332020312020302020202020200A2020312020342020312020302020202020200A2020342020352020312020302020202020200A2020352020362020322020302020202020200A2020362020372020312020302020202020200A2020372020382020312020302020202020200A2020382020392020312020302020202020200A2020392031302020312020302020202020200A2031302031312020312020302020202020200A2031322031312020312020312020202020200A2031322031332020312020302020202020200A2031332031342020312020302020202020200A2031342031352020312020302020202020200A2031352031362020312020302020202020200A2031362031372020322020302020202020200A2031372031382020312020302020202020200A2031362031392020312020302020202020200A2031392032302020312020302020202020200A2031392032312020312020302020202020200A2031332032322020312020362020202020200A2031322032332020312020302020202020200A2020392032332020312020302020202020200A2032332032342020312020312020202020200A2032332032352020312020302020202020200A2032352032362020312020302020202020200A2032362032372020312020302020202020200A2020382032372020312020302020202020200A2032372032382020312020302020202020200A2020332032382020312020302020202020200A2020352032382020312020302020202020200A2032382032392020312020312020202020200A2033302033312020312020302020202020200A2033302033322020322020302020202020200A2033302033332020312020302020202020200A2020312033332020312020312020202020200A2032372033342020312020362020202020200A2020382033352020312020312020202020200A2020392033362020312020362020202020200A4D2020454E44
Contributor: HAYASHI A, DEPT. OF CHEMISTRY, FAC. OF SCI. AND TECHNOLOGY, KINKI UNIV.
InstType: EI
InstName: SHIMADZU LKB-9000B
IoniMethod: _ENERGY 70 eV
IonPolarity: pos
Date: 2010-10-09 19:48:36+02:00
Num Peaks: 179
39 22 40 16 41 134 42 25 43 200 44 17 45 34 53 4 54 12 55 406 
56 34 57 5 60 22 65 23 66 11 67 15 68 37 69 257 70 29 71 3 
77 65 78 17 79 168 80 3 81 331 82 59 83 154 84 2 85 21 91 228 
92 60 93 23 94 47 95 234 96 32 97 15 98 23 103 25 104 26 105 29 
106 89 107 241 108 79 109 17 110 37 111 53 115 43 116 2 117 112 118 58 
119 155 120 15 121 195 122 54 123 84 124 2 125 16 127 11 128 45 129 8 
130 50 131 171 132 59 133 18 134 62 135 115 136 23 137 6 138 35 139 16 
141 47 142 4 143 176 144 77 145 337 146 13 147 233 148 70 149 67 151 2 
152 10 153 13 154 12 155 4 156 26 157 116 158 126 159 19 160 96 161 181 
162 47 163 5 164 15 165 29 167 18 169 3 170 27 171 73 172 42 173 11 
174 40 175 108 176 33 177 3 178 15 179 14 181 14 183 4 184 19 185 73 
186 34 187 6 188 46 189 76 190 23 191 2 193 17 195 18 197 79 198 4 
199 92 200 37 201 47 202 23 209 17 211 108 212 41 213 24 214 86 215 43 
216 15 217 2 225 33 226 28 227 84 228 13 229 50 230 11 231 11 239 4 
240 23 241 34 242 16 243 4 244 11 252 15 253 178 254 8 255 128 256 34 
257 16 266 1 267 31 268 19 269 20 271 3 272 16 273 95 274 29 281 27 
282 90 283 51 284 17 285 2 286 39 287 22 295 22 296 999 297 274 298 33 
352 21 379 12 380 40 392 24 393 10 394 33 395 112 396 22 203 34 
