Name: 5ALPHA-CHOLESTANE
MW: 372
Formula: C27H48
Synonym: MassBank: JP001887
Synonym: 5ALPHA-CHOLESTANE
Synonym: CHOLESTANE
Structure: 35414C5048412D43484F4C455354414E452E6D6F6C0A20204368656D447261773034323331303037353732440A2033312033342020302020302020302020302020302020302020302020303939392056323030300A2020202D322E373039342020202D322E3831303520202020302E303030302043202020302020302020302020302020302020302020302020302020302020302020302020300A2020202D322E373039342020202D312E3938353520202020302E303030302043202020302020302020302020302020302020302020302020302020302020302020302020300A2020202D312E393935302020202D312E3537333020202020302E303030302043202020302020302020302020302020302020302020302020302020302020302020302020300A2020202D312E393935302020202D332E3232333020202020302E303030302043202020302020302020302020302020302020302020302020302020302020302020302020300A2020202D312E323830352020202D322E3831303520202020302E303030302043202020302020302020302020302020302020302020302020302020302020302020302020300A2020202D302E353636302020202D332E3232333020202020302E303030302043202020302020302020302020302020302020302020302020302020302020302020302020300A20202020302E313438342020202D322E3831303520202020302E303030302043202020302020302020302020302020302020302020302020302020302020302020302020300A20202020302E313438342020202D312E3938353520202020302E303030302043202020302020302020302020302020302020302020302020302020302020302020302020300A20202020302E383632392020202D312E3537333020202020302E303030302043202020302020302020302020302020302020302020302020302020302020302020302020300A20202020312E363437352020202D312E3832373920202020302E303030302043202020302020302020302020302020302020302020302020302020302020302020302020300A20202020322E313332352020202D312E3136303520202020302E303030302043202020302020302020302020302020302020302020302020302020302020302020302020300A20202020312E363437352020202D302E3439333020202020302E303030302043202020302020302020302020302020302020302020302020302020302020302020302020300A20202020312E3930323520202020302E3239313620202020302E303030302043202020302020302020302020302020302020302020302020302020302020302020302020300A20202020312E3331393120202020302E3837353020202020302E303030302043202020302020302020302020302020302020302020302020302020302020302020302020300A20202020312E3533323620202020312E3637313820202020302E303030302043202020302020302020302020302020302020302020302020302020302020302020302020300A20202020302E3934393320202020322E3235353220202020302E303030302043202020302020302020302020302020302020302020302020302020302020302020302020300A20202020312E3136323820202020332E3035323120202020302E303030302043202020302020302020302020302020302020302020302020302020302020302020302020300A20202020302E3537393420202020332E3633353520202020302E303030302043202020302020302020302020302020302020302020302020302020302020302020302020300A20202020312E3935393720202020332E3236353620202020302E303030302043202020302020302020302020302020302020302020302020302020302020302020302020300A20202020322E3730393420202020302E3436333120202020302E303030302043202020302020302020302020302020302020302020302020302020302020302020302020300A20202020302E383632392020202D302E3734383020202020302E303030302043202020302020302020302020302020302020302020302020302020302020302020302020300A20202020302E3836323920202020302E3037373020202020302E303030302043202020302020302020302020302020302020302020302020302020302020302020302020300A20202020302E313438342020202D302E3333353520202020302E303030302043202020302020302020302020302020302020302020302020302020302020302020302020300A2020202D302E353636302020202D302E3734383020202020302E303030302043202020302020302020302020302020302020302020302020302020302020302020302020300A2020202D302E353636302020202D312E3537333020202020302E303030302043202020302020302020302020302020302020302020302020302020302020302020302020300A2020202D312E323830352020202D312E3938353520202020302E303030302043202020302020302020302020302020302020302020302020302020302020302020302020300A2020202D312E323830352020202D312E3136303520202020302E303030302043202020302020302020302020302020302020302020302020302020302020302020302020300A2020202D312E323830352020202D332E3633353520202020302E303030302048202020302020302020302020302020302020302020302020302020302020302020302020300A2020202D302E353636302020202D322E3339383020202020302E303030302048202020302020302020302020302020302020302020302020302020302020302020302020300A20202020302E313438342020202D312E3136303520202020302E303030302048202020302020302020302020302020302020302020302020302020302020302020302020300A20202020302E383632392020202D322E3339383020202020302E303030302048202020302020302020302020302020302020302020302020302020302020302020302020300A2020312020322020312020302020202020200A2020322020332020312020302020202020200A2020312020342020312020302020202020200A2020342020352020312020302020202020200A2020352020362020312020302020202020200A2020362020372020312020302020202020200A2020372020382020312020302020202020200A2020382020392020312020302020202020200A2020392031302020312020302020202020200A2031302031312020312020302020202020200A2031312031322020312020302020202020200A2031322031332020312020302020202020200A2031332031342020312020302020202020200A2031342031352020312020302020202020200A2031352031362020312020302020202020200A2031362031372020312020302020202020200A2031372031382020312020302020202020200A2031372031392020312020302020202020200A2031332032302020312020312020202020200A2031322032312020312020302020202020200A2020392032312020312020302020202020200A2032312032322020312020312020202020200A2032312032332020312020302020202020200A2032332032342020312020302020202020200A2032342032352020312020302020202020200A2020382032352020312020302020202020200A2032352032362020312020302020202020200A2020332032362020312020302020202020200A2020352032362020312020302020202020200A2032362032372020312020312020202020200A2020352032382020312020362020202020200A2032352032392020312020362020202020200A2020382033302020312020312020202020200A2020392033312020312020362020202020200A4D2020454E44
Contributor: SEYAMA Y, DEPT. OF PHYSIOL. CHEMISTRY AND NUTRITION, FAC. OF MEDICINE, UNIV. OF TOKYO
InstType: EI
InstName: SHIMADZU LKB-9000B
IoniMethod: _ENERGY 70 eV
IonPolarity: pos
Date: 2010-10-09 19:48:36+02:00
Num Peaks: 93
39 20 41 222 42 25 43 318 45 17 53 40 54 20 55 360 56 34 57 172 
65 13 66 13 67 290 68 92 69 193 70 19 71 75 77 41 78 12 79 159 
80 48 81 361 82 79 83 158 84 13 85 15 91 85 92 24 93 195 94 74 
95 400 96 55 97 100 105 64 106 28 107 173 108 183 109 412 110 55 111 43 
117 11 119 38 120 24 121 190 122 158 123 206 124 24 125 12 131 10 133 43 
134 23 135 157 136 70 137 76 147 69 148 119 149 492 150 182 151 88 152 18 
161 63 162 71 163 88 164 23 165 10 175 92 176 35 177 25 189 38 190 36 
191 13 203 134 204 33 205 12 216 17 217 999 218 552 219 173 220 22 231 15 
232 137 233 34 259 20 262 83 263 21 315 12 343 15 357 264 358 76 359 11 
372 320 373 89 374 13 
