Name: MassBank: JP009818
MW: 187
Formula: C10H21NO2
Synonym: MassBank: JP009818
Synonym: 2-AMINO-3,7-DIMETHYL-6-OCTENE-1,3-DIOL
Structure: 322D414D494E4F2D332C372D44494D455448594C2D362D4F4354454E452D312C332D44494F4C2E6D6F6C0A20204368656D447261773132323130393232313432440A2031332031322020302020302020302020302020302020302020302020303939392056323030300A2020202D312E3835363320202020312E3037313720202020302E303030302043202020302020302020302020302020302020302020302020302020302020302020302020300A2020202D312E3033313320202020312E3037313720202020302E303030302043202020302020302020302020302020302020302020302020302020302020302020302020300A2020202D302E3631383720202020302E3335373220202020302E303030302043202020302020302020302020302020302020302020302020302020302020302020302020300A2020202D302E323036322020202D302E3335373220202020302E303030302043202020302020302020302020302020302020302020302020302020302020302020302020300A20202020302E363138382020202D302E3335373220202020302E303030302043202020302020302020302020302020302020302020302020302020302020302020302020300A20202020312E303331332020202D312E3037313720202020302E303030302043202020302020302020302020302020302020302020302020302020302020302020302020300A20202020312E383536332020202D312E3037313720202020302E303030302043202020302020302020302020302020302020302020302020302020302020302020302020300A20202020322E323638382020202D312E3738363220202020302E303030302043202020302020302020302020302020302020302020302020302020302020302020302020300A2020202D322E3236383820202020302E3335373220202020302E30303030204F202020302020302020302020302020302020302020302020302020302020302020302020300A20202020302E3039353720202020302E3736393720202020302E30303030204F202020302020302020302020302020302020302020302020302020302020302020302020300A20202020322E323638382020202D302E3335373220202020302E303030302043202020302020302020302020302020302020302020302020302020302020302020302020300A2020202D312E333333322020202D302E3035353320202020302E303030302043202020302020302020302020302020302020302020302020302020302020302020302020300A2020202D302E3631383720202020312E3738363220202020302E30303030204E202020302020302020302020302020302020302020302020302020302020302020302020300A2020312020322020312020302020202020200A2020322020332020312020302020202020200A2020332020342020312020302020202020200A2020342020352020312020302020202020200A2020352020362020312020302020202020200A2020362020372020322020302020202020200A2020372020382020312020302020202020200A2020312020392020312020302020202020200A2020332031302020312020302020202020200A2020372031312020312020302020202020200A2020332031322020312020302020202020200A2020322031332020312020302020202020200A4D2020454E44
Contributor: KURARAY CO., LTD.
InstType: EI
InstName: JEOL JMS-D-300
IoniMethod: _ENERGY 70 eV
IonPolarity: pos
Date: 2010-10-09 19:48:36+02:00
Num Peaks: 59
27 47 28 16 29 37 39 7 40 18 41 370 42 30 43 999 44 28 53 55 
54 16 55 11 56 15 57 13 59 37 67 19 68 93 69 453 70 63 71 10 
72 14 73 14 77 18 79 5 80 13 81 115 82 258 83 6 84 50 85 51 
86 14 87 9 88 58 91 19 93 47 94 3 95 120 96 20 97 25 101 3 
103 123 105 11 107 19 108 1 109 441 110 81 111 17 112 1 119 52 121 27 
123 14 127 1 129 18 130 25 134 56 137 3 139 14 152 28 169 10 
