Name: CIS-9-HEXADECENOIC ACID METHYL ESTER
MW: 268
Formula: C17H32O2
Synonym: MassBank: JP002185
Synonym: CIS-9-HEXADECENOIC ACID METHYL ESTER
Structure: 4349532D392D48455841444543454E4F49432041434944204D455448594C2045535445522E6D6F6C0A20204368656D447261773039313331303130343332440A2031392031382020302020302020302020302020302020302020302020303939392056323030300A20202020342E3533373520202020302E3731343520202020302E303030302043202020302020302020302020302020302020302020302020302020302020302020302020300A20202020332E3731323520202020302E3731343520202020302E303030302043202020302020302020302020302020302020302020302020302020302020302020302020300A20202020332E333030302020202D302E3030303020202020302E303030302043202020302020302020302020302020302020302020302020302020302020302020302020300A20202020322E343735302020202D302E3030303020202020302E303030302043202020302020302020302020302020302020302020302020302020302020302020302020300A20202020322E303632352020202D302E3731343520202020302E303030302043202020302020302020302020302020302020302020302020302020302020302020302020300A20202020312E323337352020202D302E3731343520202020302E303030302043202020302020302020302020302020302020302020302020302020302020302020302020300A20202020302E383235302020202D312E3432383920202020302E303030302043202020302020302020302020302020302020302020302020302020302020302020302020300A20202020302E303030302020202D312E3432383920202020302E303030302043202020302020302020302020302020302020302020302020302020302020302020302020300A2020202D302E343132352020202D322E3134333420202020302E303030302043202020302020302020302020302020302020302020302020302020302020302020302020300A2020202D312E323337352020202D322E3134333420202020302E303030302043202020302020302020302020302020302020302020302020302020302020302020302020300A2020202D312E363530302020202D312E3432383920202020302E303030302043202020302020302020302020302020302020302020302020302020302020302020302020300A2020202D322E343735302020202D312E3432383920202020302E303030302043202020302020302020302020302020302020302020302020302020302020302020302020300A2020202D322E383837352020202D302E3731343520202020302E303030302043202020302020302020302020302020302020302020302020302020302020302020302020300A2020202D332E373132352020202D302E3731343520202020302E303030302043202020302020302020302020302020302020302020302020302020302020302020302020300A2020202D342E313235302020202D302E3030303020202020302E303030302043202020302020302020302020302020302020302020302020302020302020302020302020300A2020202D342E393530302020202D302E3030303020202020302E303030302043202020302020302020302020302020302020302020302020302020302020302020302020300A20202020342E393530302020202D302E3030303020202020302E30303030204F202020302020302020302020302020302020302020302020302020302020302020302020300A20202020342E3935303020202020312E3432383920202020302E30303030204F202020302020302020302020302020302020302020302020302020302020302020302020300A20202020342E3533373520202020322E3134333420202020302E303030302043202020302020302020302020302020302020302020302020302020302020302020302020300A2020312020322020312020302020202020200A2020322020332020312020302020202020200A2020332020342020312020302020202020200A2020342020352020312020302020202020200A2020352020362020312020302020202020200A2020362020372020312020302020202020200A2020372020382020312020302020202020200A2020382020392020312020302020202020200A2020392031302020322020302020202020200A2031302031312020312020302020202020200A2031312031322020312020302020202020200A2031322031332020312020302020202020200A2031332031342020312020302020202020200A2031342031352020312020302020202020200A2031352031362020312020302020202020200A2020312031372020322020302020202020200A2020312031382020312020302020202020200A2031382031392020312020302020202020200A4D2020454E44
Contributor: KOGA M, UNIV. OF OCCUPATIONAL AND ENVIRONMENTAL HEALTH
InstType: EI
InstName: JEOL JMS-01-SG
IoniMethod: _ENERGY 70 eV
IonPolarity: pos
Date: 2010-10-09 19:48:36+02:00
Num Peaks: 96
42 14 43 18 53 73 54 20 55 999 56 189 57 177 65 2 66 14 67 340 
68 204 69 62 70 142 71 59 73 26 74 44 75 75 77 22 78 12 79 9 
80 53 81 293 82 208 83 43 84 348 85 75 87 381 88 3 91 24 93 48 
94 61 95 19 96 385 97 355 98 338 99 4 100 16 101 67 102 14 105 1 
106 12 107 32 108 32 109 12 110 189 111 191 112 73 113 3 114 28 115 48 
119 42 120 2 121 44 122 30 123 132 124 10 125 85 126 30 127 34 128 4 
129 32 133 28 134 32 135 4 136 28 137 77 138 91 139 5 141 69 143 24 
147 18 148 3 149 24 150 18 151 51 152 15 153 40 154 12 155 20 161 2 
165 36 166 26 172 12 175 2 179 16 180 16 192 51 193 4 194 124 195 24 
208 16 218 2 236 159 237 116 238 18 268 38 
