Name: 3-METHYL-1-PENTYN-3-OL
MW: 98
Formula: C6H10O
Synonym: MassBank: JP005416
Synonym: 3-METHYL-1-PENTYN-3-OL
Structure: 310A31380A332D4D455448594C2D312D50454E54594E2D332D4F4C2E6D6F6C0A20204368656D447261773032323231303233323332440A2020372020362020302020302020302020302020302020302020302020303939392056323030300A20202020312E333333322020202D302E3736393720202020302E303030302043202020302020302020302020302020302020302020302020302020302020302020302020300A20202020302E363138372020202D302E3335373220202020302E303030302043202020302020302020302020302020302020302020302020302020302020302020302020300A2020202D302E3039353720202020302E3035353320202020302E303030302043202020302020302020302020302020302020302020302020302020302020302020302020300A2020202D302E353038322020202D302E3635393220202020302E303030302043202020302020302020302020302020302020302020302020302020302020302020302020300A2020202D312E333333322020202D302E3635393220202020302E303030302043202020302020302020302020302020302020302020302020302020302020302020302020300A2020202D302E3831303220202020302E3436373820202020302E30303030204F202020302020302020302020302020302020302020302020302020302020302020302020300A20202020302E3331363820202020302E3736393720202020302E303030302043202020302020302020302020302020302020302020302020302020302020302020302020300A2020312020322020332020302020202020200A2020322020332020312020302020202020200A2020332020342020312020302020202020200A2020342020352020312020302020202020200A2020332020362020312020302020202020200A2020332020372020312020302020202020200A4D2020454E44
Contributor: TAJIMA S, GUNMA COLLEGE OF TECHNOLOGY
InstType: EI
InstName: HITACHI RMU-7M
IoniMethod: _ENERGY 70 eV
IonPolarity: pos
Date: 2010-10-09 19:48:36+02:00
Num Peaks: 18
27 59 29 74 31 22 39 70 41 39 43 326 50 16 51 26 53 56 55 81 
68 22 69 999 70 47 79 27 81 38 83 234 84 15 98 16 
