Name: ALLYL 2-FURYL KETONE
MW: 136
Formula: C8H8O2
Synonym: MassBank: JP002494
Synonym: ALLYL 2-FURYL KETONE
Structure: 414C4C594C20322D465552594C204B45544F4E452E6D6F6C0A20204368656D447261773038303631303034303032440A2031302031302020302020302020302020302020302020302020302020303939392056323030300A20202020302E3036313620202020302E3238393820202020302E303030302043202020302020302020302020302020302020302020302020302020302020302020302020300A20202020302E3036313620202020312E3131343820202020302E30303030204F202020302020302020302020302020302020302020302020302020302020302020302020300A20202020302E383632332020202D302E3934333220202020302E30303030204F202020302020302020302020302020302020302020302020302020302020302020302020300A20202020302E373736312020202D302E3132323720202020302E303030302043202020302020302020302020302020302020302020302020302020302020302020302020300A20202020312E3532393820202020302E3231323820202020302E303030302043202020302020302020302020302020302020302020302020302020302020302020302020300A20202020322E303831382020202D302E3430303320202020302E303030302043202020302020302020302020302020302020302020302020302020302020302020302020300A20202020312E363639332020202D312E3131343820202020302E303030302043202020302020302020302020302020302020302020302020302020302020302020302020300A2020202D302E363532392020202D302E3132323720202020302E303030302043202020302020302020302020302020302020302020302020302020302020302020302020300A2020202D312E3336373320202020302E3238393820202020302E303030302043202020302020302020302020302020302020302020302020302020302020302020302020300A2020202D322E303831382020202D302E3132323720202020302E303030302043202020302020302020302020302020302020302020302020302020302020302020302020300A2020312020322020322020302020202020200A2020332020342020312020302020202020200A2020342020352020322020302020202020200A2020352020362020312020302020202020200A2020362020372020322020302020202020200A2020332020372020312020302020202020200A2020312020342020312020302020202020200A2020382020392020312020302020202020200A2020392031302020322020302020202020200A2020312020382020312020302020202020200A4D2020454E44
Contributor: MASS SPECTROSCOPY SOC. OF JAPAN (MSSJ)
InstType: EI
InstName: JEOL JMS-D-3000
IoniMethod: _ENERGY 70 eV
IonPolarity: pos
Date: 2010-10-09 19:48:36+02:00
Num Peaks: 8
69 32 79 36 95 999 96 55 107 70 108 278 136 374 137 38 
