Name: MassBank: JP004900
MW: 187
Formula: C8H21NSi2
Synonym: MassBank: JP004900
Synonym: 1,2,2,6,6-PENTAMETHYL-2,6-DISILAPIPERIDINE
Structure: 312C322C322C362C362D50454E54414D455448594C2D322C362D444953494C4150495045524944494E452E6D6F6C0A20204368656D447261773130323330393131343332440A2031312031312020302020302020302020302020302020302020302020303939392056323030300A20202020302E3330383220202020302E3237373920202020302E30303030204E202020302020302020302020302020302020302020302020302020302020302020302020300A20202020302E333038322020202D302E3534373120202020302E303030302053692020302020302020302020302020302020302020302020302020302020302020302020300A2020202D302E343036322020202D302E3935393620202020302E303030302043202020302020302020302020302020302020302020302020302020302020302020302020300A2020202D312E313230372020202D302E3534373120202020302E303030302043202020302020302020302020302020302020302020302020302020302020302020302020300A2020202D312E3132303720202020302E3237373920202020302E303030302043202020302020302020302020302020302020302020302020302020302020302020302020300A2020202D302E3430363220202020302E3639303420202020302E303030302053692020302020302020302020302020302020302020302020302020302020302020302020300A2020202D302E3933363520202020312E3332323420202020302E303030302043202020302020302020302020302020302020302020302020302020302020302020302020300A20202020302E3132343120202020312E3332323420202020302E303030302043202020302020302020302020302020302020302020302020302020302020302020302020300A20202020312E313230372020202D302E3430333920202020302E303030302043202020302020302020302020302020302020302020302020302020302020302020302020300A20202020302E353930342020202D312E3332323420202020302E303030302043202020302020302020302020302020302020302020302020302020302020302020302020300A20202020312E3032323720202020302E3639303420202020302E303030302043202020302020302020302020302020302020302020302020302020302020302020302020300A2020312020322020312020302020202020200A2020322020332020312020302020202020200A2020332020342020312020302020202020200A2020342020352020312020302020202020200A2020352020362020312020302020202020200A2020312020362020312020302020202020200A2020362020372020312020362020202020200A2020362020382020312020312020202020200A2020322020392020312020362020202020200A2020322031302020312020312020202020200A2020312031312020312020302020202020200A4D2020454E44
Contributor: MASS SPECTROSCOPY SOC. OF JAPAN (MSSJ)
InstType: EI
InstName: JEOL JMS-D-3000
IoniMethod: _ENERGY 70 eV
IonPolarity: pos
Date: 2010-10-09 19:48:36+02:00
Num Peaks: 29
42 27 43 103 45 89 51 33 58 33 59 246 64 292 65 44 71 30 72 42 
73 174 78 88 79 99 85 35 86 57 88 60 100 37 101 35 117 78 130 43 
144 399 145 66 146 43 159 38 172 999 173 179 174 84 187 136 188 27 
