Name: MassBank: JP001153
MW: 250
Formula: C15H22O3
Synonym: MassBank: JP001153
Synonym: METHYL 3,3-DIETHYL-4-OXOTRICYCLO(4.3.0.0(1,5))NONANE-5-CARBOXYLATE
Structure: 303231355F4D455448594C20332C332D4449455448594C2D342D4F584F5452494359434C4F28342E332E302E3028312C3529294E4F4E414E452D352D434152424F58594C4154452E6D6F6C0A20204368656D447261773039303631303135323732440A2031382032302020302020302020302020302020302020302020302020303939392056323030300A2020202D302E3138313820202020302E3433323520202020302E303030302043202020302020302020302020302020302020302020302020302020302020302020302020300A20202020302E3632353120202020302E3236313020202020302E303030302043202020302020302020302020302020302020302020302020302020302020302020302020300A20202020302E373131342020202D302E3535393520202020302E303030302043202020302020302020302020302020302020302020302020302020302020302020302020300A2020202D302E303432332020202D302E3839353120202020302E303030302043202020302020302020302020302020302020302020302020302020302020302020302020300A2020202D302E353934332020202D302E3238323020202020302E303030302043202020302020302020302020302020302020302020302020302020302020302020302020300A2020202D312E3030363820202020302E3433323520202020302E303030302043202020302020302020302020302020302020302020302020302020302020302020302020300A2020202D312E3236313820202020312E3231373120202020302E303030302043202020302020302020302020302020302020302020302020302020302020302020302020300A2020202D302E3539343320202020312E3730323020202020302E303030302043202020302020302020302020302020302020302020302020302020302020302020302020300A20202020302E3037333120202020312E3231373120202020302E303030302043202020302020302020302020302020302020302020302020302020302020302020302020300A2020202D312E323631382020202D302E3736363920202020302E303030302043202020302020302020302020302020302020302020302020302020302020302020302020300A2020202D312E313735352020202D312E3538373420202020302E30303030204F202020302020302020302020302020302020302020302020302020302020302020302020300A2020202D322E303135352020202D302E3433313320202020302E30303030204F202020302020302020302020302020302020302020302020302020302020302020302020300A2020202D302E323133382020202D312E3730323020202020302E30303030204F202020302020302020302020302020302020302020302020302020302020302020302020300A20202020312E353138332020202D302E3338383020202020302E303030302043202020302020302020302020302020302020302020302020302020302020302020302020300A20202020322E313031372020202D302E3937313320202020302E303030302043202020302020302020302020302020302020302020302020302020302020302020302020300A20202020302E393636332020202D312E3334343120202020302E303030302043202020302020302020302020302020302020302020302020302020302020302020302020300A20202020312E373733332020202D312E3531353720202020302E303030302043202020302020302020302020302020302020302020302020302020302020302020302020300A2020202D322E3130313720202020302E3338393120202020302E303030302043202020302020302020302020302020302020302020302020302020302020302020302020300A2020312020322020312020302020202020200A2020322020332020312020302020202020200A2020332020342020312020302020202020200A2020342020352020312020302020202020200A2020352020362020312020302020202020200A2020362020372020312020302020202020200A2020372020382020312020302020202020200A2020382020392020312020302020202020200A2020312020392020312020302020202020200A2020312020362020312020302020202020200A2020312020352020312020302020202020200A2031302031312020322020302020202020200A2031302031322020312020302020202020200A2020352031302020312020302020202020200A2020342031332020322020302020202020200A2031342031352020312020302020202020200A2020332031342020312020312020202020200A2031362031372020312020302020202020200A2020332031362020312020362020202020200A2031322031382020312020302020202020200A4D2020454E44
Contributor: NAKAYAMA M, MASS SPECTROSCOPY SOC. OF JAPAN (MSSJ)
InstType: EI
InstName: HITACHI RMU-6L
IoniMethod: _ENERGY 70 eV
IonPolarity: pos
Date: 2010-10-09 19:48:36+02:00
Num Peaks: 125
39 150 40 30 41 300 42 30 43 60 45 20 50 20 51 60 52 30 53 130 
54 20 55 280 56 20 57 30 59 80 63 20 64 20 65 90 66 50 67 100 
68 20 69 70 70 30 71 20 75 10 76 10 77 240 78 90 79 240 80 40 
81 80 82 10 83 330 84 30 85 10 89 10 90 10 91 250 92 60 93 230 
94 30 95 40 96 10 97 80 98 770 99 60 101 10 102 10 103 30 104 10 
105 110 106 60 107 100 108 40 109 30 110 20 111 20 115 30 116 10 117 40 
118 10 119 50 120 30 121 100 122 20 123 30 124 10 125 10 127 10 128 20 
129 10 131 30 132 10 133 90 134 100 135 30 136 10 137 30 138 60 139 20 
140 10 141 10 143 10 144 10 145 20 146 10 147 50 148 30 149 30 150 10 
151 30 152 90 153 20 159 10 160 10 161 150 162 120 163 50 164 10 165 30 
166 999 167 110 168 20 173 20 175 30 176 10 177 10 179 10 180 10 189 60 
190 100 191 60 192 10 193 50 194 10 204 10 206 10 208 20 217 10 218 60 
219 110 220 20 221 30 222 190 223 30 
