Name: ETHYL N-BUTYL ETHER
MW: 102
Formula: C6H14O
Synonym: MassBank: JP003908
Synonym: ETHYL N-BUTYL ETHER
Structure: 310A31380A455448594C204E2D425554594C2045544845522E6D6F6C0A20204368656D447261773038313131303138333232440A2020372020362020302020302020302020302020302020302020302020303939392056323030300A20202020302E373134352020202D302E3230363220202020302E30303030204F202020302020302020302020302020302020302020302020302020302020302020302020300A20202020302E3030303020202020302E3230363220202020302E303030302043202020302020302020302020302020302020302020302020302020302020302020302020300A2020202D302E373134352020202D302E3230363220202020302E303030302043202020302020302020302020302020302020302020302020302020302020302020302020300A2020202D312E3432383920202020302E3230363220202020302E303030302043202020302020302020302020302020302020302020302020302020302020302020302020300A2020202D322E313433342020202D302E3230363220202020302E303030302043202020302020302020302020302020302020302020302020302020302020302020302020300A20202020312E3432383920202020302E3230363220202020302E303030302043202020302020302020302020302020302020302020302020302020302020302020302020300A20202020322E313433342020202D302E3230363220202020302E303030302043202020302020302020302020302020302020302020302020302020302020302020302020300A2020322020332020312020302020202020200A2020332020342020312020302020202020200A2020342020352020312020302020202020200A2020312020322020312020302020202020200A2020362020372020312020302020202020200A2020312020362020312020302020202020200A4D2020454E44
Contributor: MASS SPECTROSCOPY SOC. OF JAPAN (MSSJ)
InstType: EI
InstName: Unknown
IoniMethod: EI
IonPolarity: pos
Date: 2010-10-09 19:48:36+02:00
Num Peaks: 29
14 34 15 106 19 30 26 7 27 380 28 120 29 565 30 4 31 807 32 26 
38 31 39 12 40 33 41 265 42 55 43 10 44 32 45 92 47 29 55 7 
56 198 57 250 58 31 59 999 60 40 73 33 78 28 87 3 102 29 
