Name: 1-TRIMETHYLSILOXYOCTANE
MW: 202
Formula: C11H26OSi
Synonym: MassBank: JP002246
Synonym: 1-TRIMETHYLSILOXYOCTANE
Structure: 312D5452494D455448594C53494C4F58594F4354414E452E6D6F6C0A20204368656D447261773131323230393232353432440A2031332031322020302020302020302020302020302020302020302020303939392056323030300A20202020312E373330392020202D312E3033313320202020302E303030302043202020302020302020302020302020302020302020302020302020302020302020302020300A20202020312E303136342020202D302E3631383720202020302E303030302043202020302020302020302020302020302020302020302020302020302020302020302020300A20202020302E333032302020202D312E3033313320202020302E303030302043202020302020302020302020302020302020302020302020302020302020302020302020300A2020202D302E343132352020202D302E3631383820202020302E303030302043202020302020302020302020302020302020302020302020302020302020302020302020300A2020202D312E313237302020202D312E3033313320202020302E303030302043202020302020302020302020302020302020302020302020302020302020302020302020300A2020202D312E383431342020202D302E3631383820202020302E303030302043202020302020302020302020302020302020302020302020302020302020302020302020300A2020202D322E353535392020202D312E3033313320202020302E303030302043202020302020302020302020302020302020302020302020302020302020302020302020300A2020202D332E323730342020202D302E3631383820202020302E303030302043202020302020302020302020302020302020302020302020302020302020302020302020300A20202020322E343435342020202D302E3631383720202020302E30303030204F202020302020302020302020302020302020302020302020302020302020302020302020300A20202020322E3434353420202020302E3230363320202020302E303030302053692020302020302020302020302020302020302020302020302020302020302020302020300A20202020312E3632303420202020302E3230363320202020302E303030302043202020302020302020302020302020302020302020302020302020302020302020302020300A20202020322E3434353420202020312E3033313320202020302E303030302043202020302020302020302020302020302020302020302020302020302020302020302020300A20202020332E3237303420202020302E3230363320202020302E303030302043202020302020302020302020302020302020302020302020302020302020302020302020300A2020312020322020312020302020202020200A2020322020332020312020302020202020200A2020332020342020312020302020202020200A2020342020352020312020302020202020200A2020352020362020312020302020202020200A2020362020372020312020302020202020200A2020372020382020312020302020202020200A2020392031302020312020302020202020200A2031302031312020312020302020202020200A2031302031322020312020302020202020200A2031302031332020312020302020202020200A2020312020392020312020302020202020200A4D2020454E44
Contributor: MASS SPECTROSCOPY SOC. OF JAPAN (MSSJ)
InstType: EI
InstName: JEOL JMS-D-3000
IoniMethod: _ENERGY 70 eV
IonPolarity: pos
Date: 2010-10-09 19:48:36+02:00
Num Peaks: 18
42 310 43 104 44 365 55 298 56 187 57 426 69 467 70 154 71 180 73 506 
75 954 84 93 85 99 89 216 103 299 187 999 188 169 202 9 
