Name: METHYL BUTYRATE
MW: 102
Formula: C5H10O2
Synonym: MassBank: JP006491
Synonym: METHYL BUTYRATE
Synonym: BUTANOIC ACID METHYL ESTER
Structure: 310A31380A4D455448594C2042555459524154452E6D6F6C0A20204368656D447261773039303631303032303132440A2020372020362020302020302020302020302020302020302020302020303939392056323030300A2020202D302E3230363320202020302E3030303020202020302E303030302043202020302020302020302020302020302020302020302020302020302020302020302020300A20202020302E323036332020202D302E3731343520202020302E303030302043202020302020302020302020302020302020302020302020302020302020302020302020300A20202020312E303331332020202D302E3731343520202020302E303030302043202020302020302020302020302020302020302020302020302020302020302020302020300A20202020312E3434333820202020302E3030303020202020302E303030302043202020302020302020302020302020302020302020302020302020302020302020302020300A20202020302E3230363320202020302E3731343520202020302E30303030204F202020302020302020302020302020302020302020302020302020302020302020302020300A2020202D312E3033313320202020302E3030303020202020302E30303030204F202020302020302020302020302020302020302020302020302020302020302020302020300A2020202D312E343433382020202D302E3731343520202020302E303030302043202020302020302020302020302020302020302020302020302020302020302020302020300A2020312020322020312020302020202020200A2020322020332020312020302020202020200A2020332020342020312020302020202020200A2020312020352020322020302020202020200A2020312020362020312020302020202020200A2020362020372020312020302020202020200A4D2020454E44
Contributor: HISAHIRO HAGIWARA, CHEMICAL RESEARCH INSTITUTE OF NON-AQUEOUSSOLUTIONS TOHOKU UNIV.
InstType: EI
InstName: HITACHI M-80B
IoniMethod: _ENERGY 70 eV
IonPolarity: pos
Date: 2010-10-09 19:48:36+02:00
Num Peaks: 27
14 13 15 249 26 46 27 352 28 69 29 120 30 14 31 50 33 11 37 10 
38 28 39 210 40 31 41 382 42 179 43 999 44 49 45 48 55 99 59 261 
69 14 71 593 72 27 74 776 75 28 87 200 102 15 
