Name: MassBank: JP002933
MW: 117
Formula: C6H15NO
Synonym: MassBank: JP002933
Synonym: N,N-DIETHYL ETHANOLAMINE
Structure: 310A32300A4E2C4E2D4449455448594C20455448414E4F4C414D494E452E6D6F6C0A20204368656D447261773038313231303032333332440A2020382020372020302020302020302020302020302020302020302020303939392056323030300A2020202D302E303030302020202D302E3335373220202020302E30303030204E202020302020302020302020302020302020302020302020302020302020302020302020300A2020202D302E3030303020202020312E3037313720202020302E303030302043202020302020302020302020302020302020302020302020302020302020302020302020300A20202020302E3431323520202020302E3335373220202020302E303030302043202020302020302020302020302020302020302020302020302020302020302020302020300A2020202D302E3832353020202020312E3037313720202020302E30303030204F202020302020302020302020302020302020302020302020302020302020302020302020300A20202020302E343132352020202D312E3037313720202020302E303030302043202020302020302020302020302020302020302020302020302020302020302020302020300A20202020312E323337352020202D312E3037313720202020302E303030302043202020302020302020302020302020302020302020302020302020302020302020302020300A2020202D302E383235302020202D302E3335373220202020302E303030302043202020302020302020302020302020302020302020302020302020302020302020302020300A2020202D312E323337352020202D312E3037313720202020302E303030302043202020302020302020302020302020302020302020302020302020302020302020302020300A2020322020332020312020302020202020200A2020322020342020312020302020202020200A2020312020332020312020302020202020200A2020352020362020312020302020202020200A2020312020352020312020302020202020200A2020372020382020312020302020202020200A2020312020372020312020302020202020200A4D2020454E44
Contributor: MASS SPECTROSCOPY SOC. OF JAPAN (MSSJ)
InstType: EI
InstName: Unknown
IoniMethod: EI
IonPolarity: pos
Date: 2010-10-09 19:48:36+02:00
Num Peaks: 21
15 33 27 90 28 108 29 133 30 381 31 26 39 21 41 24 42 98 43 31 
44 60 45 58 56 82 58 397 70 20 72 36 86 999 87 63 102 65 116 29 
117 42 
