Name: MassBank: JP008017
MW: 336
Formula: C21H36O3
Synonym: MassBank: JP008017
Synonym: (2XI,4AS,5S 8AS)-(+)-2,5BETA-DIMETHYL-8ABETA-METHOXYMETHOXYMETHYL-5ALPAH-(4-METHYL-3-PENTENYL)-3,4,4A,5,6,7,8,8A-OCTAHYDRONAPHTHALEN-1(2H)-ONE
Structure: 283258492C3441532C355320384153292D282B292D322C35424554412D44494D455448594C2D3841424554412D4D4554484F58594D4554484F58594D455448594C2D35414C5041482D28342D4D455448594C2D332D50454E54454E594C292D332C342C34412C352C362C372C382C38412D4F435441485944524F4E4150485448414C454E2D31283248292D4F4E452E6D6F6C0A20204368656D447261773130323030393232333532440A2032352032362020302020302020302020302020302020302020302020303939392056323030300A2020202D312E313236342020202D302E3334323420202020302E303030302043202020302020302020302020302020302020302020302020302020302020302020302020300A2020202D312E313236342020202D312E3136373420202020302E303030302043202020302020302020302020302020302020302020302020302020302020302020302020300A2020202D302E343132302020202D312E3537393920202020302E303030302043202020302020302020302020302020302020302020302020302020302020302020302020300A20202020302E333032352020202D312E3136373420202020302E303030302043202020302020302020302020302020302020302020302020302020302020302020302020300A20202020302E333032352020202D302E3334323420202020302E303030302043202020302020302020302020302020302020302020302020302020302020302020302020300A2020202D302E3431323020202020302E3037303120202020302E303030302043202020302020302020302020302020302020302020302020302020302020302020302020300A20202020312E303137302020202D312E3537393920202020302E303030302043202020302020302020302020302020302020302020302020302020302020302020302020300A20202020312E373331342020202D312E3136373420202020302E303030302043202020302020302020302020302020302020302020302020302020302020302020302020300A20202020312E373331342020202D302E3334323420202020302E303030302043202020302020302020302020302020302020302020302020302020302020302020302020300A20202020312E3031373020202020302E3037303120202020302E303030302043202020302020302020302020302020302020302020302020302020302020302020302020300A2020202D302E343132302020202D322E3430343920202020302E30303030204F202020302020302020302020302020302020302020302020302020302020302020302020300A20202020302E333032352020202D312E3939323420202020302E303030302043202020302020302020302020302020302020302020302020302020302020302020302020300A20202020302E3135393220202020302E3437303020202020302E303030302048202020302020302020302020302020302020302020302020302020302020302020302020300A20202020302E3630343520202020302E3738343520202020302E303030302043202020302020302020302020302020302020302020302020302020302020302020302020300A20202020312E3031373020202020312E3439393020202020302E303030302043202020302020302020302020302020302020302020302020302020302020302020302020300A20202020302E3630343520202020322E3231333520202020302E303030302043202020302020302020302020302020302020302020302020302020302020302020302020300A20202020312E3031373020202020322E3932383020202020302E303030302043202020302020302020302020302020302020302020302020302020302020302020302020300A20202020302E3630343520202020332E3634323420202020302E303030302043202020302020302020302020302020302020302020302020302020302020302020302020300A20202020312E3834323020202020322E3932383020202020302E303030302043202020302020302020302020302020302020302020302020302020302020302020302020300A20202020312E303137302020202D322E3430343920202020302E30303030204F202020302020302020302020302020302020302020302020302020302020302020302020300A20202020312E303137302020202D332E3232393920202020302E303030302043202020302020302020302020302020302020302020302020302020302020302020302020300A20202020302E333032352020202D332E3634323420202020302E30303030204F202020302020302020302020302020302020302020302020302020302020302020302020300A2020202D302E343133312020202D332E3232393920202020302E303030302043202020302020302020302020302020302020302020302020302020302020302020302020300A2020202D312E383432302020202D312E3537393920202020302E303030302043202020302020302020302020302020302020302020302020302020302020302020302020300A20202020312E3630303020202020302E3635343520202020302E303030302043202020302020302020302020302020302020302020302020302020302020302020302020300A2020312020322020312020302020202020200A2020322020332020312020302020202020200A2020332020342020312020302020202020200A2020342020352020312020302020202020200A2020352020362020312020302020202020200A2020362020312020312020302020202020200A2020342020372020312020302020202020200A2020372020382020312020302020202020200A2020382020392020312020302020202020200A2020392031302020312020302020202020200A2031302020352020312020302020202020200A2020332031312020322020302020202020200A2020342031322020312020312020202020200A2020352031332020312020362020202020200A2031302031342020312020362020202020200A2031342031352020312020302020202020200A2031352031362020312020302020202020200A2031362031372020322020302020202020200A2031372031382020312020302020202020200A2031372031392020312020302020202020200A2031322032302020312020302020202020200A2032302032312020312020302020202020200A2032312032322020312020302020202020200A2032322032332020312020302020202020200A2020322032342020312020302020202020200A2031302032352020312020312020202020200A4D202053545920203120202031205355500A4D2020534C4220203120202031202020310A4D202053414C20202031202031202032330A4D202053424C20202031202031202032340A4D2020534D5420202031204D650A4D2020534256202020312032342020202D362E3737383920202020372E303139360A4D202053545920203120202032205355500A4D2020534C4220203120202032202020320A4D202053414C20202032202031202032340A4D202053424C20202032202031202032350A4D2020534D5420202032204D650A4D2020534256202020322032352020202D362E3737383720202020362E313934360A4D202053545920203120202033205355500A4D2020534C4220203120202033202020330A4D202053414C20202033202031202032350A4D202053424C20202033202031202032360A4D2020534D5420202033204D650A4D2020534256202020332032362020202D352E3438303220202020372E313931350A4D2020454E44
Contributor: HISAHIRO HAGIWARA, CHEMICAL RESEARCH INSTITUTE OF NON-AQUEOUSSOLUTIONS TOHOKU UNIV.
InstType: EI
InstName: JEOL JMS-DX-300
IoniMethod: _ENERGY 70 eV
IonPolarity: pos
Date: 2010-10-09 19:48:36+02:00
Num Peaks: 50
41 637 43 308 45 893 55 549 56 215 67 453 68 303 69 876 79 394 80 240 
81 672 82 529 83 438 91 263 93 620 94 390 95 656 96 488 97 295 105 291 
106 205 107 581 108 397 109 596 119 267 120 204 121 475 122 381 123 355 133 267 
135 469 136 391 137 453 147 239 149 479 151 21 161 284 163 350 176 913 178 614 
179 461 191 424 193 388 209 856 222 999 254 273 261 409 291 471 306 391 336 229 
