Name: (Z)-9-HEXADECENAL
MW: 238
Formula: C16H30O
Synonym: MassBank: JP008136
Synonym: (Z)-9-HEXADECENAL
Structure: 285A292D392D48455841444543454E414C2E6D6F6C0A20204368656D447261773130323230393231333732440A2031392031382020302020302020302020302020302020302020302020303939392056323030300A20202020302E343132352020202D312E3432383920202020302E303030302043202020302020302020302020302020302020302020302020302020302020302020302020300A20202020312E323337352020202D312E3432383920202020302E303030302043202020302020302020302020302020302020302020302020302020302020302020302020300A20202020302E303030302020202D322E3134333420202020302E303030302048202020302020302020302020302020302020302020302020302020302020302020302020300A20202020312E363530302020202D302E3731343520202020302E303030302043202020302020302020302020302020302020302020302020302020302020302020302020300A20202020312E363530302020202D322E3134333420202020302E303030302048202020302020302020302020302020302020302020302020302020302020302020302020300A20202020302E303030302020202D302E3731343520202020302E303030302043202020302020302020302020302020302020302020302020302020302020302020302020300A2020202D302E383235302020202D302E3731343520202020302E303030302043202020302020302020302020302020302020302020302020302020302020302020302020300A2020202D312E3233373520202020302E3030303020202020302E303030302043202020302020302020302020302020302020302020302020302020302020302020302020300A2020202D322E3036323520202020302E3030303020202020302E303030302043202020302020302020302020302020302020302020302020302020302020302020302020300A2020202D322E3437353020202020302E3731343520202020302E303030302043202020302020302020302020302020302020302020302020302020302020302020302020300A2020202D332E3330303020202020302E3731343520202020302E303030302043202020302020302020302020302020302020302020302020302020302020302020302020300A2020202D332E3731323520202020312E3432383920202020302E303030302043202020302020302020302020302020302020302020302020302020302020302020302020300A2020202D342E3533373520202020312E3432383920202020302E303030302043202020302020302020302020302020302020302020302020302020302020302020302020300A2020202D342E3935303020202020322E3134333420202020302E30303030204F202020302020302020302020302020302020302020302020302020302020302020302020300A20202020322E343735302020202D302E3731343520202020302E303030302043202020302020302020302020302020302020302020302020302020302020302020302020300A20202020322E3838373520202020302E3030303020202020302E303030302043202020302020302020302020302020302020302020302020302020302020302020302020300A20202020332E3731323520202020302E3030303020202020302E303030302043202020302020302020302020302020302020302020302020302020302020302020302020300A20202020342E3132353020202020302E3731343520202020302E303030302043202020302020302020302020302020302020302020302020302020302020302020302020300A20202020342E3935303020202020302E3731343520202020302E303030302043202020302020302020302020302020302020302020302020302020302020302020302020300A2020312020322020322020302020202020200A2020312020332020312020302020202020200A2020322020342020312020302020202020200A2020322020352020312020302020202020200A2020312020362020312020302020202020200A2020372020362020312020302020202020200A2020382020372020312020302020202020200A2020392020382020312020302020202020200A2031302020392020312020302020202020200A2031312031302020312020302020202020200A2031322031312020312020302020202020200A2031332031322020312020302020202020200A2031342031332020322020302020202020200A2031352020342020312020302020202020200A2031362031352020312020302020202020200A2031372031362020312020302020202020200A2031382031372020312020302020202020200A2031392031382020312020302020202020200A4D2020454E44
Contributor: YAMAOKA R, KYOTO INSTITUTE OF TECHNOLOGY
InstType: EI
InstName: HITACHI M-80B
IoniMethod: _ENERGY 70 eV
IonPolarity: pos
Date: 2010-10-09 19:48:36+02:00
Num Peaks: 56
41 999 42 123 43 548 44 82 45 20 51 15 53 110 54 303 55 950 56 291 
57 152 58 22 59 11 65 32 66 27 67 407 68 195 69 533 70 270 71 86 
72 10 77 23 79 109 80 92 81 304 82 207 83 258 84 125 85 43 86 10 
91 18 93 60 94 46 95 173 96 151 97 154 98 227 99 17 107 47 108 29 
109 77 110 72 111 96 112 46 121 54 122 21 123 30 124 16 125 17 135 44 
136 12 137 14 138 18 149 15 220 17 238 11 
