Name: 2-METHYLIMIDAZOLINE
CAS: 534-26-9
MW: 84
Formula: C4H8N2
Synonym: MassBank: JP008289
Synonym: 2-METHYLIMIDAZOLINE
Structure: 310A31370A322D4D455448594C494D4944415A4F4C494E452E6D6F6C0A20204368656D447261773032313831303134313032440A2020362020362020302020302020302020302020302020302020302020303939392056323030300A2020202D302E3232323320202020302E3030303020202020302E303030302043202020302020302020302020302020302020302020302020302020302020302020302020300A20202020302E3236323720202020302E3636373420202020302E30303030204E202020302020302020302020302020302020302020302020302020302020302020302020300A20202020312E3034373320202020302E3431323520202020302E303030302043202020302020302020302020302020302020302020302020302020302020302020302020300A20202020312E303437332020202D302E3431323520202020302E303030302043202020302020302020302020302020302020302020302020302020302020302020302020300A20202020302E323632372020202D302E3636373420202020302E30303030204E202020302020302020302020302020302020302020302020302020302020302020302020300A2020202D312E3034373320202020302E3030303020202020302E303030302043202020302020302020302020302020302020302020302020302020302020302020302020300A2020312020322020322020302020202020200A2020322020332020312020302020202020200A2020332020342020312020302020202020200A2020342020352020312020302020202020200A2020312020352020312020302020202020200A2020312020362020312020302020202020200A4D2020454E44
Contributor: UBE SCIENTIFIC ANALYSIS LABORATORY
InstType: EI
InstName: HITACHI M-60
IoniMethod: _ENERGY 70 eV
IonPolarity: pos
Date: 2010-10-09 19:48:36+02:00
Num Peaks: 22
15 108 27 22 28 65 29 23 30 999 31 128 41 23 42 104 43 676 44 197 
45 52 54 20 55 80 58 39 59 32 60 33 72 7 73 254 74 8 83 22 
84 33 85 15 
