Name: MassBank: JP008170
CAS: 594-20-7
MW: 111
Formula: C3H6Cl2
Synonym: MassBank: JP008170
Synonym: 2,2-DICHLOROPROPANE
Structure: 310A31340A322C322D444943484C4F524F50524F50414E452E6D6F6C0A20204368656D447261773132323030393036333332440A2020352020342020302020302020302020302020302020302020302020303939392056323030300A20202020302E3832353020202020302E3030303020202020302E303030302043202020302020302020302020302020302020302020302020302020302020302020302020300A20202020302E3030303020202020302E3030303020202020302E303030302043202020302020302020302020302020302020302020302020302020302020302020302020300A2020202D302E3832353020202020302E3030303020202020302E303030302043202020302020302020302020302020302020302020302020302020302020302020302020300A20202020302E3030303020202020302E3832353020202020302E3030303020436C2020302020302020302020302020302020302020302020302020302020302020302020300A20202020302E303030302020202D302E3832353020202020302E3030303020436C2020302020302020302020302020302020302020302020302020302020302020302020300A2020312020322020312020302020202020200A2020322020332020312020302020202020200A2020322020342020312020312020202020200A2020322020352020312020312020202020200A4D2020454E44
Contributor: NARA WOMEN'S UNIVERSITY
InstType: EI
InstName: HITACHI M-80
IoniMethod: _ENERGY 70 eV
IonPolarity: pos
Date: 2010-10-09 19:48:36+02:00
Num Peaks: 27
15 25 26 16 27 29 29 28 31 61 32 63 35 19 36 15 37 28 38 40 
39 146 40 21 41 425 42 18 49 29 61 95 62 19 63 44 76 29 77 999 
78 44 79 342 80 12 97 188 98 9 99 125 101 21 
