Name: MassBank: JP000685
MW: 224
Formula: C16H16O
Synonym: MassBank: JP000685
Synonym: 2-PHENYL-1,2,3,4-TETRAHYDRO-1-NAPHTHOL (2D)
Synonym: 1-HYDROXY-2-PHENYLTETRALIN (2D)
Structure: 322D5048454E594C2D312C322C332C342D5445545241485944524F2D312D4E41504854484F4C20283244292E6D6F6C0A20204368656D447261773131313930393134333232440A2031382032302020302020302020302020302020302020302020302020303939392056323030300A20202020302E3530343220202020302E3431323520202020302E303030302043202020302020302020302020302020302020302020302020302020302020302020302020300A2020202D302E323130322020202D302E3030303020202020302E303030302043202020302020302020302020302020302020302020302020302020302020302020302020300A2020202D302E323130322020202D302E3832353020202020302E303030302043202020302020302020302020302020302020302020302020302020302020302020302020300A20202020302E353034322020202D312E3233373520202020302E303030302043202020302020302020302020302020302020302020302020302020302020302020302020300A20202020312E323138372020202D302E3832353020202020302E303030302043202020302020302020302020302020302020302020302020302020302020302020302020300A20202020312E393333322020202D312E3233373520202020302E303030302043202020302020302020302020302020302020302020302020302020302020302020302020300A20202020322E363437362020202D302E3832353020202020302E303030302043202020302020302020302020302020302020302020302020302020302020302020302020300A20202020322E3634373620202020302E3030303020202020302E303030302043202020302020302020302020302020302020302020302020302020302020302020302020300A20202020312E3933333220202020302E3431323520202020302E303030302043202020302020302020302020302020302020302020302020302020302020302020302020300A20202020312E323138372020202D302E3030303020202020302E303030302043202020302020302020302020302020302020302020302020302020302020302020302020300A20202020302E3530343220202020312E3233373520202020302E30303030204F202020302020302020302020302020302020302020302020302020302020302020302020300A2020202D312E303232372020202D302E3134333320202020302E303030302043202020302020302020302020302020302020302020302020302020302020302020302020300A2020202D312E3535333020202020302E3438383720202020302E303030302043202020302020302020302020302020302020302020302020302020302020302020302020300A2020202D322E3336353520202020302E3334353520202020302E303030302043202020302020302020302020302020302020302020302020302020302020302020302020300A2020202D322E363437362020202D302E3432393820202020302E303030302043202020302020302020302020302020302020302020302020302020302020302020302020300A2020202D322E313137332020202D312E3036313820202020302E303030302043202020302020302020302020302020302020302020302020302020302020302020302020300A2020202D312E333034392020202D302E3931383520202020302E303030302043202020302020302020302020302020302020302020302020302020302020302020302020300A2020202D302E3439323420202020302E3737353220202020302E303030302048202020312020302020302020302020302020302020302020302020302020302020302020300A2020312020322020312020302020202020200A2020322020332020312020302020202020200A2020332020342020312020302020202020200A2020342020352020312020302020202020200A2020352020362020312020302020202020200A2020362020372020322020302020202020200A2020372020382020312020302020202020200A2020382020392020322020302020202020200A2020392031302020312020302020202020200A2020312031302020312020302020202020200A2020352031302020322020302020202020200A2020312031312020312020302020202020200A2031322031332020312020302020202020200A2031332031342020322020302020202020200A2031342031352020312020302020202020200A2031352031362020322020302020202020200A2031362031372020312020302020202020200A2031322031372020322020302020202020200A2020322031322020312020302020202020200A2020322031382020312020302020202020200A4D202049534F20203120203138202020320A4D2020454E44
Contributor: TAKATORI M, DEPT. OF CHEMISTRY, FAC. OF EDUC., FUKUSHIMA UNIV.
InstType: EI
InstName: JEOL JMS-06-H
IoniMethod: _ENERGY 75 eV
IonPolarity: pos
Date: 2010-10-09 19:48:36+02:00
Num Peaks: 24
51 37 63 17 65 64 77 8 78 40 79 14 89 21 90 1 91 411 92 95 
103 33 104 7 105 70 115 39 119 555 120 999 121 157 128 30 133 73 146 2 
206 284 207 81 224 165 225 68 
