Name: ISOPENTYL 2-FUROATE
MW: 182
Formula: C10H14O3
Synonym: MassBank: JP007749
Synonym: ISOPENTYL 2-FUROATE
Structure: 49534F50454E54594C20322D4655524F4154452E6D6F6C0A20204368656D447261773038313131303231323532440A2031332031332020302020302020302020302020302020302020302020303939392056323030300A20202020312E353736382020202D302E3934333220202020302E30303030204F202020302020302020302020302020302020302020302020302020302020302020302020300A20202020312E343930362020202D302E3132323720202020302E303030302043202020302020302020302020302020302020302020302020302020302020302020302020300A20202020322E3234343220202020302E3231323820202020302E303030302043202020302020302020302020302020302020302020302020302020302020302020302020300A20202020322E373936332020202D302E3430303320202020302E303030302043202020302020302020302020302020302020302020302020302020302020302020302020300A20202020322E333833382020202D312E3131343820202020302E303030302043202020302020302020302020302020302020302020302020302020302020302020302020300A20202020302E3737363120202020302E3238393820202020302E303030302043202020302020302020302020302020302020302020302020302020302020302020302020300A20202020302E3737363120202020312E3131343820202020302E30303030204F202020302020302020302020302020302020302020302020302020302020302020302020300A20202020302E303631362020202D302E3132323720202020302E30303030204F202020302020302020302020302020302020302020302020302020302020302020302020300A2020202D302E3635323920202020302E3238393820202020302E303030302043202020302020302020302020302020302020302020302020302020302020302020302020300A2020202D312E333637332020202D302E3132323720202020302E303030302043202020302020302020302020302020302020302020302020302020302020302020302020300A2020202D322E3038313820202020302E3238393820202020302E303030302043202020302020302020302020302020302020302020302020302020302020302020302020300A2020202D322E373936332020202D302E3132323720202020302E303030302043202020302020302020302020302020302020302020302020302020302020302020302020300A2020202D322E3038313820202020312E3131343820202020302E303030302043202020302020302020302020302020302020302020302020302020302020302020302020300A2020312020322020312020302020202020200A2020322020332020322020302020202020200A2020332020342020312020302020202020200A2020342020352020322020302020202020200A2020312020352020312020302020202020200A2020322020362020312020302020202020200A2020362020372020322020302020202020200A2020362020382020312020302020202020200A2020392031302020312020302020202020200A2031302031312020312020302020202020200A2031312031322020312020302020202020200A2031312031332020312020302020202020200A2020382020392020312020302020202020200A4D2020454E44
Contributor: HASHIMOTO K, KYOTO COLLEGE OF PHARMACY
InstType: EI
InstName: HITACHI M-80
IoniMethod: _ENERGY 20 eV
IonPolarity: pos
Date: 2010-10-09 19:48:36+02:00
Num Peaks: 18
29 68 39 124 41 132 42 312 43 416 55 684 56 32 57 21 68 76 69 128 
70 999 71 117 84 22 95 684 96 95 112 442 139 20 182 10 
