Name: MassBank: JP009955
MW: 302
Formula: C19H26O3
Synonym: MassBank: JP009955
Synonym: 6-HYDROXY-4-ANDROSTENE-3,17-DIONE
Structure: 362D485944524F58592D342D414E44524F5354454E452D332C31372D44494F4E452E6D6F6C0A20204368656D447261773035313731303138343532440A2032352032382020302020302020302020302020302020302020302020303939392056323030300A2020202D322E303633372020202D302E3933323320202020302E303030302043202020302020302020302020302020302020302020302020302020302020302020302020300A2020202D322E303633372020202D302E3130373320202020302E303030302043202020302020302020302020302020302020302020302020302020302020302020302020300A2020202D312E3334393220202020302E3330353220202020302E303030302043202020302020302020302020302020302020302020302020302020302020302020302020300A2020202D312E333439322020202D312E3334343820202020302E303030302043202020302020302020302020302020302020302020302020302020302020302020302020300A2020202D302E363334382020202D302E3933323320202020302E303030302043202020302020302020302020302020302020302020302020302020302020302020302020300A20202020302E303739372020202D312E3334343820202020302E303030302043202020302020302020302020302020302020302020302020302020302020302020302020300A20202020302E373934322020202D302E3933323320202020302E303030302043202020302020302020302020302020302020302020302020302020302020302020302020300A20202020302E373934322020202D302E3130373320202020302E303030302043202020302020302020302020302020302020302020302020302020302020302020302020300A20202020312E3530383620202020302E3330353220202020302E303030302043202020302020302020302020302020302020302020302020302020302020302020302020300A20202020322E3239333320202020302E3035303320202020302E303030302043202020302020302020302020302020302020302020302020302020302020302020302020300A20202020322E3737383220202020302E3731373720202020302E303030302043202020302020302020302020302020302020302020302020302020302020302020302020300A20202020322E3239333320202020312E3338353220202020302E303030302043202020302020302020302020302020302020302020302020302020302020302020302020300A20202020312E3530383620202020312E3133303220202020302E303030302043202020302020302020302020302020302020302020302020302020302020302020302020300A20202020312E3530383620202020312E3935353220202020302E303030302043202020302020302020302020302020302020302020302020302020302020302020302020300A20202020302E3739343220202020312E3534323720202020302E303030302043202020302020302020302020302020302020302020302020302020302020302020302020300A20202020302E3037393720202020312E3133303220202020302E303030302043202020302020302020302020302020302020302020302020302020302020302020302020300A20202020302E3037393720202020302E3330353220202020302E303030302043202020302020302020302020302020302020302020302020302020302020302020302020300A2020202D302E363334382020202D302E3130373320202020302E303030302043202020302020302020302020302020302020302020302020302020302020302020302020300A2020202D302E3633343820202020302E3731373720202020302E303030302043202020302020302020302020302020302020302020302020302020302020302020302020300A2020202D322E373738322020202D312E3334343820202020302E30303030204F202020302020302020302020302020302020302020302020302020302020302020302020300A20202020322E3534383220202020322E3136393820202020302E30303030204F202020302020302020302020302020302020302020302020302020302020302020302020300A20202020302E303739372020202D322E3136393820202020302E30303030204F202020302020302020302020302020302020302020302020302020302020302020302020300A20202020302E303739372020202D302E3531393820202020302E303030302048202020302020302020302020302020302020302020302020302020302020302020302020300A20202020312E353038362020202D302E3531393820202020302E303030302048202020302020302020302020302020302020302020302020302020302020302020302020300A20202020302E3638333620202020302E3330353220202020302E303030302048202020302020302020302020302020302020302020302020302020302020302020302020300A2020312020322020312020302020202020200A2020322020332020312020302020202020200A2020312020342020312020302020202020200A2020342020352020322020302020202020200A2020352020362020312020302020202020200A2020362020372020312020302020202020200A2020372020382020312020302020202020200A2020382020392020312020302020202020200A2020392031302020312020302020202020200A2031302031312020312020302020202020200A2031312031322020312020302020202020200A2031322031332020312020302020202020200A2020392031332020312020302020202020200A2031332031342020312020312020202020200A2031332031352020312020302020202020200A2031352031362020312020302020202020200A2031362031372020312020302020202020200A2020382031372020312020302020202020200A2031372031382020312020302020202020200A2020332031382020312020302020202020200A2020352031382020312020302020202020200A2031382031392020312020312020202020200A2020312032302020322020302020202020200A2031322032312020322020302020202020200A2020362032322020312020302020202020200A2031372032332020312020362020202020200A2020382032342020312020312020202020200A2020392032352020312020362020202020200A4D2020454E44
Contributor: KURARAY CO., LTD.
InstType: EI
InstName: JEOL JMS-D-300
IoniMethod: _ENERGY 70 eV
IonPolarity: pos
Date: 2010-10-09 19:48:36+02:00
Num Peaks: 195
27 94 28 30 29 123 31 1 39 122 40 23 41 364 42 4 43 188 51 33 
52 27 53 19 54 42 55 375 56 20 57 4 65 92 66 50 67 292 68 6 
69 66 71 17 77 205 78 5 79 300 80 63 81 266 82 7 83 53 84 6 
85 13 91 28 92 59 93 267 94 75 95 21 96 55 97 153 98 31 103 3 
104 13 105 188 106 59 107 21 108 156 109 242 110 214 111 9 112 31 113 6 
114 13 115 5 116 16 117 61 118 23 119 10 120 44 121 127 122 64 123 16 
124 78 125 30 127 8 128 3 129 47 130 16 131 108 132 5 133 78 134 59 
135 94 136 15 137 80 138 130 139 192 140 8 141 23 142 14 143 58 144 3 
145 92 146 47 147 141 148 6 149 189 150 128 151 38 152 23 153 59 154 6 
155 16 156 1 157 50 158 28 159 55 160 4 161 56 162 31 163 41 164 2 
165 17 166 13 167 14 168 1 169 20 170 14 171 63 172 3 173 63 174 25 
175 50 176 2 177 28 178 16 179 13 180 1 181 16 182 6 183 25 184 3 
185 95 186 47 187 44 188 3 189 45 190 23 191 27 192 1 193 13 194 3 
195 19 196 1 197 20 198 48 199 63 200 2 201 31 202 28 203 55 204 3 
205 16 206 11 207 5 208 0 209 19 210 13 211 16 213 5 214 31 215 28 
216 17 217 3 218 13 219 13 220 30 223 1 225 19 226 14 227 48 228 3 
229 20 230 13 231 64 232 6 233 817 234 139 235 16 237 0 238 5 239 5 
240 17 241 4 242 45 243 23 245 33 246 6 247 17 251 13 256 17 258 2 
259 59 260 13 269 47 273 16 274 47 284 63 285 16 286 1 287 259 288 47 
300 14 301 1 302 999 303 247 304 42 
