Name: ISOCROTYLHYDRAZONE ACETALDEHYDE
MW: 112
Formula: C6H12N2
Synonym: MassBank: JP000861
Synonym: ISOCROTYLHYDRAZONE ACETALDEHYDE
Synonym: ACETALDEHYDE (1-METHYL-2-PROPENYL)HYDRAZONE
Structure: 310A32300A49534F43524F54594C48594452415A4F4E452041434554414C4445485944452E6D6F6C0A20204368656D447261773036323431303031353732440A2020382020372020302020302020302020302020302020302020302020303939392056323030300A20202020312E303331332020202D312E3037313720202020302E303030302043202020302020302020302020302020302020302020302020302020302020302020302020300A20202020312E383536332020202D312E3037313720202020302E303030302043202020302020302020302020302020302020302020302020302020302020302020302020300A20202020302E363138382020202D302E3335373220202020302E30303030204E202020302020302020302020302020302020302020302020302020302020302020302020300A2020202D302E323036322020202D302E3335373220202020302E30303030204E202020302020302020302020302020302020302020302020302020302020302020302020300A2020202D302E3631383720202020302E3335373220202020302E303030302043202020302020302020302020302020302020302020302020302020302020302020302020300A2020202D312E3434333720202020302E3335373220202020302E303030302043202020302020302020302020302020302020302020302020302020302020302020302020300A2020202D312E383536332020202D302E3335373220202020302E303030302043202020302020302020302020302020302020302020302020302020302020302020302020300A2020202D302E3230363220202020312E3037313720202020302E303030302043202020302020302020302020302020302020302020302020302020302020302020302020300A2020312020322020312020302020202020200A2020332020342020312020302020202020200A2020352020362020312020302020202020200A2020362020372020322020302020202020200A2020352020382020312020302020202020200A2020342020352020312020302020202020200A2020312020332020322020302020202020200A4D2020454E44
Contributor: SASAKI S, TOYOHASHI UNIV. OF TECH.
InstType: EI
InstName: SHIMADZU LKB-2091
IoniMethod: _ENERGY 70 eV
IonPolarity: pos
Date: 2010-10-09 19:48:36+02:00
Num Peaks: 39
26 9 27 353 28 649 29 38 30 247 31 26 38 16 39 18 40 47 41 223 
42 383 43 17 44 295 48.5 15 50 13 51 3 52 21 53 91 54 112 55 77 
56 412 57 441 58 244 59 2 68 44 69 53 70 85 71 3 80 15 82 26 
83 412 84 4 85 241 86 16 97 999 98 7 111 26 112 382 113 59 
