Name: SITOSTEROL ACETATE
MW: 456
Formula: C31H52O2
Synonym: MassBank: JP005751
Synonym: SITOSTEROL ACETATE
Structure: 303535385F5349544F535445524F4C20414345544154452E6D6F6C0A20204368656D447261773038323031303035343032440A2034302034332020302020302020302020302020302020302020302020303939392056323030300A2020202D332E323938322020202D302E3438373020202020302E303030302043202020302020302020302020302020302020302020302020302020302020302020302020300A2020202D332E323938322020202D312E3331323020202020302E303030302043202020302020302020302020302020302020302020302020302020302020302020302020300A2020202D322E353833372020202D312E3732343520202020302E303030302043202020302020302020302020302020302020302020302020302020302020302020302020300A2020202D312E383639322020202D312E3331323020202020302E303030302043202020302020302020302020302020302020302020302020302020302020302020302020300A2020202D312E383639322020202D302E3438373020202020302E303030302043202020302020302020302020302020302020302020302020302020302020302020302020300A2020202D322E353833372020202D302E3037343520202020302E303030302043202020302020302020302020302020302020302020302020302020302020302020302020300A2020202D312E313534382020202D312E3732343520202020302E303030302043202020302020302020302020302020302020302020302020302020302020302020302020300A2020202D302E343430332020202D312E3331323020202020302E303030302043202020302020302020302020302020302020302020302020302020302020302020302020300A2020202D302E343430332020202D302E3438373020202020302E303030302043202020302020302020302020302020302020302020302020302020302020302020302020300A2020202D312E313534382020202D302E3037343520202020302E303030302043202020302020302020302020302020302020302020302020302020302020302020302020300A20202020302E323734322020202D302E3037343520202020302E303030302043202020302020302020302020302020302020302020302020302020302020302020302020300A20202020312E303538382020202D302E3332393420202020302E303030302043202020302020302020302020302020302020302020302020302020302020302020302020300A20202020312E3534333720202020302E3333383020202020302E303030302043202020302020302020302020302020302020302020302020302020302020302020302020300A20202020312E3035383820202020312E3030353520202020302E303030302043202020302020302020302020302020302020302020302020302020302020302020302020300A20202020312E3331333720202020312E3739303120202020302E303030302043202020302020302020302020302020302020302020302020302020302020302020302020300A20202020302E3531363920202020322E3030333620202020302E303030302043202020302020302020302020302020302020302020302020302020302020302020302020300A20202020312E3331343120202020322E3631333820202020302E303030302048202020302020302020302020302020302020302020302020302020302020302020302020300A20202020322E3133383720202020312E3739303120202020302E303030302043202020302020302020302020302020302020302020302020302020302020302020302020300A20202020322E3732323120202020322E3337333520202020302E303030302043202020302020302020302020302020302020302020302020302020302020302020302020300A20202020332E3531393020202020322E3135393920202020302E303030302043202020302020302020302020302020302020302020302020302020302020302020302020300A20202020342E3130333220202020322E3734313720202020302E303030302048202020302020302020302020302020302020302020302020302020302020302020302020300A20202020342E3233333520202020312E3734373420202020302E303030302043202020302020302020302020302020302020302020302020302020302020302020302020300A20202020342E3934373920202020322E3135393920202020302E303030302043202020302020302020302020302020302020302020302020302020302020302020302020300A20202020342E3233333520202020302E3932323420202020302E303030302043202020302020302020302020302020302020302020302020302020302020302020302020300A20202020332E3730353520202020302E3734333220202020302E303030302043202020302020302020302020302020302020302020302020302020302020302020302020300A20202020332E3230333320202020312E3339373720202020302E303030302043202020302020302020302020302020302020302020302020302020302020302020302020300A20202020312E3838353120202020312E3030343720202020302E303030302048202020302020302020302020302020302020302020302020302020302020302020302020300A20202020302E323734362020202D302E3839393520202020302E303030302048202020302020302020302020302020302020302020302020302020302020302020302020300A20202020302E383538322020202D302E3635383120202020302E303030302048202020302020302020302020302020302020302020302020302020302020302020302020300A2020202D302E3434303320202020312E3136333020202020302E303030302043202020302020302020302020302020302020302020302020302020302020302020302020300A2020202D312E3135343820202020302E3735303520202020302E303030302043202020302020302020302020302020302020302020302020302020302020302020302020300A20202020302E3237343220202020302E3735303520202020302E303030302043202020302020302020302020302020302020302020302020302020302020302020302020300A20202020302E3237343220202020312E3537353520202020302E303030302043202020302020302020302020302020302020302020302020302020302020302020302020300A2020202D342E303131372020202D302E3839393520202020302E303030302048202020302020302020302020302020302020302020302020302020302020302020302020300A2020202D332E373130342020202D322E3032373220202020302E30303030204F202020302020302020302020302020302020302020302020302020302020302020302020300A2020202D312E313534382020202D302E3839393520202020302E303030302043202020302020302020302020302020302020302020302020302020302020302020302020300A2020202D312E3733373020202020302E3530373920202020302E303030302048202020302020302020302020302020302020302020302020302020302020302020302020300A2020202D342E393437392020202D322E3734313720202020302E30303030204F202020302020302020302020302020302020302020302020302020302020302020302020300A2020202D342E353335342020202D322E3032373220202020302E303030302043202020302020302020302020302020302020302020302020302020302020302020302020300A2020202D342E393437392020202D312E3331323720202020302E303030302043202020302020302020302020302020302020302020302020302020302020302020302020300A2020312020322020312020302020202020200A2020322020332020312020302020202020200A2020332020342020312020302020202020200A2020342020352020312020302020202020200A2020352020362020312020302020202020200A2020362020312020312020302020202020200A2020342020372020322020302020202020200A2020372020382020312020302020202020200A2020382020392020312020302020202020200A2020392031302020312020302020202020200A2031302020352020312020302020202020200A2020392031312020312020302020202020200A2031312033322020312020302020202020200A2033322033302020312020302020202020200A2033312031302020312020302020202020200A2031312031322020312020302020202020200A2031322031332020312020302020202020200A2031332031342020312020302020202020200A2031342033322020312020302020202020200A2031342031352020312020302020202020200A2031352031362020312020302020202020200A2031352031372020312020312020202020200A2031352031382020312020302020202020200A2031382031392020312020302020202020200A2031392032302020312020302020202020200A2032302032312020312020312020202020200A2032302032362020312020312020202020200A2032302032322020312020302020202020200A2032322032332020312020302020202020200A2032322032342020312020302020202020200A2032352032362020312020302020202020200A2031342032372020312020362020202020200A2020392032382020312020312020202020200A2031312032392020312020362020202020200A2033302033312020312020302020202020200A2033322033332020312020312020202020200A2020322033342020312020362020202020200A2020322033352020312020312020202020200A2020352033362020312020312020202020200A2031302033372020312020362020202020200A2033352033392020312020302020202020200A2033382033392020322020302020202020200A2033392034302020312020302020202020200A4D2020454E44
Contributor: MASS SPECTROSCOPY SOC. OF JAPAN (MSSJ)
InstType: EI
InstName: HITACHI M-80
IoniMethod: _ENERGY 70 eV
IonPolarity: pos
Date: 2010-10-09 19:48:36+02:00
Num Peaks: 84
27 45 29 138 41 325 43 999 55 477 57 435 67 262 69 286 71 234 77 54 
79 204 81 587 82 51 83 147 85 184 91 221 92 70 93 282 94 84 95 336 
97 119 105 311 106 118 107 331 108 131 109 191 111 86 117 102 118 63 119 179 
120 221 121 231 122 60 123 93 127 34 129 56 130 40 131 146 132 48 133 221 
134 64 135 157 136 48 137 39 143 142 144 64 145 358 146 156 147 520 148 117 
149 112 157 82 158 75 159 170 160 127 161 126 162 47 163 86 171 39 173 62 
175 65 177 59 185 44 187 34 191 34 199 53 200 41 201 40 213 149 214 47 
215 41 228 45 255 161 256 37 274 41 275 108 276 42 288 122 289 38 381 122 
382 47 396 619 397 218 398 43 
