Name: 2-METHYL-3-(4-ISOPROPYLPHENYL)PROPIONALDEHYDE
MW: 190
Formula: C13H18O
Synonym: MassBank: JP008715
Synonym: 2-METHYL-3-(4-ISOPROPYLPHENYL)PROPIONALDEHYDE
Synonym: CYCLAMEN ALDEHYDE
Structure: 322D4D455448594C2D332D28342D49534F50524F50594C5048454E594C2950524F50494F4E414C4445485944452E6D6F6C0A20204368656D447261773031323231303033333432440A2031342031342020302020302020302020302020302020302020302020303939392056323030300A2020202D312E323337352020202D312E3037313720202020302E303030302043202020302020302020302020302020302020302020302020302020302020302020302020300A2020202D312E363530302020202D302E3335373220202020302E303030302043202020302020302020302020302020302020302020302020302020302020302020302020300A2020202D312E3233373520202020302E3335373220202020302E303030302043202020302020302020302020302020302020302020302020302020302020302020302020300A2020202D302E343132352020202D312E3037313720202020302E30303030204F202020302020302020302020302020302020302020302020302020302020302020302020300A2020202D302E3431323520202020302E3335373220202020302E303030302043202020302020302020302020302020302020302020302020302020302020302020302020300A2020202D302E3030303020202020312E3037313720202020302E303030302043202020302020302020302020302020302020302020302020302020302020302020302020300A20202020302E3832353020202020312E3037313720202020302E303030302043202020302020302020302020302020302020302020302020302020302020302020302020300A20202020312E3233373520202020302E3335373220202020302E303030302043202020302020302020302020302020302020302020302020302020302020302020302020300A20202020302E383235302020202D302E3335373220202020302E303030302043202020302020302020302020302020302020302020302020302020302020302020302020300A2020202D302E303030302020202D302E3335373220202020302E303030302043202020302020302020302020302020302020302020302020302020302020302020302020300A20202020322E3036323520202020302E3335373220202020302E303030302043202020302020302020302020302020302020302020302020302020302020302020302020300A20202020322E3437353020202020312E3037313720202020302E303030302043202020302020302020302020302020302020302020302020302020302020302020302020300A20202020322E343735302020202D302E3335373220202020302E303030302043202020302020302020302020302020302020302020302020302020302020302020302020300A2020202D322E343735302020202D302E3335373220202020302E303030302043202020302020302020302020302020302020302020302020302020302020302020302020300A2020312020322020312020302020202020200A2020322020332020312020302020202020200A2020312020342020322020302020202020200A2020352020362020312020302020202020200A2020362020372020322020302020202020200A2020372020382020312020302020202020200A2020382020392020322020302020202020200A2020392031302020312020302020202020200A2020352031302020322020302020202020200A2031312031322020312020302020202020200A2031312031332020312020302020202020200A2020382031312020312020302020202020200A2020332020352020312020302020202020200A2020322031342020312020302020202020200A4D2020454E44
Contributor: SODA AROMATIC CO., LTD.
InstType: EI
InstName: HITACHI M-80B
IoniMethod: _ENERGY 70 eV
IonPolarity: pos
Date: 2010-10-09 19:48:36+02:00
Num Peaks: 61
15 21 27 98 29 93 32 44 39 91 41 134 42 11 43 112 44 28 50 22 
51 59 52 22 53 34 55 29 58 16 63 40 64 21 65 54 67 14 69 17 
75 17 76 16 77 84 78 44 79 45 89 39 90 12 91 331 92 75 93 29 
102 22 103 61 104 32 105 328 106 42 115 150 116 55 117 287 118 121 119 77 
120 77 121 13 127 23 128 42 129 59 130 27 131 87 132 64 133 999 134 110 
135 12 145 39 146 16 147 165 148 32 157 14 160 11 175 196 176 32 190 280 
191 46 
