Name: MassBank: JP004415
MW: 260
Formula: C14H16N2O3
Synonym: MassBank: JP004415
Synonym: 7-METHOXY-2,3-DIMETHYL-6-(2-NITRO-1-PROPENYL)INDOLE
Structure: 372D4D4554484F58592D322C332D44494D455448594C2D362D28322D4E4954524F2D312D50524F50454E594C29494E444F4C452E6D6F6C0A20204368656D447261773035323131303035353632440A2031392032302020302020302020302020302020302020302020302020303939392056323030300A2020202D312E3532333520202020302E3336323220202020302E30303030204E202020302020302020302020302020302020302020302020302020302020302020302020300A2020202D322E303038352020202D302E3330353220202020302E303030302043202020302020302020302020302020302020302020302020302020302020302020302020300A2020202D312E353233352020202D302E3937323720202020302E303030302043202020302020302020302020302020302020302020302020302020302020302020302020300A2020202D302E373338392020202D302E3731373720202020302E303030302043202020302020302020302020302020302020302020302020302020302020302020302020300A2020202D302E303234342020202D312E3133303220202020302E303030302043202020302020302020302020302020302020302020302020302020302020302020302020300A20202020302E363930302020202D302E3731373720202020302E303030302043202020302020302020302020302020302020302020302020302020302020302020302020300A20202020302E3639303020202020302E3130373320202020302E303030302043202020302020302020302020302020302020302020302020302020302020302020302020300A2020202D302E3032343420202020302E3531393820202020302E303030302043202020302020302020302020302020302020302020302020302020302020302020302020300A2020202D302E3733383920202020302E3130373320202020302E303030302043202020302020302020302020302020302020302020302020302020302020302020302020300A20202020312E3430343520202020302E3531393820202020302E303030302043202020302020302020302020302020302020302020302020302020302020302020302020300A20202020322E3131393020202020302E3130373320202020302E303030302043202020302020302020302020302020302020302020302020302020302020302020302020300A20202020322E3833333520202020302E3531393820202020302E303030302043202020302020302020302020302020302020302020302020302020302020302020302020300A20202020322E313139302020202D302E3731373720202020302E30303030204E202020302020332020302020302020302020302020302020302020302020302020302020300A20202020312E343034352020202D312E3133303220202020302E30303030204F202020302020302020302020302020302020302020302020302020302020302020302020300A20202020322E383333352020202D312E3133303220202020302E30303030204F202020302020352020302020302020302020302020302020302020302020302020302020300A2020202D312E373738352020202D312E3735373320202020302E303030302043202020302020302020302020302020302020302020302020302020302020302020302020300A2020202D322E383333352020202D302E3330353220202020302E303030302043202020302020302020302020302020302020302020302020302020302020302020302020300A2020202D302E3032343420202020312E3334343820202020302E30303030204F202020302020302020302020302020302020302020302020302020302020302020302020300A20202020302E3639303020202020312E3735373320202020302E303030302043202020302020302020302020302020302020302020302020302020302020302020302020300A2020312020322020312020302020202020200A2020322020332020322020302020202020200A2020332020342020312020302020202020200A2020342020352020312020302020202020200A2020352020362020322020302020202020200A2020362020372020312020302020202020200A2020372020382020322020302020202020200A2020382020392020312020302020202020200A2020312020392020312020302020202020200A2020342020392020322020302020202020200A2031302031312020322020302020202020200A2031312031322020312020302020202020200A2031332031342020322020302020202020200A2031332031352020312020302020202020200A2031312031332020312020302020202020200A2020372031302020312020302020202020200A2020332031362020312020302020202020200A2020322031372020312020302020202020200A2031382031392020312020302020202020200A2020382031382020312020302020202020200A4D202043484720203220203133202020312020313520202D310A4D2020454E44
Contributor: SASAKI S, TOYOHASHI UNIV. OF TECH.
InstType: EI
InstName: Unknown
IoniMethod: _ENERGY 50 eV
IonPolarity: pos
Date: 2010-10-09 19:48:36+02:00
Num Peaks: 69
43 578 44 999 45 790 55 14 57 119 60 86 69 90 77 10 91 48 98 20 
99 19 102 4 105 20 106 32 107 30 108 3 110 30 119 88 120 22 122 2 
131 55 132 88 133 50 134 4 135 25 136 25 145 34 147 2 148 30 149 52 
153 26 158 5 159 38 160 52 161 22 162 3 163 30 164 80 166 38 170 2 
171 38 172 120 173 43 174 9 175 250 176 40 177 25 178 3 179 124 180 37 
185 81 186 12 188 66 189 32 190 17 191 2 192 17 197 40 198 425 199 14 
200 55 201 60 202 44 203 4 210 442 211 108 212 40 260 83 261 91 
