Name: 6-CARBOXY-3'-IODOFLAVONOL
MW: 407
Formula: C16H9IO5
Synonym: MassBank: JP000670
Synonym: 6-CARBOXY-3'-IODOFLAVONOL
Synonym: 3-HYDROXY-2-(3-IODOPHENYL)-4-OXO-4H-CHROMENE-6-CARBOXYLIC ACID
Structure: 362D434152424F58592D33272D494F444F464C41564F4E4F4C2E6D6F6C0A20204368656D447261773032323231303138343532440A2032322032342020302020302020302020302020302020302020302020303939392056323030300A20202020312E303731372020202D302E3230363220202020302E303030302043202020302020302020302020302020302020302020302020302020302020302020302020300A20202020312E303731372020202D312E3033313320202020302E303030302043202020302020302020302020302020302020302020302020302020302020302020302020300A20202020302E333537322020202D312E3434333820202020302E303030302043202020302020302020302020302020302020302020302020302020302020302020302020300A20202020302E333537322020202D322E3236383820202020302E30303030204F202020302020302020302020302020302020302020302020302020302020302020302020300A2020202D302E333537322020202D312E3033313220202020302E303030302043202020302020302020302020302020302020302020302020302020302020302020302020300A2020202D312E303731372020202D312E3434333720202020302E303030302043202020302020302020302020302020302020302020302020302020302020302020302020300A2020202D312E373836322020202D312E3033313220202020302E303030302043202020302020302020302020302020302020302020302020302020302020302020302020300A2020202D312E373836322020202D302E3230363220202020302E303030302043202020302020302020302020302020302020302020302020302020302020302020302020300A2020202D312E3037313720202020302E3230363320202020302E303030302043202020302020302020302020302020302020302020302020302020302020302020302020300A2020202D302E333537322020202D302E3230363320202020302E303030302043202020302020302020302020302020302020302020302020302020302020302020302020300A20202020302E3335373220202020302E3230363220202020302E30303030204F202020302020302020302020302020302020302020302020302020302020302020302020300A20202020312E3738363220202020302E3230363320202020302E303030302043202020302020302020302020302020302020302020302020302020302020302020302020300A20202020312E3738363220202020312E3033313320202020302E303030302043202020302020302020302020302020302020302020302020302020302020302020302020300A20202020322E3530303620202020312E3434333820202020302E303030302043202020302020302020302020302020302020302020302020302020302020302020302020300A20202020332E3231353120202020312E3033313220202020302E303030302043202020302020302020302020302020302020302020302020302020302020302020302020300A20202020332E3231353120202020302E3230363220202020302E303030302043202020302020302020302020302020302020302020302020302020302020302020302020300A20202020322E353030362020202D302E3230363220202020302E303030302043202020302020302020302020302020302020302020302020302020302020302020302020300A20202020322E3530303620202020322E3236383820202020302E303030302049202020302020302020302020302020302020302020302020302020302020302020302020300A2020202D322E353030362020202D312E3434333720202020302E303030302043202020302020302020302020302020302020302020302020302020302020302020302020300A2020202D332E323135312020202D312E3033313220202020302E30303030204F202020302020302020302020302020302020302020302020302020302020302020302020300A2020202D322E353030362020202D322E3236383820202020302E30303030204F202020302020302020302020302020302020302020302020302020302020302020302020300A20202020312E373836322020202D312E3434333820202020302E30303030204F202020302020302020302020302020302020302020302020302020302020302020302020300A2020312020322020322020302020202020200A2020322020332020312020302020202020200A2020332020342020322020302020202020200A2020332020352020312020302020202020200A2020352020362020312020302020202020200A2020362020372020322020302020202020200A2020372020382020312020302020202020200A2020382020392020322020302020202020200A2020392031302020312020302020202020200A2020352031302020322020302020202020200A2031302031312020312020302020202020200A2020312031312020312020302020202020200A2020312031322020312020302020202020200A2031322031332020312020302020202020200A2031332031342020322020302020202020200A2031342031352020312020302020202020200A2031352031362020322020302020202020200A2031362031372020312020302020202020200A2031322031372020322020302020202020200A2031342031382020312020302020202020200A2031392032302020322020302020202020200A2031392032312020312020302020202020200A2020372031392020312020302020202020200A2020322032322020312020302020202020200A4D2020454E44
Contributor: TAKATORI M, DEPT. OF CHEMISTRY, FAC. OF EDUC., FUKUSHIMA UNIV.
InstType: EI
InstName: JEOL JMS-06-H
IoniMethod: _ENERGY 75 eV
IonPolarity: pos
Date: 2010-10-09 19:48:36+02:00
Num Peaks: 63
31 37 32 394 38 30 39 11 41 61 43 43 44 91 45 8 50 180 51 170 
53 69 55 4 57 63 62 130 63 241 64 5 65 61 69 500 74 137 75 16 
76 348 77 261 81 33 87 6 88 96 89 139 91 57 100 3 102 52 103 119 
104 191 105 13 117 31 119 215 120 46 127 16 128 196 131 107 132 152 136 7 
149 267 150 48 151 76 152 14 153 31 164 107 165 122 169 5 179 35 181 87 
191 100 203 7 225 69 230 87 231 54 252 4 253 83 281 376 282 111 394 8 
407 302 408 999 409 170 
