Name: 2-METHYLBUTANOL
CAS: 137-32-6
MW: 88
Formula: C5H12O
Synonym: MassBank: JP007115
Synonym: 2-METHYLBUTANOL
Synonym: 2-METHYL-1-BUTANOL
Structure: 310A31360A322D4D455448594C425554414E4F4C2E6D6F6C0A20204368656D447261773031323231303037343232440A2020362020352020302020302020302020302020302020302020302020303939392056323030300A20202020302E343132352020202D302E3731343520202020302E303030302043202020302020302020302020302020302020302020302020302020302020302020302020300A20202020302E3030303020202020302E3030303020202020302E303030302043202020302020302020302020302020302020302020302020302020302020302020302020300A2020202D302E3832353020202020302E3030303020202020302E303030302043202020302020302020302020302020302020302020302020302020302020302020302020300A2020202D312E323337352020202D302E3731343520202020302E303030302043202020302020302020302020302020302020302020302020302020302020302020302020300A20202020302E3431323520202020302E3731343520202020302E303030302043202020302020302020302020302020302020302020302020302020302020302020302020300A20202020312E323337352020202D302E3731343520202020302E30303030204F202020302020302020302020302020302020302020302020302020302020302020302020300A2020312020322020312020302020202020200A2020322020332020312020302020202020200A2020332020342020312020302020202020200A2020322020352020312020302020202020200A2020312020362020312020302020202020200A4D2020454E44
Contributor: SODA AROMATIC CO., LTD.
InstType: EI
InstName: HITACHI M-80B
IoniMethod: _ENERGY 70 eV
IonPolarity: pos
Date: 2010-10-09 19:48:36+02:00
Num Peaks: 25
15 29 26 40 27 311 28 72 29 749 30 23 31 459 33 12 38 20 39 251 
40 35 41 932 43 145 45 69 50 14 51 17 53 30 55 283 56 920 57 999 
58 55 59 39 69 10 70 427 71 27 
