Name: CHLOROBIS(TRIMETHYLSILYL)METHANE
MW: 194
Formula: C7H19ClSi2
Synonym: MassBank: JP001443
Synonym: CHLOROBIS(TRIMETHYLSILYL)METHANE
Structure: 43484C4F524F424953285452494D455448594C53494C594C294D455448414E452E6D6F6C0A20204368656D447261773039303731303034323232440A2031302020392020302020302020302020302020302020302020302020303939392056323030300A2020202D302E3030303020202020302E3135313020202020302E303030302043202020302020302020302020302020302020302020302020302020302020302020302020300A20202020302E373134352020202D302E3236313520202020302E303030302053692020302020302020302020302020302020302020302020302020302020302020302020300A20202020312E343238392020202D302E3637343020202020302E303030302043202020302020302020302020302020302020302020302020302020302020302020302020300A20202020302E333032302020202D302E3937363020202020302E303030302043202020302020302020302020302020302020302020302020302020302020302020302020300A20202020312E3132373020202020302E3435333020202020302E303030302043202020302020302020302020302020302020302020302020302020302020302020302020300A2020202D302E373134352020202D302E3236313520202020302E303030302053692020302020302020302020302020302020302020302020302020302020302020302020300A2020202D302E333032302020202D302E3937363020202020302E303030302043202020302020302020302020302020302020302020302020302020302020302020302020300A2020202D312E343238392020202D302E3637343020202020302E303030302043202020302020302020302020302020302020302020302020302020302020302020302020300A2020202D312E3132373020202020302E3435333020202020302E303030302043202020302020302020302020302020302020302020302020302020302020302020302020300A2020202D302E3030303020202020302E3937363020202020302E3030303020436C2020302020302020302020302020302020302020302020302020302020302020302020300A2020322020332020312020302020202020200A2020322020342020312020312020202020200A2020322020352020312020312020202020200A2020312020322020312020302020202020200A2020362020372020312020312020202020200A2020362020382020312020302020202020200A2020362020392020312020312020202020200A2020312020362020312020302020202020200A2020312031302020312020302020202020200A4D2020454E44
Contributor: MASS SPECTROSCOPY SOC. OF JAPAN (MSSJ)
InstType: EI
InstName: JEOL JMS-D-3000
IoniMethod: _ENERGY 70 eV
IonPolarity: pos
Date: 2010-10-09 19:48:36+02:00
Num Peaks: 26
43 62 44 20 45 80 55 12 58 21 59 217 60 15 65 18 71 15 72 16 
73 999 74 85 75 37 85 394 86 77 87 27 93 46 95 16 106 50 108 18 
129 12 151 12 179 71 180 12 181 29 194 15 
