Name: DIHYDROCHOLESTEROL ACETATE
MW: 430
Formula: C29H50O2
Synonym: MassBank: JP002709
Synonym: DIHYDROCHOLESTEROL ACETATE
Structure: 4449485944524F43484F4C45535445524F4C20414345544154452E6D6F6C0A20204368656D447261773039323131303232353432440A2033372034302020302020302020302020302020302020302020302020303939392056323030300A2020202D332E303139322020202D322E3037393520202020302E303030302043202020302020302020302020302020302020302020302020302020302020302020302020300A2020202D332E303139322020202D312E3235343520202020302E303030302043202020302020302020302020302020302020302020302020302020302020302020302020300A2020202D322E333034382020202D302E3834323020202020302E303030302043202020302020302020302020302020302020302020302020302020302020302020302020300A2020202D322E333034382020202D322E3439323020202020302E303030302043202020302020302020302020302020302020302020302020302020302020302020302020300A2020202D312E353930332020202D322E3037393520202020302E303030302043202020302020302020302020302020302020302020302020302020302020302020302020300A2020202D302E383735382020202D322E3439323020202020302E303030302043202020302020302020302020302020302020302020302020302020302020302020302020300A2020202D302E313631332020202D322E3037393520202020302E303030302043202020302020302020302020302020302020302020302020302020302020302020302020300A2020202D302E313631332020202D312E3235343520202020302E303030302043202020302020302020302020302020302020302020302020302020302020302020302020300A20202020302E353533312020202D302E3834323020202020302E303030302043202020302020302020302020302020302020302020302020302020302020302020302020300A20202020312E333337382020202D312E3039363920202020302E303030302043202020302020302020302020302020302020302020302020302020302020302020302020300A20202020312E383232372020202D302E3432393520202020302E303030302043202020302020302020302020302020302020302020302020302020302020302020302020300A20202020312E3333373820202020302E3233383020202020302E303030302043202020302020302020302020302020302020302020302020302020302020302020302020300A20202020312E3539323720202020312E3032323620202020302E303030302043202020302020302020302020302020302020302020302020302020302020302020302020300A20202020302E353533312020202D302E3031373020202020302E303030302043202020302020302020302020302020302020302020302020302020302020302020302020300A20202020302E3535333120202020302E3830383020202020302E303030302043202020302020302020302020302020302020302020302020302020302020302020302020300A2020202D302E3136313320202020302E3339353520202020302E303030302043202020302020302020302020302020302020302020302020302020302020302020302020300A2020202D302E383735382020202D302E3031373020202020302E303030302043202020302020302020302020302020302020302020302020302020302020302020302020300A2020202D302E383735382020202D302E3834323020202020302E303030302043202020302020302020302020302020302020302020302020302020302020302020302020300A2020202D312E353930332020202D312E3235343520202020302E303030302043202020302020302020302020302020302020302020302020302020302020302020302020300A2020202D302E383735382020202D312E3636373020202020302E303030302043202020302020302020302020302020302020302020302020302020302020302020302020300A2020202D342E343438322020202D322E3037393520202020302E303030302043202020302020302020302020302020302020302020302020302020302020302020302020300A2020202D352E313632362020202D322E3439323020202020302E303030302043202020302020302020302020302020302020302020302020302020302020302020302020300A2020202D342E343438322020202D312E3235343520202020302E30303030204F202020302020302020302020302020302020302020302020302020302020302020302020300A2020202D332E373333372020202D322E3439323020202020302E30303030204F202020302020302020302020302020302020302020302020302020302020302020302020300A2020202D312E353930332020202D302E3432393520202020302E303030302048202020302020302020302020302020302020302020302020302020302020302020302020300A20202020302E353533312020202D312E3636373020202020302E303030302048202020302020302020302020302020302020302020302020302020302020302020302020300A20202020302E393635362020202D312E3535363420202020302E303030302048202020302020302020302020302020302020302020302020302020302020302020302020300A2020202D332E373333372020202D312E3636373020202020302E303030302048202020302020302020302020302020302020302020302020302020302020302020302020300A20202020322E3133343620202020302E3435313520202020302E303030302048202020302020302020302020302020302020302020302020302020302020302020302020300A20202020312E3830363220202020312E3831393520202020302E303030302048202020302020302020302020302020302020302020302020302020302020302020302020300A20202020322E3338333720202020302E3738383320202020302E303030302043202020302020302020302020302020302020302020302020302020302020302020302020300A20202020302E3830313720202020312E3235363920202020302E303030302043202020302020302020302020302020302020302020302020302020302020302020302020300A20202020322E3938323220202020312E3335363220202020302E303030302043202020302020302020302020302020302020302020302020302020302020302020302020300A20202020332E3737333220202020312E3132313920202020302E303030302043202020302020302020302020302020302020302020302020302020302020302020302020300A20202020342E3337313620202020312E3638393820202020302E303030302043202020302020302020302020302020302020302020302020302020302020302020302020300A20202020352E3136323620202020312E3435353420202020302E303030302043202020302020302020302020302020302020302020302020302020302020302020302020300A20202020342E3137393020202020322E3439323020202020302E303030302043202020302020302020302020302020302020302020302020302020302020302020302020300A2020312020322020312020302020202020200A2020322020332020312020302020202020200A2020312020342020312020302020202020200A2020342020352020312020302020202020200A2020352020362020312020302020202020200A2020362020372020312020302020202020200A2020372020382020312020302020202020200A2020382020392020312020302020202020200A2020392031302020312020302020202020200A2031302031312020312020302020202020200A2031312031322020312020302020202020200A2031322031332020312020302020202020200A2031322031342020312020302020202020200A2020392031342020312020302020202020200A2031342031352020312020312020202020200A2031342031362020312020302020202020200A2031362031372020312020302020202020200A2031372031382020312020302020202020200A2020382031382020312020302020202020200A2031382031392020312020302020202020200A2020332031392020312020302020202020200A2020352031392020312020302020202020200A2031392032302020312020312020202020200A2032312032322020312020302020202020200A2032312032332020322020302020202020200A2032312032342020312020302020202020200A2020312032342020312020312020202020200A2031382032352020312020362020202020200A2020382032362020312020312020202020200A2020392032372020312020362020202020200A2020312032382020312020362020202020200A2031322032392020312020362020202020200A2031332033302020312020312020202020200A2031332033312020312020302020202020200A2031332033322020312020302020202020200A2033312033332020312020302020202020200A2033332033342020312020302020202020200A2033342033352020312020302020202020200A2033352033362020312020302020202020200A2033352033372020312020302020202020200A4D2020454E44
Contributor: HAYASHI A, DEPT. OF CHEMISTRY, FAC. OF SCI. AND TECHNOLOGY, KINKI UNIV.
InstType: EI
InstName: SHIMADZU LKB-9000B
IoniMethod: _ENERGY 70 eV
IonPolarity: pos
Date: 2010-10-09 19:48:36+02:00
Num Peaks: 173
44 14 55 41 56 13 58 45 66 12 67 98 68 23 69 5 70 14 71 43 
77 41 79 13 80 33 81 183 82 34 83 5 91 128 92 51 93 201 94 7 
95 201 96 32 97 53 103 2 104 39 105 154 106 128 107 28 108 168 109 165 
110 27 111 7 115 26 117 44 118 31 119 15 120 91 121 184 122 74 123 14 
124 30 125 18 127 24 128 3 129 18 130 15 131 69 132 3 133 148 134 91 
135 159 136 6 137 37 138 13 139 18 141 2 142 16 143 27 144 14 145 13 
146 61 147 353 148 113 149 12 150 17 151 31 152 15 153 2 155 14 157 12 
158 15 159 10 160 87 161 195 162 116 163 7 164 15 165 15 167 18 169 2 
171 18 173 89 174 49 175 9 176 109 177 45 178 19 179 1 181 13 183 13 
185 14 187 6 188 66 189 51 190 21 191 2 194 15 195 30 197 37 199 2 
201 231 202 78 203 125 204 3 205 27 206 22 212 16 213 2 214 16 215 999 
216 467 217 24 218 30 219 14 220 18 221 2 229 51 230 242 231 93 232 2 
234 15 241 29 243 21 244 19 245 28 246 13 247 45 248 3 249 14 255 26 
256 30 257 18 258 42 260 27 261 53 262 9 263 35 274 32 275 225 276 18 
277 36 283 16 285 28 287 2 288 20 290 30 291 12 299 2 315 43 316 86 
317 20 328 2 330 13 342 12 343 18 353 2 355 329 356 106 357 19 368 3 
369 18 370 307 371 104 373 1 394 14 396 15 401 15 415 4 416 13 430 99 
431 20 432 4 301 44 
