Name: CYCLOHEXANONE OXIME
MW: 113
Formula: C6H11NO
Synonym: MassBank: JP003537
Synonym: CYCLOHEXANONE OXIME
Structure: 310A32310A4359434C4F484558414E4F4E45204F58494D452E6D6F6C0A20204368656D447261773039323031303037343632440A2020382020382020302020302020302020302020302020302020302020303939392056323030300A2020202D302E3230363320202020302E3030303020202020302E303030302043202020302020302020302020302020302020302020302020302020302020302020302020300A20202020302E3230363220202020302E3731343520202020302E303030302043202020302020302020302020302020302020302020302020302020302020302020302020300A20202020312E3033313220202020302E3731343520202020302E303030302043202020302020302020302020302020302020302020302020302020302020302020302020300A20202020312E3434333820202020302E3030303020202020302E303030302043202020302020302020302020302020302020302020302020302020302020302020302020300A20202020312E303331322020202D302E3731343520202020302E303030302043202020302020302020302020302020302020302020302020302020302020302020302020300A20202020302E323036322020202D302E3731343520202020302E303030302043202020302020302020302020302020302020302020302020302020302020302020302020300A2020202D312E3033313320202020302E3030303020202020302E30303030204E202020302020302020302020302020302020302020302020302020302020302020302020300A2020202D312E343433382020202D302E3731343520202020302E30303030204F202020302020302020302020302020302020302020302020302020302020302020302020300A2020312020322020312020302020202020200A2020322020332020312020302020202020200A2020332020342020312020302020202020200A2020342020352020312020302020202020200A2020352020362020312020302020202020200A2020312020362020312020302020202020200A2020372020382020312020302020202020200A2020312020372020322020302020202020200A4D2020454E44
Contributor: YAMAMOTO M, DEP. CHEMISTRY, FAC. SCIENCE, NARA WOMEN'S UNIV.
InstType: EI
InstName: HITACHI RMU-6E
IoniMethod: _ENERGY 70 eV
IonPolarity: pos
Date: 2010-10-09 19:48:36+02:00
Num Peaks: 57
15 28 18 25 26 65 27 400 28 285 29 250 30 102 37 2 38 52 39 475 
40 145 41 99 42 465 43 110 44 110 45 3 46 220 50 38 51 73 52 7 
53 210 54 545 55 770 56 10 57 93 58 24 59 785 60 3 63 12 64 15 
66 65 67 41 68 420 69 270 70 95 71 3 72 635 73 40 77 35 78 1 
79 130 80 89 81 365 82 7 83 31 84 195 85 260 86 2 94 45 95 12 
96 240 97 5 98 320 99 20 112 55 113 999 114 135 
