Name: DIMETHYL TETRASULFIDE
MW: 157
Formula: C2H6S4
Synonym: MassBank: JP000917
Synonym: DIMETHYL TETRASULFIDE
Structure: 310A31360A44494D455448594C20544554524153554C464944452E6D6F6C0A20204368656D447261773130313831303136333332440A2020362020352020302020302020302020302020302020302020302020303939392056323030300A20202020302E323036332020202D302E3335373220202020302E303030302053202020302020302020302020302020302020302020302020302020302020302020302020300A2020202D302E3230363320202020302E3335373220202020302E303030302053202020302020302020302020302020302020302020302020302020302020302020302020300A20202020312E303331332020202D302E3335373220202020302E303030302053202020302020302020302020302020302020302020302020302020302020302020302020300A2020202D312E3033313220202020302E3335373220202020302E303030302053202020302020302020302020302020302020302020302020302020302020302020302020300A20202020312E3434333820202020302E3335373220202020302E303030302043202020302020302020302020302020302020302020302020302020302020302020302020300A2020202D312E343433382020202D302E3335373220202020302E303030302043202020302020302020302020302020302020302020302020302020302020302020302020300A2020312020322020312020302020202020200A2020312020332020312020302020202020200A2020322020342020312020302020202020200A2020332020352020312020302020202020200A2020342020362020312020302020202020200A4D2020454E44
Contributor: KAMEOKA H, DEPT. OF APPLIED CHEMISTRY, FAC. OF SCI. AND ENGINEERING, KINKI UNIV.
InstType: EI
InstName: SHIMADZU LKB-9000B
IoniMethod: _ENERGY 70 eV
IonPolarity: pos
Date: 2010-10-09 19:48:36+02:00
Num Peaks: 22
45 312 46 156 47 248 48 6 61 139 64 266 65 20 66 5 79 999 80 161 
81 102 94 55 95 22 96 58 111 102 112 2 126 431 127 23 128 57 158 44 
159 23 160 79 
