Name: 3-HEXYL-GAMMA-BUTYROLACTONE
MW: 170
Formula: C10H18O2
Synonym: MassBank: JP004180
Synonym: 3-HEXYL-GAMMA-BUTYROLACTONE
Structure: 332D484558594C2D47414D4D412D42555459524F4C4143544F4E452E6D6F6C0A20204368656D447261773032323231303138313532440A2031322031322020302020302020302020302020302020302020302020303939392056323030300A2020202D312E393735342020202D302E3539373620202020302E303030302043202020302020302020302020302020302020302020302020302020302020302020302020300A2020202D312E3830333920202020302E3230393420202020302E303030302043202020302020302020302020302020302020302020302020302020302020302020302020300A2020202D302E3938333420202020302E3239353620202020302E303030302043202020302020302020302020302020302020302020302020302020302020302020302020300A2020202D302E363437392020202D302E3435383120202020302E303030302043202020302020302020302020302020302020302020302020302020302020302020302020300A2020202D302E3537303920202020312E3031303120202020302E303030302043202020302020302020302020302020302020302020302020302020302020302020302020300A20202020302E3235343120202020312E3031303120202020302E303030302043202020302020302020302020302020302020302020302020302020302020302020302020300A20202020302E3636363620202020302E3239353620202020302E303030302043202020302020302020302020302020302020302020302020302020302020302020302020300A20202020312E3439313620202020302E3239353620202020302E303030302043202020302020302020302020302020302020302020302020302020302020302020302020300A20202020312E393034312020202D302E3431383920202020302E303030302043202020302020302020302020302020302020302020302020302020302020302020302020300A20202020322E373239312020202D302E3431383920202020302E303030302043202020302020302020302020302020302020302020302020302020302020302020302020300A2020202D322E373239312020202D302E3933333120202020302E30303030204F202020302020302020302020302020302020302020302020302020302020302020302020300A2020202D312E323630392020202D312E3031303120202020302E30303030204F202020302020302020302020302020302020302020302020302020302020302020302020300A2020312020322020312020302020202020200A2020322020332020312020302020202020200A2020332020342020312020302020202020200A2020352020362020312020302020202020200A2020362020372020312020302020202020200A2020372020382020312020302020202020200A2020382020392020312020302020202020200A2020392031302020312020302020202020200A2020332020352020312020302020202020200A2020312031312020322020302020202020200A2020312031322020312020302020202020200A2020342031322020312020302020202020200A4D2020454E44
Contributor: MASS SPECTROSCOPY SOC. OF JAPAN (MSSJ)
InstType: EI
InstName: HITACHI RMU-6E
IoniMethod: _ENERGY 70 eV
IonPolarity: pos
Date: 2010-10-09 19:48:36+02:00
Num Peaks: 129
26 9 27 130 28 36 29 14 30 6 31 14 32 4 33 0 38 5 39 130 
40 28 41 29 42 110 43 338 44 20 45 3 46 1 50 3 51 12 52 1 
53 56 54 30 55 354 56 8 57 40 58 74 59 25 60 0 61 1 62 1 
63 2 64 0 65 10 66 5 67 55 68 2 69 80 70 54 71 64 72 3 
73 84 74 5 75 2 77 1 78 3 79 14 80 4 81 5 82 21 83 50 
84 18 85 12 86 999 87 70 88 10 89 0 91 6 92 1 93 7 94 0 
95 25 96 4 97 14 98 1 99 740 100 100 101 35 102 0 103 2 104 1 
105 3 106 0 107 6 108 1 109 13 110 1 111 7 112 7 113 16 114 0 
115 4 116 1 117 4 118 0 119 2 120 1 121 5 122 0 123 4 124 2 
125 6 126 1 127 23 128 8 129 10 130 0 131 1 135 2 136 1 137 0 
138 2 139 13 140 3 141 1 142 2 143 2 144 1 145 0 150 1 151 4 
152 1 153 0 154 1 155 4 156 2 157 0 158 2 159 1 165 1 166 0 
167 2 168 4 169 11 170 1 171 18 172 3 173 1 174 0 175 1 
