Name: N-BENZYL-4-ETHENYL-4-HYDROXYPIPERIDINE
MW: 217
Formula: C14H19NO
Synonym: MassBank: JP009898
Synonym: N-BENZYL-4-ETHENYL-4-HYDROXYPIPERIDINE
Structure: 4E2D42454E5A594C2D342D455448454E594C2D342D485944524F585950495045524944494E452E6D6F6C0A20204368656D447261773038313231303031353032440A2031362031372020302020302020302020302020302020302020302020303939392056323030300A2020202D302E303433312020202D302E3539333920202020302E30303030204E202020302020302020302020302020302020302020302020302020302020302020302020300A2020202D302E373537362020202D312E3030363420202020302E303030302043202020302020302020302020302020302020302020302020302020302020302020302020300A2020202D312E343732302020202D302E3539333920202020302E303030302043202020302020302020302020302020302020302020302020302020302020302020302020300A2020202D312E3437323020202020302E3233313120202020302E303030302043202020302020302020302020302020302020302020302020302020302020302020302020300A2020202D302E3735373620202020302E3634333620202020302E303030302043202020302020302020302020302020302020302020302020302020302020302020302020300A2020202D302E3034333120202020302E3233313120202020302E303030302043202020302020302020302020302020302020302020302020302020302020302020302020300A2020202D312E3735343220202020312E3030363420202020302E30303030204F202020302020302020302020302020302020302020302020302020302020302020302020300A2020202D322E3238343520202020302E3038373920202020302E303030302043202020302020302020302020302020302020302020302020302020302020302020302020300A2020202D322E3831343820202020302E3731393920202020302E303030302043202020302020302020302020302020302020302020302020302020302020302020302020300A20202020302E363731342020202D312E3030363420202020302E303030302043202020302020302020302020302020302020302020302020302020302020302020302020300A20202020312E333835392020202D302E3539333920202020302E303030302043202020302020302020302020302020302020302020302020302020302020302020302020300A20202020312E3338353920202020302E3233313120202020302E303030302043202020302020302020302020302020302020302020302020302020302020302020302020300A20202020322E3130303320202020302E3634333620202020302E303030302043202020302020302020302020302020302020302020302020302020302020302020302020300A20202020322E3831343820202020302E3233313120202020302E303030302043202020302020302020302020302020302020302020302020302020302020302020302020300A20202020322E383134382020202D302E3539333920202020302E303030302043202020302020302020302020302020302020302020302020302020302020302020302020300A20202020322E313030332020202D312E3030363420202020302E303030302043202020302020302020302020302020302020302020302020302020302020302020302020300A2020312020322020312020302020202020200A2020322020332020312020302020202020200A2020332020342020312020302020202020200A2020342020352020312020302020202020200A2020352020362020312020302020202020200A2020312020362020312020302020202020200A2020342020372020312020302020202020200A2020382020392020322020302020202020200A2020342020382020312020302020202020200A2031302031312020312020302020202020200A2031312031322020312020302020202020200A2031322031332020322020302020202020200A2031332031342020312020302020202020200A2031342031352020322020302020202020200A2031352031362020312020302020202020200A2031312031362020322020302020202020200A2020312031302020312020302020202020200A4D2020454E44
Contributor: KURARAY CO., LTD.
InstType: EI
InstName: JEOL JMS-D-300
IoniMethod: _ENERGY 70 eV
IonPolarity: pos
Date: 2010-10-09 19:48:36+02:00
Num Peaks: 27
27 25 39 30 42 35 43 215 44 26 55 50 56 95 65 85 89 20 91 999 
92 215 98 150 104 32 112 190 118 48 126 55 132 33 133 35 140 40 146 100 
188 173 189 245 190 32 199 30 200 18 216 50 217 100 
