Name: 3-(2-AMINOETHYL)-1H-INDOL-5-OL
CAS: 50-67-9
MW: 176
Formula: C10H12N2O
Synonym: MassBank: JP009553
Synonym: 3-(2-AMINOETHYL)-1H-INDOL-5-OL
Structure: 332D28322D414D494E4F455448594C292D31482D494E444F4C2D352D4F4C2E6D6F6C0A20204368656D447261773032323231303039333732440A2031332031342020302020302020302020302020302020302020302020303939392056323030300A20202020302E343434342020202D312E3337383320202020302E30303030204E202020302020302020302020302020302020302020302020302020302020302020302020300A2020202D302E333039332020202D312E3034323720202020302E303030302043202020302020302020302020302020302020302020302020302020302020302020302020300A2020202D302E323233312020202D302E3232323220202020302E303030302043202020302020302020302020302020302020302020302020302020302020302020302020300A20202020302E353833392020202D302E3035303720202020302E303030302043202020302020302020302020302020302020302020302020302020302020302020302020300A20202020302E3939363420202020302E3636333820202020302E303030302043202020302020302020302020302020302020302020302020302020302020302020302020300A20202020312E3832313420202020302E3636333820202020302E303030302043202020302020302020302020302020302020302020302020302020302020302020302020300A20202020322E323333392020202D302E3035303720202020302E303030302043202020302020302020302020302020302020302020302020302020302020302020302020300A20202020312E383231342020202D302E3736353220202020302E303030302043202020302020302020302020302020302020302020302020302020302020302020302020300A20202020302E393936342020202D302E3736353220202020302E303030302043202020302020302020302020302020302020302020302020302020302020302020302020300A20202020322E3233333920202020312E3337383320202020302E30303030204F202020302020302020302020302020302020302020302020302020302020302020302020300A2020202D302E3833363220202020302E3332393820202020302E303030302043202020302020302020302020302020302020302020302020302020302020302020302020300A2020202D312E3632303820202020302E3037343920202020302E303030302043202020302020302020302020302020302020302020302020302020302020302020302020300A2020202D322E3233333920202020302E3632363920202020302E30303030204E202020302020302020302020302020302020302020302020302020302020302020302020300A2020312020322020312020302020202020200A2020322020332020322020302020202020200A2020332020342020312020302020202020200A2020342020352020312020302020202020200A2020352020362020322020302020202020200A2020362020372020312020302020202020200A2020372020382020322020302020202020200A2020382020392020312020302020202020200A2020312020392020312020302020202020200A2020342020392020322020302020202020200A2020362031302020312020302020202020200A2031312031322020312020302020202020200A2031322031332020312020302020202020200A2020332031312020312020302020202020200A4D2020454E44
Contributor: NARA WOMEN'S UNIVERSITY
InstType: EI
InstName: HITACHI M-80
IoniMethod: _ENERGY 70 eV
IonPolarity: pos
Date: 2010-10-09 19:48:36+02:00
Num Peaks: 52
15 17 16 12 17 39 18 45 27 16 28 71 29 73 30 185 31 114 32 42 
39 15 41 20 42 15 43 38 44 54 45 538 46 11 47 11 50 98 51 206 
55 11 57 12 60 26 63 16 65 28 69 363 70 18 73 13 74 26 78 14 
86 72 89 27 90 18 91 55 95 49 97 28 114 11 116 11 117 57 118 42 
119 10 128 13 130 15 133 11 145 33 146 999 147 672 148 72 159 21 160 14 
176 359 177 48 
