Name: (1S)-(-)-BETA-PINENE
CAS: 18172-67-3
MW: 136
Formula: C10H16
Synonym: MassBank: JP005734
Synonym: (1S)-(-)-BETA-PINENE
Structure: 283153292D282D292D424554412D50494E454E452E6D6F6C0A20204368656D447261773130313930393134303032440A2031322031332020302020302020302020302020302020302020302020303939392056323030300A2020202D302E3330323020202020302E3431323520202020302E303030302043202020302020302020302020302020302020302020302020302020302020302020302020300A2020202D302E333032302020202D302E3431323520202020302E303030302043202020302020302020302020302020302020302020302020302020302020302020302020300A20202020302E343132352020202D302E3832353020202020302E303030302043202020302020302020302020302020302020302020302020302020302020302020302020300A20202020312E313237302020202D302E3431323520202020302E303030302043202020302020302020302020302020302020302020302020302020302020302020302020300A20202020312E3132373020202020302E3431323520202020302E303030302043202020302020302020302020302020302020302020302020302020302020302020302020300A20202020302E3431323520202020302E3832353020202020302E303030302043202020302020302020302020302020302020302020302020302020302020302020302020300A20202020302E3431323520202020302E3030303020202020302E303030302043202020302020302020302020302020302020302020302020302020302020302020302020300A2020202D312E313237302020202D302E3431323520202020302E303030302043202020302020302020302020302020302020302020302020302020302020302020302020300A2020202D312E3031363420202020302E3832353020202020302E303030302048202020302020302020302020302020302020302020302020302020302020302020302020300A2020202D302E353135352020202D312E3230393420202020302E303030302043202020302020302020302020302020302020302020302020302020302020302020302020300A20202020302E343132352020202D312E3635303020202020302E303030302048202020302020302020302020302020302020302020302020302020302020302020302020300A20202020302E3431323520202020312E3635303020202020302E303030302043202020302020302020302020302020302020302020302020302020302020302020302020300A2020312020322020312020302020202020200A2020322020332020312020302020202020200A2020332020342020312020302020202020200A2020342020352020312020302020202020200A2020352020362020312020302020202020200A2020362020312020312020302020202020200A2020312020372020312020312020202020200A2020332020372020312020312020202020200A2020322020382020312020312020202020200A2020312020392020312020362020202020200A2020322031302020312020362020202020200A2020332031312020312020362020202020200A2020362031322020322020302020202020200A4D2020454E44
Contributor: MASS SPECTROSCOPY SOC. OF JAPAN (MSSJ)
InstType: EI
InstName: HITACHI M-80
IoniMethod: _ENERGY 70 eV
IonPolarity: pos
Date: 2010-10-09 19:48:36+02:00
Num Peaks: 49
14 23 15 37 16 15 17 53 18 180 26 25 27 285 28 238 29 102 32 70 
38 27 39 391 40 65 41 691 42 38 43 87 50 34 51 94 52 60 53 162 
54 23 55 105 56 11 57 10 63 29 65 78 66 30 67 126 68 36 69 435 
70 24 77 230 78 56 79 263 80 113 81 39 82 17 91 196 92 92 93 999 
94 133 95 27 105 31 107 43 108 14 121 102 122 9 136 72 137 7 
