Name: MassBank: JP009494
CAS: 108-01-0
MW: 89
Formula: C4H11NO
Synonym: MassBank: JP009494
Synonym: N,N-DIMETHYLETHANOLAMINE
Synonym: 2-DIMETHYLAMINOETHANOL
Structure: 310A31360A4E2C4E2D44494D455448594C455448414E4F4C414D494E452E6D6F6C0A20204368656D447261773031303331303132313732440A2020362020352020302020302020302020302020302020302020302020303939392056323030300A2020202D302E3731343520202020302E3230363220202020302E30303030204E202020302020302020302020302020302020302020302020302020302020302020302020300A20202020302E3731343520202020302E3230363220202020302E303030302043202020302020302020302020302020302020302020302020302020302020302020302020300A2020202D302E3030303020202020302E3631383820202020302E303030302043202020302020302020302020302020302020302020302020302020302020302020302020300A20202020312E3432383920202020302E3631383820202020302E30303030204F202020302020302020302020302020302020302020302020302020302020302020302020300A2020202D302E373134352020202D302E3631383820202020302E303030302043202020302020302020302020302020302020302020302020302020302020302020302020300A2020202D312E3432383920202020302E3631383820202020302E303030302043202020302020302020302020302020302020302020302020302020302020302020302020300A2020322020332020312020302020202020200A2020322020342020312020302020202020200A2020312020332020312020302020202020200A2020312020352020312020302020202020200A2020312020362020312020302020202020200A4D2020454E44
Contributor: NARA WOMEN'S UNIVERSITY
InstType: EI
InstName: HITACHI M-80
IoniMethod: _ENERGY 70 eV
IonPolarity: pos
Date: 2010-10-09 19:48:36+02:00
Num Peaks: 20
15 76 18 10 27 36 28 52 29 49 30 111 31 58 40 12 41 30 42 223 
43 68 44 150 45 35 56 23 57 37 58 999 59 52 88 23 89 73 90 12 
