Name: KARAHANAENONE
MW: 152
Formula: C10H16O
Synonym: MassBank: JP004949
Synonym: KARAHANAENONE
Synonym: 2,2,5-TRIMETHYL-4-CYCLOHEPTEN-1-ONE
Structure: 4B41524148414E41454E4F4E452E6D6F6C0A20204368656D447261773132313930393134353932440A2031312031312020302020302020302020302020302020302020302020303939392056323030300A20202020302E3532373720202020302E3931333420202020302E303030302043202020302020302020302020302020302020302020302020302020302020302020302020300A2020202D302E3239373320202020302E3931333420202020302E303030302043202020302020302020302020302020302020302020302020302020302020302020302020300A2020202D302E3831343920202020302E3237333020202020302E303030302043202020302020302020302020302020302020302020302020302020302020302020302020300A2020202D302E363335332020202D302E3533323220202020302E303030302043202020302020302020302020302020302020302020302020302020302020302020302020300A20202020302E313034312020202D302E3839333920202020302E303030302043202020302020302020302020302020302020302020302020302020302020302020302020300A20202020302E383531322020202D302E3533393620202020302E303030302043202020302020302020302020302020302020302020302020302020302020302020302020300A20202020312E3033383820202020302E3236333820202020302E303030302043202020302020302020302020302020302020302020302020302020302020302020302020300A20202020302E3838393320202020312E3635323820202020302E30303030204F202020302020302020302020302020302020302020302020302020302020302020302020300A20202020302E313034312020202D312E3731383820202020302E303030302043202020302020302020302020302020302020302020302020302020302020302020302020300A2020202D302E3130393720202020312E3731383820202020302E303030302043202020302020302020302020302020302020302020302020302020302020302020302020300A2020202D312E3033383820202020312E3237373120202020302E303030302043202020302020302020302020302020302020302020302020302020302020302020302020300A2020312020322020312020302020202020200A2020322020332020312020302020202020200A2020332020342020312020302020202020200A2020342020352020322020302020202020200A2020352020362020312020302020202020200A2020362020372020312020302020202020200A2020312020372020312020302020202020200A2020312020382020322020302020202020200A2020352020392020312020302020202020200A2020322031302020312020312020202020200A2020322031312020312020362020202020200A4D2020454E44
Contributor: MASS SPECTROSCOPY SOC. OF JAPAN (MSSJ)
InstType: EI
InstName: JEOL JMS-D-3000
IoniMethod: _ENERGY 70 eV
IonPolarity: pos
Date: 2010-10-09 19:48:36+02:00
Num Peaks: 26
42 385 43 183 53 140 55 187 56 93 67 476 68 224 69 146 70 266 77 73 
79 148 81 446 82 129 83 71 84 65 91 71 93 104 94 89 95 648 96 486 
97 264 109 525 110 213 137 198 152 999 153 117 
