Name: MassBank: JP004889
MW: 166
Formula: C11H18O
Synonym: MassBank: JP004889
Synonym: 1,6,6-TRIMETHYLBICYCLO(3.3.0)OCTAN-2-ONE
Structure: 312C362C362D5452494D455448594C42494359434C4F28332E332E30294F4354414E2D322D4F4E452E6D6F6C0A20204368656D447261773131313630393133303732440A2031322031332020302020302020302020302020302020302020302020303939392056323030300A20202020302E3131343820202020302E3339373020202020302E303030302043202020302020302020302020302020302020302020302020302020302020302020302020300A20202020302E3839393420202020302E3635323020202020302E303030302043202020302020302020302020302020302020302020302020302020302020302020302020300A20202020312E333834332020202D302E3031353520202020302E303030302043202020302020302020302020302020302020302020302020302020302020302020302020300A20202020302E383939342020202D302E3638323920202020302E303030302043202020302020302020302020302020302020302020302020302020302020302020302020300A20202020302E313134382020202D302E3432383020202020302E303030302043202020302020302020302020302020302020302020302020302020302020302020302020300A2020202D302E363639382020202D302E3638323920202020302E303030302043202020302020302020302020302020302020302020302020302020302020302020302020300A2020202D312E313534382020202D302E3031353520202020302E303030302043202020302020302020302020302020302020302020302020302020302020302020302020300A2020202D302E3636393820202020302E3635323020202020302E303030302043202020302020302020302020302020302020302020302020302020302020302020302020300A20202020312E3135343320202020312E3433363620202020302E30303030204F202020302020302020302020302020302020302020302020302020302020302020302020300A2020202D312E333834332020202D312E3039353420202020302E303030302043202020302020302020302020302020302020302020302020302020302020302020302020300A2020202D302E333334332020202D312E3433363620202020302E303030302043202020302020302020302020302020302020302020302020302020302020302020302020300A20202020302E3131343820202020312E3232323020202020302E303030302043202020302020302020302020302020302020302020302020302020302020302020302020300A2020312020322020312020302020202020200A2020322020332020312020302020202020200A2020332020342020312020302020202020200A2020342020352020312020302020202020200A2020352020362020312020302020202020200A2020362020372020312020302020202020200A2020372020382020312020302020202020200A2020312020382020312020302020202020200A2020312020352020312020302020202020200A2020322020392020322020302020202020200A2020362031302020312020312020202020200A2020362031312020312020362020202020200A2020312031322020312020302020202020200A4D2020454E44
Contributor: KATO T, DEPT. OF CHEM., FAC. OF SCI., TOHOKU UNIV.
InstType: EI
InstName: Unknown
IoniMethod: _ENERGY 25 eV
IonPolarity: pos
Date: 2010-10-09 19:48:36+02:00
Num Peaks: 35
43 36 55 100 56 29 67 23 68 100 69 336 70 43 77 3 79 52 81 114 
82 150 83 6 91 43 93 71 94 43 95 999 96 107 97 264 98 164 105 3 
107 193 108 43 109 450 110 19 111 57 119 57 122 57 123 10 124 114 131 71 
133 171 151 77 152 114 166 329 167 36 
