Name: 2-OXOPENTANOIC ACID TRIMETHYLSILYL ESTER
MW: 188
Formula: C8H16O3Si
Synonym: MassBank: JP007470
Synonym: 2-OXOPENTANOIC ACID TRIMETHYLSILYL ESTER
Structure: 322D4F584F50454E54414E4F49432041434944205452494D455448594C53494C594C2045535445522E6D6F6C0A20204368656D447261773032323131303132333532440A2031322031312020302020302020302020302020302020302020302020303939392056323030300A20202020302E3230363220202020302E3431323520202020302E303030302043202020302020302020302020302020302020302020302020302020302020302020302020300A2020202D302E3631383820202020302E3431323520202020302E303030302043202020302020302020302020302020302020302020302020302020302020302020302020300A2020202D312E303331332020202D302E3330323020202020302E303030302043202020302020302020302020302020302020302020302020302020302020302020302020300A2020202D312E383536322020202D302E3330323020202020302E303030302043202020302020302020302020302020302020302020302020302020302020302020302020300A2020202D322E323638382020202D312E3031363420202020302E303030302043202020302020302020302020302020302020302020302020302020302020302020302020300A20202020302E3631383820202020312E3132373020202020302E30303030204F202020302020302020302020302020302020302020302020302020302020302020302020300A20202020302E363138382020202D302E3330323020202020302E30303030204F202020302020302020302020302020302020302020302020302020302020302020302020300A2020202D312E3033313320202020312E3132373020202020302E30303030204F202020302020302020302020302020302020302020302020302020302020302020302020300A20202020312E343433382020202D302E3330323020202020302E303030302053692020302020302020302020302020302020302020302020302020302020302020302020300A20202020312E3434333820202020302E3532333020202020302E303030302043202020302020302020302020302020302020302020302020302020302020302020302020300A20202020322E323638382020202D302E3330323020202020302E303030302043202020302020302020302020302020302020302020302020302020302020302020302020300A20202020312E343433382020202D312E3132373020202020302E303030302043202020302020302020302020302020302020302020302020302020302020302020302020300A2020312020322020312020302020202020200A2020322020332020312020302020202020200A2020332020342020312020302020202020200A2020342020352020312020302020202020200A2020312020362020322020302020202020200A2020312020372020312020302020202020200A2020322020382020322020302020202020200A2020392031302020312020302020202020200A2020392031312020312020302020202020200A2020392031322020312020302020202020200A2020372020392020312020302020202020200A4D2020454E44
Contributor: KOGA M, UNIV. OF OCCUPATIONAL AND ENVIRONMENTAL HEALTH
InstType: EI
InstName: JEOL JMS-01-SG
IoniMethod: _ENERGY 70 eV
IonPolarity: pos
Date: 2010-10-09 19:48:36+02:00
Num Peaks: 25
43 95 44 22 45 89 47 3 55 16 58 42 59 16 61 1 71 39 72 19 
73 999 74 9 75 252 76 28 77 33 87 3 101 78 117 19 129 112 130 1 
131 28 144 25 147 11 173 2 188 16 
