Name: CYCLODECYL PROPIONATE
MW: 212
Formula: C13H24O2
Synonym: MassBank: JP006919
Synonym: CYCLODECYL PROPIONATE
Structure: 4359434C4F444543594C2050524F50494F4E4154452E6D6F6C0A20204368656D447261773039313531303035323332440A2031352031352020302020302020302020302020302020302020302020303939392056323030300A2020202D312E3333343920202020302E3633343820202020302E303030302043202020302020302020302020302020302020302020302020302020302020302020302020300A2020202D322E3135393920202020302E3633343820202020302E303030302043202020302020302020302020302020302020302020302020302020302020302020302020300A2020202D322E353732342020202D302E3037393720202020302E303030302043202020302020302020302020302020302020302020302020302020302020302020302020300A2020202D302E3932323420202020312E3334393220202020302E30303030204F202020302020302020302020302020302020302020302020302020302020302020302020300A2020202D302E393232342020202D302E3037393720202020302E30303030204F202020302020302020302020302020302020302020302020302020302020302020302020300A2020202D302E303937342020202D302E3037393720202020302E303030302043202020302020302020302020302020302020302020302020302020302020302020302020300A20202020302E3135373620202020302E3730343920202020302E303030302043202020302020302020302020302020302020302020302020302020302020302020302020300A20202020302E3832353020202020312E3138393820202020302E303030302043202020302020302020302020302020302020302020302020302020302020302020302020300A20202020312E3635303020202020312E3138393820202020302E303030302043202020302020302020302020302020302020302020302020302020302020302020302020300A20202020322E3331373420202020302E3730343920202020302E303030302043202020302020302020302020302020302020302020302020302020302020302020302020300A20202020322E353732342020202D302E3037393720202020302E303030302043202020302020302020302020302020302020302020302020302020302020302020302020300A20202020322E333137342020202D302E3836343320202020302E303030302043202020302020302020302020302020302020302020302020302020302020302020302020300A20202020312E363530302020202D312E3334393220202020302E303030302043202020302020302020302020302020302020302020302020302020302020302020302020300A20202020302E383235302020202D312E3334393220202020302E303030302043202020302020302020302020302020302020302020302020302020302020302020302020300A20202020302E313537362020202D302E3836343320202020302E303030302043202020302020302020302020302020302020302020302020302020302020302020302020300A2020312020322020312020302020202020200A2020322020332020312020302020202020200A2020312020342020322020302020202020200A2020312020352020312020302020202020200A2020362020372020312020302020202020200A2020372020382020312020302020202020200A2020382020392020312020302020202020200A2020392031302020312020302020202020200A2031302031312020312020302020202020200A2031312031322020312020302020202020200A2031322031332020312020302020202020200A2031332031342020312020302020202020200A2031342031352020312020302020202020200A2020362031352020312020302020202020200A2020352020362020312020302020202020200A4D2020454E44
Contributor: TAJIMA S, GUNMA COLLEGE OF TECHNOLOGY
InstType: EI
InstName: HITACHI M-80B
IoniMethod: _ENERGY 70 eV
IonPolarity: pos
Date: 2010-10-09 19:48:36+02:00
Num Peaks: 31
27 67 28 21 29 293 39 33 41 230 42 13 43 52 53 27 54 40 55 97 
56 160 57 999 58 33 67 226 68 16 69 41 70 13 75 280 77 11 79 29 
80 222 81 176 82 318 83 97 84 12 95 34 96 18 97 10 110 10 123 102 
138 74 
