Name: 4-CHLOROPHENYL ACETATE
CAS: 876-27-7
MW: 170
Formula: C8H7ClO2
Synonym: MassBank: JP007512
Synonym: 4-CHLOROPHENYL ACETATE
Structure: 342D43484C4F524F5048454E594C20414345544154452E6D6F6C0A20204368656D447261773033323531303131333632440A2031312031312020302020302020302020302020302020302020302020303939392056323030300A2020202D312E343238392020202D302E3431323520202020302E303030302043202020302020302020302020302020302020302020302020302020302020302020302020300A2020202D322E313433342020202D302E3832353020202020302E303030302043202020302020302020302020302020302020302020302020302020302020302020302020300A2020202D312E3432383920202020302E3431323520202020302E30303030204F202020302020302020302020302020302020302020302020302020302020302020302020300A2020202D302E373134352020202D302E3832353020202020302E30303030204F202020302020302020302020302020302020302020302020302020302020302020302020300A20202020302E303030302020202D302E3431323520202020302E303030302043202020302020302020302020302020302020302020302020302020302020302020302020300A20202020302E3030303020202020302E3431323520202020302E303030302043202020302020302020302020302020302020302020302020302020302020302020302020300A20202020302E3731343520202020302E3832353020202020302E303030302043202020302020302020302020302020302020302020302020302020302020302020302020300A20202020312E3432383920202020302E3431323520202020302E303030302043202020302020302020302020302020302020302020302020302020302020302020302020300A20202020312E343238392020202D302E3431323520202020302E303030302043202020302020302020302020302020302020302020302020302020302020302020302020300A20202020302E373134352020202D302E3832353020202020302E303030302043202020302020302020302020302020302020302020302020302020302020302020302020300A20202020322E3134333420202020302E3832353020202020302E3030303020436C2020302020302020302020302020302020302020302020302020302020302020302020300A2020312020322020312020302020202020200A2020312020332020322020302020202020200A2020312020342020312020302020202020200A2020352020362020312020302020202020200A2020362020372020322020302020202020200A2020372020382020312020302020202020200A2020382020392020322020302020202020200A2020392031302020312020302020202020200A2020352031302020322020302020202020200A2020382031312020312020302020202020200A2020342020352020312020302020202020200A4D2020454E44
Contributor: KOGA M, UNIV. OF OCCUPATIONAL AND ENVIRONMENTAL HEALTH
InstType: EI
InstName: JEOL JMS-01-SG
IoniMethod: _ENERGY 70 eV
IonPolarity: pos
Date: 2010-10-09 19:48:36+02:00
Num Peaks: 41
37 28 38 57 39 85 41 1 42 23 43 376 44 27 49 2 50 40 51 14 
53 11 55 1 61 22 62 48 63 115 64 5 65 106 66 13 69 9 72 1 
73 85 74 30 75 52 76 1 77 9 92 13 93 28 94 1 99 104 100 71 
101 33 102 2 111 16 127 16 128 999 129 7 130 331 131 19 170 115 171 1 
172 39 
