Name: 1-CHLORO-2-TRIMETHYLSILOXYETHANE
MW: 152
Formula: C5H13ClOSi
Synonym: MassBank: JP002299
Synonym: 1-CHLORO-2-TRIMETHYLSILOXYETHANE
Structure: 310A32300A312D43484C4F524F2D322D5452494D455448594C53494C4F5859455448414E452E6D6F6C0A20204368656D447261773131313830393030343332440A2020382020372020302020302020302020302020302020302020302020303939392056323030300A20202020312E303731372020202D302E3431323520202020302E303030302043202020302020302020302020302020302020302020302020302020302020302020302020300A20202020302E333537322020202D302E3030303020202020302E303030302043202020302020302020302020302020302020302020302020302020302020302020302020300A2020202D302E333537322020202D302E3431323520202020302E30303030204F202020302020302020302020302020302020302020302020302020302020302020302020300A2020202D312E303731372020202D302E3030303020202020302E303030302053692020302020302020302020302020302020302020302020302020302020302020302020300A2020202D302E3635393220202020302E3731343520202020302E303030302043202020302020302020302020302020302020302020302020302020302020302020302020300A2020202D312E3738363220202020302E3431323520202020302E303030302043202020302020302020302020302020302020302020302020302020302020302020302020300A2020202D312E343834322020202D302E3731343520202020302E303030302043202020302020302020302020302020302020302020302020302020302020302020302020300A20202020312E373836322020202D302E3030303020202020302E3030303020436C2020302020302020302020302020302020302020302020302020302020302020302020300A2020312020322020312020302020202020200A2020332020342020312020302020202020200A2020342020352020312020302020202020200A2020342020362020312020302020202020200A2020342020372020312020302020202020200A2020322020332020312020302020202020200A2020312020382020312020302020202020200A4D2020454E44
Contributor: MASS SPECTROSCOPY SOC. OF JAPAN (MSSJ)
InstType: EI
InstName: JEOL JMS-D-3000
IoniMethod: _ENERGY 70 eV
IonPolarity: pos
Date: 2010-10-09 19:48:36+02:00
Num Peaks: 23
43 41 45 34 47 13 58 11 59 17 63 19 65 23 73 272 74 28 75 23 
79 27 93 999 94 81 95 376 96 27 100 59 102 174 103 19 137 310 138 30 
139 109 140 11 152 0 
