Name: MassBank: JP000488
MW: 133
Formula: C9H11N
Synonym: MassBank: JP000488
Synonym: 1,2,3,4-TETRAHYDROISOQUINOLINE
Structure: 312C322C332C342D5445545241485944524F49534F5155494E4F4C494E452E6D6F6C0A20204368656D447261773130323330393132353232440A2031302031312020302020302020302020302020302020302020302020303939392056323030300A20202020302E3731343520202020302E3832353020202020302E303030302043202020302020302020302020302020302020302020302020302020302020302020302020300A20202020312E3432383920202020302E3431323520202020302E30303030204E202020302020302020302020302020302020302020302020302020302020302020302020300A20202020312E343238392020202D302E3431323520202020302E303030302043202020302020302020302020302020302020302020302020302020302020302020302020300A20202020302E373134352020202D302E3832353020202020302E303030302043202020302020302020302020302020302020302020302020302020302020302020302020300A2020202D302E303030302020202D302E3431323520202020302E303030302043202020302020302020302020302020302020302020302020302020302020302020302020300A2020202D302E373134352020202D302E3832353020202020302E303030302043202020302020302020302020302020302020302020302020302020302020302020302020300A2020202D312E343238392020202D302E3431323520202020302E303030302043202020302020302020302020302020302020302020302020302020302020302020302020300A2020202D312E3432383920202020302E3431323520202020302E303030302043202020302020302020302020302020302020302020302020302020302020302020302020300A2020202D302E3731343520202020302E3832353020202020302E303030302043202020302020302020302020302020302020302020302020302020302020302020302020300A20202020302E3030303020202020302E3431323520202020302E303030302043202020302020302020302020302020302020302020302020302020302020302020302020300A2020312020322020312020302020202020200A2020322020332020312020302020202020200A2020332020342020312020302020202020200A2020342020352020312020302020202020200A2020352020362020312020302020202020200A2020362020372020322020302020202020200A2020372020382020312020302020202020200A2020382020392020322020302020202020200A2020392031302020312020302020202020200A2020312031302020312020302020202020200A2020352031302020322020302020202020200A4D2020454E44
Contributor: SASAKI S, TOYOHASHI UNIV. OF TECH.
InstType: EI
InstName: MX-1303
IoniMethod: _ENERGY 50 eV
IonPolarity: pos
Date: 2010-10-09 19:48:36+02:00
Num Peaks: 92
16 23 17 126 18 504 26 3 27 75 29 21 30 20 31 1 38 30 39 131 
40 27 41 6 42 39 43 36 45 16 50 10 51 200 52 71 53 34 54 3 
55 34 56 18 57 25 58.5 2 60 14 61 12 62 32 63 10 64 32 64.5 55 
65 98 65.5 6 66 28 66.5 19 67 21 68 1 69 23 70 16 70.5 16 71 2 
73 14 74 49 75 66 76 8 77 314 78 357 79 80 80 2 81 16 82 14 
83 18 84 1 85 12 87 11 89 66 90 7 91 66 92 12 93 16 95 2 
97 11 98 14 99 14 100 2 101 39 102 123 103 360 104 95 105 253 106 34 
107 14 110 1 111 11 115 64 116 34 117 15 118 66 119 18 120 16 128 6 
129 144 130 317 131 245 132 999 133 504 134 52 135 18 142 1 143 23 145 12 
146 14 147 34 
