Name: CYCLOHEXENE-4-CARBOXYLIC ACID METHYL ESTER
MW: 140
Formula: C8H12O2
Synonym: MassBank: JP002210
Synonym: CYCLOHEXENE-4-CARBOXYLIC ACID METHYL ESTER
Structure: 4359434C4F484558454E452D342D434152424F58594C49432041434944204D455448594C2045535445522E6D6F6C0A20204368656D447261773039323031303037353432440A2031302031302020302020302020302020302020302020302020302020303939392056323030300A2020202D312E343433382020202D302E3335373220202020302E303030302043202020302020302020302020302020302020302020302020302020302020302020302020300A2020202D312E3033313320202020302E3335373220202020302E303030302043202020302020302020302020302020302020302020302020302020302020302020302020300A2020202D302E3230363320202020302E3335373220202020302E303030302043202020302020302020302020302020302020302020302020302020302020302020302020300A20202020302E323036332020202D302E3335373220202020302E303030302043202020302020302020302020302020302020302020302020302020302020302020302020300A2020202D302E323036322020202D312E3037313720202020302E303030302043202020302020302020302020302020302020302020302020302020302020302020302020300A2020202D312E303331332020202D312E3037313720202020302E303030302043202020302020302020302020302020302020302020302020302020302020302020302020300A20202020312E303331322020202D302E3335373220202020302E303030302043202020302020302020302020302020302020302020302020302020302020302020302020300A20202020312E343433372020202D312E3037313720202020302E30303030204F202020302020302020302020302020302020302020302020302020302020302020302020300A20202020312E3434333820202020302E3335373220202020302E30303030204F202020302020302020302020302020302020302020302020302020302020302020302020300A20202020312E3033313320202020312E3037313720202020302E303030302043202020302020302020302020302020302020302020302020302020302020302020302020300A2020312020322020322020302020202020200A2020322020332020312020302020202020200A2020332020342020312020302020202020200A2020342020352020312020302020202020200A2020352020362020312020302020202020200A2020312020362020312020302020202020200A2020372020382020322020302020202020200A2020372020392020312020302020202020200A2020342020372020312020302020202020200A2020392031302020312020302020202020200A4D2020454E44
Contributor: KOGA M, UNIV. OF OCCUPATIONAL AND ENVIRONMENTAL HEALTH
InstType: EI
InstName: JEOL JMS-01-SG
IoniMethod: _ENERGY 70 eV
IonPolarity: pos
Date: 2010-10-09 19:48:36+02:00
Num Peaks: 38
42 17 45 45 50 45 51 5 52 51 53 160 54 149 55 7 56 11 59 74 
61 17 63 2 65 34 66 57 67 34 68 2 74 63 77 120 78 22 79 53 
80 902 81 999 82 68 91 2 93 22 95 17 97 40 98 1 107 28 108 454 
109 155 110 2 111 28 112 22 125 28 139 1 140 212 141 17 
