Name: 1-METHYL-2-PYRROLIDINONE
CAS: 108-27-0
MW: 99
Formula: C5H9NO
Synonym: MassBank: JP008824
Synonym: 1-METHYL-2-PYRROLIDINONE
Structure: 310A31390A312D4D455448594C2D322D505952524F4C4944494E4F4E452E6D6F6C0A20204368656D447261773131313930393136333032440A2020372020372020302020302020302020302020302020302020302020303939392056323030300A20202020302E323232332020202D302E3339323320202020302E30303030204E202020302020302020302020302020302020302020302020302020302020302020302020300A2020202D302E3236323720202020302E3237353120202020302E303030302043202020302020302020302020302020302020302020302020302020302020302020302020300A2020202D312E3034373320202020302E3032303220202020302E303030302043202020302020302020302020302020302020302020302020302020302020302020302020300A2020202D312E303437332020202D302E3830343820202020302E303030302043202020302020302020302020302020302020302020302020302020302020302020302020300A2020202D302E323632372020202D312E3035393720202020302E303030302043202020302020302020302020302020302020302020302020302020302020302020302020300A2020202D302E3030373720202020312E3035393720202020302E30303030204F202020302020302020302020302020302020302020302020302020302020302020302020300A20202020312E303437332020202D302E3339323320202020302E303030302043202020302020302020302020302020302020302020302020302020302020302020302020300A2020312020322020312020302020202020200A2020322020332020312020302020202020200A2020332020342020312020302020202020200A2020342020352020312020302020202020200A2020312020352020312020302020202020200A2020322020362020322020302020202020200A2020312020372020312020302020202020200A4D2020454E44
Contributor: HISAHIRO HAGIWARA, CHEMICAL RESEARCH INSTITUTE OF NON-AQUEOUSSOLUTIONS TOHOKU UNIV.
InstType: EI
InstName: JEOL JMS-DX-300
IoniMethod: _ENERGY 70 eV
IonPolarity: pos
Date: 2010-10-09 19:48:36+02:00
Num Peaks: 19
30 52 39 88 40 27 41 330 42 430 43 147 44 677 45 2 55 34 56 67 
57 24 58 55 68 40 69 44 70 95 71 129 98 710 99 999 100 85 
