Name: (E)-1-CHLORODIMETHYLSILYL-2-TRIMETHYLSILYLETHYLENE
MW: 192
Formula: C7H17ClSi2
Synonym: MassBank: JP001380
Synonym: (E)-1-CHLORODIMETHYLSILYL-2-TRIMETHYLSILYLETHYLENE
Structure: 2845292D312D43484C4F524F44494D455448594C53494C594C2D322D5452494D455448594C53494C594C455448594C454E452E6D6F6C0A20204368656D447261773130323230393132303332440A2031322031312020302020302020302020302020302020302020302020303939392056323030300A2020202D312E383536332020202D302E3335373220202020302E3030303020436C2020302020302020302020302020302020302020302020302020302020302020302020300A2020202D312E303331332020202D302E3335373220202020302E303030302053692020302020302020302020302020302020302020302020302020302020302020302020300A2020202D302E323036322020202D302E3335373220202020302E303030302043202020302020302020302020302020302020302020302020302020302020302020302020300A2020202D312E3033313320202020302E3436373820202020302E303030302043202020302020302020302020302020302020302020302020302020302020302020302020300A2020202D312E303331332020202D312E3138323220202020302E303030302043202020302020302020302020302020302020302020302020302020302020302020302020300A20202020302E323036322020202D312E3037313720202020302E303030302048202020302020302020302020302020302020302020302020302020302020302020302020300A20202020302E3230363220202020302E3335373220202020302E303030302043202020302020302020302020302020302020302020302020302020302020302020302020300A20202020312E3033313320202020302E3335373220202020302E303030302053692020302020302020302020302020302020302020302020302020302020302020302020300A2020202D302E3230363220202020312E3037313720202020302E303030302048202020302020302020302020302020302020302020302020302020302020302020302020300A20202020312E3835363320202020302E3335373220202020302E303030302043202020302020302020302020302020302020302020302020302020302020302020302020300A20202020312E303331332020202D302E3436373820202020302E303030302043202020302020302020302020302020302020302020302020302020302020302020302020300A20202020312E3033313320202020312E3138323220202020302E303030302043202020302020302020302020302020302020302020302020302020302020302020302020300A2020312020322020312020302020202020200A2020322020332020312020302020202020200A2020322020342020312020302020202020200A2020322020352020312020302020202020200A2020332020362020312020302020202020200A2020332020372020322020302020202020200A2020372020382020312020302020202020200A2020372020392020312020302020202020200A2020382031302020312020302020202020200A2020382031312020312020302020202020200A2020382031322020312020302020202020200A4D2020454E44
Contributor: MASS SPECTROSCOPY SOC. OF JAPAN (MSSJ)
InstType: EI
InstName: JEOL JMS-D-3000
IoniMethod: _ENERGY 70 eV
IonPolarity: pos
Date: 2010-10-09 19:48:36+02:00
Num Peaks: 39
43 106 45 69 53 21 55 36 57 12 58 80 59 123 60 18 63 27 65 45 
67 30 69 20 72 16 73 675 74 11 75 47 81 23 83 999 84 181 85 53 
93 147 94 11 95 58 97 11 98 19 99 526 100 58 101 23 157 25 159 20 
161 25 177 451 178 78 179 185 180 30 181 13 192 73 193 13 194 26 
