Name: MassBank: JP000506
MW: 116
Formula: C6H16N2
Synonym: MassBank: JP000506
Synonym: 2-SEC-BUTYL-1,1-DIMETHYLHYDRAZINE
Structure: 310A32300A322D5345432D425554594C2D312C312D44494D455448594C48594452415A494E452E6D6F6C0A20204368656D447261773032323131303135353932440A2020382020372020302020302020302020302020302020302020302020303939392056323030300A20202020302E323036332020202D302E3731343520202020302E30303030204E202020302020302020302020302020302020302020302020302020302020302020302020300A2020202D302E3230363320202020302E3030303020202020302E30303030204E202020302020302020302020302020302020302020302020302020302020302020302020300A20202020312E303331332020202D302E3731343520202020302E303030302043202020302020302020302020302020302020302020302020302020302020302020302020300A2020202D302E323036332020202D312E3432383920202020302E303030302043202020302020302020302020302020302020302020302020302020302020302020302020300A20202020302E3230363320202020302E3731343520202020302E303030302043202020302020302020302020302020302020302020302020302020302020302020302020300A2020202D302E3230363320202020312E3432383920202020302E303030302043202020302020302020302020302020302020302020302020302020302020302020302020300A2020202D312E3033313320202020312E3432383920202020302E303030302043202020302020302020302020302020302020302020302020302020302020302020302020300A20202020312E3033313220202020302E3731343520202020302E303030302043202020302020302020302020302020302020302020302020302020302020302020302020300A2020312020322020312020302020202020200A2020312020332020312020302020202020200A2020312020342020312020302020202020200A2020352020362020312020302020202020200A2020362020372020312020302020202020200A2020352020382020312020302020202020200A2020322020352020312020302020202020200A4D2020454E44
Contributor: SASAKI S, TOYOHASHI UNIV. OF TECH.
InstType: EI
InstName: SHIMADZU LKB-2091
IoniMethod: _ENERGY 70 eV
IonPolarity: pos
Date: 2010-10-09 19:48:36+02:00
Num Peaks: 28
27 40 28 46 29 54 30 4 31 5 39 13 41 38 42 9 43 57 44 210 
45 150 46 2 55 10 56 10 57 28 58 4 59 999 60 100 70 6 71 1 
72 16 85 5 86 4 87 17 88 10 101 30 116 290 117 31 
