Name: DIISOPROPYL SULFIDE
MW: 118
Formula: C6H14S
Synonym: MassBank: JP009127
Synonym: DIISOPROPYL SULFIDE
Structure: 310A31380A444949534F50524F50594C2053554C464944452E6D6F6C0A20204368656D447261773039323231303030353032440A2020372020362020302020302020302020302020302020302020302020303939392056323030300A2020202D302E303030302020202D302E3631383820202020302E303030302053202020302020302020302020302020302020302020302020302020302020302020302020300A20202020302E373134352020202D302E3230363220202020302E303030302043202020302020302020302020302020302020302020302020302020302020302020302020300A20202020302E3731343520202020302E3631383820202020302E303030302043202020302020302020302020302020302020302020302020302020302020302020302020300A20202020312E343238392020202D302E3631383820202020302E303030302043202020302020302020302020302020302020302020302020302020302020302020302020300A2020202D302E373134352020202D302E3230363320202020302E303030302043202020302020302020302020302020302020302020302020302020302020302020302020300A2020202D312E343238392020202D302E3631383820202020302E303030302043202020302020302020302020302020302020302020302020302020302020302020302020300A2020202D302E3731343520202020302E3631383820202020302E303030302043202020302020302020302020302020302020302020302020302020302020302020302020300A2020322020332020312020302020202020200A2020322020342020312020302020202020200A2020312020322020312020302020202020200A2020352020362020312020302020202020200A2020352020372020312020302020202020200A2020312020352020312020302020202020200A4D2020454E44
Contributor: SODA AROMATIC CO., LTD.
InstType: EI
InstName: HITACHI M-80B
IoniMethod: _ENERGY 70 eV
IonPolarity: pos
Date: 2010-10-09 19:48:36+02:00
Num Peaks: 32
15 27 26 14 27 276 29 10 35 13 38 23 39 260 40 30 41 525 42 123 
43 999 44 25 45 98 46 12 47 107 49 19 58 42 59 195 60 102 61 923 
62 24 63 32 74 26 75 108 76 189 77 32 103 454 104 22 105 14 118 299 
119 20 120 13 
