Name: ISOBORNYL BUTYRATE
MW: 224
Formula: C14H24O2
Synonym: MassBank: JP006405
Synonym: ISOBORNYL BUTYRATE
Structure: 313132395F49534F424F524E594C2042555459524154452E6D6F6C0A20204368656D447261773039303731303131313232440A2031362031372020302020302020302020302020302020302020302020303939392056323030300A20202020302E343934352020202D302E3330323520202020302E303030302043202020302020302020302020302020302020302020302020302020302020302020302020300A20202020312E323931342020202D302E3038393020202020302E303030302043202020302020302020302020302020302020302020302020302020302020302020302020300A20202020312E383734382020202D302E3637323320202020302E303030302043202020302020302020302020302020302020302020302020302020302020302020302020300A20202020322E363731362020202D302E3435383820202020302E303030302043202020302020302020302020302020302020302020302020302020302020302020302020300A20202020302E323831302020202D312E3039393420202020302E30303030204F202020302020302020302020302020302020302020302020302020302020302020302020300A2020202D302E3038383920202020302E3238303920202020302E30303030204F202020302020302020302020302020302020302020302020302020302020302020302020300A2020202D312E3132373120202020302E3030333320202020302E303030302043202020302020302020302020302020302020302020302020302020302020302020302020300A2020202D312E313237312020202D302E3830313120202020302E303030302043202020302020302020302020302020302020302020302020302020302020302020302020300A2020202D312E383930382020202D312E3036303320202020302E303030302043202020302020302020302020302020302020302020302020302020302020302020302020300A2020202D322E363731362020202D302E3830313020202020302E303030302043202020302020302020302020302020302020302020302020302020302020302020302020300A2020202D322E3637313620202020302E3032343020202020302E303030302043202020302020302020302020302020302020302020302020302020302020302020302020300A2020202D312E3837363120202020302E3237343520202020302E303030302043202020302020302020302020302020302020302020302020302020302020302020302020300A2020202D312E343136302020202D302E3338323220202020302E303030302043202020302020302020302020302020302020302020302020302020302020302020302020300A2020202D302E383937392020202D312E3034383620202020302E303030302043202020302020302020302020302020302020302020302020302020302020302020302020300A2020202D302E3438323620202020302E3535313220202020302E303030302043202020302020302020302020302020302020302020302020302020302020302020302020300A2020202D312E3837363120202020312E3039393420202020302E303030302043202020302020302020302020302020302020302020302020302020302020302020302020300A2020312020322020312020302020202020200A2020322020332020312020302020202020200A2020332020342020312020302020202020200A2020312020352020322020302020202020200A2020312020362020312020302020202020200A2020372020382020312020302020202020200A2020382020392020312020302020202020200A2020392031302020312020302020202020200A2031302031312020312020302020202020200A2031312031322020312020302020202020200A2020372031322020312020302020202020200A2031322031332020312020302020202020200A2020392031332020312020302020202020200A2031332031342020312020312020202020200A2031332031352020312020312020202020200A2031322031362020312020302020202020200A2020362020372020312020302020202020200A4D2020454E44
Contributor: HISAHIRO HAGIWARA, CHEMICAL RESEARCH INSTITUTE OF NON-AQUEOUSSOLUTIONS TOHOKU UNIV.
InstType: EI
InstName: HITACHI M-80B
IoniMethod: _ENERGY 70 eV
IonPolarity: pos
Date: 2010-10-09 19:48:36+02:00
Num Peaks: 60
27 184 28 22 29 111 39 137 40 29 41 523 42 58 43 824 44 28 45 15 
51 14 53 93 54 18 55 217 56 16 57 42 60 22 65 28 66 14 67 166 
68 84 69 218 70 20 71 999 72 60 73 11 77 67 78 14 79 105 80 65 
81 194 82 87 83 65 84 23 91 58 92 101 93 388 94 62 95 818 96 66 
97 24 105 20 107 91 108 396 109 362 110 243 111 53 121 391 122 34 123 19 
135 34 136 713 137 184 138 14 139 24 152 11 153 33 154 130 155 15 224 30 
