Name: MEPHENYTOIN
MW: 218
Formula: C12H14N2O2
Synonym: MassBank: JP003818
Synonym: MEPHENYTOIN
Structure: 303731375F4D455048454E59544F494E2E6D6F6C0A20204368656D447261773039303631303139353532440A2031362031372020302020302020302020302020302020302020302020303939392056323030300A2020202D322E313334382020202D302E3436303320202020302E303030302043202020302020302020302020302020302020302020302020302020302020302020302020300A2020202D322E313334382020202D312E3238353320202020302E303030302043202020302020302020302020302020302020302020302020302020302020302020302020300A2020202D312E343230332020202D312E3639373820202020302E303030302043202020302020302020302020302020302020302020302020302020302020302020302020300A2020202D302E373035392020202D312E3238353320202020302E303030302043202020302020302020302020302020302020302020302020302020302020302020302020300A2020202D302E373035392020202D302E3436303320202020302E303030302043202020302020302020302020302020302020302020302020302020302020302020302020300A2020202D312E343230332020202D302E3034373820202020302E303030302043202020302020302020302020302020302020302020302020302020302020302020302020300A20202020302E303038362020202D302E3034373820202020302E303030302043202020302020302020302020302020302020302020302020302020302020302020302020300A20202020302E373632332020202D302E3338333420202020302E30303030204E202020302020302020302020302020302020302020302020302020302020302020302020300A20202020312E3331343320202020302E3232393720202020302E303030302043202020302020302020302020302020302020302020302020302020302020302020302020300A20202020302E3930313820202020302E3934343220202020302E30303030204E202020302020302020302020302020302020302020302020302020302020302020302020300A20202020302E3039343820202020302E3737323620202020302E303030302043202020302020302020302020302020302020302020302020302020302020302020302020300A2020202D302E3531383220202020312E3332343720202020302E30303030204F202020302020302020302020302020302020302020302020302020302020302020302020300A2020202D302E3638333320202020302E3430313520202020302E303030302043202020302020302020302020302020302020302020302020302020302020302020302020300A2020202D312E3438303320202020302E3631343520202020302E303030302043202020302020302020302020302020302020302020302020302020302020302020302020300A20202020322E3133343820202020302E3134333520202020302E30303030204F202020302020302020302020302020302020302020302020302020302020302020302020300A20202020312E3233373420202020312E3639373820202020302E303030302043202020302020302020302020302020302020302020302020302020302020302020302020300A2020312020322020322020302020202020200A2020322020332020312020302020202020200A2020332020342020322020302020202020200A2020342020352020312020302020202020200A2020352020362020322020302020202020200A2020362020312020312020302020202020200A2020352020372020312020302020202020200A2020372020382020312020302020202020200A2020382020392020312020302020202020200A2020392031302020312020302020202020200A2031302031312020312020302020202020200A2031312020372020312020302020202020200A2031312031322020322020302020202020200A2020372031332020312020302020202020200A2031332031342020312020302020202020200A2020392031352020322020302020202020200A2031302031362020312020302020202020200A4D2020454E44
Contributor: SASAKI S, TOYOHASHI UNIV. OF TECH.
InstType: EI
InstName: Unknown
IoniMethod: _ENERGY 70 eV
IonPolarity: pos
Date: 2010-10-09 19:48:36+02:00
Num Peaks: 32
50 29 51 99 52 19 53 0 54 14 55 4 56 39 75 1 76 39 77 229 
78 29 89 1 90 4 91 44 102 9 103 6 104 860 105 89 116 39 117 1 
118 34 119 19 132 54 133 1 160 14 161 9 189 999 190 12 191 9 203 19 
218 54 219 9 
