Name: ALLYL ISOTHIOCYANATE
CAS: 57-06-7
MW: 99
Formula: C4H5NS
Synonym: MassBank: JP009050
Synonym: ALLYL ISOTHIOCYANATE
Structure: 310A31360A414C4C594C2049534F5448494F4359414E4154452E6D6F6C0A20204368656D447261773038303631303034323432440A2020362020352020302020302020302020302020302020302020302020303939392056323030300A2020202D302E3335373220202020302E3030303020202020302E303030302043202020302020302020302020302020302020302020302020302020302020302020302020300A2020202D312E303731372020202D302E3431323520202020302E303030302043202020302020302020302020302020302020302020302020302020302020302020302020300A2020202D312E373836322020202D302E3030303020202020302E303030302043202020302020302020302020302020302020302020302020302020302020302020302020300A20202020302E333537322020202D302E3431323520202020302E30303030204E202020302020302020302020302020302020302020302020302020302020302020302020300A20202020312E3037313720202020302E3030303020202020302E303030302043202020302020302020302020302020302020302020302020302020302020302020302020300A20202020312E3738363220202020302E3431323520202020302E303030302053202020302020302020302020302020302020302020302020302020302020302020302020300A2020312020322020312020302020202020200A2020322020332020322020302020202020200A2020342020352020322020302020202020200A2020352020362020322020302020202020200A2020312020342020312020302020202020200A4D2020454E44
Contributor: SODA AROMATIC CO., LTD.
InstType: EI
InstName: HITACHI M-80B
IoniMethod: _ENERGY 70 eV
IonPolarity: pos
Date: 2010-10-09 19:48:36+02:00
Num Peaks: 27
32 40 37 66 38 121 39 764 40 80 41 880 42 28 44 79 45 123 46 19 
51 12 52 12 54 11 58 59 59 57 60 21 67 12 69 15 70 80 71 97 
72 319 73 16 74 11 98 58 99 999 100 58 101 45 
