Name: MassBank: JP004887
MW: 164
Formula: C11H16O
Synonym: MassBank: JP004887
Synonym: 6,8,8-TRIMETHYLBICYCLO(3.2.1)OCT-6-EN-2-ONE
Structure: 362C382C382D5452494D455448594C42494359434C4F28332E322E31294F43542D362D454E2D322D4F4E452E6D6F6C0A20204368656D447261773035313331303231303932440A2031322031332020302020302020302020302020302020302020302020303939392056323030300A2020202D302E3930333620202020302E3431323520202020302E303030302043202020302020302020302020302020302020302020302020302020302020302020302020300A2020202D302E393033362020202D302E3431323520202020302E303030302043202020302020302020302020302020302020302020302020302020302020302020302020300A2020202D302E323538362020202D302E3932363920202020302E303030302043202020302020302020302020302020302020302020302020302020302020302020302020300A20202020302E353435372020202D302E3734333320202020302E303030302043202020302020302020302020302020302020302020302020302020302020302020302020300A20202020302E393033362020202D302E3030303020202020302E303030302043202020302020302020302020302020302020302020302020302020302020302020302020300A20202020302E3534353720202020302E3734333320202020302E303030302043202020302020302020302020302020302020302020302020302020302020302020302020300A2020202D302E3235383620202020302E3932363920202020302E303030302043202020302020302020302020302020302020302020302020302020302020302020302020300A2020202D302E3434323220202020312E3733313220202020302E30303030204F202020302020302020302020302020302020302020302020302020302020302020302020300A2020202D302E3130363820202020302E3139393020202020302E303030302043202020302020302020302020302020302020302020302020302020302020302020302020300A2020202D302E343432322020202D312E3733313220202020302E303030302043202020302020302020302020302020302020302020302020302020302020302020302020300A2020202D302E353139332020202D302E3531353520202020302E303030302043202020302020302020302020302020302020302020302020302020302020302020302020300A20202020302E3330353720202020302E3931333420202020302E303030302043202020302020302020302020302020302020302020302020302020302020302020302020300A2020312020322020312020302020202020200A2020322020332020322020302020202020200A2020332020342020312020302020202020200A2020342020352020312020302020202020200A2020352020362020312020302020202020200A2020362020372020312020302020202020200A2020372020312020312020302020202020200A2020372020382020322020302020202020200A2020312020392020312020302020202020200A2020392020342020312020302020202020200A2020332031302020312020302020202020200A2020392031312020312020312020202020200A2020392031322020312020312020202020200A4D2020454E44
Contributor: KATO T, DEPT. OF CHEM., FAC. OF SCI., TOHOKU UNIV.
InstType: EI
InstName: Unknown
IoniMethod: _ENERGY 25 eV
IonPolarity: pos
Date: 2010-10-09 19:48:36+02:00
Num Peaks: 36
28 580 29 23 32 214 41 3 43 38 55 31 57 23 67 2 77 53 79 84 
80 31 81 2 91 145 92 31 93 999 94 15 95 23 105 130 106 31 107 14 
108 809 109 176 110 23 119 3 120 111 122 176 123 15 129 2 131 46 135 42 
136 61 146 7 147 11 149 31 164 237 165 46 
