Name: MassBank: JP001416
MW: 225
Formula: C8Cl2N2O2
Synonym: MassBank: JP001416
Synonym: 2,3-DICHLORO-5,6-DICYANO-P-BENZOQUINONE
Structure: 322C332D444943484C4F524F2D352C362D44494359414E4F2D502D42454E5A4F5155494E4F4E452E6D6F6C0A20204368656D447261773132323030393131323232440A2031342031342020302020302020302020302020302020302020302020303939392056323030300A20202020302E3832353020202020302E3335373220202020302E303030302043202020302020302020302020302020302020302020302020302020302020302020302020300A20202020312E323337352020202D302E3335373220202020302E303030302043202020302020302020302020302020302020302020302020302020302020302020302020300A20202020302E383235302020202D312E3037313720202020302E303030302043202020302020302020302020302020302020302020302020302020302020302020302020300A20202020302E303030302020202D312E3037313720202020302E303030302043202020302020302020302020302020302020302020302020302020302020302020302020300A2020202D302E343132352020202D302E3335373220202020302E303030302043202020302020302020302020302020302020302020302020302020302020302020302020300A20202020302E3030303020202020302E3335373220202020302E303030302043202020302020302020302020302020302020302020302020302020302020302020302020300A2020202D302E343132352020202D312E3738363220202020302E30303030204F202020302020302020302020302020302020302020302020302020302020302020302020300A20202020312E3233373520202020312E3037313720202020302E30303030204F202020302020302020302020302020302020302020302020302020302020302020302020300A2020202D302E3431323520202020312E3037313720202020302E303030302043202020302020302020302020302020302020302020302020302020302020302020302020300A2020202D302E3832353020202020312E3738363220202020302E30303030204E202020302020302020302020302020302020302020302020302020302020302020302020300A2020202D312E323337352020202D302E3335373220202020302E303030302043202020302020302020302020302020302020302020302020302020302020302020302020300A2020202D322E303632352020202D302E3335373220202020302E30303030204E202020302020302020302020302020302020302020302020302020302020302020302020300A20202020312E323337352020202D312E3738363220202020302E3030303020436C2020302020302020302020302020302020302020302020302020302020302020302020300A20202020322E303632352020202D302E3335373220202020302E3030303020436C2020302020302020302020302020302020302020302020302020302020302020302020300A2020312020322020312020302020202020200A2020322020332020322020302020202020200A2020332020342020312020302020202020200A2020342020352020312020302020202020200A2020352020362020322020302020202020200A2020312020362020312020302020202020200A2020342020372020322020302020202020200A2020312020382020322020302020202020200A2020392031302020332020302020202020200A2020362020392020312020302020202020200A2031312031322020332020302020202020200A2020352031312020312020302020202020200A2020332031332020312020302020202020200A2020322031342020312020302020202020200A4D2020454E44
Contributor: HASHIMOTO K, KYOTO COLLEGE OF PHARMACY
InstType: EI
InstName: HITACHI M-80
IoniMethod: _ENERGY 20 eV
IonPolarity: pos
Date: 2010-10-09 19:48:36+02:00
Num Peaks: 41
57 10 71 17 76 42 85 2 87 167 89 56 94 53 95 1 96 33 97 17 
104 45 111 3 122 232 124 142 126 16 129 3 135 46 136 10 137 46 150 4 
152 10 163 75 165 30 170 69 171 56 172 460 173 49 174 8 191 94 192 25 
193 53 198 38 199 38 200 402 226 999 227 10 228 985 229 105 230 333 231 3 
232 35 
