Name: MassBank: JP000120
MW: 154
Formula: C10H18O
Synonym: MassBank: JP000120
Synonym: 3,7-DIMETHYL-2,6-OCTADIEN-1-OL(TRANS)
Synonym: GERANIOL
Structure: 332C372D44494D455448594C2D322C362D4F4354414449454E2D312D4F4C285452414E53292E6D6F6C0A20204368656D447261773032323231303033353732440A2031312031302020302020302020302020302020302020302020302020303939392056323030300A20202020312E363530302020202D302E3731343520202020302E303030302043202020302020302020302020302020302020302020302020302020302020302020302020300A20202020312E3233373520202020302E3030303020202020302E303030302043202020302020302020302020302020302020302020302020302020302020302020302020300A20202020302E3431323520202020302E3030303020202020302E303030302043202020302020302020302020302020302020302020302020302020302020302020302020300A20202020302E3030303020202020302E3731343520202020302E303030302043202020302020302020302020302020302020302020302020302020302020302020302020300A2020202D302E3832353020202020302E3731343520202020302E303030302043202020302020302020302020302020302020302020302020302020302020302020302020300A2020202D312E323337352020202D302E3030303020202020302E303030302043202020302020302020302020302020302020302020302020302020302020302020302020300A2020202D322E303632352020202D302E3030303020202020302E303030302043202020302020302020302020302020302020302020302020302020302020302020302020300A2020202D322E343735302020202D302E3731343520202020302E303030302043202020302020302020302020302020302020302020302020302020302020302020302020300A20202020322E343735302020202D302E3731343520202020302E30303030204F202020302020302020302020302020302020302020302020302020302020302020302020300A2020202D322E3437353020202020302E3731343520202020302E303030302043202020302020302020302020302020302020302020302020302020302020302020302020300A2020202D302E303030302020202D302E3731343520202020302E303030302043202020302020302020302020302020302020302020302020302020302020302020302020300A2020312020322020312020302020202020200A2020322020332020322020302020202020200A2020332020342020312020302020202020200A2020342020352020312020302020202020200A2020352020362020312020302020202020200A2020362020372020322020302020202020200A2020372020382020312020302020202020200A2020312020392020312020302020202020200A2020372031302020312020302020202020200A2020332031312020312020302020202020200A4D2020454E44
Contributor: YAMAMOTO M, DEP. CHEMISTRY, FAC. SCIENCE, NARA WOMEN'S UNIV.
InstType: EI
InstName: HITACHI RMU-6M
IoniMethod: _ENERGY 70 eV
IonPolarity: pos
Date: 2010-10-09 19:48:36+02:00
Num Peaks: 60
27 131 28 41 29 131 31 31 32 9 38 6 39 195 40 36 41 886 42 48 
43 51 44 6 45 5 50 8 51 27 52 12 53 102 54 13 55 76 56 20 
57 40 59 23 63 6 65 22 66 9 67 108 68 190 69 999 70 73 71 64 
72 7 77 31 78 6 79 35 80 44 81 49 82 10 83 32 84 62 85 17 
91 27 92 23 93 113 94 19 95 18 96 21 97 13 98 8 105 8 107 15 
109 10 110 8 111 42 112 7 121 40 123 70 124 6 136 29 139 13 154 23 
