Name: (E)-1-TRIMETHYLGERMYL-2-TRIMETHYLSILYLETHYLENE
MW: 218
Formula: C8H20GeSi
Synonym: MassBank: JP001339
Synonym: (E)-1-TRIMETHYLGERMYL-2-TRIMETHYLSILYLETHYLENE
Structure: 2845292D312D5452494D455448594C4745524D594C2D322D5452494D455448594C53494C594C455448594C454E452E6D6F6C0A20204368656D447261773130323230393132353432440A2031322031312020302020302020302020302020302020302020302020303939392056323030300A2020202D312E383536332020202D302E3335373220202020302E303030302043202020302020302020302020302020302020302020302020302020302020302020302020300A2020202D312E303331332020202D302E3335373220202020302E303030302047652020302020302020302020302020302020302020302020302020302020302020302020300A2020202D302E323036322020202D302E3335373220202020302E303030302043202020302020302020302020302020302020302020302020302020302020302020302020300A20202020302E3230363220202020302E3335373220202020302E303030302043202020302020302020302020302020302020302020302020302020302020302020302020300A20202020302E323036322020202D312E3037313720202020302E303030302048202020302020302020302020302020302020302020302020302020302020302020302020300A20202020312E3033313320202020302E3335373220202020302E303030302053692020302020302020302020302020302020302020302020302020302020302020302020300A2020202D302E3230363320202020312E3037313720202020302E303030302048202020302020302020302020302020302020302020302020302020302020302020302020300A20202020312E3835363320202020302E3335373220202020302E303030302043202020302020302020302020302020302020302020302020302020302020302020302020300A20202020312E3033313320202020312E3138323220202020302E303030302043202020302020302020302020302020302020302020302020302020302020302020302020300A20202020312E303331332020202D302E3436373820202020302E303030302043202020302020302020302020302020302020302020302020302020302020302020302020300A2020202D312E3033313320202020302E3436373820202020302E303030302043202020302020302020302020302020302020302020302020302020302020302020302020300A2020202D312E303331332020202D312E3138323220202020302E303030302043202020302020302020302020302020302020302020302020302020302020302020302020300A2020312020322020312020302020202020200A2020322020332020312020302020202020200A2020332020342020322020302020202020200A2020332020352020312020302020202020200A2020342020362020312020302020202020200A2020342020372020312020302020202020200A2020362020382020312020302020202020200A2020362020392020312020312020202020200A2020362031302020312020312020202020200A2020322031312020312020312020202020200A2020322031322020312020312020202020200A4D2020454E44
Contributor: MASS SPECTROSCOPY SOC. OF JAPAN (MSSJ)
InstType: EI
InstName: JEOL JMS-D-3000
IoniMethod: _ENERGY 70 eV
IonPolarity: pos
Date: 2010-10-09 19:48:36+02:00
Num Peaks: 55
43 65 45 141 53 12 55 25 58 22 59 31 67 10 69 11 73 999 74 79 
75 39 83 101 84 16 85 44 87 65 88 19 89 88 91 31 93 13 94 17 
97 21 99 81 100 27 101 166 102 36 103 226 104 103 105 283 106 17 107 62 
115 316 116 14 117 420 118 137 119 550 120 21 121 119 125 29 127 41 128 16 
129 55 131 15 199 299 200 39 201 421 202 171 203 575 204 79 205 144 206 17 
214 30 216 42 217 18 218 57 220 14 
