Name: DI-ISOPROPYLMETHYLCHLOROSILANE
MW: 164
Formula: C7H17ClSi
Synonym: MassBank: JP001449
Synonym: DI-ISOPROPYLMETHYLCHLOROSILANE
Structure: 310A32320A44492D49534F50524F50594C4D455448594C43484C4F524F53494C414E452E6D6F6C0A20204368656D447261773039323131303134303932440A2020392020382020302020302020302020302020302020302020302020303939392056323030300A2020202D302E323036332020202D302E3230363320202020302E303030302053692020302020302020302020302020302020302020302020302020302020302020302020300A2020202D302E323036332020202D312E3033313320202020302E3030303020436C2020302020302020302020302020302020302020302020302020302020302020302020300A2020202D312E303331332020202D302E3230363320202020302E303030302043202020302020302020302020302020302020302020302020302020302020302020302020300A2020202D302E3230363320202020302E3631383720202020302E303030302043202020302020302020302020302020302020302020302020302020302020302020302020300A20202020302E3530383220202020312E3033313320202020302E303030302043202020302020302020302020302020302020302020302020302020302020302020302020300A2020202D302E3932303720202020312E3033313320202020302E303030302043202020302020302020302020302020302020302020302020302020302020302020302020300A20202020302E363138372020202D302E3230363320202020302E303030302043202020302020302020302020302020302020302020302020302020302020302020302020300A20202020312E3033313320202020302E3530383220202020302E303030302043202020302020302020302020302020302020302020302020302020302020302020302020300A20202020312E303331332020202D302E3932303720202020302E303030302043202020302020302020302020302020302020302020302020302020302020302020302020300A2020312020322020312020302020202020200A2020312020332020312020302020202020200A2020342020352020312020302020202020200A2020342020362020312020302020202020200A2020312020342020312020302020202020200A2020372020382020312020302020202020200A2020372020392020312020302020202020200A2020312020372020312020302020202020200A4D2020454E44
Contributor: MASS SPECTROSCOPY SOC. OF JAPAN (MSSJ)
InstType: EI
InstName: JEOL JMS-D-3000
IoniMethod: _ENERGY 70 eV
IonPolarity: pos
Date: 2010-10-09 19:48:36+02:00
Num Peaks: 28
42 27 43 43 58 19 59 25 63 64 65 49 67 15 75 24 78 48 79 177 
80 30 81 52 85 15 93 999 94 81 95 359 96 27 97 11 105 23 107 10 
121 332 122 36 123 111 124 11 129 12 164 70 165 10 166 25 
