Name: HELIOTROPYL ACETATE
MW: 194
Formula: C10H10O4
Synonym: MassBank: JP006383
Synonym: HELIOTROPYL ACETATE
Synonym: 3,4-METHYLENEDIOXYBENZYL ACETATE
Structure: 48454C494F54524F50594C20414345544154452E6D6F6C0A20204368656D447261773032323131303233303432440A2031342031352020302020302020302020302020302020302020302020303939392056323030300A20202020322E3036333720202020302E3431323520202020302E303030302043202020302020302020302020302020302020302020302020302020302020302020302020300A20202020322E3737383220202020302E3030303020202020302E303030302043202020302020302020302020302020302020302020302020302020302020302020302020300A20202020322E3036333720202020312E3233373520202020302E30303030204F202020302020302020302020302020302020302020302020302020302020302020302020300A20202020312E3334393220202020302E3030303020202020302E30303030204F202020302020302020302020302020302020302020302020302020302020302020302020300A20202020302E3633343820202020302E3431323520202020302E303030302043202020302020302020302020302020302020302020302020302020302020302020302020300A2020202D302E3037393720202020302E3030303020202020302E303030302043202020302020302020302020302020302020302020302020302020302020302020302020300A2020202D302E3739343220202020302E3431323520202020302E303030302043202020302020302020302020302020302020302020302020302020302020302020302020300A2020202D312E3530383620202020302E3030303020202020302E303030302043202020302020302020302020302020302020302020302020302020302020302020302020300A2020202D312E353038362020202D302E3832353020202020302E303030302043202020302020302020302020302020302020302020302020302020302020302020302020300A2020202D302E373934322020202D312E3233373520202020302E303030302043202020302020302020302020302020302020302020302020302020302020302020302020300A2020202D302E303739372020202D302E3832353020202020302E303030302043202020302020302020302020302020302020302020302020302020302020302020302020300A2020202D322E373738322020202D302E3431323520202020302E303030302043202020302020302020302020302020302020302020302020302020302020302020302020300A2020202D322E3239333320202020302E3235343920202020302E30303030204F202020302020302020302020302020302020302020302020302020302020302020302020300A2020202D322E323933332020202D312E3037393920202020302E30303030204F202020302020302020302020302020302020302020302020302020302020302020302020300A2020312020322020312020302020202020200A2020312020332020322020302020202020200A2020312020342020312020302020202020200A2020352020362020312020302020202020200A2020362020372020312020302020202020200A2020372020382020322020302020202020200A2020382020392020312020302020202020200A2020392031302020322020302020202020200A2031302031312020312020302020202020200A2020362031312020322020302020202020200A2031322031332020312020302020202020200A2031322031342020312020302020202020200A2020382031332020312020302020202020200A2020392031342020312020302020202020200A2020342020352020312020302020202020200A4D2020454E44
Contributor: HISAHIRO HAGIWARA, CHEMICAL RESEARCH INSTITUTE OF NON-AQUEOUSSOLUTIONS TOHOKU UNIV.
InstType: EI
InstName: HITACHI M-80B
IoniMethod: _ENERGY 70 eV
IonPolarity: pos
Date: 2010-10-09 19:48:36+02:00
Num Peaks: 42
15 31 27 12 29 23 38 21 39 79 42 15 43 289 50 59 51 190 52 17 
53 28 62 27 63 81 64 21 65 143 66 19 67 31 74 13 75 12 76 130 
77 227 78 34 79 50 91 13 93 112 94 22 104 105 105 101 106 13 121 35 
122 109 123 49 134 385 135 999 136 92 149 45 150 15 151 75 152 560 153 44 
194 636 195 72 
