Name: MassBank: JP000972
CAS: 76-44-8
MW: 369
Formula: C10H5Cl7
Synonym: MassBank: JP000972
Synonym: 1,4,5,6,7,8,8-HEPTACHLORO-3A,4,7,7A-TETRAHYDRO-4,7-METHANOINDENE
Synonym: HEPTACHLOR
Structure: 312C342C352C362C372C382C382D484550544143484C4F524F2D33412C342C372C37412D5445545241485944524F2D342C372D4D455448414E4F494E44454E452E6D6F6C0A20204368656D447261773131313230393132313232440A2031392032312020302020302020302020302020302020302020302020303939392056323030300A2020202D312E3430343520202020302E3431323520202020302E303030302043202020302020302020302020302020302020302020302020302020302020302020302020300A2020202D312E343034352020202D302E3431323520202020302E303030302043202020302020302020302020302020302020302020302020302020302020302020302020300A2020202D302E363930302020202D302E3832353020202020302E303030302043202020302020302020302020302020302020302020302020302020302020302020302020300A20202020302E303234342020202D302E3431323520202020302E303030302043202020302020302020302020302020302020302020302020302020302020302020302020300A20202020302E3032343420202020302E3431323520202020302E303030302043202020302020302020302020302020302020302020302020302020302020302020302020300A2020202D302E3639303020202020302E3832353020202020302E303030302043202020302020302020302020302020302020302020302020302020302020302020302020300A20202020302E383039312020202D302E3636373420202020302E303030302043202020302020302020302020302020302020302020302020302020302020302020302020300A20202020312E3239343020202020302E3030303020202020302E303030302043202020302020302020302020302020302020302020302020302020302020302020302020300A20202020302E3830393120202020302E3636373420202020302E303030302043202020302020302020302020302020302020302020302020302020302020302020302020300A2020202D302E3237373520202020302E3131303520202020302E303030302043202020302020302020302020302020302020302020302020302020302020302020302020300A20202020312E3036343020202020312E3435323120202020302E3030303020436C2020302020302020302020302020302020302020302020302020302020302020302020300A20202020322E3131393020202020302E3030303020202020302E303030302048202020302020302020302020302020302020302020302020302020302020302020302020300A20202020312E303634302020202D312E3435323120202020302E303030302048202020302020302020302020302020302020302020302020302020302020302020302020300A2020202D302E363930302020202D312E3635303020202020302E3030303020436C2020302020302020302020302020302020302020302020302020302020302020302020300A2020202D322E313139302020202D302E3832353020202020302E3030303020436C2020302020302020302020302020302020302020302020302020302020302020302020300A2020202D322E3131393020202020302E3832353020202020302E3030303020436C2020302020302020302020302020302020302020302020302020302020302020302020300A2020202D302E3639303020202020312E3635303020202020302E3030303020436C2020302020302020302020302020302020302020302020302020302020302020302020300A20202020302E3534363320202020302E3135353220202020302E3030303020436C2020302020302020302020302020302020302020302020302020302020302020302020300A2020202D312E3130313320202020302E3036353920202020302E3030303020436C2020302020302020302020302020302020302020302020302020302020302020302020300A2020312020322020322020302020202020200A2020322020332020312020302020202020200A2020332020342020312020302020202020200A2020342020352020312020302020202020200A2020352020362020312020302020202020200A2020362020312020312020302020202020200A2020342020372020312020302020202020200A2020372020382020322020302020202020200A2020382020392020312020302020202020200A2020392020352020312020302020202020200A2020362031302020312020302020202020200A2031302020332020312020302020202020200A2020392031312020312020302020202020200A2020382031322020312020302020202020200A2020372031332020312020302020202020200A2020332031342020312020302020202020200A2020322031352020312020302020202020200A2020312031362020312020302020202020200A2020362031372020312020302020202020200A2031302031382020312020312020202020200A2031302031392020312020312020202020200A4D2020454E44
Contributor: KOGA M, UNIV. OF OCCUPATIONAL AND ENVIRONMENTAL HEALTH
InstType: EI
InstName: JEOL JMS-01-SG
IoniMethod: _ENERGY 70 eV
IonPolarity: pos
Date: 2010-10-09 19:48:36+02:00
Num Peaks: 98
49 39 50 60 51 59 60 2 61 71 62 63 63 97 64 4 65 478 66 73 
72 22 73 10 74 72 75 82 83 24 85 8 86 51 87 25 95 30 96 4 
97 110 98 104 99 105 100 999 101 74 102 341 103 30 106 2 107 29 108 66 
109 59 110 3 111 34 114 44 115 65 116 4 117 57 119 61 120 58 121 4 
122 30 123 36 124 22 130 3 132 106 133 125 134 87 135 18 136 38 137 103 
141 52 143 6 145 30 151 23 159 34 160 9 161 21 162 31 165 25 167 4 
169 45 171 27 183 25 194 9 195 42 196 51 197 23 217 2 219 24 230 90 
231 24 232 8 235 155 236 73 238 119 239 14 240 70 241 48 242 25 264 6 
265 30 266 75 267 29 268 4 270 285 272 528 274 450 275 2 276 159 278 45 
335 52 337 9 339 58 341 30 370 22 372 4 374 35 376 22 
