Name: 2-PHENOXYETHANOL
CAS: 122-99-6
MW: 138
Formula: C8H10O2
Synonym: MassBank: JP007660
Synonym: 2-PHENOXYETHANOL
Structure: 322D5048454E4F5859455448414E4F4C2E6D6F6C0A20204368656D447261773032323131303134303132440A2031302031302020302020302020302020302020302020302020302020303939392056323030300A2020202D302E3832353020202020312E3432383920202020302E303030302043202020302020302020302020302020302020302020302020302020302020302020302020300A2020202D302E3431323520202020302E3731343520202020302E303030302043202020302020302020302020302020302020302020302020302020302020302020302020300A2020202D302E383235302020202D302E3030303020202020302E30303030204F202020302020302020302020302020302020302020302020302020302020302020302020300A2020202D302E343132352020202D302E3731343520202020302E303030302043202020302020302020302020302020302020302020302020302020302020302020302020300A20202020302E343132352020202D302E3731343520202020302E303030302043202020302020302020302020302020302020302020302020302020302020302020302020300A20202020302E383235302020202D312E3432383920202020302E303030302043202020302020302020302020302020302020302020302020302020302020302020302020300A20202020302E343132352020202D322E3134333420202020302E303030302043202020302020302020302020302020302020302020302020302020302020302020302020300A2020202D302E343132352020202D322E3134333420202020302E303030302043202020302020302020302020302020302020302020302020302020302020302020302020300A2020202D302E383235302020202D312E3432383920202020302E303030302043202020302020302020302020302020302020302020302020302020302020302020302020300A2020202D302E3431323520202020322E3134333420202020302E30303030204F202020302020302020302020302020302020302020302020302020302020302020302020300A2020312020322020312020302020202020200A2020342020352020312020302020202020200A2020352020362020322020302020202020200A2020362020372020312020302020202020200A2020372020382020322020302020202020200A2020382020392020312020302020202020200A2020342020392020322020302020202020200A2020332020342020312020302020202020200A2020322020332020312020302020202020200A2020312031302020312020302020202020200A4D2020454E44
Contributor: TAJIMA S, GUNMA COLLEGE OF TECHNOLOGY
InstType: EI
InstName: HITACHI RMU-7M
IoniMethod: _ENERGY 70 eV
IonPolarity: pos
Date: 2010-10-09 19:48:36+02:00
Num Peaks: 29
15 7 18 11 19 11 27 37 29 27 31 14 38 14 39 86 40 16 43 15 
45 60 50 32 51 107 55 12 63 27 65 104 66 204 77 336 78 40 79 77 
91 33 92 11 93 10 94 999 95 176 107 56 117 15 138 149 139 7 
