Name: DIHYDROCARVENYL ACETATE(AXIAL)
MW: 196
Formula: C12H20O2
Synonym: MassBank: JP006010
Synonym: DIHYDROCARVENYL ACETATE(AXIAL)
Structure: 4449485944524F43415256454E594C204143455441544528415849414C292E6D6F6C0A20204368656D447261773039323131303232343432440A2031352031352020302020302020302020302020302020302020302020303939392056323030300A2020202D312E343433382020202D302E3335373220202020302E303030302043202020302020302020302020302020302020302020302020302020302020302020302020300A2020202D312E303331322020202D312E3037313720202020302E303030302043202020302020302020302020302020302020302020302020302020302020302020302020300A2020202D322E323638372020202D302E3335373220202020302E30303030204F202020302020302020302020302020302020302020302020302020302020302020302020300A2020202D312E3033313220202020302E3335373220202020302E30303030204F202020302020302020302020302020302020302020302020302020302020302020302020300A2020202D302E3230363220202020302E3335373220202020302E303030302043202020302020302020302020302020302020302020302020302020302020302020302020300A20202020302E323036332020202D302E3335373220202020302E303030302043202020302020302020302020302020302020302020302020302020302020302020302020300A20202020312E303331322020202D302E3335373220202020302E303030302043202020302020302020302020302020302020302020302020302020302020302020302020300A20202020312E343433382020202D312E3037313720202020302E303030302043202020302020302020302020302020302020302020302020302020302020302020302020300A20202020312E303331332020202D312E3738363220202020302E303030302043202020302020302020302020302020302020302020302020302020302020302020302020300A20202020322E323638372020202D312E3037313720202020302E303030302043202020302020302020302020302020302020302020302020302020302020302020302020300A20202020312E3434333820202020302E3335373220202020302E303030302043202020302020302020302020302020302020302020302020302020302020302020302020300A20202020312E3033313320202020312E3037313720202020302E303030302043202020302020302020302020302020302020302020302020302020302020302020302020300A20202020302E3230363320202020312E3037313720202020302E303030302043202020302020302020302020302020302020302020302020302020302020302020302020300A2020202D302E3230363220202020312E3738363220202020302E303030302043202020302020302020302020302020302020302020302020302020302020302020302020300A2020202D302E3738393620202020302E3934303620202020302E303030302048202020302020302020302020302020302020302020302020302020302020302020302020300A2020312020322020312020302020202020200A2020312020332020322020302020202020200A2020312020342020312020302020202020200A2020352020362020312020302020202020200A2020362020372020312020302020202020200A2020372020382020312020302020202020200A2020382020392020322020302020202020200A2020382031302020312020302020202020200A2020372031312020312020302020202020200A2031312031322020312020302020202020200A2031322031332020312020302020202020200A2031332031342020312020302020202020200A2020352031332020312020302020202020200A2020352020342020312020362020202020200A2020352031352020312020312020202020200A4D2020454E44
Contributor: YAMAMOTO M, DEP. CHEMISTRY, FAC. SCIENCE, NARA WOMEN'S UNIV.
InstType: EI
InstName: HITACHI RMU-6M
IoniMethod: _ENERGY 70 eV
IonPolarity: pos
Date: 2010-10-09 19:48:36+02:00
Num Peaks: 70
15 51 29 110 31 4 32 8 39 128 40 33 41 342 42 33 43 999 44 24 
45 3 50 3 51 16 52 13 53 105 54 23 55 178 56 23 57 16 58 11 
65 23 66 16 67 147 68 248 69 114 70 14 71 20 72 29 77 45 78 13 
79 237 80 108 81 203 82 87 83 40 84 17 85 8 86 11 91 43 92 100 
93 511 94 260 95 122 96 18 97 65 98 10 99 3 105 23 106 8 107 493 
108 113 109 27 110 11 111 32 112 7 119 6 120 4 121 465 122 47 123 10 
135 16 136 620 137 79 138 4 139 4 153 9 154 51 155 6 196 39 197 4 
