Name: 1-(2-FURYL)-3-BUTENE-1-OL
MW: 138
Formula: C8H10O2
Synonym: MassBank: JP002496
Synonym: 1-(2-FURYL)-3-BUTENE-1-OL
Structure: 312D28322D465552594C292D332D425554454E452D312D4F4C2E6D6F6C0A20204368656D447261773131313730393136353732440A2031332031332020302020302020302020302020302020302020302020303939392056323030300A2020202D312E3138353120202020302E3236323420202020302E30303030204F202020302020302020302020302020302020302020302020302020302020302020302020300A2020202D302E3336343720202020302E3334383620202020302E303030302043202020302020302020302020302020302020302020302020302020302020302020302020300A2020202D302E303239312020202D302E3430353120202020302E303030302043202020302020302020302020302020302020302020302020302020302020302020302020300A2020202D302E363432322020202D302E3935373120202020302E303030302043202020302020302020302020302020302020302020302020302020302020302020302020300A2020202D312E333536372020202D302E3534343620202020302E303030302043202020302020302020302020302020302020302020302020302020302020302020302020300A20202020302E3034373820202020312E3036333120202020302E303030302043202020302020302020302020302020302020302020302020302020302020302020302020300A2020202D302E3336343720202020312E3737373620202020302E30303030204F202020302020302020302020302020302020302020302020302020302020302020302020300A20202020302E3837323820202020312E3036333120202020302E303030302043202020302020302020302020302020302020302020302020302020302020302020302020300A20202020312E3238353320202020312E3737373620202020302E303030302043202020302020302020302020302020302020302020302020302020302020302020302020300A20202020322E3131303220202020312E3737373620202020302E303030302043202020302020302020302020302020302020302020302020302020302020302020302020300A2020202D322E313130322020202D302E3838303120202020302E303030302048202020302020302020302020302020302020302020302020302020302020302020302020300A2020202D302E353536302020202D312E3737373620202020302E303030302048202020302020302020302020302020302020302020302020302020302020302020302020300A20202020302E373737392020202D302E3537363620202020302E303030302048202020302020302020302020302020302020302020302020302020302020302020302020300A2020312020322020312020302020202020200A2020322020332020322020302020202020200A2020332020342020312020302020202020200A2020342020352020322020302020202020200A2020312020352020312020302020202020200A2020362020372020312020302020202020200A2020362020382020312020302020202020200A2020382020392020312020302020202020200A2020392031302020322020302020202020200A2020322020362020312020302020202020200A2020352031312020312020302020202020200A2020342031322020312020302020202020200A2020332031332020312020302020202020200A4D2020454E44
Contributor: MASS SPECTROSCOPY SOC. OF JAPAN (MSSJ)
InstType: EI
InstName: JEOL JMS-D-300
IoniMethod: _ENERGY 70 eV
IonPolarity: pos
Date: 2010-10-09 19:48:36+02:00
Num Peaks: 12
28 370 32 568 40 20 41 52 43 10 69 29 91 53 92 11 97 999 98 56 
120 78 138 40 
