Name: 2-HYDROXY-4-METHOXYACETOPHENONE
MW: 166
Formula: C9H10O3
Synonym: MassBank: JP006335
Synonym: 2-HYDROXY-4-METHOXYACETOPHENONE
Structure: 310A350A322D485944524F58592D342D4D4554484F5859414345544F5048454E4F4E452E6D6F6C0A20204368656D447261773130313831303136333232440A2020302020302020302020302020302020302020302020302020302020303939392056323030300A4D2020454E44
Contributor: EGUCHI S, FAC. OF SCIENCE, HIROSHIMA UNIV.
InstType: EI
InstName: HITACHI RMU-7L
IoniMethod: _ENERGY 70 eV
IonPolarity: pos
Date: 2010-10-09 19:48:36+02:00
Num Peaks: 40
40 20 41 58 42 30 43 22 44 10 50 38 51 97 52 8 53 55 54 15 
55 30 61 1 62 30 63 50 64 18 65 6 66 27 67 18 69 70 77 2 
79 40 80 45 93 20 94 2 95 111 107 10 108 108 109 2 120 10 121 10 
123 20 135 1 136 15 137 25 149 10 151 999 152 95 153 11 166 345 167 44 
