Name: MassBank: JP003682
MW: 162
Formula: C8H18O3
Synonym: MassBank: JP003682
Synonym: 2-HYDROXYMETHYL-2-METHYLPROPANE-1,3-DIOL TRIMETHYL ETHER
Structure: 322D485944524F58594D455448594C2D322D4D455448594C50524F50414E452D312C332D44494F4C205452494D455448594C2045544845522E6D6F6C0A20204368656D447261773031323131303233323832440A2031312031302020302020302020302020302020302020302020302020303939392056323030300A20202020302E393631322020202D302E3035353320202020302E303030302043202020302020302020302020302020302020302020302020302020302020302020302020300A20202020302E323436372020202D302E3436373820202020302E303030302043202020302020302020302020302020302020302020302020302020302020302020302020300A20202020302E363539322020202D312E3138323220202020302E303030302043202020302020302020302020302020302020302020302020302020302020302020302020300A20202020302E3936313220202020302E3736393720202020302E30303030204F202020302020302020302020302020302020302020302020302020302020302020302020300A20202020312E343834322020202D312E3138323220202020302E30303030204F202020302020302020302020302020302020302020302020302020302020302020302020300A2020202D302E3136353820202020302E3234363720202020302E303030302043202020302020302020302020302020302020302020302020302020302020302020302020300A2020202D302E343637382020202D302E3838303320202020302E303030302043202020302020302020302020302020302020302020302020302020302020302020302020300A2020202D312E313832322020202D302E3436373820202020302E30303030204F202020302020302020302020302020302020302020302020302020302020302020302020300A20202020302E3234363720202020312E3138323220202020302E303030302043202020302020302020302020302020302020302020302020302020302020302020302020300A20202020312E383936372020202D302E3436373820202020302E303030302043202020302020302020302020302020302020302020302020302020302020302020302020300A2020202D312E383936372020202D302E3838303320202020302E303030302043202020302020302020302020302020302020302020302020302020302020302020302020300A2020312020322020312020302020202020200A2020322020332020312020302020202020200A2020312020342020312020302020202020200A2020332020352020312020302020202020200A2020322020362020312020302020202020200A2020372020382020312020302020202020200A2020322020372020312020302020202020200A2020342020392020312020302020202020200A2020352031302020312020302020202020200A2020382031312020312020302020202020200A4D2020454E44
Contributor: SASAKI S, TOYOHASHI UNIV. OF TECH.
InstType: EI
InstName: Unknown
IoniMethod: EI
IonPolarity: pos
Date: 2010-10-09 19:48:36+02:00
Num Peaks: 52
39 54 41 136 42 20 43 4 44 24 45 943 46 24 47 2 51 2 52 1 
53 26 54 2 55 230 56 31 57 19 58 2 59 22 60 1 65 2 66 0 
67 23 68 7 69 21 70 1 71 417 72 85 73 7 74 0 75 999 76 35 
77 10 81 0 82 1 83 37 84 8 85 47 86 124 87 24 88 2 89 0 
97 4 98 33 99 23 100 0 101 30 102 1 115 6 116 0 117 1 130 2 
131 1 132 1 
