Name: MassBank: JP002425
MW: 204
Formula: C10H20O4
Synonym: MassBank: JP002425
Synonym: ETHYL 3,7-DIHYDROXY-6-METHYLHEPTANOATE
Structure: 455448594C20332C372D4449485944524F58592D362D4D455448594C48455054414E4F4154452E6D6F6C0A20204368656D447261773038313131303138313532440A2031342031332020302020302020302020302020302020302020302020303939392056323030300A20202020312E303331332020202D302E3731343520202020302E303030302043202020302020302020302020302020302020302020302020302020302020302020302020300A20202020302E323036332020202D302E3731343520202020302E303030302043202020302020302020302020302020302020302020302020302020302020302020302020300A2020202D302E3230363320202020302E3030303020202020302E303030302043202020302020302020302020302020302020302020302020302020302020302020302020300A2020202D312E3033313220202020302E3030303020202020302E303030302043202020302020302020302020302020302020302020302020302020302020302020302020300A2020202D312E3434333720202020302E3731343520202020302E303030302043202020302020302020302020302020302020302020302020302020302020302020302020300A2020202D322E3236383720202020302E3731343520202020302E303030302043202020302020302020302020302020302020302020302020302020302020302020302020300A2020202D322E363831332020202D302E3030303020202020302E303030302043202020302020302020302020302020302020302020302020302020302020302020302020300A20202020312E343433382020202D312E3432383920202020302E30303030204F202020302020302020302020302020302020302020302020302020302020302020302020300A20202020312E3434333820202020302E3030303020202020302E30303030204F202020302020302020302020302020302020302020302020302020302020302020302020300A2020202D322E3638313220202020312E3432383920202020302E303030302043202020302020302020302020302020302020302020302020302020302020302020302020300A2020202D322E323638382020202D302E3731343520202020302E30303030204F202020302020302020302020302020302020302020302020302020302020302020302020300A20202020302E3230363320202020302E3731343520202020302E30303030204F202020302020302020302020302020302020302020302020302020302020302020302020300A20202020322E3236383820202020302E3030303020202020302E303030302043202020302020302020302020302020302020302020302020302020302020302020302020300A20202020322E3638313320202020302E3731343520202020302E303030302043202020302020302020302020302020302020302020302020302020302020302020302020300A2020312020322020312020302020202020200A2020322020332020312020302020202020200A2020332020342020312020302020202020200A2020342020352020312020302020202020200A2020352020362020312020302020202020200A2020362020372020312020302020202020200A2020312020382020322020302020202020200A2020312020392020312020302020202020200A2020362031302020312020302020202020200A2020372031312020312020302020202020200A2020332031322020312020302020202020200A2031332031342020312020302020202020200A2020392031332020312020302020202020200A4D2020454E44
Contributor: ITO S, DEPT. OF CHEM., TOHOKU UNIV.
InstType: EI
InstName: HITACHI M-52
IoniMethod: _ENERGY 13.5 eV
IonPolarity: pos
Date: 2010-10-09 19:48:36+02:00
Num Peaks: 50
43 98 45 27 56 24 61 3 69 56 70 68 71 51 72 2 74 24 75 78 
81 76 82 3 83 49 85 32 86 17 88 8 89 151 94 32 95 182 96 4 
97 20 98 100 99 999 101 5 102 39 109 34 110 59 111 2 112 182 113 22 
115 112 116 5 117 870 118 156 119 29 122 2 127 63 129 22 130 338 131 4 
140 49 141 195 156 675 157 15 168 93 169 24 173 37 174 4 185 22 204 98 
