Name: 9-METHYL-9-TRIMETHYLSILYL-9-SILAFLUORENE
MW: 268
Formula: C16H20Si2
Synonym: MassBank: JP001457
Synonym: 9-METHYL-9-TRIMETHYLSILYL-9-SILAFLUORENE
Structure: 392D4D455448594C2D392D5452494D455448594C53494C594C2D392D53494C41464C554F52454E452E6D6F6C0A20204368656D447261773036323131303231353132440A2031382032302020302020302020302020302020302020302020302020303939392056323030300A2020202D302E373837372020202D302E3237393720202020302E303030302053692020302020302020302020302020302020302020302020302020302020302020302020300A2020202D302E3935393220202020302E3532373220202020302E303030302043202020302020302020302020302020302020302020302020302020302020302020302020300A2020202D312E3637333720202020302E3933393720202020302E303030302043202020302020302020302020302020302020302020302020302020302020302020302020300A2020202D312E3637333720202020312E3736343720202020302E303030302043202020302020302020302020302020302020302020302020302020302020302020302020300A2020202D302E3935393220202020322E3137373220202020302E303030302043202020302020302020302020302020302020302020302020302020302020302020302020300A2020202D302E3234343820202020312E3736343720202020302E303030302043202020302020302020302020302020302020302020302020302020302020302020302020300A2020202D302E3234343820202020302E3933393720202020302E303030302043202020302020302020302020302020302020302020302020302020302020302020302020300A20202020302E3336383320202020302E3338373720202020302E303030302043202020302020302020302020302020302020302020302020302020302020302020302020300A20202020312E3138383820202020302E3437333920202020302E303030302043202020302020302020302020302020302020302020302020302020302020302020302020300A20202020312E363733372020202D302E3139333520202020302E303030302043202020302020302020302020302020302020302020302020302020302020302020302020300A20202020312E333338322020202D302E3934373220202020302E303030302043202020302020302020302020302020302020302020302020302020302020302020302020300A20202020302E353137372020202D312E3033333420202020302E303030302043202020302020302020302020302020302020302020302020302020302020302020302020300A20202020302E303332382020202D302E3336363020202020302E303030302043202020302020302020302020302020302020302020302020302020302020302020302020300A2020202D302E373837372020202D312E3335323220202020302E303030302053692020302020302020302020302020302020302020302020302020302020302020302020300A2020202D312E363132372020202D312E3335323220202020302E303030302043202020302020302020302020302020302020302020302020302020302020302020302020300A20202020302E303337332020202D312E3335323220202020302E303030302043202020302020302020302020302020302020302020302020302020302020302020302020300A2020202D302E373837372020202D322E3137373220202020302E303030302043202020302020302020302020302020302020302020302020302020302020302020302020300A2020202D312E363038322020202D302E3336363020202020302E303030302043202020302020302020302020302020302020302020302020302020302020302020302020300A2020312020322020312020302020202020200A2020322020332020312020302020202020200A2020332020342020322020302020202020200A2020342020352020312020302020202020200A2020352020362020322020302020202020200A2020362020372020312020302020202020200A2020322020372020322020302020202020200A2020372020382020312020302020202020200A2020382020392020312020302020202020200A2020392031302020322020302020202020200A2031302031312020312020302020202020200A2031312031322020322020302020202020200A2031322031332020312020302020202020200A2020382031332020322020302020202020200A2020312031332020312020302020202020200A2031342031352020312020302020202020200A2031342031362020312020302020202020200A2031342031372020312020302020202020200A2020312031342020312020302020202020200A2020312031382020312020302020202020200A4D2020454E44
Contributor: MASS SPECTROSCOPY SOC. OF JAPAN (MSSJ)
InstType: EI
InstName: JEOL JMS-D-3000
IoniMethod: _ENERGY 70 eV
IonPolarity: pos
Date: 2010-10-09 19:48:36+02:00
Num Peaks: 30
43 18 44 27 45 55 53 17 73 431 74 39 75 26 77 10 78 22 153 16 
154 16 165 134 166 25 167 21 168 10 169 12 179 26 180 48 181 22 193 49 
194 17 195 999 196 196 197 54 253 126 254 32 255 13 268 309 269 89 270 34 
