Name: 4-PHENYLAMINO-2(5H)-FURANONE
MW: 175
Formula: C10H9NO2
Synonym: MassBank: JP005116
Synonym: 4-PHENYLAMINO-2(5H)-FURANONE
Structure: 342D5048454E594C414D494E4F2D32283548292D465552414E4F4E452E6D6F6C0A20204368656D447261773034323231303230353432440A2031332031342020302020302020302020302020302020302020302020303939392056323030300A20202020312E3033323820202020312E3130313220202020302E30303030204F202020302020302020302020302020302020302020302020302020302020302020302020300A20202020312E3634353920202020302E3534393220202020302E303030302043202020302020302020302020302020302020302020302020302020302020302020302020300A20202020312E333130332020202D302E3230343520202020302E303030302043202020302020302020302020302020302020302020302020302020302020302020302020300A20202020302E343839382020202D302E3131383320202020302E303030302043202020302020302020302020302020302020302020302020302020302020302020302020300A20202020302E3331383320202020302E3638383720202020302E303030302043202020302020302020302020302020302020302020302020302020302020302020302020300A20202020322E3435323920202020302E3732303720202020302E30303030204F202020302020302020302020302020302020302020302020302020302020302020302020300A2020202D302E303632322020202D302E3733313420202020302E30303030204E202020302020302020302020302020302020302020302020302020302020302020302020300A2020202D302E383539312020202D302E3531373820202020302E303030302043202020302020302020302020302020302020302020302020302020302020302020302020300A2020202D312E343432342020202D312E3130313220202020302E303030302043202020302020302020302020302020302020302020302020302020302020302020302020300A2020202D322E323339332020202D302E3838373720202020302E303030302043202020302020302020302020302020302020302020302020302020302020302020302020300A2020202D322E343532392020202D302E3039303820202020302E303030302043202020302020302020302020302020302020302020302020302020302020302020302020300A2020202D312E3836393520202020302E3439323620202020302E303030302043202020302020302020302020302020302020302020302020302020302020302020302020300A2020202D312E3037323620202020302E3237393020202020302E303030302043202020302020302020302020302020302020302020302020302020302020302020302020300A2020312020322020312020302020202020200A2020322020332020312020302020202020200A2020332020342020322020302020202020200A2020342020352020312020302020202020200A2020312020352020312020302020202020200A2020322020362020322020302020202020200A2020382020392020312020302020202020200A2020392031302020322020302020202020200A2031302031312020312020302020202020200A2031312031322020322020302020202020200A2031322031332020312020302020202020200A2020382031332020322020302020202020200A2020372020382020312020302020202020200A2020342020372020312020302020202020200A4D2020454E44
Contributor: HAYASHI A, FAC. OF SCIENCE AND TECHNOLOGY, KINKI UNIV.
InstType: EI
InstName: JEOL JMS-HX-100
IoniMethod: _ENERGY 23 eV
IonPolarity: pos
Date: 2010-10-09 19:48:36+02:00
Num Peaks: 61
55 15 56 8 57 8 61 5 68 14 69 6 70 5 71 8 77 6 78 7 
81 6 82 7 83 8 84 9 85 10 90 14 91 24 92 5 93 10 94 4 
95 8 96 4 97 6 98 4 99 5 104 10 106 7 107 15 109 6 111 5 
112 8 113 65 114 5 116 9 117 79 118 168 119 24 120 4 123 5 124 4 
125 5 129 6 130 67 131 13 132 4 133 5 136 6 137 6 144 63 145 9 
146 57 147 26 148 4 149 12 153 4 158 5 167 6 174 64 175 999 176 120 
177 12 
