Name: METHYLMALONIC ACID BIS(TRIMETHYLSILYL) ESTER
MW: 262
Formula: C10H22O4Si2
Synonym: MassBank: JP007479
Synonym: METHYLMALONIC ACID BIS(TRIMETHYLSILYL) ESTER
Structure: 4D455448594C4D414C4F4E4943204143494420424953285452494D455448594C53494C594C292045535445522E6D6F6C0A20204368656D447261773038313231303030353232440A2031362031352020302020302020302020302020302020302020302020303939392056323030300A20202020302E363734302020202D302E3030303020202020302E303030302043202020302020302020302020302020302020302020302020302020302020302020302020300A20202020302E3236313520202020302E3731343520202020302E303030302043202020302020302020302020302020302020302020302020302020302020302020302020300A2020202D302E3536333520202020302E3731343520202020302E303030302043202020302020302020302020302020302020302020302020302020302020302020302020300A20202020302E323631352020202D302E3731343520202020302E30303030204F202020302020302020302020302020302020302020302020302020302020302020302020300A20202020312E343939302020202D302E3030303020202020302E30303030204F202020302020302020302020302020302020302020302020302020302020302020302020300A2020202D302E3937363020202020312E3432383920202020302E30303030204F202020302020302020302020302020302020302020302020302020302020302020302020300A2020202D302E393736302020202D302E3030303020202020302E30303030204F202020302020302020302020302020302020302020302020302020302020302020302020300A20202020302E3637343020202020312E3432383920202020302E303030302043202020302020302020302020302020302020302020302020302020302020302020302020300A20202020312E393131352020202D302E3731343520202020302E303030302053692020302020302020302020302020302020302020302020302020302020302020302020300A20202020312E313937302020202D312E3132373020202020302E303030302043202020302020302020302020302020302020302020302020302020302020302020302020300A20202020322E363236302020202D302E3330323020202020302E303030302043202020302020302020302020302020302020302020302020302020302020302020302020300A20202020322E333234302020202D312E3432383920202020302E303030302043202020302020302020302020302020302020302020302020302020302020302020302020300A2020202D312E383031302020202D302E3030303020202020302E303030302053692020302020302020302020302020302020302020302020302020302020302020302020300A2020202D312E383031302020202D302E3832353020202020302E303030302043202020302020302020302020302020302020302020302020302020302020302020302020300A2020202D322E363236302020202D302E3030303020202020302E303030302043202020302020302020302020302020302020302020302020302020302020302020302020300A2020202D312E3830313020202020302E3832353020202020302E303030302043202020302020302020302020302020302020302020302020302020302020302020302020300A2020312020322020312020302020202020200A2020322020332020312020302020202020200A2020312020342020322020302020202020200A2020312020352020312020302020202020200A2020332020362020322020302020202020200A2020332020372020312020302020202020200A2020322020382020312020302020202020200A2020392031302020312020302020202020200A2020392031312020312020302020202020200A2020392031322020312020302020202020200A2020352020392020312020302020202020200A2031332031342020312020302020202020200A2031332031352020312020302020202020200A2031332031362020312020302020202020200A2020372031332020312020302020202020200A4D2020454E44
Contributor: KOGA M, UNIV. OF OCCUPATIONAL AND ENVIRONMENTAL HEALTH
InstType: EI
InstName: JEOL JMS-01-SG
IoniMethod: _ENERGY 70 eV
IonPolarity: pos
Date: 2010-10-09 19:48:36+02:00
Num Peaks: 64
43 128 44 181 45 481 46 3 47 155 51 15 52 22 55 21 56 999 57 162 
58 87 59 17 60 18 61 68 66 51 71 18 72 159 73 204 74 25 75 719 
76 60 77 79 83 10 85 11 86 45 87 11 93 1 94 109 99 11 103 11 
105 1 113 87 115 37 116 117 119 1 129 90 130 60 131 140 132 2 133 162 
134 18 135 11 147 49 148 920 149 477 150 49 151 1 157 94 163 15 172 34 
173 1 175 11 190 18 191 11 203 4 217 11 218 371 219 79 220 3 231 15 
247 446 248 83 249 4 262 34 
