Name: 1-CHLORO-3-TRIMETHYLSILYL-2-PROPANONE
MW: 164
Formula: C6H13ClOSi
Synonym: MassBank: JP004735
Synonym: 1-CHLORO-3-TRIMETHYLSILYL-2-PROPANONE
Structure: 310A32320A312D43484C4F524F2D332D5452494D455448594C53494C594C2D322D50524F50414E4F4E452E6D6F6C0A20204368656D447261773131313830393030343532440A2020392020382020302020302020302020302020302020302020302020303939392056323030300A20202020312E313237302020202D302E3230363220202020302E303030302043202020302020302020302020302020302020302020302020302020302020302020302020300A20202020302E343132352020202D302E3631383820202020302E303030302043202020302020302020302020302020302020302020302020302020302020302020302020300A2020202D302E333032302020202D302E3230363220202020302E303030302043202020302020302020302020302020302020302020302020302020302020302020302020300A20202020302E343132352020202D312E3434333820202020302E30303030204F202020302020302020302020302020302020302020302020302020302020302020302020300A2020202D302E3330323020202020302E3631383820202020302E303030302053692020302020302020302020302020302020302020302020302020302020302020302020300A20202020302E3532333020202020302E3631383820202020302E303030302043202020302020302020302020302020302020302020302020302020302020302020302020300A2020202D302E3330323020202020312E3434333820202020302E303030302043202020302020302020302020302020302020302020302020302020302020302020302020300A2020202D312E3132373020202020302E3631383820202020302E303030302043202020302020302020302020302020302020302020302020302020302020302020302020300A20202020312E3132373020202020302E3631383720202020302E3030303020436C2020302020302020302020302020302020302020302020302020302020302020302020300A2020312020322020312020302020202020200A2020322020332020312020302020202020200A2020322020342020322020302020202020200A2020352020362020312020312020202020200A2020352020372020312020302020202020200A2020352020382020312020312020202020200A2020332020352020312020302020202020200A2020312020392020312020302020202020200A4D2020454E44
Contributor: MASS SPECTROSCOPY SOC. OF JAPAN (MSSJ)
InstType: EI
InstName: JEOL JMS-D-3000
IoniMethod: _ENERGY 70 eV
IonPolarity: pos
Date: 2010-10-09 19:48:36+02:00
Num Peaks: 20
72 40 73 220 74 27 75 35 93 454 94 40 95 999 96 74 97 317 113 93 
115 499 116 56 117 25 149 680 150 72 151 247 152 26 164 305 165 38 166 115 
