Name: 2-PROPYLCYCLOHEXYL ACETATE
MW: 184
Formula: C11H20O2
Synonym: MassBank: JP009309
Synonym: 2-PROPYLCYCLOHEXYL ACETATE
Structure: 322D50524F50594C4359434C4F484558594C20414345544154452E6D6F6C0A20204368656D447261773032323131303135303432440A2031332031332020302020302020302020302020302020302020302020303939392056323030300A2020202D312E303331332020202D312E3432383920202020302E303030302043202020302020302020302020302020302020302020302020302020302020302020302020300A2020202D312E383536332020202D312E3432383920202020302E303030302043202020302020302020302020302020302020302020302020302020302020302020302020300A2020202D302E363138372020202D322E3134333420202020302E30303030204F202020302020302020302020302020302020302020302020302020302020302020302020300A2020202D302E363138372020202D302E3731343520202020302E30303030204F202020302020302020302020302020302020302020302020302020302020302020302020300A20202020302E323036322020202D302E3731343520202020302E303030302043202020302020302020302020302020302020302020302020302020302020302020302020300A20202020302E3631383720202020302E3030303020202020302E303030302043202020302020302020302020302020302020302020302020302020302020302020302020300A20202020312E3434333720202020302E3030303020202020302E303030302043202020302020302020302020302020302020302020302020302020302020302020302020300A20202020312E383536332020202D302E3731343520202020302E303030302043202020302020302020302020302020302020302020302020302020302020302020302020300A20202020312E343433372020202D312E3432383920202020302E303030302043202020302020302020302020302020302020302020302020302020302020302020302020300A20202020302E363138372020202D312E3432383920202020302E303030302043202020302020302020302020302020302020302020302020302020302020302020302020300A20202020302E3230363220202020302E3731343520202020302E303030302043202020302020302020302020302020302020302020302020302020302020302020302020300A20202020302E3631383720202020312E3432383920202020302E303030302043202020302020302020302020302020302020302020302020302020302020302020302020300A20202020302E3230363220202020322E3134333420202020302E303030302043202020302020302020302020302020302020302020302020302020302020302020302020300A2020312020322020312020302020202020200A2020312020332020322020302020202020200A2020312020342020312020302020202020200A2020352020362020312020302020202020200A2020362020372020312020302020202020200A2020372020382020312020302020202020200A2020382020392020312020302020202020200A2020392031302020312020302020202020200A2020352031302020312020302020202020200A2031312031322020312020302020202020200A2031322031332020312020302020202020200A2020362031312020312020302020202020200A2020342020352020312020302020202020200A4D2020454E44
Contributor: YAMAMOTO M, DEP. CHEMISTRY, FAC. SCIENCE, NARA WOMEN'S UNIV.
InstType: EI
InstName: HITACHI RMU-6M
IoniMethod: _ENERGY 15 eV
IonPolarity: pos
Date: 2010-10-09 19:48:36+02:00
Num Peaks: 27
43 160 54 29 55 24 57 2 58 11 66 28 67 110 68 9 69 43 71 34 
72 10 80 3 81 344 82 999 83 104 86 1 94 13 95 255 96 202 99 2 
100 21 107 24 109 32 123 1 124 787 125 91 142 24 
