Name: OCTADECANEDIOIC ACID BIS(TRIMETHYLSILYL) ESTER
MW: 458
Formula: C24H50O4Si2
Synonym: MassBank: JP001081
Synonym: OCTADECANEDIOIC ACID BIS(TRIMETHYLSILYL) ESTER
Synonym: DI(TRIMETHYLSILYL) OCTADECANEDIOATE
Structure: 4F435441444543414E4544494F4943204143494420424953285452494D455448594C53494C594C292045535445522E6D6F6C0A20204368656D447261773038313231303033313632440A2033302032392020302020302020302020302020302020302020302020303939392056323030300A20202020362E303137372020202D302E3236313520202020302E303030302043202020302020302020302020302020302020302020302020302020302020302020302020300A20202020362E303137372020202D312E3038363520202020302E303030302043202020302020302020302020302020302020302020302020302020302020302020302020300A20202020352E333033332020202D312E3439393020202020302E303030302043202020302020302020302020302020302020302020302020302020302020302020302020300A20202020342E353838382020202D312E3038363520202020302E303030302043202020302020302020302020302020302020302020302020302020302020302020302020300A20202020332E383734332020202D312E3439393020202020302E303030302043202020302020302020302020302020302020302020302020302020302020302020302020300A20202020332E313539392020202D312E3038363520202020302E303030302043202020302020302020302020302020302020302020302020302020302020302020302020300A20202020322E343435342020202D312E3439393020202020302E303030302043202020302020302020302020302020302020302020302020302020302020302020302020300A20202020312E373330392020202D312E3038363520202020302E303030302043202020302020302020302020302020302020302020302020302020302020302020302020300A20202020312E303136342020202D312E3439393020202020302E303030302043202020302020302020302020302020302020302020302020302020302020302020302020300A20202020302E333032302020202D312E3038363520202020302E303030302043202020302020302020302020302020302020302020302020302020302020302020302020300A2020202D302E343132352020202D312E3439393020202020302E303030302043202020302020302020302020302020302020302020302020302020302020302020302020300A2020202D312E313237302020202D312E3038363520202020302E303030302043202020302020302020302020302020302020302020302020302020302020302020302020300A2020202D312E383431342020202D312E3439393020202020302E303030302043202020302020302020302020302020302020302020302020302020302020302020302020300A2020202D322E353535392020202D312E3038363520202020302E303030302043202020302020302020302020302020302020302020302020302020302020302020302020300A2020202D332E323730342020202D312E3439393020202020302E303030302043202020302020302020302020302020302020302020302020302020302020302020302020300A2020202D332E393834392020202D312E3038363520202020302E303030302043202020302020302020302020302020302020302020302020302020302020302020302020300A2020202D342E363939332020202D312E3439393020202020302E303030302043202020302020302020302020302020302020302020302020302020302020302020302020300A2020202D352E343133382020202D312E3038363520202020302E303030302043202020302020302020302020302020302020302020302020302020302020302020302020300A20202020352E3330333320202020302E3135313020202020302E30303030204F202020302020302020302020302020302020302020302020302020302020302020302020300A20202020362E3733323220202020302E3135313020202020302E30303030204F202020302020302020302020302020302020302020302020302020302020302020302020300A2020202D352E343133382020202D302E3236313520202020302E30303030204F202020302020302020302020302020302020302020302020302020302020302020302020300A2020202D362E313238332020202D312E3439393020202020302E30303030204F202020302020302020302020302020302020302020302020302020302020302020302020300A20202020362E3733323220202020302E3937363020202020302E303030302053692020302020302020302020302020302020302020302020302020302020302020302020300A20202020372E3535373220202020302E3937363020202020302E303030302043202020302020302020302020302020302020302020302020302020302020302020302020300A20202020352E3930373220202020302E3937363020202020302E303030302043202020302020302020302020302020302020302020302020302020302020302020302020300A20202020362E3733323220202020312E3830313020202020302E303030302043202020302020302020302020302020302020302020302020302020302020302020302020300A2020202D362E383432372020202D312E3038363520202020302E303030302053692020302020302020302020302020302020302020302020302020302020302020302020300A2020202D372E323535322020202D312E3830313020202020302E303030302043202020302020302020302020302020302020302020302020302020302020302020302020300A2020202D372E353537322020202D302E3637343020202020302E303030302043202020302020302020302020302020302020302020302020302020302020302020302020300A2020202D362E343330322020202D302E3337323020202020302E303030302043202020302020302020302020302020302020302020302020302020302020302020302020300A2020312020322020312020302020202020200A2020322020332020312020302020202020200A2020332020342020312020302020202020200A2020342020352020312020302020202020200A2020352020362020312020302020202020200A2020362020372020312020302020202020200A2020372020382020312020302020202020200A2020382020392020312020302020202020200A2020392031302020312020302020202020200A2031302031312020312020302020202020200A2031312031322020312020302020202020200A2031322031332020312020302020202020200A2031332031342020312020302020202020200A2031342031352020312020302020202020200A2031352031362020312020302020202020200A2031362031372020312020302020202020200A2031372031382020312020302020202020200A2020312031392020322020302020202020200A2020312032302020312020302020202020200A2031382032312020322020302020202020200A2031382032322020312020302020202020200A2032332032342020312020302020202020200A2032332032352020312020302020202020200A2032332032362020312020302020202020200A2032302032332020312020302020202020200A2032372032382020312020302020202020200A2032372032392020312020302020202020200A2032372033302020312020302020202020200A2032322032372020312020302020202020200A4D2020454E44
Contributor: KOGA M, UNIV. OF OCCUPATIONAL AND ENVIRONMENTAL HEALTH
InstType: EI
InstName: JEOL JMS-01-SG
IoniMethod: _ENERGY 70 eV
IonPolarity: pos
Date: 2010-10-09 19:48:36+02:00
Num Peaks: 22
45 119 47 105 55 359 67 11 69 154 73 943 75 999 77 15 81 140 83 133 
95 218 97 11 117 323 129 281 147 169 149 18 204 570 217 429 327 161 443 53 
444 169 445 77 
