Name: 1-BROMO-2-METHYLPROPANE
CAS: 78-77-3
MW: 135
Formula: C4H9Br
Synonym: MassBank: JP004829
Synonym: 1-BROMO-2-METHYLPROPANE
Structure: 310A31340A312D42524F4D4F2D322D4D455448594C50524F50414E452E6D6F6C0A20204368656D447261773131313730393233333332440A2020352020342020302020302020302020302020302020302020302020303939392056323030300A20202020302E333537322020202D302E3631383820202020302E303030302043202020302020302020302020302020302020302020302020302020302020302020302020300A2020202D302E333537322020202D302E3230363220202020302E303030302043202020302020302020302020302020302020302020302020302020302020302020302020300A2020202D302E3335373220202020302E3631383820202020302E303030302043202020302020302020302020302020302020302020302020302020302020302020302020300A2020202D312E303731372020202D302E3631383720202020302E303030302043202020302020302020302020302020302020302020302020302020302020302020302020300A20202020312E303731372020202D302E3230363220202020302E303030302042722020302020302020302020302020302020302020302020302020302020302020302020300A2020312020322020312020302020202020200A2020322020332020312020302020202020200A2020322020342020312020302020202020200A2020312020352020312020302020202020200A4D2020454E44
Contributor: MASS SPECTROSCOPY SOC. OF JAPAN (MSSJ)
InstType: EI
InstName: JEOL JMS-D-3000
IoniMethod: _ENERGY 70 eV
IonPolarity: pos
Date: 2010-10-09 19:48:36+02:00
Num Peaks: 12
42 92 43 343 55 33 56 22 57 999 58 43 93 10 95 10 121 22 123 20 
136 22 138 21 
