Name: 2-NITROBENZENESULFONIC ACID
MW: 202
Formula: C6H5NO5S
Synonym: MassBank: JP008175
Synonym: 2-NITROBENZENESULFONIC ACID
Structure: 322D4E4954524F42454E5A454E4553554C464F4E494320414349442E6D6F6C0A20204368656D447261773032323131303130343532440A2031332031332020302020302020302020302020302020302020302020303939392056323030300A2020202D302E303030302020202D302E3635393220202020302E303030302043202020302020302020302020302020302020302020302020302020302020302020302020300A20202020302E3431323520202020302E3035353320202020302E303030302043202020302020302020302020302020302020302020302020302020302020302020302020300A20202020312E3233373520202020302E3035353320202020302E303030302043202020302020302020302020302020302020302020302020302020302020302020302020300A20202020312E363530302020202D302E3635393220202020302E303030302043202020302020302020302020302020302020302020302020302020302020302020302020300A20202020312E323337352020202D312E3337333720202020302E303030302043202020302020302020302020302020302020302020302020302020302020302020302020300A20202020302E343132352020202D312E3337333720202020302E303030302043202020302020302020302020302020302020302020302020302020302020302020302020300A2020202D302E383235302020202D302E3635393220202020302E303030302053202020302020302020302020302020302020302020302020302020302020302020302020300A2020202D302E3832353020202020302E3136353820202020302E30303030204F202020302020302020302020302020302020302020302020302020302020302020302020300A2020202D302E383235302020202D312E3438343220202020302E30303030204F202020302020302020302020302020302020302020302020302020302020302020302020300A2020202D312E363530302020202D302E3635393220202020302E30303030204F202020302020302020302020302020302020302020302020302020302020302020302020300A2020202D302E3030303020202020302E3736393720202020302E30303030204E202020302020332020302020302020302020302020302020302020302020302020302020300A2020202D302E3832353020202020302E3736393720202020302E30303030204F202020302020302020302020302020302020302020302020302020302020302020302020300A20202020302E3431323520202020312E3438343220202020302E30303030204F202020302020352020302020302020302020302020302020302020302020302020302020300A2020312020322020312020302020202020200A2020322020332020322020302020202020200A2020332020342020312020302020202020200A2020342020352020322020302020202020200A2020352020362020312020302020202020200A2020312020362020322020302020202020200A2020372020382020322020302020202020200A2020372020392020322020302020202020200A2020372031302020312020302020202020200A2020312020372020312020302020202020200A2031312031322020322020302020202020200A2031312031332020312020302020202020200A2020322031312020312020302020202020200A4D202043484720203220203131202020312020313320202D310A4D2020454E44
Contributor: NARA WOMEN'S UNIVERSITY
InstType: EI
InstName: HITACHI M-80
IoniMethod: _ENERGY 70 eV
IonPolarity: pos
Date: 2010-10-09 19:48:36+02:00
Num Peaks: 59
27 17 30 524 37 16 38 45 39 195 46 140 48 27 49 12 50 289 51 64 
52 76 53 68 55 11 61 11 62 32 63 309 64 210 65 620 66 44 67 11 
69 30 70 18 73 16 74 174 75 117 76 192 77 78 78 80 79 176 80 42 
81 316 82 20 92 506 93 164 94 56 95 43 96 17 106 21 107 42 108 47 
109 780 110 85 122 114 123 218 124 27 139 261 140 22 170 53 173 12 183 13 
186 999 187 423 188 99 189 25 200 23 203 419 204 185 205 35 206 10 
