Name: DIMETHYL FUMARATE
MW: 144
Formula: C6H8O4
Synonym: MassBank: JP005294
Synonym: DIMETHYL FUMARATE
Synonym: FUMARIC ACID DIMETHYL ESTER
Structure: 5452414E532D425554454E4544494F494320414349442044494D455448594C2045535445522E6D6F6C0A20204368656D447261773038313231303038303732440A2031302020392020302020302020302020302020302020302020302020303939392056323030300A2020202D312E3432383920202020302E3230363320202020302E303030302043202020302020302020302020302020302020302020302020302020302020302020302020300A2020202D302E373134352020202D302E3230363220202020302E303030302043202020302020302020302020302020302020302020302020302020302020302020302020300A20202020302E3030303020202020302E3230363320202020302E303030302043202020302020302020302020302020302020302020302020302020302020302020302020300A20202020302E373134352020202D302E3230363220202020302E303030302043202020302020302020302020302020302020302020302020302020302020302020302020300A2020202D312E3432383920202020312E3033313320202020302E30303030204F202020302020302020302020302020302020302020302020302020302020302020302020300A2020202D322E313433342020202D302E3230363220202020302E30303030204F202020302020302020302020302020302020302020302020302020302020302020302020300A20202020302E373134352020202D312E3033313220202020302E30303030204F202020302020302020302020302020302020302020302020302020302020302020302020300A20202020312E3432383920202020302E3230363320202020302E30303030204F202020302020302020302020302020302020302020302020302020302020302020302020300A2020202D322E313433342020202D312E3033313320202020302E303030302043202020302020302020302020302020302020302020302020302020302020302020302020300A20202020322E313433342020202D302E3230363220202020302E303030302043202020302020302020302020302020302020302020302020302020302020302020302020300A2020312020322020312020302020202020200A2020322020332020322020302020202020200A2020332020342020312020302020202020200A2020312020352020322020302020202020200A2020312020362020312020302020202020200A2020342020372020322020302020202020200A2020342020382020312020302020202020200A2020362020392020312020302020202020200A2020382031302020312020302020202020200A4D2020454E44
Contributor: YAMAMOTO M, DEP. CHEMISTRY, FAC. SCIENCE, NARA WOMEN'S UNIV.
InstType: EI
InstName: HITACHI RMU-6M
IoniMethod: _ENERGY 70 eV
IonPolarity: pos
Date: 2010-10-09 19:48:36+02:00
Num Peaks: 32
14 11 15 308 25 14 26 145 27 40 28 70 29 68 30 20 31 24 39 43 
41 45 42 14 43 20 44 20 53 139 54 106 55 31 56 19 59 277 69 14 
71 14 81 37 82 51 83 11 85 426 86 21 99 15 100 21 113 999 114 181 
115 17 144 31 
