Name: 11-KETOANDROSTERONE
MW: 304
Formula: C19H28O3
Synonym: MassBank: JP009703
Synonym: 11-KETOANDROSTERONE
Synonym: 3ALPHA-HYDROXY-5BETA-ANDROSTANE-11,17-DIONE
Structure: 31312D4B45544F414E44524F535445524F4E452E6D6F6C0A20204368656D447261773132313030393137353732440A2032372033302020302020302020302020302020302020302020302020303939392056323030300A2020202D312E3330383020202020302E3039393020202020302E303030302043202020302020302020302020302020302020302020302020302020302020302020302020300A2020202D322E303232342020202D302E3331333520202020302E303030302043202020302020302020302020302020302020302020302020302020302020302020302020300A2020202D322E303232342020202D312E3133383520202020302E303030302043202020302020302020302020302020302020302020302020302020302020302020302020300A2020202D322E363035382020202D312E3732313820202020302E30303030204F202020302020302020302020302020302020302020302020302020302020302020302020300A2020202D312E333038302020202D312E3535313020202020302E303030302043202020302020302020302020302020302020302020302020302020302020302020302020300A2020202D302E353933362020202D312E3133383520202020302E303030302043202020302020302020302020302020302020302020302020302020302020302020302020300A20202020302E313230392020202D312E3535313020202020302E303030302043202020302020302020302020302020302020302020302020302020302020302020302020300A20202020302E383335342020202D312E3133383520202020302E303030302043202020302020302020302020302020302020302020302020302020302020302020302020300A20202020302E383335342020202D302E3331333520202020302E303030302043202020302020302020302020302020302020302020302020302020302020302020302020300A20202020312E3534393820202020302E3039393020202020302E303030302043202020302020302020302020302020302020302020302020302020302020302020302020300A20202020322E333334342020202D302E3135363020202020302E303030302043202020302020302020302020302020302020302020302020302020302020302020302020300A20202020322E3831393320202020302E3531313520202020302E303030302043202020302020302020302020302020302020302020302020302020302020302020302020300A20202020322E3333343420202020312E3137383920202020302E303030302043202020302020302020302020302020302020302020302020302020302020302020302020300A20202020322E3538393320202020312E3936333420202020302E30303030204F202020302020302020302020302020302020302020302020302020302020302020302020300A20202020312E3534393820202020302E3932343020202020302E303030302043202020302020302020302020302020302020302020302020302020302020302020302020300A20202020312E3534393820202020312E3734383920202020302E303030302043202020302020302020302020302020302020302020302020302020302020302020302020300A20202020302E3833353420202020312E3333363520202020302E303030302043202020302020302020302020302020302020302020302020302020302020302020302020300A20202020302E3132303920202020302E3932343020202020302E303030302043202020302020302020302020302020302020302020302020302020302020302020302020300A20202020302E3132303920202020302E3039393020202020302E303030302043202020302020302020302020302020302020302020302020302020302020302020302020300A2020202D302E353933362020202D302E3331333520202020302E303030302043202020302020302020302020302020302020302020302020302020302020302020302020300A2020202D302E303130322020202D302E3839363920202020302E303030302043202020302020302020302020302020302020302020302020302020302020302020302020300A2020202D302E3539333620202020312E3333363520202020302E30303030204F202020302020302020302020302020302020302020302020302020302020302020302020300A2020202D302E3539333620202020302E3531313520202020302E303030302048202020302020302020302020302020302020302020302020302020302020302020302020300A20202020312E353439382020202D302E3732363020202020302E303030302048202020302020302020302020302020302020302020302020302020302020302020302020300A20202020312E393632322020202D302E3631353520202020302E303030302048202020302020302020302020302020302020302020302020302020302020302020302020300A2020202D322E383139332020202D302E3932353020202020302E303030302048202020302020302020302020302020302020302020302020302020302020302020302020300A2020202D302E353933362020202D312E3936333420202020302E303030302048202020302020302020302020302020302020302020302020302020302020302020302020300A2020312020322020312020302020202020200A2020322020332020312020302020202020200A2020332020342020312020362020202020200A2020332020352020312020302020202020200A2020352020362020312020302020202020200A2020362020372020312020302020202020200A2020372020382020312020302020202020200A2020382020392020312020302020202020200A2020392031302020312020302020202020200A2031302031312020312020302020202020200A2031312031322020312020302020202020200A2031322031332020312020302020202020200A2031332031342020322020302020202020200A2031332031352020312020302020202020200A2031302031352020312020302020202020200A2031352031362020312020312020202020200A2031352031372020312020302020202020200A2031372031382020312020302020202020200A2031382031392020312020302020202020200A2020392031392020312020302020202020200A2031392032302020312020302020202020200A2020312032302020312020302020202020200A2020362032302020312020302020202020200A2032302032312020312020312020202020200A2031382032322020322020302020202020200A2031392032332020312020362020202020200A2020392032342020312020312020202020200A2031302032352020312020362020202020200A2020332032362020312020312020202020200A2020362032372020312020312020202020200A4D2020454E44
Contributor: HASHIMOTO K, KYOTO COLLEGE OF PHARMACY
InstType: EI
InstName: HITACHI M-80
IoniMethod: _ENERGY 20 eV
IonPolarity: pos
Date: 2010-10-09 19:48:36+02:00
Num Peaks: 141
55 11 67 24 68 11 69 29 79 28 80 12 81 46 82 33 83 27 84 12 
91 30 92 17 93 80 94 67 95 65 96 36 97 38 98 18 104 19 105 86 
106 80 107 159 108 215 109 178 110 133 111 99 112 14 117 10 118 89 119 99 
120 62 121 132 122 113 123 56 124 151 125 32 129 13 130 12 131 38 132 35 
136 24 137 50 138 30 139 31 140 14 143 12 144 19 145 96 146 43 147 351 
148 92 149 78 150 214 151 41 152 18 156 11 157 18 158 17 159 31 160 39 
161 41 162 34 163 140 164 52 165 169 166 29 167 10 171 16 172 57 173 73 
174 42 175 48 176 59 177 19 178 264 179 44 180 23 181 11 185 12 186 11 
187 41 188 19 189 17 190 24 191 277 192 45 193 227 194 36 195 11 197 17 
199 26 200 13 201 22 202 25 203 14 204 13 205 35 206 12 211 17 212 22 
213 15 214 11 215 25 216 10 217 14 218 11 220 21 225 18 226 16 227 22 
228 14 229 30 230 21 231 16 232 43 233 20 240 17 241 15 242 37 243 49 
244 19 245 16 247 11 248 21 253 30 257 12 258 28 260 16 261 32 262 10 
268 37 269 15 271 115 272 24 276 12 286 123 287 27 289 15 304 999 305 216 
306 30 
