Name: TRANS-ETHYL-LINALYL ACETATE
MW: 210
Formula: C13H22O2
Synonym: MassBank: JP008365
Synonym: TRANS-ETHYL-LINALYL ACETATE
Synonym: 1,5-DIMETHYL-1-VINYL-(E)-4-HEPTENYL ACETATE
Structure: 5452414E532D455448594C2D4C494E414C594C20414345544154452E6D6F6C0A20204368656D447261773131313630393132343732440A2031362031352020302020302020302020302020302020302020302020303939392056323030300A2020202D302E333032302020202D302E3136353820202020302E303030302043202020302020302020302020302020302020302020302020302020302020302020302020300A2020202D302E373134352020202D302E3838303320202020302E303030302043202020302020302020302020302020302020302020302020302020302020302020302020300A20202020302E303030302020202D312E3239323820202020302E303030302043202020302020302020302020302020302020302020302020302020302020302020302020300A20202020302E373134352020202D302E3838303320202020302E303030302043202020302020302020302020302020302020302020302020302020302020302020302020300A20202020302E373134352020202D302E3035353320202020302E303030302043202020302020302020302020302020302020302020302020302020302020302020302020300A20202020312E3432383920202020302E3335373220202020302E303030302043202020302020302020302020302020302020302020302020302020302020302020302020300A20202020312E3432383920202020312E3138323220202020302E303030302043202020302020302020302020302020302020302020302020302020302020302020302020300A20202020322E313433342020202D302E3035353320202020302E303030302043202020302020302020302020302020302020302020302020302020302020302020302020300A2020202D312E313237302020202D312E3539343720202020302E303030302043202020302020302020302020302020302020302020302020302020302020302020302020300A2020202D312E393532302020202D312E3539343720202020302E303030302043202020302020302020302020302020302020302020302020302020302020302020302020300A2020202D312E343238392020202D302E3436373820202020302E30303030204F202020302020302020302020302020302020302020302020302020302020302020302020300A20202020302E3030303020202020302E3335373220202020302E303030302048202020302020302020302020302020302020302020302020302020302020302020302020300A20202020322E3134333420202020312E3539343720202020302E303030302043202020302020302020302020302020302020302020302020302020302020302020302020300A2020202D312E3432383920202020302E3335373220202020302E303030302043202020302020302020302020302020302020302020302020302020302020302020302020300A2020202D302E3731343520202020302E3736393720202020302E30303030204F202020302020302020302020302020302020302020302020302020302020302020302020300A2020202D322E3134333420202020302E3736393720202020302E303030302043202020302020302020302020302020302020302020302020302020302020302020302020300A2020322020332020312020302020202020200A2020332020342020312020302020202020200A2020342020352020312020302020202020200A2020352020362020322020302020202020200A2020362020372020312020302020202020200A2020362020382020312020302020202020200A2020322020392020312020302020202020200A2020392031302020322020302020202020200A2020322031312020312020302020202020200A2020312020322020312020302020202020200A2020352031322020312020302020202020200A2020372031332020312020302020202020200A2031312031342020312020302020202020200A2031342031352020322020302020202020200A2031342031362020312020302020202020200A4D2020454E44
Contributor: SODA AROMATIC CO., LTD.
InstType: EI
InstName: HITACHI M-80B
IoniMethod: _ENERGY 70 eV
IonPolarity: pos
Date: 2010-10-09 19:48:36+02:00
Num Peaks: 54
15 20 27 80 29 89 39 83 40 23 41 276 42 32 43 665 44 16 45 13 
51 14 52 15 53 82 54 21 55 486 56 27 57 47 65 20 66 13 67 149 
68 62 69 45 70 12 71 147 72 23 77 46 79 126 80 447 81 131 82 102 
83 109 84 16 85 12 91 48 92 143 93 999 94 123 95 88 96 19 97 24 
105 34 106 14 107 81 108 20 109 17 113 14 119 13 121 363 122 41 123 17 
135 63 150 78 151 19 153 11 
