Name: (2-METHYL-2-PROPENYL)TRIMETHYLSILANE
MW: 128
Formula: C7H16Si
Synonym: MassBank: JP004674
Synonym: (2-METHYL-2-PROPENYL)TRIMETHYLSILANE
Synonym: 2,4,4-TRIMETHYL-4-SILA-1-PENTENE
Structure: 310A33380A28322D4D455448594C2D322D50524F50454E594C295452494D455448594C53494C414E452E6D6F6C0A20204368656D447261773130313930393138303332440A2020382020372020302020302020302020302020302020302020302020303939392056323030300A2020202D302E3731343520202020302E3035353320202020302E303030302053692020302020302020302020302020302020302020302020302020302020302020302020300A2020202D302E3030303020202020302E3436373820202020302E303030302043202020302020302020302020302020302020302020302020302020302020302020302020300A20202020302E3731343520202020302E3035353320202020302E303030302043202020302020302020302020302020302020302020302020302020302020302020302020300A20202020302E373134352020202D302E3736393720202020302E303030302043202020302020302020302020302020302020302020302020302020302020302020302020300A20202020312E3432383920202020302E3436373820202020302E303030302043202020302020302020302020302020302020302020302020302020302020302020302020300A2020202D302E3933333620202020302E3736393720202020302E303030302043202020302020302020302020302020302020302020302020302020302020302020302020300A2020202D302E333032302020202D302E3635393220202020302E303030302043202020302020302020302020302020302020302020302020302020302020302020302020300A2020202D312E343238392020202D302E3335373220202020302E303030302043202020302020302020302020302020302020302020302020302020302020302020302020300A2020312020322020312020302020202020200A2020322020332020312020302020202020200A2020332020342020322020302020202020200A2020332020352020312020302020202020200A2020312020362020312020312020202020200A2020312020372020312020312020202020200A2020312020382020312020302020202020200A4D202053545920203120202031205355500A4D2020534C4220203120202031202020310A4D202053414C20202031202031202020360A4D202053424C20202031202031202020350A4D2020534D5420202031204D650A4D2020534256202020312020352020202D372E3632333520202020372E303436330A4D202053545920203120202032205355500A4D2020534C4220203120202032202020320A4D202053414C20202032202031202020370A4D202053424C20202032202031202020360A4D2020534D5420202032204D650A4D2020534256202020322020362020202D362E3939313920202020352E363137340A4D202053545920203120202033205355500A4D2020534C4220203120202033202020330A4D202053414C20202033202031202020380A4D202053424C20202033202031202020370A4D2020534D5420202033204D650A4D2020534256202020332020372020202D382E3131383820202020352E393139340A4D2020454E44
Contributor: MASS SPECTROSCOPY SOC. OF JAPAN (MSSJ)
InstType: EI
InstName: JEOL JMS-D-3000
IoniMethod: _ENERGY 70 eV
IonPolarity: pos
Date: 2010-10-09 19:48:36+02:00
Num Peaks: 10
45 53 59 97 73 999 74 71 75 34 85 62 113 115 114 14 128 108 129 14 
