Name: BETA-MYRCENE
MW: 136
Formula: C10H16
Synonym: MassBank: JP008399
Synonym: BETA-MYRCENE
Synonym: 7-METHYL-3-METHYLENE-1,6-OCTADIENE
Structure: 424554412D4D595243454E452E6D6F6C0A20204368656D447261773035323431303134353632440A2031302020392020302020302020302020302020302020302020302020303939392056323030300A2020202D322E3036323520202020302E3731343520202020302E303030302043202020302020302020302020302020302020302020302020302020302020302020302020300A2020202D312E363530302020202D302E3030303020202020302E303030302043202020302020302020302020302020302020302020302020302020302020302020302020300A2020202D302E383235302020202D302E3030303020202020302E303030302043202020302020302020302020302020302020302020302020302020302020302020302020300A2020202D302E343132352020202D302E3731343520202020302E303030302043202020302020302020302020302020302020302020302020302020302020302020302020300A20202020302E343132352020202D302E3731343520202020302E303030302043202020302020302020302020302020302020302020302020302020302020302020302020300A20202020302E3832353020202020302E3030303020202020302E303030302043202020302020302020302020302020302020302020302020302020302020302020302020300A20202020312E3635303020202020302E3030303020202020302E303030302043202020302020302020302020302020302020302020302020302020302020302020302020300A20202020322E3036323520202020302E3731343520202020302E303030302043202020302020302020302020302020302020302020302020302020302020302020302020300A2020202D302E3431323520202020302E3731343520202020302E303030302043202020302020302020302020302020302020302020302020302020302020302020302020300A20202020322E303632352020202D302E3731343520202020302E303030302043202020302020302020302020302020302020302020302020302020302020302020302020300A2020312020322020322020302020202020200A2020322020332020312020302020202020200A2020332020342020312020302020202020200A2020342020352020312020302020202020200A2020352020362020312020302020202020200A2020362020372020322020302020202020200A2020372020382020312020302020202020200A2020332020392020322020302020202020200A2020372031302020312020302020202020200A4D2020454E44
Contributor: SODA AROMATIC CO., LTD.
InstType: EI
InstName: HITACHI M-80B
IoniMethod: _ENERGY 70 eV
IonPolarity: pos
Date: 2010-10-09 19:48:36+02:00
Num Peaks: 36
27 189 28 11 29 54 38 12 39 259 40 49 41 980 42 39 43 31 50 19 
51 64 52 33 53 152 54 16 55 33 63 15 65 59 66 23 67 106 68 46 
69 846 70 40 77 123 78 20 79 139 80 74 81 16 82 14 91 125 92 91 
93 999 94 103 105 15 107 22 121 41 136 42 
