Name: MassBank: JP002302
MW: 126
Formula: C8H14O
Synonym: MassBank: JP002302
Synonym: 2,2-DIMETHYLCYCLOHEXANONE
Structure: 310A32330A322C322D44494D455448594C4359434C4F484558414E4F4E452E6D6F6C0A20204368656D447261773132323030393036353232440A2020392020392020302020302020302020302020302020302020302020303939392056323030300A20202020302E3430363220202020302E3431323520202020302E303030302043202020302020302020302020302020302020302020302020302020302020302020302020300A2020202D302E3330383220202020302E3030303020202020302E303030302043202020302020302020302020302020302020302020302020302020302020302020302020300A2020202D302E333038322020202D302E3832353020202020302E303030302043202020302020302020302020302020302020302020302020302020302020302020302020300A20202020302E343036322020202D312E3233373520202020302E303030302043202020302020302020302020302020302020302020302020302020302020302020302020300A20202020312E313230372020202D302E3832353020202020302E303030302043202020302020302020302020302020302020302020302020302020302020302020302020300A20202020312E3132303720202020302E3030303020202020302E303030302043202020302020302020302020302020302020302020302020302020302020302020302020300A2020202D302E3539303420202020302E3737353220202020302E303030302043202020302020302020302020302020302020302020302020302020302020302020302020300A2020202D312E313230372020202D302E3134333320202020302E303030302043202020302020302020302020302020302020302020302020302020302020302020302020300A20202020302E3430363220202020312E3233373520202020302E30303030204F202020302020302020302020302020302020302020302020302020302020302020302020300A2020312020322020312020302020202020200A2020322020332020312020302020202020200A2020332020342020312020302020202020200A2020342020352020312020302020202020200A2020352020362020312020302020202020200A2020312020362020312020302020202020200A2020322020372020312020312020202020200A2020322020382020312020362020202020200A2020312020392020322020302020202020200A4D2020454E44
Contributor: MASS SPECTROSCOPY SOC. OF JAPAN (MSSJ)
InstType: EI
InstName: JEOL JMS-D-3000
IoniMethod: _ENERGY 70 eV
IonPolarity: pos
Date: 2010-10-09 19:48:36+02:00
Num Peaks: 34
40 356 42 492 43 99 44 190 45 20 51 17 53 50 54 36 55 446 56 616 
57 76 58 98 59 29 67 117 68 376 69 598 70 141 71 23 74 17 77 14 
79 11 81 18 82 999 83 156 84 73 93 19 95 12 97 44 98 163 99 13 
108 12 111 30 126 430 127 40 
