Name: TRIMETHYLPHOSPHATE
MW: 140
Formula: C3H9O4P
Synonym: MassBank: JP003506
Synonym: TRIMETHYLPHOSPHATE
Structure: 310A32300A5452494D455448594C50484F5350484154452E6D6F6C0A20204368656D447261773038313231303038343732440A2020382020372020302020302020302020302020302020302020302020303939392056323030300A20202020302E323036332020202D302E3030303020202020302E303030302050202020302020302020302020302020302020302020302020302020302020302020302020300A20202020312E303331332020202D302E3030303020202020302E30303030204F202020302020302020302020302020302020302020302020302020302020302020302020300A20202020302E323036332020202D302E3832353020202020302E30303030204F202020302020302020302020302020302020302020302020302020302020302020302020300A2020202D302E363138372020202D302E3030303020202020302E30303030204F202020302020302020302020302020302020302020302020302020302020302020302020300A20202020302E3230363320202020302E3832353020202020302E30303030204F202020302020302020302020302020302020302020302020302020302020302020302020300A20202020302E393230372020202D312E3233373520202020302E303030302043202020302020302020302020302020302020302020302020302020302020302020302020300A2020202D312E303331332020202D302E3731343520202020302E303030302043202020302020302020302020302020302020302020302020302020302020302020302020300A20202020302E3932303720202020312E3233373520202020302E303030302043202020302020302020302020302020302020302020302020302020302020302020302020300A2020312020322020322020302020202020200A2020312020332020312020302020202020200A2020312020342020312020302020202020200A2020312020352020312020302020202020200A2020332020362020312020302020202020200A2020342020372020312020302020202020200A2020352020382020312020302020202020200A4D2020454E44
Contributor: MASS SPECTROSCOPY SOC. OF JAPAN (MSSJ)
InstType: EI
InstName: HITACHI M-60
IoniMethod: _ENERGY 20 eV
IonPolarity: pos
Date: 2010-10-09 19:48:36+02:00
Num Peaks: 31
43 4 45 29 46 8 57 8 58 49 59 5 65 36 66 1 72 2 73 1 
78 7 79 354 80 499 81 11 82 3 86 55 93 16 95 321 96 11 97 4 
109 411 110 999 111 57 112 13 125 1 127 24 139 14 140 324 141 42 142 12 
143 2 
