Name: 3-(DIETHOXYPHOSPHORYL)METHYL-5-METHOXYCARBONYL-2-ISOXAZOLINE
MW: 279
Formula: C10H18NO6P
Synonym: MassBank: JP009352
Synonym: 3-(DIETHOXYPHOSPHORYL)METHYL-5-METHOXYCARBONYL-2-ISOXAZOLINE
Structure: 332D2844494554484F585950484F5350484F52594C294D455448594C2D352D4D4554484F5859434152424F4E594C2D322D49534F58415A4F4C494E452E6D6F6C0A20204368656D447261773032323231303130333832440A2031382031382020302020302020302020302020302020302020302020303939392056323030300A20202020312E303137362020202D312E3536373920202020302E30303030204F202020302020302020302020302020302020302020302020302020302020302020302020300A20202020302E323039342020202D312E3339363720202020302E30303030204E202020302020302020302020302020302020302020302020302020302020302020302020300A20202020302E313233322020202D302E3537353520202020302E303030302043202020302020302020302020302020302020302020302020302020302020302020302020300A20202020302E383736382020202D302E3234303020202020302E303030302043202020302020302020302020302020302020302020302020302020302020302020302020300A20202020312E343238392020202D302E3835333120202020302E303030302043202020302020302020302020302020302020302020302020302020302020302020302020300A20202020322E323439332020202D302E3736363220202020302E303030302043202020302020302020302020302020302020302020302020302020302020302020302020300A20202020322E373334372020202D312E3433333320202020302E30303030204F202020302020302020302020302020302020302020302020302020302020302020302020300A20202020322E353834332020202D302E3031323320202020302E30303030204F202020302020302020302020302020302020302020302020302020302020302020302020300A20202020322E3039383820202020302E3635343820202020302E303030302043202020302020302020302020302020302020302020302020302020302020302020302020300A2020202D312E333035382020202D302E3537353520202020302E303030302050202020302020302020302020302020302020302020302020302020302020302020302020300A2020202D302E383933332020202D312E3239303020202020302E30303030204F202020302020302020302020302020302020302020302020302020302020302020302020300A2020202D312E3731383320202020302E3133383920202020302E30303030204F202020302020302020302020302020302020302020302020302020302020302020302020300A2020202D322E303230322020202D302E3938383020202020302E30303030204F202020302020302020302020302020302020302020302020302020302020302020302020300A2020202D312E3330353820202020302E3835333420202020302E303030302043202020302020302020302020302020302020302020302020302020302020302020302020300A2020202D312E3731383320202020312E3536373920202020302E303030302043202020302020302020302020302020302020302020302020302020302020302020302020300A2020202D322E373334372020202D302E3537353520202020302E303030302043202020302020302020302020302020302020302020302020302020302020302020302020300A2020202D322E3733343720202020302E3234393520202020302E303030302043202020302020302020302020302020302020302020302020302020302020302020302020300A2020202D302E353931332020202D302E3136333020202020302E303030302043202020302020302020302020302020302020302020302020302020302020302020302020300A2020312020322020312020302020202020200A2020322020332020322020302020202020200A2020332020342020312020302020202020200A2020342020352020312020302020202020200A2020312020352020312020302020202020200A2020362020372020322020302020202020200A2020382020392020312020302020202020200A2020362020382020312020302020202020200A2020352020362020312020302020202020200A2031302031312020322020302020202020200A2031302031322020312020302020202020200A2031302031332020312020302020202020200A2031342031352020312020302020202020200A2031322031342020312020302020202020200A2031362031372020312020302020202020200A2031332031362020312020302020202020200A2020332031382020312020302020202020200A2031382031302020312020302020202020200A4D2020454E44
Contributor: KANEMASA S, INST. OF ADVANCED MATERIAL STUDY KYUSHU UNIV.
InstType: EI
InstName: JEOL JMS-01-SG-2
IoniMethod: _ENERGY 75 eV
IonPolarity: pos
Date: 2010-10-09 19:48:36+02:00
Num Peaks: 49
38 134 39 71 40 146 41 153 42 252 44 137 47 203 51 133 52 156 53 244 
54 894 55 222 59 999 65 398 78 135 79 91 81 805 82 187 83 197 84 70 
91 159 95 84 96 83 97 91 104 96 109 494 122 76 123 17 125 23 133 26 
136 21 137 76 142 89 146 437 147 25 148 14 149 16 164 926 165 58 166 11 
174 14 178 37 192 277 193 19 220 516 221 63 234 18 280 88 281 10 
