Name: MassBank: JP002484
MW: 222
Formula: C13H22OSi
Synonym: MassBank: JP002484
Synonym: 5-TRIMETHYLSILYLMETHYL-2,3,3A,4,7,7A-HEXAHYDROINDEN-1-ONE
Structure: 352D5452494D455448594C53494C594C4D455448594C2D322C332C33412C342C372C37412D48455841485944524F494E44454E2D312D4F4E452E6D6F6C0A20204368656D447261773034323331303037353132440A2031352031362020302020302020302020302020302020302020302020303939392056323030300A2020202D312E393336302020202D302E3530343920202020302E303030302043202020302020302020302020302020302020302020302020302020302020302020302020300A2020202D322E3432303920202020302E3136323520202020302E303030302043202020302020302020302020302020302020302020302020302020302020302020302020300A2020202D312E3933363020202020302E3833303020202020302E303030302043202020302020302020302020302020302020302020302020302020302020302020302020300A2020202D312E3135313420202020302E3537353020202020302E303030302043202020302020302020302020302020302020302020302020302020302020302020302020300A2020202D302E3433363920202020302E3938373520202020302E303030302043202020302020302020302020302020302020302020302020302020302020302020302020300A20202020302E3237373520202020302E3537353020202020302E303030302043202020302020302020302020302020302020302020302020302020302020302020302020300A20202020302E323737352020202D302E3235303020202020302E303030302043202020302020302020302020302020302020302020302020302020302020302020302020300A2020202D302E343336392020202D302E3636323520202020302E303030302043202020302020302020302020302020302020302020302020302020302020302020302020300A2020202D312E313531342020202D302E3235303020202020302E303030302043202020302020302020302020302020302020302020302020302020302020302020302020300A2020202D322E313931302020202D312E3238393520202020302E30303030204F202020302020302020302020302020302020302020302020302020302020302020302020300A20202020302E3939323020202020302E3938373520202020302E303030302043202020302020302020302020302020302020302020302020302020302020302020302020300A20202020312E3730363520202020302E3537353020202020302E303030302053692020302020302020302020302020302020302020302020302020302020302020302020300A20202020322E3131393020202020312E3238393520202020302E303030302043202020302020302020302020302020302020302020302020302020302020302020302020300A20202020322E3432303920202020302E3136323520202020302E303030302043202020302020302020302020302020302020302020302020302020302020302020302020300A20202020312E323934302020202D302E3133393420202020302E303030302043202020302020302020302020302020302020302020302020302020302020302020302020300A2020312020322020312020302020202020200A2020322020332020312020302020202020200A2020332020342020312020302020202020200A2020342020352020312020302020202020200A2020352020362020312020302020202020200A2020362020372020322020302020202020200A2020372020382020312020302020202020200A2020382020392020312020302020202020200A2020312020392020312020302020202020200A2020342020392020312020302020202020200A2020312031302020322020302020202020200A2031322031332020312020312020202020200A2031322031342020312020302020202020200A2031322031352020312020312020202020200A2031312031322020312020302020202020200A2020362031312020312020302020202020200A4D2020454E44
Contributor: MASS SPECTROSCOPY SOC. OF JAPAN (MSSJ)
InstType: EI
InstName: JEOL JMS-D-3000
IoniMethod: _ENERGY 70 eV
IonPolarity: pos
Date: 2010-10-09 19:48:36+02:00
Num Peaks: 29
43 32 45 101 59 62 73 999 74 94 75 138 77 31 79 26 91 83 92 22 
105 26 106 35 117 66 131 37 132 63 154 76 155 182 156 29 166 98 167 527 
168 93 169 28 181 55 193 25 207 123 208 26 221 24 222 256 223 49 
