Name: CHLOROACETIC ACID ISOPROPYL ESTER
MW: 136
Formula: C5H9ClO2
Synonym: MassBank: JP005277
Synonym: CHLOROACETIC ACID ISOPROPYL ESTER
Synonym: ISOPROPYL CHLOROACETATE
Structure: 310A32300A43484C4F524F41434554494320414349442049534F50524F50594C2045535445522E6D6F6C0A20204368656D447261773039303731303034313632440A2020382020372020302020302020302020302020302020302020302020303939392056323030300A20202020302E373134352020202D302E3230363320202020302E303030302043202020302020302020302020302020302020302020302020302020302020302020302020300A20202020312E3432383920202020302E3230363320202020302E303030302043202020302020302020302020302020302020302020302020302020302020302020302020300A20202020302E373134352020202D312E3033313220202020302E30303030204F202020302020302020302020302020302020302020302020302020302020302020302020300A2020202D302E3030303020202020302E3230363320202020302E30303030204F202020302020302020302020302020302020302020302020302020302020302020302020300A20202020312E3432383920202020312E3033313320202020302E3030303020436C2020302020302020302020302020302020302020302020302020302020302020302020300A2020202D302E373134352020202D302E3230363220202020302E303030302043202020302020302020302020302020302020302020302020302020302020302020302020300A2020202D302E373134352020202D312E3033313320202020302E303030302043202020302020302020302020302020302020302020302020302020302020302020302020300A2020202D312E3432383920202020302E3230363320202020302E303030302043202020302020302020302020302020302020302020302020302020302020302020302020300A2020312020322020312020302020202020200A2020312020332020322020302020202020200A2020312020342020312020302020202020200A2020322020352020312020302020202020200A2020362020372020312020302020202020200A2020362020382020312020302020202020200A2020342020362020312020302020202020200A4D2020454E44
Contributor: YAMAMOTO M, DEP. CHEMISTRY, FAC. SCIENCE, NARA WOMEN'S UNIV.
InstType: EI
InstName: HITACHI RMU-6M
IoniMethod: _ENERGY 70 eV
IonPolarity: pos
Date: 2010-10-09 19:48:36+02:00
Num Peaks: 28
14 23 15 51 26 14 27 190 28 14 29 25 31 16 38 11 39 84 40 18 
41 287 42 107 43 999 44 34 45 71 48 11 49 172 51 53 59 81 66 10 
67 619 68 16 69 193 95 49 97 17 121 232 122 11 123 76 
