Name: CAPROLACTAM
MW: 113
Formula: C6H11NO
Synonym: MassBank: JP003884
Synonym: CAPROLACTAM
Structure: 310A32310A434150524F4C414354414D2E6D6F6C0A20204368656D447261773039303631303130303232440A2020382020382020302020302020302020302020302020302020302020303939392056323030300A2020202D302E343931312020202D302E3030303020202020302E303030302043202020302020302020302020302020302020302020302020302020302020302020302020300A2020202D302E3133333220202020302E3734333320202020302E303030302043202020302020302020302020302020302020302020302020302020302020302020302020300A20202020302E3637313120202020302E3932363920202020302E303030302043202020302020302020302020302020302020302020302020302020302020302020302020300A20202020312E3331363120202020302E3431323520202020302E303030302043202020302020302020302020302020302020302020302020302020302020302020302020300A20202020312E333136312020202D302E3431323520202020302E303030302043202020302020302020302020302020302020302020302020302020302020302020302020300A20202020302E363731312020202D302E3932363920202020302E303030302043202020302020302020302020302020302020302020302020302020302020302020302020300A2020202D312E333136312020202D302E3030303020202020302E30303030204F202020302020302020302020302020302020302020302020302020302020302020302020300A2020202D302E313333322020202D302E3734333320202020302E30303030204E202020302020302020302020302020302020302020302020302020302020302020302020300A2020312020322020312020302020202020200A2020322020332020312020302020202020200A2020332020342020312020302020202020200A2020342020352020312020302020202020200A2020352020362020312020302020202020200A2020312020372020322020302020202020200A2020312020382020312020302020202020200A2020362020382020312020302020202020200A4D2020454E44
Contributor: MASS SPECTROSCOPY SOC. OF JAPAN (MSSJ)
InstType: EI
InstName: Unknown
IoniMethod: EI
IonPolarity: pos
Date: 2010-10-09 19:48:36+02:00
Num Peaks: 27
27 147 28 265 29 82 30 81 39 132 40 35 41 324 42 65 43 176 44 33 
53 24 54 2 55 999 56 662 57 88 67 9 68 35 69 24 70 21 71 2 
83 53 84 603 85 565 86 3 112 868 113 32 114 88 
