Name: 4-ETHYL-1-ISOPROPYL-2-PYRAZOLINE
MW: 140
Formula: C8H16N2
Synonym: MassBank: JP000408
Synonym: 4-ETHYL-1-ISOPROPYL-2-PYRAZOLINE
Structure: 342D455448594C2D312D49534F50524F50594C2D322D505952415A4F4C494E452E6D6F6C0A20204368656D447261773033323531303231353032440A2031302031302020302020302020302020302020302020302020302020303939392056323030300A20202020302E373236362020202D302E3039313520202020302E30303030204E202020302020302020302020302020302020302020302020302020302020302020302020300A20202020302E323431372020202D302E3735383920202020302E30303030204E202020302020302020302020302020302020302020302020302020302020302020302020300A2020202D302E353433302020202D302E3530343020202020302E303030302043202020302020302020302020302020302020302020302020302020302020302020302020300A2020202D302E3534333020202020302E3332313020202020302E303030302043202020302020302020302020302020302020302020302020302020302020302020302020300A20202020302E3234313720202020302E3537363020202020302E303030302043202020302020302020302020302020302020302020302020302020302020302020302020300A20202020312E353531362020202D302E3039313520202020302E303030302043202020302020302020302020302020302020302020302020302020302020302020302020300A20202020312E393634312020202D302E3830353920202020302E303030302043202020302020302020302020302020302020302020302020302020302020302020302020300A20202020312E3936343120202020302E3632333020202020302E303030302043202020302020302020302020302020302020302020302020302020302020302020302020300A2020202D312E3231303420202020302E3830353920202020302E303030302043202020302020302020302020302020302020302020302020302020302020302020302020300A2020202D312E3936343120202020302E3437303420202020302E303030302043202020302020302020302020302020302020302020302020302020302020302020302020300A2020312020322020312020302020202020200A2020322020332020322020302020202020200A2020332020342020312020302020202020200A2020342020352020312020302020202020200A2020312020352020312020302020202020200A2020362020372020312020302020202020200A2020362020382020312020302020202020200A2020312020362020312020302020202020200A2020392031302020312020302020202020200A2020342020392020312020302020202020200A4D2020454E44
Contributor: SASAKI S, TOYOHASHI UNIV. OF TECH.
InstType: EI
InstName: SHIMADZU LKB-2091
IoniMethod: _ENERGY 70 eV
IonPolarity: pos
Date: 2010-10-09 19:48:36+02:00
Num Peaks: 33
26 8 27 98 29 41 30 3 39 62 40 16 41 114 42 17 43 75 44 33 
52 5 53 1 54 28 55 52 56 114 57 1 67 6 68 21 69 475 70 3 
81 8 82 9 83 12 95 1 96 17 97 23 98 5 111 2 125 999 126 85 
139 14 140 18 141 18 
