Name: TRANS-3-HEXENOL
MW: 100
Formula: C6H12O
Synonym: MassBank: JP006847
Synonym: TRANS-3-HEXENOL
Structure: 310A31380A5452414E532D332D484558454E4F4C2E6D6F6C0A20204368656D447261773038313231303037353932440A2020372020362020302020302020302020302020302020302020302020303939392056323030300A2020202D312E3432383920202020302E3230363320202020302E303030302043202020302020302020302020302020302020302020302020302020302020302020302020300A2020202D302E373134352020202D302E3230363320202020302E303030302043202020302020302020302020302020302020302020302020302020302020302020302020300A20202020302E3030303020202020302E3230363320202020302E303030302043202020302020302020302020302020302020302020302020302020302020302020302020300A20202020302E373134352020202D302E3230363220202020302E303030302043202020302020302020302020302020302020302020302020302020302020302020302020300A20202020312E3432383920202020302E3230363320202020302E303030302043202020302020302020302020302020302020302020302020302020302020302020302020300A20202020322E313433342020202D302E3230363220202020302E303030302043202020302020302020302020302020302020302020302020302020302020302020302020300A2020202D322E313433342020202D302E3230363320202020302E30303030204F202020302020302020302020302020302020302020302020302020302020302020302020300A2020312020322020312020302020202020200A2020322020332020312020302020202020200A2020332020342020322020302020202020200A2020342020352020312020302020202020200A2020352020362020312020302020202020200A2020312020372020312020302020202020200A4D2020454E44
Contributor: TAJIMA S, GUNMA COLLEGE OF TECHNOLOGY
InstType: EI
InstName: HITACHI M-80B
IoniMethod: _ENERGY 70 eV
IonPolarity: pos
Date: 2010-10-09 19:48:36+02:00
Num Peaks: 35
15 23 26 24 27 222 29 133 30 12 31 263 38 27 39 299 40 39 41 999 
42 213 43 90 44 67 45 21 50 22 51 34 52 13 53 93 54 84 55 350 
56 47 57 108 65 20 66 12 67 504 68 51 69 383 70 110 71 18 72 27 
79 11 81 33 82 336 83 31 100 21 
