Name: DIETHOXYDIMETHYLSILANE
MW: 148
Formula: C6H16O2Si
Synonym: MassBank: JP008860
Synonym: DIETHOXYDIMETHYLSILANE
Structure: 310A32320A44494554484F585944494D455448594C53494C414E452E6D6F6C0A20204368656D447261773039323131303139303332440A2020392020382020302020302020302020302020302020302020302020303939392056323030300A20202020302E323436372020202D302E3030303020202020302E303030302053692020302020302020302020302020302020302020302020302020302020302020302020300A2020202D302E3136353820202020302E3731343520202020302E303030302043202020302020302020302020302020302020302020302020302020302020302020302020300A20202020302E3936313220202020302E3431323520202020302E303030302043202020302020302020302020302020302020302020302020302020302020302020302020300A20202020302E363539322020202D302E3731343520202020302E30303030204F202020302020302020302020302020302020302020302020302020302020302020302020300A20202020312E343834322020202D302E3731343520202020302E303030302043202020302020302020302020302020302020302020302020302020302020302020302020300A20202020312E3839363720202020302E3030303020202020302E303030302043202020302020302020302020302020302020302020302020302020302020302020302020300A2020202D302E343637382020202D302E3431323520202020302E30303030204F202020302020302020302020302020302020302020302020302020302020302020302020300A2020202D312E313832322020202D302E3030303020202020302E303030302043202020302020302020302020302020302020302020302020302020302020302020302020300A2020202D312E383936372020202D302E3431323520202020302E303030302043202020302020302020302020302020302020302020302020302020302020302020302020300A2020312020322020312020302020202020200A2020312020332020312020302020202020200A2020352020362020312020302020202020200A2020342020352020312020302020202020200A2020312020342020312020302020202020200A2020382020392020312020302020202020200A2020372020382020312020302020202020200A2020312020372020312020302020202020200A4D2020454E44
Contributor: TAJIMA S, GUNMA COLLEGE OF TECHNOLOGY
InstType: EI
InstName: HITACHI RMU-7M
IoniMethod: _ENERGY 70 eV
IonPolarity: pos
Date: 2010-10-09 19:48:36+02:00
Num Peaks: 27
27 17 28 21 29 14 43 35 45 95 47 41 58 17 59 124 61 72 63 19 
66 21 73 28 75 150 76 17 77 328 78 19 89 372 90 28 91 17 103 255 
104 25 105 186 106 14 133 999 134 103 135 43 147 10 
