Name: DIETHYL MALEATE
MW: 172
Formula: C8H12O4
Synonym: MassBank: JP002110
Synonym: DIETHYL MALEATE
Synonym: CIS-BUTENEDIOIC ACID DIETHYL ESTER
Structure: 4449455448594C204D414C454154452E6D6F6C0A20204368656D447261773039313331303133343732440A2031322031312020302020302020302020302020302020302020302020303939392056323030300A2020202D302E323036332020202D302E3731343520202020302E303030302043202020302020302020302020302020302020302020302020302020302020302020302020300A20202020302E323036332020202D312E3432383920202020302E303030302043202020302020302020302020302020302020302020302020302020302020302020302020300A20202020312E303331332020202D312E3432383920202020302E303030302043202020302020302020302020302020302020302020302020302020302020302020302020300A20202020312E343433382020202D302E3731343520202020302E303030302043202020302020302020302020302020302020302020302020302020302020302020302020300A20202020302E3230363320202020302E3030303020202020302E30303030204F202020302020302020302020302020302020302020302020302020302020302020302020300A2020202D312E303331332020202D302E3731343520202020302E30303030204F202020302020302020302020302020302020302020302020302020302020302020302020300A20202020322E323638382020202D302E3731343520202020302E30303030204F202020302020302020302020302020302020302020302020302020302020302020302020300A20202020312E3033313320202020302E3030303020202020302E30303030204F202020302020302020302020302020302020302020302020302020302020302020302020300A2020202D312E3434333820202020302E3030303020202020302E303030302043202020302020302020302020302020302020302020302020302020302020302020302020300A2020202D322E3236383820202020302E3030303020202020302E303030302043202020302020302020302020302020302020302020302020302020302020302020302020300A20202020312E3434333820202020302E3731343520202020302E303030302043202020302020302020302020302020302020302020302020302020302020302020302020300A20202020312E3033313220202020312E3432383920202020302E303030302043202020302020302020302020302020302020302020302020302020302020302020302020300A2020312020322020312020302020202020200A2020322020332020322020302020202020200A2020332020342020312020302020202020200A2020312020352020322020302020202020200A2020312020362020312020302020202020200A2020342020372020322020302020202020200A2020342020382020312020302020202020200A2020392031302020312020302020202020200A2020362020392020312020302020202020200A2031312031322020312020302020202020200A2020382031312020312020302020202020200A4D2020454E44
Contributor: TAJIMA S, GUNMA COLLEGE OF TECHNOLOGY
InstType: EI
InstName: HITACHI RMU-7M
IoniMethod: _ENERGY 70 eV
IonPolarity: pos
Date: 2010-10-09 19:48:36+02:00
Num Peaks: 25
15 11 26 57 27 126 28 26 29 196 31 25 43 33 44 28 45 63 53 27 
54 71 55 78 71 49 72 22 81 16 82 71 98 13 99 999 100 123 125 16 
126 126 127 294 128 62 143 23 145 10 
