Name: BUTYL FORMATE
MW: 102
Formula: C5H10O2
Synonym: MassBank: JP006462
Synonym: BUTYL FORMATE
Synonym: FORMIC ACID BUTYL ESTER
Structure: 310A31380A425554594C20464F524D4154452E6D6F6C0A20204368656D447261773039303631303033303932440A2020372020362020302020302020302020302020302020302020302020303939392056323030300A2020202D312E343238392020202D302E3230363320202020302E303030302043202020302020302020302020302020302020302020302020302020302020302020302020300A2020202D322E3134333420202020302E3230363220202020302E30303030204F202020302020302020302020302020302020302020302020302020302020302020302020300A2020202D302E3731343520202020302E3230363220202020302E30303030204F202020302020302020302020302020302020302020302020302020302020302020302020300A20202020302E303030302020202D302E3230363220202020302E303030302043202020302020302020302020302020302020302020302020302020302020302020302020300A20202020302E3731343520202020302E3230363320202020302E303030302043202020302020302020302020302020302020302020302020302020302020302020302020300A20202020312E343238392020202D302E3230363220202020302E303030302043202020302020302020302020302020302020302020302020302020302020302020302020300A20202020322E3134333420202020302E3230363320202020302E303030302043202020302020302020302020302020302020302020302020302020302020302020302020300A2020312020322020322020302020202020200A2020312020332020312020302020202020200A2020342020352020312020302020202020200A2020352020362020312020302020202020200A2020362020372020312020302020202020200A2020332020342020312020302020202020200A4D2020454E44
Contributor: HISAHIRO HAGIWARA, CHEMICAL RESEARCH INSTITUTE OF NON-AQUEOUSSOLUTIONS TOHOKU UNIV.
InstType: EI
InstName: HITACHI M-80B
IoniMethod: _ENERGY 70 eV
IonPolarity: pos
Date: 2010-10-09 19:48:36+02:00
Num Peaks: 26
15 19 18 31 19 11 26 39 27 284 28 140 29 323 30 14 31 514 32 11 
38 15 39 143 40 31 41 557 42 85 43 184 44 30 45 65 47 32 53 11 
55 106 56 999 57 80 59 18 60 25 73 65 
