Name: ACETONITRILE
MW: 41
Formula: C2H3N
Synonym: MassBank: JP003999
Synonym: ACETONITRILE
Structure: 310A31300A414345544F4E495452494C452E6D6F6C0A20204368656D447261773036323431303138313732440A2020332020322020302020302020302020302020302020302020302020303939392056323030300A20202020302E3030303020202020302E3030303020202020302E303030302043202020302020302020302020302020302020302020302020302020302020302020302020300A20202020302E3832353020202020302E3030303020202020302E303030302043202020302020302020302020302020302020302020302020302020302020302020302020300A2020202D302E3832353020202020302E3030303020202020302E30303030204E202020302020302020302020302020302020302020302020302020302020302020302020300A2020312020322020312020302020202020200A2020312020332020332020302020202020200A4D2020454E44
Contributor: MASS SPECTROSCOPY SOC. OF JAPAN (MSSJ)
InstType: EI
InstName: HITACHI RMU-6L
IoniMethod: _ENERGY 70 eV
IonPolarity: pos
Date: 2010-10-09 19:48:36+02:00
Num Peaks: 14
12 50 13 37 14 116 15 3 24 10 25 21 26 35 27 1 28 25 38 210 
39 195 40 51 41 999 42 26 
