Name: 3-METHOXY-3-METHYL-1-BUTANOL
CAS: 56539-66-3
MW: 118
Formula: C6H14O2
Synonym: MassBank: JP007373
Synonym: 3-METHOXY-3-METHYL-1-BUTANOL
Structure: 310A32300A332D4D4554484F58592D332D4D455448594C2D312D425554414E4F4C2E6D6F6C0A20204368656D447261773032323231303232353432440A2020382020372020302020302020302020302020302020302020302020303939392056323030300A20202020312E3432383920202020302E3035353320202020302E303030302043202020302020302020302020302020302020302020302020302020302020302020302020300A20202020302E3731343520202020302E3436373820202020302E303030302043202020302020302020302020302020302020302020302020302020302020302020302020300A2020202D302E3030303020202020302E3035353320202020302E303030302043202020302020302020302020302020302020302020302020302020302020302020302020300A20202020302E343132352020202D302E3635393220202020302E303030302043202020302020302020302020302020302020302020302020302020302020302020302020300A20202020312E343238392020202D302E3736393720202020302E30303030204F202020302020302020302020302020302020302020302020302020302020302020302020300A2020202D302E3431323520202020302E3736393720202020302E303030302043202020302020302020302020302020302020302020302020302020302020302020302020300A2020202D302E373134352020202D302E3335373220202020302E30303030204F202020302020302020302020302020302020302020302020302020302020302020302020300A2020202D312E3432383920202020302E3035353320202020302E303030302043202020302020302020302020302020302020302020302020302020302020302020302020300A2020312020322020312020302020202020200A2020322020332020312020302020202020200A2020332020342020312020302020202020200A2020312020352020312020302020202020200A2020332020362020312020302020202020200A2020372020382020312020302020202020200A2020332020372020312020302020202020200A4D2020454E44
Contributor: YAMAMOTO M, DEP. CHEMISTRY, FAC. SCIENCE, NARA WOMEN'S UNIV.
InstType: EI
InstName: HITACHI RMU-6M
IoniMethod: _ENERGY 70 eV
IonPolarity: pos
Date: 2010-10-09 19:48:36+02:00
Num Peaks: 25
15 26 27 49 28 21 29 60 31 72 33 86 39 49 40 13 41 178 42 27 
43 85 45 50 53 42 55 42 56 49 57 25 59 18 69 85 70 10 71 38 
72 12 73 999 74 44 85 62 103 95 
