Name: TETRAKIS(PENTAFLUOROPHENYL)-DIPHOSPHINE
MW: 729
Formula: C24F20P2
Synonym: MassBank: JP003809
Synonym: TETRAKIS(PENTAFLUOROPHENYL)-DIPHOSPHINE
Structure: 303432335F54455452414B49532850454E5441464C554F524F5048454E594C292D444950484F535048494E452E6D6F6C0A20204368656D447261773038323031303033303932440A2034362034392020302020302020302020302020302020302020302020303939392056323030300A2020202D332E3539303020202020302E3030323920202020302E303030302043202020302020302020302020302020302020302020302020302020302020302020302020300A2020202D332E353930302020202D302E3832323120202020302E303030302043202020302020302020302020302020302020302020302020302020302020302020302020300A2020202D322E383735352020202D312E3233343620202020302E303030302043202020302020302020302020302020302020302020302020302020302020302020302020300A2020202D322E313631312020202D302E3832323120202020302E303030302043202020302020302020302020302020302020302020302020302020302020302020302020300A2020202D322E3136313120202020302E3030323920202020302E303030302043202020302020302020302020302020302020302020302020302020302020302020302020300A2020202D322E3837353520202020302E3431353420202020302E303030302043202020302020302020302020302020302020302020302020302020302020302020302020300A2020202D322E3837353520202020312E3234303420202020302E303030302046202020302020302020302020302020302020302020302020302020302020302020302020300A2020202D342E3330343520202020302E3431353420202020302E303030302046202020302020302020302020302020302020302020302020302020302020302020302020300A2020202D342E333034352020202D312E3233343620202020302E303030302046202020302020302020302020302020302020302020302020302020302020302020302020300A2020202D322E383735352020202D322E3035393620202020302E303030302046202020302020302020302020302020302020302020302020302020302020302020302020300A2020202D312E343436362020202D312E3233343620202020302E303030302046202020302020302020302020302020302020302020302020302020302020302020302020300A2020202D302E3430373920202020302E3630313020202020302E303030302050202020302020302020302020302020302020302020302020302020302020302020302020300A20202020302E363835322020202D302E3232343020202020302E303030302050202020302020302020302020302020302020302020302020302020302020302020302020300A2020202D302E303333322020202D322E3935393620202020302E303030302043202020302020302020302020302020302020302020302020302020302020302020302020300A20202020302E363831332020202D332E3337323120202020302E303030302043202020302020302020302020302020302020302020302020302020302020302020302020300A20202020312E333935382020202D322E3935393620202020302E303030302043202020302020302020302020302020302020302020302020302020302020302020302020300A20202020312E333935382020202D322E3133343620202020302E303030302043202020302020302020302020302020302020302020302020302020302020302020302020300A20202020302E363831332020202D312E3732323120202020302E303030302043202020302020302020302020302020302020302020302020302020302020302020302020300A2020202D302E303333322020202D322E3133343620202020302E303030302043202020302020302020302020302020302020302020302020302020302020302020302020300A2020202D302E373437372020202D312E3732323120202020302E303030302046202020302020302020302020302020302020302020302020302020302020302020302020300A2020202D302E373437372020202D332E3337323120202020302E303030302046202020302020302020302020302020302020302020302020302020302020302020302020300A20202020302E363831332020202D342E3139373120202020302E303030302046202020302020302020302020302020302020302020302020302020302020302020302020300A20202020322E313130322020202D332E3337323120202020302E303030302046202020302020302020302020302020302020302020302020302020302020302020302020300A20202020322E313130322020202D312E3732323120202020302E303030302046202020302020302020302020302020302020302020302020302020302020302020302020300A20202020332E3539303020202020302E3132303920202020302E303030302043202020302020302020302020302020302020302020302020302020302020302020302020300A20202020332E3539303020202020302E3934353920202020302E303030302043202020302020302020302020302020302020302020302020302020302020302020302020300A20202020322E3837353520202020312E3335383420202020302E303030302043202020302020302020302020302020302020302020302020302020302020302020302020300A20202020322E3136313120202020302E3934353920202020302E303030302043202020302020302020302020302020302020302020302020302020302020302020302020300A20202020322E3136313120202020302E3132303920202020302E303030302043202020302020302020302020302020302020302020302020302020302020302020302020300A20202020322E383735352020202D302E3239313620202020302E303030302043202020302020302020302020302020302020302020302020302020302020302020302020300A20202020322E383735352020202D312E3131363620202020302E303030302046202020302020302020302020302020302020302020302020302020302020302020302020300A20202020342E333034352020202D302E3239313620202020302E303030302046202020302020302020302020302020302020302020302020302020302020302020302020300A20202020342E3330343520202020312E3335383420202020302E303030302046202020302020302020302020302020302020302020302020302020302020302020302020300A20202020322E3837353520202020322E3138333420202020302E303030302046202020302020302020302020302020302020302020302020302020302020302020302020300A20202020312E3434363620202020312E3335383420202020302E303030302046202020302020302020302020302020302020302020302020302020302020302020302020300A20202020302E3038393420202020322E3935393620202020302E303030302043202020302020302020302020302020302020302020302020302020302020302020302020300A2020202D302E3632353020202020332E3337323120202020302E303030302043202020302020302020302020302020302020302020302020302020302020302020302020300A2020202D312E3333393520202020322E3935393620202020302E303030302043202020302020302020302020302020302020302020302020302020302020302020302020300A2020202D312E3333393520202020322E3133343620202020302E303030302043202020302020302020302020302020302020302020302020302020302020302020302020300A2020202D302E3632353020202020312E3732323120202020302E303030302043202020302020302020302020302020302020302020302020302020302020302020302020300A20202020302E3038393420202020322E3133343620202020302E303030302043202020302020302020302020302020302020302020302020302020302020302020302020300A20202020302E3830333920202020312E3732323120202020302E303030302046202020302020302020302020302020302020302020302020302020302020302020302020300A20202020302E3830333920202020332E3337323120202020302E303030302046202020302020302020302020302020302020302020302020302020302020302020302020300A2020202D302E3632353020202020342E3139373120202020302E303030302046202020302020302020302020302020302020302020302020302020302020302020302020300A2020202D322E3035343020202020332E3337323120202020302E303030302046202020302020302020302020302020302020302020302020302020302020302020302020300A2020202D322E3035343020202020312E3732323120202020302E303030302046202020302020302020302020302020302020302020302020302020302020302020302020300A2020312020322020322020302020202020200A2020322020332020312020302020202020200A2020332020342020322020302020202020200A2020342020352020312020302020202020200A2020352020362020322020302020202020200A2020362020312020312020302020202020200A2020362020372020312020302020202020200A2020312020382020312020302020202020200A2020322020392020312020302020202020200A2020332031302020312020302020202020200A2020342031312020312020302020202020200A2020352031322020312020302020202020200A2031322031332020312020302020202020200A2031342031352020322020302020202020200A2031352031362020312020302020202020200A2031362031372020322020302020202020200A2031372031382020312020302020202020200A2031382031392020322020302020202020200A2031392031342020312020302020202020200A2031392032302020312020302020202020200A2031342032312020312020302020202020200A2031352032322020312020302020202020200A2031362032332020312020302020202020200A2031372032342020312020302020202020200A2031382031332020312020302020202020200A2032352032362020322020302020202020200A2032362032372020312020302020202020200A2032372032382020322020302020202020200A2032382032392020312020302020202020200A2032392033302020322020302020202020200A2033302032352020312020302020202020200A2033302033312020312020302020202020200A2032352033322020312020302020202020200A2032362033332020312020302020202020200A2032372033342020312020302020202020200A2032382033352020312020302020202020200A2031332032392020312020302020202020200A2033362033372020322020302020202020200A2033372033382020312020302020202020200A2033382033392020322020302020202020200A2033392034302020312020302020202020200A2034302034312020322020302020202020200A2034312033362020312020302020202020200A2034312034322020312020302020202020200A2033362034332020312020302020202020200A2033372034342020312020302020202020200A2033382034352020312020302020202020200A2033392034362020312020302020202020200A2031322034302020312020302020202020200A4D2020454E44
Contributor: SASAKI S, TOYOHASHI UNIV. OF TECH.
InstType: EI
InstName: Unknown
IoniMethod: _ENERGY 70 eV
IonPolarity: pos
Date: 2010-10-09 19:48:36+02:00
Num Peaks: 37
69 610 79 44 91 12 93 5 98 24 99 55 110 390 111 1 117 64 129 295 
130 25 148 3 167 9 168 160 179 52 183 3 198 880 199 80 217 180 227 7 
246 23 258 42 277 58 296 2 297 28 327 12 347 27 348 0 365 999 366 670 
367 110 384 6 400 28 532 39 711 9 730 2 731 68 
