Name: MassBank: JP002380
MW: 277
Formula: C15H19NO4
Synonym: MassBank: JP002380
Synonym: N-BENZYL-CIS-3,4-DI(METHOXYCARBONYL)PYRR0LIDINE
Synonym: DIMETHYL 1-BENZYLPYRROLIDINE-CIS-3,4-DICARBOXYLATE
Structure: 44494D455448594C20312D42454E5A594C505952524F4C4944494E452D4349532D332C342D4449434152424F58594C4154452E6D6F6C0A20204368656D447261773038313131303137333932440A2032302032312020302020302020302020302020302020302020302020303939392056323030300A2020202D302E313233342020202D302E3630333920202020302E30303030204E202020302020302020302020302020302020302020302020302020302020302020302020300A2020202D302E383737312020202D302E3933393420202020302E303030302043202020302020302020302020302020302020302020302020302020302020302020302020300A2020202D312E343239312020202D302E3332363320202020302E303030302043202020302020302020302020302020302020302020302020302020302020302020302020300A2020202D312E3031363620202020302E3338383120202020302E303030302043202020302020302020302020302020302020302020302020302020302020302020302020300A2020202D302E3230393620202020302E3231363620202020302E303030302043202020302020302020302020302020302020302020302020302020302020302020302020300A2020202D322E323439362020202D302E3431323620202020302E303030302043202020302020302020302020302020302020302020302020302020302020302020302020300A2020202D322E3733343520202020302E3235343920202020302E30303030204F202020302020302020302020302020302020302020302020302020302020302020302020300A2020202D322E353835312020202D312E3136363320202020302E30303030204F202020302020302020302020302020302020302020302020302020302020302020302020300A2020202D312E3335323220202020312E3134313820202020302E303030302043202020302020302020302020302020302020302020302020302020302020302020302020300A2020202D322E3137363020202020312E3138353020202020302E30303030204F202020302020302020302020302020302020302020302020302020302020302020302020300A2020202D302E3930323820202020312E3833333720202020302E30303030204F202020302020302020302020302020302020302020302020302020302020302020302020300A20202020302E353931312020202D312E3031363420202020302E303030302043202020302020302020302020302020302020302020302020302020302020302020302020300A20202020312E333035362020202D302E3630333920202020302E303030302043202020302020302020302020302020302020302020302020302020302020302020302020300A20202020312E3330353620202020302E3232313120202020302E303030302043202020302020302020302020302020302020302020302020302020302020302020302020300A20202020322E3032303020202020302E3633333620202020302E303030302043202020302020302020302020302020302020302020302020302020302020302020302020300A20202020322E3733343520202020302E3232313120202020302E303030302043202020302020302020302020302020302020302020302020302020302020302020302020300A20202020322E373334352020202D302E3630333920202020302E303030302043202020302020302020302020302020302020302020302020302020302020302020302020300A20202020322E303230302020202D312E3031363420202020302E303030302043202020302020302020302020302020302020302020302020302020302020302020302020300A2020202D322E313030322020202D312E3833333720202020302E303030302043202020302020302020302020302020302020302020302020302020302020302020302020300A2020202D302E3037393020202020312E3739303520202020302E303030302043202020302020302020302020302020302020302020302020302020302020302020302020300A2020312020322020312020302020202020200A2020322020332020312020302020202020200A2020332020342020312020302020202020200A2020342020352020312020302020202020200A2020312020352020312020302020202020200A2020362020372020322020302020202020200A2020362020382020312020302020202020200A2020332020362020312020362020202020200A2020392031302020322020302020202020200A2020392031312020312020302020202020200A2020342020392020312020362020202020200A2031322031332020312020302020202020200A2031332031342020312020302020202020200A2031342031352020322020302020202020200A2031352031362020312020302020202020200A2031362031372020322020302020202020200A2031372031382020312020302020202020200A2031332031382020322020302020202020200A2020312031322020312020302020202020200A2020382031392020312020302020202020200A2031312032302020312020302020202020200A4D2020454E44
Contributor: MASS SPECTROSCOPY SOC. OF JAPAN (MSSJ)
InstType: EI
InstName: JEOL JMS-D-3000
IoniMethod: _ENERGY 70 eV
IonPolarity: pos
Date: 2010-10-09 19:48:36+02:00
Num Peaks: 38
42 200 44 56 45 29 55 33 59 34 65 108 68 49 73 28 77 24 82 23 
87 26 91 999 92 117 105 26 118 22 120 27 126 64 127 41 132 61 133 26 
154 129 158 94 159 35 176 36 186 594 187 57 180 92 191 115 200 91 216 42 
217 22 218 38 246 237 247 38 262 31 276 60 277 119 278 22 
