Name: (Z)-7-HEXADECENYL ACETATE
MW: 282
Formula: C18H34O2
Synonym: MassBank: JP005370
Synonym: (Z)-7-HEXADECENYL ACETATE
Structure: 285A292D372D48455841444543454E594C20414345544154452E6D6F6C0A20204368656D447261773130323230393231333032440A2032322032312020302020302020302020302020302020302020302020303939392056323030300A20202020302E3039333320202020312E3037313820202020302E303030302043202020302020302020302020302020302020302020302020302020302020302020302020300A20202020302E3931383320202020312E3037313820202020302E303030302043202020302020302020302020302020302020302020302020302020302020302020302020300A20202020312E3333303820202020302E3335373220202020302E303030302043202020302020302020302020302020302020302020302020302020302020302020302020300A2020202D302E3331393220202020312E3738363220202020302E303030302048202020302020302020302020302020302020302020302020302020302020302020302020300A2020202D302E3331393220202020302E3335373220202020302E303030302043202020302020302020302020302020302020302020302020302020302020302020302020300A20202020312E3333303820202020312E3738363220202020302E303030302048202020302020302020302020302020302020302020302020302020302020302020302020300A20202020322E3135353820202020302E3335373220202020302E303030302043202020302020302020302020302020302020302020302020302020302020302020302020300A20202020322E353638332020202D302E3335373220202020302E303030302043202020302020302020302020302020302020302020302020302020302020302020302020300A20202020332E333933332020202D302E3335373220202020302E303030302043202020302020302020302020302020302020302020302020302020302020302020302020300A20202020332E383035382020202D312E3037313720202020302E303030302043202020302020302020302020302020302020302020302020302020302020302020302020300A20202020342E363330382020202D312E3037313720202020302E303030302043202020302020302020302020302020302020302020302020302020302020302020302020300A20202020352E303433332020202D312E3738363220202020302E303030302043202020302020302020302020302020302020302020302020302020302020302020302020300A20202020352E383638332020202D312E3738363220202020302E303030302043202020302020302020302020302020302020302020302020302020302020302020302020300A2020202D312E3134343220202020302E3335373220202020302E303030302043202020302020302020302020302020302020302020302020302020302020302020302020300A2020202D312E373237362020202D302E3232363120202020302E303030302043202020302020302020302020302020302020302020302020302020302020302020302020300A2020202D322E353234352020202D302E3031323520202020302E303030302043202020302020302020302020302020302020302020302020302020302020302020302020300A2020202D332E313037382020202D302E3539353920202020302E303030302043202020302020302020302020302020302020302020302020302020302020302020302020300A2020202D332E393034372020202D302E3338323420202020302E303030302043202020302020302020302020302020302020302020302020302020302020302020302020300A2020202D342E343838312020202D302E3936353720202020302E30303030204F202020302020302020302020302020302020302020302020302020302020302020302020300A2020202D352E323834392020202D302E3735323220202020302E303030302043202020302020302020302020302020302020302020302020302020302020302020302020300A2020202D352E383638332020202D312E3333353520202020302E30303030204F202020302020302020302020302020302020302020302020302020302020302020302020300A2020202D352E3439383420202020302E3034343820202020302E303030302043202020302020302020302020302020302020302020302020302020302020302020302020300A2020312020322020322020302020202020200A2020322020332020312020302020202020200A2020312020342020312020302020202020200A2020312020352020312020302020202020200A2020322020362020312020302020202020200A2020332020372020312020302020202020200A2020372020382020312020302020202020200A2020382020392020312020302020202020200A2020392031302020312020302020202020200A2031302031312020312020302020202020200A2031312031322020312020302020202020200A2031322031332020312020302020202020200A2020352031342020312020302020202020200A2031342031352020312020302020202020200A2031352031362020312020302020202020200A2031362031372020312020302020202020200A2031372031382020312020302020202020200A2031382031392020312020302020202020200A2031392032302020312020302020202020200A2032302032312020322020302020202020200A2032302032322020312020302020202020200A4D2020454E44
Contributor: YAMAOKA R, KYOTO INSTITUTE OF TECHNOLOGY
InstType: EI
InstName: SHIMADZU QP-1000
IoniMethod: _ENERGY 70 eV
IonPolarity: pos
Date: 2010-10-09 19:48:36+02:00
Num Peaks: 66
41 80 42 18 43 487 44 999 45 139 46 594 47 15 54 27 55 485 56 119 
57 179 58 7 59 83 61 83 65 15 66 4 67 455 68 244 69 254 70 8 
71 56 72 30 73 77 75 1 77 15 79 52 80 35 81 35 82 427 83 177 
84 30 85 2 86 23 87 62 88 23 89 10 93 15 94 18 95 251 96 35 
97 128 98 22 101 21 102 2 103 47 108 30 109 176 110 13 111 51 112 11 
117 13 122 2 123 85 124 90 125 22 131 1 133 38 137 47 138 53 147 1 
151 14 165 16 166 26 194 2 222 98 223 19 
