Name: 1-ISOBUTYL-9-METHYLBICYCLO(3.2.2)NON-6-EN-2-ONE
MW: 206
Formula: C14H22O
Synonym: MassBank: JP004863
Synonym: 1-ISOBUTYL-9-METHYLBICYCLO(3.2.2)NON-6-EN-2-ONE
Structure: 312D49534F425554594C2D392D4D455448594C42494359434C4F28332E322E32294E4F4E2D362D454E2D322D4F4E452E6D6F6C0A20204368656D447261773131313930393135353232440A2031372031382020302020302020302020302020302020302020302020303939392056323030300A20202020302E303833302020202D302E3130313620202020302E303030302043202020302020302020302020302020302020302020302020302020302020302020302020300A20202020312E303130382020202D302E3130313620202020302E303030302043202020302020302020302020302020302020302020302020302020302020302020302020300A20202020312E343830352020202D302E3931353220202020302E303030302043202020302020302020302020302020302020302020302020302020302020302020302020300A20202020312E303038342020202D312E3733333020202020302E303030302043202020302020302020302020302020302020302020302020302020302020302020302020300A20202020302E303731352020202D312E3733333020202020302E303030302043202020302020302020302020302020302020302020302020302020302020302020302020300A20202020302E373833352020202D312E3332313920202020302E303030302043202020302020302020302020302020302020302020302020302020302020302020302020300A20202020302E373833352020202D302E3530363120202020302E303030302043202020302020302020302020302020302020302020302020302020302020302020302020300A2020202D302E363236302020202D302E3531303920202020302E303030302043202020302020302020302020302020302020302020302020302020302020302020302020300A2020202D302E363236302020202D312E3332313120202020302E303030302043202020302020302020302020302020302020302020302020302020302020302020302020300A20202020312E3431373820202020302E3630333320202020302E30303030204F202020302020302020302020302020302020302020302020302020302020302020302020300A2020202D312E333531312020202D312E3733393820202020302E303030302043202020302020302020302020302020302020302020302020302020302020302020302020300A2020202D302E3131363620202020302E3731313920202020302E303030302043202020302020302020302020302020302020302020302020302020302020302020302020300A2020202D302E3931343720202020302E3934343420202020302E303030302043202020302020302020302020302020302020302020302020302020302020302020302020300A2020202D312E3439383020202020302E3336313020202020302E303030302043202020302020302020302020302020302020302020302020302020302020302020302020300A2020202D312E3130393220202020312E3733393820202020302E303030302043202020302020302020302020302020302020302020302020302020302020302020302020300A20202020312E343938302020202D312E3733343420202020302E303030302048202020302020302020302020302020302020302020302020302020302020302020302020300A20202020312E343938302020202D302E3039333720202020302E303030302048202020302020302020302020302020302020302020302020302020302020302020302020300A2020312020322020312020302020202020200A2020322020332020312020302020202020200A2020332020342020312020302020202020200A2020342020352020312020302020202020200A2020352020362020312020302020202020200A2020362020372020322020302020202020200A2020382020392020312020302020202020200A2020312020372020312020302020202020200A2020312020382020312020302020202020200A2020352020392020312020302020202020200A2020322031302020322020302020202020200A2020392031312020312020302020202020200A2031322031332020312020302020202020200A2031332031342020312020302020202020200A2031332031352020312020302020202020200A2020312031322020312020302020202020200A2020362031362020312020302020202020200A2020372031372020312020302020202020200A4D2020454E44
Contributor: KATO T, DEPT. OF CHEM., FAC. OF SCI., TOHOKU UNIV.
InstType: EI
InstName: Unknown
IoniMethod: _ENERGY 25 eV
IonPolarity: pos
Date: 2010-10-09 19:48:36+02:00
Num Peaks: 31
41 111 43 82 57 435 79 17 91 73 92 164 93 999 94 16 105 291 106 237 
107 228 108 14 119 282 120 73 121 91 122 9 131 182 135 111 145 200 146 8 
147 128 148 105 149 128 150 25 161 91 162 157 163 491 164 8 188 105 206 291 
207 82 
