Name: 1-TERPINEOL
CAS: 586-82-3
MW: 154
Formula: C10H18O
Synonym: MassBank: JP007570
Synonym: 1-TERPINEOL
Synonym: 1-METHYL-4-(1-METHYLETHYL)-3-CYCLOHEXEN-1-OL
Structure: 312D54455250494E454F4C2E6D6F6C0A20204368656D447261773131313930393136343732440A2031322031322020302020302020302020302020302020302020302020303939392056323030300A20202020312E3132373820202020302E3335373220202020302E303030302043202020302020302020302020302020302020302020302020302020302020302020302020300A20202020302E373135332020202D302E3335373220202020302E303030302043202020302020302020302020302020302020302020302020302020302020302020302020300A2020202D302E313039372020202D302E3335373220202020302E303030302043202020302020302020302020302020302020302020302020302020302020302020302020300A2020202D302E3532323220202020302E3335373220202020302E303030302043202020302020302020302020302020302020302020302020302020302020302020302020300A2020202D302E3130393720202020312E3037313720202020302E303030302043202020302020302020302020302020302020302020302020302020302020302020302020300A20202020302E3731353320202020312E3037313720202020302E303030302043202020302020302020302020302020302020302020302020302020302020302020302020300A20202020312E3735393720202020302E3838373520202020302E30303030204F202020302020302020302020302020302020302020302020302020302020302020302020300A2020202D312E3334373220202020302E3335373220202020302E303030302043202020302020302020302020302020302020302020302020302020302020302020302020300A2020202D312E3735393720202020312E3037313720202020302E303030302043202020302020302020302020302020302020302020302020302020302020302020302020300A2020202D312E373539372020202D302E3335373220202020302E303030302043202020302020302020302020302020302020302020302020302020302020302020302020300A20202020312E373539372020202D302E3137333120202020302E303030302043202020302020302020302020302020302020302020302020302020302020302020302020300A2020202D302E353232322020202D312E3037313720202020302E303030302048202020302020302020302020302020302020302020302020302020302020302020302020300A2020312020322020312020302020202020200A2020322020332020312020302020202020200A2020332020342020322020302020202020200A2020342020352020312020302020202020200A2020352020362020312020302020202020200A2020312020362020312020302020202020200A2020312020372020312020302020202020200A2020382020392020312020302020202020200A2020382031302020312020302020202020200A2020342020382020312020302020202020200A2020312031312020312020302020202020200A2020332031322020312020302020202020200A4D2020454E44
Contributor: TAKEUCHI T, DEP. CHEMISTRY, FAC. SCIENCE, NARA WOMEN'S UNIV.
InstType: EI
InstName: HITACHI M-80
IoniMethod: _ENERGY 20 eV
IonPolarity: pos
Date: 2010-10-09 19:48:36+02:00
Num Peaks: 14
58 675 69 475 71 226 80 403 81 999 93 537 96 523 107 407 111 333 121 505 
125 166 136 453 139 146 154 70 
