Name: MassBank: JP008822
MW: 391
Formula: C14H3F10NO
Synonym: MassBank: JP008822
Synonym: 2,3,4,5,6-PENTAFLUOROBENZALDEHYDE 2',3',4',5',6'-PENTAFLUOROBENZYLOXIME
Structure: 322C332C342C352C362D50454E5441464C554F524F42454E5A414C4445485944452032272C33272C34272C35272C36272D50454E5441464C554F524F42454E5A594C4F58494D452E6D6F6C0A20204368656D447261773132323030393037303732440A2032362032372020302020302020302020302020302020302020302020303939392056323030300A2020202D302E383235302020202D302E3030303020202020302E303030302043202020302020302020302020302020302020302020302020302020302020302020302020300A2020202D312E363530302020202D302E3030303020202020302E303030302043202020302020302020302020302020302020302020302020302020302020302020302020300A2020202D322E303632352020202D302E3731343520202020302E303030302043202020302020302020302020302020302020302020302020302020302020302020302020300A2020202D322E383837352020202D302E3731343520202020302E303030302043202020302020302020302020302020302020302020302020302020302020302020302020300A2020202D332E3330303020202020302E3030303020202020302E303030302043202020302020302020302020302020302020302020302020302020302020302020302020300A2020202D322E3838373520202020302E3731343520202020302E303030302043202020302020302020302020302020302020302020302020302020302020302020302020300A2020202D322E3036323520202020302E3731343520202020302E303030302043202020302020302020302020302020302020302020302020302020302020302020302020300A2020202D312E3635303020202020312E3432383920202020302E303030302046202020302020302020302020302020302020302020302020302020302020302020302020300A2020202D332E3330303020202020312E3432383920202020302E303030302046202020302020302020302020302020302020302020302020302020302020302020302020300A2020202D342E3132353020202020302E3030303020202020302E303030302046202020302020302020302020302020302020302020302020302020302020302020302020300A2020202D332E333030302020202D312E3432383920202020302E303030302046202020302020302020302020302020302020302020302020302020302020302020302020300A2020202D312E363530302020202D312E3432383920202020302E303030302046202020302020302020302020302020302020302020302020302020302020302020302020300A2020202D302E343132352020202D302E3731343520202020302E30303030204E202020302020302020302020302020302020302020302020302020302020302020302020300A20202020302E343132352020202D302E3731343520202020302E30303030204F202020302020302020302020302020302020302020302020302020302020302020302020300A20202020302E3832353020202020302E3030303020202020302E303030302043202020302020302020302020302020302020302020302020302020302020302020302020300A20202020312E3635303020202020302E3030303020202020302E303030302043202020302020302020302020302020302020302020302020302020302020302020302020300A20202020322E3036323520202020302E3731343520202020302E303030302043202020302020302020302020302020302020302020302020302020302020302020302020300A20202020322E3838373520202020302E3731343520202020302E303030302043202020302020302020302020302020302020302020302020302020302020302020302020300A20202020332E333030302020202D302E3030303020202020302E303030302043202020302020302020302020302020302020302020302020302020302020302020302020300A20202020322E383837352020202D302E3731343520202020302E303030302043202020302020302020302020302020302020302020302020302020302020302020302020300A20202020322E303632352020202D302E3731343520202020302E303030302043202020302020302020302020302020302020302020302020302020302020302020302020300A20202020312E363530302020202D312E3432383920202020302E303030302046202020302020302020302020302020302020302020302020302020302020302020302020300A20202020332E333030302020202D312E3432383920202020302E303030302046202020302020302020302020302020302020302020302020302020302020302020302020300A20202020342E313235302020202D302E3030303020202020302E303030302046202020302020302020302020302020302020302020302020302020302020302020302020300A20202020332E3330303020202020312E3432383920202020302E303030302046202020302020302020302020302020302020302020302020302020302020302020302020300A20202020312E3635303020202020312E3432383920202020302E303030302046202020302020302020302020302020302020302020302020302020302020302020302020300A2020312020322020312020302020202020200A2020322020332020312020302020202020200A2020332020342020322020302020202020200A2020342020352020312020302020202020200A2020352020362020322020302020202020200A2020362020372020312020302020202020200A2020322020372020322020302020202020200A2020372020382020312020302020202020200A2020362020392020312020302020202020200A2020352031302020312020302020202020200A2020342031312020312020302020202020200A2020332031322020312020302020202020200A2031332031342020312020302020202020200A2031352031362020312020302020202020200A2031362031372020312020302020202020200A2031372031382020322020302020202020200A2031382031392020312020302020202020200A2031392032302020322020302020202020200A2032302032312020312020302020202020200A2031362032312020322020302020202020200A2031342031352020312020302020202020200A2032312032322020312020302020202020200A2032302032332020312020302020202020200A2031392032342020312020302020202020200A2031382032352020312020302020202020200A2031372032362020312020302020202020200A2020312031332020322020302020202020200A4D2020454E44
Contributor: UOEH
InstType: EI
InstName: HP 5970
IoniMethod: _ENERGY 70 eV
IonPolarity: pos
Date: 2010-10-09 19:48:36+02:00
Num Peaks: 59
44 9 51 9 55 4 56 2 61 4 62 5 68 5 69 30 74 9 75 19 
79 15 80 11 81 15 86 8 92 4 93 54 98 25 99 39 100 4 105 4 
106 1 111 9 112 9 113 2 117 104 118 9 119 18 123 1 124 30 129 2 
130 20 131 16 137 6 141 2 143 11 144 3 148 9 149 5 150 9 155 16 
161 71 162 29 167 58 168 19 169 4 174 23 177 3 178 1 179 6 181 999 
182 72 183 1 193 22 194 10 195 29 196 6 197 3 361 4 391 9 
