Name: 1-DIETHOXYPHOSPHORYL-4-PHENYL-3-BUTEN-2-ONE
MW: 282
Formula: C14H19O4P
Synonym: MassBank: JP009367
Synonym: 1-DIETHOXYPHOSPHORYL-4-PHENYL-3-BUTEN-2-ONE
Structure: 312D44494554484F585950484F5350484F52594C2D342D5048454E594C2D332D425554454E2D322D4F4E452E6D6F6C0A20204368656D447261773131313830393031323932440A2031392031392020302020302020302020302020302020302020302020303939392056323030300A20202020302E3731343520202020302E3631383820202020302E303030302043202020302020302020302020302020302020302020302020302020302020302020302020300A2020202D302E3030303020202020312E3033313320202020302E303030302043202020302020302020302020302020302020302020302020302020302020302020302020300A2020202D302E3731343520202020302E3631383820202020302E303030302043202020302020302020302020302020302020302020302020302020302020302020302020300A2020202D302E373134352020202D302E3230363220202020302E303030302043202020302020302020302020302020302020302020302020302020302020302020302020300A2020202D302E3030303020202020312E3835363320202020302E30303030204F202020302020302020302020302020302020302020302020302020302020302020302020300A2020202D312E343238392020202D302E3631383720202020302E303030302043202020302020302020302020302020302020302020302020302020302020302020302020300A2020202D322E313433342020202D302E3230363220202020302E303030302043202020302020302020302020302020302020302020302020302020302020302020302020300A2020202D322E383537392020202D302E3631383720202020302E303030302043202020302020302020302020302020302020302020302020302020302020302020302020300A2020202D322E383537392020202D312E3434333720202020302E303030302043202020302020302020302020302020302020302020302020302020302020302020302020300A2020202D322E313433342020202D312E3835363320202020302E303030302043202020302020302020302020302020302020302020302020302020302020302020302020300A2020202D312E343238392020202D312E3434333720202020302E303030302043202020302020302020302020302020302020302020302020302020302020302020302020300A20202020312E3432383920202020312E3033313320202020302E303030302050202020302020302020302020302020302020302020302020302020302020302020302020300A20202020312E3031363420202020312E3734353720202020302E30303030204F202020302020302020302020302020302020302020302020302020302020302020302020300A20202020312E3834313420202020302E3331363820202020302E30303030204F202020302020302020302020302020302020302020302020302020302020302020302020300A20202020322E3134333420202020312E3434333820202020302E30303030204F202020302020302020302020302020302020302020302020302020302020302020302020300A20202020312E343238392020202D302E3339373720202020302E303030302043202020302020302020302020302020302020302020302020302020302020302020302020300A20202020312E383431342020202D312E3131323220202020302E303030302043202020302020302020302020302020302020302020302020302020302020302020302020300A20202020322E3835373920202020312E3033313320202020302E303030302043202020302020302020302020302020302020302020302020302020302020302020302020300A20202020322E3835373920202020302E3230363320202020302E303030302043202020302020302020302020302020302020302020302020302020302020302020302020300A2020312020322020312020302020202020200A2020322020332020312020302020202020200A2020332020342020322020302020202020200A2020322020352020322020302020202020200A2020362020372020312020302020202020200A2020372020382020322020302020202020200A2020382020392020312020302020202020200A2020392031302020322020302020202020200A2031302031312020312020302020202020200A2020362031312020322020302020202020200A2020342020362020312020302020202020200A2031322031332020322020302020202020200A2031322031342020312020302020202020200A2031322031352020312020302020202020200A2031362031372020312020302020202020200A2031342031362020312020302020202020200A2031382031392020312020302020202020200A2031352031382020312020302020202020200A2020312031322020312020302020202020200A4D2020454E44
Contributor: KANEMASA S, INST. OF ADVANCED MATERIAL STUDY KYUSHU UNIV.
InstType: EI
InstName: JEOL JMS-01-SG-2
IoniMethod: _ENERGY 75 eV
IonPolarity: pos
Date: 2010-10-09 19:48:36+02:00
Num Peaks: 42
41 211 42 326 43 102 44 170 65 192 81 381 88 378 96 107 97 243 103 148 
105 183 108 117 109 440 122 102 123 878 124 127 125 432 131 322 137 167 144 491 
145 100 151 703 152 622 153 133 169 350 179 999 180 457 197 961 198 78 199 30 
207 22 209 33 210 20 224 660 225 96 237 19 253 135 254 37 282 313 283 45 
284 81 285 22 
