Name: (2S)-N-TERT-BUTOXYCARBONYL-2-(1-HYDROXY-4-(2-TETRAHYDROPYRANYLOXY)BUTYL)PYRROLIDINE
MW: 343
Formula: C18H33NO5
Synonym: MassBank: JP005464
Synonym: (2S)-N-TERT-BUTOXYCARBONYL-2-(1-HYDROXY-4-(2-TETRAHYDROPYRANYLOXY)BUTYL)PYRROLIDINE
Structure: 283253292D4E2D544552542D4255544F5859434152424F4E594C2D322D28312D485944524F58592D342D28322D5445545241485944524F505952414E594C4F585929425554594C29505952524F4C4944494E452E6D6F6C0A20204368656D447261773130323030393134333832440A2032352032362020302020302020302020302020302020302020302020303939392056323030300A2020202D302E3738393820202020302E3330303820202020302E303030302043202020302020302020302020302020302020302020302020302020302020302020302020300A2020202D302E383736302020202D302E3531393720202020302E303030302043202020302020302020302020302020302020302020302020302020302020302020302020300A2020202D312E363833302020202D302E3639313220202020302E303030302043202020302020302020302020302020302020302020302020302020302020302020302020300A2020202D322E3039353520202020302E3032333320202020302E30303030204E202020302020302020302020302020302020302020302020302020302020302020302020300A2020202D312E3534333520202020302E3633363420202020302E303030302043202020302020302020302020302020302020302020302020302020302020302020302020300A2020202D322E3931363020202020302E3130393520202020302E303030302043202020302020302020302020302020302020302020302020302020302020302020302020300A2020202D332E3235313520202020302E3836333220202020302E30303030204F202020302020302020302020302020302020302020302020302020302020302020302020300A2020202D332E343030392020202D302E3535373920202020302E30303030204F202020302020302020302020302020302020302020302020302020302020302020302020300A2020202D332E303635342020202D312E3331313620202020302E303030302043202020302020302020302020302020302020302020302020302020302020302020302020300A2020202D322E373239382020202D322E3036353320202020302E303030302043202020302020302020302020302020302020302020302020302020302020302020302020300A2020202D332E383139302020202D312E3634373220202020302E303030302043202020302020302020302020302020302020302020302020302020302020302020302020300A2020202D322E333131372020202D302E3937363120202020302E303030302043202020302020302020302020302020302020302020302020302020302020302020302020300A2020202D322E3231303920202020312E3132313320202020302E303030302048202020302020302020302020302020302020302020302020302020302020302020302020300A2020202D312E3133313020202020312E3335303820202020302E303030302043202020302020302020302020302020302020302020302020302020302020302020302020300A2020202D312E3534333520202020322E3036353320202020302E30303030204F202020302020302020302020302020302020302020302020302020302020302020302020300A2020202D302E3330363020202020312E3335303820202020302E303030302043202020302020302020302020302020302020302020302020302020302020302020302020300A20202020302E3130363520202020302E3633363420202020302E303030302043202020302020302020302020302020302020302020302020302020302020302020302020300A20202020302E3933313520202020302E3633363420202020302E303030302043202020302020302020302020302020302020302020302020302020302020302020302020300A20202020312E333434302020202D302E3037383120202020302E30303030204F202020302020302020302020302020302020302020302020302020302020302020302020300A20202020322E313639302020202D302E3037383120202020302E303030302043202020302020302020302020302020302020302020302020302020302020302020302020300A20202020322E353831352020202D302E3739323620202020302E303030302043202020302020302020302020302020302020302020302020302020302020302020302020300A20202020332E343036352020202D302E3739323620202020302E303030302043202020302020302020302020302020302020302020302020302020302020302020302020300A20202020332E383139302020202D302E3037383120202020302E303030302043202020302020302020302020302020302020302020302020302020302020302020302020300A20202020332E3430363520202020302E3633363420202020302E303030302043202020302020302020302020302020302020302020302020302020302020302020302020300A20202020322E3538313520202020302E3633363420202020302E30303030204F202020302020302020302020302020302020302020302020302020302020302020302020300A2020312020322020312020302020202020200A2020322020332020312020302020202020200A2020332020342020312020302020202020200A2020342020352020312020302020202020200A2020352020312020312020302020202020200A2020342020362020312020302020202020200A2020362020372020322020302020202020200A2020362020382020312020302020202020200A2020382020392020312020302020202020200A2020392031302020312020302020202020200A2020392031312020312020312020202020200A2020392031322020312020312020202020200A2020352031332020312020312020202020200A2020352031342020312020362020202020200A2031342031352020312020302020202020200A2031342031362020312020302020202020200A2031362031372020312020302020202020200A2031372031382020312020302020202020200A2031382031392020312020302020202020200A2031392032302020312020302020202020200A2032302032312020312020302020202020200A2032312032322020312020302020202020200A2032322032332020312020302020202020200A2032332032342020312020302020202020200A2032342032352020312020302020202020200A2032352032302020312020302020202020200A4D2020454E44
Contributor: HIRAMA M, TOHOKU UNIV. FACULTY OF SCIENCE DEPT. OF CHEMISTRY YUKIBUNSEKI
InstType: EI
InstName: HITACHI M-52
IoniMethod: _ENERGY 14 eV
IonPolarity: pos
Date: 2010-10-09 19:48:36+02:00
Num Peaks: 43
56 18 57 81 69 19 70 24 71 42 84 20 85 268 97 1 100 13 113 10 
114 133 115 999 116 10 117 10 126 13 140 2 141 15 142 115 143 17 144 6 
155 37 160 19 168 20 169 5 170 407 171 326 172 116 173 2 185 190 186 26 
187 83 188 3 200 43 201 17 204 26 214 10 241 16 242 47 256 200 257 2 
261 63 343 52 344 10 
