Name: 2-METHOXY-5-METHYLPHENOL
MW: 138
Formula: C8H10O2
Synonym: MassBank: JP008292
Synonym: 2-METHOXY-5-METHYLPHENOL
Structure: 322D4D4554484F58592D352D4D455448594C5048454E4F4C2E6D6F6C0A20204368656D447261773031323231303032313132440A2031302031302020302020302020302020302020302020302020302020303939392056323030300A20202020302E323036322020202D302E3335373220202020302E303030302043202020302020302020302020302020302020302020302020302020302020302020302020300A20202020302E3631383820202020302E3335373220202020302E303030302043202020302020302020302020302020302020302020302020302020302020302020302020300A20202020302E3230363220202020312E3037313720202020302E303030302043202020302020302020302020302020302020302020302020302020302020302020302020300A2020202D302E3631383820202020312E3037313720202020302E303030302043202020302020302020302020302020302020302020302020302020302020302020302020300A2020202D312E3033313320202020302E3335373220202020302E303030302043202020302020302020302020302020302020302020302020302020302020302020302020300A2020202D302E363138382020202D302E3335373220202020302E303030302043202020302020302020302020302020302020302020302020302020302020302020302020300A2020202D312E3835363320202020302E3335373220202020302E303030302043202020302020302020302020302020302020302020302020302020302020302020302020300A20202020312E3434333720202020302E3335373220202020302E30303030204F202020302020302020302020302020302020302020302020302020302020302020302020300A20202020312E3835363320202020312E3037313720202020302E303030302043202020302020302020302020302020302020302020302020302020302020302020302020300A20202020302E363138372020202D312E3037313720202020302E30303030204F202020302020302020302020302020302020302020302020302020302020302020302020300A2020312020322020312020302020202020200A2020322020332020322020302020202020200A2020332020342020312020302020202020200A2020342020352020322020302020202020200A2020352020362020312020302020202020200A2020312020362020322020302020202020200A2020352020372020312020302020202020200A2020382020392020312020302020202020200A2020322020382020312020302020202020200A2020312031302020312020302020202020200A4D2020454E44
Contributor: UBE SCIENTIFIC ANALYSIS LABORATORY
InstType: EI
InstName: HITACHI M-60
IoniMethod: _ENERGY 70 eV
IonPolarity: pos
Date: 2010-10-09 19:48:36+02:00
Num Peaks: 47
15 24 18 11 27 52 29 18 31 14 32 3 38 23 39 133 40 40 41 101 
43 23 50 31 51 65 52 30 53 52 55 140 62 9 63 26 65 59 66 59 
67 141 68 6 69 13 77 102 78 36 79 22 81 7 91 14 94 43 95 223 
96 15 105 3 106 11 107 16 109 14 110 8 121 5 122 21 123 999 124 85 
125 7 137 51 138 920 139 87 140 7 167 2 219 2 
