Name: 2-PROPYLAMINE
MW: 59
Formula: C3H9N
Synonym: MassBank: JP000229
Synonym: 2-PROPYLAMINE
Synonym: ISO-PROPYLAMINE
Structure: 310A31320A322D50524F50594C414D494E452E6D6F6C0A20204368656D447261773032323131303135303232440A2020342020332020302020302020302020302020302020302020302020303939392056323030300A20202020302E363138382020202D302E3731343520202020302E30303030204E202020302020302020302020302020302020302020302020302020302020302020302020300A20202020302E3631383820202020302E3731343520202020302E303030302043202020302020302020302020302020302020302020302020302020302020302020302020300A20202020302E323036322020202D302E3030303020202020302E303030302043202020302020302020302020302020302020302020302020302020302020302020302020300A2020202D302E363138382020202D302E3030303020202020302E303030302043202020302020302020302020302020302020302020302020302020302020302020302020300A2020322020332020312020302020202020200A2020332020342020312020302020202020200A2020312020332020312020302020202020200A4D2020454E44
Contributor: YAMAMOTO M, DEP. CHEMISTRY, FAC. SCIENCE, NARA WOMEN'S UNIV.
InstType: EI
InstName: HITACHI RMU-6M
IoniMethod: _ENERGY 70 eV
IonPolarity: pos
Date: 2010-10-09 19:48:36+02:00
Num Peaks: 16
15 53 18 258 26 11 27 5 28 64 30 25 38 10 39 4 40 21 41 65 
42 101 43 4 44 999 45 20 58 49 59 21 
