Name: MassBank: JP006019
MW: 118
Formula: C4H14Si2
Synonym: MassBank: JP006019
Synonym: 1,1,2,2-TETRAMETHYLDISILANE (SI-D2)
Structure: 310A32310A312C312C322C322D54455452414D455448594C444953494C414E45202853492D4432292E6D6F6C0A20204368656D447261773130323330393031323932440A2020382020372020302020302020302020302020302020302020302020303939392056323030300A20202020302E3431323520202020302E3030303020202020302E303030302053692020302020302020302020302020302020302020302020302020302020302020302020300A2020202D302E3431323520202020302E3030303020202020302E303030302053692020302020302020302020302020302020302020302020302020302020302020302020300A2020202D302E343132352020202D302E3832353020202020302E303030302043202020302020302020302020302020302020302020302020302020302020302020302020300A2020202D312E3233373520202020302E3030303020202020302E303030302043202020302020302020302020302020302020302020302020302020302020302020302020300A20202020302E3431323520202020302E3832353020202020302E303030302043202020302020302020302020302020302020302020302020302020302020302020302020300A20202020312E3233373520202020302E3030303020202020302E303030302043202020302020302020302020302020302020302020302020302020302020302020302020300A20202020302E343132352020202D302E3832353020202020302E303030302048202020312020302020302020302020302020302020302020302020302020302020302020300A2020202D302E3431323520202020302E3832353020202020302E303030302048202020312020302020302020302020302020302020302020302020302020302020302020300A2020312020322020312020302020202020200A2020322020332020312020302020202020200A2020322020342020312020302020202020200A2020312020352020312020302020202020200A2020312020362020312020302020202020200A2020312020372020312020302020202020200A2020322020382020312020302020202020200A4D202049534F202032202020372020203220202038202020320A4D2020454E44
Contributor: YAMAMOTO M, DEP. CHEMISTRY, FAC. SCIENCE, NARA WOMEN'S UNIV.
InstType: EI
InstName: HITACHI RMU-6M
IoniMethod: _ENERGY 70 eV
IonPolarity: pos
Date: 2010-10-09 19:48:36+02:00
Num Peaks: 63
27 5 28 32 29 50 30 1 31 76 32 51 33 6 39 1 42 26 43 370 
44 98 45 7 46 32 47 15 50 13 51 1 52 19 53 20 54 7 55 2 
56 9 57 16 58 667 59 12 60 999 61 85 62 35 68 1 69 40 70 24 
71 18 72 2 73 763 74 117 75 36 76 1 77 15 78 95 79 6 81 1 
83 8 84 8 85 17 86 3 87 13 88 18 89 9 99 1 100 9 101 39 
102 33 103 10 104 24 105 309 106 41 107 3 116 8 117 6 118 48 119 2 
120 326 121 49 122 25 
