Name: CYCLOHEXYL ACETATE
MW: 142
Formula: C8H14O2
Synonym: MassBank: JP001531
Synonym: CYCLOHEXYL ACETATE
Structure: 4359434C4F484558594C20414345544154452E6D6F6C0A20204368656D447261773036323431303133343732440A2031302031302020302020302020302020302020302020302020302020303939392056323030300A2020202D312E303731372020202D302E3431323520202020302E303030302043202020302020302020302020302020302020302020302020302020302020302020302020300A2020202D312E373836322020202D302E3832353020202020302E303030302043202020302020302020302020302020302020302020302020302020302020302020302020300A2020202D312E3037313720202020302E3431323520202020302E30303030204F202020302020302020302020302020302020302020302020302020302020302020302020300A2020202D302E333537322020202D302E3832353020202020302E30303030204F202020302020302020302020302020302020302020302020302020302020302020302020300A20202020302E333537322020202D302E3431323520202020302E303030302043202020302020302020302020302020302020302020302020302020302020302020302020300A20202020302E3335373220202020302E3431323520202020302E303030302043202020302020302020302020302020302020302020302020302020302020302020302020300A20202020312E3037313720202020302E3832353020202020302E303030302043202020302020302020302020302020302020302020302020302020302020302020302020300A20202020312E3738363220202020302E3431323520202020302E303030302043202020302020302020302020302020302020302020302020302020302020302020302020300A20202020312E373836322020202D302E3431323520202020302E303030302043202020302020302020302020302020302020302020302020302020302020302020302020300A20202020312E303731372020202D302E3832353020202020302E303030302043202020302020302020302020302020302020302020302020302020302020302020302020300A2020312020322020312020302020202020200A2020312020332020322020302020202020200A2020312020342020312020302020202020200A2020352020362020312020302020202020200A2020362020372020312020302020202020200A2020372020382020312020302020202020200A2020382020392020312020302020202020200A2020392031302020312020302020202020200A2020352031302020312020302020202020200A2020342020352020312020302020202020200A4D2020454E44
Contributor: YAMAMOTO M, DEP. CHEMISTRY, FAC. SCIENCE, NARA WOMEN'S UNIV.
InstType: EI
InstName: HITACHI RMU-6M
IoniMethod: _ENERGY 70 eV
IonPolarity: pos
Date: 2010-10-09 19:48:36+02:00
Num Peaks: 30
15 57 27 88 28 23 29 62 31 11 39 91 40 15 41 167 42 30 43 999 
44 48 51 10 53 27 54 187 55 161 56 19 57 81 58 74 59 17 61 89 
67 522 68 30 71 35 72 15 79 15 81 78 82 255 83 106 99 44 100 50 
