Name: 2-CYCLOPENTEN-1-ONE
MW: 82
Formula: C5H6O
Synonym: MassBank: JP009393
Synonym: 2-CYCLOPENTEN-1-ONE
Structure: 310A31370A322D4359434C4F50454E54454E2D312D4F4E452E6D6F6C0A20204368656D447261773031303331303132313132440A2020362020362020302020302020302020302020302020302020302020303939392056323030300A2020202D302E323232332020202D302E3030303020202020302E303030302043202020302020302020302020302020302020302020302020302020302020302020302020300A20202020302E3236323720202020302E3636373420202020302E303030302043202020302020302020302020302020302020302020302020302020302020302020302020300A20202020312E3034373320202020302E3431323520202020302E303030302043202020302020302020302020302020302020302020302020302020302020302020302020300A20202020312E303437332020202D302E3431323520202020302E303030302043202020302020302020302020302020302020302020302020302020302020302020302020300A20202020302E323632372020202D302E3636373420202020302E303030302043202020302020302020302020302020302020302020302020302020302020302020302020300A2020202D312E303437332020202D302E3030303020202020302E30303030204F202020302020302020302020302020302020302020302020302020302020302020302020300A2020312020322020312020302020202020200A2020322020332020322020302020202020200A2020332020342020312020302020202020200A2020342020352020312020302020202020200A2020312020352020312020302020202020200A2020312020362020322020302020202020200A4D2020454E44
Contributor: GUNMA COLLEGE OF TECHNOLOGY
InstType: EI
InstName: HITACHI M-80A
IoniMethod: _ENERGY 70 eV
IonPolarity: pos
Date: 2010-10-09 19:48:36+02:00
Num Peaks: 27
13 12 15 30 18 57 25 38 26 317 27 482 29 37 36 12 37 77 38 106 
39 999 40 44 41 26 42 62 43 24 49 48 50 165 51 151 52 76 53 453 
54 493 55 187 56 82 61 12 81 126 82 960 83 60 
