Name: 1-ETHOXY-3-TRIMETHYLSILYL-2-PROPANONE
MW: 174
Formula: C8H18O2Si
Synonym: MassBank: JP004749
Synonym: 1-ETHOXY-3-TRIMETHYLSILYL-2-PROPANONE
Structure: 312D4554484F58592D332D5452494D455448594C53494C594C2D322D50524F50414E4F4E452E6D6F6C0A20204368656D447261773131313830393031343132440A2031312031302020302020302020302020302020302020302020302020303939392056323030300A20202020302E333537322020202D302E3436373820202020302E303030302043202020302020302020302020302020302020302020302020302020302020302020302020300A2020202D302E333537322020202D302E3035353320202020302E303030302043202020302020302020302020302020302020302020302020302020302020302020302020300A2020202D312E303731372020202D302E3436373820202020302E303030302043202020302020302020302020302020302020302020302020302020302020302020302020300A2020202D302E3335373220202020302E3736393720202020302E30303030204F202020302020302020302020302020302020302020302020302020302020302020302020300A2020202D312E373836322020202D302E3035353320202020302E303030302053692020302020302020302020302020302020302020302020302020302020302020302020300A2020202D322E313938372020202D302E3736393720202020302E303030302043202020302020302020302020302020302020302020302020302020302020302020302020300A2020202D312E3337333720202020302E3635393220202020302E303030302043202020302020302020302020302020302020302020302020302020302020302020302020300A2020202D322E3530303620202020302E3335373220202020302E303030302043202020302020302020302020302020302020302020302020302020302020302020302020300A20202020312E303731372020202D302E3035353320202020302E30303030204F202020302020302020302020302020302020302020302020302020302020302020302020300A20202020312E373836322020202D302E3436373820202020302E303030302043202020302020302020302020302020302020302020302020302020302020302020302020300A20202020322E353030362020202D302E3035353320202020302E303030302043202020302020302020302020302020302020302020302020302020302020302020302020300A2020312020322020312020302020202020200A2020322020332020312020302020202020200A2020322020342020322020302020202020200A2020352020362020312020312020202020200A2020352020372020312020312020202020200A2020352020382020312020302020202020200A2020332020352020312020302020202020200A2031302031312020312020302020202020200A2020392031302020312020302020202020200A2020312020392020312020302020202020200A4D2020454E44
Contributor: MASS SPECTROSCOPY SOC. OF JAPAN (MSSJ)
InstType: EI
InstName: JEOL JMS-D-3000
IoniMethod: _ENERGY 70 eV
IonPolarity: pos
Date: 2010-10-09 19:48:36+02:00
Num Peaks: 15
58 20 59 17 73 201 74 19 75 63 103 16 115 999 116 120 117 51 129 13 
130 268 131 39 132 15 159 19 174 2 
