Name: M-CRESYL METHYL ETHER
MW: 122
Formula: C8H10O
Synonym: MassBank: JP007217
Synonym: M-CRESYL METHYL ETHER
Structure: 310A32330A4D2D43524553594C204D455448594C2045544845522E6D6F6C0A20204368656D447261773038313131303232323532440A2020392020392020302020302020302020302020302020302020302020303939392056323030300A20202020312E303731372020202D302E3832353020202020302E30303030204F202020302020302020302020302020302020302020302020302020302020302020302020300A20202020302E333537322020202D302E3431323520202020302E303030302043202020302020302020302020302020302020302020302020302020302020302020302020300A2020202D302E333537322020202D302E3832353020202020302E303030302043202020302020302020302020302020302020302020302020302020302020302020302020300A2020202D312E303731372020202D302E3431323520202020302E303030302043202020302020302020302020302020302020302020302020302020302020302020302020300A2020202D312E3037313720202020302E3431323520202020302E303030302043202020302020302020302020302020302020302020302020302020302020302020302020300A2020202D302E3335373220202020302E3832353020202020302E303030302043202020302020302020302020302020302020302020302020302020302020302020302020300A20202020302E3335373220202020302E3431323520202020302E303030302043202020302020302020302020302020302020302020302020302020302020302020302020300A2020202D312E373836322020202D302E3832353020202020302E303030302043202020302020302020302020302020302020302020302020302020302020302020302020300A20202020312E373836322020202D302E3431323520202020302E303030302043202020302020302020302020302020302020302020302020302020302020302020302020300A2020312020322020312020302020202020200A2020322020332020312020302020202020200A2020332020342020322020302020202020200A2020342020352020312020302020202020200A2020352020362020322020302020202020200A2020362020372020312020302020202020200A2020322020372020322020302020202020200A2020342020382020312020302020202020200A2020312020392020312020302020202020200A4D2020454E44
Contributor: SODA AROMATIC CO., LTD.
InstType: EI
InstName: HITACHI M-80B
IoniMethod: _ENERGY 70 eV
IonPolarity: pos
Date: 2010-10-09 19:48:36+02:00
Num Peaks: 36
15 72 26 11 27 74 29 21 37 13 38 50 39 220 40 15 41 19 50 81 
51 167 52 98 53 90 61 16 62 40 63 97 64 26 65 110 66 12 74 14 
75 11 76 11 77 430 78 132 79 329 80 19 89 37 90 21 91 471 92 212 
93 57 107 174 108 14 121 119 122 999 123 89 
