Name: DIBROMOMETHANE
MW: 171
Formula: CH2Br2
Synonym: MassBank: JP002341
Synonym: DIBROMOMETHANE
Structure: 310A31300A444942524F4D4F4D455448414E452E6D6F6C0A20204368656D447261773039323131303137303132440A2020332020322020302020302020302020302020302020302020302020303939392056323030300A2020202D302E3030303020202020302E3230363320202020302E303030302043202020302020302020302020302020302020302020302020302020302020302020302020300A20202020302E373134352020202D302E3230363320202020302E303030302042722020302020302020302020302020302020302020302020302020302020302020302020300A2020202D302E373134352020202D302E3230363320202020302E303030302042722020302020302020302020302020302020302020302020302020302020302020302020300A2020312020322020312020302020202020200A2020312020332020312020302020202020200A4D2020454E44
Contributor: MASS SPECTROSCOPY SOC. OF JAPAN (MSSJ)
InstType: EI
InstName: JEOL JMS-D-3000
IoniMethod: _ENERGY 70 eV
IonPolarity: pos
Date: 2010-10-09 19:48:36+02:00
Num Peaks: 18
79 73 80 12 81 75 82 11 87 13 91 84 92 37 93 746 94 43 95 652 
158 10 160 20 162 10 172 520 173 19 174 999 175 18 176 488 
