Name: DIISOBUTYL ETHER
MW: 130
Formula: C8H18O
Synonym: MassBank: JP003916
Synonym: DIISOBUTYL ETHER
Structure: 310A32320A444949534F425554594C2045544845522E6D6F6C0A20204368656D447261773039323131303233303832440A2020392020382020302020302020302020302020302020302020302020303939392056323030300A2020202D302E303030302020202D302E3230363220202020302E30303030204F202020302020302020302020302020302020302020302020302020302020302020302020300A20202020302E373134352020202D302E3631383820202020302E303030302043202020302020302020302020302020302020302020302020302020302020302020302020300A20202020312E343238392020202D302E3230363220202020302E303030302043202020302020302020302020302020302020302020302020302020302020302020302020300A20202020312E3432383920202020302E3631383820202020302E303030302043202020302020302020302020302020302020302020302020302020302020302020302020300A20202020322E313433342020202D302E3631383720202020302E303030302043202020302020302020302020302020302020302020302020302020302020302020302020300A2020202D302E373134352020202D302E3631383720202020302E303030302043202020302020302020302020302020302020302020302020302020302020302020302020300A2020202D312E343238392020202D302E3230363320202020302E303030302043202020302020302020302020302020302020302020302020302020302020302020302020300A2020202D322E313433342020202D302E3631383820202020302E303030302043202020302020302020302020302020302020302020302020302020302020302020302020300A2020202D312E3432383920202020302E3631383720202020302E303030302043202020302020302020302020302020302020302020302020302020302020302020302020300A2020322020332020312020302020202020200A2020332020342020312020302020202020200A2020332020352020312020302020202020200A2020312020322020312020302020202020200A2020362020372020312020302020202020200A2020372020382020312020302020202020200A2020372020392020312020302020202020200A2020312020362020312020302020202020200A4D2020454E44
Contributor: MASS SPECTROSCOPY SOC. OF JAPAN (MSSJ)
InstType: EI
InstName: Unknown
IoniMethod: EI
IonPolarity: pos
Date: 2010-10-09 19:48:36+02:00
Num Peaks: 9
27 32 29 95 41 145 43 4 56 56 57 999 58 53 87 8 130 30 
