Name: MassBank: JP006373
CAS: 1559-02-0
MW: 186
Formula: C9H14O4
Synonym: MassBank: JP006373
Synonym: DIETHYL 1,1-CYCLOPROPANEDICARBOXYLATE
Structure: 4449455448594C20312C312D4359434C4F50524F50414E454449434152424F58594C4154452E6D6F6C0A20204368656D447261773130313831303136353832440A2031332031332020302020302020302020302020302020302020302020303939392056323030300A20202020302E3331393020202020302E3638383420202020302E303030302043202020302020302020302020302020302020302020302020302020302020302020302020300A20202020302E3436323320202020312E3530303920202020302E303030302043202020302020302020302020302020302020302020302020302020302020302020302020300A20202020312E3039343220202020302E3937303620202020302E303030302043202020302020302020302020302020302020302020302020302020302020302020302020300A20202020302E343632332020202D302E3132343120202020302E303030302043202020302020302020302020302020302020302020302020302020302020302020302020300A2020202D302E313639372020202D302E3635343420202020302E30303030204F202020302020302020302020302020302020302020302020302020302020302020302020300A20202020312E323337352020202D302E3430363220202020302E30303030204F202020302020302020302020302020302020302020302020302020302020302020302020300A2020202D302E3530363020202020302E3638383420202020302E303030302043202020302020302020302020302020302020302020302020302020302020302020302020300A2020202D302E3931383520202020312E3430323920202020302E30303030204F202020302020302020302020302020302020302020302020302020302020302020302020300A2020202D302E393138352020202D302E3032363120202020302E30303030204F202020302020302020302020302020302020302020302020302020302020302020302020300A20202020312E333830382020202D312E3231383720202020302E303030302043202020302020302020302020302020302020302020302020302020302020302020302020300A20202020322E313536302020202D312E3530303920202020302E303030302043202020302020302020302020302020302020302020302020302020302020302020302020300A2020202D312E373433352020202D302E3032363120202020302E303030302043202020302020302020302020302020302020302020302020302020302020302020302020300A2020202D322E313536302020202D302E3734303520202020302E303030302043202020302020302020302020302020302020302020302020302020302020302020302020300A2020312020322020312020302020202020200A2020322020332020312020302020202020200A2020312020332020312020302020202020200A2020342020352020322020302020202020200A2020342020362020312020302020202020200A2020312020342020312020302020202020200A2020372020382020322020302020202020200A2020372020392020312020302020202020200A2020312020372020312020302020202020200A2031302031312020312020302020202020200A2020362031302020312020302020202020200A2031322031332020312020302020202020200A2020392031322020312020302020202020200A4D2020454E44
Contributor: HISAHIRO HAGIWARA, CHEMICAL RESEARCH INSTITUTE OF NON-AQUEOUSSOLUTIONS TOHOKU UNIV.
InstType: EI
InstName: JEOL JMS-DX-300
IoniMethod: _ENERGY 70 eV
IonPolarity: pos
Date: 2010-10-09 19:48:36+02:00
Num Peaks: 41
30 12 31 23 39 107 40 90 41 149 42 17 45 65 53 21 54 20 55 20 
57 20 59 12 67 17 68 116 69 110 71 12 82 71 83 15 84 54 85 110 
86 171 87 16 95 121 96 17 97 50 99 30 111 13 112 483 113 609 114 236 
129 11 130 434 131 48 140 48 141 999 142 105 143 18 158 271 159 220 160 24 
186 54 
