Name: MassBank: JP004245
MW: 267
Formula: C9H7Cl3O3
Synonym: MassBank: JP004245
Synonym: (2,4,5-TRICHLOROPHENOXY)ACETIC ACID METHYLESTER
Structure: 28322C342C352D54524943484C4F524F5048454E4F5859294143455449432041434944204D455448594C45535445522E6D6F6C0A20204368656D447261773130313930393137343132440A2031352031352020302020302020302020302020302020302020302020303939392056323030300A2020202D302E373134352020202D302E3431323520202020302E303030302043202020302020302020302020302020302020302020302020302020302020302020302020300A2020202D302E373134352020202D312E3233373520202020302E303030302043202020302020302020302020302020302020302020302020302020302020302020302020300A20202020302E303030302020202D312E3635303020202020302E303030302043202020302020302020302020302020302020302020302020302020302020302020302020300A20202020302E373134352020202D312E3233373520202020302E303030302043202020302020302020302020302020302020302020302020302020302020302020302020300A20202020302E373134352020202D302E3431323520202020302E303030302043202020302020302020302020302020302020302020302020302020302020302020302020300A20202020302E3030303020202020302E3030303020202020302E303030302043202020302020302020302020302020302020302020302020302020302020302020302020300A20202020312E3432383920202020302E3030303020202020302E3030303020436C2020302020302020302020302020302020302020302020302020302020302020302020300A20202020302E303030302020202D322E3437353020202020302E3030303020436C2020302020302020302020302020302020302020302020302020302020302020302020300A2020202D312E343238392020202D312E3635303020202020302E3030303020436C2020302020302020302020302020302020302020302020302020302020302020302020300A20202020302E3030303020202020302E3832353020202020302E30303030204F202020302020302020302020302020302020302020302020302020302020302020302020300A20202020302E3731343520202020312E3233373520202020302E303030302043202020302020302020302020302020302020302020302020302020302020302020302020300A20202020302E3731343520202020322E3036323520202020302E303030302043202020302020302020302020302020302020302020302020302020302020302020302020300A2020202D302E3030303020202020322E3437353020202020302E30303030204F202020302020302020302020302020302020302020302020302020302020302020302020300A20202020312E3432383920202020322E3437353020202020302E30303030204F202020302020302020302020302020302020302020302020302020302020302020302020300A2020202D302E3731353620202020322E3036323520202020302E303030302043202020302020302020302020302020302020302020302020302020302020302020302020300A2020312020322020322020302020202020200A2020322020332020312020302020202020200A2020332020342020322020302020202020200A2020342020352020312020302020202020200A2020352020362020322020302020202020200A2020362020312020312020302020202020200A2020352020372020312020302020202020200A2020332020382020312020302020202020200A2020322020392020312020302020202020200A2020362031302020312020302020202020200A2031302031312020312020302020202020200A2031312031322020312020302020202020200A2031322031332020312020302020202020200A2031322031342020322020302020202020200A2031332031352020312020302020202020200A4D202053545920203120202031205355500A4D2020534C4220203120202031202020310A4D202053414C20202031202031202031350A4D202053424C20202031202031202031350A4D2020534D5420202031204D650A4D2020534256202020312031352020202D372E3133303020202020362E373939300A4D2020454E44
Contributor: KOGA M, UNIV. OF OCCUPATIONAL AND ENVIRONMENTAL HEALTH
InstType: EI
InstName: JEOL JMS-01-SG
IoniMethod: _ENERGY 70 eV
IonPolarity: pos
Date: 2010-10-09 19:48:36+02:00
Num Peaks: 75
42 94 43 72 45 471 50 1 57 21 59 202 60 7 61 3 62 65 63 14 
72 14 73 58 74 130 75 21 83 14 84 3 85 21 92 7 96 7 97 13 
99 28 105 7 106 7 107 4 108 50 109 152 110 21 111 5 131 7 132 7 
134 7 141 1 143 123 144 72 145 202 146 15 147 108 148 79 149 7 160 1 
167 137 169 152 171 36 173 1 175 7 179 195 180 7 181 26 182 7 183 115 
185 14 186 2 195 144 196 57 197 137 198 6 199 36 200 7 209 478 210 6 
211 449 212 36 213 137 232 1 233 999 234 108 235 637 236 4 237 108 268 543 
269 39 270 57 271 43 272 166 274 7 
