Name: MassBank: JP000122
MW: 152
Formula: C10H16O
Synonym: MassBank: JP000122
Synonym: 3,7-DIMETHYL-2,6-OCTADIENAL(TRANS)
Synonym: GERANIAL
Structure: 332C372D44494D455448594C2D322C362D4F4354414449454E414C285452414E53292E6D6F6C0A20204368656D447261773032323231303034303432440A2031312031302020302020302020302020302020302020302020302020303939392056323030300A20202020312E363530302020202D302E3731343520202020302E303030302043202020302020302020302020302020302020302020302020302020302020302020302020300A20202020312E3233373520202020302E3030303020202020302E303030302043202020302020302020302020302020302020302020302020302020302020302020302020300A20202020302E3431323520202020302E3030303020202020302E303030302043202020302020302020302020302020302020302020302020302020302020302020302020300A20202020302E3030303020202020302E3731343520202020302E303030302043202020302020302020302020302020302020302020302020302020302020302020302020300A2020202D302E3832353020202020302E3731343520202020302E303030302043202020302020302020302020302020302020302020302020302020302020302020302020300A2020202D312E323337352020202D302E3030303020202020302E303030302043202020302020302020302020302020302020302020302020302020302020302020302020300A2020202D322E303632352020202D302E3030303020202020302E303030302043202020302020302020302020302020302020302020302020302020302020302020302020300A2020202D322E343735302020202D302E3731343520202020302E303030302043202020302020302020302020302020302020302020302020302020302020302020302020300A20202020322E343735302020202D302E3731343520202020302E30303030204F202020302020302020302020302020302020302020302020302020302020302020302020300A2020202D322E3437353020202020302E3731343520202020302E303030302043202020302020302020302020302020302020302020302020302020302020302020302020300A2020202D302E303030302020202D302E3731343520202020302E303030302043202020302020302020302020302020302020302020302020302020302020302020302020300A2020312020322020312020302020202020200A2020322020332020322020302020202020200A2020332020342020312020302020202020200A2020342020352020312020302020202020200A2020352020362020312020302020202020200A2020362020372020322020302020202020200A2020372020382020312020302020202020200A2020312020392020322020302020202020200A2020372031302020312020302020202020200A2020332031312020312020302020202020200A4D2020454E44
Contributor: YAMAMOTO M, DEP. CHEMISTRY, FAC. SCIENCE, NARA WOMEN'S UNIV.
InstType: EI
InstName: HITACHI RMU-6M
IoniMethod: _ENERGY 70 eV
IonPolarity: pos
Date: 2010-10-09 19:48:36+02:00
Num Peaks: 34
27 140 28 133 29 94 39 219 40 30 41 873 42 33 43 39 51 27 52 10 
53 90 54 19 55 53 56 26 59 34 65 18 67 66 68 22 69 999 70 50 
77 21 79 23 83 69 84 246 91 21 93 12 94 125 95 38 109 62 110 12 
119 16 123 42 137 38 152 64 
