Name: 2-(2-FURYL)ACRYLIC ACID METHYL ESTER
MW: 152
Formula: C8H8O3
Synonym: MassBank: JP002626
Synonym: 2-(2-FURYL)ACRYLIC ACID METHYL ESTER
Structure: 322D28322D465552594C29414352594C49432041434944204D455448594C2045535445522E6D6F6C0A20204368656D447261773132323130393133343432440A2031312031312020302020302020302020302020302020302020302020303939392056323030300A2020202D302E3335373220202020302E3834313020202020302E303030302043202020302020302020302020302020302020302020302020302020302020302020302020300A20202020302E3335373220202020302E3432383520202020302E303030302043202020302020302020302020302020302020302020302020302020302020302020302020300A20202020312E3037313720202020302E3834313020202020302E303030302043202020302020302020302020302020302020302020302020302020302020302020302020300A2020202D302E3335373220202020312E3636363020202020302E30303030204F202020302020302020302020302020302020302020302020302020302020302020302020300A2020202D312E3037313720202020302E3432383520202020302E30303030204F202020302020302020302020302020302020302020302020302020302020302020302020300A2020202D302E333130322020202D302E3838313420202020302E30303030204F202020302020302020302020302020302020302020302020302020302020302020302020300A20202020302E333537322020202D302E3339363520202020302E303030302043202020302020302020302020302020302020302020302020302020302020302020302020300A20202020312E303234372020202D302E3838313420202020302E303030302043202020302020302020302020302020302020302020302020302020302020302020302020300A20202020302E373639372020202D312E3636363020202020302E303030302043202020302020302020302020302020302020302020302020302020302020302020302020300A2020202D302E303535332020202D312E3636363020202020302E303030302043202020302020302020302020302020302020302020302020302020302020302020302020300A2020202D312E303731372020202D302E3339363520202020302E303030302043202020302020302020302020302020302020302020302020302020302020302020302020300A2020312020322020312020302020202020200A2020322020332020322020302020202020200A2020312020342020322020302020202020200A2020312020352020312020302020202020200A2020362020372020312020302020202020200A2020372020382020322020302020202020200A2020382020392020312020302020202020200A2020392031302020322020302020202020200A2020362031302020312020302020202020200A2020322020372020312020302020202020200A2020352031312020312020302020202020200A4D2020454E44
Contributor: KOGA M, UNIV. OF OCCUPATIONAL AND ENVIRONMENTAL HEALTH
InstType: EI
InstName: JEOL JMS-01-SG
IoniMethod: _ENERGY 70 eV
IonPolarity: pos
Date: 2010-10-09 19:48:36+02:00
Num Peaks: 24
42 56 53 49 59 25 62 5 63 131 64 56 65 530 66 6 77 35 78 117 
79 53 81 5 92 86 93 143 94 65 107 4 108 96 109 103 121 999 122 9 
123 30 124 72 152 652 153 49 
