Name: MassBank: JP004377
MW: 198
Formula: C14H14O
Synonym: MassBank: JP004377
Synonym: 4,5,6,7-TETRAHYDRO-2-PHENYLBENZOFURAN
Structure: 342C352C362C372D5445545241485944524F2D322D5048454E594C42454E5A4F465552414E2E6D6F6C0A20204368656D447261773130313831303136353232440A2031352031372020302020302020302020302020302020302020302020303939392056323030300A20202020302E343739382020202D302E3536323420202020302E30303030204F202020302020302020302020302020302020302020302020302020302020302020302020300A2020202D302E313631332020202D302E3034333220202020302E303030302043202020302020302020302020302020302020302020302020302020302020302020302020300A20202020302E3133343320202020302E3732373020202020302E303030302043202020302020302020302020302020302020302020302020302020302020302020302020300A20202020302E3935383220202020302E3638333820202020302E303030302043202020302020302020302020302020302020302020302020302020302020302020302020300A20202020312E313731372020202D302E3131333120202020302E303030302043202020302020302020302020302020302020302020302020302020302020302020302020300A20202020312E3534313620202020312E3236373220202020302E303030302043202020302020302020302020302020302020302020302020302020302020302020302020300A20202020322E3333383520202020312E3035333620202020302E303030302043202020302020302020302020302020302020302020302020302020302020302020302020300A20202020322E3535323020202020302E3235363820202020302E303030302043202020302020302020302020302020302020302020302020302020302020302020302020300A20202020312E393638362020202D302E3332363620202020302E303030302043202020302020302020302020302020302020302020302020302020302020302020302020300A2020202D302E393538322020202D302E3235363820202020302E303030302043202020302020302020302020302020302020302020302020302020302020302020302020300A2020202D312E313731372020202D312E3035333620202020302E303030302043202020302020302020302020302020302020302020302020302020302020302020302020300A2020202D312E393638362020202D312E3236373220202020302E303030302043202020302020302020302020302020302020302020302020302020302020302020302020300A2020202D322E353532302020202D302E3638333820202020302E303030302043202020302020302020302020302020302020302020302020302020302020302020302020300A2020202D322E3333383520202020302E3131333120202020302E303030302043202020302020302020302020302020302020302020302020302020302020302020302020300A2020202D312E3534313620202020302E3332363620202020302E303030302043202020302020302020302020302020302020302020302020302020302020302020302020300A2020312020322020312020302020202020200A2020322020332020322020302020202020200A2020332020342020312020302020202020200A2020342020352020322020302020202020200A2020312020352020312020302020202020200A2020362020372020312020302020202020200A2020372020382020312020302020202020200A2020382020392020312020302020202020200A2020352020392020312020302020202020200A2020342020362020312020302020202020200A2031302031312020312020302020202020200A2031312031322020322020302020202020200A2031322031332020312020302020202020200A2031332031342020322020302020202020200A2031342031352020312020302020202020200A2031302031352020322020302020202020200A2020322031302020312020302020202020200A4D2020454E44
Contributor: HAGIWARA H, CHEM. RES. INST. OF NON-AQUEOUS SOLUTIONS, TOHOKU UNIV.
InstType: EI
InstName: JEOL JMS-DX-300
IoniMethod: _ENERGY 70 eV
IonPolarity: pos
Date: 2010-10-09 19:48:36+02:00
Num Peaks: 25
17 67 18 296 28 999 32 250 39 60 41 54 51 86 77 232 91 62 99 45 
102 42 105 254 109 112 115 81 128 53 141 156 142 44 165 64 170 802 171 119 
175 41 194 96 197 136 198 800 199 127 
