Name: 2-(2-ETHOXYETHOXY)ETHANOL
CAS: 111-90-0
MW: 134
Formula: C6H14O3
Synonym: MassBank: JP007356
Synonym: 2-(2-ETHOXYETHOXY)ETHANOL
Synonym: CARBITOL
Structure: 310A32320A322D28322D4554484F58594554484F585929455448414E4F4C2E6D6F6C0A20204368656D447261773132323130393133343032440A2020392020382020302020302020302020302020302020302020302020303939392056323030300A2020202D322E3134333420202020302E3230363320202020302E303030302043202020302020302020302020302020302020302020302020302020302020302020302020300A2020202D312E343238392020202D302E3230363320202020302E303030302043202020302020302020302020302020302020302020302020302020302020302020302020300A2020202D302E3731343520202020302E3230363320202020302E30303030204F202020302020302020302020302020302020302020302020302020302020302020302020300A20202020302E303030302020202D302E3230363220202020302E303030302043202020302020302020302020302020302020302020302020302020302020302020302020300A20202020302E3731343520202020302E3230363320202020302E303030302043202020302020302020302020302020302020302020302020302020302020302020302020300A20202020312E343238392020202D302E3230363220202020302E30303030204F202020302020302020302020302020302020302020302020302020302020302020302020300A20202020322E3134333420202020302E3230363320202020302E303030302043202020302020302020302020302020302020302020302020302020302020302020302020300A20202020322E383537392020202D302E3230363220202020302E303030302043202020302020302020302020302020302020302020302020302020302020302020302020300A2020202D322E383537392020202D302E3230363320202020302E30303030204F202020302020302020302020302020302020302020302020302020302020302020302020300A2020312020322020312020302020202020200A2020342020352020312020302020202020200A2020332020342020312020302020202020200A2020372020382020312020302020202020200A2020362020372020312020302020202020200A2020352020362020312020302020202020200A2020322020332020312020302020202020200A2020312020392020312020302020202020200A4D2020454E44
Contributor: YAMAMOTO M, DEP. CHEMISTRY, FAC. SCIENCE, NARA WOMEN'S UNIV.
InstType: EI
InstName: HITACHI RMU-6M
IoniMethod: _ENERGY 70 eV
IonPolarity: pos
Date: 2010-10-09 19:48:36+02:00
Num Peaks: 24
26 13 27 105 28 70 29 153 31 374 33 14 39 16 41 101 42 66 43 999 
44 26 45 10 58 11 59 376 60 92 61 20 62 19 72 265 73 141 75 73 
89 11 101 14 103 31 104 55 
