Name: FILIFOLONE
MW: 150
Formula: C10H14O
Synonym: MassBank: JP006311
Synonym: FILIFOLONE
Structure: 313131305F46494C49464F4C4F4E452E6D6F6C0A20204368656D447261773039303731303130343632440A2031312031322020302020302020302020302020302020302020302020303939392056323030300A2020202D302E3138393120202020302E3330303720202020302E303030302043202020302020302020302020302020302020302020302020302020302020302020302020300A2020202D302E313839312020202D302E3532343320202020302E303030302043202020302020302020302020302020302020302020302020302020302020302020302020300A20202020302E363335392020202D302E3532343320202020302E303030302043202020302020302020302020302020302020302020302020302020302020302020302020300A20202020302E3633353920202020302E3330303720202020302E303030302043202020302020302020302020302020302020302020302020302020302020302020302020300A2020202D302E3937333720202020302E3535353620202020302E303030302043202020302020302020302020302020302020302020302020302020302020302020302020300A2020202D312E343538362020202D302E3131313820202020302E303030302043202020302020302020302020302020302020302020302020302020302020302020302020300A2020202D302E393733372020202D302E3737393320202020302E303030302043202020302020302020302020302020302020302020302020302020302020302020302020300A2020202D312E3232383620202020312E3334303220202020302E303030302043202020302020302020302020302020302020302020302020302020302020302020302020300A20202020312E3231393320202020302E3838343020202020302E30303030204F202020302020302020302020302020302020302020302020302020302020302020302020300A20202020302E373538332020202D312E3334303220202020302E303030302043202020302020302020302020302020302020302020302020302020302020302020302020300A20202020312E343538362020202D302E3436333020202020302E303030302043202020302020302020302020302020302020302020302020302020302020302020302020300A2020312020322020312020302020202020200A2020322020332020312020302020202020200A2020332020342020312020302020202020200A2020342020312020312020302020202020200A2020312020352020312020302020202020200A2020352020362020322020302020202020200A2020362020372020312020302020202020200A2020372020322020312020302020202020200A2020352020382020312020302020202020200A2020342020392020322020302020202020200A2020332031302020312020312020202020200A2020332031312020312020362020202020200A4D2020454E44
Contributor: EGUCHI S, FAC. OF SCIENCE, HIROSHIMA UNIV.
InstType: EI
InstName: HITACHI RMS-4
IoniMethod: _ENERGY 70 eV
IonPolarity: pos
Date: 2010-10-09 19:48:36+02:00
Num Peaks: 51
40 120 41 539 42 267 43 19 50 97 51 207 52 120 53 30 54 55 55 101 
56 322 57 32 63 83 64 23 65 175 66 5 67 101 68 32 69 83 70 38 
71 46 77 309 78 101 79 64 80 999 81 198 82 41 83 2 91 567 92 97 
93 313 94 6 95 46 103 28 104 14 105 18 106 55 107 825 108 304 109 8 
119 37 120 9 121 65 122 30 123 60 133 28 134 14 135 7 136 14 150 124 
151 18 
