Name: MassBank: JP006327
MW: 218
Formula: C10H18O5
Synonym: MassBank: JP006327
Synonym: METHYL 3,4-O-ISOPROPYLIDENE-BETA-D-FUCOPYRANOSIDE (3,3,3,4,4,4-D6)
Synonym: METHYL 3,4-O-HEXADEUTEROISOPROPYLIDENE-BETA-D-FUCOPYRANOSIDE
Structure: 313132325F4D455448594C20332C342D4F2D49534F50524F50594C4944454E452D424554412D442D4655434F505952414E4F534944452028332C332C332C342C342C342D4436292E6D6F6C0A20204368656D447261773039303731303131303832440A2032332032342020302020302020302020302020302020302020302020303939392056323030300A2020202D312E3130343620202020312E3635303020202020302E303030302043202020302020302020302020302020302020302020302020302020302020302020302020300A2020202D312E3130363720202020302E3832353020202020302E303030302043202020302020302020302020302020302020302020302020302020302020302020302020300A2020202D302E3339323220202020302E3431323520202020302E303030302043202020302020302020302020302020302020302020302020302020302020302020302020300A20202020302E3339343820202020302E3636353520202020302E30303030204F202020302020302020302020302020302020302020302020302020302020302020302020300A2020202D302E333932322020202D302E3431323420202020302E303030302043202020302020302020302020302020302020302020302020302020302020302020302020300A20202020302E333933322020202D302E3636383020202020302E30303030204F202020302020302020302020302020302020302020302020302020302020302020302020300A2020202D312E313036372020202D302E3832343920202020302E303030302043202020302020302020302020302020302020302020302020302020302020302020302020300A2020202D312E313036372020202D312E3634393920202020302E30303030204F202020302020302020302020302020302020302020302020302020302020302020302020300A2020202D312E383231312020202D302E3431323520202020302E303030302043202020302020302020302020302020302020302020302020302020302020302020302020300A2020202D312E3832303020202020302E3431323520202020302E30303030204F202020302020302020302020302020302020302020302020302020302020302020302020300A2020202D322E353335362020202D302E3832353020202020302E30303030204F202020302020302020302020302020302020302020302020302020302020302020302020300A20202020302E3836343020202020302E3031323920202020302E303030302043202020302020302020302020302020302020302020302020302020302020302020302020300A2020202D302E3330353820202020312E3233313920202020302E303030302048202020302020302020302020302020302020302020302020302020302020302020302020300A2020202D302E333035372020202D312E3233353020202020302E303030302048202020302020302020302020302020302020302020302020302020302020302020302020300A20202020312E343430312020202D302E3630333220202020302E303030302043202020302020302020302020302020302020302020302020302020302020302020302020300A20202020322E303732312020202D302E3037323920202020302E303030302048202020312020302020302020302020302020302020302020302020302020302020302020300A20202020312E393730342020202D312E3233353120202020302E303030302048202020312020302020302020302020302020302020302020302020302020302020302020300A20202020302E383038312020202D312E3133333520202020302E303030302048202020312020302020302020302020302020302020302020302020302020302020302020300A20202020312E3632323320202020302E3737313320202020302E303030302043202020302020302020302020302020302020302020302020302020302020302020302020300A20202020302E3934373320202020312E3237363820202020302E303030302048202020312020302020302020302020302020302020302020302020302020302020302020300A20202020322E3033363620202020312E3438383920202020302E303030302048202020312020302020302020302020302020302020302020302020302020302020302020300A20202020322E3533353620202020302E3234343020202020302E303030302048202020312020302020302020302020302020302020302020302020302020302020302020300A2020202D322E353335362020202D312E3635303020202020302E303030302043202020302020302020302020302020302020302020302020302020302020302020302020300A2020322020312020312020362020202020200A2020322020332020312020302020202020200A2020332020342020312020302020202020200A2020332020352020312020302020202020200A2020352020362020312020302020202020200A2020352020372020312020302020202020200A2020372020382020312020312020202020200A2020372020392020312020302020202020200A2020392031302020312020302020202020200A2020392031312020312020362020202020200A2020322031302020312020302020202020200A2031322031392020312020302020202020200A2031322031352020312020302020202020200A2020342031322020312020302020202020200A2020362031322020312020302020202020200A2020332031332020312020312020202020200A2020352031342020312020312020202020200A2031352031362020312020302020202020200A2031352031372020312020302020202020200A2031352031382020312020302020202020200A2031392032302020312020302020202020200A2031392032312020312020302020202020200A2031392032322020312020302020202020200A2031312032332020312020302020202020200A4D202049534F2020362020313620202032202031372020203220203138202020322020323020202032202032312020203220203232202020320A4D2020454E44
Contributor: EGUCHI S, FAC. OF SCIENCE, HIROSHIMA UNIV.
InstType: EI
InstName: HITACHI RMU-6L
IoniMethod: _ENERGY 70 eV
IonPolarity: pos
Date: 2010-10-09 19:48:36+02:00
Num Peaks: 94
40 48 41 262 42 143 43 46 44 95 45 310 46 999 47 5 48 36 49 36 
50 12 51 1 52 12 53 71 54 48 55 19 56 107 57 214 58 119 59 13 
60 143 61 214 62 48 63 5 64 158 65 631 66 48 67 4 68 24 69 131 
70 48 71 52 72 95 73 107 74 286 75 6 76 24 77 24 78 24 79 4 
80 12 81 48 82 36 83 24 84 48 85 71 86 36 87 31 88 274 89 48 
90 36 91 1 92 12 95 24 96 12 97 5 98 24 99 71 100 83 101 10 
102 60 103 24 104 60 105 29 106 310 107 155 108 24 109 2 110 12 111 83 
112 24 113 3 114 24 115 24 116 48 117 1 118 24 119 36 120 24 121 3 
125 24 126 12 127 60 128 6 129 36 130 24 135 36 143 10 144 24 193 83 
206 214 207 1 224 24 225 3 
