Name: MassBank: JP004952
MW: 201
Formula: C9H23NSi2
Synonym: MassBank: JP004952
Synonym: 1-ETHYL-2,2,6,6-TETRAMETHYL-2,6-DISILAPIPERIDINE
Structure: 312D455448594C2D322C322C362C362D54455452414D455448594C2D322C362D444953494C4150495045524944494E452E6D6F6C0A20204368656D447261773131313830393033343232440A2031322031322020302020302020302020302020302020302020302020303939392056323030300A2020202D302E3030303020202020302E3230363320202020302E30303030204E202020302020302020302020302020302020302020302020302020302020302020302020300A20202020302E373134352020202D302E3230363220202020302E303030302053692020302020302020302020302020302020302020302020302020302020302020302020300A20202020302E373134352020202D312E3033313220202020302E303030302043202020302020302020302020302020302020302020302020302020302020302020302020300A2020202D302E303030302020202D312E3434333820202020302E303030302043202020302020302020302020302020302020302020302020302020302020302020302020300A2020202D302E373134352020202D312E3033313320202020302E303030302043202020302020302020302020302020302020302020302020302020302020302020302020300A2020202D302E373134352020202D302E3230363220202020302E303030302053692020302020302020302020302020302020302020302020302020302020302020302020300A2020202D302E3939363620202020302E3536393020202020302E303030302043202020302020302020302020302020302020302020302020302020302020302020302020300A2020202D312E353236392020202D302E3334393520202020302E303030302043202020302020302020302020302020302020302020302020302020302020302020302020300A20202020302E3939363620202020302E3536393020202020302E303030302043202020302020302020302020302020302020302020302020302020302020302020302020300A20202020312E353236392020202D302E3334393520202020302E303030302043202020302020302020302020302020302020302020302020302020302020302020302020300A2020202D302E3030303020202020312E3033313320202020302E303030302043202020302020302020302020302020302020302020302020302020302020302020302020300A2020202D302E3731343520202020312E3434333820202020302E303030302043202020302020302020302020302020302020302020302020302020302020302020302020300A2020312020322020312020302020202020200A2020322020332020312020302020202020200A2020332020342020312020302020202020200A2020342020352020312020302020202020200A2020352020362020312020302020202020200A2020312020362020312020302020202020200A2020362020372020312020312020202020200A2020362020382020312020362020202020200A2020322020392020312020362020202020200A2020322031302020312020312020202020200A2031312031322020312020302020202020200A2020312031312020312020302020202020200A4D2020454E44
Contributor: MASS SPECTROSCOPY SOC. OF JAPAN (MSSJ)
InstType: EI
InstName: JEOL JMS-D-3000
IoniMethod: _ENERGY 70 eV
IonPolarity: pos
Date: 2010-10-09 19:48:36+02:00
Num Peaks: 22
45 47 59 149 70 16 73 92 85 32 86 46 88 31 99 19 100 65 101 20 
102 18 115 16 116 15 117 47 130 18 144 22 158 114 186 999 187 200 188 86 
201 86 202 19 
