Name: 2-METHYL-6-NITROINDOLIZINE
MW: 176
Formula: C9H8N2O2
Synonym: MassBank: JP000429
Synonym: 2-METHYL-6-NITROINDOLIZINE
Structure: 322D4D455448594C2D362D4E4954524F494E444F4C495A494E452E6D6F6C0A20204368656D447261773031323231303037323832440A2031332031342020302020302020302020302020302020302020302020303939392056323030300A2020202D312E333637352020202D302E3437353320202020302E303030302043202020302020302020302020302020302020302020302020302020302020302020302020300A2020202D312E3636333220202020302E3239343920202020302E303030302043202020302020302020302020302020302020302020302020302020302020302020302020300A2020202D312E3032323120202020302E3831343120202020302E303030302043202020302020302020302020302020302020302020302020302020302020302020302020300A2020202D302E3333303120202020302E3336343820202020302E30303030204E202020302020302020302020302020302020302020302020302020302020302020302020300A20202020302E3436363720202020302E3537383320202020302E303030302043202020302020302020302020302020302020302020302020302020302020302020302020300A20202020312E303530312020202D302E3030353020202020302E303030302043202020302020302020302020302020302020302020302020302020302020302020302020300A20202020302E383336362020202D302E3830313920202020302E303030302043202020302020302020302020302020302020302020302020302020302020302020302020300A20202020302E303339372020202D312E3031353520202020302E303030302043202020302020302020302020302020302020302020302020302020302020302020302020300A2020202D302E353433372020202D302E3433323120202020302E303030302043202020302020302020302020302020302020302020302020302020302020302020302020300A20202020312E3834373020202020302E3230383520202020302E30303030204E202020302020332020302020302020302020302020302020302020302020302020302020300A20202020322E343630312020202D302E3334333520202020302E30303030204F202020302020302020302020302020302020302020302020302020302020302020302020300A20202020322E3031383520202020312E3031353520202020302E30303030204F202020302020352020302020302020302020302020302020302020302020302020302020300A2020202D322E3436303120202020302E3530383520202020302E303030302043202020302020302020302020302020302020302020302020302020302020302020302020300A2020312020322020312020302020202020200A2020322020332020322020302020202020200A2020332020342020312020302020202020200A2020342020352020312020302020202020200A2020352020362020322020302020202020200A2020362020372020312020302020202020200A2020372020382020322020302020202020200A2020382020392020312020302020202020200A2020312020392020322020302020202020200A2020342020392020312020302020202020200A2031302031312020322020302020202020200A2031302031322020312020302020202020200A2020362031302020312020302020202020200A2020322031332020312020302020202020200A4D202043484720203220203130202020312020313220202D310A4D2020454E44
Contributor: SASAKI S, TOYOHASHI UNIV. OF TECH.
InstType: EI
InstName: MX-1303
IoniMethod: _ENERGY 50 eV
IonPolarity: pos
Date: 2010-10-09 19:48:36+02:00
Num Peaks: 25
41 11 43 13 50 38 51 9 52 41 53 22 57 15 63 4 74 10 75 19 
76 38 77 31 78 25 88 15 101 12 102 9 103 275 104 28 117 10 118 4 
128 44 129 41 175 12 176 999 177 107 
