Name: MassBank: JP006323
MW: 476
Formula: C29H48O5
Synonym: MassBank: JP006323
Synonym: LABDA-7,14-DIEN-13(R)-OL-BETA-D-FUCOPYRANOSIDE 3,4-O-ISOPROPYLIDENE DERIVATIVE (3,3,3,4,4,4-D6)
Synonym: LABDA-7,14-DIEN-13(R)-OL-BETA-D-FUCOPYRANOSIDE 3,4-O-HEXADEUTEROISOPROPYLIDENE DERIVATIVE
Structure: 313131385F4C414244412D372C31342D4449454E2D31332852292D4F4C2D424554412D442D4655434F505952414E4F5349444520332C342D4F2D49534F50524F50594C4944454E4520444552495641544956452028332C332C332C342C342C342D4436292E6D6F6C0A20204368656D447261773039303731303131303432440A2034382035312020302020302020302020302020302020302020302020303939392056323030300A2020202D312E3336363320202020342E3135303220202020302E303030302043202020302020302020302020302020302020302020302020302020302020302020302020300A2020202D312E3336363320202020332E3332353220202020302E303030302043202020302020302020302020302020302020302020302020302020302020302020302020300A2020202D302E3635313820202020322E3931323720202020302E303030302043202020302020302020302020302020302020302020302020302020302020302020302020300A20202020302E3036323620202020332E3332353220202020302E303030302043202020302020302020302020302020302020302020302020302020302020302020302020300A20202020302E3036323620202020342E3135303220202020302E303030302043202020302020302020302020302020302020302020302020302020302020302020302020300A2020202D302E3635313820202020342E3536323720202020302E303030302043202020302020302020302020302020302020302020302020302020302020302020302020300A20202020302E3737373120202020322E3931323720202020302E303030302043202020302020302020302020302020302020302020302020302020302020302020302020300A20202020312E3439313620202020332E3332353220202020302E303030302043202020302020302020302020302020302020302020302020302020302020302020302020300A20202020312E3439313620202020342E3135303220202020302E303030302043202020302020302020302020302020302020302020302020302020302020302020302020300A20202020302E3737373120202020342E3536323720202020302E303030302043202020302020302020302020302020302020302020302020302020302020302020302020300A2020202D322E3038303820202020322E3931323720202020302E303030302043202020302020302020302020302020302020302020302020302020302020302020302020300A20202020312E3430333920202020352E3039393120202020302E303030302043202020302020302020302020302020302020302020302020302020302020302020302020300A2020202D302E3331383120202020322E3135383220202020302E303030302043202020302020302020302020302020302020302020302020302020302020302020302020300A20202020302E3033393720202020322E3530303520202020302E303030302043202020302020302020302020302020302020302020302020302020302020302020302020300A2020202D302E3435363620202020312E3334343920202020302E303030302043202020302020302020302020302020302020302020302020302020302020302020302020300A20202020302E3137383520202020302E3831383420202020302E303030302043202020302020302020302020302020302020302020302020302020302020302020302020300A20202020302E3730353120202020312E3435333420202020302E303030302043202020302020302020302020302020302020302020302020302020302020302020302020300A20202020302E3831333520202020302E3239313820202020302E303030302043202020302020302020302020302020302020302020302020302020302020302020302020300A2020202D302E3334353920202020302E3138333020202020302E30303030204F202020302020302020302020302020302020302020302020302020302020302020302020300A2020202D312E3236333920202020322E3335383920202020302E303030302048202020302020302020302020302020302020302020302020302020302020302020302020300A20202020302E3036343320202020342E3937353220202020302E303030302048202020302020302020302020302020302020302020302020302020302020302020302020300A20202020302E3330303620202020352E3233363220202020302E303030302043202020302020302020302020302020302020302020302020302020302020302020302020300A20202020312E3538373120202020302E3537383520202020302E303030302043202020302020302020302020302020302020302020302020302020302020302020302020300A2020202D302E333432372020202D302E3634393820202020302E303030302043202020302020302020302020302020302020302020302020302020302020302020302020300A2020202D312E303537382020202D312E3036303720202020302E30303030204F202020302020302020302020302020302020302020302020302020302020302020302020300A2020202D312E303538352020202D312E3838353020202020302E303030302043202020302020302020302020302020302020302020302020302020302020302020302020300A2020202D302E333432372020202D322E3239393820202020302E303030302043202020302020302020302020302020302020302020302020302020302020302020302020300A20202020302E333733312020202D312E3838353020202020302E303030302043202020302020302020302020302020302020302020302020302020302020302020302020300A20202020302E333733312020202D312E3036303020202020302E303030302043202020302020302020302020302020302020302020302020302020302020302020302020300A2020202D312E303933342020202D302E3331343320202020302E303030302048202020302020302020302020302020302020302020302020302020302020302020302020300A2020202D312E323730362020202D322E3638323320202020302E303030302043202020302020302020302020302020302020302020302020302020302020302020302020300A20202020302E343538352020202D302E3234303620202020302E303030302048202020302020302020302020302020302020302020302020302020302020302020302020300A2020202D312E383735372020202D312E3737393420202020302E303030302048202020302020302020302020302020302020302020302020302020302020302020302020300A2020202D322E3037383720202020342E3536303020202020302E303030302048202020302020302020302020302020302020302020302020302020302020302020302020300A2020202D302E313637302020202D332E3130393420202020302E30303030204F202020302020302020302020302020302020302020302020302020302020302020302020300A20202020302E363531382020202D332E3139363720202020302E303030302043202020302020302020302020302020302020302020302020302020302020302020302020300A20202020302E393839322020202D322E3433373920202020302E30303030204F202020302020302020302020302020302020302020302020302020302020302020302020300A20202020312E313739362020202D312E3639393720202020302E303030302048202020302020302020302020302020302020302020302020302020302020302020302020300A20202020312E313938372020202D312E3130333020202020302E30303030204F202020302020302020302020302020302020302020302020302020302020302020302020300A2020202D302E383230312020202D322E3937343820202020302E303030302048202020302020302020302020302020302020302020302020302020302020302020302020300A20202020312E333636332020202D332E3630393220202020302E303030302043202020302020302020302020302020302020302020302020302020302020302020302020300A20202020312E373737322020202D322E3839373620202020302E303030302048202020312020302020302020302020302020302020302020302020302020302020302020300A20202020322E303830382020202D342E3032313720202020302E303030302048202020312020302020302020302020302020302020302020302020302020302020302020300A20202020302E393532322020202D342E3332363520202020302E303030302048202020312020302020302020302020302020302020302020302020302020302020302020300A20202020302E323433302020202D342E3435313820202020302E303030302043202020302020302020302020302020302020302020302020302020302020302020302020300A20202020312E323632372020202D342E3738343020202020302E303030302048202020312020302020302020302020302020302020302020302020302020302020302020300A2020202D302E303132362020202D352E3233363220202020302E303030302048202020312020302020302020302020302020302020302020302020302020302020302020300A2020202D302E353431352020202D342E3139363220202020302E303030302048202020312020302020302020302020302020302020302020302020302020302020302020300A2020312020322020322020302020202020200A2020322020332020312020302020202020200A2020332020342020312020302020202020200A2020342020352020312020302020202020200A2020352020362020312020302020202020200A2020362020312020312020302020202020200A2020342020372020312020302020202020200A2020372020382020312020302020202020200A2020382020392020312020302020202020200A2020392031302020312020302020202020200A2031302020352020312020302020202020200A2020322031312020312020302020202020200A2031302031322020312020302020202020200A2020332031332020312020312020202020200A2020342031342020312020312020202020200A2031332031352020312020302020202020200A2031352031362020312020302020202020200A2031362031372020312020312020202020200A2031362031382020312020302020202020200A2031362031392020312020312020202020200A2020332032302020312020362020202020200A2020352032312020312020362020202020200A2031302032322020312020302020202020200A2031382032332020322020302020202020200A2032342031392020312020312020202020200A2032342032352020312020302020202020200A2032352032362020312020302020202020200A2032362032372020312020302020202020200A2032372032382020312020302020202020200A2032382032392020312020302020202020200A2032392032342020312020302020202020200A2032342033302020312020362020202020200A2032362033312020312020312020202020200A2032392033322020312020312020202020200A2032362033332020312020362020202020200A2020312033342020312020302020202020200A2032372033352020312020302020202020200A2033352033362020312020302020202020200A2033362033372020312020302020202020200A2033372032382020312020302020202020200A2032382033382020312020362020202020200A2032392033392020312020362020202020200A2032372034302020312020362020202020200A2033362034352020312020302020202020200A2033362034312020312020302020202020200A2034312034322020312020302020202020200A2034312034332020312020302020202020200A2034312034342020312020302020202020200A2034352034362020312020302020202020200A2034352034372020312020302020202020200A2034352034382020312020302020202020200A4D202049534F2020362020343220202032202034332020203220203434202020322020343620202032202034372020203220203438202020320A4D2020454E44
Contributor: EGUCHI S, FAC. OF SCIENCE, HIROSHIMA UNIV.
InstType: EI
InstName: HITACHI RMU-6L
IoniMethod: _ENERGY 70 eV
IonPolarity: pos
Date: 2010-10-09 19:48:36+02:00
Num Peaks: 193
40 15 41 740 42 100 43 23 44 50 45 40 46 65 47 5 48 34 49 55 
50 42 51 7 52 70 53 210 54 110 55 52 56 105 57 320 58 65 59 11 
60 65 61 65 62 35 63 6 64 40 65 389 66 65 67 21 68 60 69 410 
70 100 71 28 72 65 73 190 74 60 75 6 76 40 77 172 78 55 79 23 
80 185 81 347 82 120 83 4 84 195 85 115 86 35 87 8 88 107 89 35 
90 30 91 13 92 72 93 275 94 115 95 32 96 105 97 140 98 50 99 15 
100 65 101 40 102 35 103 2 104 28 105 165 106 70 107 14 108 105 109 387 
110 100 111 6 112 25 113 31 114 20 115 6 116 55 117 30 118 240 119 11 
120 65 121 32 122 55 123 11 124 55 125 30 126 65 127 4 128 210 129 90 
130 127 131 6 132 184 133 105 134 267 135 11 136 55 137 45 138 30 139 2 
140 10 141 61 142 35 143 5 144 78 145 125 146 60 147 11 148 130 149 115 
150 55 151 4 152 20 153 20 154 10 155 3 156 30 157 35 158 55 160 3 
161 120 162 80 163 135 164 5 165 60 166 40 167 20 168 4 169 28 170 30 
171 41 172 2 173 50 174 40 175 87 176 6 177 68 178 35 179 35 180 3 
181 35 182 15 183 30 184 3 185 35 186 45 187 60 188 4 189 160 190 105 
191 305 192 7 193 105 194 30 204 999 205 14 206 40 207 65 208 45 209 8 
210 25 215 45 216 35 217 4 218 35 219 58 220 58 221 5 255 35 256 25 
257 60 258 3 259 25 260 20 261 15 262 7 263 25 264 15 269 31 270 4 
271 55 272 65 273 20 289 1 290 3 331 5 340 3 396 1 430 3 449 2 
464 22 465 0 482 3 
