Name: MassBank: JP000558
MW: 194
Formula: C8H10N4O2
Synonym: MassBank: JP000558
Synonym: 1,3,7-TRIMETHYLXANTHINE
Synonym: CAFFEINE ANHYDRATE
Structure: 312C332C372D5452494D455448594C58414E5448494E452E6D6F6C0A20204368656D447261773131313130393138343432440A2031352031362020302020302020302020302020302020302020302020303939392056323030300A20202020302E383039312020202D302E3636373420202020302E30303030204E202020302020302020302020302020302020302020302020302020302020302020302020300A20202020312E323934302020202D302E3030303020202020302E303030302043202020302020302020302020302020302020302020302020302020302020302020302020300A20202020302E3830393120202020302E3636373420202020302E30303030204E202020302020302020302020302020302020302020302020302020302020302020302020300A20202020302E3032343420202020302E3431323520202020302E303030302043202020302020302020302020302020302020302020302020302020302020302020302020300A2020202D302E3639303020202020302E3832353020202020302E30303030204E202020302020302020302020302020302020302020302020302020302020302020302020300A2020202D312E3430343520202020302E3431323520202020302E303030302043202020302020302020302020302020302020302020302020302020302020302020302020300A2020202D322E3131393020202020302E3832353020202020302E30303030204F202020302020302020302020302020302020302020302020302020302020302020302020300A2020202D312E343034352020202D302E3431323520202020302E30303030204E202020302020302020302020302020302020302020302020302020302020302020302020300A2020202D302E363930302020202D302E3832353020202020302E303030302043202020302020302020302020302020302020302020302020302020302020302020302020300A2020202D302E363930302020202D312E3635303020202020302E30303030204F202020302020302020302020302020302020302020302020302020302020302020302020300A20202020302E303234342020202D302E3431323520202020302E303030302043202020302020302020302020302020302020302020302020302020302020302020302020300A20202020312E303634302020202D312E3435323120202020302E303030302043202020302020302020302020302020302020302020302020302020302020302020302020300A2020202D302E3639303020202020312E3635303020202020302E303030302043202020302020302020302020302020302020302020302020302020302020302020302020300A2020202D322E313139302020202D302E3832353020202020302E303030302043202020302020302020302020302020302020302020302020302020302020302020302020300A20202020322E313139302020202D302E3030303020202020302E303030302048202020302020302020302020302020302020302020302020302020302020302020302020300A2020312020322020312020302020202020200A2020322020332020322020302020202020200A2020332020342020312020302020202020200A2020342020352020312020302020202020200A2020352020362020312020302020202020200A2020362020372020322020302020202020200A2020362020382020312020302020202020200A2020382020392020312020302020202020200A2020392031302020322020302020202020200A2020392031312020312020302020202020200A2020312031312020312020302020202020200A2020342031312020322020302020202020200A2020312031322020312020302020202020200A2020352031332020312020302020202020200A2020382031342020312020302020202020200A2020322031352020312020302020202020200A4D2020454E44
Contributor: HASHIMOTO K, KYOTO COLLEGE OF PHARMACY
InstType: EI
InstName: HITACHI M-80
IoniMethod: _ENERGY 20 eV
IonPolarity: pos
Date: 2010-10-09 19:48:36+02:00
Num Peaks: 12
55 66 67 28 82 60 109 348 110 45 136 29 137 90 138 17 165 46 193 102 
194 999 195 102 
