Name: PSILOCYBIN
MW: 284
Formula: C12H17N2O4P
Synonym: MassBank: JP002803
Synonym: PSILOCYBIN
Structure: 303633365F5053494C4F435942494E2E6D6F6C0A20204368656D447261773038323031303037323032440A2031392032302020302020302020302020302020302020302020302020303939392056323030300A20202020302E353331312020202D302E3631383820202020302E303030302043202020302020302020302020302020302020302020302020302020302020302020302020300A20202020302E353331312020202D312E3434333820202020302E303030302043202020302020302020302020302020302020302020302020302020302020302020302020300A20202020312E323435352020202D312E3835363320202020302E303030302043202020302020302020302020302020302020302020302020302020302020302020302020300A20202020312E393630302020202D312E3434333820202020302E303030302043202020302020302020302020302020302020302020302020302020302020302020302020300A20202020312E393630302020202D302E3631383820202020302E303030302043202020302020302020302020302020302020302020302020302020302020302020302020300A20202020312E323435352020202D302E3230363220202020302E303030302043202020302020302020302020302020302020302020302020302020302020302020302020300A2020202D302E323533362020202D302E3336333820202020302E303030302043202020302020302020302020302020302020302020302020302020302020302020302020300A2020202D302E373338352020202D312E3033313320202020302E303030302043202020302020302020302020302020302020302020302020302020302020302020302020300A2020202D302E323533362020202D312E3639383720202020302E30303030204E202020302020302020302020302020302020302020302020302020302020302020302020300A2020202D302E3530383520202020302E3432303820202020302E303030302043202020302020302020302020302020302020302020302020302020302020302020302020300A2020202D312E3331353520202020302E3539323320202020302E303030302043202020302020302020302020302020302020302020302020302020302020302020302020300A2020202D312E383637352020202D302E3032303820202020302E30303030204E202020302020302020302020302020302020302020302020302020302020302020302020300A2020202D312E363132362020202D302E3830353420202020302E303030302043202020302020302020302020302020302020302020302020302020302020302020302020300A2020202D322E3637343520202020302E3135303820202020302E303030302043202020302020302020302020302020302020302020302020302020302020302020302020300A20202020312E3234353520202020302E3631383820202020302E30303030204F202020302020302020302020302020302020302020302020302020302020302020302020300A20202020312E3936303020202020312E3033313320202020302E303030302050202020302020302020302020302020302020302020302020302020302020302020302020300A20202020322E3637343520202020302E3631383820202020302E30303030204F202020302020302020302020302020302020302020302020302020302020302020302020300A20202020312E3936303020202020312E3835363320202020302E30303030204F202020302020302020302020302020302020302020302020302020302020302020302020300A20202020322E3637343520202020312E3434333820202020302E30303030204F202020302020302020302020302020302020302020302020302020302020302020302020300A2020312020322020322020302020202020200A2020322020332020312020302020202020200A2020332020342020322020302020202020200A2020342020352020312020302020202020200A2020352020362020322020302020202020200A2020362020312020312020302020202020200A2020312020372020312020302020202020200A2020372020382020322020302020202020200A2020382020392020312020302020202020200A2020392020322020312020302020202020200A2020372031302020312020302020202020200A2031302031312020312020302020202020200A2031312031322020312020302020202020200A2031322031332020312020302020202020200A2031322031342020312020302020202020200A2020362031352020312020302020202020200A2031352031362020312020302020202020200A2031362031372020312020302020202020200A2031362031382020312020302020202020200A2031362031392020322020302020202020200A4D2020454E44
Contributor: SASAKI S, TOYOHASHI UNIV. OF TECH.
InstType: EI
InstName: Unknown
IoniMethod: EI
IonPolarity: pos
Date: 2010-10-09 19:48:36+02:00
Num Peaks: 33
56 2 57 12 58 999 59 4 60 10 61 1 62 2 63 1 64 1 65 10 
76 2 77 0 78 12 79 1 80 2 130 1 131 6 132 4 133 1 140 0 
145 4 146 32 147 4 158 0 159 25 160 14 161 1 202 1 203 2 204 154 
205 23 206 0 284 1 
