Name: MassBank: JP003225
MW: 201
Formula: C7H7BrO2
Synonym: MassBank: JP003225
Synonym: 3-BROMO-4,6-DIMETHYL-2-PYRONE
Structure: 332D42524F4D4F2D342C362D44494D455448594C2D322D5059524F4E452E6D6F6C0A20204368656D447261773032323231303134323032440A2031302031302020302020302020302020302020302020302020302020303939392056323030300A2020202D302E3731343520202020302E3832353020202020302E303030302043202020302020302020302020302020302020302020302020302020302020302020302020300A2020202D302E373134352020202D302E3030303020202020302E303030302043202020302020302020302020302020302020302020302020302020302020302020302020300A20202020302E303030302020202D302E3431323520202020302E303030302043202020302020302020302020302020302020302020302020302020302020302020302020300A20202020302E373134352020202D302E3030303020202020302E303030302043202020302020302020302020302020302020302020302020302020302020302020302020300A20202020302E3731343520202020302E3832353020202020302E303030302043202020302020302020302020302020302020302020302020302020302020302020302020300A20202020302E3030303020202020312E3233373520202020302E30303030204F202020302020302020302020302020302020302020302020302020302020302020302020300A2020202D312E3432383920202020312E3233373520202020302E30303030204F202020302020302020302020302020302020302020302020302020302020302020302020300A20202020312E3432383920202020312E3233373520202020302E303030302043202020302020302020302020302020302020302020302020302020302020302020302020300A20202020302E303030302020202D312E3233373520202020302E303030302043202020302020302020302020302020302020302020302020302020302020302020302020300A2020202D312E343238392020202D302E3431323520202020302E303030302042722020302020302020302020302020302020302020302020302020302020302020302020300A2020312020322020312020302020202020200A2020322020332020322020302020202020200A2020332020342020312020302020202020200A2020342020352020322020302020202020200A2020352020362020312020302020202020200A2020312020362020312020302020202020200A2020312020372020322020302020202020200A2020352020382020312020302020202020200A2020332020392020312020302020202020200A2020322031302020312020302020202020200A4D2020454E44
Contributor: NAKATA H, DEPT. OF CHEMISTRY, AICHI KYOIKU UNIV.
InstType: EI
InstName: HITACHI RMU-6D
IoniMethod: _ENERGY 70 eV
IonPolarity: pos
Date: 2010-10-09 19:48:36+02:00
Num Peaks: 48
36 50 37 110 38 100 39 190 40 50 41 170 42 70 43 890 47 50 49 70 
50 210 51 500 52 190 53 90 64 60 65 150 66 90 67 950 68 60 76 60 
86 50 95 430 104 50 116 110 117 50 118 110 119 50 123 360 124 50 131 430 
132 60 133 380 159 90 160 60 161 80 162 60 173 60 174 999 175 150 176 970 
177 90 187 50 189 40 201 50 202 670 203 70 204 630 205 60 
