Name: DIHYDROJASMONE
MW: 166
Formula: C11H18O
Synonym: MassBank: JP001129
Synonym: DIHYDROJASMONE
Synonym: 3-METHYL-2-PENTYLCYCLOPENT-2-EN-1-ONE
Structure: 4449485944524F4A41534D4F4E452E6D6F6C0A20204368656D447261773033323031303030313932440A2031322031322020302020302020302020302020302020302020302020303939392056323030300A20202020312E3537383020202020302E3230393420202020302E303030302043202020302020302020302020302020302020302020302020302020302020302020302020300A20202020312E373439352020202D302E3539373620202020302E303030302043202020302020302020302020302020302020302020302020302020302020302020302020300A20202020312E303335302020202D312E3031303120202020302E303030302043202020302020302020302020302020302020302020302020302020302020302020302020300A20202020302E343231392020202D302E3435383120202020302E303030302043202020302020302020302020302020302020302020302020302020302020302020302020300A2020202D302E333835302020202D302E3632393620202020302E303030302043202020302020302020302020302020302020302020302020302020302020302020302020300A20202020302E3735373520202020302E3239353620202020302E303030302043202020302020302020302020302020302020302020302020302020302020302020302020300A20202020302E3334353020202020312E3031303120202020302E303030302043202020302020302020302020302020302020302020302020302020302020302020302020300A2020202D302E3438303020202020312E3031303120202020302E303030302043202020302020302020302020302020302020302020302020302020302020302020302020300A2020202D302E3839323520202020302E3239353620202020302E303030302043202020302020302020302020302020302020302020302020302020302020302020302020300A2020202D312E3731373520202020302E3239353620202020302E303030302043202020302020302020302020302020302020302020302020302020302020302020302020300A20202020322E3133303020202020302E3832323520202020302E30303030204F202020302020302020302020302020302020302020302020302020302020302020302020300A2020202D322E3133303020202020312E3031303120202020302E303030302043202020302020302020302020302020302020302020302020302020302020302020302020300A2020312020322020312020302020202020200A2020322020332020312020302020202020200A2020332020342020312020302020202020200A2020342020352020312020302020202020200A2020342020362020322020302020202020200A2020312020362020312020302020202020200A2020362020372020312020302020202020200A2020372020382020312020302020202020200A2020382020392020312020302020202020200A2020392031302020312020302020202020200A2020312031312020322020302020202020200A2031302031322020312020302020202020200A4D2020454E44
Contributor: NAKAYAMA M, MASS SPECTROSCOPY SOC. OF JAPAN (MSSJ)
InstType: EI
InstName: HITACHI RMS-4
IoniMethod: _ENERGY 80 eV
IonPolarity: pos
Date: 2010-10-09 19:48:36+02:00
Num Peaks: 66
26 50 27 450 28 160 29 350 30 20 31 10 32 40 38 30 39 380 40 100 
41 830 42 70 43 130 50 50 51 110 52 100 53 300 54 80 55 250 56 40 
57 50 63 40 64 20 65 120 66 80 67 490 68 100 69 70 77 140 78 40 
79 220 80 60 81 340 82 230 83 40 91 80 92 30 93 70 94 20 95 250 
96 90 97 30 98 20 99 30 105 40 107 40 108 20 109 230 110 999 111 170 
119 20 121 20 122 20 123 210 124 130 125 20 134 20 136 10 137 230 138 50 
151 380 152 60 165 20 166 100 167 60 168 10 
