Name: MassBank: JP000470
MW: 110
Formula: C6H10N2
Synonym: MassBank: JP000470
Synonym: 3,4,5-TRIMETHYLPYRAZOLE
Structure: 310A32310A332C342C352D5452494D455448594C505952415A4F4C452E6D6F6C0A20204368656D447261773032323131303231353132440A2020382020382020302020302020302020302020302020302020302020303939392056323030300A20202020302E3431323520202020312E3034373320202020302E30303030204E202020302020302020302020302020302020302020302020302020302020302020302020300A2020202D302E3431323520202020312E3034373320202020302E30303030204E202020302020302020302020302020302020302020302020302020302020302020302020300A2020202D302E3636373420202020302E3236323720202020302E303030302043202020302020302020302020302020302020302020302020302020302020302020302020300A2020202D302E303030302020202D302E3232323320202020302E303030302043202020302020302020302020302020302020302020302020302020302020302020302020300A20202020302E3636373420202020302E3236323720202020302E303030302043202020302020302020302020302020302020302020302020302020302020302020302020300A20202020312E3435323120202020302E3030373720202020302E303030302043202020302020302020302020302020302020302020302020302020302020302020302020300A2020202D302E303030302020202D312E3034373320202020302E303030302043202020302020302020302020302020302020302020302020302020302020302020302020300A2020202D312E3435323120202020302E3030373720202020302E303030302043202020302020302020302020302020302020302020302020302020302020302020302020300A2020312020322020312020302020202020200A2020322020332020322020302020202020200A2020332020342020312020302020202020200A2020342020352020322020302020202020200A2020312020352020312020302020202020200A2020352020362020312020302020202020200A2020342020372020312020302020202020200A2020332020382020312020302020202020200A4D2020454E44
Contributor: SASAKI S, TOYOHASHI UNIV. OF TECH.
InstType: EI
InstName: MX-1303
IoniMethod: _ENERGY 50 eV
IonPolarity: pos
Date: 2010-10-09 19:48:36+02:00
Num Peaks: 45
26 20 27 83 28 64 29 2 30 31 38 16 39 119 40 5 41 176 42 251 
43 59 45 1 50 15 51 37 52 58 53 6 54 176 55 58 56 24 57 3 
60 11 65 34 66 35 67 4 68 254 69 93 70 15 71 2 77 20 78 10 
79 26 80 2 81 49 82 29 83 19 94 1 95 539 96 228 97 23 98 1 
108 24 109 999 110 866 111 7 112 5 
