Name: 3-METHYLPYRIDINE
CAS: 108-99-6
MW: 93
Formula: C6H7N
Synonym: MassBank: JP009033
Synonym: 3-METHYLPYRIDINE
Synonym: 3-PICOLINE
Structure: 310A31390A332D4D455448594C5059524944494E452E6D6F6C0A20204368656D447261773033323031303137323832440A2020372020372020302020302020302020302020302020302020302020303939392056323030300A2020202D302E3030303020202020302E3731343520202020302E303030302043202020302020302020302020302020302020302020302020302020302020302020302020300A2020202D302E343132352020202D302E3030303020202020302E303030302043202020302020302020302020302020302020302020302020302020302020302020302020300A2020202D302E303030302020202D302E3731343520202020302E303030302043202020302020302020302020302020302020302020302020302020302020302020302020300A20202020302E383235302020202D302E3731343520202020302E303030302043202020302020302020302020302020302020302020302020302020302020302020302020300A20202020312E3233373520202020302E3030303020202020302E303030302043202020302020302020302020302020302020302020302020302020302020302020302020300A20202020302E3832353020202020302E3731343520202020302E30303030204E202020302020302020302020302020302020302020302020302020302020302020302020300A2020202D312E323337352020202D302E3030303020202020302E303030302043202020302020302020302020302020302020302020302020302020302020302020302020300A2020312020322020312020302020202020200A2020322020332020322020302020202020200A2020332020342020312020302020202020200A2020342020352020322020302020202020200A2020352020362020312020302020202020200A2020312020362020322020302020202020200A2020322020372020312020302020202020200A4D2020454E44
Contributor: SODA AROMATIC CO., LTD.
InstType: EI
InstName: HITACHI M-80B
IoniMethod: _ENERGY 70 eV
IonPolarity: pos
Date: 2010-10-09 19:48:36+02:00
Num Peaks: 26
26 29 27 36 28 47 37 42 38 108 39 351 40 127 41 30 49 10 50 48 
51 63 52 34 53 25 54 19 61 27 62 47 63 108 64 44 65 248 66 386 
67 119 78 35 91 10 92 285 93 999 94 72 
