Name: ISOBUTYLAMINE
MW: 73
Formula: C4H11N
Synonym: MassBank: JP005408
Synonym: ISOBUTYLAMINE
Synonym: 2-METHYLPROPYLAMINE
Structure: 310A31340A49534F425554594C414D494E452E6D6F6C0A20204368656D447261773032323131303035353932440A2020352020342020302020302020302020302020302020302020302020303939392056323030300A2020202D312E303731372020202D302E3230363220202020302E30303030204E202020302020302020302020302020302020302020302020302020302020302020302020300A2020202D302E333537322020202D302E3631383820202020302E303030302043202020302020302020302020302020302020302020302020302020302020302020302020300A20202020302E333537322020202D302E3230363220202020302E303030302043202020302020302020302020302020302020302020302020302020302020302020302020300A20202020302E3335373220202020302E3631383820202020302E303030302043202020302020302020302020302020302020302020302020302020302020302020302020300A20202020312E303731372020202D302E3631383720202020302E303030302043202020302020302020302020302020302020302020302020302020302020302020302020300A2020322020332020312020302020202020200A2020332020342020312020302020202020200A2020332020352020312020302020202020200A2020312020322020312020302020202020200A4D2020454E44
Contributor: TAJIMA S, GUNMA COLLEGE OF TECHNOLOGY
InstType: EI
InstName: HITACHI RMU-7M
IoniMethod: _ENERGY 70 eV
IonPolarity: pos
Date: 2010-10-09 19:48:36+02:00
Num Peaks: 15
27 20 28 26 29 20 30 999 31 22 39 20 41 52 43 13 44 33 55 27 
56 18 58 17 72 11 73 85 74 24 
