Name: MassBank: JP005535
MW: 290
Formula: C20H18O2
Synonym: MassBank: JP005535
Synonym: 1,3-DIMETHYL-4,6-DIPHENYL-2-OXABICYCLO(4.1.0)HEPT-3-EN-5-ONE
Structure: 312C332D44494D455448594C2D342C362D44495048454E594C2D322D4F584142494359434C4F28342E312E3029484550542D332D454E2D352D4F4E452E6D6F6C0A20204368656D447261773131313230393131343832440A2032322032352020302020302020302020302020302020302020302020303939392056323030300A2020202D302E3936313220202020312E3132373020202020302E303030302043202020302020302020302020302020302020302020302020302020302020302020302020300A2020202D302E3234363720202020312E3533393520202020302E30303030204F202020302020302020302020302020302020302020302020302020302020302020302020300A20202020302E3436373820202020312E3132373020202020302E303030302043202020302020302020302020302020302020302020302020302020302020302020302020300A20202020302E3436373820202020302E3330323020202020302E303030302043202020302020302020302020302020302020302020302020302020302020302020302020300A2020202D302E323436372020202D302E3131303520202020302E303030302043202020302020302020302020302020302020302020302020302020302020302020302020300A2020202D302E3936313220202020302E3330323020202020302E303030302043202020302020302020302020302020302020302020302020302020302020302020302020300A2020202D312E3637353620202020302E3731343520202020302E303030302043202020302020302020302020302020302020302020302020302020302020302020302020300A2020202D302E323436372020202D302E3933353520202020302E30303030204F202020302020302020302020302020302020302020302020302020302020302020302020300A2020202D312E333733372020202D302E3431323520202020302E303030302043202020302020302020302020302020302020302020302020302020302020302020302020300A2020202D302E393631322020202D312E3132373020202020302E303030302043202020302020302020302020302020302020302020302020302020302020302020302020300A2020202D312E333733372020202D312E3834313420202020302E303030302043202020302020302020302020302020302020302020302020302020302020302020302020300A2020202D322E313938372020202D312E3834313420202020302E303030302043202020302020302020302020302020302020302020302020302020302020302020302020300A2020202D322E363131322020202D312E3132373020202020302E303030302043202020302020302020302020302020302020302020302020302020302020302020302020300A2020202D322E313938372020202D302E3431323520202020302E303030302043202020302020302020302020302020302020302020302020302020302020302020302020300A20202020312E313832322020202D302E3131303520202020302E303030302043202020302020302020302020302020302020302020302020302020302020302020302020300A20202020312E3839363720202020302E3330323020202020302E303030302043202020302020302020302020302020302020302020302020302020302020302020302020300A20202020322E363131322020202D302E3131303520202020302E303030302043202020302020302020302020302020302020302020302020302020302020302020302020300A20202020322E363131322020202D302E3933353520202020302E303030302043202020302020302020302020302020302020302020302020302020302020302020302020300A20202020312E383936372020202D312E3334383020202020302E303030302043202020302020302020302020302020302020302020302020302020302020302020302020300A20202020312E313832322020202D302E3933353520202020302E303030302043202020302020302020302020302020302020302020302020302020302020302020302020300A20202020312E3138323220202020312E3533393520202020302E303030302043202020302020302020302020302020302020302020302020302020302020302020302020300A2020202D312E3337333720202020312E3834313420202020302E303030302043202020302020302020302020302020302020302020302020302020302020302020302020300A2020312020322020312020302020202020200A2020322020332020312020302020202020200A2020332020342020322020302020202020200A2020342020352020312020302020202020200A2020352020362020312020302020202020200A2020362020372020312020302020202020200A2020312020372020312020302020202020200A2020312020362020312020302020202020200A2020352020382020322020302020202020200A2020392031302020312020302020202020200A2031302031312020322020302020202020200A2031312031322020312020302020202020200A2031322031332020322020302020202020200A2031332031342020312020302020202020200A2020392031342020322020302020202020200A2020362020392020312020302020202020200A2031352031362020312020302020202020200A2031362031372020322020302020202020200A2031372031382020312020302020202020200A2031382031392020322020302020202020200A2031392032302020312020302020202020200A2031352032302020322020302020202020200A2020342031352020312020302020202020200A2020332032312020312020302020202020200A2020312032322020312020302020202020200A4D2020454E44
Contributor: MASS SPECTROSCOPY SOC. OF JAPAN (MSSJ)
InstType: EI
InstName: HITACHI RMS-4
IoniMethod: _ENERGY 70 eV
IonPolarity: pos
Date: 2010-10-09 19:48:36+02:00
Num Peaks: 94
27 85 28 90 29 30 31 20 32 30 39 70 40 20 41 50 42 25 43 999 
44 40 45 20 50 30 51 80 52 30 53 30 55 370 56 30 57 30 62 20 
63 55 64 25 65 55 74 20 75 20 76 25 77 210 78 60 88 20 89 70 
90 50 91 105 92 20 101 20 102 50 103 955 104 85 105 105 114 20 115 240 
116 90 117 45 118 45 127 35 128 55 129 65 130 45 131 175 132 35 133 115 
134 40 141 25 142 25 145 30 146 20 147 50 148 20 149 30 158 20 160 20 
161 660 162 55 170 30 174 85 175 50 178 25 179 20 185 20 187 20 188 20 
189 20 191 20 202 30 203 35 204 45 205 30 215 20 218 20 219 45 220 20 
230 20 232 20 233 30 247 100 248 105 249 30 261 30 262 45 263 20 275 60 
276 25 290 250 291 70 292 20 
