Name: N-PROPYLHYDRAZONE ACETONE
MW: 114
Formula: C6H14N2
Synonym: MassBank: JP000821
Synonym: N-PROPYLHYDRAZONE ACETONE
Synonym: ACETONE PROPYLHYDRAZONE
Structure: 310A32300A4E2D50524F50594C48594452415A4F4E4520414345544F4E452E6D6F6C0A20204368656D447261773036323431303138313632440A2020382020372020302020302020302020302020302020302020302020303939392056323030300A20202020312E383536332020202D302E3030303020202020302E303030302043202020302020302020302020302020302020302020302020302020302020302020302020300A20202020312E303331332020202D302E3030303020202020302E303030302043202020302020302020302020302020302020302020302020302020302020302020302020300A20202020302E3631383720202020302E3731343520202020302E303030302043202020302020302020302020302020302020302020302020302020302020302020302020300A20202020302E363138372020202D302E3731343520202020302E30303030204E202020302020302020302020302020302020302020302020302020302020302020302020300A2020202D302E323036322020202D302E3731343520202020302E30303030204E202020302020302020302020302020302020302020302020302020302020302020302020300A2020202D302E3631383820202020302E3030303020202020302E303030302043202020302020302020302020302020302020302020302020302020302020302020302020300A2020202D312E3434333720202020302E3030303020202020302E303030302043202020302020302020302020302020302020302020302020302020302020302020302020300A2020202D312E3835363320202020302E3731343520202020302E303030302043202020302020302020302020302020302020302020302020302020302020302020302020300A2020312020322020312020302020202020200A2020322020332020312020302020202020200A2020342020352020312020302020202020200A2020362020372020312020302020202020200A2020372020382020312020302020202020200A2020352020362020312020302020202020200A2020322020342020322020302020202020200A4D2020454E44
Contributor: SASAKI S, TOYOHASHI UNIV. OF TECH.
InstType: EI
InstName: SHIMADZU LKB-2091
IoniMethod: _ENERGY 70 eV
IonPolarity: pos
Date: 2010-10-09 19:48:36+02:00
Num Peaks: 26
27 99 28 155 29 80 30 13 31 17 32 11 39 71 40 3 41 127 42 120 
43 56 44 2 54 30 55 21 56 999 57 7 58 39 71 21 72 56 83 1 
85 915 86 56 99 15 113 1 114 268 115 34 
