Name: 4-HYDROXYISONICOTINIC ACID
MW: 139
Formula: C6H5NO3
Synonym: MassBank: JP009547
Synonym: 4-HYDROXYISONICOTINIC ACID
Structure: 342D485944524F585949534F4E49434F54494E494320414349442E6D6F6C0A20204368656D447261773034323031303130353332440A2031302031302020302020302020302020302020302020302020302020303939392056323030300A2020202D312E3432383920202020302E3832353020202020302E303030302043202020302020302020302020302020302020302020302020302020302020302020302020300A2020202D312E3432383920202020302E3030303020202020302E303030302043202020302020302020302020302020302020302020302020302020302020302020302020300A2020202D302E373134352020202D302E3431323520202020302E303030302043202020302020302020302020302020302020302020302020302020302020302020302020300A20202020302E3030303020202020302E3030303020202020302E303030302043202020302020302020302020302020302020302020302020302020302020302020302020300A20202020302E3030303020202020302E3832353020202020302E303030302043202020302020302020302020302020302020302020302020302020302020302020302020300A2020202D302E3731343520202020312E3233373520202020302E30303030204E202020302020302020302020302020302020302020302020302020302020302020302020300A2020202D302E373134352020202D312E3233373520202020302E30303030204F202020302020302020302020302020302020302020302020302020302020302020302020300A20202020302E373134352020202D302E3431323520202020302E303030302043202020302020302020302020302020302020302020302020302020302020302020302020300A20202020302E373134352020202D312E3233373520202020302E30303030204F202020302020302020302020302020302020302020302020302020302020302020302020300A20202020312E3432383920202020302E3030303020202020302E30303030204F202020302020302020302020302020302020302020302020302020302020302020302020300A2020312020322020322020302020202020200A2020322020332020312020302020202020200A2020332020342020322020302020202020200A2020342020352020312020302020202020200A2020352020362020322020302020202020200A2020362020312020312020302020202020200A2020332020372020312020302020202020200A2020342020382020312020302020202020200A2020382020392020322020302020202020200A2020382031302020312020302020202020200A4D2020454E44
Contributor: NARA WOMEN'S UNIVERSITY
InstType: EI
InstName: HITACHI M-80
IoniMethod: _ENERGY 70 eV
IonPolarity: pos
Date: 2010-10-09 19:48:36+02:00
Num Peaks: 38
18 17 26 22 27 31 28 222 29 29 36 12 37 79 38 154 39 328 40 108 
41 78 42 15 44 27 45 95 49 22 50 55 51 40 52 29 53 52 54 15 
55 29 61 11 63 15 64 37 65 96 66 180 67 242 68 30 76 11 77 31 
93 252 94 267 95 999 96 58 121 39 122 78 139 250 140 35 
