Name: FURFURYL ACETATE
MW: 140
Formula: C7H8O3
Synonym: MassBank: JP008054
Synonym: FURFURYL ACETATE
Structure: 465552465552594C20414345544154452E6D6F6C0A20204368656D447261773031303331303133353732440A2031302031302020302020302020302020302020302020302020302020303939392056323030300A20202020312E3336373320202020302E3238393820202020302E303030302043202020302020302020302020302020302020302020302020302020302020302020302020300A20202020322E303831382020202D302E3132323720202020302E303030302043202020302020302020302020302020302020302020302020302020302020302020302020300A20202020312E3336373320202020312E3131343820202020302E30303030204F202020302020302020302020302020302020302020302020302020302020302020302020300A20202020302E363532392020202D302E3132323720202020302E30303030204F202020302020302020302020302020302020302020302020302020302020302020302020300A2020202D302E3036313620202020302E3238393820202020302E303030302043202020302020302020302020302020302020302020302020302020302020302020302020300A2020202D302E373736312020202D302E3132323720202020302E303030302043202020302020302020302020302020302020302020302020302020302020302020302020300A2020202D302E383632332020202D302E3934333220202020302E303030302043202020302020302020302020302020302020302020302020302020302020302020302020300A2020202D312E363639332020202D312E3131343820202020302E303030302043202020302020302020302020302020302020302020302020302020302020302020302020300A2020202D322E303831382020202D302E3430303320202020302E303030302043202020302020302020302020302020302020302020302020302020302020302020302020300A2020202D312E3532393820202020302E3231323820202020302E30303030204F202020302020302020302020302020302020302020302020302020302020302020302020300A2020312020322020312020302020202020200A2020312020332020322020302020202020200A2020312020342020312020302020202020200A2020352020362020312020302020202020200A2020362020372020322020302020202020200A2020372020382020312020302020202020200A2020382020392020322020302020202020200A2020392031302020312020302020202020200A2020362031302020312020302020202020200A2020342020352020312020302020202020200A4D2020454E44
Contributor: YAMAMOTO M, DEP. CHEMISTRY, FAC. SCIENCE, NARA WOMEN'S UNIV.
InstType: EI
InstName: HITACHI RMU-6M
IoniMethod: _ENERGY 20 eV
IonPolarity: pos
Date: 2010-10-09 19:48:36+02:00
Num Peaks: 25
27 63 39 23 41 55 42 36 43 421 44 17 51 15 52 432 53 271 54 15 
55 19 61 21 69 51 70 42 79 13 80 241 81 999 82 61 95 11 97 121 
98 761 99 46 104 28 140 549 141 47 
