Name: DIMETHYL TRISULFIDE
MW: 125
Formula: C2H6S3
Synonym: MassBank: JP000914
Synonym: DIMETHYL TRISULFIDE
Structure: 310A31340A44494D455448594C2054524953554C464944452E6D6F6C0A20204368656D447261773130313831303136333332440A2020352020342020302020302020302020302020302020302020302020303939392056323030300A20202020302E3030303020202020302E3335373220202020302E303030302053202020302020302020302020302020302020302020302020302020302020302020302020300A20202020302E343132352020202D302E3335373220202020302E303030302053202020302020302020302020302020302020302020302020302020302020302020302020300A2020202D302E3832353020202020302E3335373220202020302E303030302053202020302020302020302020302020302020302020302020302020302020302020302020300A20202020312E323337352020202D302E3335373220202020302E303030302043202020302020302020302020302020302020302020302020302020302020302020302020300A2020202D312E323337352020202D302E3335373220202020302E303030302043202020302020302020302020302020302020302020302020302020302020302020302020300A2020312020322020312020302020202020200A2020312020332020312020302020202020200A2020322020342020312020302020202020200A2020332020352020312020302020202020200A4D2020454E44
Contributor: KAMEOKA H, DEPT. OF APPLIED CHEMISTRY, FAC. OF SCI. AND ENGINEERING, KINKI UNIV.
InstType: EI
InstName: SHIMADZU LKB-9000B
IoniMethod: _ENERGY 70 eV
IonPolarity: pos
Date: 2010-10-09 19:48:36+02:00
Num Peaks: 17
45 149 46 46 47 194 48 1 61 110 62 8 64 76 78 10 79 391 80 165 
81 42 82 1 111 148 113 19 126 999 127 5 128 133 
