Name: DIETHYL BUTYLMALONATE
CAS: 133-08-4
MW: 216
Formula: C11H20O4
Synonym: MassBank: JP009008
Synonym: DIETHYL BUTYLMALONATE
Structure: 4449455448594C20425554594C4D414C4F4E4154452E6D6F6C0A20204368656D447261773039323131303139353932440A2031352031342020302020302020302020302020302020302020302020303939392056323030300A20202020302E343132352020202D302E3731343520202020302E303030302043202020302020302020302020302020302020302020302020302020302020302020302020300A2020202D302E3030303020202020302E3030303020202020302E303030302043202020302020302020302020302020302020302020302020302020302020302020302020300A2020202D302E3832353020202020302E3030303020202020302E303030302043202020302020302020302020302020302020302020302020302020302020302020302020300A2020202D302E303030302020202D312E3432383920202020302E30303030204F202020302020302020302020302020302020302020302020302020302020302020302020300A20202020312E323337352020202D302E3731343520202020302E30303030204F202020302020302020302020302020302020302020302020302020302020302020302020300A2020202D312E3233373520202020302E3731343520202020302E30303030204F202020302020302020302020302020302020302020302020302020302020302020302020300A2020202D312E323337352020202D302E3731343520202020302E30303030204F202020302020302020302020302020302020302020302020302020302020302020302020300A20202020302E3431323520202020302E3731343520202020302E303030302043202020302020302020302020302020302020302020302020302020302020302020302020300A20202020312E3233373520202020302E3731343520202020302E303030302043202020302020302020302020302020302020302020302020302020302020302020302020300A20202020312E3635303020202020312E3432383920202020302E303030302043202020302020302020302020302020302020302020302020302020302020302020302020300A20202020322E3437353020202020312E3432383920202020302E303030302043202020302020302020302020302020302020302020302020302020302020302020302020300A20202020312E363530302020202D312E3432383920202020302E303030302043202020302020302020302020302020302020302020302020302020302020302020302020300A20202020322E343735302020202D312E3432383920202020302E303030302043202020302020302020302020302020302020302020302020302020302020302020302020300A2020202D322E303632352020202D302E3731343520202020302E303030302043202020302020302020302020302020302020302020302020302020302020302020302020300A2020202D322E343735302020202D312E3432383920202020302E303030302043202020302020302020302020302020302020302020302020302020302020302020302020300A2020312020322020312020302020202020200A2020322020332020312020302020202020200A2020312020342020322020302020202020200A2020312020352020312020302020202020200A2020332020362020322020302020202020200A2020332020372020312020302020202020200A2020382020392020312020302020202020200A2020392031302020312020302020202020200A2031302031312020312020302020202020200A2020322020382020312020302020202020200A2031322031332020312020302020202020200A2020352031322020312020302020202020200A2031342031352020312020302020202020200A2020372031342020312020302020202020200A4D2020454E44
Contributor: SODA AROMATIC CO., LTD.
InstType: EI
InstName: HITACHI M-80B
IoniMethod: _ENERGY 70 eV
IonPolarity: pos
Date: 2010-10-09 19:48:36+02:00
Num Peaks: 68
15 16 26 23 27 340 28 53 29 829 30 19 31 28 39 78 40 16 41 258 
42 84 43 144 44 12 45 121 53 26 54 14 55 429 56 39 57 62 58 23 
59 16 60 22 67 19 68 37 69 260 70 50 71 22 73 412 74 18 80 10 
81 19 83 18 85 24 86 142 87 67 88 155 89 10 95 17 96 34 97 173 
98 32 99 53 101 250 102 21 104 53 105 34 113 26 114 155 115 188 116 12 
123 13 124 33 127 38 128 15 129 23 132 108 133 246 134 16 142 33 143 44 
144 22 160 999 161 63 162 12 171 368 172 29 173 96 174 13 
