Name: PENTYL PHENYL KETONE
CAS: 942-92-7
MW: 176
Formula: C12H16O
Synonym: MassBank: JP007150
Synonym: PENTYL PHENYL KETONE
Synonym: HEXANOPHENONE
Structure: 303930365F484558414E4F205048454E4F4E452E6D6F6C0A20204368656D447261773038323031303133313932440A2031332031332020302020302020302020302020302020302020302020303939392056323030300A2020202D302E303634392020202D302E3434393920202020302E303030302043202020302020302020302020302020302020302020302020302020302020302020302020300A20202020302E363439362020202D302E3033373420202020302E303030302043202020302020302020302020302020302020302020302020302020302020302020302020300A20202020312E333634302020202D302E3434393920202020302E303030302043202020302020302020302020302020302020302020302020302020302020302020302020300A20202020312E333634302020202D312E3237343920202020302E303030302043202020302020302020302020302020302020302020302020302020302020302020302020300A20202020302E363439362020202D312E3638373420202020302E303030302043202020302020302020302020302020302020302020302020302020302020302020302020300A2020202D302E303634392020202D312E3237343920202020302E303030302043202020302020302020302020302020302020302020302020302020302020302020302020300A2020202D302E383631382020202D302E3233363420202020302E303030302043202020302020302020302020302020302020302020302020302020302020302020302020300A2020202D312E3237343320202020302E3437383120202020302E303030302043202020302020302020302020302020302020302020302020302020302020302020302020300A2020202D312E3036303820202020312E3237343920202020302E303030302043202020302020302020302020302020302020302020302020302020302020302020302020300A2020202D302E3334363320202020312E3638373420202020302E303030302043202020302020302020302020302020302020302020302020302020302020302020302020300A20202020302E3435303620202020312E3437333920202020302E303030302043202020302020302020302020302020302020302020302020302020302020302020302020300A20202020302E3836333120202020302E3735393420202020302E303030302043202020302020302020302020302020302020302020302020302020302020302020302020300A2020202D312E333634302020202D302E3839303920202020302E30303030204F202020302020302020302020302020302020302020302020302020302020302020302020300A2020312020322020312020302020202020200A2020322020332020322020302020202020200A2020332020342020312020302020202020200A2020342020352020322020302020202020200A2020352020362020312020302020202020200A2020312020362020322020302020202020200A2020372020382020312020302020202020200A2020382020392020312020302020202020200A2020392031302020312020302020202020200A2031302031312020312020302020202020200A2031312031322020312020302020202020200A2020312020372020312020302020202020200A2020372031332020322020302020202020200A4D2020454E44
Contributor: SODA AROMATIC CO., LTD.
InstType: EI
InstName: HITACHI M-80B
IoniMethod: _ENERGY 70 eV
IonPolarity: pos
Date: 2010-10-09 19:48:36+02:00
Num Peaks: 20
27 76 29 53 39 39 41 41 42 11 43 30 50 31 51 146 52 11 55 29 
76 18 77 505 78 75 91 18 105 999 106 77 120 542 121 41 133 40 176 52 
