Name: N-ACETYL-GLYCYL-VALYL-ALANINE METHYLESTER
MW: 301
Formula: C13H23N3O5
Synonym: MassBank: JP000119
Synonym: N-ACETYL-GLYCYL-VALYL-ALANINE METHYLESTER
Structure: 303036315F4E2D41434554594C2D474C5943594C2D56414C594C2D414C414E494E45204D455448594C45535445522E6D6F6C0A20204368656D447261773039303331303137323032440A2032332032322020302020302020302020302020302020302020302020303939392056323030300A2020202D312E3233373520202020312E3738363220202020302E303030302043202020302020302020302020302020302020302020302020302020302020302020302020300A2020202D312E3233373520202020302E3335373220202020302E30303030204E202020302020302020302020302020302020302020302020302020302020302020302020300A2020202D302E3832353020202020312E3037313720202020302E303030302043202020302020302020302020302020302020302020302020302020302020302020302020300A20202020302E3030303020202020312E3037313720202020302E303030302043202020302020302020302020302020302020302020302020302020302020302020302020300A2020202D302E3832353020202020322E3530303620202020302E30303030204F202020302020302020302020302020302020302020302020302020302020302020302020300A2020202D322E3036323520202020312E3738363220202020302E30303030204F202020302020302020302020302020302020302020302020302020302020302020302020300A2020202D302E383235302020202D302E3335373220202020302E303030302043202020302020302020302020302020302020302020302020302020302020302020302020300A2020202D302E383235302020202D312E3738363220202020302E30303030204E202020302020302020302020302020302020302020302020302020302020302020302020300A2020202D312E323337352020202D312E3037313720202020302E303030302043202020302020302020302020302020302020302020302020302020302020302020302020300A2020202D322E303632352020202D312E3037313720202020302E303030302043202020302020302020302020302020302020302020302020302020302020302020302020300A2020202D322E343735302020202D312E3738363220202020302E303030302043202020302020302020302020302020302020302020302020302020302020302020302020300A2020202D322E343735302020202D302E3335373220202020302E303030302043202020302020302020302020302020302020302020302020302020302020302020302020300A20202020302E303030302020202D302E3335373220202020302E30303030204F202020302020302020302020302020302020302020302020302020302020302020302020300A20202020302E303030302020202D312E3738363220202020302E303030302043202020302020302020302020302020302020302020302020302020302020302020302020300A20202020312E323337352020202D312E3037313720202020302E30303030204E202020302020302020302020302020302020302020302020302020302020302020302020300A20202020302E343132352020202D312E3037313720202020302E303030302043202020302020302020302020302020302020302020302020302020302020302020302020300A20202020302E343132352020202D322E3530303620202020302E30303030204F202020302020302020302020302020302020302020302020302020302020302020302020300A20202020312E363530302020202D312E3738363220202020302E303030302043202020302020302020302020302020302020302020302020302020302020302020302020300A20202020322E343735302020202D312E3738363220202020302E30303030204F202020302020302020302020302020302020302020302020302020302020302020302020300A20202020312E323337352020202D322E3530303620202020302E303030302043202020302020302020302020302020302020302020302020302020302020302020302020300A2020202D322E3437353020202020312E3037313720202020302E303030302043202020302020302020302020302020302020302020302020302020302020302020302020300A2020202D312E363636332020202D302E3336363920202020302E303030302048202020302020302020302020302020302020302020302020302020302020302020302020300A2020202D312E3635303020202020312E3037313720202020302E303030302048202020302020302020302020302020302020302020302020302020302020302020302020300A2020322020332020312020302020202020200A2020312020332020312020302020202020200A2020332020342020312020312020202020200A2020312020352020322020302020202020200A2020312020362020312020302020202020200A2020392020382020312020312020202020200A2020372020392020312020302020202020200A2020392031302020312020302020202020200A2031302031312020312020302020202020200A2031302031322020312020302020202020200A2020372031332020322020302020202020200A2031352031362020312020302020202020200A2031342031362020312020302020202020200A2031342031372020322020302020202020200A2020382031342020312020302020202020200A2020322020372020312020302020202020200A2031382031392020322020302020202020200A2031382032302020312020302020202020200A2031352031382020312020302020202020200A2020362032312020312020302020202020200A2020392032322020312020312020202020200A2020332032332020312020312020202020200A4D2020454E44
Contributor: YAMAMOTO M, DEP. CHEMISTRY, FAC. SCIENCE, NARA WOMEN'S UNIV.
InstType: EI
InstName: HITACHI RMU-6M
IoniMethod: _ENERGY 70 eV
IonPolarity: pos
Date: 2010-10-09 19:48:36+02:00
Num Peaks: 33
27 16 28 31 29 16 30 19 31 13 41 24 42 21 43 9 44 119 45 12 
55 69 56 3 57 17 58 13 59 13 69 2 70 26 71 21 72 999 73 7 
83 14 85 14 98 14 99 2 100 72 102 13 104 23 113 1 159 11 169 26 
171 93 172 5 200 33 
