Name: MassBank: JP005406
MW: 207
Formula: C5H2F6O2
Synonym: MassBank: JP005406
Synonym: 1,1,1,5,5,5-HEXAFLUOROACETYLACETONE
Synonym: 1,1,1,5,5,5-HEXAFLUORO-2,4-PENTADIONE
Structure: 312C312C312C352C352C352D48455841464C554F524F41434554594C414345544F4E452E6D6F6C0A20204368656D447261773130323230393232353032440A2031332031322020302020302020302020302020302020302020302020303939392056323030300A20202020312E343238392020202D302E3236313520202020302E303030302043202020302020302020302020302020302020302020302020302020302020302020302020300A20202020302E3731343520202020302E3135313020202020302E303030302043202020302020302020302020302020302020302020302020302020302020302020302020300A20202020302E3731343520202020302E3937363020202020302E30303030204F202020302020302020302020302020302020302020302020302020302020302020302020300A2020202D302E303030302020202D302E3236313520202020302E303030302043202020302020302020302020302020302020302020302020302020302020302020302020300A2020202D302E3731343520202020302E3135313020202020302E303030302043202020302020302020302020302020302020302020302020302020302020302020302020300A2020202D302E3731343520202020302E3937363020202020302E30303030204F202020302020302020302020302020302020302020302020302020302020302020302020300A2020202D312E343238392020202D302E3236313520202020302E303030302043202020302020302020302020302020302020302020302020302020302020302020302020300A2020202D312E303136342020202D302E3937363020202020302E303030302046202020302020302020302020302020302020302020302020302020302020302020302020300A2020202D322E313433342020202D302E3637343020202020302E303030302046202020302020302020302020302020302020302020302020302020302020302020302020300A2020202D312E3834313420202020302E3435333020202020302E303030302046202020302020302020302020302020302020302020302020302020302020302020302020300A20202020312E3834313420202020302E3435333020202020302E303030302046202020302020302020302020302020302020302020302020302020302020302020302020300A20202020322E313433342020202D302E3637343020202020302E303030302046202020302020302020302020302020302020302020302020302020302020302020302020300A20202020312E303136342020202D302E3937363020202020302E303030302046202020302020302020302020302020302020302020302020302020302020302020302020300A2020312020322020312020302020202020200A2020322020332020322020302020202020200A2020322020342020312020302020202020200A2020342020352020312020302020202020200A2020352020362020322020302020202020200A2020352020372020312020302020202020200A2020372020382020312020312020202020200A2020372020392020312020302020202020200A2020372031302020312020312020202020200A2020312031312020312020312020202020200A2020312031322020312020302020202020200A2020312031332020312020312020202020200A4D2020454E44
Contributor: TAJIMA S, GUNMA COLLEGE OF TECHNOLOGY
InstType: EI
InstName: HITACHI RMU-7M
IoniMethod: _ENERGY 70 eV
IonPolarity: pos
Date: 2010-10-09 19:48:36+02:00
Num Peaks: 23
19 10 29 18 31 25 33 12 41 37 42 42 50 17 51 11 53 11 63 18 
69 999 70 29 75 18 83 17 89 35 91 47 97 19 119 59 120 17 137 17 
139 508 140 23 208 24 
