Name: MassBank: JP009863
MW: 206
Formula: C13H18O2
Synonym: MassBank: JP009863
Synonym: 2,6-DIMETHYL-2-(2-HYDROXYETHYL)-3,4-DIHYDRO-2H-1-BENZOPYRAN
Synonym: 2,6-DIMETHYL-2-(2-HYDROXYETHYL)CHROMAN
Structure: 322C362D44494D455448594C2D322D28322D485944524F5859455448594C292D332C342D4449485944524F2D32482D312D42454E5A4F505952414E2E6D6F6C0A20204368656D447261773132323130393034323332440A2031352031362020302020302020302020302020302020302020302020303939392056323030300A20202020312E303937382020202D302E3232383120202020302E303030302043202020302020302020302020302020302020302020302020302020302020302020302020300A20202020312E303937382020202D312E3035333120202020302E303030302043202020302020302020302020302020302020302020302020302020302020302020302020300A20202020302E333833332020202D312E3436353620202020302E303030302043202020302020302020302020302020302020302020302020302020302020302020302020300A2020202D302E333331322020202D312E3035333120202020302E303030302043202020302020302020302020302020302020302020302020302020302020302020302020300A2020202D302E333331322020202D302E3232383120202020302E303030302043202020302020302020302020302020302020302020302020302020302020302020302020300A20202020302E3338333320202020302E3138343420202020302E30303030204F202020302020302020302020302020302020302020302020302020302020302020302020300A2020202D312E3034353620202020302E3138343420202020302E303030302043202020302020302020302020302020302020302020302020302020302020302020302020300A2020202D312E373630312020202D302E3232383120202020302E303030302043202020302020302020302020302020302020302020302020302020302020302020302020300A2020202D312E373630312020202D312E3035333120202020302E303030302043202020302020302020302020302020302020302020302020302020302020302020302020300A2020202D312E303435362020202D312E3436353620202020302E303030302043202020302020302020302020302020302020302020302020302020302020302020302020300A20202020312E3337393920202020302E3534373120202020302E303030302043202020302020302020302020302020302020302020302020302020302020302020302020300A20202020322E3139323420202020302E3639303420202020302E303030302043202020302020302020302020302020302020302020302020302020302020302020302020300A20202020322E3437343620202020312E3436353620202020302E30303030204F202020302020302020302020302020302020302020302020302020302020302020302020300A2020202D322E343734362020202D312E3436353620202020302E303030302043202020302020302020302020302020302020302020302020302020302020302020302020300A20202020312E393130322020202D302E3337313420202020302E303030302043202020302020302020302020302020302020302020302020302020302020302020302020300A2020312020322020312020302020202020200A2020322020332020312020302020202020200A2020332020342020312020302020202020200A2020342020352020312020302020202020200A2020352020362020312020302020202020200A2020312020362020312020302020202020200A2020372020382020312020302020202020200A2020382020392020322020302020202020200A2020392031302020312020302020202020200A2020342031302020322020302020202020200A2020352020372020322020302020202020200A2031312031322020312020302020202020200A2031322031332020312020302020202020200A2020312031312020312020302020202020200A2020392031342020312020302020202020200A2020312031352020312020302020202020200A4D2020454E44
Contributor: KURARAY CO., LTD.
InstType: EI
InstName: JEOL JMS-D-300
IoniMethod: _ENERGY 70 eV
IonPolarity: pos
Date: 2010-10-09 19:48:36+02:00
Num Peaks: 71
27 17 29 16 31 14 39 4 41 41 43 42 51 27 52 1 53 32 55 32 
63 18 65 5 67 14 77 114 78 28 79 3 80 13 83 19 85 86 89 1 
91 196 92 91 93 34 103 2 105 107 106 14 107 34 108 4 109 13 115 53 
116 18 117 2 119 33 120 84 121 999 122 13 128 24 129 19 131 34 132 3 
133 137 134 45 135 29 141 2 142 10 143 13 144 16 145 15 146 66 147 113 
148 45 149 1 158 38 159 195 160 77 161 42 162 91 171 107 172 27 173 74 
174 146 175 32 176 68 186 2 187 45 188 90 189 20 191 1 204 18 206 607 
207 151 
