Name: 2-ETHYL-5-METHYL-2-PHENYL-4-HEXEN-1-OL
MW: 218
Formula: C15H22O
Synonym: MassBank: JP009902
Synonym: 2-ETHYL-5-METHYL-2-PHENYL-4-HEXEN-1-OL
Structure: 322D455448594C2D352D4D455448594C2D322D5048454E594C2D342D484558454E2D312D4F4C2E6D6F6C0A20204368656D447261773031303331303132353632440A2031362031362020302020302020302020302020302020302020302020303939392056323030300A2020202D302E3736393720202020302E3534383720202020302E303030302043202020302020302020302020302020302020302020302020302020302020302020302020300A2020202D302E333537322020202D302E3136353820202020302E303030302043202020302020302020302020302020302020302020302020302020302020302020302020300A20202020302E3335373220202020302E3234363720202020302E303030302043202020302020302020302020302020302020302020302020302020302020302020302020300A20202020302E3335373220202020312E3037313720202020302E303030302043202020302020302020302020302020302020302020302020302020302020302020302020300A20202020312E3037313720202020312E3438343220202020302E303030302043202020302020302020302020302020302020302020302020302020302020302020302020300A20202020312E3037313720202020322E3330393220202020302E303030302043202020302020302020302020302020302020302020302020302020302020302020302020300A2020202D302E3335373220202020312E3236333120202020302E30303030204F202020302020302020302020302020302020302020302020302020302020302020302020300A20202020302E303535332020202D302E3838303320202020302E303030302043202020302020302020302020302020302020302020302020302020302020302020302020300A2020202D302E333537322020202D312E3539343720202020302E303030302043202020302020302020302020302020302020302020302020302020302020302020302020300A20202020302E303535332020202D322E3330393220202020302E303030302043202020302020302020302020302020302020302020302020302020302020302020302020300A20202020302E383830332020202D322E3330393220202020302E303030302043202020302020302020302020302020302020302020302020302020302020302020302020300A20202020312E323932382020202D312E3539343720202020302E303030302043202020302020302020302020302020302020302020302020302020302020302020302020300A20202020302E383830332020202D302E3838303320202020302E303030302043202020302020302020302020302020302020302020302020302020302020302020302020300A20202020312E3738363220202020312E3037313720202020302E303030302043202020302020302020302020302020302020302020302020302020302020302020302020300A2020202D312E303731372020202D302E3537383320202020302E303030302043202020302020302020302020302020302020302020302020302020302020302020302020300A2020202D312E373836322020202D302E3136353820202020302E303030302043202020302020302020302020302020302020302020302020302020302020302020302020300A2020312020322020312020302020202020200A2020322020332020312020302020202020200A2020332020342020312020302020202020200A2020342020352020322020302020202020200A2020352020362020312020302020202020200A2020312020372020312020302020202020200A2020382020392020312020302020202020200A2020392031302020322020302020202020200A2031302031312020312020302020202020200A2031312031322020322020302020202020200A2031322031332020312020302020202020200A2020382031332020322020302020202020200A2020322020382020312020302020202020200A2020352031342020312020302020202020200A2031352031362020312020302020202020200A2020322031352020312020302020202020200A4D2020454E44
Contributor: KURARAY CO., LTD.
InstType: EI
InstName: JEOL JMS-D-300
IoniMethod: _ENERGY 70 eV
IonPolarity: pos
Date: 2010-10-09 19:48:36+02:00
Num Peaks: 50
27 30 29 57 31 10 39 33 41 132 42 12 43 58 51 20 53 28 55 38 
57 326 58 11 63 10 65 23 67 12 69 120 70 66 71 83 77 58 78 22 
79 48 91 618 92 54 93 27 102 10 103 32 105 143 106 12 107 175 108 12 
115 50 116 26 117 57 119 29 127 10 128 30 129 38 130 20 131 187 132 56 
133 16 143 25 145 32 148 243 149 999 150 110 157 16 171 12 187 15 218 10 
