Name: MassBank: JP004420
MW: 214
Formula: C14H18N2
Synonym: MassBank: JP004420
Synonym: 2,5,7-TRIMETHYL-1,2,3,4-TETRAHYDROPYRIMIDO(1,6-A)INDOLE
Structure: 322C352C372D5452494D455448594C2D312C322C332C342D5445545241485944524F505952494D49444F28312C362D4129494E444F4C452E6D6F6C0A20204368656D447261773132323130393030323232440A2031362031382020302020302020302020302020302020302020302020303939392056323030300A20202020302E3539363720202020302E3533383520202020302E30303030204E202020302020302020302020302020302020302020302020302020302020302020302020300A20202020302E363832392020202D302E3238323020202020302E303030302043202020302020302020302020302020302020302020302020302020302020302020302020300A2020202D302E303730372020202D302E3631373520202020302E303030302043202020302020302020302020302020302020302020302020302020302020302020302020300A2020202D302E363232382020202D302E3030343420202020302E303030302043202020302020302020302020302020302020302020302020302020302020302020302020300A2020202D312E343437382020202D302E3030343420202020302E303030302043202020302020302020302020302020302020302020302020302020302020302020302020300A2020202D312E3836303320202020302E3731303020202020302E303030302043202020302020302020302020302020302020302020302020302020302020302020302020300A2020202D312E3434373820202020312E3432343520202020302E303030302043202020302020302020302020302020302020302020302020302020302020302020302020300A2020202D302E3632323820202020312E3432343520202020302E303030302043202020302020302020302020302020302020302020302020302020302020302020302020300A2020202D302E3231303320202020302E3731303020202020302E303030302043202020302020302020302020302020302020302020302020302020302020302020302020300A20202020312E3236343120202020312E3032333420202020302E303030302043202020302020302020302020302020302020302020302020302020302020302020302020300A20202020322E3031373820202020302E3638373920202020302E30303030204E202020302020302020302020302020302020302020302020302020302020302020302020300A20202020322E313034312020202D302E3133323620202020302E303030302043202020302020302020302020302020302020302020302020302020302020302020302020300A20202020312E343336362020202D302E3631373520202020302E303030302043202020302020302020302020302020302020302020302020302020302020302020302020300A2020202D322E3638353320202020302E3731303020202020302E303030302043202020302020302020302020302020302020302020302020302020302020302020302020300A2020202D302E323432332020202D312E3432343520202020302E303030302043202020302020302020302020302020302020302020302020302020302020302020302020300A20202020322E3638353320202020312E3137323820202020302E303030302043202020302020302020302020302020302020302020302020302020302020302020302020300A2020312020322020312020302020202020200A2020322020332020322020302020202020200A2020332020342020312020302020202020200A2020342020352020312020302020202020200A2020352020362020322020302020202020200A2020362020372020312020302020202020200A2020372020382020322020302020202020200A2020382020392020312020302020202020200A2020312020392020312020302020202020200A2020342020392020322020302020202020200A2031302031312020312020302020202020200A2031312031322020312020302020202020200A2031322031332020312020302020202020200A2020312031302020312020302020202020200A2020322031332020312020302020202020200A2020362031342020312020302020202020200A2020332031352020312020302020202020200A2031312031362020312020302020202020200A4D2020454E44
Contributor: SASAKI S, TOYOHASHI UNIV. OF TECH.
InstType: EI
InstName: JEOL JMS-01-SG-2
IoniMethod: _ENERGY 75 eV
IonPolarity: pos
Date: 2010-10-09 19:48:36+02:00
Num Peaks: 15
41 10 55 21 57 12 81 1 115 29 128 20 144 28 156 9 157 22 158 34 
170 196 171 999 172 106 213 28 214 350 
