Name: MassBank: JP004326
MW: 181
Formula: C12H23N
Synonym: MassBank: JP004326
Synonym: 1-CYCLOHEXYL-2,2-DIMETHYLPYRROLIDINE
Structure: 312D4359434C4F484558594C2D322C322D44494D455448594C505952524F4C4944494E452E6D6F6C0A20204368656D447261773131313830393031313432440A2031332031342020302020302020302020302020302020302020302020303939392056323030300A20202020302E3630323720202020302E3335333320202020302E30303030204E202020302020302020302020302020302020302020302020302020302020302020302020300A20202020312E303837372020202D302E3331343120202020302E303030302043202020302020302020302020302020302020302020302020302020302020302020302020300A20202020312E383732332020202D302E3035393220202020302E303030302043202020302020302020302020302020302020302020302020302020302020302020302020300A20202020312E3837323320202020302E3736353820202020302E303030302043202020302020302020302020302020302020302020302020302020302020302020302020300A20202020312E3038373720202020312E3032303820202020302E303030302043202020302020302020302020302020302020302020302020302020302020302020302020300A20202020302E333733322020202D302E3732363620202020302E303030302043202020302020302020302020302020302020302020302020302020302020302020302020300A20202020312E343233322020202D312E3036373820202020302E303030302043202020302020302020302020302020302020302020302020302020302020302020302020300A2020202D302E3232323320202020302E3335333320202020302E303030302043202020302020302020302020302020302020302020302020302020302020302020302020300A2020202D302E3633343820202020312E3036373820202020302E303030302043202020302020302020302020302020302020302020302020302020302020302020302020300A2020202D312E3435393820202020312E3036373820202020302E303030302043202020302020302020302020302020302020302020302020302020302020302020302020300A2020202D312E3837323320202020302E3335333320202020302E303030302043202020302020302020302020302020302020302020302020302020302020302020302020300A2020202D312E343539382020202D302E3336313220202020302E303030302043202020302020302020302020302020302020302020302020302020302020302020302020300A2020202D302E363334382020202D302E3336313220202020302E303030302043202020302020302020302020302020302020302020302020302020302020302020302020300A2020312020322020312020302020202020200A2020322020332020312020302020202020200A2020332020342020312020302020202020200A2020342020352020312020302020202020200A2020312020352020312020302020202020200A2020322020362020312020312020202020200A2020322020372020312020362020202020200A2020382020392020312020302020202020200A2020392031302020312020302020202020200A2031302031312020312020302020202020200A2031312031322020312020302020202020200A2031322031332020312020302020202020200A2020382031332020312020302020202020200A2020312020382020312020302020202020200A4D2020454E44
Contributor: SASAKI S, TOYOHASHI UNIV. OF TECH.
InstType: EI
InstName: MX-1303
IoniMethod: _ENERGY 50 eV
IonPolarity: pos
Date: 2010-10-09 19:48:36+02:00
Num Peaks: 69
26 31 27 131 29 100 30 13 31 20 38 50 39 215 40 6 41 267 42 108 
43 303 45 3 46 19 465 31 50 41 51 5 52 48 53 64 54 117 55 17 
56 999 57 67 58 20 60 2 62 22 63 39 64 26 65 13 66 203 67 111 
68 42 69 4 70 86 71 18 72 14 73 1 74 16 75 13 76 14 77 4 
78 26 79 36 80 31 81 6 82 100 83 50 84 25 91 3 92 69 93 538 
94 61 95 2 96 36 97 20 98 59 99 9 100 42 101 16 108 19 109 2 
110 38 124 31 125 25 136 3 137 17 138 588 139 70 152 3 181 75 
