Name: BORNYL FORMATE
MW: 182
Formula: C11H18O2
Synonym: MassBank: JP006471
Synonym: BORNYL FORMATE
Structure: 424F524E594C20464F524D4154452E6D6F6C0A20204368656D447261773039303631303031313332440A2031332031342020302020302020302020302020302020302020302020303939392056323030300A2020202D302E333537322020202D302E3631383820202020302E303030302043202020302020302020302020302020302020302020302020302020302020302020302020300A2020202D302E333537322020202D312E3434333820202020302E303030302043202020302020302020302020302020302020302020302020302020302020302020302020300A20202020302E333537322020202D312E3835363320202020302E303030302043202020302020302020302020302020302020302020302020302020302020302020302020300A20202020312E303731372020202D312E3434333820202020302E303030302043202020302020302020302020302020302020302020302020302020302020302020302020300A20202020312E303731372020202D302E3631383820202020302E303030302043202020302020302020302020302020302020302020302020302020302020302020302020300A20202020302E333537322020202D302E3230363220202020302E303030302043202020302020302020302020302020302020302020302020302020302020302020302020300A20202020302E343339372020202D302E3833323320202020302E303030302043202020302020302020302020302020302020302020302020302020302020302020302020300A2020202D312E303731372020202D302E3230363220202020302E303030302043202020302020302020302020302020302020302020302020302020302020302020302020300A20202020302E3335373220202020302E3631383820202020302E30303030204F202020302020302020302020302020302020302020302020302020302020302020302020300A20202020312E3037313720202020312E3033313320202020302E303030302043202020302020302020302020302020302020302020302020302020302020302020302020300A20202020312E3037313720202020312E3835363320202020302E30303030204F202020302020302020302020302020302020302020302020302020302020302020302020300A20202020302E383532322020202D302E3131373820202020302E303030302043202020302020302020302020302020302020302020302020302020302020302020302020300A20202020302E323236312020202D312E3632393220202020302E303030302043202020302020302020302020302020302020302020302020302020302020302020302020300A2020312020322020312020302020202020200A2020322020332020312020302020202020200A2020332020342020312020302020202020200A2020342020352020312020302020202020200A2020352020362020312020302020202020200A2020362020312020312020302020202020200A2020312020372020312020302020202020200A2020372020342020312020302020202020200A2020312020382020312020302020202020200A2020362020392020312020302020202020200A2020392031302020312020302020202020200A2031302031312020322020302020202020200A2020372031322020312020312020202020200A2020372031332020312020312020202020200A4D2020454E44
Contributor: HISAHIRO HAGIWARA, CHEMICAL RESEARCH INSTITUTE OF NON-AQUEOUSSOLUTIONS TOHOKU UNIV.
InstType: EI
InstName: HITACHI M-80B
IoniMethod: _ENERGY 70 eV
IonPolarity: pos
Date: 2010-10-09 19:48:36+02:00
Num Peaks: 55
17 11 18 13 27 114 28 27 29 181 31 12 39 158 40 26 41 393 42 32 
43 170 44 12 45 10 51 33 52 15 53 122 54 18 55 183 56 16 57 43 
65 38 66 15 67 145 68 47 69 120 70 26 71 95 72 14 77 90 78 16 
79 104 80 96 81 104 82 70 83 49 84 26 91 76 92 98 93 357 94 63 
95 999 96 77 97 13 105 27 107 50 108 65 109 25 110 130 111 30 121 373 
122 37 136 351 137 46 154 14 167 25 
