Name: MassBank: JP009808
MW: 180
Formula: C12H20O
Synonym: MassBank: JP009808
Synonym: 2-ETHENOXY-1,7,7-TRIMETHYLBICYCLO(2.2.1)HEPTANE
Structure: 322D455448454E4F58592D312C372C372D5452494D455448594C42494359434C4F28322E322E312948455054414E452E6D6F6C0A20204368656D447261773031303331303132323432440A2031332031342020302020302020302020302020302020302020302020303939392056323030300A2020202D302E333537322020202D302E3631383820202020302E303030302043202020302020302020302020302020302020302020302020302020302020302020302020300A2020202D302E333537322020202D312E3434333820202020302E303030302043202020302020302020302020302020302020302020302020302020302020302020302020300A20202020302E333537322020202D312E3835363320202020302E303030302043202020302020302020302020302020302020302020302020302020302020302020302020300A20202020312E303731372020202D312E3434333820202020302E303030302043202020302020302020302020302020302020302020302020302020302020302020302020300A20202020312E303731372020202D302E3631383820202020302E303030302043202020302020302020302020302020302020302020302020302020302020302020302020300A20202020302E333537322020202D302E3230363220202020302E303030302043202020302020302020302020302020302020302020302020302020302020302020302020300A2020202D312E303731372020202D302E3230363220202020302E303030302043202020302020302020302020302020302020302020302020302020302020302020302020300A20202020302E343339372020202D302E3833323320202020302E303030302043202020302020302020302020302020302020302020302020302020302020302020302020300A20202020302E3335373220202020302E3631383820202020302E30303030204F202020302020302020302020302020302020302020302020302020302020302020302020300A20202020312E3037313720202020312E3033313320202020302E303030302043202020302020302020302020302020302020302020302020302020302020302020302020300A20202020312E3037313720202020312E3835363320202020302E303030302043202020302020302020302020302020302020302020302020302020302020302020302020300A20202020302E383532322020202D302E3131373820202020302E303030302043202020302020302020302020302020302020302020302020302020302020302020302020300A2020202D302E313433372020202D312E3431353620202020302E303030302043202020302020302020302020302020302020302020302020302020302020302020302020300A2020312020322020312020302020202020200A2020322020332020312020302020202020200A2020332020342020312020302020202020200A2020342020352020312020302020202020200A2020352020362020312020302020202020200A2020362020312020312020302020202020200A2020312020372020312020302020202020200A2020312020382020312020302020202020200A2020382020342020312020302020202020200A2020362020392020312020302020202020200A2020392031302020312020302020202020200A2031302031312020322020302020202020200A2020382031322020312020312020202020200A2020382031332020312020312020202020200A4D2020454E44
Contributor: KURARAY CO., LTD.
InstType: EI
InstName: JEOL JMS-D-300
IoniMethod: _ENERGY 70 eV
IonPolarity: pos
Date: 2010-10-09 19:48:36+02:00
Num Peaks: 26
27 56 29 58 39 52 41 17 43 136 53 61 55 98 57 11 67 233 68 31 
69 284 71 10 77 50 79 72 81 999 82 9 83 53 91 44 93 84 95 38 
96 31 107 23 109 55 121 4 137 847 138 98 
