Name: MassBank: JP002957
MW: 145
Formula: C6H11NO3
Synonym: MassBank: JP002957
Synonym: 3,3,3-TRIMETHOXY PROPIONITRILE
Structure: 332C332C332D5452494D4554484F58592050524F50494F4E495452494C452E6D6F6C0A20204368656D447261773032323131303139343832440A2031302020392020302020302020302020302020302020302020302020303939392056323030300A20202020302E383235302020202D302E3435333020202020302E303030302043202020302020302020302020302020302020302020302020302020302020302020302020300A20202020302E303030302020202D302E3435333020202020302E303030302043202020302020302020302020302020302020302020302020302020302020302020302020300A2020202D302E3431323520202020302E3236313520202020302E303030302043202020302020302020302020302020302020302020302020302020302020302020302020300A20202020312E363530302020202D302E3435333020202020302E30303030204E202020302020302020302020302020302020302020302020302020302020302020302020300A2020202D312E313237302020202D302E3135313020202020302E30303030204F202020302020302020302020302020302020302020302020302020302020302020302020300A2020202D312E313237302020202D302E3937363020202020302E303030302043202020302020302020302020302020302020302020302020302020302020302020302020300A2020202D302E3832353020202020302E3937363020202020302E30303030204F202020302020302020302020302020302020302020302020302020302020302020302020300A2020202D312E3635303020202020302E3937363020202020302E303030302043202020302020302020302020302020302020302020302020302020302020302020302020300A20202020302E3330323020202020302E3637343020202020302E30303030204F202020302020302020302020302020302020302020302020302020302020302020302020300A20202020312E3031363420202020302E3236313520202020302E303030302043202020302020302020302020302020302020302020302020302020302020302020302020300A2020312020322020312020302020202020200A2020322020332020312020302020202020200A2020312020342020332020302020202020200A2020352020362020312020302020202020200A2020332020352020312020312020202020200A2020372020382020312020302020202020200A2020332020372020312020302020202020200A2020392031302020312020302020202020200A2020332020392020312020312020202020200A4D2020454E44
Contributor: MASS SPECTROSCOPY SOC. OF JAPAN (MSSJ)
InstType: EI
InstName: Unknown
IoniMethod: EI
IonPolarity: pos
Date: 2010-10-09 19:48:36+02:00
Num Peaks: 25
15 406 27 40 28 39 29 111 31 42 39 26 40 115 41 22 42 132 43 55 
45 84 47 92 54 46 55 204 57 42 59 258 61 30 68 141 70 53 72 469 
75 44 82 79 105 213 114 999 115 56 
