Name: MassBank: JP000766
MW: 210
Formula: C11H14O4
Synonym: MassBank: JP000766
Synonym: 3,7-BIS(METHOXYMETHYL)TROPOLONE
Structure: 332C372D424953284D4554484F58594D455448594C2954524F504F4C4F4E452E6D6F6C0A20204368656D447261773032323231303033333432440A2031352031352020302020302020302020302020302020302020302020303939392056323030300A2020202D312E3132333520202020302E3937353620202020302E30303030204F202020302020302020302020302020302020302020302020302020302020302020302020300A2020202D302E3630343320202020302E3333343420202020302E303030302043202020302020302020302020302020302020302020302020302020302020302020302020300A2020202D302E393536372020202D302E3431343620202020302E303030302043202020302020302020302020302020302020302020302020302020302020302020302020300A2020202D302E353933322020202D312E3135323120202020302E303030302043202020302020302020302020302020302020302020302020302020302020302020302020300A20202020302E323132352020202D312E3332393720202020302E303030302043202020302020302020302020302020302020302020302020302020302020302020302020300A20202020302E383530362020202D302E3831303520202020302E303030302043202020302020302020302020302020302020302020302020302020302020302020302020300A20202020302E3835303620202020302E3031343520202020302E303030302043202020302020302020302020302020302020302020302020302020302020302020302020300A20202020302E3139383620202020302E3532343020202020302E303030302043202020302020302020302020302020302020302020302020302020302020302020302020300A20202020302E3337363220202020312E3332393720202020302E30303030204F202020302020302020302020302020302020302020302020302020302020302020302020300A2020202D312E373831372020202D302E3431343620202020302E303030302043202020302020302020302020302020302020302020302020302020302020302020302020300A2020202D322E313935352020202D312E3133313420202020302E30303030204F202020302020302020302020302020302020302020302020302020302020302020302020300A2020202D332E303133382020202D312E3133313420202020302E303030302043202020302020302020302020302020302020302020302020302020302020302020302020300A20202020312E3538383120202020302E3337383020202020302E303030302043202020302020302020302020302020302020302020302020302020302020302020302020300A20202020322E323733322020202D302E3038313620202020302E30303030204F202020302020302020302020302020302020302020302020302020302020302020302020300A20202020332E3031333820202020302E3238313920202020302E303030302043202020302020302020302020302020302020302020302020302020302020302020302020300A2020312020322020322020302020202020200A2020322020332020312020302020202020200A2020332020342020322020302020202020200A2020342020352020312020302020202020200A2020352020362020322020302020202020200A2020362020372020312020302020202020200A2020372020382020322020302020202020200A2020322020382020312020302020202020200A2020382020392020312020302020202020200A2031312031322020312020302020202020200A2031302031312020312020302020202020200A2020332031302020312020302020202020200A2031342031352020312020302020202020200A2031332031342020312020302020202020200A2020372031332020312020302020202020200A4D2020454E44
Contributor: ITO S, DEPT. OF CHEM., TOHOKU UNIV.
InstType: EI
InstName: Unknown
IoniMethod: _ENERGY 25 eV
IonPolarity: pos
Date: 2010-10-09 19:48:36+02:00
Num Peaks: 37
45 120 65 100 66 50 77 26 78 60 79 200 80 30 85 10 89 50 90 65 
91 340 92 12 93 30 94 80 105 80 107 13 108 30 118 50 119 80 120 6 
121 330 122 95 124 60 133 18 135 525 136 90 147 60 148 11 149 45 150 70 
163 95 178 999 179 100 180 155 181 30 210 17 211 80 
