Name: ACETALDEHYDE HEXYL ISOBUTYL ACETAL
MW: 202
Formula: C12H26O2
Synonym: MassBank: JP008652
Synonym: ACETALDEHYDE HEXYL ISOBUTYL ACETAL
Synonym: ACETALDEHYDE HEXYL 2-METHYLPROPYL ACETAL
Structure: 41434554414C44454859444520484558594C2049534F425554594C2041434554414C2E6D6F6C0A20204368656D447261773036323431303035343132440A2031342031332020302020302020302020302020302020302020302020303939392056323030300A20202020302E383235302020202D302E3335373220202020302E303030302043202020302020302020302020302020302020302020302020302020302020302020302020300A20202020302E3431323520202020302E3335373220202020302E303030302043202020302020302020302020302020302020302020302020302020302020302020302020300A20202020312E363530302020202D302E3335373220202020302E30303030204F202020302020302020302020302020302020302020302020302020302020302020302020300A20202020302E343132352020202D312E3037313720202020302E30303030204F202020302020302020302020302020302020302020302020302020302020302020302020300A20202020322E3036323520202020302E3335373220202020302E303030302043202020302020302020302020302020302020302020302020302020302020302020302020300A20202020322E3838373520202020302E3335373220202020302E303030302043202020302020302020302020302020302020302020302020302020302020302020302020300A20202020332E3330303020202020312E3037313720202020302E303030302043202020302020302020302020302020302020302020302020302020302020302020302020300A20202020332E333030302020202D302E3335373220202020302E303030302043202020302020302020302020302020302020302020302020302020302020302020302020300A2020202D302E343132352020202D312E3037313720202020302E303030302043202020302020302020302020302020302020302020302020302020302020302020302020300A2020202D302E383235302020202D302E3335373220202020302E303030302043202020302020302020302020302020302020302020302020302020302020302020302020300A2020202D312E363530302020202D302E3335373220202020302E303030302043202020302020302020302020302020302020302020302020302020302020302020302020300A2020202D322E3036323520202020302E3335373220202020302E303030302043202020302020302020302020302020302020302020302020302020302020302020302020300A2020202D322E3838373520202020302E3335373220202020302E303030302043202020302020302020302020302020302020302020302020302020302020302020302020300A2020202D332E3330303020202020312E3037313720202020302E303030302043202020302020302020302020302020302020302020302020302020302020302020302020300A2020312020322020312020302020202020200A2020352020362020312020302020202020200A2020362020372020312020302020202020200A2020362020382020312020302020202020200A2020332020352020312020302020202020200A2020392031302020312020302020202020200A2031302031312020312020302020202020200A2031312031322020312020302020202020200A2031322031332020312020302020202020200A2031332031342020312020302020202020200A2020342020392020312020302020202020200A2020312020332020312020302020202020200A2020312020342020312020302020202020200A4D2020454E44
Contributor: SODA AROMATIC CO., LTD.
InstType: EI
InstName: HITACHI M-80B
IoniMethod: _ENERGY 70 eV
IonPolarity: pos
Date: 2010-10-09 19:48:36+02:00
Num Peaks: 34
15 17 26 11 27 172 29 289 31 99 33 25 39 121 41 494 42 146 43 848 
44 50 45 375 53 14 55 144 56 251 57 999 58 51 59 13 61 12 69 41 
71 14 82 15 83 23 84 19 85 663 86 36 101 433 102 28 103 10 113 16 
129 420 130 32 131 21 187 48 
