Name: MassBank: JP004334
MW: 200
Formula: C13H16N2
Synonym: MassBank: JP004334
Synonym: 1-BENZYL-3,4,5-TRIMETHYLPYRAZOLE
Structure: 312D42454E5A594C2D332C342C352D5452494D455448594C505952415A4F4C452E6D6F6C0A20204368656D447261773131313730393233323132440A2031352031362020302020302020302020302020302020302020302020303939392056323030300A20202020302E3336353820202020302E3330313620202020302E30303030204E202020302020302020302020302020302020302020302020302020302020302020302020300A20202020302E343532312020202D302E3531383920202020302E30303030204E202020302020302020302020302020302020302020302020302020302020302020302020300A20202020312E323539312020202D302E3639303420202020302E303030302043202020302020302020302020302020302020302020302020302020302020302020302020300A20202020312E3637313620202020302E3032343020202020302E303030302043202020302020302020302020302020302020302020302020302020302020302020302020300A20202020312E3131393520202020302E3633373120202020302E303030302043202020302020302020302020302020302020302020302020302020302020302020302020300A20202020312E3239313120202020312E3434343120202020302E303030302043202020302020302020302020302020302020302020302020302020302020302020302020300A20202020322E3439323020202020302E3131303320202020302E303030302043202020302020302020302020302020302020302020302020302020302020302020302020300A20202020312E353934362020202D312E3434343120202020302E303030302043202020302020302020302020302020302020302020302020302020302020302020302020300A2020202D302E3334383620202020302E3731343120202020302E303030302043202020302020302020302020302020302020302020302020302020302020302020302020300A2020202D312E3036333120202020302E3330313620202020302E303030302043202020302020302020302020302020302020302020302020302020302020302020302020300A2020202D312E3737373620202020302E3731343120202020302E303030302043202020302020302020302020302020302020302020302020302020302020302020302020300A2020202D322E3439323020202020302E3330313620202020302E303030302043202020302020302020302020302020302020302020302020302020302020302020302020300A2020202D322E343932302020202D302E3532333420202020302E303030302043202020302020302020302020302020302020302020302020302020302020302020302020300A2020202D312E373737362020202D302E3933353920202020302E303030302043202020302020302020302020302020302020302020302020302020302020302020302020300A2020202D312E303633312020202D302E3532333420202020302E303030302043202020302020302020302020302020302020302020302020302020302020302020302020300A2020312020322020312020302020202020200A2020322020332020322020302020202020200A2020332020342020312020302020202020200A2020342020352020322020302020202020200A2020312020352020312020302020202020200A2020352020362020312020302020202020200A2020342020372020312020302020202020200A2020332020382020312020302020202020200A2020392031302020312020302020202020200A2031302031312020312020302020202020200A2031312031322020322020302020202020200A2031322031332020312020302020202020200A2031332031342020322020302020202020200A2031342031352020312020302020202020200A2031302031352020322020302020202020200A2020312020392020312020302020202020200A4D2020454E44
Contributor: SASAKI S, TOYOHASHI UNIV. OF TECH.
InstType: EI
InstName: MX-1303
IoniMethod: _ENERGY 50 eV
IonPolarity: pos
Date: 2010-10-09 19:48:36+02:00
Num Peaks: 75
26 18 27 92 28 76 29 2 38 16 39 185 40 42 41 11 42 119 43 14 
50 28 51 9 52 36 53 54 54 24 55 3 56 20 62 12 63 61 64 2 
65 298 66 44 67 22 68 3 69 16 76 12 77 66 78 2 79 25 80 16 
81 13 82 2 89 66 90 34 91 999 92 11 93 14 95 100 96 16 103 2 
104 41 108 15 109 417 110 4 115 27 116 18 117 20 118 1 122 11 123 215 
124 19 128 1 130 24 142 12 143 20 144 5 145 14 156 11 157 11 158 3 
168 10 169 10 170 14 171 12 172 20 183 14 184 23 185 64 186 222 187 27 
198 16 199 58 200 536 201 81 202 6 
