Name: DIMETHYLHYDRAZONE BETA-METHYLACRYLALDEHYDE
MW: 112
Formula: C6H12N2
Synonym: MassBank: JP000870
Synonym: DIMETHYLHYDRAZONE BETA-METHYLACRYLALDEHYDE
Synonym: 2-BUTENAL DIMETHYLHYDRAZONE
Structure: 310A32300A44494D455448594C48594452415A4F4E4520424554412D4D455448594C414352594C414C4445485944452E6D6F6C0A20204368656D447261773132323130393233313732440A2020382020372020302020302020302020302020302020302020302020303939392056323030300A2020202D302E3030303020202020302E3230363220202020302E303030302043202020302020302020302020302020302020302020302020302020302020302020302020300A20202020302E3731343520202020302E3631383820202020302E303030302043202020302020302020302020302020302020302020302020302020302020302020302020300A20202020312E3432383920202020302E3230363220202020302E303030302043202020302020302020302020302020302020302020302020302020302020302020302020300A20202020322E3134333420202020302E3631383820202020302E303030302043202020302020302020302020302020302020302020302020302020302020302020302020300A2020202D302E3731343520202020302E3631383820202020302E30303030204E202020302020302020302020302020302020302020302020302020302020302020302020300A2020202D312E3432383920202020302E3230363220202020302E30303030204E202020302020302020302020302020302020302020302020302020302020302020302020300A2020202D312E343238392020202D302E3631383820202020302E303030302043202020302020302020302020302020302020302020302020302020302020302020302020300A2020202D322E3134333420202020302E3631383820202020302E303030302043202020302020302020302020302020302020302020302020302020302020302020302020300A2020312020322020312020302020202020200A2020322020332020322020302020202020200A2020332020342020312020302020202020200A2020352020362020312020302020202020200A2020362020372020312020302020202020200A2020362020382020312020302020202020200A2020312020352020322020302020202020200A4D2020454E44
Contributor: SASAKI S, TOYOHASHI UNIV. OF TECH.
InstType: EI
InstName: SHIMADZU LKB-2091
IoniMethod: _ENERGY 70 eV
IonPolarity: pos
Date: 2010-10-09 19:48:36+02:00
Num Peaks: 42
28 477 29 87 30 213 37 2 38 52 39 348 40 61 41 51 42 781 43 477 
44 740 45 28 46 117 50 19 51 39 52 3 53 148 54 96 55 65 56 44 
57 100 58 78 59 74 67 24 68 695 69 313 70 361 71 5 80 43 81 46 
82 130 83 8 84 93 85 12 94 17 95 4 96 43 97 300 98 20 111 7 
112 999 113 100 
