Name: MassBank: JP002755
MW: 388
Formula: C23H36N2O3
Synonym: MassBank: JP002755
Synonym: 17ALPHA-HYDROXYPROGESTERONE 3,20-BIS(O-METHYLOXIME)
Structure: 3137414C5048412D485944524F585950524F4745535445524F4E4520332C32302D424953284F2D4D455448594C4F58494D45292E6D6F6C0A20204368656D447261773132313130393030353832440A2033322033352020302020302020302020302020302020302020302020303939392056323030300A2020202D312E313233342020202D302E3234343220202020302E303030302043202020302020302020302020302020302020302020302020302020302020302020302020300A2020202D312E383337392020202D302E3635363720202020302E303030302043202020302020302020302020302020302020302020302020302020302020302020302020300A2020202D312E383337392020202D312E3438313720202020302E303030302043202020302020302020302020302020302020302020302020302020302020302020302020300A2020202D312E313233342020202D312E3839343220202020302E303030302043202020302020302020302020302020302020302020302020302020302020302020302020300A2020202D302E343038392020202D312E3438313720202020302E303030302043202020302020302020302020302020302020302020302020302020302020302020302020300A20202020302E333035352020202D312E3839343220202020302E303030302043202020302020302020302020302020302020302020302020302020302020302020302020300A20202020312E303230302020202D312E3438313720202020302E303030302043202020302020302020302020302020302020302020302020302020302020302020302020300A20202020312E303230302020202D302E3635363720202020302E303030302043202020302020302020302020302020302020302020302020302020302020302020302020300A20202020312E373334352020202D302E3234343220202020302E303030302043202020302020302020302020302020302020302020302020302020302020302020302020300A20202020322E353139312020202D302E3439393120202020302E303030302043202020302020302020302020302020302020302020302020302020302020302020302020300A20202020332E3030343020202020302E3136383320202020302E303030302043202020302020302020302020302020302020302020302020302020302020302020302020300A20202020322E3532383220202020302E3833383120202020302E303030302043202020302020302020302020302020302020302020302020302020302020302020302020300A20202020322E3235303620202020312E3837343120202020302E303030302043202020302020302020302020302020302020302020302020302020302020302020302020300A20202020322E3835333120202020322E3434393520202020302E303030302043202020302020302020302020302020302020302020302020302020302020302020302020300A20202020312E3733343520202020302E3538303820202020302E303030302043202020302020302020302020302020302020302020302020302020302020302020302020300A20202020312E3733343520202020312E3430353820202020302E303030302043202020302020302020302020302020302020302020302020302020302020302020302020300A20202020312E3032303020202020302E3939333320202020302E303030302043202020302020302020302020302020302020302020302020302020302020302020302020300A20202020302E3330353520202020302E3538303820202020302E303030302043202020302020302020302020302020302020302020302020302020302020302020302020300A20202020302E333035352020202D302E3234343220202020302E303030302043202020302020302020302020302020302020302020302020302020302020302020302020300A2020202D302E343038392020202D302E3635363720202020302E303030302043202020302020302020302020302020302020302020302020302020302020302020302020300A2020202D302E3430383920202020302E3136383320202020302E303030302043202020302020302020302020302020302020302020302020302020302020302020302020300A20202020332E3236363820202020312E3138343420202020302E30303030204F202020302020302020302020302020302020302020302020302020302020302020302020300A2020202D322E353532332020202D312E3839343220202020302E30303030204E202020302020302020302020302020302020302020302020302020302020302020302020300A2020202D322E353532332020202D322E3731393220202020302E30303030204F202020302020302020302020302020302020302020302020302020302020302020302020300A2020202D332E323636382020202D332E3133313720202020302E303030302043202020302020302020302020302020302020302020302020302020302020302020302020300A20202020312E3437333620202020322E3130353620202020302E30303030204E202020302020302020302020302020302020302020302020302020302020302020302020300A20202020312E3236303020202020322E3930323520202020302E30303030204F202020302020302020302020302020302020302020302020302020302020302020302020300A20202020302E3437343020202020332E3133313720202020302E303030302043202020302020302020302020302020302020302020302020302020302020302020302020300A20202020302E333035352020202D312E3036393220202020302E303030302048202020302020302020302020302020302020302020302020302020302020302020302020300A20202020312E3032303020202020302E3136383320202020302E303030302048202020302020302020302020302020302020302020302020302020302020302020302020300A20202020312E373334352020202D312E3036393220202020302E303030302048202020302020302020302020302020302020302020302020302020302020302020302020300A2020202D312E313233342020202D322E3731393220202020302E303030302048202020302020302020302020302020302020302020302020302020302020302020302020300A2020312020322020312020302020202020200A2020322020332020312020302020202020200A2020332020342020312020302020202020200A2020342020352020322020302020202020200A2020352020362020312020302020202020200A2020362020372020312020302020202020200A2020372020382020312020302020202020200A2020382020392020312020302020202020200A2020392031302020312020302020202020200A2031302031312020312020302020202020200A2031312031322020312020302020202020200A2031322031332020312020312020202020200A2031332031342020312020302020202020200A2031322031352020312020302020202020200A2020392031352020312020302020202020200A2031352031362020312020312020202020200A2031352031372020312020302020202020200A2031372031382020312020302020202020200A2031382031392020312020302020202020200A2020382031392020312020302020202020200A2031392032302020312020302020202020200A2020312032302020312020302020202020200A2020352032302020312020302020202020200A2032302032312020312020312020202020200A2031322032322020312020362020202020200A2032332032342020312020302020202020200A2032342032352020312020302020202020200A2020332032332020322020302020202020200A2032362032372020312020302020202020200A2032372032382020312020302020202020200A2031332032362020322020302020202020200A2031392032392020312020362020202020200A2020382033302020312020312020202020200A2020392033312020312020362020202020200A2020342033322020312020302020202020200A4D2020454E44
Contributor: HAYASHI A, DEPT. OF CHEMISTRY, FAC. OF SCI. AND TECHNOLOGY, KINKI UNIV.
InstType: EI
InstName: SHIMADZU LKB-9000B
IoniMethod: _ENERGY 70 eV
IonPolarity: pos
Date: 2010-10-09 19:48:36+02:00
Num Peaks: 277
50 80 51 169 52 122 53 40 54 183 55 571 56 105 57 7 58 53 59 42 
62 27 63 9 64 29 65 205 66 148 67 47 68 56 69 126 70 101 71 9 
72 74 73 112 74 26 75 5 76 36 77 645 78 418 79 73 80 202 81 378 
82 127 83 6 84 52 85 66 86 63 87 1 88 28 89 96 90 31 91 93 
92 258 93 568 94 235 95 26 96 85 97 163 98 49 99 3 100 47 101 33 
102 69 103 15 104 181 105 595 106 310 107 44 108 391 109 155 110 114 111 8 
112 77 113 44 114 33 115 22 116 203 117 324 118 229 119 42 120 469 121 648 
122 302 123 41 124 75 125 999 126 124 127 7 128 199 129 232 130 216 131 31 
132 198 133 253 134 179 135 27 136 194 137 677 138 221 139 8 140 58 141 147 
142 129 143 20 144 247 145 230 146 245 147 16 148 112 149 194 150 83 151 50 
152 237 153 458 154 134 155 14 156 139 157 205 158 197 159 19 160 163 161 79 
162 66 163 6 164 101 165 137 166 92 167 9 168 71 169 122 170 162 171 15 
172 151 173 79 174 127 175 6 176 61 177 55 178 86 179 6 180 57 181 67 
182 59 183 12 184 127 185 97 186 111 187 8 188 66 189 55 190 63 191 2 
192 42 193 71 194 65 195 7 196 91 197 47 198 93 199 8 200 49 201 44 
202 56 203 3 204 61 205 44 206 50 207 6 208 53 209 97 210 98 211 11 
212 101 213 61 214 54 215 4 216 55 217 50 218 72 219 2 220 50 221 56 
222 68 223 6 224 120 225 96 226 145 227 10 228 53 229 49 230 46 231 3 
232 29 233 37 234 29 235 4 236 49 237 37 238 79 239 4 240 109 241 57 
242 81 243 5 244 38 245 33 246 31 248 3 249 55 250 65 251 58 252 7 
253 57 254 58 255 83 256 8 257 45 258 68 259 53 260 4 261 30 263 33 
264 33 265 6 266 114 267 84 268 162 269 5 270 114 271 47 272 71 273 5 
274 44 275 33 277 31 278 3 279 46 280 41 281 137 282 10 283 319 284 355 
285 337 286 4 287 47 290 33 291 33 292 5 293 34 294 41 295 31 297 4 
298 46 299 34 300 142 301 3 307 39 308 42 309 33 310 3 311 36 313 65 
314 46 315 88 316 223 317 34 323 28 324 3 325 56 326 29 327 34 328 3 
329 45 337 28 339 67 340 3 341 45 354 33 355 88 356 7 357 485 358 142 
359 36 370 15 371 64 386 39 387 45 388 9 389 27 
