Name: MassBank: JP004874
MW: 654
Formula: C32H55BrO5Si2
Synonym: MassBank: JP004874
Synonym: 2-(4-BROMOPHENYL)-2-OXOETHYL 9,10-BIS(TRIMETHYLSILOXY)OCTADEC-12(Z)-ENOATE
Structure: 322D28342D42524F4D4F5048454E594C292D322D4F584F455448594C20392C31302D424953285452494D455448594C53494C4F5859294F4354414445432D3132285A292D454E4F4154452E6D6F6C0A20204368656D447261773132323130393230303932440A2034302034302020302020302020302020302020302020302020302020303939392056323030300A20202020312E343433382020202D322E3530303620202020302E303030302043202020302020302020302020302020302020302020302020302020302020302020302020300A20202020302E363138382020202D322E3530303620202020302E303030302043202020302020302020302020302020302020302020302020302020302020302020302020300A20202020302E323036322020202D312E3738363220202020302E303030302043202020302020302020302020302020302020302020302020302020302020302020302020300A20202020302E363138372020202D312E3037313720202020302E303030302043202020302020302020302020302020302020302020302020302020302020302020302020300A20202020302E323036322020202D302E3335373220202020302E303030302043202020302020302020302020302020302020302020302020302020302020302020302020300A20202020302E3631383820202020302E3335373220202020302E303030302043202020302020302020302020302020302020302020302020302020302020302020302020300A20202020302E3230363220202020312E3037313720202020302E303030302043202020302020302020302020302020302020302020302020302020302020302020302020300A20202020302E3631383820202020312E3738363220202020302E303030302043202020302020302020302020302020302020302020302020302020302020302020302020300A20202020302E3230363220202020322E3530303620202020302E303030302043202020302020302020302020302020302020302020302020302020302020302020302020300A2020202D302E3631383820202020322E3530303620202020302E303030302043202020302020302020302020302020302020302020302020302020302020302020302020300A2020202D312E3033313320202020332E3231353120202020302E303030302043202020302020302020302020302020302020302020302020302020302020302020302020300A2020202D312E3835363320202020332E3231353120202020302E303030302043202020302020302020302020302020302020302020302020302020302020302020302020300A2020202D322E3236383720202020332E3932393620202020302E303030302043202020302020302020302020302020302020302020302020302020302020302020302020300A2020202D312E3835363320202020342E3634343120202020302E303030302043202020302020302020302020302020302020302020302020302020302020302020302020300A2020202D322E3236383720202020352E3335383520202020302E303030302043202020302020302020302020302020302020302020302020302020302020302020302020300A2020202D312E3835363320202020362E3037333020202020302E303030302043202020302020302020302020302020302020302020302020302020302020302020302020300A2020202D322E3236383720202020362E3738373520202020302E303030302043202020302020302020302020302020302020302020302020302020302020302020302020300A2020202D312E3835363320202020372E3530313920202020302E303030302043202020302020302020302020302020302020302020302020302020302020302020302020300A20202020312E383536332020202D312E3738363220202020302E30303030204F202020302020302020302020302020302020302020302020302020302020302020302020300A20202020312E383536332020202D332E3231353120202020302E30303030204F202020302020302020302020302020302020302020302020302020302020302020302020300A2020202D312E3033313320202020312E3738363220202020302E30303030204F202020302020302020302020302020302020302020302020302020302020302020302020300A2020202D312E3835363320202020312E3738363220202020302E303030302053692020302020302020302020302020302020302020302020302020302020302020302020300A2020202D322E3638313220202020312E3738363220202020302E303030302043202020302020302020302020302020302020302020302020302020302020302020302020300A2020202D312E3835363320202020322E3631313220202020302E303030302043202020302020302020302020302020302020302020302020302020302020302020302020300A2020202D312E3835363320202020302E3936313220202020302E303030302043202020302020302020302020302020302020302020302020302020302020302020302020300A20202020302E3631383820202020332E3231353120202020302E30303030204F202020302020302020302020302020302020302020302020302020302020302020302020300A20202020302E3230363220202020332E3932393620202020302E303030302053692020302020302020302020302020302020302020302020302020302020302020302020300A20202020302E3932303720202020342E3334323120202020302E303030302043202020302020302020302020302020302020302020302020302020302020302020302020300A2020202D302E3530383220202020332E3531373120202020302E303030302043202020302020302020302020302020302020302020302020302020302020302020302020300A2020202D302E3230363220202020342E3634343120202020302E303030302043202020302020302020302020302020302020302020302020302020302020302020302020300A20202020312E343433382020202D332E3932393620202020302E303030302043202020302020302020302020302020302020302020302020302020302020302020302020300A20202020312E383536332020202D342E3634343120202020302E303030302043202020302020302020302020302020302020302020302020302020302020302020302020300A20202020322E363831322020202D342E3634343120202020302E30303030204F202020302020302020302020302020302020302020302020302020302020302020302020300A20202020312E343433382020202D352E3335383520202020302E303030302043202020302020302020302020302020302020302020302020302020302020302020302020300A20202020312E383536332020202D362E3037333020202020302E303030302043202020302020302020302020302020302020302020302020302020302020302020302020300A20202020312E343433382020202D362E3738373520202020302E303030302043202020302020302020302020302020302020302020302020302020302020302020302020300A20202020302E363138382020202D362E3738373520202020302E303030302043202020302020302020302020302020302020302020302020302020302020302020302020300A20202020302E323036322020202D362E3037333020202020302E303030302043202020302020302020302020302020302020302020302020302020302020302020302020300A20202020302E363138372020202D352E3335383520202020302E303030302043202020302020302020302020302020302020302020302020302020302020302020302020300A20202020302E323036322020202D372E3530313920202020302E303030302042722020302020302020302020302020302020302020302020302020302020302020302020300A2020312020322020312020302020202020200A2020322020332020312020302020202020200A2020332020342020312020302020202020200A2020342020352020312020302020202020200A2020352020362020312020302020202020200A2020362020372020312020302020202020200A2020372020382020312020302020202020200A2020382020392020312020302020202020200A2020392031302020312020302020202020200A2031302031312020312020302020202020200A2031312031322020312020302020202020200A2031322031332020322020302020202020200A2031332031342020312020302020202020200A2031342031352020312020302020202020200A2031352031362020312020302020202020200A2031362031372020312020302020202020200A2031372031382020312020302020202020200A2020312031392020322020302020202020200A2020312032302020312020302020202020200A2032312032322020312020302020202020200A2032322032332020312020302020202020200A2032322032342020312020312020202020200A2032322032352020312020312020202020200A2031302032312020312020302020202020200A2032362032372020312020302020202020200A2032372032382020312020302020202020200A2032372032392020312020302020202020200A2032372033302020312020302020202020200A2020392032362020312020302020202020200A2033312033322020312020302020202020200A2033322033332020322020302020202020200A2033342033352020312020302020202020200A2033352033362020322020302020202020200A2033362033372020312020302020202020200A2033372033382020322020302020202020200A2033382033392020312020302020202020200A2033342033392020322020302020202020200A2033372034302020312020302020202020200A2033322033342020312020302020202020200A2032302033312020312020302020202020200A4D2020454E44
Contributor: KATO T, DEPT. OF CHEM., FAC. OF SCI., TOHOKU UNIV.
InstType: EI
InstName: Unknown
IoniMethod: _ENERGY 35 eV
IonPolarity: pos
Date: 2010-10-09 19:48:36+02:00
Num Peaks: 68
670 169 690 87 730 999 740 98 750 207 760 49 810 134 930 41 950 57 1010 58 
1030 208 1090 134 1210 44 1230 62 1250 42 1290 367 1300 69 1310 41 1330 41 1370 44 
1430 52 1470 237 1490 58 1550 261 1570 41 1670 52 1830 213 1850 204 1910 66 2120 118 
2130 407 2140 86 2150 41 2270 140 2390 40 2430 113 2570 97 2720 42 3170 53 4410 336 
4420 92 4430 336 4440 94 4530 171 4540 51 4550 189 4560 52 5140 6 5150 7 5160 8 
5170 6 5430 144 5440 55 5450 166 5460 56 5470 21 5480 5 5640 6 5650 25 5660 14 
5670 27 5680 10 5690 4 6370 5 6390 14 6400 6 6410 11 6420 5 
