Name: MassBank: JP004368
MW: 294
Formula: C19H18O3
Synonym: MassBank: JP004368
Synonym: 1-(2-OXOPROPYL)-3,4-DIPHENYL-2,5-DIOXABICYCLO(2.1.1)HEXANE
Structure: 312D28322D4F584F50524F50594C292D332C342D44495048454E594C2D322C352D44494F584142494359434C4F28322E312E3129484558414E452E6D6F6C0A20204368656D447261773131313730393137303832440A2032322032352020302020302020302020302020302020302020302020303939392056323030300A20202020302E383539372020202D312E3332363520202020302E303030302043202020302020302020302020302020302020302020302020302020302020302020302020300A20202020302E303836372020202D312E3833383120202020302E30303030204F202020302020302020302020302020302020302020302020302020302020302020302020300A2020202D302E353232322020202D312E3133353120202020302E303030302043202020302020302020302020302020302020302020302020302020302020302020302020300A20202020302E303935312020202D302E3434343520202020302E303030302043202020302020302020302020302020302020302020302020302020302020302020302020300A20202020302E303337352020202D312E3236373520202020302E30303030204F202020302020302020302020302020302020302020302020302020302020302020302020300A20202020302E393138312020202D302E3530323020202020302E303030302043202020302020302020302020302020302020302020302020302020302020302020302020300A2020202D302E3231363120202020302E3331393620202020302E303030302043202020302020302020302020302020302020302020302020302020302020302020302020300A2020202D312E3033333320202020302E3433323220202020302E303030302043202020302020302020302020302020302020302020302020302020302020302020302020300A2020202D312E3334343520202020312E3139363320202020302E303030302043202020302020302020302020302020302020302020302020302020302020302020302020300A2020202D302E3833383320202020312E3834373720202020302E303030302043202020302020302020302020302020302020302020302020302020302020302020302020300A2020202D302E3032313120202020312E3733353220202020302E303030302043202020302020302020302020302020302020302020302020302020302020302020302020300A20202020302E3239303120202020302E3937313120202020302E303030302043202020302020302020302020302020302020302020302020302020302020302020302020300A2020202D312E333437322020202D312E3133353120202020302E303030302043202020302020302020302020302020302020302020302020302020302020302020302020300A2020202D312E373538362020202D312E3834373720202020302E303030302043202020302020302020302020302020302020302020302020302020302020302020302020300A2020202D322E353838392020202D312E3834373720202020302E303030302043202020302020302020302020302020302020302020302020302020302020302020302020300A2020202D332E303035302020202D312E3132373220202020302E303030302043202020302020302020302020302020302020302020302020302020302020302020302020300A2020202D322E353838362020202D302E3430363020202020302E303030302043202020302020302020302020302020302020302020302020302020302020302020302020300A2020202D312E373535342020202D302E3430363020202020302E303030302043202020302020302020302020302020302020302020302020302020302020302020302020300A20202020312E353734322020202D312E3733393020202020302E303030302043202020302020302020302020302020302020302020302020302020302020302020302020300A20202020322E323837342020202D312E3332373220202020302E303030302043202020302020302020302020302020302020302020302020302020302020302020302020300A20202020332E303035302020202D312E3734313420202020302E303030302043202020302020302020302020302020302020302020302020302020302020302020302020300A20202020322E323837342020202D302E3530353720202020302E30303030204F202020302020302020302020302020302020302020302020302020302020302020302020300A2020312020322020312020302020202020200A2020322020332020312020302020202020200A2020332020342020312020302020202020200A2020342020352020312020302020202020200A2020312020352020312020302020202020200A2020312020362020312020302020202020200A2020342020362020312020302020202020200A2020372020382020312020302020202020200A2020382020392020322020302020202020200A2020392031302020312020302020202020200A2031302031312020322020302020202020200A2031312031322020312020302020202020200A2020372031322020322020302020202020200A2020342020372020312020302020202020200A2031332031342020312020302020202020200A2031342031352020322020302020202020200A2031352031362020312020302020202020200A2031362031372020322020302020202020200A2031372031382020312020302020202020200A2031332031382020322020302020202020200A2020332031332020312020302020202020200A2031392032302020312020302020202020200A2032302032312020312020302020202020200A2032302032322020322020302020202020200A2020312031392020312020302020202020200A4D2020454E44
Contributor: HAGIWARA H, CHEM. RES. INST. OF NON-AQUEOUS SOLUTIONS, TOHOKU UNIV.
InstType: EI
InstName: JEOL JMS-DX-300
IoniMethod: _ENERGY 70 eV
IonPolarity: pos
Date: 2010-10-09 19:48:36+02:00
Num Peaks: 48
43 999 44 39 50 42 51 183 52 26 58 29 63 53 64 22 65 49 68 28 
69 151 75 32 76 56 77 575 78 90 79 179 85 47 89 73 90 49 91 116 
102 95 103 604 104 91 105 78 106 76 107 162 115 72 116 42 117 250 118 79 
128 23 131 57 145 92 146 36 147 26 152 57 159 38 160 442 161 66 165 98 
166 40 167 63 178 29 187 35 188 516 189 105 191 48 192 28 
