Name: MassBank: JP001727
MW: 360
Formula: C18H32O7
Synonym: MassBank: JP001727
Synonym: 2-HYDROXY-1,2,3-PROPANETRICARBOXYLIC ACIDTRIBUTYL ESTER
Synonym: TRIBUTYL CITRATE
Structure: 322D485944524F58592D312C322C332D50524F50414E45545249434152424F58594C49432041434944545249425554594C2045535445522E6D6F6C0A20204368656D447261773031323131303134323532440A2032352032342020302020302020302020302020302020302020302020303939392056323030300A20202020302E383935312020202D302E3534383720202020302E303030302043202020302020302020302020302020302020302020302020302020302020302020302020300A20202020302E303730312020202D302E3534383720202020302E303030302043202020302020302020302020302020302020302020302020302020302020302020302020300A20202020302E303730312020202D312E3337333720202020302E303030302043202020302020302020302020302020302020302020302020302020302020302020302020300A20202020312E3330373620202020302E3136353820202020302E303030302043202020302020302020302020302020302020302020302020302020302020302020302020300A20202020302E3839353120202020302E3838303320202020302E30303030204F202020302020302020302020302020302020302020302020302020302020302020302020300A20202020322E3133323620202020302E3136353820202020302E30303030204F202020302020302020302020302020302020302020302020302020302020302020302020300A2020202D302E373534392020202D302E3534383720202020302E303030302043202020302020302020302020302020302020302020302020302020302020302020302020300A2020202D312E313637342020202D312E3236333120202020302E30303030204F202020302020302020302020302020302020302020302020302020302020302020302020300A2020202D312E3136373420202020302E3136353820202020302E30303030204F202020302020302020302020302020302020302020302020302020302020302020302020300A20202020302E373834352020202D312E3738363220202020302E303030302043202020302020302020302020302020302020302020302020302020302020302020302020300A20202020312E343939302020202D312E3337333720202020302E30303030204F202020302020302020302020302020302020302020302020302020302020302020302020300A20202020302E373834352020202D322E3631313220202020302E30303030204F202020302020302020302020302020302020302020302020302020302020302020302020300A20202020302E3037303120202020302E3237363320202020302E30303030204F202020302020302020302020302020302020302020302020302020302020302020302020300A20202020322E3534353120202020302E3838303320202020302E303030302043202020302020302020302020302020302020302020302020302020302020302020302020300A20202020322E3133323620202020312E3539343720202020302E303030302043202020302020302020302020302020302020302020302020302020302020302020302020300A20202020322E3534353120202020322E3330393220202020302E303030302043202020302020302020302020302020302020302020302020302020302020302020302020300A20202020322E3133323620202020332E3032333720202020302E303030302043202020302020302020302020302020302020302020302020302020302020302020302020300A2020202D312E3939323420202020302E3136353820202020302E303030302043202020302020302020302020302020302020302020302020302020302020302020302020300A2020202D322E343034392020202D302E3534383720202020302E303030302043202020302020302020302020302020302020302020302020302020302020302020302020300A2020202D332E323239392020202D302E3534383720202020302E303030302043202020302020302020302020302020302020302020302020302020302020302020302020300A2020202D332E363432342020202D312E3236333120202020302E303030302043202020302020302020302020302020302020302020302020302020302020302020302020300A20202020312E343939302020202D332E3032333720202020302E303030302043202020302020302020302020302020302020302020302020302020302020302020302020300A20202020322E323133352020202D322E3631313220202020302E303030302043202020302020302020302020302020302020302020302020302020302020302020302020300A20202020322E393238302020202D332E3032333720202020302E303030302043202020302020302020302020302020302020302020302020302020302020302020302020300A20202020332E363432342020202D322E3631313220202020302E303030302043202020302020302020302020302020302020302020302020302020302020302020302020300A2020312020322020312020302020202020200A2020322020332020312020302020202020200A2020342020352020322020302020202020200A2020342020362020312020302020202020200A2020312020342020312020302020202020200A2020372020382020322020302020202020200A2020372020392020312020302020202020200A2020322020372020312020302020202020200A2031302031312020322020302020202020200A2031302031322020312020302020202020200A2020332031302020312020302020202020200A2020322031332020312020302020202020200A2031342031352020312020302020202020200A2031352031362020312020302020202020200A2031362031372020312020302020202020200A2020362031342020312020302020202020200A2031382031392020312020302020202020200A2031392032302020312020302020202020200A2032302032312020312020302020202020200A2020392031382020312020302020202020200A2032322032332020312020302020202020200A2032332032342020312020302020202020200A2032342032352020312020302020202020200A2031322032322020312020302020202020200A4D2020454E44
Contributor: MASS SPECTROSCOPY SOC. OF JAPAN (MSSJ)
InstType: EI
InstName: Unknown
IoniMethod: EI
IonPolarity: pos
Date: 2010-10-09 19:48:36+02:00
Num Peaks: 72
29 33 31 5 41 58 42 7 43 41 57 267 58 11 60 8 61 9 69 3 
73 2 83 4 84 11 85 7 86 2 87 36 89 1 90 52 95 7 101 5 
102 52 103 26 105 10 111 89 112 16 113 36 114 1 115 10 116 3 125 2 
128 7 129 828 130 63 131 20 132 151 134 2 139 23 140 3 141 2 142 1 
143 24 144 2 145 1 147 162 148 9 149 2 156 6 157 62 158 58 159 10 
169 31 171 2 175 17 185 999 186 159 187 24 188 1 189 9 203 70 204 7 
213 22 214 3 231 11 245 9 259 541 260 81 261 13 269 6 287 10 305 2 
361 16 362 3 
