Name: 3-METHYL-1-PENTANOL
MW: 102
Formula: C6H14O
Synonym: MassBank: JP008780
Synonym: 3-METHYL-1-PENTANOL
Structure: 310A31380A332D4D455448594C2D312D50454E54414E4F4C2E6D6F6C0A20204368656D447261773032323231303233323332440A2020372020362020302020302020302020302020302020302020302020303939392056323030300A20202020312E303331332020202D302E3731343520202020302E303030302043202020302020302020302020302020302020302020302020302020302020302020302020300A20202020302E323036322020202D302E3731343520202020302E303030302043202020302020302020302020302020302020302020302020302020302020302020302020300A2020202D302E3230363320202020302E3030303020202020302E303030302043202020302020302020302020302020302020302020302020302020302020302020302020300A2020202D312E3033313320202020302E3030303020202020302E303030302043202020302020302020302020302020302020302020302020302020302020302020302020300A2020202D312E343433382020202D302E3731343520202020302E303030302043202020302020302020302020302020302020302020302020302020302020302020302020300A20202020312E3434333820202020302E3030303020202020302E30303030204F202020302020302020302020302020302020302020302020302020302020302020302020300A20202020302E3230363220202020302E3731343520202020302E303030302043202020302020302020302020302020302020302020302020302020302020302020302020300A2020312020322020312020302020202020200A2020322020332020312020302020202020200A2020332020342020312020302020202020200A2020342020352020312020302020202020200A2020312020362020312020302020202020200A2020332020372020312020302020202020200A4D2020454E44
Contributor: UOEH
InstType: EI
InstName: HP 5970
IoniMethod: _ENERGY 70 eV
IonPolarity: pos
Date: 2010-10-09 19:48:36+02:00
Num Peaks: 28
37 3 39 176 41 685 42 37 43 620 44 51 45 97 46 32 50 6 51 14 
52 1 53 37 55 496 56 999 57 262 58 4 59 21 63 6 67 13 69 439 
70 25 71 36 72 3 73 9 74 7 83 8 84 110 85 10 
