Name: 1-METHYLCYCLOHEXENE
MW: 96
Formula: C7H12
Synonym: MassBank: JP005341
Synonym: 1-METHYLCYCLOHEXENE
Structure: 310A32310A312D4D455448594C4359434C4F484558454E452E6D6F6C0A20204368656D447261773131323030393135353632440A2020382020382020302020302020302020302020302020302020302020303939392056323030300A2020202D302E343132352020202D302E3335373220202020302E303030302043202020302020302020302020302020302020302020302020302020302020302020302020300A2020202D302E3030303020202020302E3335373220202020302E303030302043202020302020302020302020302020302020302020302020302020302020302020302020300A20202020302E3832353020202020302E3335373220202020302E303030302043202020302020302020302020302020302020302020302020302020302020302020302020300A20202020312E323337352020202D302E3335373220202020302E303030302043202020302020302020302020302020302020302020302020302020302020302020302020300A20202020302E383235302020202D312E3037313720202020302E303030302043202020302020302020302020302020302020302020302020302020302020302020302020300A2020202D302E303030302020202D312E3037313720202020302E303030302043202020302020302020302020302020302020302020302020302020302020302020302020300A2020202D312E323337352020202D302E3335373220202020302E303030302043202020302020302020302020302020302020302020302020302020302020302020302020300A2020202D302E3431323520202020312E3037313720202020302E303030302048202020302020302020302020302020302020302020302020302020302020302020302020300A2020312020322020322020302020202020200A2020322020332020312020302020202020200A2020332020342020312020302020202020200A2020342020352020312020302020202020200A2020352020362020312020302020202020200A2020312020362020312020302020202020200A2020312020372020312020302020202020200A2020322020382020312020302020202020200A4D2020454E44
Contributor: YAMAMOTO M, DEP. CHEMISTRY, FAC. SCIENCE, NARA WOMEN'S UNIV.
InstType: EI
InstName: HITACHI RMU-6M
IoniMethod: _ENERGY 70 eV
IonPolarity: pos
Date: 2010-10-09 19:48:36+02:00
Num Peaks: 43
27 13 28 144 29 25 30 75 32 8 33 6 38 5 39 21 40 232 41 59 
42 164 43 32 44 10 46 9 47 10 50 25 51 54 52 28 53 177 54 186 
55 337 56 23 59 6 62 8 63 19 65 41 66 37 67 396 68 420 69 24 
71 13 77 57 78 15 79 101 80 21 81 999 82 66 91 25 93 13 94 5 
95 74 96 383 97 29 
