Name: MassBank: JP001968
MW: 226
Formula: C13H26OSi
Synonym: MassBank: JP001968
Synonym: 2,2,5,5-TETRAMETHYL-3-(TRIMETHYLSILYLMETHYL)CYCLOPENTANONE
Structure: 322C322C352C352D54455452414D455448594C2D332D285452494D455448594C53494C594C4D455448594C294359434C4F50454E54414E4F4E452E6D6F6C0A20204368656D447261773132313930393134353132440A2031352031352020302020302020302020302020302020302020302020303939392056323030300A2020202D302E303835382020202D312E3331343320202020302E303030302043202020302020302020302020302020302020302020302020302020302020302020302020300A2020202D302E363938392020202D302E3736323320202020302E303030302043202020302020302020302020302020302020302020302020302020302020302020302020300A2020202D302E333633332020202D302E3030383620202020302E303030302043202020302020302020302020302020302020302020302020302020302020302020302020300A20202020302E343537322020202D302E3039343820202020302E303030302043202020302020302020302020302020302020302020302020302020302020302020302020300A20202020302E363238372020202D302E3930313820202020302E303030302043202020302020302020302020302020302020302020302020302020302020302020302020300A2020202D302E3737353820202020302E3730353920202020302E303030302043202020302020302020302020302020302020302020302020302020302020302020302020300A2020202D302E3336333320202020312E3432303320202020302E303030302053692020302020302020302020302020302020302020302020302020302020302020302020300A20202020302E3034393220202020322E3133343820202020302E303030302043202020302020302020302020302020302020302020302020302020302020302020302020300A20202020302E3335313220202020312E3030373820202020302E303030302043202020302020302020302020302020302020302020302020302020302020302020302020300A2020202D312E3037373820202020312E3833323820202020302E303030302043202020302020302020302020302020302020302020302020302020302020302020302020300A20202020312E343133332020202D302E3634363920202020302E303030302043202020302020302020302020302020302020302020302020302020302020302020302020300A20202020302E393634332020202D312E3635353520202020302E303030302043202020302020302020302020302020302020302020302020302020302020302020302020300A2020202D312E313833382020202D312E3432393720202020302E303030302043202020302020302020302020302020302020302020302020302020302020302020302020300A2020202D312E343133332020202D302E3334393820202020302E303030302043202020302020302020302020302020302020302020302020302020302020302020302020300A2020202D302E313732302020202D322E3133343820202020302E30303030204F202020302020302020302020302020302020302020302020302020302020302020302020300A2020312020322020312020302020202020200A2020322020332020312020302020202020200A2020332020342020312020302020202020200A2020342020352020312020302020202020200A2020312020352020312020302020202020200A2020372020382020312020302020202020200A2020372020392020312020312020202020200A2020372031302020312020312020202020200A2020362020372020312020302020202020200A2020332020362020312020302020202020200A2020352031312020312020362020202020200A2020352031322020312020312020202020200A2020322031332020312020362020202020200A2020322031342020312020312020202020200A2020312031352020322020302020202020200A4D2020454E44
Contributor: MASS SPECTROSCOPY SOC. OF JAPAN (MSSJ)
InstType: EI
InstName: JEOL JMS-D-3000
IoniMethod: _ENERGY 70 eV
IonPolarity: pos
Date: 2010-10-09 19:48:36+02:00
Num Peaks: 28
41 80 43 23 45 74 55 51 59 84 67 43 69 32 72 26 73 999 74 89 
75 165 83 93 84 24 95 699 96 57 113 35 121 31 142 41 155 79 156 70 
170 29 185 530 186 92 187 27 211 84 226 810 227 159 228 43 
