Name: PENTATRIMETHYLSILYL GLUCOSAMINE
MW: 539
Formula: C21H53NO5Si5
Synonym: MassBank: JP004554
Synonym: PENTATRIMETHYLSILYL GLUCOSAMINE
Synonym: 1,2,3,4,6-PENTATRIMETHYLSILYL 2-AMINO-2-DEOXY-D-GLUCOSE
Structure: 50454E54415452494D455448594C53494C594C20474C55434F53414D494E452E6D6F6C0A20204368656D447261773130323330393132323732440A2033362033352020302020302020302020302020302020302020302020303939392056323030300A2020202D312E333832302020202D312E3235363320202020302E30303030204F202020302020302020302020302020302020302020302020302020302020302020302020300A2020202D302E363439362020202D302E3838333320202020302E303030302043202020302020302020302020302020302020302020302020302020302020302020302020300A20202020302E333538372020202D302E3530353320202020302E303030302043202020302020302020302020302020302020302020302020302020302020302020302020300A20202020312E363738372020202D302E3530353320202020302E303030302043202020302020302020302020302020302020302020302020302020302020302020302020300A20202020322E353033372020202D302E3530353320202020302E303030302043202020302020302020302020302020302020302020302020302020302020302020302020300A20202020332E333238372020202D302E3530353320202020302E30303030204F202020302020302020302020302020302020302020302020302020302020302020302020300A2020202D312E3138353920202020302E3034353520202020302E303030302043202020302020302020302020302020302020302020302020302020302020302020302020300A2020202D302E333135382020202D312E3633373420202020302E303030302048202020302020302020302020302020302020302020302020302020302020302020302020300A20202020302E3033343820202020302E3532363520202020302E30303030204F202020302020302020302020302020302020302020302020302020302020302020302020300A20202020302E353036372020202D312E3332303720202020302E303030302048202020302020302020302020302020302020302020302020302020302020302020302020300A20202020312E3637383720202020302E3332333620202020302E303030302048202020302020302020302020302020302020302020302020302020302020302020302020300A20202020312E363738372020202D312E3332363420202020302E30303030204E202020302020302020302020302020302020302020302020302020302020302020302020300A20202020322E333936382020202D312E3734313020202020302E303030302053692020302020302020302020302020302020302020302020302020302020302020302020300A20202020332E313131332020202D322E3135333520202020302E303030302043202020302020302020302020302020302020302020302020302020302020302020302020300A20202020322E383132392020202D312E3032303320202020302E303030302043202020302020302020302020302020302020302020302020302020302020302020302020300A20202020312E393837392020202D322E3434393220202020302E303030302043202020302020302020302020302020302020302020302020302020302020302020302020300A2020202D312E343235322020202D322E3038303220202020302E303030302053692020302020302020302020302020302020302020302020302020302020302020302020300A2020202D312E343638342020202D322E3930343020202020302E303030302043202020302020302020302020302020302020302020302020302020302020302020302020300A2020202D322E323439312020202D322E3033373020202020302E303030302043202020302020302020302020302020302020302020302020302020302020302020302020300A2020202D302E363031332020202D322E3132333420202020302E303030302043202020302020302020302020302020302020302020302020302020302020302020302020300A2020202D312E3539383420202020302E3736303020202020302E303030302043202020302020302020302020302020302020302020302020302020302020302020302020300A2020202D302E3437343120202020302E3435363420202020302E303030302048202020302020302020302020302020302020302020302020302020302020302020302020300A2020202D312E393033312020202D302E3336383620202020302E30303030204F202020302020302020302020302020302020302020302020302020302020302020302020300A2020202D322E3631333920202020302E3034313820202020302E303030302053692020302020302020302020302020302020302020302020302020302020302020302020300A2020202D332E3332383720202020302E3435343520202020302E303030302043202020302020302020302020302020302020302020302020302020302020302020302020300A2020202D322E3139333020202020302E3737303820202020302E303030302043202020302020302020302020302020302020302020302020302020302020302020302020300A2020202D332E303138302020202D302E3635383120202020302E303030302043202020302020302020302020302020302020302020302020302020302020302020302020300A2020202D312E3138393320202020312E3436383520202020302E30303030204F202020302020302020302020302020302020302020302020302020302020302020302020300A2020202D312E3630353620202020322E3138393520202020302E303030302053692020302020302020302020302020302020302020302020302020302020302020302020300A2020202D322E3031383120202020322E3930343020202020302E303030302043202020302020302020302020302020302020302020302020302020302020302020302020300A2020202D302E3839393120202020322E3539373420202020302E303030302043202020302020302020302020302020302020302020302020302020302020302020302020300A2020202D322E3332383020202020312E3737323420202020302E303030302043202020302020302020302020302020302020302020302020302020302020302020302020300A20202020302E3631383220202020312E3130393920202020302E303030302053692020302020302020302020302020302020302020302020302020302020302020302020300A20202020312E3137303520202020312E3732333320202020302E303030302043202020302020302020302020302020302020302020302020302020302020302020302020300A20202020302E3032343620202020312E3730333420202020302E303030302043202020302020302020302020302020302020302020302020302020302020302020302020300A20202020312E3139313420202020302E3533363720202020302E303030302043202020302020302020302020302020302020302020302020302020302020302020302020300A2020312020322020312020302020202020200A2020322020332020312020302020202020200A2020332020342020312020302020202020200A2020342020352020312020302020202020200A2020352020362020322020302020202020200A2020322020372020312020312020202020200A2020322020382020312020312020202020200A2020332020392020312020312020202020200A2020332031302020312020312020202020200A2020342031312020312020312020202020200A2020342031322020312020312020202020200A2031322031332020312020302020202020200A2031332031342020312020302020202020200A2031332031352020312020302020202020200A2031332031362020312020302020202020200A2020312031372020312020302020202020200A2031372031382020312020302020202020200A2031372031392020312020302020202020200A2031372032302020312020302020202020200A2020372032312020312020302020202020200A2020372032322020312020312020202020200A2020372032332020312020312020202020200A2032332032342020312020302020202020200A2032342032352020312020302020202020200A2032342032362020312020312020202020200A2032342032372020312020312020202020200A2032312032382020312020302020202020200A2032382032392020312020302020202020200A2032392033302020312020302020202020200A2032392033312020312020312020202020200A2032392033322020312020312020202020200A2020392033332020312020302020202020200A2033332033342020312020302020202020200A2033332033352020312020312020202020200A2033332033362020312020312020202020200A4D2020454E44
Contributor: HAYASHI A, DEPT. OF CHEMISTRY, FAC. OF SCI. AND TECHNOLOGY, KINKI UNIV.
InstType: EI
InstName: SHIMADZU LKB-9000B
IoniMethod: _ENERGY 70 eV
IonPolarity: pos
Date: 2010-10-09 19:48:36+02:00
Num Peaks: 79
55 17 56 16 57 28 59 4 61 12 67 10 69 14 70 1 71 11 72 19 
73 916 74 9 75 435 76 39 77 27 79 1 80 16 81 10 82 2 83 1 
84 15 85 7 89 20 91 1 93 1 95 8 97 2 100 4 101 23 102 14 
103 95 104 2 105 27 108 13 109 4 111 0 115 26 116 31 117 88 118 2 
119 16 123 13 128 37 129 5 130 24 131 872 132 100 133 8 142 17 143 12 
144 88 145 3 146 13 147 165 148 35 149 9 156 15 169 14 172 13 188 2 
189 30 191 64 200 14 202 4 203 999 204 293 205 119 206 2 216 130 217 182 
218 75 219 3 231 30 232 19 259 12 303 3 304 67 305 27 434 12 
