Name: MassBank: JP009966
MW: 318
Formula: C14H20Cl2N2O2
Synonym: MassBank: JP009966
Synonym: METHYL 2-AMINO-3-(4-(N,N-BIS(2-CHLOROETHYL)AMINO)PHENYLPROPIONATE
Structure: 303832325F4D455448594C20322D414D494E4F2D332D28342D284E2C4E2D42495328322D43484C4F524F455448594C29414D494E4F295048454E594C50524F50494F4E4154452E6D6F6C0A20204368656D447261773130323031303137353032440A2032302032302020302020302020302020302020302020302020302020303939392056323030300A2020202D312E3037323320202020302E3832353020202020302E303030302043202020302020302020302020302020302020302020302020302020302020302020302020300A2020202D312E3037323320202020302E3030303020202020302E303030302043202020302020302020302020302020302020302020302020302020302020302020302020300A2020202D302E333537382020202D302E3431323520202020302E303030302043202020302020302020302020302020302020302020302020302020302020302020302020300A20202020302E3335363720202020302E3030303020202020302E303030302043202020302020302020302020302020302020302020302020302020302020302020302020300A20202020302E3335363720202020302E3832353020202020302E303030302043202020302020302020302020302020302020302020302020302020302020302020302020300A2020202D302E3335373820202020312E3233373520202020302E303030302043202020302020302020302020302020302020302020302020302020302020302020302020300A2020202D302E3335373820202020322E3036323520202020302E30303030204E202020302020302020302020302020302020302020302020302020302020302020302020300A2020202D312E3037323320202020322E3437353020202020302E303030302043202020302020302020302020302020302020302020302020302020302020302020302020300A20202020302E3335363720202020322E3437353020202020302E303030302043202020302020302020302020302020302020302020302020302020302020302020302020300A20202020312E3037313120202020322E3036323520202020302E303030302043202020302020302020302020302020302020302020302020302020302020302020302020300A20202020312E3738363820202020322E3437353020202020302E3030303020436C2020302020302020302020302020302020302020302020302020302020302020302020300A2020202D312E3037323320202020332E3330303020202020302E303030302043202020302020302020302020302020302020302020302020302020302020302020302020300A2020202D312E3738353720202020332E3731323520202020302E3030303020436C2020302020302020302020302020302020302020302020302020302020302020302020300A2020202D312E373836382020202D322E3838373520202020302E30303030204F202020302020302020302020302020302020302020302020302020302020302020302020300A2020202D312E303732332020202D322E3437353020202020302E303030302043202020302020302020302020302020302020302020302020302020302020302020302020300A2020202D312E303732332020202D312E3635303020202020302E303030302043202020302020302020302020302020302020302020302020302020302020302020302020300A2020202D302E333537382020202D312E3233373520202020302E303030302043202020302020302020302020302020302020302020302020302020302020302020302020300A2020202D312E373836382020202D312E3233373520202020302E30303030204E202020302020302020302020302020302020302020302020302020302020302020302020300A2020202D302E333537382020202D322E3838373520202020302E30303030204F202020302020302020302020302020302020302020302020302020302020302020302020300A2020202D312E373836382020202D332E3731323520202020302E303030302043202020302020302020302020302020302020302020302020302020302020302020302020300A2020312020322020322020302020202020200A2020322020332020312020302020202020200A2020332020342020322020302020202020200A2020342020352020312020302020202020200A2020352020362020322020302020202020200A2020362020312020312020302020202020200A2020362020372020312020302020202020200A2020372020382020312020302020202020200A2020372020392020312020302020202020200A2020392031302020312020302020202020200A2031302031312020312020302020202020200A2020382031322020312020302020202020200A2031322031332020312020302020202020200A2020332031372020312020302020202020200A2031342031352020312020302020202020200A2031352031362020312020302020202020200A2031362031372020312020302020202020200A2031362031382020312020302020202020200A2031352031392020322020302020202020200A2031342032302020312020302020202020200A4D2020454E44
Contributor: KURARAY CO., LTD.
InstType: EI
InstName: JEOL JMS-D-300
IoniMethod: _ENERGY 70 eV
IonPolarity: pos
Date: 2010-10-09 19:48:36+02:00
Num Peaks: 26
63 25 90 31 91 31 105 4 117 20 118 200 119 81 132 4 146 44 149 47 
168 30 181 8 183 20 194 22 209 16 212 4 230 999 231 125 232 647 233 9 
234 128 259 72 261 45 269 1 318 30 320 20 
