Name: BROMOETHANE
MW: 107
Formula: C2H5Br
Synonym: MassBank: JP006165
Synonym: BROMOETHANE
Structure: 310A31300A42524F4D4F455448414E452E6D6F6C0A20204368656D447261773039303631303031323332440A2020332020322020302020302020302020302020302020302020302020303939392056323030300A20202020302E373134352020202D302E3230363320202020302E303030302043202020302020302020302020302020302020302020302020302020302020302020302020300A20202020302E3030303020202020302E3230363320202020302E303030302043202020302020302020302020302020302020302020302020302020302020302020302020300A2020202D302E373134352020202D302E3230363320202020302E303030302042722020302020302020302020302020302020302020302020302020302020302020302020300A2020312020322020312020302020202020200A2020322020332020312020302020202020200A4D2020454E44
Contributor: HASHIMOTO K, KYOTO COLLEGE OF PHARMACY
InstType: EI
InstName: HITACHI M-80
IoniMethod: _ENERGY 20 eV
IonPolarity: pos
Date: 2010-10-09 19:48:36+02:00
Num Peaks: 12
15 14 26 121 27 884 28 307 29 999 30 43 93 10 95 9 108 233 109 18 
110 211 111 12 
