Name: 2-BENZOYL-1-METHYLINDOLE
MW: 235
Formula: C16H13NO
Synonym: MassBank: JP004434
Synonym: 2-BENZOYL-1-METHYLINDOLE
Synonym: 1-METHYL-2-INDOLYL PHENYL KETONE
Structure: 322D42454E5A4F594C2D312D4D455448594C494E444F4C452E6D6F6C0A20204368656D447261773131313930393136323832440A2031392032312020302020302020302020302020302020302020302020303939392056323030300A20202020302E323433362020202D302E3538363020202020302E30303030204E202020302020302020302020302020302020302020302020302020302020302020302020300A20202020302E3135373320202020302E3233343520202020302E303030302043202020302020302020302020302020302020302020302020302020302020302020302020300A20202020302E3931313020202020302E3537303020202020302E303030302043202020302020302020302020302020302020302020302020302020302020302020302020300A20202020312E343633302020202D302E3034333020202020302E303030302043202020302020302020302020302020302020302020302020302020302020302020302020300A20202020322E323838302020202D302E3034333020202020302E303030302043202020302020302020302020302020302020302020302020302020302020302020302020300A20202020322E373030352020202D302E3735373520202020302E303030302043202020302020302020302020302020302020302020302020302020302020302020302020300A20202020322E323838302020202D312E3437323020202020302E303030302043202020302020302020302020302020302020302020302020302020302020302020302020300A20202020312E343633302020202D312E3437323020202020302E303030302043202020302020302020302020302020302020302020302020302020302020302020302020300A20202020312E303530352020202D302E3735373520202020302E303030302043202020302020302020302020302020302020302020302020302020302020302020302020300A2020202D302E333639352020202D312E3133383020202020302E303030302043202020302020302020302020302020302020302020302020302020302020302020302020300A2020202D302E3535373120202020302E3634373020202020302E303030302043202020302020302020302020302020302020302020302020302020302020302020302020300A2020202D312E3237313620202020302E3233343520202020302E303030302043202020302020302020302020302020302020302020302020302020302020302020302020300A2020202D312E323731362020202D302E3539303520202020302E303030302043202020302020302020302020302020302020302020302020302020302020302020302020300A2020202D312E393836312020202D312E3030333020202020302E303030302043202020302020302020302020302020302020302020302020302020302020302020302020300A2020202D322E373030352020202D302E3539303520202020302E303030302043202020302020302020302020302020302020302020302020302020302020302020302020300A2020202D322E3730303520202020302E3233343520202020302E303030302043202020302020302020302020302020302020302020302020302020302020302020302020300A2020202D312E3938363120202020302E3634373020202020302E303030302043202020302020302020302020302020302020302020302020302020302020302020302020300A2020202D302E3535373120202020312E3437323020202020302E30303030204F202020302020302020302020302020302020302020302020302020302020302020302020300A20202020312E3038323520202020312E3337373020202020302E303030302048202020302020302020302020302020302020302020302020302020302020302020302020300A2020312020322020312020302020202020200A2020322020332020322020302020202020200A2020332020342020312020302020202020200A2020342020352020312020302020202020200A2020352020362020322020302020202020200A2020362020372020312020302020202020200A2020372020382020322020302020202020200A2020382020392020312020302020202020200A2020312020392020312020302020202020200A2020342020392020322020302020202020200A2020312031302020312020302020202020200A2031312031322020312020302020202020200A2031322031332020312020302020202020200A2031332031342020322020302020202020200A2031342031352020312020302020202020200A2031352031362020322020302020202020200A2031362031372020312020302020202020200A2031322031372020322020302020202020200A2031312031382020322020302020202020200A2020322031312020312020302020202020200A2020332031392020312020302020202020200A4D2020454E44
Contributor: SASAKI S, TOYOHASHI UNIV. OF TECH.
InstType: EI
InstName: MX-1303
IoniMethod: _ENERGY 50 eV
IonPolarity: pos
Date: 2010-10-09 19:48:36+02:00
Num Peaks: 41
41 25 43 26 51 117 55 2 57 19 63 61 69 27 75 1 76 24 77 618 
78 31 88 1 89 100 90 33 91 55 101 1 102 32 103 33 105 230 115 2 
126 62 129 23 130 147 131 1 158 167 165 19 178 11 204 3 205 11 206 80 
207 11 216 1 217 33 218 90 219 12 220 1 232 16 233 73 234 999 235 96 
236 142 
