Name: 1.5-CYCLOOCTADIENE
MW: 108
Formula: C8H12
Synonym: MassBank: JP001558
Synonym: 1.5-CYCLOOCTADIENE
Structure: 310A32310A312E352D4359434C4F4F4354414449454E452E6D6F6C0A20204368656D447261773131323230393233303832440A2020382020382020302020302020302020302020302020302020302020303939392056323030300A20202020302E393935392020202D302E3431323520202020302E303030302043202020302020302020302020302020302020302020302020302020302020302020302020300A20202020302E343132352020202D302E3939353920202020302E303030302043202020302020302020302020302020302020302020302020302020302020302020302020300A2020202D302E343132352020202D302E3939353920202020302E303030302043202020302020302020302020302020302020302020302020302020302020302020302020300A2020202D302E393935392020202D302E3431323520202020302E303030302043202020302020302020302020302020302020302020302020302020302020302020302020300A2020202D302E3939353920202020302E3431323520202020302E303030302043202020302020302020302020302020302020302020302020302020302020302020302020300A2020202D302E3431323520202020302E3939353920202020302E303030302043202020302020302020302020302020302020302020302020302020302020302020302020300A20202020302E3431323520202020302E3939353920202020302E303030302043202020302020302020302020302020302020302020302020302020302020302020302020300A20202020302E3939353920202020302E3431323520202020302E303030302043202020302020302020302020302020302020302020302020302020302020302020302020300A2020312020322020322020302020202020200A2020322020332020312020302020202020200A2020332020342020312020302020202020200A2020342020352020312020302020202020200A2020352020362020322020302020202020200A2020362020372020312020302020202020200A2020372020382020312020302020202020200A2020312020382020312020302020202020200A4D2020454E44
Contributor: YAMAMOTO M, DEP. CHEMISTRY, FAC. SCIENCE, NARA WOMEN'S UNIV.
InstType: EI
InstName: HITACHI RMU-6M
IoniMethod: _ENERGY 70 eV
IonPolarity: pos
Date: 2010-10-09 19:48:36+02:00
Num Peaks: 33
26 22 27 210 28 75 29 30 38 29 39 472 40 44 41 231 42 15 50 46 
51 98 52 55 53 138 54 999 55 59 62 11 63 26 65 84 66 197 67 826 
68 51 77 127 78 54 79 359 80 428 81 35 91 81 92 10 93 135 94 11 
107 16 108 114 109 11 
