Name: ETHYLHYDRAZONE METHYLETHYLKETONE
MW: 114
Formula: C6H14N2
Synonym: MassBank: JP000823
Synonym: ETHYLHYDRAZONE METHYLETHYLKETONE
Synonym: 2-BUTANONE ETHYLHYDRAZONE
Structure: 310A32300A455448594C48594452415A4F4E45204D455448594C455448594C4B45544F4E452E6D6F6C0A20204368656D447261773132323130393233313532440A2020382020372020302020302020302020302020302020302020302020303939392056323030300A20202020312E373836322020202D302E3832353020202020302E303030302043202020302020302020302020302020302020302020302020302020302020302020302020300A20202020312E303731372020202D302E3431323520202020302E303030302043202020302020302020302020302020302020302020302020302020302020302020302020300A20202020312E3037313720202020302E3431323520202020302E303030302043202020302020302020302020302020302020302020302020302020302020302020302020300A20202020302E3335373220202020302E3832353020202020302E303030302043202020302020302020302020302020302020302020302020302020302020302020302020300A20202020302E333537322020202D302E3832353020202020302E30303030204E202020302020302020302020302020302020302020302020302020302020302020302020300A2020202D302E333537322020202D302E3431323520202020302E30303030204E202020302020302020302020302020302020302020302020302020302020302020302020300A2020202D312E303731372020202D302E3832353020202020302E303030302043202020302020302020302020302020302020302020302020302020302020302020302020300A2020202D312E373836322020202D302E3431323520202020302E303030302043202020302020302020302020302020302020302020302020302020302020302020302020300A2020312020322020312020302020202020200A2020322020332020312020302020202020200A2020332020342020312020302020202020200A2020352020362020312020302020202020200A2020372020382020312020302020202020200A2020362020372020312020302020202020200A2020322020352020322020302020202020200A4D2020454E44
Contributor: SASAKI S, TOYOHASHI UNIV. OF TECH.
InstType: EI
InstName: SHIMADZU LKB-2091
IoniMethod: _ENERGY 70 eV
IonPolarity: pos
Date: 2010-10-09 19:48:36+02:00
Num Peaks: 29
27 145 29 200 30 150 31 2 39 55 40 17 41 121 42 999 43 92 44 385 
45 34 46 1 53 13 54 26 55 47 56 8 57 42 58 25 68 84 69 3 
70 263 71 71 85 66 86 2 99 500 100 40 113 27 114 50 115 53 
