Name: CHLOROETHANE
CAS: 75-00-3
MW: 64
Formula: C2H5Cl
Synonym: MassBank: JP000952
Synonym: CHLOROETHANE
Structure: 310A31300A43484C4F524F455448414E452E6D6F6C0A20204368656D447261773039303731303034323932440A2020332020322020302020302020302020302020302020302020302020303939392056323030300A20202020302E373134352020202D302E3230363320202020302E303030302043202020302020302020302020302020302020302020302020302020302020302020302020300A2020202D302E3030303020202020302E3230363320202020302E303030302043202020302020302020302020302020302020302020302020302020302020302020302020300A2020202D302E373134352020202D302E3230363320202020302E3030303020436C2020302020302020302020302020302020302020302020302020302020302020302020300A2020312020322020312020302020202020200A2020322020332020312020302020202020200A4D2020454E44
Contributor: KOGA M, UNIV. OF OCCUPATIONAL AND ENVIRONMENTAL HEALTH
InstType: EI
InstName: JEOL JMS-01-SG
IoniMethod: _ENERGY 70 eV
IonPolarity: pos
Date: 2010-10-09 19:48:36+02:00
Num Peaks: 19
25 76 26 398 27 827 28 85 29 781 35 76 36 44 37 3 47 43 48 41 
49 270 51 9 60 38 61 40 62 37 63 6 64 999 65 42 66 350 
