Name: MassBank: JP003257
MW: 226
Formula: C8H10N4S2
Synonym: MassBank: JP003257
Synonym: 2-NORMAL-PROPYLTHIO-5-AMINOTHIAZOLO(5,4-D)PYRIMIDINE
Structure: 322D4E4F524D414C2D50524F50594C5448494F2D352D414D494E4F544849415A4F4C4F28352C342D4429505952494D4944494E452E6D6F6C0A20204368656D447261773032323131303132323232440A2031342031352020302020302020302020302020302020302020302020303939392056323030300A20202020302E3830303620202020302E3731343520202020302E303030302043202020302020302020302020302020302020302020302020302020302020302020302020300A20202020302E383030362020202D302E3131303520202020302E303030302043202020302020302020302020302020302020302020302020302020302020302020302020300A20202020312E353135302020202D302E3532333020202020302E303030302043202020302020302020302020302020302020302020302020302020302020302020302020300A20202020322E323239342020202D302E3131303520202020302E30303030204E202020302020302020302020302020302020302020302020302020302020302020302020300A20202020322E3232393420202020302E3731343520202020302E303030302043202020302020302020302020302020302020302020302020302020302020302020302020300A20202020312E3531353020202020312E3132373020202020302E30303030204E202020302020302020302020302020302020302020302020302020302020302020302020300A20202020302E3031353920202020302E3936393420202020302E303030302053202020302020302020302020302020302020302020302020302020302020302020302020300A2020202D302E3436393020202020302E3330323020202020302E303030302043202020302020302020302020302020302020302020302020302020302020302020302020300A20202020302E303135392020202D302E3336353520202020302E30303030204E202020302020302020302020302020302020302020302020302020302020302020302020300A20202020322E3934333920202020312E3132373020202020302E30303030204E202020302020302020302020302020302020302020302020302020302020302020302020300A2020202D312E3239343020202020302E3330323020202020302E303030302053202020302020302020302020302020302020302020302020302020302020302020302020300A2020202D312E373036342020202D302E3431323520202020302E303030302043202020302020302020302020302020302020302020302020302020302020302020302020300A2020202D322E353331342020202D302E3431323520202020302E303030302043202020302020302020302020302020302020302020302020302020302020302020302020300A2020202D322E393433392020202D312E3132373020202020302E303030302043202020302020302020302020302020302020302020302020302020302020302020302020300A2020312020322020322020302020202020200A2020322020332020312020302020202020200A2020332020342020322020302020202020200A2020342020352020312020302020202020200A2020352020362020322020302020202020200A2020362020312020312020302020202020200A2020312020372020312020302020202020200A2020372020382020312020302020202020200A2020382020392020322020302020202020200A2020392020322020312020302020202020200A2020352031302020312020302020202020200A2020382031312020312020302020202020200A2031312031322020312020302020202020200A2031322031332020312020302020202020200A2031332031342020312020302020202020200A4D2020454E44
Contributor: MASS SPECTROSCOPY SOC. OF JAPAN (MSSJ)
InstType: EI
InstName: HITACHI RMU-6E
IoniMethod: _ENERGY 70 eV
IonPolarity: pos
Date: 2010-10-09 19:48:36+02:00
Num Peaks: 10
226 500 193 150 184 999 179 70 142 330 125 50 124 40 97 150 85 90 83 60 
