Name: MassBank: JP001613
CAS: 121-14-2
MW: 182
Formula: C7H6N2O4
Synonym: MassBank: JP001613
Synonym: 1-METHYL-2,4-DINITROBENZENE
Synonym: 2,4-DINITROTOLUENE
Structure: 312D4D455448594C2D322C342D44494E4954524F42454E5A454E452E6D6F6C0A20204368656D447261773131313930393136323432440A2031332031332020302020302020302020302020302020302020302020303939392056323030300A20202020302E3832353020202020302E3731343520202020302E303030302043202020302020302020302020302020302020302020302020302020302020302020302020300A2020202D302E3030303020202020302E3731343520202020302E303030302043202020302020302020302020302020302020302020302020302020302020302020302020300A2020202D302E343132352020202D302E3030303020202020302E303030302043202020302020302020302020302020302020302020302020302020302020302020302020300A2020202D302E303030302020202D302E3731343520202020302E303030302043202020302020302020302020302020302020302020302020302020302020302020302020300A20202020302E383235302020202D302E3731343520202020302E303030302043202020302020302020302020302020302020302020302020302020302020302020302020300A20202020312E3233373520202020302E3030303020202020302E303030302043202020302020302020302020302020302020302020302020302020302020302020302020300A2020202D302E343132352020202D312E3432383920202020302E30303030204E202020302020332020302020302020302020302020302020302020302020302020302020300A2020202D312E323337352020202D312E3432383920202020302E30303030204F202020302020302020302020302020302020302020302020302020302020302020302020300A2020202D302E303030302020202D322E3134333420202020302E30303030204F202020302020352020302020302020302020302020302020302020302020302020302020300A2020202D302E3431323520202020312E3432383920202020302E30303030204E202020302020332020302020302020302020302020302020302020302020302020302020300A2020202D312E3233373520202020312E3432383920202020302E30303030204F202020302020302020302020302020302020302020302020302020302020302020302020300A2020202D302E3030303020202020322E3134333420202020302E30303030204F202020302020352020302020302020302020302020302020302020302020302020302020300A20202020312E3233373520202020312E3432383920202020302E303030302043202020302020302020302020302020302020302020302020302020302020302020302020300A2020312020322020312020302020202020200A2020322020332020322020302020202020200A2020332020342020312020302020202020200A2020342020352020322020302020202020200A2020352020362020312020302020202020200A2020312020362020322020302020202020200A2020372020382020322020302020202020200A2020372020392020312020302020202020200A2020342020372020312020302020202020200A2031302031312020322020302020202020200A2031302031322020312020302020202020200A2020322031302020312020302020202020200A2020312031332020312020302020202020200A4D202043484720203420202037202020312020203920202D3120203130202020312020313220202D310A4D2020454E44
Contributor: KOGA M, UNIV. OF OCCUPATIONAL AND ENVIRONMENTAL HEALTH
InstType: EI
InstName: VARIAN MAT-44
IoniMethod: _ENERGY 70 eV
IonPolarity: pos
Date: 2010-10-09 19:48:36+02:00
Num Peaks: 54
40 112 41 52 42 15 43 68 44 173 46 58 49 21 50 254 51 487 52 372 
53 100 54 20 55 25 61 64 62 234 63 999 64 329 65 104 66 74 67 14 
68 13 69 23 73 11 74 61 75 64 76 49 77 214 78 267 79 97 80 54 
81 11 85 14 86 34 87 33 88 25 89 910 90 353 91 106 92 35 94 12 
105 44 106 56 107 55 108 23 118 97 119 247 120 24 148 23 149 15 164 15 
165 779 166 73 182 89 183 9 
