Name: 4-AMINO-2-METHYLPYRIMIDINE
MW: 109
Formula: C5H7N3
Synonym: MassBank: JP008273
Synonym: 4-AMINO-2-METHYLPYRIMIDINE
Structure: 310A32310A342D414D494E4F2D322D4D455448594C505952494D4944494E452E6D6F6C0A20204368656D447261773033323531303034333132440A2020382020382020302020302020302020302020302020302020302020303939392056323030300A2020202D302E3731343520202020302E3431323520202020302E303030302043202020302020302020302020302020302020302020302020302020302020302020302020300A20202020302E3030303020202020302E3832353020202020302E30303030204E202020302020302020302020302020302020302020302020302020302020302020302020300A20202020302E3731343520202020302E3431323520202020302E303030302043202020302020302020302020302020302020302020302020302020302020302020302020300A20202020302E373134352020202D302E3431323520202020302E303030302043202020302020302020302020302020302020302020302020302020302020302020302020300A2020202D302E303030302020202D302E3832353020202020302E303030302043202020302020302020302020302020302020302020302020302020302020302020302020300A2020202D302E373134352020202D302E3431323520202020302E30303030204E202020302020302020302020302020302020302020302020302020302020302020302020300A2020202D312E3432383920202020302E3832353020202020302E303030302043202020302020302020302020302020302020302020302020302020302020302020302020300A20202020312E3432383920202020302E3832353020202020302E30303030204E202020302020302020302020302020302020302020302020302020302020302020302020300A2020312020322020312020302020202020200A2020322020332020322020302020202020200A2020332020342020312020302020202020200A2020342020352020322020302020202020200A2020352020362020312020302020202020200A2020312020362020322020302020202020200A2020312020372020312020302020202020200A2020332020382020312020302020202020200A4D2020454E44
Contributor: UBE SCIENTIFIC ANALYSIS LABORATORY
InstType: EI
InstName: HITACHI M-60
IoniMethod: _ENERGY 70 eV
IonPolarity: pos
Date: 2010-10-09 19:48:36+02:00
Num Peaks: 23
14 13 15 55 26 44 27 19 28 64 38 13 39 34 40 192 41 629 42 377 
43 46 52 47 53 16 66 37 67 96 68 113 69 184 81 45 82 119 93 43 
94 15 109 999 110 98 
