Name: CYCLOHEPTANOL
MW: 114
Formula: C7H14O
Synonym: MassBank: JP006782
Synonym: CYCLOHEPTANOL
Structure: 310A32310A4359434C4F48455054414E4F4C2E6D6F6C0A20204368656D447261773039313531303035333132440A2020382020382020302020302020302020302020302020302020302020303939392056323030300A2020202D302E343931312020202D302E3030303020202020302E303030302043202020302020302020302020302020302020302020302020302020302020302020302020300A2020202D302E3133333220202020302E3734333320202020302E303030302043202020302020302020302020302020302020302020302020302020302020302020302020300A20202020302E3637313120202020302E3932363920202020302E303030302043202020302020302020302020302020302020302020302020302020302020302020302020300A20202020312E3331363120202020302E3431323520202020302E303030302043202020302020302020302020302020302020302020302020302020302020302020302020300A20202020312E333136312020202D302E3431323520202020302E303030302043202020302020302020302020302020302020302020302020302020302020302020302020300A20202020302E363731312020202D302E3932363920202020302E303030302043202020302020302020302020302020302020302020302020302020302020302020302020300A2020202D302E313333322020202D302E3734333320202020302E303030302043202020302020302020302020302020302020302020302020302020302020302020302020300A2020202D312E333136312020202D302E3030303020202020302E30303030204F202020302020302020302020302020302020302020302020302020302020302020302020300A2020312020322020312020302020202020200A2020322020332020312020302020202020200A2020332020342020312020302020202020200A2020342020352020312020302020202020200A2020352020362020312020302020202020200A2020362020372020312020302020202020200A2020312020372020312020302020202020200A2020312020382020312020302020202020200A4D2020454E44
Contributor: TAJIMA S, GUNMA COLLEGE OF TECHNOLOGY
InstType: EI
InstName: HITACHI RMU-7M
IoniMethod: _ENERGY 70 eV
IonPolarity: pos
Date: 2010-10-09 19:48:36+02:00
Num Peaks: 35
15 13 27 170 28 49 29 214 31 77 39 160 40 35 41 334 42 186 43 155 
44 252 45 55 53 46 54 139 55 246 56 39 57 999 58 87 66 26 67 193 
68 338 69 37 70 124 71 142 72 55 81 365 82 28 83 25 85 51 86 34 
95 27 96 157 97 25 113 10 114 12 
