Name: MassBank: JP003736
MW: 204
Formula: C12H16N2O
Synonym: MassBank: JP003736
Synonym: 4-HYDROXY-N,N-DIMETHYLTRYPTAMINE PSILOCIN
Structure: 342D485944524F58592D4E2C4E2D44494D455448594C5452595054414D494E45205053494C4F43494E2E6D6F6C0A20204368656D447261773034313231303230323532440A2031352031362020302020302020302020302020302020302020302020303939392056323030300A20202020302E383432382020202D312E3430313020202020302E30303030204E202020302020302020302020302020302020302020302020302020302020302020302020300A20202020302E303839312020202D312E3036353520202020302E303030302043202020302020302020302020302020302020302020302020302020302020302020302020300A20202020302E313735342020202D302E3234353020202020302E303030302043202020302020302020302020302020302020302020302020302020302020302020302020300A20202020302E393832332020202D302E3037333520202020302E303030302043202020302020302020302020302020302020302020302020302020302020302020302020300A20202020312E3339343820202020302E3634313020202020302E303030302043202020302020302020302020302020302020302020302020302020302020302020302020300A20202020322E3231393820202020302E3634313020202020302E303030302043202020302020302020302020302020302020302020302020302020302020302020302020300A20202020322E363332332020202D302E3037333520202020302E303030302043202020302020302020302020302020302020302020302020302020302020302020302020300A20202020322E323139382020202D302E3738373920202020302E303030302043202020302020302020302020302020302020302020302020302020302020302020302020300A20202020312E333934382020202D302E3738373920202020302E303030302043202020302020302020302020302020302020302020302020302020302020302020302020300A20202020302E3938323320202020312E3335353520202020302E30303030204F202020302020302020302020302020302020302020302020302020302020302020302020300A2020202D302E3433373720202020302E3330373020202020302E303030302043202020302020302020302020302020302020302020302020302020302020302020302020300A2020202D312E3232323420202020302E3035323120202020302E303030302043202020302020302020302020302020302020302020302020302020302020302020302020300A2020202D312E3833353420202020302E3630343120202020302E30303030204E202020302020302020302020302020302020302020302020302020302020302020302020300A2020202D322E3633323320202020302E3339303620202020302E303030302043202020302020302020302020302020302020302020302020302020302020302020302020300A2020202D312E3632313920202020312E3430313020202020302E303030302043202020302020302020302020302020302020302020302020302020302020302020302020300A2020312020322020312020302020202020200A2020322020332020322020302020202020200A2020332020342020312020302020202020200A2020342020352020312020302020202020200A2020352020362020322020302020202020200A2020362020372020312020302020202020200A2020372020382020322020302020202020200A2020382020392020312020302020202020200A2020312020392020312020302020202020200A2020342020392020322020302020202020200A2020352031302020312020302020202020200A2031312031322020312020302020202020200A2031332031342020312020302020202020200A2031332031352020312020302020202020200A2031322031332020312020302020202020200A2020332031312020312020302020202020200A4D2020454E44
Contributor: SASAKI S, TOYOHASHI UNIV. OF TECH.
InstType: EI
InstName: Unknown
IoniMethod: EI
IonPolarity: pos
Date: 2010-10-09 19:48:36+02:00
Num Peaks: 37
26 5 27 37 29 8 30 2 50 3 51 8 52 3 57 1 58 999 59 38 
63 8 64 0 65 8 77 9 78 11 89 1 90 3 91 7 102 5 103 0 
104 3 115 8 116 3 117 1 118 7 130 11 131 5 145 0 146 30 147 4 
159 24 160 1 161 1 202 5 203 1 204 15 205 20 
