Name: 4-METHYL-2-TRIMETHYLSILOXYHEXENE
MW: 186
Formula: C10H22OSi
Synonym: MassBank: JP002324
Synonym: 4-METHYL-2-TRIMETHYLSILOXYHEXENE
Structure: 342D4D455448594C2D322D5452494D455448594C53494C4F5859484558454E452E6D6F6C0A20204368656D447261773034323131303032303332440A2031322031312020302020302020302020302020302020302020302020303939392056323030300A20202020302E303030302020202D312E3033313320202020302E303030302043202020302020302020302020302020302020302020302020302020302020302020302020300A20202020302E303030302020202D302E3230363320202020302E303030302043202020302020302020302020302020302020302020302020302020302020302020302020300A20202020302E3731343520202020302E3230363320202020302E303030302043202020302020302020302020302020302020302020302020302020302020302020302020300A20202020312E343238392020202D302E3230363220202020302E303030302043202020302020302020302020302020302020302020302020302020302020302020302020300A20202020322E3134333420202020302E3230363320202020302E303030302043202020302020302020302020302020302020302020302020302020302020302020302020300A20202020322E3134333420202020312E3033313320202020302E303030302043202020302020302020302020302020302020302020302020302020302020302020302020300A2020202D302E3731343520202020302E3230363320202020302E30303030204F202020302020302020302020302020302020302020302020302020302020302020302020300A2020202D312E343238392020202D302E3230363320202020302E303030302053692020302020302020302020302020302020302020302020302020302020302020302020300A2020202D312E303136342020202D302E3932303720202020302E303030302043202020302020302020302020302020302020302020302020302020302020302020302020300A2020202D322E313433342020202D302E3631383820202020302E303030302043202020302020302020302020302020302020302020302020302020302020302020302020300A2020202D312E3834313420202020302E3530383220202020302E303030302043202020302020302020302020302020302020302020302020302020302020302020302020300A20202020312E343238392020202D312E3033313220202020302E303030302043202020302020302020302020302020302020302020302020302020302020302020302020300A2020312020322020322020302020202020200A2020322020332020312020302020202020200A2020332020342020312020302020202020200A2020342020352020312020302020202020200A2020352020362020312020302020202020200A2020372020382020312020302020202020200A2020382020392020312020302020202020200A2020382031302020312020302020202020200A2020382031312020312020302020202020200A2020322020372020312020302020202020200A2020342031322020312020302020202020200A4D2020454E44
Contributor: MASS SPECTROSCOPY SOC. OF JAPAN (MSSJ)
InstType: EI
InstName: JEOL JMS-D-3000
IoniMethod: _ENERGY 70 eV
IonPolarity: pos
Date: 2010-10-09 19:48:36+02:00
Num Peaks: 36
40 32 41 94 43 173 44 65 45 142 47 59 55 48 57 50 58 80 59 55 
60 40 61 42 67 22 69 18 72 64 73 678 74 66 75 700 76 52 77 32 
85 25 95 22 99 27 101 37 115 968 116 108 117 48 130 999 131 130 132 43 
143 52 157 179 158 26 171 125 172 18 186 22 
