Name: 2-ISOPROPYLCYCLOHEXANOL
MW: 142
Formula: C9H18O
Synonym: MassBank: JP003615
Synonym: 2-ISOPROPYLCYCLOHEXANOL
Structure: 322D49534F50524F50594C4359434C4F484558414E4F4C2E6D6F6C0A20204368656D447261773031323231303031353432440A2031302031302020302020302020302020302020302020302020302020303939392056323030300A20202020302E333537322020202D302E3230363320202020302E303030302043202020302020302020302020302020302020302020302020302020302020302020302020300A2020202D302E3335373220202020302E3230363320202020302E303030302043202020302020302020302020302020302020302020302020302020302020302020302020300A2020202D312E303731372020202D302E3230363220202020302E303030302043202020302020302020302020302020302020302020302020302020302020302020302020300A2020202D312E303731372020202D312E3033313220202020302E303030302043202020302020302020302020302020302020302020302020302020302020302020302020300A2020202D302E333537322020202D312E3434333820202020302E303030302043202020302020302020302020302020302020302020302020302020302020302020302020300A20202020302E333537322020202D312E3033313320202020302E303030302043202020302020302020302020302020302020302020302020302020302020302020302020300A2020202D302E3335373220202020312E3033313320202020302E303030302043202020302020302020302020302020302020302020302020302020302020302020302020300A2020202D312E3037313720202020312E3434333820202020302E303030302043202020302020302020302020302020302020302020302020302020302020302020302020300A20202020302E3335373220202020312E3434333820202020302E303030302043202020302020302020302020302020302020302020302020302020302020302020302020300A20202020312E3037313720202020302E3230363320202020302E30303030204F202020302020302020302020302020302020302020302020302020302020302020302020300A2020312020322020312020302020202020200A2020322020332020312020302020202020200A2020332020342020312020302020202020200A2020342020352020312020302020202020200A2020352020362020312020302020202020200A2020312020362020312020302020202020200A2020372020382020312020302020202020200A2020372020392020312020302020202020200A2020322020372020312020302020202020200A2020312031302020312020302020202020200A4D2020454E44
Contributor: MASS SPECTROSCOPY SOC. OF JAPAN (MSSJ)
InstType: EI
InstName: Unknown
IoniMethod: EI
IonPolarity: pos
Date: 2010-10-09 19:48:36+02:00
Num Peaks: 51
15 25 27 135 28 60 29 18 31 36 39 150 40 40 41 43 42 75 43 403 
44 120 45 5 51 30 53 80 54 73 55 39 56 300 57 870 58 68 59 6 
65 30 66 115 67 390 68 37 69 425 70 140 71 114 72 3 73 35 79 80 
80 90 81 999 82 760 83 147 84 30 85 23 86 50 95 300 96 230 97 5 
98 45 99 120 100 33 109 61 110 70 111 30 123 35 124 72 125 77 127 80 
142 32 
