Name: MENTHENYL KETONE
MW: 194
Formula: C13H22O
Synonym: MassBank: JP008400
Synonym: MENTHENYL KETONE
Synonym: 1-(PARA-MENTHEN-6-YL)-1-PROPANONE
Structure: 4D454E5448454E594C204B45544F4E452E6D6F6C0A20204368656D447261773131313730393230303832440A2031352031352020302020302020302020302020302020302020302020303939392056323030300A20202020302E3335373220202020312E3434333720202020302E303030302043202020302020302020302020302020302020302020302020302020302020302020302020300A20202020312E3037313720202020312E3835363320202020302E303030302043202020302020302020302020302020302020302020302020302020302020302020302020300A20202020312E3738363220202020312E3434333720202020302E303030302043202020302020302020302020302020302020302020302020302020302020302020302020300A2020202D302E3335373220202020312E3835363320202020302E30303030204F202020302020302020302020302020302020302020302020302020302020302020302020300A20202020302E333537322020202D312E3033313320202020302E303030302043202020302020302020302020302020302020302020302020302020302020302020302020300A2020202D302E333537322020202D302E3631383820202020302E303030302043202020302020302020302020302020302020302020302020302020302020302020302020300A2020202D302E3335373220202020302E3230363220202020302E303030302043202020302020302020302020302020302020302020302020302020302020302020302020300A20202020302E3335373220202020302E3631383720202020302E303030302043202020302020302020302020302020302020302020302020302020302020302020302020300A20202020312E3037313720202020302E3230363220202020302E303030302043202020302020302020302020302020302020302020302020302020302020302020302020300A20202020312E303731372020202D302E3631383820202020302E303030302043202020302020302020302020302020302020302020302020302020302020302020302020300A20202020312E3738363220202020302E3631383720202020302E303030302043202020302020302020302020302020302020302020302020302020302020302020302020300A2020202D312E303731372020202D312E3033313320202020302E303030302043202020302020302020302020302020302020302020302020302020302020302020302020300A2020202D312E303731372020202D312E3835363320202020302E303030302043202020302020302020302020302020302020302020302020302020302020302020302020300A2020202D312E373836322020202D302E3631383820202020302E303030302043202020302020302020302020302020302020302020302020302020302020302020302020300A20202020312E373836322020202D312E3033313320202020302E303030302048202020302020302020302020302020302020302020302020302020302020302020302020300A2020312020322020312020302020202020200A2020322020332020312020302020202020200A2020312020342020322020302020202020200A2020352020362020312020302020202020200A2020362020372020312020302020202020200A2020372020382020312020302020202020200A2020382020392020312020302020202020200A2020392031302020322020302020202020200A2020352031302020312020302020202020200A2020392031312020312020302020202020200A2031322031332020312020302020202020200A2031322031342020312020302020202020200A2020362031322020312020302020202020200A2020312020382020312020302020202020200A2031302031352020312020302020202020200A4D2020454E44
Contributor: SODA AROMATIC CO., LTD.
InstType: EI
InstName: HITACHI M-80B
IoniMethod: _ENERGY 70 eV
IonPolarity: pos
Date: 2010-10-09 19:48:36+02:00
Num Peaks: 45
17 11 27 142 28 21 29 361 39 80 41 214 42 14 43 137 51 24 53 70 
55 67 57 755 58 21 59 29 65 41 66 14 67 65 68 21 69 148 77 121 
78 21 79 121 80 18 81 999 82 61 83 15 91 92 92 69 93 231 94 30 
95 240 96 21 105 15 107 13 109 18 121 21 122 13 123 19 134 12 136 95 
137 394 138 49 165 18 194 65 195 11 
