Name: 3-CHLORO-2-METHYLPROPENE
CAS: 563-47-3
MW: 90
Formula: C4H7Cl
Synonym: MassBank: JP009526
Synonym: 3-CHLORO-2-METHYLPROPENE
Synonym: METHALLYL CHLORIDE
Structure: 310A31340A332D43484C4F524F2D322D4D455448594C50524F50454E452E6D6F6C0A20204368656D447261773032323231303134353232440A2020352020342020302020302020302020302020302020302020302020303939392056323030300A20202020312E303731372020202D302E3631383820202020302E303030302043202020302020302020302020302020302020302020302020302020302020302020302020300A20202020302E333537322020202D302E3230363220202020302E303030302043202020302020302020302020302020302020302020302020302020302020302020302020300A2020202D302E333537322020202D302E3631383820202020302E303030302043202020302020302020302020302020302020302020302020302020302020302020302020300A20202020302E3335373220202020302E3631383820202020302E303030302043202020302020302020302020302020302020302020302020302020302020302020302020300A2020202D312E303731372020202D302E3230363320202020302E3030303020436C2020302020302020302020302020302020302020302020302020302020302020302020300A2020312020322020322020302020202020200A2020322020332020312020302020202020200A2020322020342020312020302020202020200A2020332020352020312020302020202020200A4D2020454E44
Contributor: NARA WOMEN'S UNIVERSITY
InstType: EI
InstName: HITACHI M-80
IoniMethod: _ENERGY 70 eV
IonPolarity: pos
Date: 2010-10-09 19:48:36+02:00
Num Peaks: 49
12 15 13 103 14 184 15 15 24 12 25 92 26 378 27 147 28 228 32 17 
35 79 36 68 37 160 38 230 39 999 40 152 41 287 42 49 43 419 47 29 
48 43 49 400 50 178 51 228 52 68 53 310 54 218 55 607 56 219 57 35 
58 47 61 18 62 35 63 43 64 11 65 23 67 34 68 10 73 23 75 74 
77 44 79 30 81 23 89 52 90 73 91 28 92 26 93 12 95 25 
