Name: MassBank: JP002819
MW: 204
Formula: C15H24
Synonym: MassBank: JP002819
Synonym: CIS-4,11,11-TRIMETHYL-8-METHYLENE-BICYCLO(7.2.0)UNDECA-4-ENE
Structure: 4349532D342C31312C31312D5452494D455448594C2D382D4D455448594C454E452D42494359434C4F28372E322E3029554E444543412D342D454E452E6D6F6C0A20204368656D447261773039303831303134333032440A2031352031362020302020302020302020302020302020302020302020303939392056323030300A2020202D302E343334372020202D302E3635363620202020302E303030302043202020302020302020302020302020302020302020302020302020302020302020302020300A2020202D302E3731363920202020302E3131383620202020302E303030302043202020302020302020302020302020302020302020302020302020302020302020302020300A2020202D302E3433343720202020302E3839333920202020302E303030302043202020302020302020302020302020302020302020302020302020302020302020302020300A20202020302E3237393720202020312E3330363420202020302E303030302043202020302020302020302020302020302020302020302020302020302020302020302020300A20202020312E3039323220202020312E3136333120202020302E303030302043202020302020302020302020302020302020302020302020302020302020302020302020300A20202020312E3632323520202020302E3533313120202020302E303030302043202020302020302020302020302020302020302020302020302020302020302020302020300A20202020312E363232352020202D302E3239333920202020302E303030302043202020302020302020302020302020302020302020302020302020302020302020302020300A20202020312E303932322020202D302E3932353920202020302E303030302043202020302020302020302020302020302020302020302020302020302020302020302020300A20202020302E323739372020202D312E3036393120202020302E303030302043202020302020302020302020302020302020302020302020302020302020302020302020300A2020202D302E313332382020202D312E3738333620202020302E303030302043202020302020302020302020302020302020302020302020302020302020302020302020300A2020202D302E383437322020202D312E3337313120202020302E303030302043202020302020302020302020302020302020302020302020302020302020302020302020300A20202020312E353034372020202D312E3634303420202020302E303030302043202020302020302020302020302020302020302020302020302020302020302020302020300A2020202D312E313935392020202D322E3131383820202020302E303030302043202020302020302020302020302020302020302020302020302020302020302020302020300A2020202D312E363232352020202D312E3038383920202020302E303030302043202020302020302020302020302020302020302020302020302020302020302020302020300A20202020302E3133363520202020322E3131383820202020302E303030302043202020302020302020302020302020302020302020302020302020302020302020302020300A2020312020322020312020302020202020200A2020322020332020312020302020202020200A2020332020342020312020302020202020200A2020342020352020322020302020202020200A2020352020362020312020302020202020200A2020362020372020312020302020202020200A2020372020382020312020302020202020200A2020382020392020312020302020202020200A2020392031302020312020302020202020200A2031302031312020312020302020202020200A2020312031312020312020302020202020200A2020312020392020312020302020202020200A2020382031322020322020302020202020200A2031312031332020312020362020202020200A2031312031342020312020312020202020200A2020342031352020312020302020202020200A4D2020454E44
Contributor: SASAKI S, TOYOHASHI UNIV. OF TECH.
InstType: EI
InstName: Unknown
IoniMethod: EI
IonPolarity: pos
Date: 2010-10-09 19:48:36+02:00
Num Peaks: 77
26 5 27 10 29 125 38 1 39 190 40 46 41 707 42 4 43 115 44 12 
50 8 51 4 52 32 53 175 54 22 55 35 56 31 57 62 58 10 59 1 
63 12 64 8 65 105 66 0 67 325 68 70 69 80 70 5 71 20 83 42 
84 5 91 6 92 240 93 999 94 195 95 21 96 27 97 10 103 20 104 1 
105 475 106 255 107 430 108 11 109 145 110 20 111 17 115 0 117 33 118 11 
119 310 120 2 121 240 122 130 123 61 124 1 128 6 129 6 131 23 132 1 
133 680 134 266 137 15 145 1 146 5 147 155 148 120 149 4 150 6 160 8 
161 350 162 5 175 65 176 27 189 150 204 7 205 11 
