Name: MassBank: JP006677
MW: 310
Formula: C16H22O6
Synonym: MassBank: JP006677
Synonym: 5-ACETOXY-3-METHOXY-2,6-DIMETHYL-(6R)-((2R)-2-METHYLBUTYRYLOXY)-2,3-CYCLOHEXADIEN-1-ONE
Structure: 352D414345544F58592D332D4D4554484F58592D322C362D44494D455448594C2D283652292D28283252292D322D4D455448594C4255545952594C4F5859292D322C332D4359434C4F484558414449454E2D312D4F4E452E6D6F6C0A20204368656D447261773034323331303033343832440A2032332032332020302020302020302020302020302020302020302020303939392056323030300A20202020302E3334393820202020302E3631383820202020302E303030302043202020302020302020302020302020302020302020302020302020302020302020302020300A20202020302E333439382020202D302E3230363220202020302E303030302043202020302020302020302020302020302020302020302020302020302020302020302020300A20202020312E303634322020202D302E3631383820202020302E303030302043202020302020302020302020302020302020302020302020302020302020302020302020300A20202020312E373738372020202D302E3230363220202020302E303030302043202020302020302020302020302020302020302020302020302020302020302020302020300A20202020312E3737383720202020302E3631383820202020302E303030302043202020302020302020302020302020302020302020302020302020302020302020302020300A20202020312E3036343220202020312E3033313320202020302E303030302043202020302020302020302020302020302020302020302020302020302020302020302020300A20202020312E3036343220202020312E3835363320202020302E30303030204F202020302020302020302020302020302020302020302020302020302020302020302020300A20202020322E3439333220202020312E3033313320202020302E303030302043202020302020302020302020302020302020302020302020302020302020302020302020300A20202020322E343933322020202D302E3631383820202020302E30303030204F202020302020302020302020302020302020302020302020302020302020302020302020300A20202020332E323037362020202D302E3230363220202020302E303030302043202020302020302020302020302020302020302020302020302020302020302020302020300A2020202D302E333634372020202D302E3631383820202020302E30303030204F202020302020302020302020302020302020302020302020302020302020302020302020300A2020202D302E333634372020202D312E3434333820202020302E303030302043202020302020302020302020302020302020302020302020302020302020302020302020300A20202020302E333439382020202D312E3835363320202020302E303030302043202020302020302020302020302020302020302020302020302020302020302020302020300A2020202D312E303739322020202D312E3835363320202020302E30303030204F202020302020302020302020302020302020302020302020302020302020302020302020300A2020202D302E3036323720202020312E3333333220202020302E303030302043202020302020302020302020302020302020302020302020302020302020302020302020300A2020202D302E3434373120202020302E3430353220202020302E30303030204F202020302020302020302020302020302020302020302020302020302020302020302020300A2020202D312E3033303520202020302E3938383620202020302E303030302043202020302020302020302020302020302020302020302020302020302020302020302020300A2020202D312E3832373420202020302E3737353120202020302E303030302043202020302020302020302020302020302020302020302020302020302020302020302020300A2020202D302E3831373020202020312E3738353520202020302E30303030204F202020302020302020302020302020302020302020302020302020302020302020302020300A2020202D322E3632343320202020302E3536313520202020302E303030302043202020302020302020302020302020302020302020302020302020302020302020302020300A2020202D332E3230373620202020312E3134343920202020302E303030302043202020302020302020302020302020302020302020302020302020302020302020302020300A2020202D322E3034303920202020312E3537323020202020302E303030302048202020302020302020302020302020302020302020302020302020302020302020302020300A2020202D312E363133392020202D302E3032313820202020302E303030302043202020302020302020302020302020302020302020302020302020302020302020302020300A2020312020322020312020302020202020200A2020322020332020322020302020202020200A2020332020342020312020302020202020200A2020342020352020322020302020202020200A2020352020362020312020302020202020200A2020362020312020312020302020202020200A2020362020372020322020302020202020200A2020352020382020312020302020202020200A2020342020392020312020302020202020200A2020392031302020312020302020202020200A2020322031312020312020302020202020200A2031312031322020312020302020202020200A2031322031332020312020302020202020200A2031322031342020322020302020202020200A2020312031352020312020362020202020200A2020312031362020312020312020202020200A2031362031372020312020302020202020200A2031372031382020312020302020202020200A2031372031392020322020302020202020200A2031382032302020312020302020202020200A2032302032312020312020302020202020200A2031382032322020312020312020202020200A2031382032332020312020312020202020200A4D2020454E44
Contributor: MASS SPECTROSCOPY SOC. OF JAPAN (MSSJ)
InstType: EI
InstName: JEOL JMS-D-300
IoniMethod: _ENERGY 70 eV
IonPolarity: pos
Date: 2010-10-09 19:48:36+02:00
Num Peaks: 40
41 210 42 45 43 545 44 5 45 115 53 25 55 60 56 5 57 999 58 45 
59 30 60 9 69 45 74 220 83 45 87 6 101 30 127 30 128 30 139 7 
140 30 141 110 142 110 154 3 157 125 166 120 167 40 168 7 169 30 170 30 
182 20 183 6 184 180 185 20 205 20 210 2 212 15 241 15 258 45 310 10 
