Name: MassBank: JP002440
MW: 294
Formula: C18H30O3
Synonym: MassBank: JP002440
Synonym: 8ALPHA-(1-METHOXY-1-METHYL-3-BUTENYL)-6,6-DIMETHYL-1ALPHA,5ALPHA-BICYCLO(3.3.0)OCTAN-2-ONE ETHYLENE ACETAL
Synonym: 2,2-ETHYLENEDIOXY-8ALPHA-(1-METHOXY-1-METHYL-3-BUTENYL)-6,6-DIMETHYL-1ALPHA,5ALPHA-BICYCLO(3.3.0)OCTANE
Structure: 38414C5048412D28312D4D4554484F58592D312D4D455448594C2D332D425554454E594C292D362C362D44494D455448594C2D31414C5048412C35414C5048412D42494359434C4F28332E332E30294F4354414E2D322D4F4E4520455448594C454E452041434554414C2E6D6F6C0A20204368656D447261773132323030393036353932440A2032342032362020302020302020302020302020302020302020302020303939392056323030300A2020202D302E3937323720202020302E3132313420202020302E303030302043202020302020302020302020302020302020302020302020302020302020302020302020300A2020202D312E3638373220202020302E3533333920202020302E303030302043202020302020302020302020302020302020302020302020302020302020302020302020300A2020202D322E333030332020202D302E3031383120202020302E303030302043202020302020302020302020302020302020302020302020302020302020302020302020300A2020202D312E393634382020202D302E3737313820202020302E303030302043202020302020302020302020302020302020302020302020302020302020302020302020300A2020202D312E313434332020202D302E3638353620202020302E303030302043202020302020302020302020302020302020302020302020302020302020302020302020300A2020202D302E343239382020202D312E3039383120202020302E303030302043202020302020302020302020302020302020302020302020302020302020302020302020300A20202020302E313833332020202D302E3534363120202020302E303030302043202020302020302020302020302020302020302020302020302020302020302020302020300A2020202D302E3135323320202020302E3230373620202020302E303030302043202020302020302020302020302020302020302020302020302020302020302020302020300A20202020302E323239312020202D312E3539343620202020302E303030302043202020302020302020302020302020302020302020302020302020302020302020302020300A2020202D302E373931352020202D312E3833393620202020302E303030302043202020302020302020302020302020302020302020302020302020302020302020302020300A20202020302E3236303220202020302E3932323120202020302E303030302043202020302020302020302020302020302020302020302020302020302020302020302020300A20202020302E3937343720202020302E3530393620202020302E303030302043202020302020302020302020302020302020302020302020302020302020302020302020300A20202020312E3636363620202020302E3935383920202020302E303030302043202020302020302020302020302020302020302020302020302020302020302020302020300A20202020322E3430313720202020302E3538343420202020302E303030302043202020302020302020302020302020302020302020302020302020302020302020302020300A2020202D302E3435343220202020312E3333343620202020302E303030302043202020302020302020302020302020302020302020302020302020302020302020302020300A20202020302E3637323720202020312E3633363620202020302E30303030204F202020302020302020302020302020302020302020302020302020302020302020302020300A20202020312E3439373720202020312E3633363620202020302E303030302043202020302020302020302020302020302020302020302020302020302020302020302020300A2020202D302E3830313220202020302E3932383420202020302E303030302048202020302020302020302020302020302020302020302020302020302020302020302020300A2020202D312E343533332020202D312E3435303520202020302E303030302048202020302020302020302020302020302020302020302020302020302020302020302020300A2020202D322E3430313720202020302E3934363420202020302E30303030204F202020302020302020302020302020302020302020302020302020302020302020302020300A2020202D312E3037343120202020312E3038353920202020302E30303030204F202020302020302020302020302020302020302020302020302020302020302020302020300A2020202D322E3233303220202020312E3735333420202020302E303030302043202020302020302020302020302020302020302020302020302020302020302020302020300A2020202D312E3430393720202020312E3833393620202020302E303030302043202020302020302020302020302020302020302020302020302020302020302020302020300A20202020302E3637323720202020302E3230373620202020302E303030302048202020302020302020302020302020302020302020302020302020302020302020302020300A2020312020322020312020302020202020200A2020322020332020312020302020202020200A2020332020342020312020302020202020200A2020342020352020312020302020202020200A2020352020362020312020302020202020200A2020362020372020312020302020202020200A2020372020382020312020302020202020200A2020312020382020312020302020202020200A2020312020352020312020302020202020200A2020362020392020312020362020202020200A2020362031302020312020312020202020200A2031312031322020312020302020202020200A2031322031332020312020302020202020200A2031332031342020322020302020202020200A2031312031352020312020302020202020200A2031362031372020312020302020202020200A2031312031362020312020302020202020200A2020382031312020312020312020202020200A2020312031382020312020312020202020200A2020352031392020312020312020202020200A2032322032332020312020302020202020200A2032302032322020312020302020202020200A2032312032332020312020302020202020200A2020322032302020312020302020202020200A2020322032312020312020302020202020200A2020382032342020312020362020202020200A4D2020454E44
Contributor: ITO S, DEPT. OF CHEM., TOHOKU UNIV.
InstType: EI
InstName: HITACHI M-52
IoniMethod: _ENERGY 13.5 eV
IonPolarity: pos
Date: 2010-10-09 19:48:36+02:00
Num Peaks: 13
98 64 99 404 100 56 191 15 192 31 209 49 239 30 247 2 253 999 254 115 
262 49 263 3 294 25 
