Name: L-(-)-ALPHA-PHENYLETHYLAMINE
MW: 121
Formula: C8H11N
Synonym: MassBank: JP002470
Synonym: L-(-)-ALPHA-PHENYLETHYLAMINE
Structure: 303432325F4C2D282D292D414C5048412D5048454E594C455448594C414D494E452E6D6F6C0A20204368656D447261773039303631303136353032440A2031302031302020302020302020302020302020302020302020302020303939392056323030300A2020202D312E323337362020202D302E3731343520202020302E30303030204E202020302020302020302020302020302020302020302020302020302020302020302020300A2020202D302E3832353120202020302E3030303020202020302E303030302043202020302020302020302020302020302020302020302020302020302020302020302020300A2020202D312E3233373620202020302E3731343520202020302E303030302048202020302020302020302020302020302020302020302020302020302020302020302020300A2020202D302E3030303020202020302E3030303020202020302E303030302043202020302020302020302020302020302020302020302020302020302020302020302020300A20202020302E3431323520202020302E3731343520202020302E303030302043202020302020302020302020302020302020302020302020302020302020302020302020300A20202020312E3233373420202020302E3731343520202020302E303030302043202020302020302020302020302020302020302020302020302020302020302020302020300A20202020312E3634393920202020302E3030303020202020302E303030302043202020302020302020302020302020302020302020302020302020302020302020302020300A20202020312E323337342020202D302E3731343520202020302E303030302043202020302020302020302020302020302020302020302020302020302020302020302020300A20202020302E343132342020202D302E3731343520202020302E303030302043202020302020302020302020302020302020302020302020302020302020302020302020300A2020202D312E3634393920202020302E3030303020202020302E303030302043202020302020302020302020302020302020302020302020302020302020302020302020300A2020322020332020312020312020202020200A2020322020312020312020312020202020200A2020342020352020312020302020202020200A2020352020362020322020302020202020200A2020362020372020312020302020202020200A2020372020382020322020302020202020200A2020382020392020312020302020202020200A2020342020392020322020302020202020200A2020322020342020312020302020202020200A2020322031302020312020302020202020200A4D2020454E44
Contributor: MASS SPECTROSCOPY SOC. OF JAPAN (MSSJ)
InstType: EI
InstName: JEOL JMS-D-3000
IoniMethod: _ENERGY 70 eV
IonPolarity: pos
Date: 2010-10-09 19:48:36+02:00
Num Peaks: 29
42 144 43 157 44 173 45 152 50 35 51 88 52 33 53 102 58 40 59 213 
60 16 63 17 65 16 73 12 74 133 75 12 76 12 77 167 78 56 79 265 
80 20 91 24 103 41 104 56 105 208 106 999 107 84 120 84 121 16 
