Name: BUTYL BUTYRATE
MW: 144
Formula: C8H16O2
Synonym: MassBank: JP005924
Synonym: BUTYL BUTYRATE
Structure: 425554594C2042555459524154452E6D6F6C0A20204368656D447261773039303631303032343932440A2031302020392020302020302020302020302020302020302020302020303939392056323030300A2020202D302E373134352020202D302E3230363220202020302E303030302043202020302020302020302020302020302020302020302020302020302020302020302020300A2020202D312E343238392020202D302E3631383820202020302E303030302043202020302020302020302020302020302020302020302020302020302020302020302020300A2020202D322E313433342020202D302E3230363220202020302E303030302043202020302020302020302020302020302020302020302020302020302020302020302020300A2020202D322E383537392020202D302E3631383720202020302E303030302043202020302020302020302020302020302020302020302020302020302020302020302020300A2020202D302E3731343520202020302E3631383820202020302E30303030204F202020302020302020302020302020302020302020302020302020302020302020302020300A20202020302E303030302020202D302E3631383720202020302E30303030204F202020302020302020302020302020302020302020302020302020302020302020302020300A20202020302E373134352020202D302E3230363220202020302E303030302043202020302020302020302020302020302020302020302020302020302020302020302020300A20202020312E343238392020202D302E3631383720202020302E303030302043202020302020302020302020302020302020302020302020302020302020302020302020300A20202020322E313433342020202D302E3230363220202020302E303030302043202020302020302020302020302020302020302020302020302020302020302020302020300A20202020322E383537392020202D302E3631383720202020302E303030302043202020302020302020302020302020302020302020302020302020302020302020302020300A2020312020322020312020302020202020200A2020322020332020312020302020202020200A2020332020342020312020302020202020200A2020312020352020322020302020202020200A2020312020362020312020302020202020200A2020372020382020312020302020202020200A2020382020392020312020302020202020200A2020392031302020312020302020202020200A2020362020372020312020302020202020200A4D2020454E44
Contributor: YAMAMOTO M, DEP. CHEMISTRY, FAC. SCIENCE, NARA WOMEN'S UNIV.
InstType: EI
InstName: HITACHI RMU-6M
IoniMethod: _ENERGY 20 eV
IonPolarity: pos
Date: 2010-10-09 19:48:36+02:00
Num Peaks: 22
27 11 28 14 29 65 41 129 42 14 43 310 44 11 55 55 56 690 57 183 
60 108 61 23 70 11 71 999 72 49 73 72 88 78 89 663 90 32 101 80 
115 11 117 30 
