Name: ETHYL BROMIDE
CAS: 74-96-4
MW: 107
Formula: C2H5Br
Synonym: MassBank: JP004289
Synonym: ETHYL BROMIDE
Synonym: BROMOETHANE
Structure: 310A31300A455448594C2042524F4D4944452E6D6F6C0A20204368656D447261773038313131303138323432440A2020332020322020302020302020302020302020302020302020302020303939392056323030300A20202020302E3030303020202020302E3230363320202020302E303030302043202020302020302020302020302020302020302020302020302020302020302020302020300A20202020302E373134352020202D302E3230363320202020302E303030302043202020302020302020302020302020302020302020302020302020302020302020302020300A2020202D302E373134352020202D302E3230363320202020302E303030302042722020302020302020302020302020302020302020302020302020302020302020302020300A2020312020322020312020302020202020200A2020312020332020312020302020202020200A4D2020454E44
Contributor: TAJIMA S, GUNMA COLLEGE OF TECHNOLOGY
InstType: EI
InstName: HITACHI RMU-7M
IoniMethod: _ENERGY 70 eV
IonPolarity: pos
Date: 2010-10-09 19:48:36+02:00
Num Peaks: 16
25 21 26 191 27 753 28 281 29 999 30 20 77 30 79 22 81 21 93 41 
95 29 105 61 108 913 109 19 110 867 111 10 
