Name: 2-METHYLALLYLPENTAMETHYLDISILANE
MW: 186
Formula: C9H22Si2
Synonym: MassBank: JP002399
Synonym: 2-METHYLALLYLPENTAMETHYLDISILANE
Structure: 322D4D455448594C414C4C594C50454E54414D455448594C444953494C414E452E6D6F6C0A20204368656D447261773031323231303037333332440A2031312031302020302020302020302020302020302020302020302020303939392056323030300A2020202D302E3330323020202020312E3033313320202020302E303030302053692020302020302020302020302020302020302020302020302020302020302020302020300A2020202D302E3330323020202020302E3230363220202020302E303030302053692020302020302020302020302020302020302020302020302020302020302020302020300A20202020302E3532333020202020312E3033313320202020302E303030302043202020302020302020302020302020302020302020302020302020302020302020302020300A2020202D312E3132373020202020312E3033313320202020302E303030302043202020302020302020302020302020302020302020302020302020302020302020302020300A2020202D302E3330323020202020312E3835363320202020302E303030302043202020302020302020302020302020302020302020302020302020302020302020302020300A20202020302E3532333020202020302E3230363220202020302E303030302043202020302020302020302020302020302020302020302020302020302020302020302020300A2020202D312E3132373020202020302E3230363220202020302E303030302043202020302020302020302020302020302020302020302020302020302020302020302020300A2020202D302E333032302020202D302E3631383820202020302E303030302043202020302020302020302020302020302020302020302020302020302020302020302020300A20202020302E343132352020202D312E3033313320202020302E303030302043202020302020302020302020302020302020302020302020302020302020302020302020300A20202020302E343132352020202D312E3835363320202020302E303030302043202020302020302020302020302020302020302020302020302020302020302020302020300A20202020312E313237302020202D302E3631383820202020302E303030302043202020302020302020302020302020302020302020302020302020302020302020302020300A2020312020322020312020302020202020200A2020312020332020312020302020202020200A2020312020342020312020302020202020200A2020312020352020312020302020202020200A2020322020362020312020302020202020200A2020322020372020312020302020202020200A2020382020392020312020302020202020200A2020392031302020322020302020202020200A2020392031312020312020302020202020200A2020322020382020312020302020202020200A4D2020454E44
Contributor: MASS SPECTROSCOPY SOC. OF JAPAN (MSSJ)
InstType: EI
InstName: JEOL JMS-D-3000
IoniMethod: _ENERGY 70 eV
IonPolarity: pos
Date: 2010-10-09 19:48:36+02:00
Num Peaks: 19
41 44 45 38 59 68 73 499 74 52 75 102 85 57 97 57 112 177 113 213 
114 32 115 33 129 81 131 999 132 170 133 127 171 155 186 241 187 51 
