Name: 3-AMINOPHENYL METHYL KETONE
MW: 135
Formula: C8H9NO
Synonym: MassBank: JP009618
Synonym: 3-AMINOPHENYL METHYL KETONE
Synonym: 3-AMINOACETOPHENONE
Structure: 332D414D494E4F5048454E594C204D455448594C204B45544F4E452E6D6F6C0A20204368656D447261773032323231303133343632440A2031302031302020302020302020302020302020302020302020302020303939392056323030300A2020202D312E303331322020202D302E3335373220202020302E303030302043202020302020302020302020302020302020302020302020302020302020302020302020300A2020202D312E3434333820202020302E3335373220202020302E30303030204F202020302020302020302020302020302020302020302020302020302020302020302020300A2020202D312E343433382020202D312E3037313720202020302E303030302043202020302020302020302020302020302020302020302020302020302020302020302020300A2020202D302E323036322020202D302E3335373220202020302E303030302043202020302020302020302020302020302020302020302020302020302020302020302020300A20202020302E3230363320202020302E3335373220202020302E303030302043202020302020302020302020302020302020302020302020302020302020302020302020300A20202020312E3033313220202020302E3335373220202020302E303030302043202020302020302020302020302020302020302020302020302020302020302020302020300A20202020312E343433382020202D302E3335373220202020302E303030302043202020302020302020302020302020302020302020302020302020302020302020302020300A20202020312E303331332020202D312E3037313720202020302E303030302043202020302020302020302020302020302020302020302020302020302020302020302020300A20202020302E323036332020202D312E3037313720202020302E303030302043202020302020302020302020302020302020302020302020302020302020302020302020300A20202020312E3434333820202020312E3037313720202020302E30303030204E202020302020302020302020302020302020302020302020302020302020302020302020300A2020312020322020322020302020202020200A2020312020332020312020302020202020200A2020342020352020312020302020202020200A2020352020362020322020302020202020200A2020362020372020312020302020202020200A2020372020382020322020302020202020200A2020382020392020312020302020202020200A2020342020392020322020302020202020200A2020362031302020312020302020202020200A2020312020342020312020302020202020200A4D2020454E44
Contributor: THE INSTITUTE OF SCIENTIFIC AND INDUSTRIALRESEARCH
InstType: EI
InstName: JEOL JMS-DX-300
IoniMethod: _ENERGY 70 eV
IonPolarity: pos
Date: 2010-10-09 19:48:36+02:00
Num Peaks: 30
38 19 39 83 40 12 41 2 42 11 43 112 44 27 46 4 50 14 51 18 
52 29 53 1 60 39 62 17 63 43 64 4 65 271 66 48 76 12 77 2 
91 31 92 737 93 80 106 2 119 16 120 966 121 80 134 1 135 999 136 98 
