Name: LINALYL ISOVALERATE
MW: 238
Formula: C15H26O2
Synonym: MassBank: JP007075
Synonym: LINALYL ISOVALERATE
Structure: 4C494E414C594C2049534F56414C45524154452E6D6F6C0A20204368656D447261773038313131303232313832440A2031372031362020302020302020302020302020302020302020302020303939392056323030300A20202020302E333136382020202D302E3432373320202020302E303030302043202020302020302020302020302020302020302020302020302020302020302020302020300A20202020312E303331322020202D302E3031343820202020302E303030302043202020302020302020302020302020302020302020302020302020302020302020302020300A20202020312E373435372020202D302E3432373320202020302E303030302043202020302020302020302020302020302020302020302020302020302020302020302020300A20202020322E343630322020202D302E3031343820202020302E303030302043202020302020302020302020302020302020302020302020302020302020302020302020300A20202020312E373435372020202D312E3235323320202020302E303030302043202020302020302020302020302020302020302020302020302020302020302020302020300A20202020302E333136382020202D312E3235323320202020302E30303030204F202020302020302020302020302020302020302020302020302020302020302020302020300A2020202D302E333937372020202D302E3031343820202020302E30303030204F202020302020302020302020302020302020302020302020302020302020302020302020300A2020202D302E3339373720202020302E3831303220202020302E303030302043202020302020302020302020302020302020302020302020302020302020302020302020300A2020202D312E3232323720202020302E3831303220202020302E303030302043202020302020302020302020302020302020302020302020302020302020302020302020300A2020202D312E3633353220202020302E3039353720202020302E303030302043202020302020302020302020302020302020302020302020302020302020302020302020300A2020202D312E323232372020202D302E3631383820202020302E303030302043202020302020302020302020302020302020302020302020302020302020302020302020300A2020202D312E363335322020202D312E3333333220202020302E303030302043202020302020302020302020302020302020302020302020302020302020302020302020300A2020202D312E323232372020202D322E3034373720202020302E303030302043202020302020302020302020302020302020302020302020302020302020302020302020300A2020202D322E343630322020202D312E3333333220202020302E303030302043202020302020302020302020302020302020302020302020302020302020302020302020300A2020202D302E3339373720202020312E3633353220202020302E303030302043202020302020302020302020302020302020302020302020302020302020302020302020300A20202020302E3331363820202020322E3034373720202020302E303030302043202020302020302020302020302020302020302020302020302020302020302020302020300A20202020302E3432373320202020302E3831303220202020302E303030302043202020302020302020302020302020302020302020302020302020302020302020302020300A2020312020322020312020302020202020200A2020322020332020312020302020202020200A2020332020342020312020302020202020200A2020332020352020312020302020202020200A2020312020362020322020302020202020200A2020312020372020312020302020202020200A2020382020392020312020302020202020200A2020392031302020312020302020202020200A2031302031312020312020302020202020200A2031312031322020322020302020202020200A2031322031332020312020302020202020200A2031322031342020312020302020202020200A2020382031352020312020302020202020200A2031352031362020322020302020202020200A2020382031372020312020302020202020200A2020372020382020312020302020202020200A4D2020454E44
Contributor: SODA AROMATIC CO., LTD.
InstType: EI
InstName: HITACHI M-80B
IoniMethod: _ENERGY 70 eV
IonPolarity: pos
Date: 2010-10-09 19:48:36+02:00
Num Peaks: 48
18 49 26 10 27 213 29 108 38 15 39 290 40 27 41 761 42 47 43 114 
45 12 50 19 51 54 52 34 53 174 54 17 55 100 57 103 60 33 63 18 
65 53 66 25 67 171 68 162 69 526 70 25 77 187 78 28 79 220 80 221 
81 69 82 16 85 62 91 195 92 175 93 999 94 121 95 21 103 13 105 54 
106 18 107 54 108 16 119 21 121 174 122 16 136 69 137 15 
