Name: METHYL ORTHO TOLUATE
MW: 150
Formula: C9H10O2
Synonym: MassBank: JP000046
Synonym: METHYL ORTHO TOLUATE
Synonym: ORTHO TOLUIC ACID METHYL ESTER
Structure: 4F5254484F20544F4C5549432041434944204D455448594C2045535445522E6D6F6C0A20204368656D447261773038313231303033353232440A2031312031312020302020302020302020302020302020302020302020303939392056323030300A2020202D302E323036322020202D302E3030303020202020302E303030302043202020302020302020302020302020302020302020302020302020302020302020302020300A20202020302E3230363220202020302E3731343520202020302E303030302043202020302020302020302020302020302020302020302020302020302020302020302020300A20202020312E343433382020202D302E3030303020202020302E303030302043202020302020302020302020302020302020302020302020302020302020302020302020300A20202020302E323036322020202D302E3731343520202020302E303030302043202020302020302020302020302020302020302020302020302020302020302020302020300A20202020312E3033313320202020302E3731343520202020302E303030302043202020302020302020302020302020302020302020302020302020302020302020302020300A20202020312E303331332020202D302E3731343520202020302E303030302043202020302020302020302020302020302020302020302020302020302020302020302020300A2020202D302E3230363220202020312E3432383920202020302E303030302043202020302020302020302020302020302020302020302020302020302020302020302020300A2020202D312E303331332020202D302E3030303020202020302E303030302043202020302020302020302020302020302020302020302020302020302020302020302020300A2020202D312E3434333820202020302E3731343520202020302E30303030204F202020302020302020302020302020302020302020302020302020302020302020302020300A2020202D312E343433382020202D302E3731343520202020302E30303030204F202020302020302020302020302020302020302020302020302020302020302020302020300A2020202D312E303331332020202D312E3432383920202020302E303030302043202020302020302020302020302020302020302020302020302020302020302020302020300A2020312020322020312020302020202020200A2020312020342020322020302020202020200A2020322020352020322020302020202020200A2020332020352020312020302020202020200A2020332020362020322020302020202020200A2020342020362020312020302020202020200A2020322020372020312020302020202020200A2020312020382020312020302020202020200A2020382020392020322020302020202020200A2020382031302020312020302020202020200A2031302031312020312020302020202020200A4D2020454E44
Contributor: TAJIMA S, GUNMA COLLEGE OF TECHNOLOGY
InstType: EI
InstName: HITACHI RMU-7M
IoniMethod: _ENERGY 70 eV
IonPolarity: pos
Date: 2010-10-09 19:48:36+02:00
Num Peaks: 32
15 60 27 22 29 24 38 35 39 237 40 16 41 43 50 63 51 116 52 24 
53 16 59 16 61 16 62 65 63 193 64 56 65 415 66 20 77 120 79 85 
89 177 90 313 91 999 92 80 105 39 118 635 119 983 120 84 135 70 149 15 
150 374 151 39 
