Name: 3-METHYLGLUTARIC ACID DI-TMS
MW: 290
Formula: C12H26O4Si2
Synonym: MassBank: JP002722
Synonym: 3-METHYLGLUTARIC ACID DI-TMS
Structure: 332D4D455448594C474C55544152494320414349442044492D544D532E6D6F6C0A20204368656D447261773033323031303137313532440A2031382031372020302020302020302020302020302020302020302020303939392056323030300A20202020312E343238392020202D302E3035353320202020302E303030302043202020302020302020302020302020302020302020302020302020302020302020302020300A20202020302E373134352020202D302E3436373820202020302E303030302043202020302020302020302020302020302020302020302020302020302020302020302020300A2020202D302E303030302020202D302E3035353320202020302E303030302043202020302020302020302020302020302020302020302020302020302020302020302020300A2020202D302E373134352020202D302E3436373820202020302E303030302043202020302020302020302020302020302020302020302020302020302020302020302020300A2020202D312E343238392020202D302E3035353320202020302E303030302043202020302020302020302020302020302020302020302020302020302020302020302020300A20202020312E3432383920202020302E3736393720202020302E30303030204F202020302020302020302020302020302020302020302020302020302020302020302020300A20202020322E313433342020202D302E3436373820202020302E30303030204F202020302020302020302020302020302020302020302020302020302020302020302020300A2020202D312E3432383920202020302E3736393720202020302E30303030204F202020302020302020302020302020302020302020302020302020302020302020302020300A2020202D322E313433342020202D302E3436373820202020302E30303030204F202020302020302020302020302020302020302020302020302020302020302020302020300A2020202D302E3030303020202020302E3736393720202020302E303030302043202020302020302020302020302020302020302020302020302020302020302020302020300A20202020322E383537392020202D302E3035353320202020302E303030302053692020302020302020302020302020302020302020302020302020302020302020302020300A20202020332E323730342020202D302E3736393720202020302E303030302043202020302020302020302020302020302020302020302020302020302020302020302020300A20202020322E3434353420202020302E3635393220202020302E303030302043202020302020302020302020302020302020302020302020302020302020302020302020300A20202020332E3537323420202020302E3335373220202020302E303030302043202020302020302020302020302020302020302020302020302020302020302020302020300A2020202D322E383537392020202D302E3035353320202020302E303030302053692020302020302020302020302020302020302020302020302020302020302020302020300A2020202D332E323730342020202D302E3736393720202020302E303030302043202020302020302020302020302020302020302020302020302020302020302020302020300A2020202D332E3537323420202020302E3335373220202020302E303030302043202020302020302020302020302020302020302020302020302020302020302020302020300A2020202D322E3434353420202020302E3635393220202020302E303030302043202020302020302020302020302020302020302020302020302020302020302020302020300A2020312020322020312020302020202020200A2020322020332020312020302020202020200A2020332020342020312020302020202020200A2020342020352020312020302020202020200A2020312020362020322020302020202020200A2020312020372020312020302020202020200A2020352020382020322020302020202020200A2020352020392020312020302020202020200A2020332031302020312020302020202020200A2031312031322020312020312020202020200A2031312031332020312020312020202020200A2031312031342020312020302020202020200A2020372031312020312020302020202020200A2031352031362020312020302020202020200A2031352031372020312020302020202020200A2031352031382020312020302020202020200A2020392031352020312020302020202020200A4D2020454E44
Contributor: HAYASHI A, DEPT. OF CHEMISTRY, FAC. OF SCI. AND TECHNOLOGY, KINKI UNIV.
InstType: EI
InstName: SHIMADZU LKB-9000B
IoniMethod: _ENERGY 70 eV
IonPolarity: pos
Date: 2010-10-09 19:48:36+02:00
Num Peaks: 148
41 54 42 33 43 103 44 70 45 144 46 13 47 68 48 1 49 2 51 5 
53 2 55 5 56 25 58 22 59 94 60 1 61 45 62 5 63 2 65 0 
66 10 67 13 68 2 69 80 70 37 71 8 72 61 73 999 74 98 75 597 
76 41 77 3 79 3 81 3 82 9 83 2 84 4 85 2 87 4 88 2 
89 7 90 4 91 3 93 0 94 2 95 5 97 3 99 3 100 7 101 24 
102 6 103 1 104 1 105 15 107 5 109 0 110 1 111 15 112 2 113 1 
114 2 115 6 116 60 117 19 118 21 119 13 120 2 124 0 125 1 127 2 
128 15 129 2 130 47 131 25 132 17 133 4 134 7 135 6 141 30 142 1 
143 88 144 15 145 16 146 1 147 677 148 118 149 88 150 1 151 4 155 2 
156 2 157 3 158 4 159 118 160 15 161 1 162 6 163 4 165 2 171 0 
172 160 173 36 174 8 175 0 177 2 179 10 180 1 181 0 185 20 186 4 
187 3 189 1 190 4 191 11 192 2 193 0 194 2 200 40 201 35 202 1 
203 5 204 65 205 11 206 8 207 2 217 7 218 7 219 1 220 4 221 3 
222 4 223 0 229 16 230 3 231 8 232 0 233 6 235 2 247 34 248 1 
249 3 261 2 263 2 275 27 276 60 277 28 278 2 279 6 
