Name: 3-ETHYLTETRAHYDROFURAN
MW: 100
Formula: C6H12O
Synonym: MassBank: JP008948
Synonym: 3-ETHYLTETRAHYDROFURAN
Structure: 310A31390A332D455448594C5445545241485944524F465552414E2E6D6F6C0A20204368656D447261773032323231303138303032440A2020372020372020302020302020302020302020302020302020302020303939392056323030300A20202020312E333637332020202D302E3031323220202020302E30303030204F202020302020302020302020302020302020302020302020302020302020302020302020300A20202020302E383135332020202D302E3632353320202020302E303030302043202020302020302020302020302020302020302020302020302020302020302020302020300A20202020302E303631362020202D302E3238393820202020302E303030302043202020302020302020302020302020302020302020302020302020302020302020302020300A20202020302E3134373920202020302E3533303720202020302E303030302043202020302020302020302020302020302020302020302020302020302020302020302020300A20202020302E3935343820202020302E3730323320202020302E303030302043202020302020302020302020302020302020302020302020302020302020302020302020300A2020202D302E363532392020202D302E3730323320202020302E303030302043202020302020302020302020302020302020302020302020302020302020302020302020300A2020202D312E333637332020202D302E3238393820202020302E303030302043202020302020302020302020302020302020302020302020302020302020302020302020300A2020312020322020312020302020202020200A2020322020332020312020302020202020200A2020332020342020312020302020202020200A2020342020352020312020302020202020200A2020312020352020312020302020202020200A2020362020372020312020302020202020200A2020332020362020312020302020202020200A4D2020454E44
Contributor: YAMAMOTO M, DEP. CHEMISTRY, FAC. SCIENCE, NARA WOMEN'S UNIV.
InstType: EI
InstName: HITACHI RMU-6M
IoniMethod: _ENERGY 70 eV
IonPolarity: pos
Date: 2010-10-09 19:48:36+02:00
Num Peaks: 38
15 42 26 45 27 369 28 7 29 229 31 37 37 17 38 4 39 453 40 140 
41 532 42 999 43 158 44 88 45 94 50 3 51 35 52 21 53 204 54 6 
55 814 56 43 57 49 65 2 66 26 67 379 68 406 69 6 70 692 71 45 
72 23 81 2 82 55 83 15 98 36 99 6 100 209 101 15 
