Name: TETRACHLOROPHTHALIC ACID DIMETHY ESTER
CAS: 20098-41-3
MW: 329
Formula: C10H6Cl4O4
Synonym: MassBank: JP004225
Synonym: TETRACHLOROPHTHALIC ACID DIMETHY ESTER
Synonym: 3,4,5,6-TETRACHLORO-1,2-BENZENEDICARBOXYLIC ACID DIMETHYL ESTER
Structure: 544554524143484C4F524F50485448414C494320414349442044494D455448592045535445522E6D6F6C0A20204368656D447261773032323131303231333732440A2031382031382020302020302020302020302020302020302020302020303939392056323030300A2020202D302E3335373220202020312E3434333720202020302E303030302043202020302020302020302020302020302020302020302020302020302020302020302020300A2020202D302E3335373220202020302E3631383720202020302E303030302043202020302020302020302020302020302020302020302020302020302020302020302020300A20202020302E3335373220202020302E3230363220202020302E303030302043202020302020302020302020302020302020302020302020302020302020302020302020300A20202020312E3037313720202020302E3631383720202020302E303030302043202020302020302020302020302020302020302020302020302020302020302020302020300A20202020302E333537322020202D302E3631383820202020302E303030302043202020302020302020302020302020302020302020302020302020302020302020302020300A2020202D302E333537322020202D312E3033313320202020302E303030302043202020302020302020302020302020302020302020302020302020302020302020302020300A2020202D312E303731372020202D302E3631383820202020302E303030302043202020302020302020302020302020302020302020302020302020302020302020302020300A2020202D312E3037313720202020302E3230363220202020302E303030302043202020302020302020302020302020302020302020302020302020302020302020302020300A20202020302E3335373220202020312E3835363220202020302E30303030204F202020302020302020302020302020302020302020302020302020302020302020302020300A2020202D312E3037313720202020312E3835363220202020302E30303030204F202020302020302020302020302020302020302020302020302020302020302020302020300A20202020312E3037313720202020312E3434333820202020302E30303030204F202020302020302020302020302020302020302020302020302020302020302020302020300A20202020312E3738363120202020302E3230363220202020302E30303030204F202020302020302020302020302020302020302020302020302020302020302020302020300A20202020312E303731372020202D312E3033313320202020302E3030303020436C2020302020302020302020302020302020302020302020302020302020302020302020300A2020202D302E333537322020202D312E3835363220202020302E3030303020436C2020302020302020302020302020302020302020302020302020302020302020302020300A2020202D312E373836312020202D312E3033313320202020302E3030303020436C2020302020302020302020302020302020302020302020302020302020302020302020300A2020202D312E3738363120202020302E3631383720202020302E3030303020436C2020302020302020302020302020302020302020302020302020302020302020302020300A2020202D312E3738363120202020312E3434333720202020302E303030302043202020302020302020302020302020302020302020302020302020302020302020302020300A20202020312E373836312020202D302E3631383720202020302E303030302043202020302020302020302020302020302020302020302020302020302020302020302020300A2020312020322020312020302020202020200A2020322020332020312020302020202020200A2020332020342020312020302020202020200A2020332020352020322020302020202020200A2020352020362020312020302020202020200A2020362020372020322020302020202020200A2020372020382020312020302020202020200A2020322020382020322020302020202020200A2020312020392020322020302020202020200A2020312031302020312020302020202020200A2020342031312020322020302020202020200A2020342031322020312020302020202020200A2020352031332020312020302020202020200A2020362031342020312020302020202020200A2020372031352020312020302020202020200A2020382031362020312020302020202020200A2031302031372020312020302020202020200A2031322031382020312020302020202020200A4D2020454E44
Contributor: KOGA M, UNIV. OF OCCUPATIONAL AND ENVIRONMENTAL HEALTH
InstType: EI
InstName: JEOL JMS-01-SG
IoniMethod: _ENERGY 70 eV
IonPolarity: pos
Date: 2010-10-09 19:48:36+02:00
Num Peaks: 48
107 40 108 12 109 15 115 1 118 12 135 12 142 64 143 1 144 40 167 12 
177 37 178 2 179 37 180 18 181 12 205 2 207 18 212 27 213 12 214 4 
215 18 216 12 221 12 228 2 230 24 240 24 242 27 243 1 244 12 256 46 
258 58 260 3 269 30 271 46 273 30 299 75 300 80 301 999 302 98 303 47 
304 40 305 101 330 135 331 1 332 166 333 12 334 80 336 15 
