Name: 1-PHENYL-2-METHYL-2-BUTANOL
MW: 164
Formula: C11H16O
Synonym: MassBank: JP006578
Synonym: 1-PHENYL-2-METHYL-2-BUTANOL
Structure: 312D5048454E594C2D322D4D455448594C2D322D425554414E4F4C2E6D6F6C0A20204368656D447261773131323230393232313532440A2031322031322020302020302020302020302020302020302020302020303939392056323030300A2020202D302E303935372020202D302E3637343020202020302E303030302043202020302020302020302020302020302020302020302020302020302020302020302020300A2020202D302E383130322020202D302E3236313520202020302E303030302043202020302020302020302020302020302020302020302020302020302020302020302020300A2020202D312E323232372020202D302E3937363020202020302E303030302043202020302020302020302020302020302020302020302020302020302020302020302020300A2020202D322E303437372020202D302E3937363020202020302E303030302043202020302020302020302020302020302020302020302020302020302020302020302020300A2020202D312E3532343720202020302E3135313020202020302E30303030204F202020302020302020302020302020302020302020302020302020302020302020302020300A2020202D302E3339373720202020302E3435333020202020302E303030302043202020302020302020302020302020302020302020302020302020302020302020302020300A20202020302E363138382020202D302E3236313520202020302E303030302043202020302020302020302020302020302020302020302020302020302020302020302020300A20202020302E3631383820202020302E3536333520202020302E303030302043202020302020302020302020302020302020302020302020302020302020302020302020300A20202020312E3333333220202020302E3937363020202020302E303030302043202020302020302020302020302020302020302020302020302020302020302020302020300A20202020322E3034373720202020302E3536333520202020302E303030302043202020302020302020302020302020302020302020302020302020302020302020302020300A20202020322E303437372020202D302E3236313520202020302E303030302043202020302020302020302020302020302020302020302020302020302020302020302020300A20202020312E333333322020202D302E3637343020202020302E303030302043202020302020302020302020302020302020302020302020302020302020302020302020300A2020312020322020312020302020202020200A2020322020332020312020302020202020200A2020332020342020312020302020202020200A2020322020352020312020302020202020200A2020322020362020312020302020202020200A2020372020382020312020302020202020200A2020382020392020322020302020202020200A2020392031302020312020302020202020200A2031302031312020322020302020202020200A2031312031322020312020302020202020200A2020372031322020322020302020202020200A2020312020372020312020302020202020200A4D2020454E44
Contributor: HISAHIRO HAGIWARA, CHEMICAL RESEARCH INSTITUTE OF NON-AQUEOUSSOLUTIONS TOHOKU UNIV.
InstType: EI
InstName: HITACHI M-80B
IoniMethod: _ENERGY 70 eV
IonPolarity: pos
Date: 2010-10-09 19:48:36+02:00
Num Peaks: 46
15 17 18 23 27 85 29 124 31 51 39 111 41 44 42 11 43 372 44 11 
45 82 50 20 51 57 52 16 53 19 55 279 56 12 57 119 58 15 63 39 
64 16 65 157 66 12 68 10 71 10 72 13 73 813 74 37 77 40 78 19 
79 15 89 30 90 17 91 484 92 999 93 93 104 10 105 22 115 34 116 18 
117 67 131 54 135 146 136 12 146 31 149 32 
