Name: 1-IODO-2-TRIMETHYLSILOXYCYCLODODECANE
MW: 382
Formula: C15H31IOSi
Synonym: MassBank: JP002417
Synonym: 1-IODO-2-TRIMETHYLSILOXYCYCLODODECANE
Structure: 312D494F444F2D322D5452494D455448594C53494C4F58594359434C4F444F444543414E452E6D6F6C0A20204368656D447261773131313930393135343132440A2031382031382020302020302020302020302020302020302020302020303939392056323030300A2020202D312E333533312020202D302E3437383120202020302E303030302043202020302020302020302020302020302020302020302020302020302020302020302020300A2020202D312E333533312020202D312E3330333120202020302E303030302043202020302020302020302020302020302020302020302020302020302020302020302020300A2020202D302E363338362020202D312E3731353620202020302E303030302043202020302020302020302020302020302020302020302020302020302020302020302020300A20202020302E303735382020202D312E3330333120202020302E303030302043202020302020302020302020302020302020302020302020302020302020302020302020300A20202020302E303735382020202D302E3437383120202020302E303030302043202020302020302020302020302020302020302020302020302020302020302020302020300A2020202D302E363338362020202D302E3036353620202020302E303030302043202020302020302020302020302020302020302020302020302020302020302020302020300A20202020302E363539322020202D312E3838363420202020302E303030302043202020302020302020302020302020302020302020302020302020302020302020302020300A20202020312E343834322020202D312E3838363420202020302E303030302043202020302020302020302020302020302020302020302020302020302020302020302020300A20202020322E303637362020202D312E3330333120202020302E303030302043202020302020302020302020302020302020302020302020302020302020302020302020300A20202020322E303637362020202D302E3437383120202020302E303030302043202020302020302020302020302020302020302020302020302020302020302020302020300A20202020312E3438343220202020302E3130353320202020302E303030302043202020302020302020302020302020302020302020302020302020302020302020302020300A20202020302E3635393220202020302E3130353320202020302E303030302043202020302020302020302020302020302020302020302020302020302020302020302020300A20202020302E3037353820202020302E3334363920202020302E303030302049202020302020302020302020302020302020302020302020302020302020302020302020300A2020202D302E3633383620202020302E3735393420202020302E30303030204F202020302020302020302020302020302020302020302020302020302020302020302020300A2020202D312E3335333120202020312E3137313920202020302E303030302053692020302020302020302020302020302020302020302020302020302020302020302020300A2020202D322E3036373620202020312E3538343420202020302E303030302043202020302020302020302020302020302020302020302020302020302020302020302020300A2020202D302E3934303620202020312E3838363420202020302E303030302043202020302020302020302020302020302020302020302020302020302020302020302020300A2020202D312E3736353620202020302E3435373520202020302E303030302043202020302020302020302020302020302020302020302020302020302020302020302020300A2020312020322020312020302020202020200A2020322020332020312020302020202020200A2020332020342020312020302020202020200A2020352020362020312020302020202020200A2020362020312020312020302020202020200A2020342020372020312020302020202020200A2020372020382020312020302020202020200A2020382020392020312020302020202020200A2020392031302020312020302020202020200A2031302031312020312020302020202020200A2031312031322020312020302020202020200A2031322020352020312020302020202020200A2020352031332020312020302020202020200A2020362031342020312020302020202020200A2031342031352020312020302020202020200A2031352031362020312020302020202020200A2031352031372020312020302020202020200A2031352031382020312020302020202020200A4D2020454E44
Contributor: MASS SPECTROSCOPY SOC. OF JAPAN (MSSJ)
InstType: EI
InstName: JEOL JMS-D-3000
IoniMethod: _ENERGY 70 eV
IonPolarity: pos
Date: 2010-10-09 19:48:36+02:00
Num Peaks: 67
42 428 43 78 45 130 47 58 53 81 54 65 55 576 58 180 59 111 61 42 
67 371 68 139 69 299 71 111 73 999 74 61 75 887 76 47 77 50 79 159 
80 98 81 330 82 234 83 531 84 83 91 90 93 88 94 43 95 328 96 125 
97 188 98 144 99 41 103 196 107 48 109 252 111 78 112 43 115 74 116 43 
121 81 122 47 123 60 125 47 127 43 129 806 130 436 131 48 135 72 143 297 
144 66 155 155 156 43 157 67 164 50 182 64 183 88 185 94 199 44 211 48 
239 43 254 119 255 832 256 193 257 69 367 58 382 50 
