Name: (3R)-4-(TERT-BUTYLTHIO)-3-TOSYLAMINO-2-BUTANONE
MW: 329
Formula: C15H23NO3S2
Synonym: MassBank: JP002420
Synonym: (3R)-4-(TERT-BUTYLTHIO)-3-TOSYLAMINO-2-BUTANONE
Structure: 283352292D342D28544552542D425554594C5448494F292D332D544F53594C414D494E4F2D322D425554414E4F4E452E6D6F6C0A20204368656D447261773130323130393033343132440A2032322032322020302020302020302020302020302020302020302020303939392056323030300A2020202D312E3839363720202020302E3030303020202020302E303030302043202020302020302020302020302020302020302020302020302020302020302020302020300A2020202D312E383936372020202D302E3832353020202020302E303030302043202020302020302020302020302020302020302020302020302020302020302020302020300A2020202D312E313832322020202D312E3233373520202020302E303030302043202020302020302020302020302020302020302020302020302020302020302020302020300A2020202D302E343637382020202D302E3832353020202020302E303030302043202020302020302020302020302020302020302020302020302020302020302020302020300A2020202D302E3436373820202020302E3030303020202020302E303030302043202020302020302020302020302020302020302020302020302020302020302020302020300A2020202D312E3138323220202020302E3431323520202020302E303030302043202020302020302020302020302020302020302020302020302020302020302020302020300A2020202D312E3138323220202020312E3233373520202020302E303030302053202020302020302020302020302020302020302020302020302020302020302020302020300A2020202D312E3138323220202020322E3036323520202020302E30303030204F202020302020302020302020302020302020302020302020302020302020302020302020300A2020202D302E3335373220202020312E3233373520202020302E30303030204E202020302020302020302020302020302020302020302020302020302020302020302020300A2020202D322E3030373220202020312E3233373520202020302E30303030204F202020302020302020302020302020302020302020302020302020302020302020302020300A20202020302E3436373820202020312E3233373520202020302E303030302043202020302020302020302020302020302020302020302020302020302020302020302020300A20202020312E3239323820202020312E3233373520202020302E303030302043202020302020302020302020302020302020302020302020302020302020302020302020300A20202020302E3436373820202020322E3036323520202020302E303030302048202020302020302020302020302020302020302020302020302020302020302020302020300A20202020302E3436373820202020302E3431323520202020302E303030302043202020302020302020302020302020302020302020302020302020302020302020302020300A20202020312E3730353320202020312E3935323020202020302E303030302043202020302020302020302020302020302020302020302020302020302020302020302020300A20202020312E3730353320202020302E3532333020202020302E303030302043202020302020302020302020302020302020302020302020302020302020302020302020300A20202020312E3138323220202020302E3030303020202020302E303030302053202020302020302020302020302020302020302020302020302020302020302020302020300A20202020312E313832322020202D302E3832353020202020302E303030302043202020302020302020302020302020302020302020302020302020302020302020302020300A20202020312E313832322020202D312E3635303020202020302E303030302043202020302020302020302020302020302020302020302020302020302020302020302020300A20202020322E303037322020202D302E3832353020202020302E303030302043202020302020302020302020302020302020302020302020302020302020302020302020300A20202020302E333537322020202D302E3832353020202020302E303030302043202020302020302020302020302020302020302020302020302020302020302020302020300A2020202D312E313832322020202D322E3036323520202020302E303030302043202020302020302020302020302020302020302020302020302020302020302020302020300A2020312020322020322020302020202020200A2020322020332020312020302020202020200A2020332020342020322020302020202020200A2020342020352020312020302020202020200A2020352020362020322020302020202020200A2020362020312020312020302020202020200A2020362020372020312020302020202020200A2020372020382020322020302020202020200A2020372020392020312020302020202020200A2020372031302020322020302020202020200A2020392031312020312020302020202020200A2031312031322020312020302020202020200A2031312031332020312020312020202020200A2031312031342020312020312020202020200A2031322031352020312020302020202020200A2031322031362020322020302020202020200A2031342031372020312020302020202020200A2031372031382020312020302020202020200A2031382031392020312020302020202020200A2031382032302020312020312020202020200A2031382032312020312020312020202020200A2020332032322020312020302020202020200A4D202053545920203120202031205355500A4D2020534C4220203120202031202020310A4D202053414C20202031202031202032320A4D202053424C20202031202031202032320A4D2020534D5420202031204D650A4D2020534256202020312032322020202D362E3934373820202020382E303432310A4D2020454E44
Contributor: ITO S, DEPT. OF CHEM., TOHOKU UNIV.
InstType: EI
InstName: HITACHI M-52
IoniMethod: _ENERGY 13.5 eV
IonPolarity: pos
Date: 2010-10-09 19:48:36+02:00
Num Peaks: 18
56 17 57 46 72 60 74 8 102 96 103 53 104 17 157 3 158 33 230 999 
231 129 232 6 274 17 286 852 287 166 288 22 289 30 329 36 
