Name: NORBORNEOL
MW: 112
Formula: C7H12O
Synonym: MassBank: JP009721
Synonym: NORBORNEOL
Synonym: ENDO-BICYCLO(2.2.1)HEPTAN-2-OL
Structure: 310A32320A303436325F4E4F52424F524E454F4C2E6D6F6C0A20204368656D447261773039303631303137333132440A2020382020392020302020302020302020302020302020302020302020303939392056323030300A2020202D302E3731343520202020302E3030303020202020302E303030302043202020302020302020302020302020302020302020302020302020302020302020302020300A2020202D302E373134352020202D302E3832353020202020302E303030302043202020302020302020302020302020302020302020302020302020302020302020302020300A20202020302E303030302020202D312E3233373520202020302E303030302043202020302020302020302020302020302020302020302020302020302020302020302020300A20202020302E373134352020202D302E3832353020202020302E303030302043202020302020302020302020302020302020302020302020302020302020302020302020300A20202020302E3731343520202020302E3030303020202020302E303030302043202020302020302020302020302020302020302020302020302020302020302020302020300A20202020302E3030303020202020302E3431323520202020302E303030302043202020302020302020302020302020302020302020302020302020302020302020302020300A20202020302E3030303020202020312E3233373520202020302E30303030204F202020302020302020302020302020302020302020302020302020302020302020302020300A20202020302E313031302020202D302E3132353120202020302E303030302043202020302020302020302020302020302020302020302020302020302020302020302020300A2020312020322020312020302020202020200A2020322020332020312020302020202020200A2020332020342020312020302020202020200A2020342020352020312020302020202020200A2020352020362020312020302020202020200A2020362020312020312020302020202020200A2020362020372020312020302020202020200A2020312020382020312020302020202020200A2020382020342020312020302020202020200A4D2020454E44
Contributor: HASHIMOTO K, KYOTO COLLEGE OF PHARMACY
InstType: EI
InstName: HITACHI M-80
IoniMethod: _ENERGY 20 eV
IonPolarity: pos
Date: 2010-10-09 19:48:36+02:00
Num Peaks: 38
27 19 29 51 31 13 39 19 40 23 41 138 42 44 43 87 44 40 45 55 
53 69 54 34 55 155 56 91 57 238 58 33 65 18 66 678 67 665 68 584 
69 71 70 128 71 55 77 34 78 15 79 816 80 62 81 118 82 16 83 173 
84 52 91 15 93 62 94 999 95 87 97 60 111 12 112 18 
