Name: MassBank: JP001949
MW: 180
Formula: C12H20O
Synonym: MassBank: JP001949
Synonym: 2,2,7,7-TETRAMETHYL-4-METHYLENECYCLOHEPTANONE
Structure: 322C322C372C372D54455452414D455448594C2D342D4D455448594C454E454359434C4F48455054414E4F4E452E6D6F6C0A20204368656D447261773132323030393036323832440A2031332031332020302020302020302020302020302020302020302020303939392056323030300A2020202D302E3030303020202020302E3836323820202020302E303030302043202020302020302020302020302020302020302020302020302020302020302020302020300A2020202D302E3734333320202020302E3530343820202020302E303030302043202020302020302020302020302020302020302020302020302020302020302020302020300A2020202D302E393236392020202D302E3239393520202020302E303030302043202020302020302020302020302020302020302020302020302020302020302020302020300A2020202D302E343132352020202D302E3934343520202020302E303030302043202020302020302020302020302020302020302020302020302020302020302020302020300A20202020302E343132352020202D302E3934343520202020302E303030302043202020302020302020302020302020302020302020302020302020302020302020302020300A20202020302E393236392020202D302E3239393520202020302E303030302043202020302020302020302020302020302020302020302020302020302020302020302020300A20202020302E3734333320202020302E3530343820202020302E303030302043202020302020302020302020302020302020302020302020302020302020302020302020300A2020202D302E373730352020202D312E3638373820202020302E303030302043202020302020302020302020302020302020302020302020302020302020302020302020300A20202020312E3536383320202020302E3530343820202020302E303030302043202020302020302020302020302020302020302020302020302020302020302020302020300A20202020302E3932363920202020312E3330393220202020302E303030302043202020302020302020302020302020302020302020302020302020302020302020302020300A2020202D302E3932363920202020312E3330393220202020302E303030302043202020302020302020302020302020302020302020302020302020302020302020302020300A2020202D312E3536383320202020302E3530343820202020302E303030302043202020302020302020302020302020302020302020302020302020302020302020302020300A2020202D302E3030303020202020312E3638373820202020302E30303030204F202020302020302020302020302020302020302020302020302020302020302020302020300A2020312020322020312020302020202020200A2020322020332020312020302020202020200A2020332020342020312020302020202020200A2020342020352020312020302020202020200A2020352020362020312020302020202020200A2020362020372020312020302020202020200A2020312020372020312020302020202020200A2020342020382020322020302020202020200A2020372020392020312020312020202020200A2020372031302020312020362020202020200A2020322031312020312020312020202020200A2020322031322020312020362020202020200A2020312031332020322020302020202020200A4D2020454E44
Contributor: MASS SPECTROSCOPY SOC. OF JAPAN (MSSJ)
InstType: EI
InstName: JEOL JMS-D-3000
IoniMethod: _ENERGY 70 eV
IonPolarity: pos
Date: 2010-10-09 19:48:36+02:00
Num Peaks: 29
41 362 43 136 53 94 55 213 56 136 57 47 67 221 68 123 69 153 77 72 
79 38 81 999 82 209 83 98 93 43 95 391 96 711 97 60 108 89 109 749 
110 94 111 81 124 213 125 281 137 157 138 34 165 111 180 438 181 34 
