Name: 5-METHYL-2-BUTYRYLFURAN
MW: 152
Formula: C9H12O2
Synonym: MassBank: JP007739
Synonym: 5-METHYL-2-BUTYRYLFURAN
Structure: 352D4D455448594C2D322D4255545952594C465552414E2E6D6F6C0A20204368656D447261773034323331303037303632440A2031312031312020302020302020302020302020302020302020302020303939392056323030300A20202020302E3735333920202020302E3331303220202020302E30303030204F202020302020302020302020302020302020302020302020302020302020302020302020300A20202020302E323639302020202D302E3335373220202020302E303030302043202020302020302020302020302020302020302020302020302020302020302020302020300A20202020302E373533392020202D312E3032343720202020302E303030302043202020302020302020302020302020302020302020302020302020302020302020302020300A20202020312E353338362020202D302E3736393720202020302E303030302043202020302020302020302020302020302020302020302020302020302020302020302020300A20202020312E3533383620202020302E3035353320202020302E303030302043202020302020302020302020302020302020302020302020302020302020302020302020300A2020202D302E353536302020202D302E3335373220202020302E303030302043202020302020302020302020302020302020302020302020302020302020302020302020300A2020202D302E393638352020202D312E3037313720202020302E30303030204F202020302020302020302020302020302020302020302020302020302020302020302020300A2020202D302E3936383520202020302E3335373220202020302E303030302043202020302020302020302020302020302020302020302020302020302020302020302020300A2020202D312E3739333520202020302E3335373220202020302E303030302043202020302020302020302020302020302020302020302020302020302020302020302020300A2020202D322E3230363020202020312E3037313720202020302E303030302043202020302020302020302020302020302020302020302020302020302020302020302020300A20202020322E3230363020202020302E3534303220202020302E303030302043202020302020302020302020302020302020302020302020302020302020302020302020300A2020312020322020312020302020202020200A2020322020332020322020302020202020200A2020332020342020312020302020202020200A2020342020352020322020302020202020200A2020312020352020312020302020202020200A2020362020372020322020302020202020200A2020362020382020312020302020202020200A2020382020392020312020302020202020200A2020392031302020312020302020202020200A2020322020362020312020302020202020200A2020352031312020312020302020202020200A4D2020454E44
Contributor: HASHIMOTO K, KYOTO COLLEGE OF PHARMACY
InstType: EI
InstName: HITACHI M-80
IoniMethod: _ENERGY 20 eV
IonPolarity: pos
Date: 2010-10-09 19:48:36+02:00
Num Peaks: 23
27 60 41 39 42 68 43 123 52 21 53 262 54 32 55 43 70 10 71 11 
81 58 82 101 95 43 108 10 109 999 110 99 111 11 123 16 124 616 125 57 
137 135 138 10 152 212 
