Name: MassBank: JP000750
MW: 234
Formula: C12H10O5
Synonym: MassBank: JP000750
Synonym: 2-HYDROXY-5,7-DIMETHOXY-1,4-NAPHTHOQUINONE
Structure: 322D485944524F58592D352C372D44494D4554484F58592D312C342D4E41504854484F5155494E4F4E452E6D6F6C0A20204368656D447261773031323131303231323732440A2031372031382020302020302020302020302020302020302020302020303939392056323030300A20202020312E3037313720202020312E3033313320202020302E303030302043202020302020302020302020302020302020302020302020302020302020302020302020300A20202020312E3738363220202020302E3631383820202020302E303030302043202020302020302020302020302020302020302020302020302020302020302020302020300A20202020312E373836322020202D302E3230363220202020302E303030302043202020302020302020302020302020302020302020302020302020302020302020302020300A20202020312E303731372020202D302E3631383820202020302E303030302043202020302020302020302020302020302020302020302020302020302020302020302020300A20202020302E333537322020202D302E3230363220202020302E303030302043202020302020302020302020302020302020302020302020302020302020302020302020300A2020202D302E333537322020202D302E3631383820202020302E303030302043202020302020302020302020302020302020302020302020302020302020302020302020300A2020202D312E303731372020202D302E3230363220202020302E303030302043202020302020302020302020302020302020302020302020302020302020302020302020300A2020202D312E3037313720202020302E3631383720202020302E303030302043202020302020302020302020302020302020302020302020302020302020302020302020300A2020202D302E3335373220202020312E3033313320202020302E303030302043202020302020302020302020302020302020302020302020302020302020302020302020300A20202020302E3335373220202020302E3631383820202020302E303030302043202020302020302020302020302020302020302020302020302020302020302020302020300A20202020312E303731372020202D312E3434333820202020302E30303030204F202020302020302020302020302020302020302020302020302020302020302020302020300A20202020312E3037313720202020312E3835363320202020302E30303030204F202020302020302020302020302020302020302020302020302020302020302020302020300A2020202D312E3738363220202020312E3033313220202020302E30303030204F202020302020302020302020302020302020302020302020302020302020302020302020300A2020202D322E3530303620202020302E3631383720202020302E303030302043202020302020302020302020302020302020302020302020302020302020302020302020300A2020202D302E333537322020202D312E3434333820202020302E30303030204F202020302020302020302020302020302020302020302020302020302020302020302020300A2020202D312E303731372020202D312E3835363320202020302E303030302043202020302020302020302020302020302020302020302020302020302020302020302020300A20202020322E3530303620202020312E3033313320202020302E30303030204F202020302020302020302020302020302020302020302020302020302020302020302020300A2020312020322020312020302020202020200A2020322020332020322020302020202020200A2020332020342020312020302020202020200A2020342020352020312020302020202020200A2020352020362020312020302020202020200A2020362020372020322020302020202020200A2020372020382020312020302020202020200A2020382020392020322020302020202020200A2020392031302020312020302020202020200A2020312031302020312020302020202020200A2020352031302020322020302020202020200A2020342031312020322020302020202020200A2020312031322020322020302020202020200A2031332031342020312020302020202020200A2020382031332020312020302020202020200A2031352031362020312020302020202020200A2020362031352020312020302020202020200A2020322031372020312020302020202020200A4D2020454E44
Contributor: NAKAYAMA M, MASS SPECTROSCOPY SOC. OF JAPAN (MSSJ)
InstType: EI
InstName: HITACHI RMS-4
IoniMethod: _ENERGY 70 eV
IonPolarity: pos
Date: 2010-10-09 19:48:36+02:00
Num Peaks: 144
39 150 40 50 41 120 42 8 43 230 44 50 45 60 46 2 50 100 51 180 
52 70 53 9 54 50 55 200 56 40 57 9 58 20 59 100 60 40 61 5 
62 90 63 150 64 60 65 13 66 40 67 20 68 40 69 3 70 140 71 50 
72 60 73 6 74 50 75 70 76 80 77 23 78 80 79 60 80 80 81 3 
82 30 83 60 84 30 85 6 86 30 87 40 88 40 89 10 90 70 91 120 
92 100 93 6 94 40 95 40 96 30 97 4 98 30 99 40 100 50 101 5 
102 60 103 120 104 50 105 10 106 60 107 80 108 30 109 3 110 20 111 20 
112 20 113 1 114 10 115 50 116 30 117 6 118 60 119 80 120 60 121 6 
122 30 123 20 124 20 125 2 126 20 127 30 128 30 129 3 130 40 131 100 
132 90 133 8 134 90 135 140 136 50 137 4 138 40 139 20 140 20 141 2 
142 20 143 30 144 40 145 5 146 70 147 90 148 100 149 9 150 50 151 40 
152 20 153 1 158 30 159 60 160 100 161 94 162 160 163 90 164 110 173 5 
174 130 175 270 176 130 177 6 178 30 187 40 188 60 189 5 190 60 191 60 
192 30 202 21 203 140 204 50 205 160 206 7 216 30 217 30 218 30 219 2 
233 110 234 999 235 160 236 30 
