Name: MassBank: JP000740
MW: 258
Formula: C15H30O3
Synonym: MassBank: JP000740
Synonym: 3,3,7,7,11-PENTAMETHYL-4,8-DIOXA-11-DODECEN-1-OL
Structure: 332C332C372C372C31312D50454E54414D455448594C2D342C382D44494F58412D31312D444F444543454E2D312D4F4C2E6D6F6C0A20204368656D447261773032323131303139353832440A2031382031372020302020302020302020302020302020302020302020303939392056323030300A2020202D332E3330303020202020312E3438343220202020302E303030302043202020302020302020302020302020302020302020302020302020302020302020302020300A2020202D322E3437353020202020312E3438343220202020302E303030302043202020302020302020302020302020302020302020302020302020302020302020302020300A2020202D332E3731323520202020322E3139383720202020302E303030302043202020302020302020302020302020302020302020302020302020302020302020302020300A2020202D332E3731323520202020302E3736393720202020302E303030302043202020302020302020302020302020302020302020302020302020302020302020302020300A2020202D322E3036323520202020302E3736393720202020302E303030302043202020302020302020302020302020302020302020302020302020302020302020302020300A2020202D312E3233373520202020302E3736393720202020302E30303030204F202020302020302020302020302020302020302020302020302020302020302020302020300A2020202D302E3832353020202020302E3035353320202020302E303030302043202020302020302020302020302020302020302020302020302020302020302020302020300A2020202D302E343132352020202D302E3635393220202020302E303030302043202020302020302020302020302020302020302020302020302020302020302020302020300A2020202D302E3131303520202020302E3436373820202020302E303030302043202020302020302020302020302020302020302020302020302020302020302020302020300A2020202D312E353339352020202D302E3335373220202020302E303030302043202020302020302020302020302020302020302020302020302020302020302020302020300A20202020302E343132352020202D302E3635393220202020302E303030302043202020302020302020302020302020302020302020302020302020302020302020302020300A20202020302E383235302020202D312E3337333720202020302E30303030204F202020302020302020302020302020302020302020302020302020302020302020302020300A20202020312E363530302020202D312E3337333720202020302E303030302043202020302020302020302020302020302020302020302020302020302020302020302020300A20202020312E363530302020202D302E3534383720202020302E303030302043202020302020302020302020302020302020302020302020302020302020302020302020300A20202020322E343735302020202D312E3337333720202020302E303030302043202020302020302020302020302020302020302020302020302020302020302020302020300A20202020312E363530302020202D322E3139383720202020302E303030302043202020302020302020302020302020302020302020302020302020302020302020302020300A20202020322E383837352020202D302E3635393220202020302E303030302043202020302020302020302020302020302020302020302020302020302020302020302020300A20202020332E373132352020202D302E3635393220202020302E30303030204F202020302020302020302020302020302020302020302020302020302020302020302020300A2020312020322020312020302020202020200A2020312020332020312020302020202020200A2020312020342020322020302020202020200A2020322020352020312020302020202020200A2020352020362020312020302020202020200A2020362020372020312020302020202020200A2020372020382020312020302020202020200A2020372020392020312020302020202020200A2020372031302020312020302020202020200A2020382031312020312020302020202020200A2031312031322020312020302020202020200A2031322031332020312020302020202020200A2031332031342020312020312020202020200A2031332031352020312020302020202020200A2031332031362020312020312020202020200A2031352031372020312020302020202020200A2031372031382020312020302020202020200A4D2020454E44
Contributor: NAKAYAMA M, MASS SPECTROSCOPY SOC. OF JAPAN (MSSJ)
InstType: EI
InstName: HITACHI RMS-4
IoniMethod: _ENERGY 70 eV
IonPolarity: pos
Date: 2010-10-09 19:48:36+02:00
Num Peaks: 36
31 60 39 60 40 30 41 320 42 40 43 130 44 20 45 50 53 40 55 80 
56 90 57 90 58 20 59 60 67 50 68 60 69 999 70 120 71 180 81 50 
85 80 86 80 87 220 88 20 89 70 99 200 103 20 105 110 115 60 117 40 
127 50 137 30 139 60 155 70 173 50 258 15 
