Name: ISOPROPYL ETHOXYACETATE
MW: 146
Formula: C7H14O3
Synonym: MassBank: JP003696
Synonym: ISOPROPYL ETHOXYACETATE
Structure: 49534F50524F50594C204554484F5859414345544154452E6D6F6C0A20204368656D447261773038313131303231343132440A2031302020392020302020302020302020302020302020302020302020303939392056323030300A20202020302E333537322020202D302E3230363220202020302E303030302043202020302020302020302020302020302020302020302020302020302020302020302020300A2020202D302E333537322020202D302E3631383820202020302E303030302043202020302020302020302020302020302020302020302020302020302020302020302020300A20202020302E3335373220202020302E3631383820202020302E30303030204F202020302020302020302020302020302020302020302020302020302020302020302020300A20202020312E303731372020202D302E3631383720202020302E30303030204F202020302020302020302020302020302020302020302020302020302020302020302020300A2020202D312E303731372020202D302E3230363220202020302E30303030204F202020302020302020302020302020302020302020302020302020302020302020302020300A2020202D312E373836322020202D302E3631383720202020302E303030302043202020302020302020302020302020302020302020302020302020302020302020302020300A2020202D322E353030362020202D302E3230363320202020302E303030302043202020302020302020302020302020302020302020302020302020302020302020302020300A20202020312E373836322020202D302E3230363220202020302E303030302043202020302020302020302020302020302020302020302020302020302020302020302020300A20202020312E3738363220202020302E3631383820202020302E303030302043202020302020302020302020302020302020302020302020302020302020302020302020300A20202020322E353030362020202D302E3631383720202020302E303030302043202020302020302020302020302020302020302020302020302020302020302020302020300A2020312020322020312020302020202020200A2020312020332020322020302020202020200A2020312020342020312020302020202020200A2020362020372020312020302020202020200A2020352020362020312020302020202020200A2020322020352020312020302020202020200A2020382020392020312020302020202020200A2020382031302020312020302020202020200A2020342020382020312020302020202020200A4D2020454E44
Contributor: SASAKI S, TOYOHASHI UNIV. OF TECH.
InstType: EI
InstName: Unknown
IoniMethod: EI
IonPolarity: pos
Date: 2010-10-09 19:48:36+02:00
Num Peaks: 62
12 1 13 1 14 13 15 6 16 5 17 18 18 97 19 1 20 2 25 1 
26 26 27 29 28 79 29 372 30 17 31 92 32 12 33 4 36 1 37 0 
38 5 39 65 40 13 41 27 42 126 43 933 44 65 45 19 46 5 47 4 
49 5 51 0 55 7 56 2 57 15 58 1 59 999 60 460 61 67 62 0 
65 1 70 3 71 1 72 0 73 56 74 3 75 15 76 0 77 2 78 1 
85 1 86 1 87 2 88 29 89 2 90 0 102 125 103 49 104 3 105 0 
117 1 131 3 
