Name: UNDECANEDIOIC ACID DIMETHYL ESTER
MW: 244
Formula: C13H24O4
Synonym: MassBank: JP001723
Synonym: UNDECANEDIOIC ACID DIMETHYL ESTER
Structure: 554E444543414E4544494F494320414349442044494D455448594C2045535445522E6D6F6C0A20204368656D447261773038313231303039313932440A2031372031362020302020302020302020302020302020302020302020303939392056323030300A2020202D332E3537323420202020302E3230363220202020302E303030302043202020302020302020302020302020302020302020302020302020302020302020302020300A2020202D322E383537392020202D302E3230363320202020302E303030302043202020302020302020302020302020302020302020302020302020302020302020302020300A2020202D322E3134333420202020302E3230363220202020302E303030302043202020302020302020302020302020302020302020302020302020302020302020302020300A2020202D312E343238392020202D302E3230363320202020302E303030302043202020302020302020302020302020302020302020302020302020302020302020302020300A2020202D302E3731343520202020302E3230363220202020302E303030302043202020302020302020302020302020302020302020302020302020302020302020302020300A20202020302E303030302020202D302E3230363220202020302E303030302043202020302020302020302020302020302020302020302020302020302020302020302020300A20202020302E3731343520202020302E3230363220202020302E303030302043202020302020302020302020302020302020302020302020302020302020302020302020300A20202020312E343238392020202D302E3230363220202020302E303030302043202020302020302020302020302020302020302020302020302020302020302020302020300A20202020322E3134333420202020302E3230363220202020302E303030302043202020302020302020302020302020302020302020302020302020302020302020302020300A20202020322E383537392020202D302E3230363220202020302E303030302043202020302020302020302020302020302020302020302020302020302020302020302020300A20202020332E3537323420202020302E3230363220202020302E303030302043202020302020302020302020302020302020302020302020302020302020302020302020300A2020202D332E3537323420202020312E3033313220202020302E30303030204F202020302020302020302020302020302020302020302020302020302020302020302020300A2020202D342E323836382020202D302E3230363320202020302E30303030204F202020302020302020302020302020302020302020302020302020302020302020302020300A20202020332E3537323420202020312E3033313320202020302E30303030204F202020302020302020302020302020302020302020302020302020302020302020302020300A20202020342E323836382020202D302E3230363220202020302E30303030204F202020302020302020302020302020302020302020302020302020302020302020302020300A2020202D342E323836382020202D312E3033313320202020302E303030302043202020302020302020302020302020302020302020302020302020302020302020302020300A20202020342E323836382020202D312E3033313220202020302E303030302043202020302020302020302020302020302020302020302020302020302020302020302020300A2020312020322020312020302020202020200A2020322020332020312020302020202020200A2020332020342020312020302020202020200A2020342020352020312020302020202020200A2020352020362020312020302020202020200A2020362020372020312020302020202020200A2020372020382020312020302020202020200A2020382020392020312020302020202020200A2020392031302020312020302020202020200A2031302031312020312020302020202020200A2020312031322020322020302020202020200A2020312031332020312020302020202020200A2031312031342020322020302020202020200A2031312031352020312020302020202020200A2031332031362020312020302020202020200A2031352031372020312020302020202020200A4D2020454E44
Contributor: MASS SPECTROSCOPY SOC. OF JAPAN (MSSJ)
InstType: EI
InstName: Unknown
IoniMethod: EI
IonPolarity: pos
Date: 2010-10-09 19:48:36+02:00
Num Peaks: 90
4 23 18 19 41 22 43 244 44 14 55 230 56 19 57 69 59 91 67 34 
68 28 69 328 70 40 71 22 73 44 74 652 75 37 79 22 80 16 81 73 
82 34 83 164 84 642 85 60 87 215 88 24 93 27 94 39 95 61 96 91 
97 319 98 999 99 87 100 6 101 62 107 9 108 16 109 29 110 61 111 153 
112 235 113 75 114 11 115 56 116 5 120 35 121 114 122 11 123 26 124 43 
125 36 126 13 127 7 128 25 129 66 130 9 133 7 134 22 135 71 136 25 
137 21 138 74 139 610 140 61 141 12 142 6 143 9 144 5 151 14 152 226 
153 85 154 7 156 8 158 23 162 21 163 12 168 3 169 5 170 15 171 347 
172 46 179 4 180 71 181 22 184 13 185 7 194 3 212 20 213 289 214 38 
