Name: DIHYDROCARVEOL
MW: 154
Formula: C10H18O
Synonym: MassBank: JP001569
Synonym: DIHYDROCARVEOL
Synonym: 2-METHYL-5-(1-METHYLETHENYL)CYCROHEXANE-1-OL
Structure: 4449485944524F43415256454F4C2E6D6F6C0A20204368656D447261773031323231303037303132440A2031312031312020302020302020302020302020302020302020302020303939392056323030300A20202020302E333537322020202D302E3631383820202020302E303030302043202020302020302020302020302020302020302020302020302020302020302020302020300A20202020302E3335373220202020302E3230363220202020302E303030302043202020302020302020302020302020302020302020302020302020302020302020302020300A2020202D302E3335373220202020302E3631383820202020302E303030302043202020302020302020302020302020302020302020302020302020302020302020302020300A2020202D302E3335373220202020312E3434333720202020302E303030302043202020302020302020302020302020302020302020302020302020302020302020302020300A2020202D312E3037313720202020312E3835363220202020302E303030302043202020302020302020302020302020302020302020302020302020302020302020302020300A20202020302E3335373220202020312E3835363320202020302E303030302043202020302020302020302020302020302020302020302020302020302020302020302020300A2020202D312E3037313720202020302E3230363220202020302E303030302043202020302020302020302020302020302020302020302020302020302020302020302020300A2020202D312E303731372020202D302E3631383820202020302E303030302043202020302020302020302020302020302020302020302020302020302020302020302020300A2020202D302E333537322020202D312E3033313320202020302E303030302043202020302020302020302020302020302020302020302020302020302020302020302020300A2020202D302E333537322020202D312E3835363320202020302E303030302043202020302020302020302020302020302020302020302020302020302020302020302020300A20202020312E303731372020202D312E3033313320202020302E30303030204F202020302020302020302020302020302020302020302020302020302020302020302020300A2020312020322020312020302020202020200A2020322020332020312020302020202020200A2020332020342020312020302020202020200A2020342020352020322020302020202020200A2020342020362020312020302020202020200A2020332020372020312020302020202020200A2020372020382020312020302020202020200A2020382020392020312020302020202020200A2020392031302020312020302020202020200A2020312020392020312020302020202020200A2020312031312020312020302020202020200A4D2020454E44
Contributor: YAMAMOTO M, DEP. CHEMISTRY, FAC. SCIENCE, NARA WOMEN'S UNIV.
InstType: EI
InstName: HITACHI RMU-6M
IoniMethod: _ENERGY 70 eV
IonPolarity: pos
Date: 2010-10-09 19:48:36+02:00
Num Peaks: 60
15 35 27 336 28 69 29 340 31 90 39 482 40 118 41 999 42 129 43 501 
44 37 45 69 51 77 52 49 53 360 54 84 55 650 56 180 57 191 58 203 
59 85 65 92 66 152 67 597 68 554 69 542 70 235 71 217 72 115 77 158 
78 38 79 635 80 236 81 756 82 257 83 205 84 134 85 43 91 133 92 340 
93 978 94 536 95 313 96 208 97 346 98 63 105 56 107 798 108 211 109 52 
110 52 111 189 112 38 121 803 122 81 123 37 136 866 137 119 139 63 154 76 
