Name: MassBank: JP007292
MW: 564
Formula: C33H48O4Si2
Synonym: MassBank: JP007292
Synonym: (2S,3S)-3-BENZYLOXY-1-(TERT-BUTYLDIMETHYLSILYLOXY)-4-(TERT-BUTYLDIPHENYLSILYLOXY)-2-BUTANOL
Structure: 2832532C3353292D332D42454E5A594C4F58592D312D28544552542D425554594C44494D455448594C53494C594C4F5859292D342D28544552542D425554594C44495048454E594C53494C594C4F5859292D322D425554414E4F4C2E6D6F6C0A20204368656D447261773130323030393135343032440A2034312034332020302020302020302020302020302020302020302020303939392056323030300A2020202D302E3638303620202020302E3938303620202020302E30303030204F202020302020302020302020302020302020302020302020302020302020302020302020300A2020202D302E3638303620202020302E3135353620202020302E303030302043202020302020302020302020302020302020302020302020302020302020302020302020300A20202020302E303333392020202D302E3235363920202020302E303030302043202020302020302020302020302020302020302020302020302020302020302020302020300A20202020302E393632372020202D302E3739333120202020302E303030302043202020302020302020302020302020302020302020302020302020302020302020302020300A20202020312E373735312020202D302E3933363420202020302E303030302043202020302020302020302020302020302020302020302020302020302020302020302020300A20202020322E303537322020202D312E3731313520202020302E30303030204F202020302020302020302020302020302020302020302020302020302020302020302020300A20202020312E353237302020202D322E3334333520202020302E303030302053692020302020302020302020302020302020302020302020302020302020302020302020300A20202020312E323434392020202D332E3131383820202020302E303030302043202020302020302020302020302020302020302020302020302020302020302020302020300A20202020302E373134362020202D332E3735303820202020302E303030302043202020302020302020302020302020302020302020302020302020302020302020302020300A2020202D302E333738362020202D302E3937313420202020302E303030302048202020302020302020302020302020302020302020302020302020302020302020302020300A20202020302E3537303120202020302E3637313920202020302E30303030204F202020302020302020302020302020302020302020302020302020302020302020302020300A20202020312E323434392020202D302E3031373920202020302E303030302048202020302020302020302020302020302020302020302020302020302020302020302020300A20202020302E343332342020202D312E3432353120202020302E30303030204F202020302020302020302020302020302020302020302020302020302020302020302020300A20202020302E353330342020202D322E3730363320202020302E303030302043202020302020302020302020302020302020302020302020302020302020302020302020300A20202020322E303537322020202D332E3236323020202020302E303030302043202020302020302020302020302020302020302020302020302020302020302020302020300A2020202D312E3339353120202020312E3339333120202020302E303030302053692020302020302020302020302020302020302020302020302020302020302020302020300A2020202D322E3332333820202020312E3932393320202020302E303030302043202020302020302020302020302020302020302020302020302020302020302020302020300A2020202D302E3835383820202020322E3332313820202020302E303030302043202020302020302020302020302020302020302020302020302020302020302020302020300A2020202D312E3830373520202020302E3637383620202020302E303030302043202020302020302020302020302020302020302020302020302020302020302020302020300A2020202D332E3033383220202020322E3334313820202020302E303030302043202020302020302020302020302020302020302020302020302020302020302020302020300A2020202D312E3931313320202020322E3634333720202020302E303030302043202020302020302020302020302020302020302020302020302020302020302020302020300A2020202D322E3733363320202020312E3231343920202020302E303030302043202020302020302020302020302020302020302020302020302020302020302020302020300A2020202D322E3633323520202020302E3637383620202020302E303030302043202020302020302020302020302020302020302020302020302020302020302020302020300A2020202D332E303435302020202D302E3033353820202020302E303030302043202020302020302020302020302020302020302020302020302020302020302020302020300A2020202D322E363332352020202D302E3735303320202020302E303030302043202020302020302020302020302020302020302020302020302020302020302020302020300A2020202D312E383037352020202D302E3735303320202020302E303030302043202020302020302020302020302020302020302020302020302020302020302020302020300A2020202D312E333935312020202D302E3033353820202020302E303030302043202020302020302020302020302020302020302020302020302020302020302020302020300A2020202D302E3033333820202020322E3332313820202020302E303030302043202020302020302020302020302020302020302020302020302020302020302020302020300A20202020302E3337383720202020332E3033363320202020302E303030302043202020302020302020302020302020302020302020302020302020302020302020302020300A2020202D302E3033333820202020332E3735303820202020302E303030302043202020302020302020302020302020302020302020302020302020302020302020302020300A2020202D302E3835383820202020332E3735303820202020302E303030302043202020302020302020302020302020302020302020302020302020302020302020302020300A2020202D312E3237313320202020332E3033363320202020302E303030302043202020302020302020302020302020302020302020302020302020302020302020302020300A20202020312E3339353120202020302E3637313920202020302E303030302043202020302020302020302020302020302020302020302020302020302020302020302020300A20202020312E3830373520202020312E3338363420202020302E303030302043202020302020302020302020302020302020302020302020302020302020302020302020300A20202020312E3339353120202020322E3130303820202020302E303030302043202020302020302020302020302020302020302020302020302020302020302020302020300A20202020312E3830373520202020322E3831353220202020302E303030302043202020302020302020302020302020302020302020302020302020302020302020302020300A20202020322E3633323520202020322E3831353220202020302E303030302043202020302020302020302020302020302020302020302020302020302020302020302020300A20202020332E3034353020202020322E3130303820202020302E303030302043202020302020302020302020302020302020302020302020302020302020302020302020300A20202020322E3633323520202020312E3338363420202020302E303030302043202020302020302020302020302020302020302020302020302020302020302020302020300A20202020302E373239312020202D322E3132393620202020302E303030302043202020302020302020302020302020302020302020302020302020302020302020302020300A20202020322E333232382020202D322E3535353920202020302E303030302043202020302020302020302020302020302020302020302020302020302020302020302020300A2020312020322020312020302020202020200A2020322020332020312020302020202020200A2020332020342020312020302020202020200A2020342020352020312020302020202020200A2020352020362020312020302020202020200A2020362020372020312020302020202020200A2020372020382020312020302020202020200A2020382020392020312020302020202020200A2020332031302020312020312020202020200A2020332031312020312020312020202020200A2020342031322020312020312020202020200A2020342031332020312020312020202020200A2020382031342020312020312020202020200A2020382031352020312020312020202020200A2020312031362020312020302020202020200A2031362031372020312020302020202020200A2031362031382020312020302020202020200A2031362031392020312020302020202020200A2031372032302020312020302020202020200A2031372032312020312020302020202020200A2031372032322020312020302020202020200A2031392032332020322020302020202020200A2032332032342020312020302020202020200A2032342032352020322020302020202020200A2032352032362020312020302020202020200A2032362032372020322020302020202020200A2032372031392020312020302020202020200A2031382032382020322020302020202020200A2032382032392020312020302020202020200A2032392033302020322020302020202020200A2033302033312020312020302020202020200A2033312033322020322020302020202020200A2033322031382020312020302020202020200A2031312033332020312020302020202020200A2033332033342020312020302020202020200A2033342033352020322020302020202020200A2033352033362020312020302020202020200A2033362033372020322020302020202020200A2033372033382020312020302020202020200A2033382033392020322020302020202020200A2033392033342020312020302020202020200A2020372034302020312020312020202020200A2020372034312020312020312020202020200A4D202053545920203120202031205355500A4D2020534C4220203120202031202020310A4D202053414C20202031202031202034300A4D202053424C20202031202031202034320A4D2020534D5420202031204D650A4D2020534256202020312034322020202D372E3333323820202020382E303534340A4D202053545920203120202032205355500A4D2020534C4220203120202032202020320A4D202053414C20202032202031202034310A4D202053424C20202032202031202034330A4D2020534D5420202032204D650A4D2020534256202020322034332020202D352E3733393220202020372E363238310A4D2020454E44
Contributor: ITO S, DEPT. OF CHEM., TOHOKU UNIV.
InstType: EI
InstName: HITACHI M-52
IoniMethod: _ENERGY 14 eV
IonPolarity: pos
Date: 2010-10-09 19:48:36+02:00
Num Peaks: 41
89 208 91 999 92 38 115 4 117 192 129 238 131 154 135 11 143 37 145 45 
147 34 151 37 167 115 175 162 179 44 181 95 182 77 193 56 199 77 205 2 
207 438 217 93 219 49 221 2 231 231 243 42 253 100 259 3 261 131 271 308 
272 70 273 6 277 39 279 38 293 146 297 6 323 200 337 262 338 56 339 17 
508 34 
