Name: TRANS-2-NONENAL
MW: 140
Formula: C9H16O
Synonym: MassBank: JP008684
Synonym: TRANS-2-NONENAL
Structure: 5452414E532D322D4E4F4E454E414C2E6D6F6C0A20204368656D447261773038313231303037353432440A2031302020392020302020302020302020302020302020302020302020303939392056323030300A2020202D322E3530303620202020302E3230363320202020302E303030302043202020302020302020302020302020302020302020302020302020302020302020302020300A2020202D312E373836322020202D302E3230363320202020302E303030302043202020302020302020302020302020302020302020302020302020302020302020302020300A2020202D312E3037313720202020302E3230363320202020302E303030302043202020302020302020302020302020302020302020302020302020302020302020302020300A2020202D302E333537322020202D302E3230363220202020302E303030302043202020302020302020302020302020302020302020302020302020302020302020302020300A20202020302E3335373220202020302E3230363320202020302E303030302043202020302020302020302020302020302020302020302020302020302020302020302020300A20202020312E303731372020202D302E3230363220202020302E303030302043202020302020302020302020302020302020302020302020302020302020302020302020300A20202020312E3738363220202020302E3230363320202020302E303030302043202020302020302020302020302020302020302020302020302020302020302020302020300A20202020322E353030362020202D302E3230363220202020302E303030302043202020302020302020302020302020302020302020302020302020302020302020302020300A20202020332E3231353120202020302E3230363320202020302E303030302043202020302020302020302020302020302020302020302020302020302020302020302020300A2020202D332E323135312020202D302E3230363320202020302E30303030204F202020302020302020302020302020302020302020302020302020302020302020302020300A2020312020322020312020302020202020200A2020322020332020322020302020202020200A2020332020342020312020302020202020200A2020342020352020312020302020202020200A2020352020362020312020302020202020200A2020362020372020312020302020202020200A2020372020382020312020302020202020200A2020382020392020312020302020202020200A2020312031302020322020302020202020200A4D2020454E44
Contributor: SODA AROMATIC CO., LTD.
InstType: EI
InstName: HITACHI M-80B
IoniMethod: _ENERGY 70 eV
IonPolarity: pos
Date: 2010-10-09 19:48:36+02:00
Num Peaks: 50
15 24 26 37 27 563 28 64 29 564 30 12 38 25 39 572 40 72 41 999 
42 303 43 882 44 29 50 18 51 43 52 23 53 152 54 158 55 711 56 272 
57 436 58 60 65 26 66 27 67 171 68 111 69 352 70 652 71 76 72 81 
77 24 79 57 80 29 81 160 82 47 83 439 84 227 85 27 93 77 94 42 
95 21 96 184 97 117 98 104 99 11 107 27 109 22 111 46 112 18 122 30 
