Name: (3-PYRIDYL)METHYL PENTADECANOATE
MW: 333
Formula: C21H35NO2
Synonym: MassBank: JP004513
Synonym: (3-PYRIDYL)METHYL PENTADECANOATE
Synonym: BETA-PICOLINYL PENTADECANOATE
Structure: 28332D5059524944594C294D455448594C2050454E5441444543414E4F4154452E6D6F6C0A20204368656D447261773130323030393233323732440A2032342032342020302020302020302020302020302020302020302020303939392056323030300A20202020352E3030303920202020302E3631383720202020302E303030302043202020302020302020302020302020302020302020302020302020302020302020302020300A20202020352E3731353420202020302E3230363320202020302E303030302043202020302020302020302020302020302020302020302020302020302020302020302020300A20202020362E3432393920202020302E3631383820202020302E303030302043202020302020302020302020302020302020302020302020302020302020302020302020300A20202020362E3432393920202020312E3434333820202020302E303030302043202020302020302020302020302020302020302020302020302020302020302020302020300A20202020352E3731353420202020312E3835363120202020302E30303030204E202020302020302020302020302020302020302020302020302020302020302020302020300A20202020352E3030303920202020312E3434333820202020302E303030302043202020302020302020302020302020302020302020302020302020302020302020302020300A20202020342E3238363620202020302E3230363220202020302E303030302043202020302020302020302020302020302020302020302020302020302020302020302020300A20202020342E323836362020202D302E3631383820202020302E30303030204F202020302020302020302020302020302020302020302020302020302020302020302020300A20202020332E353732312020202D312E3033313320202020302E303030302043202020302020302020302020302020302020302020302020302020302020302020302020300A20202020322E383537372020202D302E3631383820202020302E303030302043202020302020302020302020302020302020302020302020302020302020302020302020300A20202020322E313433322020202D312E3033313320202020302E303030302043202020302020302020302020302020302020302020302020302020302020302020302020300A20202020312E343238392020202D302E3631383820202020302E303030302043202020302020302020302020302020302020302020302020302020302020302020302020300A20202020302E373134342020202D312E3033313320202020302E303030302043202020302020302020302020302020302020302020302020302020302020302020302020300A2020202D302E303030302020202D302E3631383820202020302E303030302043202020302020302020302020302020302020302020302020302020302020302020302020300A2020202D302E373134342020202D312E3033313320202020302E303030302043202020302020302020302020302020302020302020302020302020302020302020302020300A2020202D312E343238392020202D302E3631383820202020302E303030302043202020302020302020302020302020302020302020302020302020302020302020302020300A2020202D322E313433332020202D312E3033313320202020302E303030302043202020302020302020302020302020302020302020302020302020302020302020302020300A20202020332E353732312020202D312E3835363120202020302E30303030204F202020302020302020302020302020302020302020302020302020302020302020302020300A2020202D322E383537372020202D302E3631383820202020302E303030302043202020302020302020302020302020302020302020302020302020302020302020302020300A2020202D332E353732312020202D312E3033313320202020302E303030302043202020302020302020302020302020302020302020302020302020302020302020302020300A2020202D342E323836362020202D302E3631383820202020302E303030302043202020302020302020302020302020302020302020302020302020302020302020302020300A2020202D352E303031312020202D312E3033313320202020302E303030302043202020302020302020302020302020302020302020302020302020302020302020302020300A2020202D352E373135342020202D302E3631383820202020302E303030302043202020302020302020302020302020302020302020302020302020302020302020302020300A2020202D362E343239392020202D312E3033313320202020302E303030302043202020302020302020302020302020302020302020302020302020302020302020302020300A2020312020322020322020302020202020200A2020322020332020312020302020202020200A2020332020342020322020302020202020200A2020342020352020312020302020202020200A2020352020362020322020302020202020200A2020362020312020312020302020202020200A2020312020372020312020302020202020200A2020372020382020312020302020202020200A2020382020392020312020302020202020200A2020392031302020312020302020202020200A2031302031312020312020302020202020200A2031312031322020312020302020202020200A2031322031332020312020302020202020200A2031332031342020312020302020202020200A2031342031352020312020302020202020200A2031352031362020312020302020202020200A2031362031372020312020302020202020200A2020392031382020322020302020202020200A2031372031392020312020302020202020200A2031392032302020312020302020202020200A2032302032312020312020302020202020200A2032312032322020312020302020202020200A2032322032332020312020302020202020200A2032332032342020312020302020202020200A4D2020454E44
Contributor: SEYAMA Y, DEPT. OF PHYSIOL. CHEMISTRY AND NUTRITION, FAC. OF MEDICINE, UNIV. OF TOKYO
InstType: EI
InstName: SHIMADZU QP-1000
IoniMethod: _ENERGY 70 eV
IonPolarity: pos
Date: 2010-10-09 19:48:36+02:00
Num Peaks: 80
51 19 52 15 53 30 54 23 55 240 56 48 57 113 60 15 63 20 64 34 
65 197 66 22 67 31 68 14 69 76 71 24 78 15 79 19 80 40 81 24 
83 26 85 26 91 42 92 791 93 596 94 72 95 16 96 11 97 28 106 16 
108 781 109 350 110 75 111 15 120 10 148 24 151 614 152 59 164 999 165 141 
166 23 176 11 177 12 178 142 179 44 180 10 181 12 185 15 190 15 192 74 
193 41 194 16 204 11 206 231 207 57 218 11 220 217 221 51 222 12 223 14 
225 13 234 234 235 46 242 12 248 255 249 58 250 15 262 274 263 56 274 16 
276 119 277 16 290 286 291 65 292 16 304 115 305 33 332 96 333 125 334 50 
