Name: MassBank: JP004787
MW: 256
Formula: C18H24O
Synonym: MassBank: JP004787
Synonym: 4-METHYL-4-PARA-TOLYLSPIRO(4,5)DECAN-1-ONE
Structure: 342D4D455448594C2D342D504152412D544F4C594C535049524F28342C3529444543414E2D312D4F4E452E6D6F6C0A20204368656D447261773034323131303032333732440A2031392032312020302020302020302020302020302020302020302020303939392056323030300A2020202D312E373736382020202D302E3831353320202020302E303030302043202020302020302020302020302020302020302020302020302020302020302020302020300A2020202D312E313633372020202D312E3336373320202020302E303030302043202020302020302020302020302020302020302020302020302020302020302020302020300A2020202D302E343439322020202D302E3935343820202020302E303030302043202020302020302020302020302020302020302020302020302020302020302020302020300A2020202D302E363230382020202D302E3134303720202020302E303030302043202020302020302020302020302020302020302020302020302020302020302020302020300A2020202D312E343431322020202D302E3036313620202020302E303030302043202020302020302020302020302020302020302020302020302020302020302020302020300A2020202D312E3032383720202020302E3635323920202020302E303030302043202020302020302020302020302020302020302020302020302020302020302020302020300A2020202D312E3434313220202020312E3336373320202020302E303030302043202020302020302020302020302020302020302020302020302020302020302020302020300A2020202D322E3236363220202020312E3336373320202020302E303030302043202020302020302020302020302020302020302020302020302020302020302020302020300A2020202D322E3637383720202020302E3635323920202020302E303030302043202020302020302020302020302020302020302020302020302020302020302020302020300A2020202D322E323636322020202D302E3036313620202020302E303030302043202020302020302020302020302020302020302020302020302020302020302020302020300A2020202D322E353833382020202D302E3938363820202020302E30303030204F202020302020302020302020302020302020302020302020302020302020302020302020300A20202020302E323034312020202D302E3134303720202020302E303030302043202020302020302020302020302020302020302020302020302020302020302020302020300A20202020302E363133352020202D302E3834393820202020302E303030302043202020302020302020302020302020302020302020302020302020302020302020302020300A20202020312E383736372020202D302E3131373420202020302E303030302043202020302020302020302020302020302020302020302020302020302020302020302020300A20202020302E3631393820202020302E3537393320202020302E303030302043202020302020302020302020302020302020302020302020302020302020302020302020300A20202020312E343533392020202D302E3834393820202020302E303030302043202020302020302020302020302020302020302020302020302020302020302020302020300A20202020312E3435323820202020302E3631363820202020302E303030302043202020302020302020302020302020302020302020302020302020302020302020302020300A20202020322E363738372020202D302E3131373420202020302E303030302043202020302020302020302020302020302020302020302020302020302020302020302020300A2020202D302E3632303820202020302E3637373120202020302E303030302043202020302020302020302020302020302020302020302020302020302020302020302020300A2020312020322020312020302020202020200A2020322020332020312020302020202020200A2020332020342020312020302020202020200A2020342020352020312020302020202020200A2020352020362020312020302020202020200A2020362020372020312020302020202020200A2020372020382020312020302020202020200A2020382020392020312020302020202020200A2020392031302020312020302020202020200A2020312020352020312020302020202020200A2020352031302020312020302020202020200A2020312031312020322020302020202020200A2031322031332020312020302020202020200A2031322031352020322020302020202020200A2031332031362020322020302020202020200A2031342031362020312020302020202020200A2031342031372020322020302020202020200A2031352031372020312020302020202020200A2031342031382020312020302020202020200A2020342031322020312020302020202020200A2020342031392020312020302020202020200A4D2020454E44
Contributor: MASS SPECTROSCOPY SOC. OF JAPAN (MSSJ)
InstType: EI
InstName: JEOL JMS-D-3000
IoniMethod: _ENERGY 70 eV
IonPolarity: pos
Date: 2010-10-09 19:48:36+02:00
Num Peaks: 43
29 32 32 923 40 64 41 55 43 85 44 36 53 25 55 64 67 73 77 37 
79 52 80 60 81 145 82 30 83 233 91 95 92 29 95 37 105 86 109 49 
110 32 111 85 115 57 116 28 117 88 119 87 124 474 125 52 128 42 129 45 
130 28 131 105 132 999 133 185 137 25 143 42 145 202 146 46 160 76 173 34 
241 36 256 531 257 107 
