Name: 3-METHYL-1-BUTANOL
MW: 88
Formula: C5H12O
Synonym: MassBank: JP001813
Synonym: 3-METHYL-1-BUTANOL
Synonym: ISOPENTYL ALCOHOL
Structure: 310A31360A332D4D455448594C2D312D425554414E4F4C2E6D6F6C0A20204368656D447261773032323231303233323132440A2020362020352020302020302020302020302020302020302020302020303939392056323030300A2020202D302E373134352020202D302E3230363220202020302E303030302043202020302020302020302020302020302020302020302020302020302020302020302020300A20202020302E303030302020202D302E3631383820202020302E303030302043202020302020302020302020302020302020302020302020302020302020302020302020300A20202020302E373134352020202D302E3230363220202020302E303030302043202020302020302020302020302020302020302020302020302020302020302020302020300A20202020302E3731343520202020302E3631383820202020302E303030302043202020302020302020302020302020302020302020302020302020302020302020302020300A2020202D312E343238392020202D302E3631383820202020302E30303030204F202020302020302020302020302020302020302020302020302020302020302020302020300A20202020312E343238392020202D302E3631383820202020302E303030302043202020302020302020302020302020302020302020302020302020302020302020302020300A2020312020322020312020302020202020200A2020322020332020312020302020202020200A2020332020342020312020302020202020200A2020312020352020312020302020202020200A2020332020362020312020302020202020200A4D2020454E44
Contributor: TAJIMA S, GUNMA COLLEGE OF TECHNOLOGY
InstType: EI
InstName: HITACHI RMU-7M
IoniMethod: _ENERGY 70 eV
IonPolarity: pos
Date: 2010-10-09 19:48:36+02:00
Num Peaks: 22
15 11 19 12 27 203 28 100 29 407 31 328 39 184 40 30 41 728 42 806 
43 644 44 40 45 161 46 66 53 27 55 999 56 358 57 526 58 24 69 51 
70 742 71 67 
