Name: MassBank: JP002084
MW: 512
Formula: C25H20O12
Synonym: MassBank: JP002084
Synonym: 3,3',4',5,7-PENTAACETOXYFLAVONE
Synonym: QUERCETIN PENTAACETATE
Structure: 332C33272C34272C352C372D50454E5441414345544F5859464C41564F4E452E6D6F6C0A20204368656D447261773032323131303139333532440A2033372033392020302020302020302020302020302020302020302020303939392056323030300A20202020302E303030302020202D302E3030303020202020302E303030302043202020302020302020302020302020302020302020302020302020302020302020302020300A2020202D302E323730302020202D302E3737393620202020302E303030302043202020302020302020302020302020302020302020302020302020302020302020302020300A2020202D312E303830322020202D302E3933353520202020302E303030302043202020302020302020302020302020302020302020302020302020302020302020302020300A2020202D312E333530322020202D312E3731353020202020302E30303030204F202020302020302020302020302020302020302020302020302020302020302020302020300A2020202D312E363230332020202D302E3331313820202020302E303030302043202020302020302020302020302020302020302020302020302020302020302020302020300A2020202D322E343330342020202D302E3436373720202020302E303030302043202020302020302020302020302020302020302020302020302020302020302020302020300A2020202D322E3937303520202020302E3135353920202020302E303030302043202020302020302020302020302020302020302020302020302020302020302020302020300A2020202D322E3730303420202020302E3933353520202020302E303030302043202020302020302020302020302020302020302020302020302020302020302020302020300A2020202D312E3839303320202020312E3039313420202020302E303030302043202020302020302020302020302020302020302020302020302020302020302020302020300A2020202D312E3335303220202020302E3436373720202020302E303030302043202020302020302020302020302020302020302020302020302020302020302020302020300A2020202D302E3534303120202020302E3632333620202020302E30303030204F202020302020302020302020302020302020302020302020302020302020302020302020300A20202020302E3831303120202020302E3135353920202020302E303030302043202020302020302020302020302020302020302020302020302020302020302020302020300A20202020312E3038303220202020302E3933353520202020302E303030302043202020302020302020302020302020302020302020302020302020302020302020302020300A20202020312E3839303320202020312E3039313420202020302E303030302043202020302020302020302020302020302020302020302020302020302020302020302020300A20202020322E3433303420202020302E3436373720202020302E303030302043202020302020302020302020302020302020302020302020302020302020302020302020300A20202020322E313630342020202D302E3331313820202020302E303030302043202020302020302020302020302020302020302020302020302020302020302020302020300A20202020312E333530322020202D302E3436373720202020302E303030302043202020302020302020302020302020302020302020302020302020302020302020302020300A2020202D332E3234303520202020312E3535393120202020302E30303030204F202020302020302020302020302020302020302020302020302020302020302020302020300A2020202D342E3035303720202020312E3430333220202020302E303030302043202020302020302020302020302020302020302020302020302020302020302020302020300A2020202D342E3332303720202020302E3632333620202020302E30303030204F202020302020302020302020302020302020302020302020302020302020302020302020300A2020202D342E3539303820202020322E3032363820202020302E303030302043202020302020302020302020302020302020302020302020302020302020302020302020300A2020202D322E373030342020202D312E3234373320202020302E30303030204F202020302020302020302020302020302020302020302020302020302020302020302020300A2020202D332E353130362020202D312E3430333220202020302E303030302043202020302020302020302020302020302020302020302020302020302020302020302020300A2020202D332E373830362020202D322E3138323720202020302E30303030204F202020302020302020302020302020302020302020302020302020302020302020302020300A2020202D342E303530372020202D302E3737393620202020302E303030302043202020302020302020302020302020302020302020302020302020302020302020302020300A20202020332E3234303520202020302E3632333620202020302E30303030204F202020302020302020302020302020302020302020302020302020302020302020302020300A20202020332E373830362020202D302E3030303020202020302E303030302043202020302020302020302020302020302020302020302020302020302020302020302020300A20202020342E3539303820202020302E3135353920202020302E30303030204F202020302020302020302020302020302020302020302020302020302020302020302020300A20202020332E353130362020202D302E3737393620202020302E303030302043202020302020302020302020302020302020302020302020302020302020302020302020300A20202020322E3136303420202020312E3837303920202020302E30303030204F202020302020302020302020302020302020302020302020302020302020302020302020300A20202020322E3937303520202020322E3032363820202020302E303030302043202020302020302020302020302020302020302020302020302020302020302020302020300A20202020332E3234303520202020322E3830363420202020302E30303030204F202020302020302020302020302020302020302020302020302020302020302020302020300A20202020332E3531303620202020312E3430333220202020302E303030302043202020302020302020302020302020302020302020302020302020302020302020302020300A20202020302E323730302020202D312E3430333220202020302E30303030204F202020302020302020302020302020302020302020302020302020302020302020302020300A20202020302E303030302020202D322E3138323720202020302E303030302043202020302020302020302020302020302020302020302020302020302020302020302020300A20202020302E353430312020202D322E3830363420202020302E30303030204F202020302020302020302020302020302020302020302020302020302020302020302020300A2020202D302E383130312020202D322E3333383720202020302E303030302043202020302020302020302020302020302020302020302020302020302020302020302020300A2020312020322020322020302020202020200A2020322020332020312020302020202020200A2020332020342020322020302020202020200A2020332020352020312020302020202020200A2020352020362020312020302020202020200A2020362020372020322020302020202020200A2020372020382020312020302020202020200A2020382020392020322020302020202020200A2020392031302020312020302020202020200A2020352031302020322020302020202020200A2031302031312020312020302020202020200A2020312031312020312020302020202020200A2020312031322020312020302020202020200A2031322031332020312020302020202020200A2031332031342020322020302020202020200A2031342031352020312020302020202020200A2031352031362020322020302020202020200A2031362031372020312020302020202020200A2031322031372020322020302020202020200A2031392032302020322020302020202020200A2031392032312020312020302020202020200A2031382031392020312020302020202020200A2020382031382020312020302020202020200A2032332032342020322020302020202020200A2032332032352020312020302020202020200A2032322032332020312020302020202020200A2020362032322020312020302020202020200A2032372032382020322020302020202020200A2032372032392020312020302020202020200A2032362032372020312020302020202020200A2031352032362020312020302020202020200A2033312033322020322020302020202020200A2033312033332020312020302020202020200A2033302033312020312020302020202020200A2031342033302020312020302020202020200A2033352033362020322020302020202020200A2033352033372020312020302020202020200A2033342033352020312020302020202020200A2020322033342020312020302020202020200A4D2020454E44
Contributor: ENDO K, PHARMACEUTICAL INST., TOHOKU UNIV.
InstType: EI
InstName: HITACHI M-52
IoniMethod: _ENERGY 25 eV
IonPolarity: pos
Date: 2010-10-09 19:48:36+02:00
Num Peaks: 65
14 41 15 9 18 9 28 3 29 6 40 25 41 119 42 34 43 9 69 6 
93 6 109 1 121 9 122 6 123 6 135 1 136 22 151 13 152 31 217 3 
228 13 229 13 253 9 254 4 255 6 267 13 272 9 273 18 274 47 285 13 
286 38 287 1 301 219 302 999 303 175 304 3 316 53 317 38 318 6 326 1 
327 6 328 25 343 59 344 97 345 203 346 38 357 22 358 3 370 16 385 25 
386 844 387 18 388 38 399 9 400 16 412 1 428 469 429 119 430 25 442 1 
470 375 471 125 472 31 512 3 513 9 
