Name: MassBank: JP001367
MW: 380
Formula: C23H41FOSi
Synonym: MassBank: JP001367
Synonym: TERT-BUTYLFLUOROMETHOXY(2,4,6-TRI-TERT-BUTYLPHENYL)SILANE
Structure: 544552542D425554594C464C554F524F4D4554484F585928322C342C362D5452492D544552542D425554594C5048454E594C2953494C414E452E6D6F6C0A20204368656D447261773038313231303037313032440A2032362032362020302020302020302020302020302020302020302020303939392056323030300A2020202D312E343236372020202D302E3032313520202020302E303030302053692020302020302020302020302020302020302020302020302020302020302020302020300A2020202D302E333534322020202D302E3032313520202020302E303030302043202020302020302020302020302020302020302020302020302020302020302020302020300A20202020302E3035383320202020302E3639323920202020302E303030302043202020302020302020302020302020302020302020302020302020302020302020302020300A20202020302E3838333320202020302E3639323920202020302E303030302043202020302020302020302020302020302020302020302020302020302020302020302020300A20202020312E323935382020202D302E3032313520202020302E303030302043202020302020302020302020302020302020302020302020302020302020302020302020300A20202020302E383833332020202D302E3733363020202020302E303030302043202020302020302020302020302020302020302020302020302020302020302020302020300A20202020302E303538332020202D302E3733363020202020302E303030302043202020302020302020302020302020302020302020302020302020302020302020302020300A2020202D302E333534322020202D312E3435303520202020302E303030302043202020302020302020302020302020302020302020302020302020302020302020302020300A2020202D312E303638362020202D312E3033383020202020302E303030302043202020302020302020302020302020302020302020302020302020302020302020302020300A20202020302E333630332020202D312E3836333020202020302E303030302043202020302020302020302020302020302020302020302020302020302020302020302020300A2020202D302E373636372020202D322E3136343920202020302E303030302043202020302020302020302020302020302020302020302020302020302020302020302020300A20202020322E313230382020202D302E3032313520202020302E303030302043202020302020302020302020302020302020302020302020302020302020302020302020300A20202020322E3132303820202020302E3830333520202020302E303030302043202020302020302020302020302020302020302020302020302020302020302020302020300A20202020322E393435382020202D302E3032313520202020302E303030302043202020302020302020302020302020302020302020302020302020302020302020302020300A20202020322E313230382020202D302E3834363520202020302E303030302043202020302020302020302020302020302020302020302020302020302020302020302020300A2020202D302E3335343220202020312E3430373420202020302E303030302043202020302020302020302020302020302020302020302020302020302020302020302020300A2020202D312E3132393420202020312E3132353220202020302E303030302043202020302020302020302020302020302020302020302020302020302020302020302020300A2020202D302E3638303920202020322E3136343920202020302E303030302043202020302020302020302020302020302020302020302020302020302020302020302020300A20202020302E3338333120202020312E3737373720202020302E303030302043202020302020302020302020302020302020302020302020302020302020302020302020300A2020202D312E373735332020202D302E3736393220202020302E30303030204F202020302020302020302020302020302020302020302020302020302020302020302020300A2020202D322E353937322020202D302E3834313120202020302E303030302043202020302020302020302020302020302020302020302020302020302020302020302020300A2020202D322E393435382020202D312E3538383820202020302E303030302046202020302020302020302020302020302020302020302020302020302020302020302020300A2020202D322E3132343420202020302E3830383720202020302E303030302043202020302020302020302020302020302020302020302020302020302020302020302020300A2020202D312E3538353720202020312E3433323020202020302E303030302043202020302020302020302020302020302020302020302020302020302020302020302020300A2020202D322E3639393320202020312E3338333520202020302E303030302043202020302020302020302020302020302020302020302020302020302020302020302020300A2020202D322E3730373820202020302E3232353320202020302E303030302043202020302020302020302020302020302020302020302020302020302020302020302020300A2020322020332020312020302020202020200A2020332020342020322020302020202020200A2020342020352020312020302020202020200A2020352020362020322020302020202020200A2020362020372020312020302020202020200A2020322020372020322020302020202020200A2020382020392020312020302020202020200A2020382031312020312020302020202020200A2020382031302020312020302020202020200A2020372020382020312020302020202020200A2031322031332020312020302020202020200A2031322031352020312020302020202020200A2031322031342020312020302020202020200A2020352031322020312020302020202020200A2031362031372020312020302020202020200A2031362031392020312020302020202020200A2031362031382020312020302020202020200A2020332031362020312020302020202020200A2020312020322020312020302020202020200A2032302032312020312020302020202020200A2032312032322020312020302020202020200A2020312032302020312020302020202020200A2032332032342020312020302020202020200A2032332032362020312020302020202020200A2032332032352020312020302020202020200A2020312032332020312020302020202020200A4D2020454E44
Contributor: MASS SPECTROSCOPY SOC. OF JAPAN (MSSJ)
InstType: EI
InstName: JEOL JMS-D-3000
IoniMethod: _ENERGY 70 eV
IonPolarity: pos
Date: 2010-10-09 19:48:36+02:00
Num Peaks: 55
43 21 44 17 55 38 56 27 57 999 58 47 59 12 63 68 77 277 78 24 
79 35 91 26 93 715 94 56 95 29 105 17 115 18 117 16 119 14 128 24 
129 23 131 25 135 20 141 14 155 13 157 15 159 14 173 27 142 12 143 17 
175 16 199 14 211 32 215 36 229 34 231 83 232 16 235 38 251 16 253 74 
267 475 268 143 269 39 271 39 272 11 275 11 291 707 292 182 293 51 309 77 
310 19 323 151 324 113 325 31 380 12 
