Name: 5-CHLORO-2-METHYLAMINOBENZOPHENONE
MW: 245
Formula: C14H12ClNO
Synonym: MassBank: JP004071
Synonym: 5-CHLORO-2-METHYLAMINOBENZOPHENONE
Structure: 352D43484C4F524F2D322D4D455448594C414D494E4F42454E5A4F5048454E4F4E452E6D6F6C0A20204368656D447261773034323331303034343032440A2031372031382020302020302020302020302020302020302020302020303939392056323030300A20202020302E303030302020202D302E3631383820202020302E303030302043202020302020302020302020302020302020302020302020302020302020302020302020300A2020202D302E373134352020202D302E3230363220202020302E303030302043202020302020302020302020302020302020302020302020302020302020302020302020300A2020202D312E343238392020202D302E3631383820202020302E303030302043202020302020302020302020302020302020302020302020302020302020302020302020300A2020202D322E313433342020202D302E3230363220202020302E303030302043202020302020302020302020302020302020302020302020302020302020302020302020300A2020202D322E3134333420202020302E3631383720202020302E303030302043202020302020302020302020302020302020302020302020302020302020302020302020300A2020202D312E3432383920202020312E3033313320202020302E303030302043202020302020302020302020302020302020302020302020302020302020302020302020300A2020202D302E3731343520202020302E3631383820202020302E303030302043202020302020302020302020302020302020302020302020302020302020302020302020300A20202020302E303030302020202D312E3434333820202020302E30303030204F202020302020302020302020302020302020302020302020302020302020302020302020300A20202020302E373134352020202D302E3230363220202020302E303030302043202020302020302020302020302020302020302020302020302020302020302020302020300A20202020302E3731343520202020302E3631383820202020302E303030302043202020302020302020302020302020302020302020302020302020302020302020302020300A20202020312E3432383920202020312E3033313320202020302E303030302043202020302020302020302020302020302020302020302020302020302020302020302020300A20202020322E3134333420202020302E3631383820202020302E303030302043202020302020302020302020302020302020302020302020302020302020302020302020300A20202020322E313433342020202D302E3230363220202020302E303030302043202020302020302020302020302020302020302020302020302020302020302020302020300A20202020312E343238392020202D302E3631383820202020302E303030302043202020302020302020302020302020302020302020302020302020302020302020302020300A2020202D312E343238392020202D312E3434333820202020302E30303030204E202020302020302020302020302020302020302020302020302020302020302020302020300A2020202D322E313433342020202D312E3835363320202020302E303030302043202020302020302020302020302020302020302020302020302020302020302020302020300A2020202D312E3432383920202020312E3835363320202020302E3030303020436C2020302020302020302020302020302020302020302020302020302020302020302020300A2020312020322020312020302020202020200A2020322020332020312020302020202020200A2020332020342020322020302020202020200A2020342020352020312020302020202020200A2020352020362020322020302020202020200A2020362020372020312020302020202020200A2020322020372020322020302020202020200A2020392031302020312020302020202020200A2031302031312020322020302020202020200A2031312031322020312020302020202020200A2031322031332020322020302020202020200A2031332031342020312020302020202020200A2020392031342020322020302020202020200A2020312020382020322020302020202020200A2020312020392020312020302020202020200A2031352031362020312020302020202020200A2020332031352020312020302020202020200A2020362031372020312020302020202020200A4D2020454E44
Contributor: YAMAMOTO M, DEP. CHEMISTRY, FAC. SCIENCE, NARA WOMEN'S UNIV.
InstType: EI
InstName: HITACHI RMU-6E
IoniMethod: _ENERGY 70 eV
IonPolarity: pos
Date: 2010-10-09 19:48:36+02:00
Num Peaks: 93
30 38 39 26 50 49 51 170 52 31 62 25 63 78 64 2 65 17 73 15 
74 29 75 13 76 78 77 729 78 76 79 2 87 14 89 29 90 39 90.5 6 
91 114 92 14 98 26 99 2 101 15 102 27 103 11 104 6 105 344 105.5 16 
106 29 111 11 112 55 113 55 114 27 115 2 122 9 122.5 24 123 12 124 1 
125 69 126 25 127 25 128 1 132 18 133 123 134 18 138 5 139 59 140 93 
141 26 142 2 150 53 151 38 152 75 153 3 154 17 164 17 165 70 166 8 
167 55 168 228 169 30 170 6 180 38 181 48 182 16 191 1 192 29 193 351 
194 87 195 4 199 11 201 21 202 15 208 2 209 78 210 46 211 22 214 3 
215 16 216 31 227 32 228 43 229 114 230 181 231 42 232 2 244 778 245 999 
246 398 247 34 248 52 
