Name: MassBank: JP006658
MW: 468
Formula: C23H24N4O7
Synonym: MassBank: JP006658
Synonym: ETHYL 1-(3-(3,5-DINITROBENZAMIDO)BUTYL)-2-METHYLINDOLE-3-CARBOXYLATE
Structure: 455448594C20312D28332D28332C352D44494E4954524F42454E5A414D49444F29425554594C292D322D4D455448594C494E444F4C452D332D434152424F58594C4154452E6D6F6C0A20204368656D447261773038313131303138303332440A2033342033362020302020302020302020302020302020302020302020303939392056323030300A2020202D312E353630372020202D302E3133363520202020302E30303030204E202020302020302020302020302020302020302020302020302020302020302020302020300A2020202D322E323238322020202D302E3632313420202020302E303030302043202020302020302020302020302020302020302020302020302020302020302020302020300A2020202D322E383935362020202D302E3133363520202020302E303030302043202020302020302020302020302020302020302020302020302020302020302020302020300A2020202D322E3634303720202020302E3634383120202020302E303030302043202020302020302020302020302020302020302020302020302020302020302020302020300A2020202D332E3035333220202020312E3336323620202020302E303030302043202020302020302020302020302020302020302020302020302020302020302020302020300A2020202D322E3634303720202020322E3037373020202020302E303030302043202020302020302020302020302020302020302020302020302020302020302020302020300A2020202D312E3831353720202020322E3037373020202020302E303030302043202020302020302020302020302020302020302020302020302020302020302020302020300A2020202D312E3430333220202020312E3336323620202020302E303030302043202020302020302020302020302020302020302020302020302020302020302020302020300A2020202D312E3831353720202020302E3634383120202020302E303030302043202020302020302020302020302020302020302020302020302020302020302020302020300A2020202D332E363830322020202D302E3339313520202020302E303030302043202020302020302020302020302020302020302020302020302020302020302020302020300A2020202D342E3236333620202020302E3139313920202020302E30303030204F202020302020302020302020302020302020302020302020302020302020302020302020300A2020202D332E383933382020202D312E3138383320202020302E30303030204F202020302020302020302020302020302020302020302020302020302020302020302020300A2020202D322E323238322020202D312E3434363420202020302E303030302043202020302020302020302020302020302020302020302020302020302020302020302020300A2020202D302E373736312020202D302E3339313520202020302E303030302043202020302020302020302020302020302020302020302020302020302020302020302020300A2020202D302E363034362020202D312E3139383420202020302E303030302043202020302020302020302020302020302020302020302020302020302020302020302020300A20202020302E313830302020202D312E3435333420202020302E303030302043202020302020302020302020302020302020302020302020302020302020302020302020300A20202020302E333531362020202D322E3236303320202020302E303030302043202020302020302020302020302020302020302020302020302020302020302020302020300A20202020312E353630332020202D312E3038333520202020302E303030302043202020302020302020302020302020302020302020302020302020302020302020302020300A20202020322E313433372020202D302E3530303220202020302E303030302043202020302020302020302020302020302020302020302020302020302020302020302020300A20202020312E3933303120202020302E3239363720202020302E303030302043202020302020302020302020302020302020302020302020302020302020302020302020300A20202020322E3531333520202020302E3838303120202020302E303030302043202020302020302020302020302020302020302020302020302020302020302020302020300A20202020332E3331303420202020302E3636363620202020302E303030302043202020302020302020302020302020302020302020302020302020302020302020302020300A20202020332E353233392020202D302E3133303320202020302E303030302043202020302020302020302020302020302020302020302020302020302020302020302020300A20202020322E393430352020202D302E3731333720202020302E303030302043202020302020302020302020302020302020302020302020302020302020302020302020300A20202020312E373733382020202D312E3838303420202020302E30303030204F202020302020302020302020302020302020302020302020302020302020302020302020300A20202020302E373633342020202D302E3837303020202020302E30303030204E202020302020302020302020302020302020302020302020302020302020302020302020300A20202020342E333230382020202D302E3334333920202020302E30303030204E202020302020332020302020302020302020302020302020302020302020302020302020300A20202020342E353334332020202D312E3134303720202020302E30303030204F202020302020302020302020302020302020302020302020302020302020302020302020300A20202020342E3930343220202020302E3233393520202020302E30303030204F202020302020352020302020302020302020302020302020302020302020302020302020300A20202020322E3330303020202020312E3637373020202020302E30303030204E202020302020332020302020302020302020302020302020302020302020302020302020300A20202020312E3530333120202020312E3839303520202020302E30303030204F202020302020302020302020302020302020302020302020302020302020302020302020300A20202020322E3838333320202020322E3236303320202020302E30303030204F202020302020352020302020302020302020302020302020302020302020302020302020300A2020202D342E363930362020202D312E3430313920202020302E303030302043202020302020302020302020302020302020302020302020302020302020302020302020300A2020202D342E393034322020202D322E3139383820202020302E303030302043202020302020302020302020302020302020302020302020302020302020302020302020300A2020312020322020312020302020202020200A2020322020332020322020302020202020200A2020332020342020312020302020202020200A2020342020352020312020302020202020200A2020352020362020322020302020202020200A2020362020372020312020302020202020200A2020372020382020322020302020202020200A2020382020392020312020302020202020200A2020312020392020312020302020202020200A2020342020392020322020302020202020200A2031302031312020322020302020202020200A2031302031322020312020302020202020200A2020332031302020312020302020202020200A2020322031332020312020302020202020200A2031342031352020312020302020202020200A2031352031362020312020302020202020200A2031362031372020312020302020202020200A2031382031392020312020302020202020200A2031392032302020312020302020202020200A2032302032312020322020302020202020200A2032312032322020312020302020202020200A2032322032332020322020302020202020200A2032332032342020312020302020202020200A2031392032342020322020302020202020200A2031382032352020322020302020202020200A2031382032362020312020302020202020200A2032372032382020322020302020202020200A2032372032392020312020302020202020200A2032332032372020312020302020202020200A2033302033312020322020302020202020200A2033302033322020312020302020202020200A2032312033302020312020302020202020200A2031362032362020312020302020202020200A2020312031342020312020302020202020200A2033332033342020312020302020202020200A2031322033332020312020302020202020200A4D202043484720203420203237202020312020323920202D3120203330202020312020333220202D310A4D2020454E44
Contributor: SASAKI S, TOYOHASHI UNIV. OF TECH.
InstType: EI
InstName: JEOL JMS-01-SG-2
IoniMethod: _ENERGY 75 eV
IonPolarity: pos
Date: 2010-10-09 19:48:36+02:00
Num Peaks: 25
55 83 75 140 77 143 103 7 105 374 115 66 122 152 144 43 157 83 158 178 
171 983 172 11 184 159 188 226 195 209 198 4 203 71 216 101 217 88 220 4 
230 93 266 72 405 64 423 10 468 999 
