Name: DIMETHYLHYDRAZONE BETA.BETA-DIMETHYLACRYLALDEHYDE
MW: 126
Formula: C7H14N2
Synonym: MassBank: JP000872
Synonym: DIMETHYLHYDRAZONE BETA.BETA-DIMETHYLACRYLALDEHYDE
Synonym: 3-METHYL-2-BUTENAL DIMETHYLHYDRAZONE
Structure: 310A32320A44494D455448594C48594452415A4F4E4520424554412E424554412D44494D455448594C414352594C414C4445485944452E6D6F6C0A20204368656D447261773033323031303030303132440A2020392020382020302020302020302020302020302020302020302020303939392056323030300A20202020302E303030302020202D302E3230363220202020302E303030302043202020302020302020302020302020302020302020302020302020302020302020302020300A20202020302E373134352020202D302E3631383820202020302E303030302043202020302020302020302020302020302020302020302020302020302020302020302020300A20202020312E343238392020202D302E3230363220202020302E303030302043202020302020302020302020302020302020302020302020302020302020302020302020300A20202020312E3432383920202020302E3631383820202020302E303030302043202020302020302020302020302020302020302020302020302020302020302020302020300A20202020322E313433342020202D302E3631383820202020302E303030302043202020302020302020302020302020302020302020302020302020302020302020302020300A2020202D302E373134352020202D302E3631383820202020302E30303030204E202020302020302020302020302020302020302020302020302020302020302020302020300A2020202D312E343238392020202D302E3230363220202020302E30303030204E202020302020302020302020302020302020302020302020302020302020302020302020300A2020202D322E313433342020202D302E3631383820202020302E303030302043202020302020302020302020302020302020302020302020302020302020302020302020300A2020202D312E3432383920202020302E3631383820202020302E303030302043202020302020302020302020302020302020302020302020302020302020302020302020300A2020312020322020312020302020202020200A2020322020332020322020302020202020200A2020332020342020312020302020202020200A2020332020352020312020302020202020200A2020362020372020312020302020202020200A2020372020382020312020302020202020200A2020372020392020312020302020202020200A2020312020362020322020302020202020200A4D2020454E44
Contributor: SASAKI S, TOYOHASHI UNIV. OF TECH.
InstType: EI
InstName: SHIMADZU LKB-2091
IoniMethod: _ENERGY 70 eV
IonPolarity: pos
Date: 2010-10-09 19:48:36+02:00
Num Peaks: 50
26 90 27 245 28 678 29 22 30 237 38 36 39 305 40 7 41 356 42 746 
43 636 44 83 45 237 46 169 51 52 52 3 53 203 54 63 55 390 56 19 
57 54 58 271 59 152 63 7 65 44 66 30 67 305 68 22 69 39 70 127 
71 64 80 24 81 220 82 576 83 542 84 57 85 37 94 74 95 69 96 25 
97 54 98 64 108 36 109 3 110 27 111 203 112 10 125 3 126 999 127 85 
