Name: MassBank: JP005703
CAS: 120-80-9
MW: 110
Formula: C6H6O2
Synonym: MassBank: JP005703
Synonym: 1,2-BENZENEDIOL
Synonym: PYROCATECHOL
Structure: 310A32310A312C322D42454E5A454E4544494F4C2E6D6F6C0A20204368656D447261773131303330393232313032440A2020382020382020302020302020302020302020302020302020302020303939392056323030300A2020202D302E3431323520202020302E3335373220202020302E303030302043202020302020302020302020302020302020302020302020302020302020302020302020300A20202020302E3431323520202020302E3335373220202020302E303030302043202020302020302020302020302020302020302020302020302020302020302020302020300A20202020302E383235302020202D302E3335373220202020302E303030302043202020302020302020302020302020302020302020302020302020302020302020302020300A20202020302E343132352020202D312E3037313720202020302E303030302043202020302020302020302020302020302020302020302020302020302020302020302020300A2020202D302E343132352020202D312E3037313720202020302E303030302043202020302020302020302020302020302020302020302020302020302020302020302020300A2020202D302E383235302020202D302E3335373220202020302E303030302043202020302020302020302020302020302020302020302020302020302020302020302020300A2020202D302E3832353020202020312E3037313720202020302E30303030204F202020302020302020302020302020302020302020302020302020302020302020302020300A20202020302E3832353020202020312E3037313720202020302E30303030204F202020302020302020302020302020302020302020302020302020302020302020302020300A2020312020322020312020302020202020200A2020322020332020322020302020202020200A2020332020342020312020302020202020200A2020342020352020322020302020202020200A2020352020362020312020302020202020200A2020312020362020322020302020202020200A2020312020372020312020302020202020200A2020322020382020312020302020202020200A4D2020454E44
Contributor: MASS SPECTROSCOPY SOC. OF JAPAN (MSSJ)
InstType: EI
InstName: HITACHI M-80
IoniMethod: _ENERGY 70 eV
IonPolarity: pos
Date: 2010-10-09 19:48:36+02:00
Num Peaks: 31
26 15 27 44 28 5 29 20 37 11 38 24 39 39 40 3 49 8 50 26 
51 30 52 23 53 55 54 21 55 29 61 7 62 15 63 97 64 193 65 15 
66 5 79 4 80 3 81 83 82 30 92 66 93 6 109 19 110 999 111 73 
112 6 
