Name: 2-CHLOROBUTANE
MW: 92
Formula: C4H9Cl
Synonym: MassBank: JP001281
Synonym: 2-CHLOROBUTANE
Synonym: SEC-BUTYL CHLORIDE
Structure: 310A31340A322D43484C4F524F425554414E452E6D6F6C0A20204368656D447261773031303331303130343932440A2020352020342020302020302020302020302020302020302020302020303939392056323030300A2020202D312E3037313720202020302E3631383820202020302E303030302043202020302020302020302020302020302020302020302020302020302020302020302020300A2020202D302E3335373220202020302E3230363220202020302E303030302043202020302020302020302020302020302020302020302020302020302020302020302020300A20202020302E3335373220202020302E3631383820202020302E303030302043202020302020302020302020302020302020302020302020302020302020302020302020300A20202020312E3037313720202020302E3230363220202020302E303030302043202020302020302020302020302020302020302020302020302020302020302020302020300A2020202D302E333537322020202D302E3631383820202020302E3030303020436C2020302020302020302020302020302020302020302020302020302020302020302020300A2020312020322020312020302020202020200A2020322020332020312020302020202020200A2020332020342020312020302020202020200A2020322020352020312020302020202020200A4D2020454E44
Contributor: TAJIMA S, GUNMA COLLEGE OF TECHNOLOGY
InstType: EI
InstName: HITACHI RMU-7M
IoniMethod: _ENERGY 70 eV
IonPolarity: pos
Date: 2010-10-09 19:48:36+02:00
Num Peaks: 26
15 18 26 52 27 405 28 106 29 429 38 23 39 149 40 24 41 650 42 30 
43 16 45 22 49 29 50 22 51 24 53 21 55 82 56 957 57 999 58 43 
62 136 63 443 64 52 65 139 77 52 79 19 
