Name: MassBank: JP007997
MW: 262
Formula: C18H30O
Synonym: MassBank: JP007997
Synonym: (4AS,5S,8AS)-(-)-5BETA,8ABETA-DIMETHYL-5ALPHA-(4-METHYL-3-PENTENYL)-3,4,4A,5,6,7,8,8A-OCTAHYDRONAPHTHALEN-1(2H)-ONE
Structure: 283441532C35532C384153292D282D292D35424554412C3841424554412D44494D455448594C2D35414C5048412D28342D4D455448594C2D332D50454E54454E594C292D332C342C34412C352C362C372C382C38412D4F435441485944524F4E4150485448414C454E2D31283248292D4F4E452E6D6F6C0A20204368656D447261773130323130393137333332440A2032302032312020302020302020302020302020302020302020302020303939392056323030300A2020202D312E343834322020202D302E3936313220202020302E303030302043202020302020302020302020302020302020302020302020302020302020302020302020300A2020202D312E343834322020202D312E3738363120202020302E303030302043202020302020302020302020302020302020302020302020302020302020302020302020300A2020202D302E373639382020202D322E3139383620202020302E303030302043202020302020302020302020302020302020302020302020302020302020302020302020300A2020202D302E303535332020202D312E3738363120202020302E303030302043202020302020302020302020302020302020302020302020302020302020302020302020300A2020202D302E303535332020202D302E3936313220202020302E303030302043202020302020302020302020302020302020302020302020302020302020302020302020300A2020202D302E373639382020202D302E3534383720202020302E303030302043202020302020302020302020302020302020302020302020302020302020302020302020300A20202020302E363539322020202D322E3139383620202020302E303030302043202020302020302020302020302020302020302020302020302020302020302020302020300A20202020312E333733362020202D312E3738363120202020302E303030302043202020302020302020302020302020302020302020302020302020302020302020302020300A20202020312E333733362020202D302E3936313220202020302E303030302043202020302020302020302020302020302020302020302020302020302020302020302020300A20202020302E363539322020202D302E3534383720202020302E303030302043202020302020302020302020302020302020302020302020302020302020302020302020300A2020202D302E373639382020202D332E3032333620202020302E30303030204F202020302020302020302020302020302020302020302020302020302020302020302020300A2020202D302E303535332020202D302E3133363220202020302E303030302048202020302020302020302020302020302020302020302020302020302020302020302020300A20202020302E3234363720202020302E3136353820202020302E303030302043202020302020302020302020302020302020302020302020302020302020302020302020300A20202020302E3635393220202020302E3838303320202020302E303030302043202020302020302020302020302020302020302020302020302020302020302020302020300A20202020302E3234363720202020312E3539343720202020302E303030302043202020302020302020302020302020302020302020302020302020302020302020302020300A20202020302E3635393220202020322E3330393120202020302E303030302043202020302020302020302020302020302020302020302020302020302020302020302020300A20202020302E3234363720202020332E3032333620202020302E303030302043202020302020302020302020302020302020302020302020302020302020302020302020300A20202020312E3438343220202020322E3330393120202020302E303030302043202020302020302020302020302020302020302020302020302020302020302020302020300A2020202D302E303537312020202D322E3631303720202020302E303030302043202020302020302020302020302020302020302020302020302020302020302020302020300A20202020312E3037303420202020302E3136363820202020302E303030302043202020302020302020302020302020302020302020302020302020302020302020302020300A2020312020322020312020302020202020200A2020322020332020312020302020202020200A2020332020342020312020302020202020200A2020342020352020312020302020202020200A2020352020362020312020302020202020200A2020362020312020312020302020202020200A2020342020372020312020302020202020200A2020372020382020312020302020202020200A2020382020392020312020302020202020200A2020392031302020312020302020202020200A2031302020352020312020302020202020200A2020332031312020322020302020202020200A2020352031322020312020362020202020200A2031302031332020312020362020202020200A2031332031342020312020302020202020200A2031342031352020312020302020202020200A2031352031362020322020302020202020200A2031362031372020312020302020202020200A2031362031382020312020302020202020200A2020342031392020312020312020202020200A2031302032302020312020312020202020200A4D202053545920203120202031205355500A4D2020534C4220203120202031202020310A4D202053414C20202031202031202031390A4D202053424C20202031202031202032300A4D2020534D5420202031204D650A4D2020534256202020312032302020202D362E3738353520202020362E393637380A4D202053545920203120202032205355500A4D2020534C4220203120202032202020320A4D202053414C20202032202031202032300A4D202053424C20202032202031202032310A4D2020534D5420202032204D650A4D2020534256202020322032312020202D362E3337323520202020382E353037390A4D2020454E44
Contributor: HISAHIRO HAGIWARA, CHEMICAL RESEARCH INSTITUTE OF NON-AQUEOUSSOLUTIONS TOHOKU UNIV.
InstType: EI
InstName: JEOL JMS-DX-300
IoniMethod: _ENERGY 70 eV
IonPolarity: pos
Date: 2010-10-09 19:48:36+02:00
Num Peaks: 56
39 89 41 794 42 51 43 211 53 129 55 530 57 63 67 366 68 147 69 999 
70 77 77 68 79 164 80 56 81 555 82 246 83 300 84 57 91 93 93 228 
94 92 95 510 96 164 97 127 105 163 107 194 108 108 109 716 110 183 111 288 
112 86 119 102 121 202 122 212 123 251 124 602 125 127 133 102 134 61 135 380 
136 234 137 285 138 69 149 19 151 65 159 81 161 348 162 276 163 114 177 410 
178 566 179 395 180 104 247 103 262 453 263 105 
