Name: (1S-TRANS)-2-METHYL-5-(1-METHYLETHENYL)-2-CYCLOHEXEN-1-OL
CAS: 2102-58-1
MW: 152
Formula: C10H16O
Synonym: MassBank: JP005800
Synonym: (1S-TRANS)-2-METHYL-5-(1-METHYLETHENYL)-2-CYCLOHEXEN-1-OL
Synonym: L-CARVEOL
Structure: 2831532D5452414E53292D322D4D455448594C2D352D28312D4D455448594C455448454E594C292D322D4359434C4F484558454E2D312D4F4C2E6D6F6C0A20204368656D447261773130313930393136353332440A2031342031342020302020302020302020302020302020302020302020303939392056323030300A2020202D302E3435303220202020302E3634343220202020302E303030302043202020302020302020302020302020302020302020302020302020302020302020302020300A2020202D302E343530322020202D302E3138303820202020302E303030302043202020302020302020302020302020302020302020302020302020302020302020302020300A20202020302E323634332020202D302E3539333320202020302E303030302043202020302020302020302020302020302020302020302020302020302020302020302020300A20202020302E393738382020202D302E3138303820202020302E303030302043202020302020302020302020302020302020302020302020302020302020302020302020300A20202020302E3937383820202020302E3634343220202020302E303030302043202020302020302020302020302020302020302020302020302020302020302020302020300A20202020302E3236343320202020312E3035363720202020302E303030302043202020302020302020302020302020302020302020302020302020302020302020302020300A20202020302E323634332020202D312E3431383320202020302E303030302048202020302020302020302020302020302020302020302020302020302020302020302020300A20202020312E3236333420202020312E3431383220202020302E30303030204F202020302020302020302020302020302020302020302020302020302020302020302020300A2020202D302E3733313320202020312E3431383320202020302E303030302048202020302020302020302020302020302020302020302020302020302020302020302020300A2020202D312E3236323620202020302E3530303920202020302E303030302043202020302020302020302020302020302020302020302020302020302020302020302020300A20202020312E3739323920202020302E3530303920202020302E303030302048202020302020302020302020302020302020302020302020302020302020302020302020300A2020202D312E353434382020202D302E3237343420202020302E303030302043202020302020302020302020302020302020302020302020302020302020302020302020300A2020202D312E3739323920202020312E3133323920202020302E303030302043202020302020302020302020302020302020302020302020302020302020302020302020300A20202020312E363932392020202D302E3539333320202020302E303030302043202020302020302020302020302020302020302020302020302020302020302020302020300A2020312020322020312020302020202020200A2020322020332020312020302020202020200A2020332020342020322020302020202020200A2020342020352020312020302020202020200A2020352020362020312020302020202020200A2020362020312020312020302020202020200A2020332020372020312020302020202020200A2020352020382020312020362020202020200A2020312020392020312020362020202020200A2020312031302020312020312020202020200A2020352031312020312020312020202020200A2031302031322020322020302020202020200A2031302031332020312020302020202020200A2020342031342020312020302020202020200A4D202053545920203120202031205355500A4D2020534C4220203120202031202020310A4D202053414C20202031202031202031340A4D202053424C20202031202031202031340A4D2020534D5420202031204D650A4D2020534256202020312031342020202D362E3936323220202020362E303237330A4D2020454E44
Contributor: FUJISE Y, HAMAMATSU UNIV. SCHOOL OF MEDICINE
InstType: EI
InstName: JEOL JMS-D-300
IoniMethod: _ENERGY 70 eV
IonPolarity: pos
Date: 2010-10-09 19:48:36+02:00
Num Peaks: 67
51 56 52 150 53 38 54 157 56 245 57 76 61 8 62 26 63 68 64 36 
65 185 66 57 67 142 68 75 69 168 70 25 72 14 75 22 76 15 77 369 
78 97 79 208 80 122 81 102 83 231 84 541 85 46 89 31 91 959 92 387 
93 339 94 80 95 88 96 82 97 29 99 26 100 12 103 67 104 47 105 318 
106 86 107 36 108 75 109 773 110 100 111 16 114 14 115 96 116 36 117 216 
118 33 119 999 120 102 121 29 123 75 124 26 127 26 129 19 130 17 131 33 
132 106 133 57 134 636 135 63 137 79 152 142 153 19 
