Name: 2-((DIETHOXYPHOSPHORYL)METHYL)-5-METHYLPYRROLE
MW: 231
Formula: C10H18NO3P
Synonym: MassBank: JP009348
Synonym: 2-((DIETHOXYPHOSPHORYL)METHYL)-5-METHYLPYRROLE
Structure: 322D282844494554484F585950484F5350484F52594C294D455448594C292D352D4D455448594C505952524F4C452E6D6F6C0A20204368656D447261773132323130393035313932440A2031352031352020302020302020302020302020302020302020302020303939392056323030300A20202020302E3936303220202020302E3931343120202020302E30303030204E202020302020302020302020302020302020302020302020302020302020302020302020300A20202020302E3437353320202020302E3234363720202020302E303030302043202020302020302020302020302020302020302020302020302020302020302020302020300A20202020302E393630322020202D302E3432303720202020302E303030302043202020302020302020302020302020302020302020302020302020302020302020302020300A20202020312E373434382020202D302E3136353820202020302E303030302043202020302020302020302020302020302020302020302020302020302020302020302020300A20202020312E3734343820202020302E3635393220202020302E303030302043202020302020302020302020302020302020302020302020302020302020302020302020300A20202020322E3431323220202020312E3134343120202020302E303030302043202020302020302020302020302020302020302020302020302020302020302020302020300A2020202D302E3334393720202020302E3234363720202020302E303030302043202020302020302020302020302020302020302020302020302020302020302020302020300A2020202D302E373632322020202D302E3436373820202020302E303030302050202020302020302020302020302020302020302020302020302020302020302020302020300A2020202D302E303437382020202D302E3838303320202020302E30303030204F202020302020302020302020302020302020302020302020302020302020302020302020300A2020202D312E343736372020202D302E3035353320202020302E30303030204F202020302020302020302020302020302020302020302020302020302020302020302020300A2020202D312E313734372020202D312E3138323220202020302E30303030204F202020302020302020302020302020302020302020302020302020302020302020302020300A2020202D312E3437363720202020302E3736393720202020302E303030302043202020302020302020302020302020302020302020302020302020302020302020302020300A2020202D322E3139313220202020312E3138323220202020302E303030302043202020302020302020302020302020302020302020302020302020302020302020302020300A2020202D312E393939372020202D312E3138323220202020302E303030302043202020302020302020302020302020302020302020302020302020302020302020302020300A2020202D322E343132322020202D302E3436373820202020302E303030302043202020302020302020302020302020302020302020302020302020302020302020302020300A2020312020322020312020302020202020200A2020322020332020322020302020202020200A2020332020342020312020302020202020200A2020342020352020322020302020202020200A2020312020352020312020302020202020200A2020352020362020312020302020202020200A2020382020392020322020302020202020200A2020382031302020312020302020202020200A2020382031312020312020302020202020200A2031322031332020312020302020202020200A2031302031322020312020302020202020200A2031342031352020312020302020202020200A2031312031342020312020302020202020200A2020372020382020312020302020202020200A2020322020372020312020302020202020200A4D2020454E44
Contributor: KANEMASA S, INST. OF ADVANCED MATERIAL STUDY KYUSHU UNIV.
InstType: EI
InstName: JEOL JMS-01-SG-2
IoniMethod: _ENERGY 75 eV
IonPolarity: pos
Date: 2010-10-09 19:48:36+02:00
Num Peaks: 26
39 25 41 51 42 63 43 31 51 35 52 33 53 48 54 15 65 34 66 33 
67 27 77 18 78 16 80 16 81 54 93 118 94 999 95 150 96 25 108 20 
109 30 120 21 156 22 202 14 231 61 232 15 
