Name: DIETHYL OXALATE
MW: 146
Formula: C6H10O4
Synonym: MassBank: JP004007
Synonym: DIETHYL OXALATE
Structure: 4F58414C49432041434944204449455448594C2045535445522E6D6F6C0A20204368656D447261773038313231303033353332440A2031302020392020302020302020302020302020302020302020302020303939392056323030300A2020202D302E3335373220202020302E3230363220202020302E303030302043202020302020302020302020302020302020302020302020302020302020302020302020300A20202020302E333537322020202D302E3230363320202020302E303030302043202020302020302020302020302020302020302020302020302020302020302020302020300A2020202D302E3335373220202020312E3033313320202020302E30303030204F202020302020302020302020302020302020302020302020302020302020302020302020300A2020202D312E303731372020202D302E3230363320202020302E30303030204F202020302020302020302020302020302020302020302020302020302020302020302020300A20202020302E333537322020202D312E3033313320202020302E30303030204F202020302020302020302020302020302020302020302020302020302020302020302020300A20202020312E3037313720202020302E3230363220202020302E30303030204F202020302020302020302020302020302020302020302020302020302020302020302020300A2020202D312E3738363220202020302E3230363220202020302E303030302043202020302020302020302020302020302020302020302020302020302020302020302020300A2020202D322E353030362020202D302E3230363320202020302E303030302043202020302020302020302020302020302020302020302020302020302020302020302020300A20202020312E373836322020202D302E3230363220202020302E303030302043202020302020302020302020302020302020302020302020302020302020302020302020300A20202020322E3530303620202020302E3230363220202020302E303030302043202020302020302020302020302020302020302020302020302020302020302020302020300A2020312020322020312020302020202020200A2020312020332020322020302020202020200A2020312020342020312020302020202020200A2020322020352020322020302020202020200A2020322020362020312020302020202020200A2020372020382020312020302020202020200A2020342020372020312020302020202020200A2020392031302020312020302020202020200A2020362020392020312020302020202020200A4D2020454E44
Contributor: MASS SPECTROSCOPY SOC. OF JAPAN (MSSJ)
InstType: EI
InstName: HITACHI RMU-6L
IoniMethod: _ENERGY 70 eV
IonPolarity: pos
Date: 2010-10-09 19:48:36+02:00
Num Peaks: 18
15 20 26 29 27 132 28 9 29 999 30 28 31 162 41 3 43 38 45 130 
46 32 47 3 56 24 57 23 59 22 73 2 74 100 75 25 
