Name: PROPENOIC ACID
CAS: 79-10-7
MW: 72
Formula: C3H4O2
Synonym: MassBank: JP004265
Synonym: PROPENOIC ACID
Synonym: ACRYLIC ACID
Structure: 310A31340A50524F50454E4F494320414349442E6D6F6C0A20204368656D447261773038313231303036303232440A2020352020342020302020302020302020302020302020302020302020303939392056323030300A20202020302E333537322020202D302E3230363220202020302E303030302043202020302020302020302020302020302020302020302020302020302020302020302020300A2020202D302E333537322020202D302E3631383820202020302E303030302043202020302020302020302020302020302020302020302020302020302020302020302020300A2020202D312E303731372020202D302E3230363220202020302E303030302043202020302020302020302020302020302020302020302020302020302020302020302020300A20202020302E3335373220202020302E3631383820202020302E30303030204F202020302020302020302020302020302020302020302020302020302020302020302020300A20202020312E303731372020202D302E3631383720202020302E30303030204F202020302020302020302020302020302020302020302020302020302020302020302020300A2020312020322020312020302020202020200A2020322020332020322020302020202020200A2020312020342020322020302020202020200A2020312020352020312020302020202020200A4D2020454E44
Contributor: TAJIMA S, GUNMA COLLEGE OF TECHNOLOGY
InstType: EI
InstName: HITACHI RMU-7M
IoniMethod: _ENERGY 70 eV
IonPolarity: pos
Date: 2010-10-09 19:48:36+02:00
Num Peaks: 17
15 13 25 68 26 469 27 998 28 172 29 46 43 58 44 240 45 321 46 22 
53 44 54 14 55 741 56 22 71 55 72 999 73 44 
