Name: N-(UNDECYLCARBAMOYL)-2-PYRROLIDONE
MW: 282
Formula: C16H30N2O2
Synonym: MassBank: JP004167
Synonym: N-(UNDECYLCARBAMOYL)-2-PYRROLIDONE
Structure: 4E2D28554E444543594C43415242414D4F594C292D322D505952524F4C49444F4E452E6D6F6C0A20204368656D447261773038313231303031323532440A2032302032302020302020302020302020302020302020302020302020303939392056323030300A20202020332E3633343020202020302E3133383720202020302E30303030204E202020302020302020302020302020302020302020302020302020302020302020302020300A20202020332E3732303220202020302E3935393220202020302E303030302043202020302020302020302020302020302020302020302020302020302020302020302020300A20202020342E3532373220202020312E3133303820202020302E303030302043202020302020302020302020302020302020302020302020302020302020302020302020300A20202020342E3933393720202020302E3431363320202020302E303030302043202020302020302020302020302020302020302020302020302020302020302020302020300A20202020342E333837362020202D302E3139363820202020302E303030302043202020302020302020302020302020302020302020302020302020302020302020302020300A20202020332E3130373120202020312E3531313320202020302E30303030204F202020302020302020302020302020302020302020302020302020302020302020302020300A20202020322E393139352020202D302E3237333820202020302E303030302043202020302020302020302020302020302020302020302020302020302020302020302020300A20202020322E393139352020202D312E3039383820202020302E30303030204E202020302020302020302020302020302020302020302020302020302020302020302020300A20202020322E3230353020202020302E3133383720202020302E30303030204F202020302020302020302020302020302020302020302020302020302020302020302020300A20202020322E323035302020202D312E3531313320202020302E303030302043202020302020302020302020302020302020302020302020302020302020302020302020300A20202020312E343930362020202D312E3039383820202020302E303030302043202020302020302020302020302020302020302020302020302020302020302020302020300A20202020302E373736312020202D312E3531313320202020302E303030302043202020302020302020302020302020302020302020302020302020302020302020302020300A20202020302E303631362020202D312E3039383820202020302E303030302043202020302020302020302020302020302020302020302020302020302020302020302020300A2020202D302E363532392020202D312E3531313320202020302E303030302043202020302020302020302020302020302020302020302020302020302020302020302020300A2020202D312E333637332020202D312E3039383820202020302E303030302043202020302020302020302020302020302020302020302020302020302020302020302020300A2020202D322E303831382020202D312E3531313320202020302E303030302043202020302020302020302020302020302020302020302020302020302020302020302020300A2020202D322E373936332020202D312E3039383820202020302E303030302043202020302020302020302020302020302020302020302020302020302020302020302020300A2020202D332E353130372020202D312E3531313320202020302E303030302043202020302020302020302020302020302020302020302020302020302020302020302020300A2020202D342E323235322020202D312E3039383820202020302E303030302043202020302020302020302020302020302020302020302020302020302020302020302020300A2020202D342E393339372020202D312E3531313320202020302E303030302043202020302020302020302020302020302020302020302020302020302020302020302020300A2020312020322020312020302020202020200A2020322020332020312020302020202020200A2020332020342020312020302020202020200A2020342020352020312020302020202020200A2020312020352020312020302020202020200A2020322020362020322020302020202020200A2020372020382020312020302020202020200A2020372020392020322020302020202020200A2031302031312020312020302020202020200A2031312031322020312020302020202020200A2031322031332020312020302020202020200A2031332031342020312020302020202020200A2031342031352020312020302020202020200A2031352031362020312020302020202020200A2031362031372020312020302020202020200A2031372031382020312020302020202020200A2031382031392020312020302020202020200A2031392032302020312020302020202020200A2020382031302020312020302020202020200A2020312020372020312020302020202020200A4D2020454E44
Contributor: MASS SPECTROSCOPY SOC. OF JAPAN (MSSJ)
InstType: EI
InstName: HITACHI RMU-6E
IoniMethod: _ENERGY 70 eV
IonPolarity: pos
Date: 2010-10-09 19:48:36+02:00
Num Peaks: 180
26 14 27 112 28 166 29 33 30 626 31 34 32 24 39 7 40 19 41 354 
42 126 43 32 44 64 45 32 46 9 47 0 50 5 52 4 53 15 54 4 
55 250 56 158 57 164 58 9 59 19 60 4 61 1 62 5 63 2 65 11 
66 5 67 3 68 29 69 134 70 64 71 5 72 13 73 9 74 114 75 2 
76 17 77 6 79 5 80 0 81 16 82 25 83 52 84 6 85 116 87 7 
88 23 89 1 90 240 91 14 92 2 93 1 94 2 95 11 96 13 97 4 
98 88 99 260 100 28 101 1 102 999 103 108 104 24 105 1 106 1 107 2 
108 1 109 1 110 8 111 12 112 150 113 9 114 17 115 4 116 22 117 2 
118 2 119 2 120 1 121 1 122 5 123 4 124 9 125 1 126 50 127 16 
128 8 129 6 130 40 131 20 132 3 133 0 135 2 136 1 137 2 138 0 
139 1 140 18 141 116 142 3 143 3 144 44 145 19 146 0 147 1 148 1 
149 210 150 2 151 3 152 6 153 2 154 2 155 13 156 6 157 2 158 4 
159 7 160 3 161 1 167 0 168 8 169 4 170 70 171 1 172 16 173 5 
174 1 180 0 181 1 182 3 183 13 184 0 185 2 186 15 187 3 196 1 
197 13 198 23 199 4 200 2 201 3 205 13 206 3 207 0 211 4 212 2 
213 1 214 14 215 28 216 5 217 1 223 2 224 3 225 3 226 2 227 0 
228 3 229 1 230 1 239 0 240 1 242 5 243 92 244 3 245 4 246 1 
253 3 254 1 255 1 278 3 279 1 280 0 281 1 282 18 283 5 284 1 
