Name: DECANEDIOIC ACID BIS(TRIMETHYLSILYL) ESTER
MW: 346
Formula: C16H34O4Si2
Synonym: MassBank: JP001047
Synonym: DECANEDIOIC ACID BIS(TRIMETHYLSILYL) ESTER
Synonym: DI(TRIMETHYLSILYL) DECANEDIOATE
Structure: 444543414E4544494F4943204143494420424953285452494D455448594C53494C594C292045535445522E6D6F6C0A20204368656D447261773039323031303130303532440A2032322032312020302020302020302020302020302020302020302020303939392056323030300A20202020332E313539392020202D302E3236313520202020302E303030302043202020302020302020302020302020302020302020302020302020302020302020302020300A20202020332E313539392020202D312E3038363520202020302E303030302043202020302020302020302020302020302020302020302020302020302020302020302020300A20202020322E343435342020202D312E3439393020202020302E303030302043202020302020302020302020302020302020302020302020302020302020302020302020300A20202020312E373330392020202D312E3038363520202020302E303030302043202020302020302020302020302020302020302020302020302020302020302020302020300A20202020312E303136342020202D312E3439393020202020302E303030302043202020302020302020302020302020302020302020302020302020302020302020302020300A20202020302E333032302020202D312E3038363520202020302E303030302043202020302020302020302020302020302020302020302020302020302020302020302020300A2020202D302E343132352020202D312E3439393020202020302E303030302043202020302020302020302020302020302020302020302020302020302020302020302020300A2020202D312E313237302020202D312E3038363520202020302E303030302043202020302020302020302020302020302020302020302020302020302020302020302020300A2020202D312E383431342020202D312E3439393020202020302E303030302043202020302020302020302020302020302020302020302020302020302020302020302020300A2020202D322E353535392020202D312E3038363520202020302E303030302043202020302020302020302020302020302020302020302020302020302020302020302020300A20202020322E3434353420202020302E3135313020202020302E30303030204F202020302020302020302020302020302020302020302020302020302020302020302020300A20202020332E3837343320202020302E3135313020202020302E30303030204F202020302020302020302020302020302020302020302020302020302020302020302020300A2020202D322E353535392020202D302E3236313520202020302E30303030204F202020302020302020302020302020302020302020302020302020302020302020302020300A2020202D332E323730342020202D312E3439393020202020302E30303030204F202020302020302020302020302020302020302020302020302020302020302020302020300A20202020332E3837343320202020302E3937363020202020302E303030302053692020302020302020302020302020302020302020302020302020302020302020302020300A20202020342E3639393320202020302E3937363020202020302E303030302043202020302020302020302020302020302020302020302020302020302020302020302020300A20202020332E3034393320202020302E3937363020202020302E303030302043202020302020302020302020302020302020302020302020302020302020302020302020300A20202020332E3837343320202020312E3830313020202020302E303030302043202020302020302020302020302020302020302020302020302020302020302020302020300A2020202D332E393834392020202D312E3038363520202020302E303030302053692020302020302020302020302020302020302020302020302020302020302020302020300A2020202D342E333937342020202D312E3830313020202020302E303030302043202020302020302020302020302020302020302020302020302020302020302020302020300A2020202D342E363939332020202D302E3637343020202020302E303030302043202020302020302020302020302020302020302020302020302020302020302020302020300A2020202D332E353732342020202D302E3337323020202020302E303030302043202020302020302020302020302020302020302020302020302020302020302020302020300A2020312020322020312020302020202020200A2020322020332020312020302020202020200A2020332020342020312020302020202020200A2020342020352020312020302020202020200A2020352020362020312020302020202020200A2020362020372020312020302020202020200A2020372020382020312020302020202020200A2020382020392020312020302020202020200A2020392031302020312020302020202020200A2020312031312020322020302020202020200A2020312031322020312020302020202020200A2031302031332020322020302020202020200A2031302031342020312020302020202020200A2031352031362020312020302020202020200A2031352031372020312020302020202020200A2031352031382020312020302020202020200A2031322031352020312020302020202020200A2031392032302020312020302020202020200A2031392032312020312020302020202020200A2031392032322020312020302020202020200A2031342031392020312020302020202020200A4D2020454E44
Contributor: KOGA M, UNIV. OF OCCUPATIONAL AND ENVIRONMENTAL HEALTH
InstType: EI
InstName: JEOL JMS-01-SG
IoniMethod: _ENERGY 70 eV
IonPolarity: pos
Date: 2010-10-09 19:48:36+02:00
Num Peaks: 24
47 86 55 270 69 186 73 999 74 99 75 636 81 80 97 15 117 282 121 131 
125 154 129 25 138 80 147 302 149 315 166 9 185 147 204 202 215 446 217 27 
315 144 331 826 332 221 333 64 
