Name: MassBank: JP004851
MW: 230
Formula: C17H26
Synonym: MassBank: JP004851
Synonym: 7,11-DIMETHYL-3-METHYLENECYCLOTETRADECA-1(E),6(E),10(E)-TRIENE
Structure: 372C31312D44494D455448594C2D332D4D455448594C454E454359434C4F5445545241444543412D312845292C362845292C31302845292D545249454E452E6D6F6C0A20204368656D447261773035313931303232353532440A2031372031372020302020302020302020302020302020302020302020303939392056323030300A2020202D312E3631303620202020302E3135323220202020302E303030302043202020302020302020302020302020302020302020302020302020302020302020302020300A2020202D312E363130362020202D302E3637323820202020302E303030302043202020302020302020302020302020302020302020302020302020302020302020302020300A2020202D312E303237332020202D312E3235363120202020302E303030302043202020302020302020302020302020302020302020302020302020302020302020302020300A2020202D302E323032332020202D312E3235363120202020302E303030302043202020302020302020302020302020302020302020302020302020302020302020302020300A20202020302E333831312020202D302E3637323820202020302E303030302043202020302020302020302020302020302020302020302020302020302020302020302020300A20202020302E3338313120202020302E3135323220202020302E303030302043202020302020302020302020302020302020302020302020302020302020302020302020300A2020202D302E3230323320202020302E3733353620202020302E303030302043202020302020302020302020302020302020302020302020302020302020302020302020300A2020202D312E3032373320202020302E3733353620202020302E303030302043202020302020302020302020302020302020302020302020302020302020302020302020300A20202020302E393634352020202D312E3235363120202020302E303030302043202020302020302020302020302020302020302020302020302020302020302020302020300A20202020312E373839352020202D312E3235363120202020302E303030302043202020302020302020302020302020302020302020302020302020302020302020302020300A20202020322E333732382020202D302E3637323820202020302E303030302043202020302020302020302020302020302020302020302020302020302020302020302020300A20202020322E3337323820202020302E3135323220202020302E303030302043202020302020302020302020302020302020302020302020302020302020302020302020300A20202020312E3738393520202020302E3733353620202020302E303030302043202020302020302020302020302020302020302020302020302020302020302020302020300A20202020302E3936343520202020302E3733353620202020302E303030302043202020302020302020302020302020302020302020302020302020302020302020302020300A2020202D322E3337323820202020302E3436373920202020302E303030302043202020302020302020302020302020302020302020302020302020302020302020302020300A20202020302E3634383720202020312E3439373820202020302E303030302043202020302020302020302020302020302020302020302020302020302020302020302020300A20202020302E333831312020202D312E3439373820202020302E303030302043202020302020302020302020302020302020302020302020302020302020302020302020300A2020312020322020312020302020202020200A2020322020332020312020302020202020200A2020332020342020312020302020202020200A2020342020352020322020302020202020200A2020362020372020312020302020202020200A2020372020382020312020302020202020200A2020382020312020322020302020202020200A2020352020392020312020302020202020200A2020392031302020312020302020202020200A2031302031312020312020302020202020200A2031312031322020312020302020202020200A2031322031332020322020302020202020200A2031332031342020312020302020202020200A2031342020362020312020302020202020200A2020312031352020312020302020202020200A2031342031362020322020302020202020200A2020352031372020312020302020202020200A4D2020454E44
Contributor: KATO T, DEPT. OF CHEM., FAC. OF SCI., TOHOKU UNIV.
InstType: EI
InstName: Unknown
IoniMethod: _ENERGY 25 eV
IonPolarity: pos
Date: 2010-10-09 19:48:36+02:00
Num Peaks: 76
15 18 28 469 40 12 41 6 43 137 44 14 53 38 54 1 55 176 57 19 
58 34 67 19 68 54 69 172 70 21 77 5 78 38 79 304 80 122 81 41 
82 36 83 30 91 246 92 18 93 435 94 208 95 230 96 4 97 18 104 24 
105 412 106 24 107 317 108 232 109 197 110 4 111 61 117 46 118 86 119 999 
120 455 121 309 122 76 123 5 131 63 132 51 133 297 134 21 135 222 136 41 
137 16 145 16 146 58 147 289 148 187 149 8 150 107 151 27 159 244 160 5 
161 89 162 62 163 12 173 10 174 100 175 67 187 134 188 6 189 18 201 107 
202 28 215 21 216 33 217 11 230 345 231 63 
