Name: MassBank: JP002963
MW: 137
Formula: C9H15N
Synonym: MassBank: JP002963
Synonym: 3-METHYL-3-AZATRICYCLO(6.1.0.0(5,9))NONANE
Structure: 332D4D455448594C2D332D415A415452494359434C4F28362E312E302E3028352C3929294E4F4E414E452E6D6F6C0A20204368656D447261773033323031303030323832440A2031302031322020302020302020302020302020302020302020302020303939392056323030300A2020202D302E3434383620202020302E3431323520202020302E303030302043202020302020302020302020302020302020302020302020302020302020302020302020300A2020202D302E343438362020202D302E3431323520202020302E303030302043202020302020302020302020302020302020302020302020302020302020302020302020300A20202020302E323635392020202D302E3832353020202020302E303030302043202020302020302020302020302020302020302020302020302020302020302020302020300A20202020302E393830332020202D302E3431323520202020302E303030302043202020302020302020302020302020302020302020302020302020302020302020302020300A20202020302E3938303320202020302E3431323520202020302E30303030204E202020302020302020302020302020302020302020302020302020302020302020302020300A20202020302E3236353920202020302E3832353020202020302E303030302043202020302020302020302020302020302020302020302020302020302020302020302020300A2020202D312E3234353520202020302E3632363020202020302E303030302043202020302020302020302020302020302020302020302020302020302020302020302020300A2020202D312E363934382020202D302E3036353920202020302E303030302043202020302020302020302020302020302020302020302020302020302020302020302020300A2020202D312E313735362020202D302E3730373020202020302E303030302043202020302020302020302020302020302020302020302020302020302020302020302020300A20202020312E3639343820202020302E3832353020202020302E303030302043202020302020302020302020302020302020302020302020302020302020302020302020300A2020312020322020312020302020202020200A2020322020332020312020302020202020200A2020332020342020312020302020202020200A2020342020352020312020302020202020200A2020352020362020312020302020202020200A2020362020312020312020302020202020200A2020312020372020312020302020202020200A2020372020382020312020302020202020200A2020382020392020312020302020202020200A2020392020322020312020302020202020200A2020392020332020312020302020202020200A2020352031302020312020302020202020200A4D2020454E44
Contributor: SASAKI S, TOYOHASHI UNIV. OF TECH.
InstType: EI
InstName: Unknown
IoniMethod: EI
IonPolarity: pos
Date: 2010-10-09 19:48:36+02:00
Num Peaks: 50
26 60 27 50 28 20 29 2 39 100 40 20 41 100 42 3 43 70 44 999 
45 30 51 0 52 10 53 40 54 20 55 0 56 10 57 390 58 80 65 0 
66 40 67 40 68 20 70 2 71 110 72 10 77 100 78 0 79 490 80 50 
81 20 82 1 83 20 91 70 92 20 93 1 94 140 95 40 96 20 105 0 
106 10 107 10 108 40 109 0 120 10 122 50 134 10 136 0 137 170 138 20 
