Name: MassBank: JP002001
MW: 182
Formula: C12H10N2
Synonym: MassBank: JP002001
Synonym: 5-METHYLPYRIMIDO(3,4-A)INDOLE
Structure: 352D4D455448594C505952494D49444F28332C342D4129494E444F4C452E6D6F6C0A20204368656D447261773034323331303037323832440A2031342031362020302020302020302020302020302020302020302020303939392056323030300A20202020302E3238363320202020302E3633393820202020302E30303030204E202020302020302020302020302020302020302020302020302020302020302020302020300A20202020302E373731322020202D302E3032373620202020302E303030302043202020302020302020302020302020302020302020302020302020302020302020302020300A20202020302E323836332020202D302E3639353120202020302E303030302043202020302020302020302020302020302020302020302020302020302020302020302020300A2020202D302E343938332020202D302E3434303120202020302E303030302043202020302020302020302020302020302020302020302020302020302020302020302020300A2020202D312E323132382020202D302E3835323620202020302E303030302043202020302020302020302020302020302020302020302020302020302020302020302020300A2020202D312E393237332020202D302E3434303120202020302E303030302043202020302020302020302020302020302020302020302020302020302020302020302020300A2020202D312E3932373320202020302E3338343920202020302E303030302043202020302020302020302020302020302020302020302020302020302020302020302020300A2020202D312E3231323820202020302E3739373420202020302E303030302043202020302020302020302020302020302020302020302020302020302020302020302020300A2020202D302E3439383320202020302E3338343920202020302E303030302043202020302020302020302020302020302020302020302020302020302020302020302020300A20202020302E3632313920202020312E3339333520202020302E303030302043202020302020302020302020302020302020302020302020302020302020302020302020300A20202020312E3539313720202020302E3035383620202020302E303030302043202020302020302020302020302020302020302020302020302020302020302020302020300A20202020312E3932373320202020302E3831323320202020302E303030302043202020302020302020302020302020302020302020302020302020302020302020302020300A20202020312E3434323320202020312E3437393720202020302E30303030204E202020302020302020302020302020302020302020302020302020302020302020302020300A20202020302E353431322020202D312E3437393720202020302E303030302043202020302020302020302020302020302020302020302020302020302020302020302020300A2020312020322020312020302020202020200A2020322020332020322020302020202020200A2020332020342020312020302020202020200A2020342020352020312020302020202020200A2020352020362020322020302020202020200A2020362020372020312020302020202020200A2020372020382020322020302020202020200A2020382020392020312020302020202020200A2020312020392020312020302020202020200A2020342020392020322020302020202020200A2031312031322020322020302020202020200A2031322031332020312020302020202020200A2031302031332020322020302020202020200A2020312031302020312020302020202020200A2020322031312020312020302020202020200A2020332031342020312020302020202020200A4D2020454E44
Contributor: SASAKI S, TOYOHASHI UNIV. OF TECH.
InstType: EI
InstName: JEOL JMS-01-SG-2
IoniMethod: _ENERGY 75 eV
IonPolarity: pos
Date: 2010-10-09 19:48:36+02:00
Num Peaks: 11
51 82 77 128 91 32 102 3 127 78 128 76 153 15 154 9 180 77 181 999 
182 795 
