Name: BERGAPTEN
MW: 216
Formula: C12H8O4
Synonym: MassBank: JP007967
Synonym: BERGAPTEN
Synonym: 4-METHOXY-7H-FURO(3,2-G)(1)BENZOPYRAN-7-ONE
Structure: 42455247415054454E2E6D6F6C0A20204368656D447261773034323031303137313332440A2031362031382020302020302020302020302020302020302020302020303939392056323030300A20202020312E3730363520202020312E3033313220202020302E303030302043202020302020302020302020302020302020302020302020302020302020302020302020300A20202020312E3730363520202020302E3230363220202020302E303030302043202020302020302020302020302020302020302020302020302020302020302020302020300A20202020302E393932302020202D302E3230363320202020302E303030302043202020302020302020302020302020302020302020302020302020302020302020302020300A20202020302E3237373520202020302E3230363220202020302E303030302043202020302020302020302020302020302020302020302020302020302020302020302020300A20202020302E3237373520202020312E3033313220202020302E303030302043202020302020302020302020302020302020302020302020302020302020302020302020300A20202020302E3939323020202020312E3434333820202020302E30303030204F202020302020302020302020302020302020302020302020302020302020302020302020300A2020202D302E3433363920202020312E3434333820202020302E303030302043202020302020302020302020302020302020302020302020302020302020302020302020300A2020202D312E3135313420202020312E3033313220202020302E303030302043202020302020302020302020302020302020302020302020302020302020302020302020300A2020202D312E3135313420202020302E3230363220202020302E303030302043202020302020302020302020302020302020302020302020302020302020302020302020300A2020202D302E343336392020202D302E3230363320202020302E303030302043202020302020302020302020302020302020302020302020302020302020302020302020300A2020202D312E3933363020202020312E3238363220202020302E30303030204F202020302020302020302020302020302020302020302020302020302020302020302020300A2020202D312E393336302020202D302E3034383720202020302E303030302043202020302020302020302020302020302020302020302020302020302020302020302020300A2020202D322E3432313020202020302E3631383820202020302E303030302043202020302020302020302020302020302020302020302020302020302020302020302020300A20202020322E3432313020202020312E3434333720202020302E30303030204F202020302020302020302020302020302020302020302020302020302020302020302020300A2020202D302E343336392020202D312E3033313320202020302E30303030204F202020302020302020302020302020302020302020302020302020302020302020302020300A2020202D312E313531342020202D312E3434333820202020302E303030302043202020302020302020302020302020302020302020302020302020302020302020302020300A2020312020322020312020302020202020200A2020322020332020322020302020202020200A2020332020342020312020302020202020200A2020342020352020312020302020202020200A2020352020362020312020302020202020200A2020312020362020312020302020202020200A2020372020382020312020302020202020200A2020382020392020322020302020202020200A2020392031302020312020302020202020200A2020342031302020322020302020202020200A2020352020372020322020302020202020200A2031322031332020322020302020202020200A2031312031332020312020302020202020200A2020392031322020312020302020202020200A2020382031312020312020302020202020200A2020312031342020322020302020202020200A2031352031362020312020302020202020200A2031302031352020312020302020202020200A4D2020454E44
Contributor: MASS SPECTROSCOPY SOC. OF JAPAN (MSSJ)
InstType: EI
InstName: HITACHI M-80
IoniMethod: _ENERGY 20 eV
IonPolarity: pos
Date: 2010-10-09 19:48:36+02:00
Num Peaks: 25
51 161 53 35 63 122 74 7 88 44 89 196 90 22 116 3 117 44 118 31 
131 44 144 3 145 383 146 61 159 39 160 3 173 783 174 104 187 52 188 21 
201 370 202 70 203 13 216 999 217 131 
