Name: MassBank: JP007341
MW: 121
Formula: C8H11N
Synonym: MassBank: JP007341
Synonym: 2,6-DIMETHYLBENZENAMINE
Synonym: 2,6-XYLIDINE
Structure: 310A32330A322C362D44494D455448594C42454E5A454E414D494E452E6D6F6C0A20204368656D447261773132323130393034343232440A2020392020392020302020302020302020302020302020302020302020303939392056323030300A2020202D302E343132352020202D302E3030303020202020302E303030302043202020302020302020302020302020302020302020302020302020302020302020302020300A20202020302E3030303020202020302E3731343520202020302E303030302043202020302020302020302020302020302020302020302020302020302020302020302020300A20202020302E3832353020202020302E3731343520202020302E303030302043202020302020302020302020302020302020302020302020302020302020302020302020300A20202020312E323337352020202D302E3030303020202020302E303030302043202020302020302020302020302020302020302020302020302020302020302020302020300A20202020302E383235302020202D302E3731343520202020302E303030302043202020302020302020302020302020302020302020302020302020302020302020302020300A20202020302E303030302020202D302E3731343520202020302E303030302043202020302020302020302020302020302020302020302020302020302020302020302020300A2020202D312E323337352020202D302E3030303020202020302E30303030204E202020302020302020302020302020302020302020302020302020302020302020302020300A2020202D302E343132352020202D312E3432383920202020302E303030302043202020302020302020302020302020302020302020302020302020302020302020302020300A2020202D302E3431323520202020312E3432383920202020302E303030302043202020302020302020302020302020302020302020302020302020302020302020302020300A2020312020322020312020302020202020200A2020322020332020322020302020202020200A2020332020342020312020302020202020200A2020342020352020322020302020202020200A2020352020362020312020302020202020200A2020312020362020322020302020202020200A2020312020372020312020302020202020200A2020362020382020312020302020202020200A2020322020392020312020302020202020200A4D2020454E44
Contributor: YAMAMOTO M, DEP. CHEMISTRY, FAC. SCIENCE, NARA WOMEN'S UNIV.
InstType: EI
InstName: HITACHI RMU-6M
IoniMethod: _ENERGY 70 eV
IonPolarity: pos
Date: 2010-10-09 19:48:36+02:00
Num Peaks: 46
27 41 28 42 30 26 38 17 39 90 40 14 41 32 42 41 46.5 18 50 26 
51 64 52 45 53 59 54 27 58.5 30 59.5 39 60 11 60.5 39 62 13 63 35 
64 44 65 12 66 59 67 20 76 11 77 149 78 77 79 49 80 23 89 15 
91 105 92 29 93 45 94 18 102 14 103 74 104 52 105 27 106 555 107 49 
117 10 118 33 119 27 120 564 121 999 122 92 
