Name: METHANOL
MW: 32
Formula: CH4O
Synonym: MassBank: JP008889
Synonym: METHANOL
Synonym: METHYL ALCOHOL
Structure: 310A380A4D455448594C20414C434F484F4C2E6D6F6C0A20204368656D447261773038313231303030303832440A2020322020312020302020302020302020302020302020302020302020303939392056323030300A2020202D302E3431323520202020302E3030303020202020302E303030302043202020302020302020302020302020302020302020302020302020302020302020302020300A20202020302E3431323520202020302E3030303020202020302E30303030204F202020302020302020302020302020302020302020302020302020302020302020302020300A2020312020322020312020302020202020200A4D2020454E44
Contributor: TAJIMA S, GUNMA COLLEGE OF TECHNOLOGY
InstType: EI
InstName: HITACHI RMU-7M
IoniMethod: _ENERGY 70 eV
IonPolarity: pos
Date: 2010-10-09 19:48:36+02:00
Num Peaks: 12
12 13 13 25 14 51 15 247 17 15 18 14 28 50 29 512 30 70 31 999 
32 737 33 16 
