Name: (2-((1-ACETYLAMINO-1-METHOXYCARBONYL)ETHYLTHIO)-3-METHYLBUTYRYL)UREA
MW: 319
Formula: C12H21N3O5S
Synonym: MassBank: JP003505
Synonym: (2-((1-ACETYLAMINO-1-METHOXYCARBONYL)ETHYLTHIO)-3-METHYLBUTYRYL)UREA
Synonym: METHYL 2-ACETAMIDO-3-((1-ALLOPHANOYL-2-METHYL)PROPYLTHIO)PROPIONATE
Structure: 4D455448594C20322D41434554414D49444F2D332D2828312D414C4C4F5048414E4F594C2D322D4D455448594C2950524F50594C5448494F2950524F50494F4E4154452E6D6F6C0A20204368656D447261773130313930393137353832440A2032322032312020302020302020302020302020302020302020302020303939392056323030300A2020202D332E393239362020202D302E3431333020202020302E30303030204F202020302020302020302020302020302020302020302020302020302020302020302020300A2020202D332E323135312020202D302E3832353520202020302E303030302043202020302020302020302020302020302020302020302020302020302020302020302020300A2020202D322E353030362020202D302E3431333020202020302E30303030204E202020302020302020302020302020302020302020302020302020302020302020302020300A2020202D312E373836322020202D302E3832353520202020302E303030302043202020302020302020302020302020302020302020302020302020302020302020302020300A2020202D312E303731372020202D302E3431333020202020302E303030302043202020302020302020302020302020302020302020302020302020302020302020302020300A2020202D302E333537322020202D302E3832353520202020302E303030302053202020302020302020302020302020302020302020302020302020302020302020302020300A20202020302E333537322020202D302E3431333020202020302E303030302043202020302020302020302020302020302020302020302020302020302020302020302020300A20202020312E303731372020202D302E3832353520202020302E303030302043202020302020302020302020302020302020302020302020302020302020302020302020300A20202020312E373836322020202D302E3431333020202020302E303030302043202020302020302020302020302020302020302020302020302020302020302020302020300A20202020322E353030362020202D302E3832353520202020302E30303030204E202020302020302020302020302020302020302020302020302020302020302020302020300A20202020332E323135312020202D302E3431333020202020302E303030302043202020302020302020302020302020302020302020302020302020302020302020302020300A20202020332E393239362020202D302E3832353520202020302E303030302043202020302020302020302020302020302020302020302020302020302020302020302020300A2020202D332E323135312020202D312E3635303520202020302E30303030204E202020302020302020302020302020302020302020302020302020302020302020302020300A2020202D312E373836322020202D312E3635303520202020302E30303030204F202020302020302020302020302020302020302020302020302020302020302020302020300A2020202D312E3037313720202020302E3431323020202020302E303030302043202020302020302020302020302020302020302020302020302020302020302020302020300A2020202D312E3738363220202020302E3832343520202020302E303030302043202020302020302020302020302020302020302020302020302020302020302020302020300A2020202D302E3335373220202020302E3832343520202020302E303030302043202020302020302020302020302020302020302020302020302020302020302020302020300A20202020312E3738363220202020302E3431323020202020302E303030302043202020302020302020302020302020302020302020302020302020302020302020302020300A20202020312E3037313720202020302E3832343520202020302E30303030204F202020302020302020302020302020302020302020302020302020302020302020302020300A20202020322E3530303620202020302E3832343520202020302E30303030204F202020302020302020302020302020302020302020302020302020302020302020302020300A20202020332E3231353120202020302E3431323020202020302E30303030204F202020302020302020302020302020302020302020302020302020302020302020302020300A20202020322E3439393320202020312E3635303520202020302E303030302043202020302020302020302020302020302020302020302020302020302020302020302020300A2020312020322020322020302020202020200A2020322020332020312020302020202020200A2020332020342020312020302020202020200A2020342020352020312020302020202020200A2020352020362020312020302020202020200A2020362020372020312020302020202020200A2020372020382020312020302020202020200A2020382020392020312020302020202020200A2020392031302020312020302020202020200A2031302031312020312020302020202020200A2031312031322020312020302020202020200A2020322031332020312020302020202020200A2020342031342020322020302020202020200A2020352031352020312020302020202020200A2031352031362020312020302020202020200A2031352031372020312020302020202020200A2020392031382020312020302020202020200A2031382031392020322020302020202020200A2031382032302020312020302020202020200A2031312032312020322020302020202020200A2032302032322020312020302020202020200A4D202053545920203120202031205355500A4D2020534C4220203120202031202020310A4D202053414C20202031202031202032320A4D202053424C20202031202031202032310A4D2020534D5420202031204D650A4D2020534256202020312032312020202D362E3636333220202020362E333535300A4D2020454E44
Contributor: MASS SPECTROSCOPY SOC. OF JAPAN (MSSJ)
InstType: EI
InstName: HITACHI M-60
IoniMethod: _ENERGY 20 eV
IonPolarity: pos
Date: 2010-10-09 19:48:36+02:00
Num Peaks: 78
41 119 42 190 43 486 44 155 46 23 48 76 55 205 56 30 57 131 59 88 
60 109 69 23 70 1 71 40 72 24 73 36 74 83 81 3 82 30 83 53 
84 80 85 32 86 644 87 181 88 95 89 62 90 19 91 169 95 8 96 13 
97 6 98 30 99 28 100 191 101 999 102 140 103 27 105 11 109 1 111 59 
112 36 113 96 116 10 117 133 118 30 119 17 125 10 130 68 133 40 134 218 
135 38 141 57 142 62 143 83 144 173 145 14 146 91 147 22 158 109 159 13 
172 24 173 82 174 11 175 34 176 863 177 83 178 34 190 13 200 45 202 4 
217 153 218 17 219 4 221 4 232 12 259 68 276 22 281 8 
