Name: 3-(2-AMINOETHYL)INDOLE
MW: 160
Formula: C10H12N2
Synonym: MassBank: JP002028
Synonym: 3-(2-AMINOETHYL)INDOLE
Structure: 332D28322D414D494E4F455448594C29494E444F4C452E6D6F6C0A20204368656D447261773032323231303039343332440A2031322031332020302020302020302020302020302020302020302020303939392056323030300A20202020302E343434342020202D312E3032313020202020302E30303030204E202020302020302020302020302020302020302020302020302020302020302020302020300A2020202D302E333039332020202D302E3638353520202020302E303030302043202020302020302020302020302020302020302020302020302020302020302020302020300A2020202D302E3232333120202020302E3133353020202020302E303030302043202020302020302020302020302020302020302020302020302020302020302020302020300A20202020302E3538333920202020302E3330363520202020302E303030302043202020302020302020302020302020302020302020302020302020302020302020302020300A20202020302E3939363420202020312E3032313020202020302E303030302043202020302020302020302020302020302020302020302020302020302020302020302020300A20202020312E3832313420202020312E3032313020202020302E303030302043202020302020302020302020302020302020302020302020302020302020302020302020300A20202020322E3233333920202020302E3330363520202020302E303030302043202020302020302020302020302020302020302020302020302020302020302020302020300A20202020312E383231342020202D302E3430373920202020302E303030302043202020302020302020302020302020302020302020302020302020302020302020302020300A20202020302E393936342020202D302E3430373920202020302E303030302043202020302020302020302020302020302020302020302020302020302020302020302020300A2020202D302E3833363220202020302E3638373120202020302E303030302043202020302020302020302020302020302020302020302020302020302020302020302020300A2020202D312E3632303820202020302E3433323120202020302E303030302043202020302020302020302020302020302020302020302020302020302020302020302020300A2020202D322E3233333920202020302E3938343120202020302E30303030204E202020302020302020302020302020302020302020302020302020302020302020302020300A2020312020322020312020302020202020200A2020322020332020322020302020202020200A2020332020342020312020302020202020200A2020342020352020312020302020202020200A2020352020362020322020302020202020200A2020362020372020312020302020202020200A2020372020382020322020302020202020200A2020382020392020312020302020202020200A2020312020392020312020302020202020200A2020342020392020322020302020202020200A2031302031312020312020302020202020200A2031312031322020312020302020202020200A2020332031302020312020302020202020200A4D2020454E44
Contributor: SASAKI S, TOYOHASHI UNIV. OF TECH.
InstType: EI
InstName: MX-1303
IoniMethod: _ENERGY 50 eV
IonPolarity: pos
Date: 2010-10-09 19:48:36+02:00
Num Peaks: 41
39 35 41 22 43 12 50 2 51 46 52 20 55 14 62 1 63 29 64 12 
65 20 74 2 75 27 76 31 77 155 78 3 79 12 89 26 90 22 91 1 
93 14 102 53 103 129 104 2 115 37 116 14 117 41 128 5 129 39 130 999 
131 602 132 6 142 14 143 44 144 113 145 4 155 12 156 11 158 16 160 12 
161 16 
