Name: 2-(2-AMINO-2-METHYLPROPYL)INDOLE
MW: 188
Formula: C12H16N2
Synonym: MassBank: JP004394
Synonym: 2-(2-AMINO-2-METHYLPROPYL)INDOLE
Structure: 322D28322D414D494E4F2D322D4D455448594C50524F50594C29494E444F4C452E6D6F6C0A20204368656D447261773132323130393133323832440A2031342031352020302020302020302020302020302020302020302020303939392056323030300A2020202D302E3131313720202020302E3936393420202020302E30303030204E202020302020302020302020302020302020302020302020302020302020302020302020300A20202020302E3337333320202020302E3330323020202020302E303030302043202020302020302020302020302020302020302020302020302020302020302020302020300A2020202D302E313131372020202D302E3336353520202020302E303030302043202020302020302020302020302020302020302020302020302020302020302020302020300A2020202D302E383936332020202D302E3131303520202020302E303030302043202020302020302020302020302020302020302020302020302020302020302020302020300A2020202D312E363130382020202D302E3532333020202020302E303030302043202020302020302020302020302020302020302020302020302020302020302020302020300A2020202D322E333235322020202D302E3131303520202020302E303030302043202020302020302020302020302020302020302020302020302020302020302020302020300A2020202D322E3332353220202020302E3731343520202020302E303030302043202020302020302020302020302020302020302020302020302020302020302020302020300A2020202D312E3631303820202020312E3132373020202020302E303030302043202020302020302020302020302020302020302020302020302020302020302020302020300A2020202D302E3839363320202020302E3731343520202020302E303030302043202020302020302020302020302020302020302020302020302020302020302020302020300A20202020312E3139383320202020302E3330323020202020302E303030302043202020302020302020302020302020302020302020302020302020302020302020302020300A20202020312E363130382020202D302E3431323520202020302E303030302043202020302020302020302020302020302020302020302020302020302020302020302020300A20202020322E3332353220202020302E3030303020202020302E303030302043202020302020302020302020302020302020302020302020302020302020302020302020300A20202020302E383936332020202D302E3832353020202020302E303030302043202020302020302020302020302020302020302020302020302020302020302020302020300A20202020322E303233332020202D312E3132373020202020302E30303030204E202020302020302020302020302020302020302020302020302020302020302020302020300A2020312020322020312020302020202020200A2020322020332020322020302020202020200A2020332020342020312020302020202020200A2020342020352020312020302020202020200A2020352020362020322020302020202020200A2020362020372020312020302020202020200A2020372020382020322020302020202020200A2020382020392020312020302020202020200A2020312020392020312020302020202020200A2020342020392020322020302020202020200A2031302031312020312020302020202020200A2031312031322020312020302020202020200A2031312031332020312020302020202020200A2031312031342020312020302020202020200A2020322031302020312020302020202020200A4D2020454E44
Contributor: SASAKI S, TOYOHASHI UNIV. OF TECH.
InstType: EI
InstName: JEOL JMS-01-SG-2
IoniMethod: _ENERGY 75 eV
IonPolarity: pos
Date: 2010-10-09 19:48:36+02:00
Num Peaks: 10
42 61 43 17 57 22 58 999 59 35 77 42 103 25 130 13 131 155 188 79 
