Name: METHYLALLYLHYDRAZONE METHYLETHYLKETONE
MW: 140
Formula: C8H16N2
Synonym: MassBank: JP000867
Synonym: METHYLALLYLHYDRAZONE METHYLETHYLKETONE
Synonym: 2-BUTANONE ALLYLMETHYLHYDRAZONE
Structure: 4D455448594C414C4C594C48594452415A4F4E45204D455448594C455448594C4B45544F4E452E6D6F6C0A20204368656D447261773132323130393233303732440A2031302020392020302020302020302020302020302020302020302020303939392056323030300A20202020322E313433342020202D302E3832353020202020302E303030302043202020302020302020302020302020302020302020302020302020302020302020302020300A20202020312E343238392020202D302E3431323520202020302E303030302043202020302020302020302020302020302020302020302020302020302020302020302020300A20202020312E3432383920202020302E3431323520202020302E303030302043202020302020302020302020302020302020302020302020302020302020302020302020300A20202020302E3731343520202020302E3832353020202020302E303030302043202020302020302020302020302020302020302020302020302020302020302020302020300A20202020302E373134352020202D302E3832353020202020302E30303030204E202020302020302020302020302020302020302020302020302020302020302020302020300A2020202D302E303030302020202D302E3431323520202020302E30303030204E202020302020302020302020302020302020302020302020302020302020302020302020300A2020202D302E3030303020202020302E3431323520202020302E303030302043202020302020302020302020302020302020302020302020302020302020302020302020300A2020202D302E373134352020202D302E3832353020202020302E303030302043202020302020302020302020302020302020302020302020302020302020302020302020300A2020202D312E343238392020202D302E3431323520202020302E303030302043202020302020302020302020302020302020302020302020302020302020302020302020300A2020202D322E313433342020202D302E3832353020202020302E303030302043202020302020302020302020302020302020302020302020302020302020302020302020300A2020312020322020312020302020202020200A2020322020332020312020302020202020200A2020332020342020312020302020202020200A2020352020362020312020302020202020200A2020362020372020312020302020202020200A2020382020392020312020302020202020200A2020392031302020322020302020202020200A2020362020382020312020302020202020200A2020322020352020322020302020202020200A4D2020454E44
Contributor: SASAKI S, TOYOHASHI UNIV. OF TECH.
InstType: EI
InstName: SHIMADZU LKB-2091
IoniMethod: _ENERGY 70 eV
IonPolarity: pos
Date: 2010-10-09 19:48:36+02:00
Num Peaks: 41
26 20 27 150 28 124 29 17 30 190 31 8 32 29 39 16 40 29 41 348 
42 999 43 43 44 193 45 19 53 23 54 3 55 300 56 129 57 27 58 23 
59 12 68 157 69 52 70 34 71 105 72 36 82 16 83 2 84 20 97 129 
98 21 99 62 100 43 111 36 112 16 113 34 114 24 125 33 139 22 140 43 
141 52 
