Name: MassBank: JP002486
MW: 180
Formula: C14H12
Synonym: MassBank: JP002486
Synonym: TRANS-1,2-DIPHENYLETHENE
Synonym: TRANS-STILBENE
Structure: 303236315F53594E2D44495048454E594C455448594C454E452E6D6F6C0A20204368656D447261773038323031303031323532440A2031342031352020302020302020302020302020302020302020302020303939392056323030300A2020202D312E3132373020202020302E3331393720202020302E303030302043202020302020302020302020302020302020302020302020302020302020302020302020300A2020202D312E383431342020202D302E3039323820202020302E303030302043202020302020302020302020302020302020302020302020302020302020302020302020300A2020202D322E3535353920202020302E3331393720202020302E303030302043202020302020302020302020302020302020302020302020302020302020302020302020300A2020202D322E3535353920202020312E3134343720202020302E303030302043202020302020302020302020302020302020302020302020302020302020302020302020300A2020202D312E3834313420202020312E3535373220202020302E303030302043202020302020302020302020302020302020302020302020302020302020302020302020300A2020202D312E3132373020202020312E3134343720202020302E303030302043202020302020302020302020302020302020302020302020302020302020302020302020300A20202020312E313237302020202D312E3134343720202020302E303030302043202020302020302020302020302020302020302020302020302020302020302020302020300A20202020312E313237302020202D302E3331393720202020302E303030302043202020302020302020302020302020302020302020302020302020302020302020302020300A20202020312E3834313420202020302E3039323820202020302E303030302043202020302020302020302020302020302020302020302020302020302020302020302020300A20202020322E353535392020202D302E3331393720202020302E303030302043202020302020302020302020302020302020302020302020302020302020302020302020300A20202020322E353535392020202D312E3134343720202020302E303030302043202020302020302020302020302020302020302020302020302020302020302020302020300A20202020312E383431342020202D312E3535373220202020302E303030302043202020302020302020302020302020302020302020302020302020302020302020302020300A2020202D302E343132352020202D302E3039323820202020302E303030302043202020302020302020302020302020302020302020302020302020302020302020302020300A20202020302E343132352020202D302E3039323820202020302E303030302043202020302020302020302020302020302020302020302020302020302020302020302020300A2020312020322020312020302020202020200A2020322020332020322020302020202020200A2020332020342020312020302020202020200A2020342020352020322020302020202020200A2020352020362020312020302020202020200A2020312020362020322020302020202020200A2020372020382020312020302020202020200A2020382020392020322020302020202020200A2020392031302020312020302020202020200A2031302031312020322020302020202020200A2031312031322020312020302020202020200A2020372031322020322020302020202020200A2020312031332020312020302020202020200A2031332031342020322020302020202020200A2031342020382020312020302020202020200A4D2020454E44
Contributor: MASS SPECTROSCOPY SOC. OF JAPAN (MSSJ)
InstType: EI
InstName: JEOL JMS-D-3000
IoniMethod: _ENERGY 70 eV
IonPolarity: pos
Date: 2010-10-09 19:48:36+02:00
Num Peaks: 43
44 49 50 44 51 105 52 38 62 22 63 68 64 16 65 20 74 27 75 38 
76 137 77 97 78 41 83 31 87 18 88 44 89 180 90 50 101 12 102 95 
103 20 105 24 106 11 115 38 126 19 127 19 128 15 139 27 150 18 151 48 
152 93 153 29 163 11 164 12 165 348 166 48 176 71 177 67 178 485 179 826 
180 999 181 144 182 16 
