Name: DIMETHYL SULFOXIDE
MW: 78
Formula: C2H6OS
Synonym: MassBank: JP002100
Synonym: DIMETHYL SULFOXIDE
Structure: 310A31320A44494D455448594C2053554C464F584944452E6D6F6C0A20204368656D447261773038313131303137343032440A2020342020332020302020302020302020302020302020302020302020303939392056323030300A20202020302E3230363220202020302E3030303020202020302E303030302053202020302020302020302020302020302020302020302020302020302020302020302020300A20202020302E3631383820202020302E3731343520202020302E30303030204F202020302020302020302020302020302020302020302020302020302020302020302020300A20202020302E363138382020202D302E3731343520202020302E303030302043202020302020302020302020302020302020302020302020302020302020302020302020300A2020202D302E3631383820202020302E3030303020202020302E303030302043202020302020302020302020302020302020302020302020302020302020302020302020300A2020312020322020322020302020202020200A2020312020332020312020302020202020200A2020312020342020312020302020202020200A4D2020454E44
Contributor: TAJIMA S, GUNMA COLLEGE OF TECHNOLOGY
InstType: EI
InstName: HITACHI RMU-7M
IoniMethod: _ENERGY 70 eV
IonPolarity: pos
Date: 2010-10-09 19:48:36+02:00
Num Peaks: 22
14 15 15 116 27 49 28 120 29 52 31 71 32 34 33 25 34 40 35 64 
45 169 46 84 47 84 48 51 61 169 62 65 63 999 64 24 65 43 78 765 
79 41 80 35 
