Name: 2-(2-BUTENOXY)-N-(2-DIETHYLAMINOETHYL)-4-QUINOLINECARBOXAMIDE
MW: 341
Formula: C20H27N3O2
Synonym: MassBank: JP003449
Synonym: 2-(2-BUTENOXY)-N-(2-DIETHYLAMINOETHYL)-4-QUINOLINECARBOXAMIDE
Structure: 322D28322D425554454E4F5859292D4E2D28322D4449455448594C414D494E4F455448594C292D342D5155494E4F4C494E45434152424F58414D4944452E6D6F6C0A20204368656D447261773132323130393133333132440A2032352032362020302020302020302020302020302020302020302020303939392056323030300A2020202D302E3335373220202020312E3835363220202020302E30303030204E202020302020302020302020302020302020302020302020302020302020302020302020300A20202020302E3335373220202020312E3434333720202020302E303030302043202020302020302020302020302020302020302020302020302020302020302020302020300A20202020302E3335373220202020302E3631383720202020302E303030302043202020302020302020302020302020302020302020302020302020302020302020302020300A2020202D302E3335373220202020302E3230363220202020302E303030302043202020302020302020302020302020302020302020302020302020302020302020302020300A2020202D312E3037313720202020302E3631383720202020302E303030302043202020302020302020302020302020302020302020302020302020302020302020302020300A2020202D312E3738363220202020302E3230363220202020302E303030302043202020302020302020302020302020302020302020302020302020302020302020302020300A2020202D322E3530303620202020302E3631383720202020302E303030302043202020302020302020302020302020302020302020302020302020302020302020302020300A2020202D322E3530303620202020312E3434333720202020302E303030302043202020302020302020302020302020302020302020302020302020302020302020302020300A2020202D312E3738363220202020312E3835363220202020302E303030302043202020302020302020302020302020302020302020302020302020302020302020302020300A2020202D312E3037313720202020312E3434333720202020302E303030302043202020302020302020302020302020302020302020302020302020302020302020302020300A2020202D302E333537322020202D302E3631383820202020302E303030302043202020302020302020302020302020302020302020302020302020302020302020302020300A2020202D312E303731372020202D312E3033313320202020302E30303030204F202020302020302020302020302020302020302020302020302020302020302020302020300A20202020302E333537322020202D312E3033313320202020302E30303030204E202020302020302020302020302020302020302020302020302020302020302020302020300A20202020302E333537322020202D312E3835363320202020302E303030302043202020302020302020302020302020302020302020302020302020302020302020302020300A20202020312E303731372020202D322E3236383820202020302E303030302043202020302020302020302020302020302020302020302020302020302020302020302020300A20202020312E303731372020202D332E3039333820202020302E30303030204E202020302020302020302020302020302020302020302020302020302020302020302020300A20202020312E373836322020202D332E3530363320202020302E303030302043202020302020302020302020302020302020302020302020302020302020302020302020300A20202020322E353030362020202D332E3039333820202020302E303030302043202020302020302020302020302020302020302020302020302020302020302020302020300A20202020302E333537322020202D332E3530363320202020302E303030302043202020302020302020302020302020302020302020302020302020302020302020302020300A20202020302E333537322020202D342E3333313320202020302E303030302043202020302020302020302020302020302020302020302020302020302020302020302020300A20202020312E3037313720202020312E3835363220202020302E30303030204F202020302020302020302020302020302020302020302020302020302020302020302020300A20202020312E3037313720202020322E3638313320202020302E303030302043202020302020302020302020302020302020302020302020302020302020302020302020300A20202020312E3738363220202020332E3039333820202020302E303030302043202020302020302020302020302020302020302020302020302020302020302020302020300A20202020312E3738363220202020332E3931383820202020302E303030302043202020302020302020302020302020302020302020302020302020302020302020302020300A20202020322E3530303620202020342E3333313320202020302E303030302043202020302020302020302020302020302020302020302020302020302020302020302020300A2020312020322020312020302020202020200A2020322020332020322020302020202020200A2020332020342020312020302020202020200A2020342020352020322020302020202020200A2020352020362020312020302020202020200A2020362020372020322020302020202020200A2020372020382020312020302020202020200A2020382020392020322020302020202020200A2020392031302020312020302020202020200A2020312031302020322020302020202020200A2020352031302020312020302020202020200A2031312031322020322020302020202020200A2031312031332020312020302020202020200A2020342031312020312020302020202020200A2031342031352020312020302020202020200A2031372031382020312020302020202020200A2031362031372020312020302020202020200A2031392032302020312020302020202020200A2031362031392020312020302020202020200A2031352031362020312020302020202020200A2031332031342020312020302020202020200A2032322032332020312020302020202020200A2032332032342020322020302020202020200A2032342032352020312020302020202020200A2032312032322020312020302020202020200A2020322032312020312020302020202020200A4D2020454E44
Contributor: MASS SPECTROSCOPY SOC. OF JAPAN (MSSJ)
InstType: EI
InstName: HITACHI M-60
IoniMethod: _ENERGY 20 eV
IonPolarity: pos
Date: 2010-10-09 19:48:36+02:00
Num Peaks: 39
42 2 44 2 53 2 54 4 55 10 56 6 57 3 58 35 70 8 71 20 
72 8 84 12 85 5 86 999 87 158 88 4 97 1 99 64 100 6 113 5 
115 1 116 1 144 3 145 2 171 1 172 5 198 1 199 2 214 1 215 7 
226 5 227 1 269 9 270 2 312 1 324 3 339 2 340 2 341 1 
