Name: DIETHYLHYDRAZONE ACETONE
MW: 128
Formula: C7H16N2
Synonym: MassBank: JP000849
Synonym: DIETHYLHYDRAZONE ACETONE
Synonym: ACETONE DIETHYLHYDRAZONE
Structure: 310A32320A4449455448594C48594452415A4F4E4520414345544F4E452E6D6F6C0A20204368656D447261773036323431303138303332440A2020392020382020302020302020302020302020302020302020302020303939392056323030300A20202020302E3431323520202020312E3432383920202020302E303030302043202020302020302020302020302020302020302020302020302020302020302020302020300A2020202D302E3030303020202020302E3731343520202020302E303030302043202020302020302020302020302020302020302020302020302020302020302020302020300A2020202D302E3832353020202020302E3731343520202020302E303030302043202020302020302020302020302020302020302020302020302020302020302020302020300A20202020302E343132352020202D302E3030303020202020302E30303030204E202020302020302020302020302020302020302020302020302020302020302020302020300A2020202D302E303030302020202D302E3731343520202020302E30303030204E202020302020302020302020302020302020302020302020302020302020302020302020300A20202020302E343132352020202D312E3432383920202020302E303030302043202020302020302020302020302020302020302020302020302020302020302020302020300A20202020312E323337352020202D312E3432383920202020302E303030302043202020302020302020302020302020302020302020302020302020302020302020302020300A2020202D302E383235302020202D302E3731343520202020302E303030302043202020302020302020302020302020302020302020302020302020302020302020302020300A2020202D312E323337352020202D312E3432383920202020302E303030302043202020302020302020302020302020302020302020302020302020302020302020302020300A2020312020322020312020302020202020200A2020322020332020312020302020202020200A2020342020352020312020302020202020200A2020362020372020312020302020202020200A2020352020362020312020302020202020200A2020382020392020312020302020202020200A2020352020382020312020302020202020200A2020322020342020322020302020202020200A4D2020454E44
Contributor: SASAKI S, TOYOHASHI UNIV. OF TECH.
InstType: EI
InstName: SHIMADZU LKB-2091
IoniMethod: _ENERGY 70 eV
IonPolarity: pos
Date: 2010-10-09 19:48:36+02:00
Num Peaks: 28
27 147 28 147 29 169 30 4 39 50 40 25 41 112 42 19 43 105 44 99 
54 11 55 1 56 769 57 42 58 122 70 3 71 27 72 36 85 61 97 1 
99 93 100 9 112 10 113 999 114 100 127 32 128 337 129 34 
