Name: MassBank: JP003281
MW: 239
Formula: C10H13N3O4
Synonym: MassBank: JP003281
Synonym: N-ISOBUTYL-2,4-DINITROBENZENAMINE
Structure: 4E2D49534F425554594C2D322C342D44494E4954524F42454E5A454E414D494E452E6D6F6C0A20204368656D447261773038313231303032313032440A2031372031372020302020302020302020302020302020302020302020303939392056323030300A20202020302E303030302020202D302E3230363220202020302E303030302043202020302020302020302020302020302020302020302020302020302020302020302020300A2020202D302E373134352020202D302E3631383720202020302E303030302043202020302020302020302020302020302020302020302020302020302020302020302020300A2020202D312E343238392020202D302E3230363220202020302E303030302043202020302020302020302020302020302020302020302020302020302020302020302020300A2020202D312E3432383920202020302E3631383820202020302E303030302043202020302020302020302020302020302020302020302020302020302020302020302020300A2020202D302E3731343520202020312E3033313320202020302E303030302043202020302020302020302020302020302020302020302020302020302020302020302020300A20202020302E3030303020202020302E3631383820202020302E303030302043202020302020302020302020302020302020302020302020302020302020302020302020300A20202020302E373134352020202D302E3631383720202020302E30303030204E202020302020302020302020302020302020302020302020302020302020302020302020300A2020202D322E3134333420202020312E3033313320202020302E30303030204E202020302020332020302020302020302020302020302020302020302020302020302020300A2020202D322E3134333420202020312E3835363320202020302E30303030204F202020302020302020302020302020302020302020302020302020302020302020302020300A2020202D322E3835373920202020302E3631383820202020302E30303030204F202020302020352020302020302020302020302020302020302020302020302020302020300A2020202D302E373134352020202D312E3434333720202020302E30303030204E202020302020332020302020302020302020302020302020302020302020302020302020300A20202020302E303030302020202D312E3835363320202020302E30303030204F202020302020302020302020302020302020302020302020302020302020302020302020300A2020202D312E343238392020202D312E3835363220202020302E30303030204F202020302020352020302020302020302020302020302020302020302020302020302020300A20202020312E343238392020202D302E3230363220202020302E303030302043202020302020302020302020302020302020302020302020302020302020302020302020300A20202020322E313433342020202D302E3631383720202020302E303030302043202020302020302020302020302020302020302020302020302020302020302020302020300A20202020322E383537392020202D302E3230363220202020302E303030302043202020302020302020302020302020302020302020302020302020302020302020302020300A20202020322E313433342020202D312E3434333720202020302E303030302043202020302020302020302020302020302020302020302020302020302020302020302020300A2020312020322020312020302020202020200A2020322020332020322020302020202020200A2020332020342020312020302020202020200A2020342020352020322020302020202020200A2020352020362020312020302020202020200A2020312020362020322020302020202020200A2020312020372020312020302020202020200A2020382020392020322020302020202020200A2020382031302020312020302020202020200A2020342020382020312020302020202020200A2031312031322020322020302020202020200A2031312031332020312020302020202020200A2020322031312020312020302020202020200A2031342031352020312020302020202020200A2031352031362020312020302020202020200A2031352031372020312020302020202020200A2020372031342020312020302020202020200A4D202043484720203420202038202020312020313020202D3120203131202020312020313320202D310A4D2020454E44
Contributor: KOGA M, UNIV. OF OCCUPATIONAL AND ENVIRONMENTAL HEALTH
InstType: EI
InstName: JEOL JMS-01-SG-2
IoniMethod: _ENERGY 75 eV
IonPolarity: pos
Date: 2010-10-09 19:48:36+02:00
Num Peaks: 50
43 188 50 35 51 83 52 59 53 23 62 53 63 59 64 20 65 92 66 56 
74 17 75 68 76 104 77 116 78 104 79 14 80 53 90 56 91 41 92 95 
93 17 102 50 103 59 104 143 105 50 106 50 107 44 108 20 117 50 118 56 
119 20 120 95 121 20 122 113 130 47 133 50 134 62 136 50 138 68 149 26 
150 173 160 47 166 140 167 53 179 26 180 86 196 999 197 62 239 104 240 14 
