Name: 2-ETHENYL-2-METHYL-5-(1-METHYL-1-HYDROXY)ETHYLTETRAHYDROFURAN
MW: 170
Formula: C10H18O2
Synonym: MassBank: JP009787
Synonym: 2-ETHENYL-2-METHYL-5-(1-METHYL-1-HYDROXY)ETHYLTETRAHYDROFURAN
Synonym: LINALOL OXIDE
Structure: 322D455448454E594C2D322D4D455448594C2D352D28312D4D455448594C2D312D485944524F585929455448594C5445545241485944524F465552414E2E6D6F6C0A20204368656D447261773031303331303132323532440A2031322031322020302020302020302020302020302020302020302020303939392056323030300A2020202D302E3136353920202020302E3335363920202020302E30303030204F202020302020302020302020302020302020302020302020302020302020302020302020300A2020202D302E383333332020202D302E3132373520202020302E303030302043202020302020302020302020302020302020302020302020302020302020302020302020300A2020202D302E353738342020202D302E3931323120202020302E303030302043202020302020302020302020302020302020302020302020302020302020302020302020300A20202020302E323436362020202D302E3931323120202020302E303030302043202020302020302020302020302020302020302020302020302020302020302020302020300A20202020302E353031352020202D302E3132373520202020302E303030302043202020302020302020302020302020302020302020302020302020302020302020302020300A2020202D312E353837312020202D302E3436333020202020302E303030302043202020302020302020302020302020302020302020302020302020302020302020302020300A2020202D312E3234353820202020302E3538373020202020302E303030302043202020302020302020302020302020302020302020302020302020302020302020302020300A2020202D322E3037303620202020302E3538373020202020302E303030302043202020302020302020302020302020302020302020302020302020302020302020302020300A20202020312E3238363120202020302E3132373620202020302E303030302043202020302020302020302020302020302020302020302020302020302020302020302020300A20202020312E353431322020202D302E3635373020202020302E303030302043202020302020302020302020302020302020302020302020302020302020302020302020300A20202020322E3037303620202020302E3338323720202020302E30303030204F202020302020302020302020302020302020302020302020302020302020302020302020300A20202020312E3033313020202020302E3931323120202020302E303030302043202020302020302020302020302020302020302020302020302020302020302020302020300A2020312020322020312020302020202020200A2020322020332020312020302020202020200A2020332020342020312020302020202020200A2020342020352020312020302020202020200A2020312020352020312020302020202020200A2020322020362020312020302020202020200A2020372020382020322020302020202020200A2020322020372020312020302020202020200A2020392031302020312020302020202020200A2020392031312020312020302020202020200A2020352020392020312020302020202020200A2020392031322020312020302020202020200A4D2020454E44
Contributor: KURARAY CO., LTD.
InstType: EI
InstName: JEOL JMS-D-300
IoniMethod: _ENERGY 70 eV
IonPolarity: pos
Date: 2010-10-09 19:48:36+02:00
Num Peaks: 50
27 90 29 75 31 97 39 9 41 257 42 39 43 598 44 3 45 36 53 77 
54 18 55 40 56 42 57 80 58 23 59 999 60 51 67 288 68 447 69 25 
70 127 71 195 72 124 73 5 77 39 79 111 81 246 82 7 83 195 84 76 
85 143 91 4 93 431 94 642 95 270 96 2 97 124 98 14 102 79 109 4 
110 26 111 505 112 106 113 16 114 14 125 22 137 71 139 2 143 39 155 71 
