Name: MassBank: JP007290
MW: 341
Formula: C11H20Br2O2
Synonym: MassBank: JP007290
Synonym: (3S,4R,5S)-1,1-DIBROMO-3,5-DIMETHYL-4-METHOXYMETHOXY-1-HEPTENE
Structure: 2833532C34522C3553292D312C312D444942524F4D4F2D332C352D44494D455448594C2D342D4D4554484F58594D4554484F58592D312D48455054454E452E6D6F6C0A20204368656D447261773130323130393034303332440A2031382031372020302020302020302020302020302020302020302020303939392056323030300A2020202D312E373836322020202D312E3033313320202020302E303030302043202020302020302020302020302020302020302020302020302020302020302020302020300A2020202D312E303731372020202D302E3631383820202020302E303030302043202020302020302020302020302020302020302020302020302020302020302020302020300A2020202D322E353030362020202D302E3631383820202020302E303030302042722020302020302020302020302020302020302020302020302020302020302020302020300A2020202D312E373836322020202D312E3835363320202020302E303030302042722020302020302020302020302020302020302020302020302020302020302020302020300A2020202D302E333537322020202D312E3033313320202020302E303030302043202020302020302020302020302020302020302020302020302020302020302020302020300A20202020302E333537322020202D302E3631383820202020302E303030302043202020302020302020302020302020302020302020302020302020302020302020302020300A20202020312E303731372020202D312E3033313320202020302E303030302043202020302020302020302020302020302020302020302020302020302020302020302020300A20202020312E373836322020202D302E3631383820202020302E303030302043202020302020302020302020302020302020302020302020302020302020302020302020300A20202020322E353030362020202D312E3033313320202020302E303030302043202020302020302020302020302020302020302020302020302020302020302020302020300A2020202D302E333537322020202D312E3835363320202020302E303030302048202020302020302020302020302020302020302020302020302020302020302020302020300A2020202D302E333537322020202D302E3230363220202020302E303030302043202020302020302020302020302020302020302020302020302020302020302020302020300A20202020302E3335373220202020302E3230363220202020302E30303030204F202020302020302020302020302020302020302020302020302020302020302020302020300A20202020302E333537322020202D312E3434333820202020302E303030302048202020302020302020302020302020302020302020302020302020302020302020302020300A20202020312E303731372020202D312E3835363320202020302E303030302043202020302020302020302020302020302020302020302020302020302020302020302020300A20202020312E303731372020202D302E3230363220202020302E303030302048202020302020302020302020302020302020302020302020302020302020302020302020300A2020202D302E3335373220202020302E3631383820202020302E303030302043202020302020302020302020302020302020302020302020302020302020302020302020300A2020202D302E3335373220202020312E3434333820202020302E30303030204F202020302020302020302020302020302020302020302020302020302020302020302020300A2020202D312E3037313720202020312E3835363320202020302E303030302043202020302020302020302020302020302020302020302020302020302020302020302020300A2020312020322020322020302020202020200A2020312020332020312020302020202020200A2020312020342020312020302020202020200A2020322020352020312020302020202020200A2020352020362020312020302020202020200A2020362020372020312020302020202020200A2020372020382020312020302020202020200A2020382020392020312020302020202020200A2020352031302020312020312020202020200A2020352031312020312020312020202020200A2020362031322020312020312020202020200A2020362031332020312020312020202020200A2020372031342020312020312020202020200A2020372031352020312020312020202020200A2031322031362020312020302020202020200A2031362031372020312020302020202020200A2031372031382020312020302020202020200A4D2020454E44
Contributor: ITO S, DEPT. OF CHEM., TOHOKU UNIV.
InstType: EI
InstName: Unknown
IoniMethod: _ENERGY 25 eV
IonPolarity: pos
Date: 2010-10-09 19:48:36+02:00
Num Peaks: 30
41 69 43 47 45 999 46 7 55 41 56 33 57 195 58 3 67 34 69 49 
70 38 71 3 80 27 82 35 85 677 86 4 93 23 98 27 101 83 131 99 
132 75 177 31 179 23 204 2 210 39 212 120 214 45 224 1 226 12 228 5 
