Name: MassBank: JP000802
MW: 460
Formula: C25H56O3Si2
Synonym: MassBank: JP000802
Synonym: 1-O-HEXADECYLGLYCEROL 2,3-DITRIMETHYLSILYLETHER
Synonym: 1-O-HEXADECYL-2,3-DI-O-TRIMETHYLSILYLGLYCEROL
Structure: 312D4F2D48455841444543594C474C594345524F4C20322C332D44495452494D455448594C53494C594C45544845522E6D6F6C0A20204368656D447261773131323230393231323932440A2033302032392020302020302020302020302020302020302020302020303939392056323030300A20202020312E3830313020202020342E3238363820202020302E30303030204F202020302020302020302020302020302020302020302020302020302020302020302020300A20202020312E3338383520202020352E3030313320202020302E303030302043202020302020302020302020302020302020302020302020302020302020302020302020300A20202020302E3536333520202020352E3030313320202020302E303030302043202020302020302020302020302020302020302020302020302020302020302020302020300A20202020302E3135313020202020342E3238363820202020302E30303030204F202020302020302020302020302020302020302020302020302020302020302020302020300A20202020302E3135313020202020352E3731353820202020302E303030302043202020302020302020302020302020302020302020302020302020302020302020302020300A2020202D302E3637343020202020352E3731353820202020302E30303030204F202020302020302020302020302020302020302020302020302020302020302020302020300A20202020312E3338383520202020332E3537323420202020302E303030302043202020302020302020302020302020302020302020302020302020302020302020302020300A20202020312E3830313020202020322E3835373920202020302E303030302043202020302020302020302020302020302020302020302020302020302020302020302020300A20202020312E3338383520202020322E3134333420202020302E303030302043202020302020302020302020302020302020302020302020302020302020302020302020300A20202020312E3830313020202020312E3432383920202020302E303030302043202020302020302020302020302020302020302020302020302020302020302020302020300A20202020312E3338383520202020302E3731343520202020302E303030302043202020302020302020302020302020302020302020302020302020302020302020302020300A20202020312E383031302020202D302E3030303020202020302E303030302043202020302020302020302020302020302020302020302020302020302020302020302020300A20202020312E333838352020202D302E3731343520202020302E303030302043202020302020302020302020302020302020302020302020302020302020302020302020300A20202020312E383031302020202D312E3432383920202020302E303030302043202020302020302020302020302020302020302020302020302020302020302020302020300A20202020312E333838352020202D322E3134333420202020302E303030302043202020302020302020302020302020302020302020302020302020302020302020302020300A20202020312E383031302020202D322E3835373920202020302E303030302043202020302020302020302020302020302020302020302020302020302020302020302020300A20202020312E333838352020202D332E3537323420202020302E303030302043202020302020302020302020302020302020302020302020302020302020302020302020300A20202020312E383031302020202D342E3238363820202020302E303030302043202020302020302020302020302020302020302020302020302020302020302020302020300A20202020312E333838352020202D352E3030313320202020302E303030302043202020302020302020302020302020302020302020302020302020302020302020302020300A20202020312E383031302020202D352E3731353820202020302E303030302043202020302020302020302020302020302020302020302020302020302020302020302020300A20202020312E333838352020202D362E3433303220202020302E303030302043202020302020302020302020302020302020302020302020302020302020302020302020300A20202020312E383031302020202D372E3134343720202020302E303030302043202020302020302020302020302020302020302020302020302020302020302020302020300A2020202D312E3038363520202020362E3433303220202020302E303030302053692020302020302020302020302020302020302020302020302020302020302020302020300A2020202D302E3337323020202020362E3834323720202020302E303030302043202020302020302020302020302020302020302020302020302020302020302020302020300A2020202D312E3830313020202020362E3031373720202020302E303030302043202020302020302020302020302020302020302020302020302020302020302020302020300A2020202D312E3439393020202020372E3134343720202020302E303030302043202020302020302020302020302020302020302020302020302020302020302020302020300A2020202D302E3637343020202020342E3238363820202020302E303030302053692020302020302020302020302020302020302020302020302020302020302020302020300A2020202D302E3637343020202020332E3436313820202020302E303030302043202020302020302020302020302020302020302020302020302020302020302020302020300A2020202D312E3439393020202020342E3238363820202020302E303030302043202020302020302020302020302020302020302020302020302020302020302020302020300A2020202D302E3637343020202020352E3131313820202020302E303030302043202020302020302020302020302020302020302020302020302020302020302020302020300A2020312020322020312020302020202020200A2020322020332020312020302020202020200A2020332020342020312020302020202020200A2020332020352020312020302020202020200A2020352020362020312020302020202020200A2020372020382020312020302020202020200A2020382020392020312020302020202020200A2020392031302020312020302020202020200A2031302031312020312020302020202020200A2031312031322020312020302020202020200A2031322031332020312020302020202020200A2031332031342020312020302020202020200A2031342031352020312020302020202020200A2031352031362020312020302020202020200A2031362031372020312020302020202020200A2031372031382020312020302020202020200A2031382031392020312020302020202020200A2031392032302020312020302020202020200A2032302032312020312020302020202020200A2032312032322020312020302020202020200A2020312020372020312020302020202020200A2032332032342020312020312020202020200A2032332032352020312020312020202020200A2032332032362020312020302020202020200A2020362032332020312020302020202020200A2032372032382020312020302020202020200A2032372032392020312020302020202020200A2032372033302020312020302020202020200A2020342032372020312020302020202020200A4D2020454E44
Contributor: HAYASHI A, DEPT. OF CHEMISTRY, FAC. OF SCI. AND TECHNOLOGY, KINKI UNIV.
InstType: EI
InstName: SHIMADZU LKB-9000B
IoniMethod: _ENERGY 40 eV
IonPolarity: pos
Date: 2010-10-09 19:48:36+02:00
Num Peaks: 62
55 8 57 33 69 21 70 10 71 64 73 98 74 8 75 28 82 9 83 27 
84 8 85 67 89 9 95 12 96 9 97 33 98 8 99 27 101 29 103 89 
104 8 105 20 111 17 113 18 115 23 116 63 117 271 118 31 119 26 125 8 
127 13 129 89 130 164 131 146 132 41 133 261 134 33 135 14 141 9 145 18 
147 298 148 46 149 45 155 9 175 22 177 30 189 12 204 79 205 999 206 193 
207 89 208 11 221 10 280 8 313 46 314 12 355 8 356 15 357 14 370 10 
445 20 446 8 
