Name: ALPHA-TERPINYL PROPIONATE
MW: 210
Formula: C13H22O2
Synonym: MassBank: JP006914
Synonym: ALPHA-TERPINYL PROPIONATE
Synonym: ALPHA,ALPHA,4-TRIMETHYL-3-CYCLOHEXENEMETHYL PROPIONATE
Structure: 414C5048412D54455250494E594C2050524F50494F4E4154452E6D6F6C0A20204368656D447261773038303631303034343832440A2031352031352020302020302020302020302020302020302020302020303939392056323030300A2020202D312E353339352020202D302E3330323020202020302E303030302043202020302020302020302020302020302020302020302020302020302020302020302020300A2020202D312E353339352020202D312E3132373020202020302E303030302043202020302020302020302020302020302020302020302020302020302020302020302020300A2020202D302E383235302020202D312E3533393520202020302E303030302043202020302020302020302020302020302020302020302020302020302020302020302020300A2020202D302E313130352020202D312E3132373020202020302E303030302043202020302020302020302020302020302020302020302020302020302020302020302020300A2020202D302E313130352020202D302E3330323020202020302E303030302043202020302020302020302020302020302020302020302020302020302020302020302020300A2020202D302E3832353020202020302E3131303520202020302E303030302043202020302020302020302020302020302020302020302020302020302020302020302020300A2020202D302E3832353020202020302E3933353520202020302E303030302043202020302020302020302020302020302020302020302020302020302020302020302020300A2020202D302E383235302020202D322E3336343520202020302E303030302043202020302020302020302020302020302020302020302020302020302020302020302020300A2020202D302E3832353020202020312E3736303520202020302E303030302043202020302020302020302020302020302020302020302020302020302020302020302020300A20202020302E3030303020202020302E3933353520202020302E30303030204F202020302020302020302020302020302020302020302020302020302020302020302020300A2020202D312E3635303020202020302E3933353520202020302E303030302043202020302020302020302020302020302020302020302020302020302020302020302020300A20202020302E3431323520202020312E3635303020202020302E303030302043202020302020302020302020302020302020302020302020302020302020302020302020300A20202020312E3233373520202020312E3635303020202020302E303030302043202020302020302020302020302020302020302020302020302020302020302020302020300A20202020302E3030303020202020322E3336343520202020302E30303030204F202020302020302020302020302020302020302020302020302020302020302020302020300A20202020312E3635303020202020322E3336343520202020302E303030302043202020302020302020302020302020302020302020302020302020302020302020302020300A2020312020322020312020302020202020200A2020322020332020312020302020202020200A2020332020342020322020302020202020200A2020342020352020312020302020202020200A2020352020362020312020302020202020200A2020362020312020312020302020202020200A2020362020372020312020302020202020200A2020332020382020312020302020202020200A2020372020392020312020302020202020200A2020372031302020312020302020202020200A2020372031312020312020302020202020200A2031302031322020312020302020202020200A2031322031332020312020302020202020200A2031322031342020322020302020202020200A2031332031352020312020302020202020200A4D2020454E44
Contributor: TAJIMA S, GUNMA COLLEGE OF TECHNOLOGY
InstType: EI
InstName: HITACHI M-80B
IoniMethod: _ENERGY 70 eV
IonPolarity: pos
Date: 2010-10-09 19:48:36+02:00
Num Peaks: 44
27 88 29 256 31 14 39 70 40 15 41 210 42 16 43 133 51 15 53 79 
55 77 56 11 57 765 58 25 59 38 65 21 66 11 67 111 68 86 69 98 
71 11 77 90 78 19 79 127 80 76 81 227 82 15 91 82 92 157 93 701 
94 97 95 111 105 36 107 119 108 60 115 18 121 999 122 97 123 24 136 771 
137 187 138 14 139 35 195 13 
