Name: ALPHA-BROMOPROPIONIC ACID ETHYL ESTER
MW: 179
Formula: C5H9BrO2
Synonym: MassBank: JP006168
Synonym: ALPHA-BROMOPROPIONIC ACID ETHYL ESTER
Synonym: ETHYL 2-BROMOPROPIONATE
Structure: 310A32300A414C5048412D42524F4D4F50524F50494F4E4943204143494420455448594C2045535445522E6D6F6C0A20204368656D447261773038303631303036303032440A2020382020372020302020302020302020302020302020302020302020303939392056323030300A20202020302E3335373220202020302E3230363220202020302E303030302043202020302020302020302020302020302020302020302020302020302020302020302020300A20202020312E303731372020202D302E3230363320202020302E303030302043202020302020302020302020302020302020302020302020302020302020302020302020300A20202020312E303731372020202D312E3033313320202020302E303030302043202020302020302020302020302020302020302020302020302020302020302020302020300A20202020302E3335373220202020312E3033313320202020302E30303030204F202020302020302020302020302020302020302020302020302020302020302020302020300A2020202D302E333537322020202D302E3230363320202020302E30303030204F202020302020302020302020302020302020302020302020302020302020302020302020300A20202020312E3738363220202020302E3230363220202020302E303030302042722020302020302020302020302020302020302020302020302020302020302020302020300A2020202D312E3037313720202020302E3230363220202020302E303030302043202020302020302020302020302020302020302020302020302020302020302020302020300A2020202D312E373836322020202D302E3230363320202020302E303030302043202020302020302020302020302020302020302020302020302020302020302020302020300A2020312020322020312020302020202020200A2020322020332020312020302020202020200A2020312020342020322020302020202020200A2020312020352020312020302020202020200A2020322020362020312020302020202020200A2020372020382020312020302020202020200A2020352020372020312020302020202020200A4D2020454E44
Contributor: HASHIMOTO K, KYOTO COLLEGE OF PHARMACY
InstType: EI
InstName: HITACHI M-80
IoniMethod: _ENERGY 20 eV
IonPolarity: pos
Date: 2010-10-09 19:48:36+02:00
Num Peaks: 20
26 11 27 254 28 142 29 999 30 21 31 13 41 52 45 57 55 25 56 40 
57 131 73 12 106 15 107 90 109 83 110 26 135 12 137 12 180 7 182 7 
