Name: MassBank: JP004016
MW: 122
Formula: C8H10O
Synonym: MassBank: JP004016
Synonym: 3,4-DIMETHYLPHENOL
Structure: 310A32330A332C342D44494D455448594C5048454E4F4C2E6D6F6C0A20204368656D447261773032323131303232353532440A2020392020392020302020302020302020302020302020302020302020303939392056323030300A20202020302E373134352020202D302E3431323520202020302E303030302043202020302020302020302020302020302020302020302020302020302020302020302020300A20202020302E303030302020202D302E3832353020202020302E303030302043202020302020302020302020302020302020302020302020302020302020302020302020300A2020202D302E373134352020202D302E3431323520202020302E303030302043202020302020302020302020302020302020302020302020302020302020302020302020300A2020202D302E3731343520202020302E3431323520202020302E303030302043202020302020302020302020302020302020302020302020302020302020302020302020300A20202020302E3030303020202020302E3832353020202020302E303030302043202020302020302020302020302020302020302020302020302020302020302020302020300A20202020302E3731343520202020302E3431323520202020302E303030302043202020302020302020302020302020302020302020302020302020302020302020302020300A2020202D312E3432383920202020302E3832353020202020302E303030302043202020302020302020302020302020302020302020302020302020302020302020302020300A2020202D312E343238392020202D302E3832353020202020302E303030302043202020302020302020302020302020302020302020302020302020302020302020302020300A20202020312E343238392020202D302E3832353020202020302E30303030204F202020302020302020302020302020302020302020302020302020302020302020302020300A2020312020322020312020302020202020200A2020322020332020322020302020202020200A2020332020342020312020302020202020200A2020342020352020322020302020202020200A2020352020362020312020302020202020200A2020312020362020322020302020202020200A2020342020372020312020302020202020200A2020332020382020312020302020202020200A2020312020392020312020302020202020200A4D2020454E44
Contributor: MASS SPECTROSCOPY SOC. OF JAPAN (MSSJ)
InstType: EI
InstName: HITACHI RMU-6L
IoniMethod: _ENERGY 70 eV
IonPolarity: pos
Date: 2010-10-09 19:48:36+02:00
Num Peaks: 46
38 63 39 245 40 30 41 6 42 15 43 30 49 10 50 9 51 170 52 65 
53 109 54 3 55 45 59 25 60 23 61 4 62 35 63 79 64 17 65 8 
66 30 67 20 74 23 75 2 76 20 77 245 78 62 79 8 81 15 89 20 
91 50 92 3 93 31 94 20 95 14 100 3 103 25 104 12 105 29 107 999 
108 72 119 561 120 28 121 48 122 828 123 70 
