Name: MassBank: JP003666
MW: 202
Formula: C7H4F6
Synonym: MassBank: JP003666
Synonym: 1,2,3,4,7,7-HEXAFLUOROBICYCLO(2.2.1)HEPT-2-ENE
Structure: 312C322C332C342C372C372D48455841464C554F524F42494359434C4F28322E322E3129484550542D322D454E452E6D6F6C0A20204368656D447261773130323330393132333932440A2031332031342020302020302020302020302020302020302020302020303939392056323030300A2020202D302E3731343520202020302E3030303020202020302E303030302043202020302020302020302020302020302020302020302020302020302020302020302020300A2020202D302E373134352020202D302E3832353020202020302E303030302043202020302020302020302020302020302020302020302020302020302020302020302020300A20202020302E303030302020202D312E3233373520202020302E303030302043202020302020302020302020302020302020302020302020302020302020302020302020300A20202020302E373134352020202D302E3832353020202020302E303030302043202020302020302020302020302020302020302020302020302020302020302020302020300A20202020302E3731343520202020302E3030303020202020302E303030302043202020302020302020302020302020302020302020302020302020302020302020302020300A20202020302E3030303020202020302E3431323520202020302E303030302043202020302020302020302020302020302020302020302020302020302020302020302020300A2020202D312E3432383920202020302E3431323520202020302E303030302046202020302020302020302020302020302020302020302020302020302020302020302020300A20202020302E3030303020202020312E3233373520202020302E303030302046202020302020302020302020302020302020302020302020302020302020302020302020300A20202020312E3432383920202020302E3431323520202020302E303030302046202020302020302020302020302020302020302020302020302020302020302020302020300A20202020312E343238392020202D312E3233373520202020302E303030302046202020302020302020302020302020302020302020302020302020302020302020302020300A20202020302E303832342020202D302E3231333520202020302E303030302043202020302020302020302020302020302020302020302020302020302020302020302020300A20202020302E3438393020202020302E3530343320202020302E303030302046202020302020302020302020302020302020302020302020302020302020302020302020300A2020202D302E333234322020202D302E3933313420202020302E303030302046202020302020302020302020302020302020302020302020302020302020302020302020300A2020312020322020312020302020202020200A2020322020332020312020302020202020200A2020332020342020312020302020202020200A2020342020352020312020302020202020200A2020352020362020322020302020202020200A2020362020312020312020302020202020200A2020312020372020312020302020202020200A2020362020382020312020302020202020200A2020352020392020312020302020202020200A2020342031302020312020302020202020200A2020312031312020312020302020202020200A2031312020342020312020302020202020200A2031312031322020312020312020202020200A2031312031332020312020312020202020200A4D2020454E44
Contributor: SASAKI S, TOYOHASHI UNIV. OF TECH.
InstType: EI
InstName: Unknown
IoniMethod: EI
IonPolarity: pos
Date: 2010-10-09 19:48:36+02:00
Num Peaks: 28
31 78 39 30 51 113 57 11 63 42 69 228 74 31 75 11 81 57 83 177 
88 46 93 8 95 74 101 211 102 113 113 17 114 61 117 38 119 102 124 46 
132 199 133 999 137 88 138 1 151 319 152 628 174 761 202 170 
