Name: MassBank: JP006749
MW: 202
Formula: C13H14O2
Synonym: MassBank: JP006749
Synonym: 1,6,5'-TRIMETHYL-3,4-BENZO-2-OXABICYCLO(4.1.0)HEPT-3-EN-5-ONE
Synonym: 2,3,7-TRIMETHYL-2,3-METHANOCHROMAN-4-ONE
Structure: 312C362C35272D5452494D455448594C2D332C342D42454E5A4F2D322D4F584142494359434C4F28342E312E3029484550542D332D454E2D352D4F4E452E6D6F6C0A20204368656D447261773131313630393133303532440A2031352031372020302020302020302020302020302020302020302020303939392056323030300A20202020312E3432383920202020302E3637343020202020302E303030302043202020302020302020302020302020302020302020302020302020302020302020302020300A20202020312E343238392020202D302E3135313020202020302E303030302043202020302020302020302020302020302020302020302020302020302020302020302020300A20202020302E373134352020202D302E3536333520202020302E303030302043202020302020302020302020302020302020302020302020302020302020302020302020300A2020202D302E303030302020202D302E3135313020202020302E303030302043202020302020302020302020302020302020302020302020302020302020302020302020300A2020202D302E373134352020202D302E3536333520202020302E303030302043202020302020302020302020302020302020302020302020302020302020302020302020300A2020202D312E343238392020202D302E3135313020202020302E303030302043202020302020302020302020302020302020302020302020302020302020302020302020300A2020202D312E3432383920202020302E3637343020202020302E303030302043202020302020302020302020302020302020302020302020302020302020302020302020300A2020202D302E3731343520202020312E3038363520202020302E303030302043202020302020302020302020302020302020302020302020302020302020302020302020300A20202020302E3030303020202020302E3637343020202020302E303030302043202020302020302020302020302020302020302020302020302020302020302020302020300A20202020302E3731343520202020312E3038363520202020302E30303030204F202020302020302020302020302020302020302020302020302020302020302020302020300A20202020322E3134333420202020302E3236313520202020302E303030302043202020302020302020302020302020302020302020302020302020302020302020302020300A20202020302E373134352020202D312E3338383520202020302E30303030204F202020302020302020302020302020302020302020302020302020302020302020302020300A2020202D322E3134333420202020312E3038363520202020302E303030302043202020302020302020302020302020302020302020302020302020302020302020302020300A20202020312E383431342020202D302E3836353520202020302E303030302043202020302020302020302020302020302020302020302020302020302020302020302020300A20202020312E3834313420202020312E3338383520202020302E303030302043202020302020302020302020302020302020302020302020302020302020302020302020300A2020312020322020312020302020202020200A2020322020332020312020302020202020200A2020332020342020312020302020202020200A2020342020352020312020302020202020200A2020352020362020322020302020202020200A2020362020372020312020302020202020200A2020372020382020322020302020202020200A2020382020392020312020302020202020200A2020342020392020322020302020202020200A2020392031302020312020302020202020200A2020312031302020312020302020202020200A2020312031312020312020302020202020200A2020322031312020312020302020202020200A2020332031322020322020302020202020200A2020372031332020312020302020202020200A2020322031342020312020302020202020200A2020312031352020312020302020202020200A4D2020454E44
Contributor: MASS SPECTROSCOPY SOC. OF JAPAN (MSSJ)
InstType: EI
InstName: HITACHI RMS-4
IoniMethod: _ENERGY 70 eV
IonPolarity: pos
Date: 2010-10-09 19:48:36+02:00
Num Peaks: 47
50 130 51 260 52 160 53 3 62 80 63 280 64 90 65 2 67 160 69 100 
75 70 77 4 78 240 79 140 86 140 89 3 90 330 91 270 105 140 106 1 
107 200 108 430 115 210 116 1 118 400 119 80 121 80 128 1 129 70 131 150 
135 650 145 3 157 60 158 70 159 999 160 3 161 130 162 510 163 60 173 3 
174 80 187 460 188 70 201 1 202 960 203 150 204 30 
