Name: MassBank: JP005437
MW: 212
Formula: C11H16O4
Synonym: MassBank: JP005437
Synonym: 3,5-BIS(METHOXYCARBONYLMETHYL)CYCLOPENTENE
Structure: 332C352D424953284D4554484F5859434152424F4E594C4D455448594C294359434C4F50454E54454E452E6D6F6C0A20204368656D447261773032323231303030343232440A2031352031352020302020302020302020302020302020302020302020303939392056323030300A2020202D302E303433342020202D302E3437363420202020302E303030302043202020302020302020302020302020302020302020302020302020302020302020302020300A2020202D302E383238302020202D302E3232313420202020302E303030302043202020302020302020302020302020302020302020302020302020302020302020302020300A2020202D302E3832383020202020302E3630333620202020302E303030302043202020302020302020302020302020302020302020302020302020302020302020302020300A2020202D302E3034333420202020302E3835383520202020302E303030302043202020302020302020302020302020302020302020302020302020302020302020302020300A20202020302E3434313520202020302E3139313120202020302E303030302043202020302020302020302020302020302020302020302020302020302020302020302020300A20202020312E3236363520202020302E3139313120202020302E303030302043202020302020302020302020302020302020302020302020302020302020302020302020300A20202020312E363739302020202D302E3532333420202020302E303030302043202020302020302020302020302020302020302020302020302020302020302020302020300A20202020312E323636352020202D312E3233373920202020302E30303030204F202020302020302020302020302020302020302020302020302020302020302020302020300A20202020322E353034302020202D302E3532333420202020302E30303030204F202020302020302020302020302020302020302020302020302020302020302020302020300A20202020322E3931363520202020302E3139313120202020302E303030302043202020302020302020302020302020302020302020302020302020302020302020302020300A2020202D312E3439353420202020312E3038383520202020302E303030302043202020302020302020302020302020302020302020302020302020302020302020302020300A2020202D322E3234393120202020302E3735323920202020302E303030302043202020302020302020302020302020302020302020302020302020302020302020302020300A2020202D322E3931363520202020312E3233373920202020302E30303030204F202020302020302020302020302020302020302020302020302020302020302020302020300A2020202D322E333335332020202D302E3036373520202020302E30303030204F202020302020302020302020302020302020302020302020302020302020302020302020300A2020202D312E363637392020202D302E3535323520202020302E303030302043202020302020302020302020302020302020302020302020302020302020302020302020300A2020312020322020322020302020202020200A2020322020332020312020302020202020200A2020332020342020312020302020202020200A2020342020352020312020302020202020200A2020312020352020312020302020202020200A2020372020382020322020302020202020200A2020392031302020312020302020202020200A2020372020392020312020302020202020200A2020362020372020312020302020202020200A2020352020362020312020302020202020200A2031322031332020322020302020202020200A2031342031352020312020302020202020200A2031322031342020312020302020202020200A2031312031322020312020302020202020200A2020332031312020312020302020202020200A4D2020454E44
Contributor: HIRAMA M, TOHOKU UNIV. FACULTY OF SCIENCE DEPT. OF CHEMISTRY YUKIBUNSEKI
InstType: EI
InstName: HITACHI M-52
IoniMethod: _ENERGY 14 eV
IonPolarity: pos
Date: 2010-10-09 19:48:36+02:00
Num Peaks: 34
18 178 58 93 66 595 67 16 74 60 78 294 79 130 92 30 107 225 108 70 
113 225 114 10 119 120 120 90 121 60 122 8 129 88 131 60 138 700 139 999 
140 146 145 660 146 129 151 37 152 795 159 146 166 119 178 14 179 286 180 437 
181 208 182 12 210 125 212 119 
