Name: 2-OCTENOIC ACID METHYL ESTER
MW: 156
Formula: C9H16O2
Synonym: MassBank: JP004254
Synonym: 2-OCTENOIC ACID METHYL ESTER
Structure: 322D4F4354454E4F49432041434944204D455448594C2045535445522E6D6F6C0A20204368656D447261773032323131303132323832440A2031312031302020302020302020302020302020302020302020302020303939392056323030300A2020202D322E3134333420202020302E3230363220202020302E303030302043202020302020302020302020302020302020302020302020302020302020302020302020300A2020202D312E343238392020202D302E3230363220202020302E303030302043202020302020302020302020302020302020302020302020302020302020302020302020300A2020202D302E3731343520202020302E3230363220202020302E303030302043202020302020302020302020302020302020302020302020302020302020302020302020300A20202020302E303030302020202D302E3230363220202020302E303030302043202020302020302020302020302020302020302020302020302020302020302020302020300A20202020302E3731343520202020302E3230363220202020302E303030302043202020302020302020302020302020302020302020302020302020302020302020302020300A20202020312E343238392020202D302E3230363220202020302E303030302043202020302020302020302020302020302020302020302020302020302020302020302020300A20202020322E3134333420202020302E3230363320202020302E303030302043202020302020302020302020302020302020302020302020302020302020302020302020300A20202020322E383537392020202D302E3230363220202020302E303030302043202020302020302020302020302020302020302020302020302020302020302020302020300A2020202D322E3134333420202020312E3033313320202020302E30303030204F202020302020302020302020302020302020302020302020302020302020302020302020300A2020202D322E383537392020202D302E3230363220202020302E30303030204F202020302020302020302020302020302020302020302020302020302020302020302020300A2020202D322E383537392020202D312E3033313320202020302E303030302043202020302020302020302020302020302020302020302020302020302020302020302020300A2020312020322020312020302020202020200A2020322020332020322020302020202020200A2020332020342020312020302020202020200A2020342020352020312020302020202020200A2020352020362020312020302020202020200A2020362020372020312020302020202020200A2020372020382020312020302020202020200A2020312020392020322020302020202020200A2020312031302020312020302020202020200A2031302031312020312020302020202020200A4D2020454E44
Contributor: KOGA M, UNIV. OF OCCUPATIONAL AND ENVIRONMENTAL HEALTH
InstType: EI
InstName: JEOL JMS-01-SG
IoniMethod: _ENERGY 70 eV
IonPolarity: pos
Date: 2010-10-09 19:48:36+02:00
Num Peaks: 59
39 182 40 45 41 514 42 20 43 48 50 16 51 21 52 2 53 126 54 61 
55 760 56 13 57 117 58 16 59 85 60 1 65 18 66 13 67 109 68 24 
69 206 70 123 71 53 72 3 74 184 75 32 77 18 79 2 80 5 81 179 
82 332 83 12 84 13 85 56 87 999 88 9 91 5 92 5 93 5 95 7 
96 227 97 40 99 24 100 19 101 227 102 16 106 5 109 1 113 383 114 123 
115 29 124 28 125 410 126 34 127 56 128 1 141 18 156 32 157 5 
