Name: MassBank: JP000751
MW: 207
Formula: C11H11O4
Synonym: MassBank: JP000751
Synonym: 9-IODO-9-METHYL-3-OXO-2-OXABICYCLO(4.4.0)DEC-4-ENE-6,8-CARBOLACTONE
Structure: 392D494F444F2D392D4D455448594C2D332D4F584F2D322D4F584142494359434C4F28342E342E30294445432D342D454E452D362C382D434152424F4C4143544F4E452E6D6F6C0A20204368656D447261773036323131303231343132440A2031362031382020302020302020302020302020302020302020302020303939392056323030300A2020202D312E3437373920202020302E3233313120202020302E303030302043202020302020302020302020302020302020302020302020302020302020302020302020300A2020202D312E343737392020202D302E3539333920202020302E303030302043202020302020302020302020302020302020302020302020302020302020302020302020300A2020202D302E373633352020202D312E3030363420202020302E303030302043202020302020302020302020302020302020302020302020302020302020302020302020300A2020202D302E303439302020202D302E3539333920202020302E303030302043202020302020302020302020302020302020302020302020302020302020302020302020300A2020202D302E3034393020202020302E3233313120202020302E303030302043202020302020302020302020302020302020302020302020302020302020302020302020300A2020202D302E3736333520202020302E3634333620202020302E30303030204F202020302020302020302020302020302020302020302020302020302020302020302020300A20202020302E363635352020202D312E3030363420202020302E303030302043202020302020302020302020302020302020302020302020302020302020302020302020300A20202020312E333739392020202D302E3539333920202020302E303030302043202020302020302020302020302020302020302020302020302020302020302020302020300A20202020312E3337393920202020302E3233313120202020302E303030302043202020302020302020302020302020302020302020302020302020302020302020302020300A20202020302E3636353520202020302E3634333620202020302E303030302043202020302020302020302020302020302020302020302020302020302020302020302020300A2020202D322E3139323420202020302E3634333620202020302E30303030204F202020302020302020302020302020302020302020302020302020302020302020302020300A20202020312E3636323120202020312E3030363420202020302E303030302049202020302020302020302020302020302020302020302020302020302020302020302020300A20202020302E333235322020202D302E3032353320202020302E303030302043202020302020302020302020302020302020302020302020302020302020302020302020300A20202020312E303035382020202D302E3032353320202020302E30303030204F202020302020302020302020302020302020302020302020302020302020302020302020300A2020202D302E3231313120202020302E3930333520202020302E30303030204F202020302020302020302020302020302020302020302020302020302020302020302020300A20202020322E3139323420202020302E3038373920202020302E303030302043202020302020302020302020302020302020302020302020302020302020302020302020300A2020312020322020312020302020202020200A2020322020332020322020302020202020200A2020332020342020312020302020202020200A2020342020352020312020302020202020200A2020352020362020312020302020202020200A2020362020312020312020302020202020200A2020342020372020312020302020202020200A2020372020382020312020302020202020200A2020382020392020312020302020202020200A2020392031302020312020302020202020200A2031302020352020312020302020202020200A2020312031312020322020302020202020200A2020392031322020312020302020202020200A2020342031332020312020302020202020200A2031332031342020312020302020202020200A2031342020382020312020302020202020200A2031332031352020322020302020202020200A2020392031362020312020302020202020200A4D2020454E44
Contributor: NAKAYAMA M, MASS SPECTROSCOPY SOC. OF JAPAN (MSSJ)
InstType: EI
InstName: HITACHI RMU-6L
IoniMethod: _ENERGY 70 eV
IonPolarity: pos
Date: 2010-10-09 19:48:36+02:00
Num Peaks: 87
39 330 40 50 41 230 42 1 43 340 44 20 45 10 50 4 51 140 52 90 
53 180 54 3 55 190 62 20 63 70 64 3 65 160 66 60 67 60 68 2 
69 120 71 10 75 10 77 15 78 50 79 190 80 30 81 45 82 50 83 40 
89 20 90 1 91 260 92 50 93 70 94 4 95 200 96 20 97 20 102 1 
103 40 104 10 105 130 106 2 107 80 108 30 109 90 110 5 115 40 116 10 
117 50 118 1 119 50 120 10 121 80 122 1 123 210 124 40 125 50 127 2 
128 20 133 70 134 30 135 11 136 20 137 60 138 100 139 1 145 30 147 20 
149 10 151 11 152 50 161 70 162 20 163 19 164 30 165 10 168 10 179 81 
180 110 181 10 207 999 208 12 209 10 334 70 335 15 
