Name: MassBank: JP006325
MW: 218
Formula: C10H18O5
Synonym: MassBank: JP006325
Synonym: METHYL 3,4-O-ISOPROPYLIDENE-BETA-D-FUCOPYRANOSIDE
Structure: 313132305F4D455448594C20332C342D4F2D49534F50524F50594C4944454E452D424554412D442D4655434F505952414E4F534944452E6D6F6C0A20204368656D447261773039303731303131303732440A2031372031382020302020302020302020302020302020302020302020303939392056323030300A2020202D302E3538343420202020312E3635303020202020302E303030302043202020302020302020302020302020302020302020302020302020302020302020302020300A2020202D302E3538343420202020302E3832353020202020302E303030302043202020302020302020302020302020302020302020302020302020302020302020302020300A20202020302E3133303120202020302E3431323520202020302E303030302043202020302020302020302020302020302020302020302020302020302020302020302020300A20202020302E313330312020202D302E3431323520202020302E303030302043202020302020302020302020302020302020302020302020302020302020302020302020300A2020202D302E353834332020202D302E3832353020202020302E303030302043202020302020302020302020302020302020302020302020302020302020302020302020300A2020202D312E323938382020202D302E3431323520202020302E303030302043202020302020302020302020302020302020302020302020302020302020302020302020300A2020202D312E3239383820202020302E3431323520202020302E30303030204F202020302020302020302020302020302020302020302020302020302020302020302020300A2020202D322E303133332020202D302E3832353020202020302E30303030204F202020302020302020302020302020302020302020302020302020302020302020302020300A2020202D322E303133332020202D312E3635303020202020302E303030302043202020302020302020302020302020302020302020302020302020302020302020302020300A20202020302E393134372020202D302E3636373520202020302E30303030204F202020302020302020302020302020302020302020302020302020302020302020302020300A20202020312E333939362020202D302E3030303020202020302E303030302043202020302020302020302020302020302020302020302020302020302020302020302020300A20202020302E3931343720202020302E3636373420202020302E30303030204F202020302020302020302020302020302020302020302020302020302020302020302020300A20202020302E3231363320202020312E3233333020202020302E303030302048202020302020302020302020302020302020302020302020302020302020302020302020300A20202020302E323136332020202D312E3233333020202020302E303030302048202020302020302020302020302020302020302020302020302020302020302020302020300A2020202D302E353834342020202D312E3635303020202020302E30303030204F202020302020302020302020302020302020302020302020302020302020302020302020300A20202020322E3031313720202020302E3535333220202020302E303030302043202020302020302020302020302020302020302020302020302020302020302020302020300A20202020322E303133332020202D302E3535313520202020302E303030302043202020302020302020302020302020302020302020302020302020302020302020302020300A2020322020312020312020362020202020200A2020322020332020312020302020202020200A2020332020342020312020302020202020200A2020342020352020312020302020202020200A2020352020362020312020302020202020200A2020362020372020312020302020202020200A2020362020382020312020362020202020200A2020322020372020312020302020202020200A2020382020392020312020302020202020200A2020342031302020312020302020202020200A2031302031312020312020302020202020200A2031312031322020312020302020202020200A2031322020332020312020302020202020200A2020332031332020312020312020202020200A2020342031342020312020312020202020200A2020352031352020312020312020202020200A2031312031362020312020302020202020200A2031312031372020312020302020202020200A4D2020454E44
Contributor: EGUCHI S, FAC. OF SCIENCE, HIROSHIMA UNIV.
InstType: EI
InstName: HITACHI RMU-6L
IoniMethod: _ENERGY 70 eV
IonPolarity: pos
Date: 2010-10-09 19:48:36+02:00
Num Peaks: 60
40 35 41 243 42 70 43 999 44 52 45 157 53 43 54 4 55 209 56 130 
57 209 58 86 60 70 61 200 69 52 70 3 71 609 72 70 73 113 74 27 
75 35 81 17 82 26 83 31 84 35 85 348 86 35 87 40 88 78 89 17 
99 487 100 75 101 452 102 35 103 35 111 11 112 17 113 52 114 17 115 3 
116 104 117 17 118 17 119 2 125 35 127 17 128 139 129 9 130 17 131 17 
143 70 145 2 146 17 160 17 186 26 187 10 203 243 204 35 218 9 219 1 
