Name: 2-HEPTYLTHIOPHENE
CAS: 18794-78-0
MW: 182
Formula: C11H18S
Synonym: MassBank: JP007778
Synonym: 2-HEPTYLTHIOPHENE
Structure: 322D48455054594C5448494F5048454E452E6D6F6C0A20204368656D447261773031323131303134303132440A2031322031322020302020302020302020302020302020302020302020303939392056323030300A2020202D312E3536363520202020302E3335373220202020302E303030302043202020302020302020302020302020302020302020302020302020302020302020302020300A2020202D312E323330392020202D302E3339363420202020302E303030302043202020302020302020302020302020302020302020302020302020302020302020302020300A2020202D312E383434302020202D302E3934383520202020302E303030302043202020302020302020302020302020302020302020302020302020302020302020302020300A2020202D322E353538352020202D302E3533363020202020302E303030302043202020302020302020302020302020302020302020302020302020302020302020302020300A2020202D322E3338373020202020302E3237313020202020302E303030302053202020302020302020302020302020302020302020302020302020302020302020302020300A2020202D312E3135343020202020312E3037313720202020302E303030302043202020302020302020302020302020302020302020302020302020302020302020302020300A2020202D302E3332393020202020312E3037313720202020302E303030302043202020302020302020302020302020302020302020302020302020302020302020302020300A20202020302E3038333520202020302E3335373220202020302E303030302043202020302020302020302020302020302020302020302020302020302020302020302020300A20202020302E3930383520202020302E3335373220202020302E303030302043202020302020302020302020302020302020302020302020302020302020302020302020300A20202020312E333231302020202D302E3335373220202020302E303030302043202020302020302020302020302020302020302020302020302020302020302020302020300A20202020322E313436302020202D302E3335373220202020302E303030302043202020302020302020302020302020302020302020302020302020302020302020302020300A20202020322E353538352020202D312E3037313720202020302E303030302043202020302020302020302020302020302020302020302020302020302020302020302020300A2020312020322020322020302020202020200A2020322020332020312020302020202020200A2020332020342020322020302020202020200A2020342020352020312020302020202020200A2020312020352020312020302020202020200A2020362020372020312020302020202020200A2020372020382020312020302020202020200A2020382020392020312020302020202020200A2020392031302020312020302020202020200A2031302031312020312020302020202020200A2031312031322020312020302020202020200A2020312020362020312020302020202020200A4D2020454E44
Contributor: HASHIMOTO K, KYOTO COLLEGE OF PHARMACY
InstType: EI
InstName: HITACHI M-80
IoniMethod: _ENERGY 20 eV
IonPolarity: pos
Date: 2010-10-09 19:48:36+02:00
Num Peaks: 34
27 10 29 41 39 10 41 49 43 128 45 20 53 30 55 30 67 20 69 10 
84 80 85 61 86 10 87 10 96 18 97 999 98 598 99 180 100 40 109 10 
110 19 111 161 112 17 113 11 119 10 123 10 125 10 139 55 149 10 153 22 
154 12 182 282 183 42 184 11 
