Name: MassBank: JP006336
MW: 166
Formula: C9H10O3
Synonym: MassBank: JP006336
Synonym: 2-HYDROXY-4-METHOXYACETOPHENONE (4,4,4-D3)
Synonym: 2-HYDROXY-4-DEUTEROMETHOXYACETOPHENONE
Structure: 322D485944524F58592D342D4D4554484F5859414345544F5048454E4F4E452028342C342C342D4433292E6D6F6C0A20204368656D447261773031323131303134353532440A2031352031352020302020302020302020302020302020302020302020303939392056323030300A2020202D312E3037313720202020302E3736393720202020302E303030302043202020302020302020302020302020302020302020302020302020302020302020302020300A2020202D312E303731372020202D302E3035353320202020302E303030302043202020302020302020302020302020302020302020302020302020302020302020302020300A2020202D302E333537322020202D302E3436373820202020302E303030302043202020302020302020302020302020302020302020302020302020302020302020302020300A20202020302E333537322020202D302E3035353320202020302E303030302043202020302020302020302020302020302020302020302020302020302020302020302020300A20202020302E3335373220202020302E3736393720202020302E303030302043202020302020302020302020302020302020302020302020302020302020302020302020300A2020202D302E3335373220202020312E3138323220202020302E303030302043202020302020302020302020302020302020302020302020302020302020302020302020300A2020202D302E3335373220202020322E3030373220202020302E303030302043202020302020302020302020302020302020302020302020302020302020302020302020300A20202020312E3037313720202020312E3138323220202020302E30303030204F202020302020302020302020302020302020302020302020302020302020302020302020300A2020202D302E333537322020202D312E3239323820202020302E30303030204F202020302020302020302020302020302020302020302020302020302020302020302020300A20202020302E333537322020202D312E3730353320202020302E303030302043202020302020302020302020302020302020302020302020302020302020302020302020300A20202020312E303731372020202D322E3131373820202020302E303030302048202020312020302020302020302020302020302020302020302020302020302020302020300A20202020302E373639372020202D302E3939303820202020302E303030302048202020312020302020302020302020302020302020302020302020302020302020302020300A2020202D302E303535332020202D322E3431393720202020302E303030302048202020312020302020302020302020302020302020302020302020302020302020302020300A2020202D312E3037313720202020322E3431393720202020302E30303030204F202020302020302020302020302020302020302020302020302020302020302020302020300A20202020302E3335373220202020322E3431393720202020302E303030302043202020302020302020302020302020302020302020302020302020302020302020302020300A2020312020322020322020302020202020200A2020322020332020312020302020202020200A2020332020342020322020302020202020200A2020342020352020312020302020202020200A2020352020362020322020302020202020200A2020362020312020312020302020202020200A2020362020372020312020302020202020200A2020352020382020312020302020202020200A2020332020392020312020302020202020200A2020392031302020312020302020202020200A2031302031312020312020302020202020200A2031302031322020312020302020202020200A2031302031332020312020302020202020200A2020372031342020322020302020202020200A2020372031352020312020302020202020200A4D202049534F2020332020313120202032202031322020203220203133202020320A4D2020454E44
Contributor: EGUCHI S, FAC. OF SCIENCE, HIROSHIMA UNIV.
InstType: EI
InstName: HITACHI RMU-7L
IoniMethod: _ENERGY 70 eV
IonPolarity: pos
Date: 2010-10-09 19:48:36+02:00
Num Peaks: 46
40 25 41 20 42 25 43 19 44 15 50 42 51 75 52 8 53 63 54 19 
55 25 62 3 63 54 64 22 65 25 66 5 67 18 69 65 70 15 77 3 
79 65 80 42 81 10 91 1 93 10 94 30 97 10 98 20 99 15 105 15 
107 15 108 8 123 18 125 10 126 30 136 1 137 10 140 30 151 11 152 2 
153 55 154 999 155 125 168 3 169 440 170 38 
