Name: METHYLMALONIC ACID-DI-TMS
MW: 262
Formula: C10H22O4Si2
Synonym: MassBank: JP002719
Synonym: METHYLMALONIC ACID-DI-TMS
Structure: 303439305F4D455448594C4D414C4F4E494320414349442D44492D544D532E6D6F6C0A20204368656D447261773039303631303137353232440A2031362031352020302020302020302020302020302020302020302020303939392056323030300A2020202D312E3433303020202020302E3139383620202020302E30303030204F202020302020302020302020302020302020302020302020302020302020302020302020300A2020202D322E313432322020202D302E3231363720202020302E303030302053692020302020302020302020302020302020302020302020302020302020302020302020300A2020202D312E373236392020202D302E3932373420202020302E303030302043202020302020302020302020302020302020302020302020302020302020302020302020300A2020202D322E383535362020202D302E3633323020202020302E303030302043202020302020302020302020302020302020302020302020302020302020302020302020300A2020202D322E3536303220202020302E3439363720202020302E303030302043202020302020302020302020302020302020302020302020302020302020302020302020300A2020202D302E373134362020202D302E3230373020202020302E303030302043202020302020302020302020302020302020302020302020302020302020302020302020300A2020202D302E3030323620202020302E3230393620202020302E303030302043202020302020302020302020302020302020302020302020302020302020302020302020300A2020202D302E373038332020202D312E3033343620202020302E30303030204F202020302020302020302020302020302020302020302020302020302020302020302020300A2020202D302E3030373420202020312E3033343620202020302E303030302043202020302020302020302020302020302020302020302020302020302020302020302020300A20202020302E373134332020202D302E3139383720202020302E303030302043202020302020302020302020302020302020302020302020302020302020302020302020300A20202020302E373230332020202D312E3032343920202020302E30303030204F202020302020302020302020302020302020302020302020302020302020302020302020300A20202020312E3432363720202020302E3231363820202020302E30303030204F202020302020302020302020302020302020302020302020302020302020302020302020300A20202020322E313431322020202D302E3139353720202020302E303030302053692020302020302020302020302020302020302020302020302020302020302020302020300A20202020322E3535333720202020302E3531383720202020302E303030302043202020302020302020302020302020302020302020302020302020302020302020302020300A20202020322E383535362020202D302E3630383220202020302E303030302043202020302020302020302020302020302020302020302020302020302020302020302020300A20202020312E373238372020202D302E3931303220202020302E303030302043202020302020302020302020302020302020302020302020302020302020302020302020300A2020322020312020312020302020202020200A2020322020332020312020302020202020200A2020322020342020312020302020202020200A2020322020352020312020302020202020200A2020312020362020312020302020202020200A2020362020372020312020302020202020200A2020362020382020322020302020202020200A2020372020392020312020302020202020200A2020372031302020312020302020202020200A2031302031312020322020302020202020200A2031302031322020312020302020202020200A2031322031332020312020302020202020200A2031332031342020312020302020202020200A2031332031352020312020302020202020200A2031332031362020312020302020202020200A4D2020454E44
Contributor: HAYASHI A, DEPT. OF CHEMISTRY, FAC. OF SCI. AND TECHNOLOGY, KINKI UNIV.
InstType: EI
InstName: SHIMADZU LKB-9000B
IoniMethod: _ENERGY 70 eV
IonPolarity: pos
Date: 2010-10-09 19:48:36+02:00
Num Peaks: 111
41 40 42 7 43 49 44 61 45 120 46 9 47 43 48 0 49 1 50 1 
51 4 52 0 53 3 54 2 55 44 56 14 57 30 58 19 59 48 60 1 
61 19 62 1 63 1 66 9 67 8 68 1 69 3 70 0 71 5 72 37 
73 682 74 7 75 200 76 13 77 9 78 0 81 2 83 24 84 1 85 0 
86 12 87 3 88 3 89 0 93 2 94 14 95 1 99 0 101 4 103 7 
104 1 105 0 113 25 114 1 115 10 116 3 117 35 118 4 119 3 120 0 
126 1 127 1 128 1 129 2 130 11 131 27 132 4 133 4 134 4 135 3 
141 1 143 0 144 1 145 2 146 3 147 999 148 160 149 85 150 8 151 0 
155 1 157 20 158 2 159 0 161 1 163 2 165 1 172 1 173 1 175 1 
187 1 189 0 190 4 191 3 192 1 203 1 204 1 217 2 218 59 219 1 
220 6 221 1 231 3 237 0 239 1 243 1 247 63 248 1 249 5 250 1 
262 5 
