Name: MassBank: JP000503
MW: 88
Formula: C4H12N2
Synonym: MassBank: JP000503
Synonym: 2-ETHYL-1,1-DIMETHYLHYDRAZINE
Structure: 310A31360A322D455448594C2D312C312D44494D455448594C48594452415A494E452E6D6F6C0A20204368656D447261773031303331303132343132440A2020362020352020302020302020302020302020302020302020302020303939392056323030300A20202020302E373134352020202D302E3230363220202020302E30303030204E202020302020302020302020302020302020302020302020302020302020302020302020300A2020202D302E303030302020202D302E3631383820202020302E30303030204E202020302020302020302020302020302020302020302020302020302020302020302020300A20202020302E3731343520202020302E3631383820202020302E303030302043202020302020302020302020302020302020302020302020302020302020302020302020300A20202020312E343238392020202D302E3631383820202020302E303030302043202020302020302020302020302020302020302020302020302020302020302020302020300A2020202D302E373134352020202D302E3230363220202020302E303030302043202020302020302020302020302020302020302020302020302020302020302020302020300A2020202D312E343238392020202D302E3631383820202020302E303030302043202020302020302020302020302020302020302020302020302020302020302020302020300A2020312020322020312020302020202020200A2020312020332020312020302020202020200A2020312020342020312020302020202020200A2020352020362020312020302020202020200A2020322020352020312020302020202020200A4D2020454E44
Contributor: SASAKI S, TOYOHASHI UNIV. OF TECH.
InstType: EI
InstName: SHIMADZU LKB-2091
IoniMethod: _ENERGY 70 eV
IonPolarity: pos
Date: 2010-10-09 19:48:36+02:00
Num Peaks: 23
29 75 30 130 31 46 32 3 36 23 36.5 11 40 9 41 2 42 148 43 117 
44 222 45 18 46 33 57 16 58 13 59 999 60 37 71 8 73 98 74 2 
87 6 88 464 89 30 
