Name: ISOBORNYL FORMATE
MW: 182
Formula: C11H18O2
Synonym: MassBank: JP006472
Synonym: ISOBORNYL FORMATE
Structure: 49534F424F524E594C20464F524D4154452E6D6F6C0A20204368656D447261773038313131303231303232440A2031332031342020302020302020302020302020302020302020302020303939392056323030300A20202020312E313834362020202D302E3332323020202020302E303030302043202020302020302020302020302020302020302020302020302020302020302020302020300A20202020312E393831352020202D302E3130383520202020302E30303030204F202020302020302020302020302020302020302020302020302020302020302020302020300A20202020302E3630313320202020302E3236313320202020302E30303030204F202020302020302020302020302020302020302020302020302020302020302020302020300A2020202D302E343337302020202D302E3031363220202020302E303030302043202020302020302020302020302020302020302020302020302020302020302020302020300A2020202D302E343337302020202D302E3832303620202020302E303030302043202020302020302020302020302020302020302020302020302020302020302020302020300A2020202D312E323030372020202D312E3037393920202020302E303030302043202020302020302020302020302020302020302020302020302020302020302020302020300A2020202D312E393831352020202D302E3832303520202020302E303030302043202020302020302020302020302020302020302020302020302020302020302020302020300A2020202D312E3938313520202020302E3030343520202020302E303030302043202020302020302020302020302020302020302020302020302020302020302020302020300A2020202D312E3138363020202020302E3235353020202020302E303030302043202020302020302020302020302020302020302020302020302020302020302020302020300A2020202D302E373235392020202D302E3430313720202020302E303030302043202020302020302020302020302020302020302020302020302020302020302020302020300A2020202D302E323037372020202D312E3036383120202020302E303030302043202020302020302020302020302020302020302020302020302020302020302020302020300A20202020302E3230373520202020302E3533313720202020302E303030302043202020302020302020302020302020302020302020302020302020302020302020302020300A2020202D312E3138363020202020312E3037393920202020302E303030302043202020302020302020302020302020302020302020302020302020302020302020302020300A2020312020322020322020302020202020200A2020312020332020312020302020202020200A2020342020352020312020302020202020200A2020352020362020312020302020202020200A2020362020372020312020302020202020200A2020372020382020312020302020202020200A2020382020392020312020302020202020200A2020342020392020312020302020202020200A2020392031302020312020302020202020200A2020362031302020312020302020202020200A2031302031312020312020302020202020200A2031302031322020312020302020202020200A2020392031332020312020302020202020200A2020332020342020312020302020202020200A4D2020454E44
Contributor: HISAHIRO HAGIWARA, CHEMICAL RESEARCH INSTITUTE OF NON-AQUEOUSSOLUTIONS TOHOKU UNIV.
InstType: EI
InstName: HITACHI M-80B
IoniMethod: _ENERGY 70 eV
IonPolarity: pos
Date: 2010-10-09 19:48:36+02:00
Num Peaks: 56
15 12 27 158 28 37 29 244 31 15 39 220 40 30 41 491 42 34 43 202 
44 15 45 12 51 36 52 17 53 138 54 22 55 237 56 20 57 42 59 15 
63 10 65 38 66 17 67 195 68 67 69 136 70 24 71 114 72 12 77 106 
78 18 79 120 80 62 81 125 82 98 83 60 84 23 91 93 92 119 93 487 
94 86 95 999 96 76 97 15 105 31 107 81 108 143 109 35 110 152 111 28 
121 534 122 44 136 446 137 74 139 20 167 29 
