Name: MassBank: JP001987
MW: 220
Formula: C11H12N2O3
Synonym: MassBank: JP001987
Synonym: 5-METHOXY-1,2-DIMETHYL-6-NITROINDOLE
Structure: 352D4D4554484F58592D312C322D44494D455448594C2D362D4E4954524F494E444F4C452E6D6F6C0A20204368656D447261773034323331303036313132440A2031362031372020302020302020302020302020302020302020302020303939392056323030300A2020202D312E313636332020202D302E3636373420202020302E30303030204E202020302020302020302020302020302020302020302020302020302020302020302020300A2020202D312E363531322020202D302E3030303020202020302E303030302043202020302020302020302020302020302020302020302020302020302020302020302020300A2020202D312E3136363320202020302E3636373420202020302E303030302043202020302020302020302020302020302020302020302020302020302020302020302020300A2020202D302E3338313720202020302E3431323520202020302E303030302043202020302020302020302020302020302020302020302020302020302020302020302020300A20202020302E3333323820202020302E3832353020202020302E303030302043202020302020302020302020302020302020302020302020302020302020302020302020300A20202020312E3034373320202020302E3431323520202020302E303030302043202020302020302020302020302020302020302020302020302020302020302020302020300A20202020312E303437332020202D302E3431323520202020302E303030302043202020302020302020302020302020302020302020302020302020302020302020302020300A20202020302E333332382020202D302E3832353020202020302E303030302043202020302020302020302020302020302020302020302020302020302020302020302020300A2020202D302E333831372020202D302E3431323520202020302E303030302043202020302020302020302020302020302020302020302020302020302020302020302020300A20202020312E373631372020202D302E3832353020202020302E30303030204E202020302020332020302020302020302020302020302020302020302020302020302020300A20202020312E373631372020202D312E3635303020202020302E30303030204F202020302020302020302020302020302020302020302020302020302020302020302020300A20202020322E343736322020202D302E3431323520202020302E30303030204F202020302020352020302020302020302020302020302020302020302020302020302020300A2020202D322E343736322020202D302E3030303020202020302E303030302043202020302020302020302020302020302020302020302020302020302020302020302020300A2020202D312E343231322020202D312E3435323120202020302E303030302043202020302020302020302020302020302020302020302020302020302020302020302020300A20202020312E3736313720202020302E3832353020202020302E30303030204F202020302020302020302020302020302020302020302020302020302020302020302020300A20202020312E3736313720202020312E3635303020202020302E303030302043202020302020302020302020302020302020302020302020302020302020302020302020300A2020312020322020312020302020202020200A2020322020332020322020302020202020200A2020332020342020312020302020202020200A2020342020352020312020302020202020200A2020352020362020322020302020202020200A2020362020372020312020302020202020200A2020372020382020322020302020202020200A2020382020392020312020302020202020200A2020312020392020312020302020202020200A2020342020392020322020302020202020200A2031302031312020322020302020202020200A2031302031322020312020302020202020200A2020372031302020312020302020202020200A2020322031332020312020302020202020200A2020312031342020312020302020202020200A2031352031362020312020302020202020200A2020362031352020312020302020202020200A4D202043484720203220203130202020312020313220202D310A4D2020454E44
Contributor: SASAKI S, TOYOHASHI UNIV. OF TECH.
InstType: EI
InstName: MX-1303
IoniMethod: _ENERGY 50 eV
IonPolarity: pos
Date: 2010-10-09 19:48:36+02:00
Num Peaks: 59
39 66 41 82 42 37 43 11 45 41 51 37 53 27 55 9 56 100 57 68 
60 21 63 95 64 27 65 41 66 27 67 2 69 123 71 25 73 23 75 4 
76 29 77 125 78 41 81 4 83 25 89 112 90 84 91 12 101 21 102 50 
103 82 104 3 115 195 116 112 117 62 118 6 119 45 128 52 129 62 130 13 
131 250 132 119 142 110 143 21 144 680 145 90 146 82 147 4 148 25 159 21 
160 45 162 4 172 41 173 270 174 19 190 7 205 48 220 999 221 95 
