Name: MassBank: JP007490
MW: 458
Formula: C19H38O5Si4
Synonym: MassBank: JP007490
Synonym: 2,4,6-TRIS(TRIMETHYLSILOXY)BENZOIC ACID TRIMETHYLSILYL ESTER
Structure: 322C342C362D54524953285452494D455448594C53494C4F58592942454E5A4F49432041434944205452494D455448594C53494C594C2045535445522E6D6F6C0A20204368656D447261773132323030393133343232440A2032382032382020302020302020302020302020302020302020302020303939392056323030300A20202020312E3138323220202020302E3030303020202020302E303030302043202020302020302020302020302020302020302020302020302020302020302020302020300A20202020302E3335373220202020302E3030303020202020302E303030302043202020302020302020302020302020302020302020302020302020302020302020302020300A2020202D302E303535332020202D302E3731343520202020302E303030302043202020302020302020302020302020302020302020302020302020302020302020302020300A2020202D302E383830332020202D302E3731343520202020302E303030302043202020302020302020302020302020302020302020302020302020302020302020302020300A2020202D312E3239323820202020302E3030303020202020302E303030302043202020302020302020302020302020302020302020302020302020302020302020302020300A2020202D302E3838303320202020302E3731343520202020302E303030302043202020302020302020302020302020302020302020302020302020302020302020302020300A2020202D302E3035353320202020302E3731343520202020302E303030302043202020302020302020302020302020302020302020302020302020302020302020302020300A20202020312E353934372020202D302E3731343520202020302E30303030204F202020302020302020302020302020302020302020302020302020302020302020302020300A20202020312E3539343720202020302E3731343520202020302E30303030204F202020302020302020302020302020302020302020302020302020302020302020302020300A20202020302E3335373220202020312E3432383920202020302E30303030204F202020302020302020302020302020302020302020302020302020302020302020302020300A2020202D302E3035353320202020322E3134333420202020302E303030302053692020302020302020302020302020302020302020302020302020302020302020302020300A2020202D302E3436373820202020322E3835373920202020302E303030302043202020302020302020302020302020302020302020302020302020302020302020302020300A20202020302E3635393220202020322E3535353920202020302E303030302043202020302020302020302020302020302020302020302020302020302020302020302020300A2020202D302E3736393720202020312E3733303920202020302E303030302043202020302020302020302020302020302020302020302020302020302020302020302020300A2020202D322E3131373820202020302E3030303020202020302E30303030204F202020302020302020302020302020302020302020302020302020302020302020302020300A2020202D322E353330332020202D302E3731343520202020302E303030302053692020302020302020302020302020302020302020302020302020302020302020302020300A2020202D312E383135382020202D312E3132373020202020302E303030302043202020302020302020302020302020302020302020302020302020302020302020302020300A2020202D322E393432382020202D312E3432383920202020302E303030302043202020302020302020302020302020302020302020302020302020302020302020302020300A2020202D332E323434372020202D302E3330323020202020302E303030302043202020302020302020302020302020302020302020302020302020302020302020302020300A20202020302E333537322020202D312E3432383920202020302E30303030204F202020302020302020302020302020302020302020302020302020302020302020302020300A2020202D302E303535332020202D322E3134333420202020302E303030302053692020302020302020302020302020302020302020302020302020302020302020302020300A20202020302E363539322020202D322E3535353920202020302E303030302043202020302020302020302020302020302020302020302020302020302020302020302020300A2020202D302E343637382020202D322E3835373920202020302E303030302043202020302020302020302020302020302020302020302020302020302020302020302020300A2020202D302E373639372020202D312E3733303920202020302E303030302043202020302020302020302020302020302020302020302020302020302020302020302020300A20202020322E3431393720202020302E3731343520202020302E303030302053692020302020302020302020302020302020302020302020302020302020302020302020300A20202020322E3431393720202020312E3533393520202020302E303030302043202020302020302020302020302020302020302020302020302020302020302020302020300A20202020332E3234343720202020302E3731343520202020302E303030302043202020302020302020302020302020302020302020302020302020302020302020302020300A20202020322E343139372020202D302E3131303520202020302E303030302043202020302020302020302020302020302020302020302020302020302020302020302020300A2020312020322020312020302020202020200A2020322020332020312020302020202020200A2020332020342020322020302020202020200A2020342020352020312020302020202020200A2020352020362020322020302020202020200A2020362020372020312020302020202020200A2020322020372020322020302020202020200A2020312020382020322020302020202020200A2020312020392020312020302020202020200A2031302031312020312020302020202020200A2031312031322020312020302020202020200A2031312031332020312020302020202020200A2031312031342020312020302020202020200A2020372031302020312020302020202020200A2031352031362020312020302020202020200A2031362031372020312020312020202020200A2031362031382020312020302020202020200A2031362031392020312020312020202020200A2020352031352020312020302020202020200A2032302032312020312020302020202020200A2032312032322020312020312020202020200A2032312032332020312020302020202020200A2032312032342020312020312020202020200A2020332032302020312020302020202020200A2032352032362020312020312020202020200A2032352032372020312020302020202020200A2032352032382020312020312020202020200A2020392032352020312020302020202020200A4D2020454E44
Contributor: KOGA M, UNIV. OF OCCUPATIONAL AND ENVIRONMENTAL HEALTH
InstType: EI
InstName: JEOL JMS-01-SG
IoniMethod: _ENERGY 70 eV
IonPolarity: pos
Date: 2010-10-09 19:48:36+02:00
Num Peaks: 36
44 58 73 999 74 73 75 8 131 19 133 38 147 197 148 2 149 31 191 11 
193 15 195 1 207 42 265 19 281 15 283 3 296 11 297 19 325 31 337 2 
339 19 353 42 355 124 356 3 357 15 369 85 370 23 371 2 441 11 443 689 
444 810 445 42 446 104 447 31 458 62 459 23 
