Name: TYBAMATE
MW: 274
Formula: C13H26N2O4
Synonym: MassBank: JP003877
Synonym: TYBAMATE
Structure: 303035365F545942414D4154452E6D6F6C0A20204368656D447261773038313931303232353932440A2031392031382020302020302020302020302020302020302020302020303939392056323030300A2020202D332E353732342020202D302E3439373920202020302E303030302043202020302020302020302020302020302020302020302020302020302020302020302020300A2020202D322E383537392020202D302E3038353420202020302E30303030204F202020302020302020302020302020302020302020302020302020302020302020302020300A2020202D322E313433342020202D302E3439373920202020302E303030302043202020302020302020302020302020302020302020302020302020302020302020302020300A2020202D312E343238392020202D302E3038353420202020302E303030302043202020302020302020302020302020302020302020302020302020302020302020302020300A2020202D302E373134352020202D302E3439373920202020302E303030302043202020302020302020302020302020302020302020302020302020302020302020302020300A20202020302E303030302020202D302E3038353420202020302E30303030204F202020302020302020302020302020302020302020302020302020302020302020302020300A20202020302E373134352020202D302E3439373920202020302E303030302043202020302020302020302020302020302020302020302020302020302020302020302020300A20202020312E343238392020202D302E3038353420202020302E30303030204E202020302020302020302020302020302020302020302020302020302020302020302020300A20202020322E313433342020202D302E3439373920202020302E303030302043202020302020302020302020302020302020302020302020302020302020302020302020300A20202020322E383537392020202D302E3038353420202020302E303030302043202020302020302020302020302020302020302020302020302020302020302020302020300A20202020332E353732342020202D302E3439373920202020302E303030302043202020302020302020302020302020302020302020302020302020302020302020302020300A20202020342E323836382020202D302E3038353420202020302E303030302043202020302020302020302020302020302020302020302020302020302020302020302020300A20202020302E373134352020202D312E3332323920202020302E30303030204F202020302020302020302020302020302020302020302020302020302020302020302020300A2020202D312E3432383920202020302E3733393620202020302E303030302043202020302020302020302020302020302020302020302020302020302020302020302020300A2020202D312E343238392020202D302E3931303420202020302E303030302043202020302020302020302020302020302020302020302020302020302020302020302020300A2020202D302E3834353620202020312E3332323920202020302E303030302043202020302020302020302020302020302020302020302020302020302020302020302020300A2020202D302E3034383720202020312E3130393420202020302E303030302043202020302020302020302020302020302020302020302020302020302020302020302020300A2020202D342E323836382020202D302E3038353420202020302E30303030204F202020302020302020302020302020302020302020302020302020302020302020302020300A2020202D332E353732342020202D312E3332323920202020302E30303030204E202020302020302020302020302020302020302020302020302020302020302020302020300A2020312020322020312020302020202020200A2020322020332020312020302020202020200A2020332020342020312020302020202020200A2020342020352020312020302020202020200A2020352020362020312020302020202020200A2020362020372020312020302020202020200A2020372020382020342020302020202020200A2020382020392020312020302020202020200A2020392031302020312020302020202020200A2031302031312020312020302020202020200A2031312031322020312020302020202020200A2020372031332020342020302020202020200A2020342031342020312020302020202020200A2020342031352020312020302020202020200A2031342031362020312020302020202020200A2031362031372020312020302020202020200A2020312031382020342020302020202020200A2020312031392020342020302020202020200A4D2020454E44
Contributor: SASAKI S, TOYOHASHI UNIV. OF TECH.
InstType: EI
InstName: Unknown
IoniMethod: _ENERGY 70 eV
IonPolarity: pos
Date: 2010-10-09 19:48:36+02:00
Num Peaks: 124
38 7 39 60 40 19 41 36 42 67 43 261 44 119 45 11 46 11 50 2 
51 3 52 0 53 35 54 26 55 999 56 40 57 349 58 59 59 109 60 1 
61 5 62 315 63 7 64 0 65 9 66 2 67 46 68 4 69 189 70 114 
71 349 72 82 73 60 74 75 75 47 76 0 77 8 78 3 79 11 80 1 
81 69 82 23 83 306 84 23 85 54 86 23 87 9 88 3 89 9 90 1 
91 5 92 1 93 3 94 1 95 21 96 10 97 669 98 214 99 39 100 9 
101 62 102 23 103 3 104 1 105 5 108 5 109 11 110 1 111 2 112 7 
113 13 114 14 115 116 116 109 117 29 118 61 119 39 120 8 126 19 127 0 
128 5 129 2 130 1 131 2 132 10 133 5 134 9 140 1 142 2 144 27 
147 3 154 0 156 4 157 13 158 584 159 6 160 9 161 9 170 49 171 0 
172 7 174 5 175 5 176 1 177 9 184 47 185 13 187 1 188 10 189 1 
198 2 200 4 201 8 213 50 214 11 215 0 231 89 232 14 233 1 245 1 
246 2 274 86 275 18 276 2 
