Name: 3-BROMOPHENYL METHYL KETONE
MW: 197
Formula: C8H7BrO
Synonym: MassBank: JP009616
Synonym: 3-BROMOPHENYL METHYL KETONE
Synonym: 3-BROMOACETOPHENONE
Structure: 332D42524F4D4F5048454E594C204D455448594C204B45544F4E452E6D6F6C0A20204368656D447261773032323231303134323132440A2031302031302020302020302020302020302020302020302020302020303939392056323030300A2020202D312E303331322020202D302E3335373220202020302E303030302043202020302020302020302020302020302020302020302020302020302020302020302020300A2020202D312E3434333820202020302E3335373220202020302E30303030204F202020302020302020302020302020302020302020302020302020302020302020302020300A2020202D312E343433372020202D312E3037313720202020302E303030302043202020302020302020302020302020302020302020302020302020302020302020302020300A2020202D302E323036322020202D302E3335373220202020302E303030302043202020302020302020302020302020302020302020302020302020302020302020302020300A20202020302E3230363320202020302E3335373220202020302E303030302043202020302020302020302020302020302020302020302020302020302020302020302020300A20202020312E3033313220202020302E3335373220202020302E303030302043202020302020302020302020302020302020302020302020302020302020302020302020300A20202020312E343433382020202D302E3335373220202020302E303030302043202020302020302020302020302020302020302020302020302020302020302020302020300A20202020312E303331332020202D312E3037313720202020302E303030302043202020302020302020302020302020302020302020302020302020302020302020302020300A20202020302E323036332020202D312E3037313720202020302E303030302043202020302020302020302020302020302020302020302020302020302020302020302020300A20202020312E3434333820202020312E3037313720202020302E303030302042722020302020302020302020302020302020302020302020302020302020302020302020300A2020312020322020322020302020202020200A2020312020332020312020302020202020200A2020342020352020312020302020202020200A2020352020362020322020302020202020200A2020362020372020312020302020202020200A2020372020382020322020302020202020200A2020382020392020312020302020202020200A2020342020392020322020302020202020200A2020362031302020312020302020202020200A2020312020342020312020302020202020200A4D2020454E44
Contributor: THE INSTITUTE OF SCIENTIFIC AND INDUSTRIALRESEARCH
InstType: EI
InstName: JEOL JMS-DX-300
IoniMethod: _ENERGY 70 eV
IonPolarity: pos
Date: 2010-10-09 19:48:36+02:00
Num Peaks: 55
26 30 27 43 29 22 37 7 38 157 39 132 40 10 41 1 42 102 43 939 
44 26 49 8 50 999 51 282 52 24 53 3 61 112 62 120 63 188 64 4 
65 39 73 91 74 554 75 80 76 958 77 170 78 10 79 5 80 18 81 49 
82 18 85 2 86 28 87 24 88 12 89 11 90 70 91 80 104 127 105 2 
117 10 129 22 131 22 155 44 156 38 157 423 158 32 183 54 184 40 185 515 
186 40 198 19 199 20 200 186 201 19 
