Name: ETHYLENE GLYCOL DIETHYL ETHER
MW: 118
Formula: C6H14O2
Synonym: MassBank: JP001691
Synonym: ETHYLENE GLYCOL DIETHYL ETHER
Synonym: 1,2-DIETHOXYETHANE
Structure: 310A32300A455448594C454E4520474C59434F4C204449455448594C2045544845522E6D6F6C0A20204368656D447261773038313131303139303832440A2020382020372020302020302020302020302020302020302020302020303939392056323030300A20202020302E333537322020202D302E3230363320202020302E303030302043202020302020302020302020302020302020302020302020302020302020302020302020300A2020202D302E3335373220202020302E3230363320202020302E303030302043202020302020302020302020302020302020302020302020302020302020302020302020300A20202020312E3037313720202020302E3230363320202020302E30303030204F202020302020302020302020302020302020302020302020302020302020302020302020300A2020202D312E303731372020202D302E3230363320202020302E30303030204F202020302020302020302020302020302020302020302020302020302020302020302020300A20202020312E373836322020202D302E3230363220202020302E303030302043202020302020302020302020302020302020302020302020302020302020302020302020300A20202020322E3530303620202020302E3230363320202020302E303030302043202020302020302020302020302020302020302020302020302020302020302020302020300A2020202D312E3738363220202020302E3230363220202020302E303030302043202020302020302020302020302020302020302020302020302020302020302020302020300A2020202D322E353030362020202D302E3230363320202020302E303030302043202020302020302020302020302020302020302020302020302020302020302020302020300A2020312020322020312020302020202020200A2020312020332020312020302020202020200A2020322020342020312020302020202020200A2020352020362020312020302020202020200A2020332020352020312020302020202020200A2020372020382020312020302020202020200A2020342020372020312020302020202020200A4D2020454E44
Contributor: TAJIMA S, GUNMA COLLEGE OF TECHNOLOGY
InstType: EI
InstName: HITACHI RMU-7M
IoniMethod: _ENERGY 70 eV
IonPolarity: pos
Date: 2010-10-09 19:48:36+02:00
Num Peaks: 27
14 13 15 77 26 19 27 137 28 84 29 374 30 25 31 999 32 11 41 95 
42 28 43 417 44 139 45 414 46 17 47 28 58 23 59 761 60 42 61 34 
72 64 73 70 74 310 75 19 87 13 88 10 118 5 
