Name: 4-METHYL-2-PENTENOIC ACID METHYL ESTER
CAS: 50652-78-3
MW: 128
Formula: C7H12O2
Synonym: MassBank: JP004218
Synonym: 4-METHYL-2-PENTENOIC ACID METHYL ESTER
Structure: 310A32320A342D4D455448594C2D322D50454E54454E4F49432041434944204D455448594C2045535445522E6D6F6C0A20204368656D447261773034323131303031353732440A2020392020382020302020302020302020302020302020302020302020303939392056323030300A20202020312E303731372020202D302E3230363220202020302E303030302043202020302020302020302020302020302020302020302020302020302020302020302020300A20202020302E3335373220202020302E3230363220202020302E303030302043202020302020302020302020302020302020302020302020302020302020302020302020300A2020202D302E333537322020202D302E3230363220202020302E303030302043202020302020302020302020302020302020302020302020302020302020302020302020300A2020202D312E3037313720202020302E3230363220202020302E303030302043202020302020302020302020302020302020302020302020302020302020302020302020300A2020202D312E373836322020202D302E3230363220202020302E303030302043202020302020302020302020302020302020302020302020302020302020302020302020300A20202020312E303731372020202D312E3033313320202020302E30303030204F202020302020302020302020302020302020302020302020302020302020302020302020300A20202020312E3738363220202020302E3230363220202020302E30303030204F202020302020302020302020302020302020302020302020302020302020302020302020300A2020202D312E3037313720202020312E3033313320202020302E303030302043202020302020302020302020302020302020302020302020302020302020302020302020300A20202020312E3738363220202020312E3033313320202020302E303030302043202020302020302020302020302020302020302020302020302020302020302020302020300A2020312020322020312020302020202020200A2020322020332020322020302020202020200A2020332020342020312020302020202020200A2020342020352020312020302020202020200A2020312020362020322020302020202020200A2020312020372020312020302020202020200A2020342020382020312020302020202020200A2020372020392020312020302020202020200A4D2020454E44
Contributor: KOGA M, UNIV. OF OCCUPATIONAL AND ENVIRONMENTAL HEALTH
InstType: EI
InstName: JEOL JMS-01-SG
IoniMethod: _ENERGY 70 eV
IonPolarity: pos
Date: 2010-10-09 19:48:36+02:00
Num Peaks: 37
38 66 39 14 40 999 41 6 43 140 45 14 50 21 51 5 52 17 53 203 
54 45 55 15 56 21 57 24 59 133 65 2 67 154 68 192 69 719 70 4 
71 49 73 424 74 24 81 24 82 31 85 80 86 17 87 9 95 98 96 210 
97 554 98 4 113 245 114 14 127 14 128 58 129 45 
