Name: MassBank: JP003561
MW: 263
Formula: C17H29NO
Synonym: MassBank: JP003561
Synonym: 2,6-DI-TERT-BUTYL-ALPHA-DIMETHYLAMINO-P-CRESOL
Structure: 322C362D44492D544552542D425554594C2D414C5048412D44494D455448594C414D494E4F2D502D435245534F4C2E6D6F6C0A20204368656D447261773132323130393033343832440A2031392031392020302020302020302020302020302020302020302020303939392056323030300A2020202D302E323036332020202D302E3731343520202020302E303030302043202020302020302020302020302020302020302020302020302020302020302020302020300A2020202D302E3631383820202020302E3030303020202020302E303030302043202020302020302020302020302020302020302020302020302020302020302020302020300A2020202D302E3230363320202020302E3731343520202020302E303030302043202020302020302020302020302020302020302020302020302020302020302020302020300A20202020302E3631383720202020302E3731343520202020302E303030302043202020302020302020302020302020302020302020302020302020302020302020302020300A20202020312E303331332020202D302E3030303020202020302E303030302043202020302020302020302020302020302020302020302020302020302020302020302020300A20202020302E363138372020202D302E3731343520202020302E303030302043202020302020302020302020302020302020302020302020302020302020302020302020300A20202020312E3033313220202020312E3432383920202020302E303030302043202020302020302020302020302020302020302020302020302020302020302020302020300A20202020312E3835363220202020312E3432383920202020302E30303030204E202020302020302020302020302020302020302020302020302020302020302020302020300A20202020322E3236383820202020302E3731343520202020302E303030302043202020302020302020302020302020302020302020302020302020302020302020302020300A20202020322E3236383720202020322E3134333420202020302E303030302043202020302020302020302020302020302020302020302020302020302020302020302020300A20202020312E303331322020202D312E3432383920202020302E303030302043202020302020302020302020302020302020302020302020302020302020302020302020300A20202020312E343433372020202D322E3134333420202020302E303030302043202020302020302020302020302020302020302020302020302020302020302020302020300A20202020302E333136382020202D312E3834313420202020302E303030302043202020302020302020302020302020302020302020302020302020302020302020302020300A20202020312E373435372020202D312E3031363420202020302E303030302043202020302020302020302020302020302020302020302020302020302020302020302020300A2020202D312E3434333820202020302E3030303020202020302E303030302043202020302020302020302020302020302020302020302020302020302020302020302020300A2020202D312E343433382020202D302E3832353020202020302E303030302043202020302020302020302020302020302020302020302020302020302020302020302020300A2020202D322E3236383820202020302E3030303020202020302E303030302043202020302020302020302020302020302020302020302020302020302020302020302020300A2020202D312E3434333820202020302E3832353020202020302E303030302043202020302020302020302020302020302020302020302020302020302020302020302020300A2020202D302E363138382020202D312E3432383920202020302E30303030204F202020302020302020302020302020302020302020302020302020302020302020302020300A2020312020322020312020302020202020200A2020322020332020322020302020202020200A2020332020342020312020302020202020200A2020342020352020322020302020202020200A2020352020362020312020302020202020200A2020312020362020322020302020202020200A2020342020372020312020302020202020200A2020382020392020312020302020202020200A2020382031302020312020302020202020200A2020372020382020312020302020202020200A2031312031322020312020302020202020200A2031312031342020312020302020202020200A2031312031332020312020302020202020200A2020362031312020312020302020202020200A2031352031362020312020302020202020200A2031352031382020312020302020202020200A2031352031372020312020302020202020200A2020322031352020312020302020202020200A2020312031392020312020302020202020200A4D2020454E44
Contributor: MASS SPECTROSCOPY SOC. OF JAPAN (MSSJ)
InstType: EI
InstName: Unknown
IoniMethod: EI
IonPolarity: pos
Date: 2010-10-09 19:48:36+02:00
Num Peaks: 79
15 38 18 51 27 43 29 110 30 28 39 72 41 242 42 95 43 103 44 286 
45 206 46 57 51 33 53 50 55 69 57 135 58 291 65 45 67 32 69 32 
77 77 78 24 79 58 80 36 81 23 91 142 93 26 102 50 103 26 105 82 
107 31 115 66 116 26 117 45 119 83 121 74 127 21 128 61 129 69 130 26 
131 49 133 61 134 48 135 25 141 25 143 52 144 23 145 75 146 20 147 78 
148 21 149 26 159 35 160 21 161 282 162 74 163 216 164 61 173 23 175 173 
176 82 177 23 187 29 188 23 189 99 190 42 203 352 204 70 205 65 206 111 
217 26 218 174 219 999 220 250 221 26 246 23 262 91 263 252 264 56 
