Name: 2-ETHYLHEXANAL ETHYLENE GLYCOL ACETAL
MW: 172
Formula: C10H20O2
Synonym: MassBank: JP008670
Synonym: 2-ETHYLHEXANAL ETHYLENE GLYCOL ACETAL
Structure: 322D455448594C484558414E414C20455448594C454E4520474C59434F4C2041434554414C2E6D6F6C0A20204368656D447261773031303331303133303332440A2031322031322020302020302020302020302020302020302020302020303939392056323030300A2020202D312E303135322020202D302E3335373220202020302E303030302043202020302020302020302020302020302020302020302020302020302020302020302020300A2020202D302E313930322020202D302E3335373220202020302E303030302043202020302020302020302020302020302020302020302020302020302020302020302020300A20202020302E3232323320202020302E3335373220202020302E303030302043202020302020302020302020302020302020302020302020302020302020302020302020300A20202020312E3034373320202020302E3335373220202020302E303030302043202020302020302020302020302020302020302020302020302020302020302020302020300A20202020312E3435393820202020312E3037313720202020302E303030302043202020302020302020302020302020302020302020302020302020302020302020302020300A20202020322E3238343820202020312E3037313720202020302E303030302043202020302020302020302020302020302020302020302020302020302020302020302020300A20202020302E323232332020202D312E3037313720202020302E303030302043202020302020302020302020302020302020302020302020302020302020302020302020300A20202020312E303437332020202D312E3037313720202020302E303030302043202020302020302020302020302020302020302020302020302020302020302020302020300A2020202D312E353030322020202D312E3032343720202020302E30303030204F202020302020302020302020302020302020302020302020302020302020302020302020300A2020202D312E3530303220202020302E3331303220202020302E30303030204F202020302020302020302020302020302020302020302020302020302020302020302020300A2020202D322E323834382020202D302E3736393720202020302E303030302043202020302020302020302020302020302020302020302020302020302020302020302020300A2020202D322E3238343820202020302E3035353320202020302E303030302043202020302020302020302020302020302020302020302020302020302020302020302020300A2020312020322020312020302020202020200A2020322020332020312020302020202020200A2020332020342020312020302020202020200A2020342020352020312020302020202020200A2020352020362020312020302020202020200A2020372020382020312020302020202020200A2020322020372020312020302020202020200A2031312031322020312020302020202020200A2020392031312020312020302020202020200A2031302031322020312020302020202020200A2020312020392020312020302020202020200A2020312031302020312020302020202020200A4D2020454E44
Contributor: SODA AROMATIC CO., LTD.
InstType: EI
InstName: HITACHI M-80B
IoniMethod: _ENERGY 70 eV
IonPolarity: pos
Date: 2010-10-09 19:48:36+02:00
Num Peaks: 11
27 37 29 37 39 17 41 59 43 26 45 117 55 29 57 20 70 11 73 999 
74 36 
