Name: MassBank: JP000770
MW: 258
Formula: C12H15ClO4
Synonym: MassBank: JP000770
Synonym: 5-CHLORO-2-METHOXY-3,7-BIS(METHOXYMETHYL)CYCLOHEPTA-2,4,6-TRIEN-1-ONE
Structure: 352D43484C4F524F2D322D4D4554484F58592D332C372D424953284D4554484F58594D455448594C294359434C4F48455054412D322C342C362D545249454E2D312D4F4E452E6D6F6C0A20204368656D447261773034323331303034333932440A2031372031372020302020302020302020302020302020302020302020303939392056323030300A2020202D302E393235352020202D302E3139383620202020302E303030302043202020302020302020302020302020302020302020302020302020302020302020302020300A2020202D302E3733353920202020302E3630343320202020302E303030302043202020302020302020302020302020302020302020302020302020302020302020302020300A20202020302E3031333220202020302E3935363720202020302E303030302043202020302020302020302020302020302020302020302020302020302020302020302020300A20202020302E3735303720202020302E3539333220202020302E303030302043202020302020302020302020302020302020302020302020302020302020302020302020300A20202020302E393238322020202D302E3231323520202020302E303030302043202020302020302020302020302020302020302020302020302020302020302020302020300A20202020302E343039302020202D302E3835303620202020302E303030302043202020302020302020302020302020302020302020302020302020302020302020302020300A2020202D302E343135392020202D302E3835303620202020302E303030302043202020302020302020302020302020302020302020302020302020302020302020302020300A2020202D312E373331312020202D302E3337363220202020302E30303030204F202020302020302020302020302020302020302020302020302020302020302020302020300A2020202D302E373739342020202D312E3538383120202020302E303030302043202020302020302020302020302020302020302020302020302020302020302020302020300A2020202D302E333139382020202D322E3237333220202020302E30303030204F202020302020302020302020302020302020302020302020302020302020302020302020300A2020202D302E363833332020202D332E3031333820202020302E303030302043202020302020302020302020302020302020302020302020302020302020302020302020300A20202020302E3031333220202020312E3738313720202020302E303030302043202020302020302020302020302020302020302020302020302020302020302020302020300A20202020302E3732393920202020322E3139353520202020302E30303030204F202020302020302020302020302020302020302020302020302020302020302020302020300A20202020302E3732393920202020332E3031333820202020302E303030302043202020302020302020302020302020302020302020302020302020302020302020302020300A2020202D312E3337373020202020312E3132333520202020302E30303030204F202020302020302020302020302020302020302020302020302020302020302020302020300A2020202D312E3234383020202020312E3933383320202020302E303030302043202020302020302020302020302020302020302020302020302020302020302020302020300A20202020312E373331312020202D302E3430323120202020302E3030303020436C2020302020302020302020302020302020302020302020302020302020302020302020300A2020312020322020312020302020202020200A2020322020332020322020302020202020200A2020332020342020312020302020202020200A2020342020352020322020302020202020200A2020352020362020312020302020202020200A2020362020372020322020302020202020200A2020312020372020312020302020202020200A2020312020382020322020302020202020200A2031302031312020312020302020202020200A2020392031302020312020302020202020200A2020372020392020312020302020202020200A2031332031342020312020302020202020200A2031322031332020312020302020202020200A2020332031322020312020302020202020200A2031352031362020312020302020202020200A2020322031352020312020302020202020200A2020352031372020312020302020202020200A4D2020454E44
Contributor: ITO S, DEPT. OF CHEM., TOHOKU UNIV.
InstType: EI
InstName: Unknown
IoniMethod: _ENERGY 25 eV
IonPolarity: pos
Date: 2010-10-09 19:48:36+02:00
Num Peaks: 82
45 999 75 130 77 250 78 8 79 60 85 55 89 120 90 6 91 170 92 70 
99 50 102 4 103 200 104 35 105 150 111 6 112 40 113 60 114 30 118 4 
119 65 121 65 125 425 126 3 127 165 128 50 129 30 131 12 133 65 134 45 
137 65 138 7 139 160 140 165 141 60 142 85 143 140 144 205 145 35 149 8 
152 50 153 120 154 55 155 18 156 50 157 40 165 80 166 8 167 180 168 230 
169 195 170 5 171 40 172 100 181 40 182 3 183 420 184 85 185 300 186 2 
191 40 194 50 195 70 196 5 197 30 198 55 199 35 211 67 212 85 213 130 
214 30 226 46 227 60 228 280 229 55 243 19 244 25 245 85 258 465 259 13 
260 140 261 35 
