Name: MassBank: JP004331
MW: 185
Formula: C13H15N
Synonym: MassBank: JP004331
Synonym: 2,3-DIMETHYL-1,7-TRIMETHYLENEINDOLE
Structure: 322C332D44494D455448594C2D312C372D5452494D455448594C454E45494E444F4C452E6D6F6C0A20204368656D447261773132323030393131333532440A2031342031362020302020302020302020302020302020302020302020303939392056323030300A20202020302E333534322020202D302E3431313920202020302E30303030204E202020302020302020302020302020302020302020302020302020302020302020302020300A20202020302E3934323220202020302E3137363120202020302E303030302043202020302020302020302020302020302020302020302020302020302020302020302020300A20202020302E3532353820202020302E3839373320202020302E303030302043202020302020302020302020302020302020302020302020302020302020302020302020300A2020202D302E3236353020202020302E3736333620202020302E303030302043202020302020302020302020302020302020302020302020302020302020302020302020300A2020202D302E3934353420202020312E3233373320202020302E303030302043202020302020302020302020302020302020302020302020302020302020302020302020300A2020202D312E3639333220202020302E3837383720202020302E303030302043202020302020302020302020302020302020302020302020302020302020302020302020300A2020202D312E3735363220202020302E3035303920202020302E303030302043202020302020302020302020302020302020302020302020302020302020302020302020300A2020202D312E303539382020202D302E3432363220202020302E303030302043202020302020302020302020302020302020302020302020302020302020302020302020300A2020202D302E333632312020202D302E3032333420202020302E303030302043202020302020302020302020302020302020302020302020302020302020302020302020300A20202020302E333534322020202D312E3234333420202020302E303030302043202020302020302020302020302020302020302020302020302020302020302020302020300A2020202D302E333537302020202D312E3635343020202020302E303030302043202020302020302020302020302020302020302020302020302020302020302020302020300A2020202D312E303731372020202D312E3234313320202020302E303030302043202020302020302020302020302020302020302020302020302020302020302020302020300A20202020302E3931333120202020312E3635343020202020302E303030302043202020302020302020302020302020302020302020302020302020302020302020302020300A20202020312E3735363220202020302E3035383420202020302E303030302043202020302020302020302020302020302020302020302020302020302020302020302020300A2020312020322020312020302020202020200A2020322020332020322020302020202020200A2020332020342020312020302020202020200A2020342020352020312020302020202020200A2020352020362020322020302020202020200A2020362020372020312020302020202020200A2020372020382020322020302020202020200A2020382020392020312020302020202020200A2020312020392020312020302020202020200A2020342020392020322020302020202020200A2031302031312020312020302020202020200A2031312031322020312020302020202020200A2020312031302020312020302020202020200A2020382031322020312020302020202020200A2020332031332020312020302020202020200A2020322031342020312020302020202020200A4D2020454E44
Contributor: SASAKI S, TOYOHASHI UNIV. OF TECH.
InstType: EI
InstName: MX-1303
IoniMethod: _ENERGY 50 eV
IonPolarity: pos
Date: 2010-10-09 19:48:36+02:00
Num Peaks: 64
27 23 39 33 41 22 42 1 50 12 51 30 53 11 63 3 64 11 65 20 
71.5 16 75 1 76 15 77 46 77.5 31 78 2 78.5 34 83.5 62 84 17 84.5 4 
89 25 90 13 90.5 25 91 2 91.5 30 92.5 63 93 11 101 1 102 15 103 11 
114 13 115 3 116 20 117 14 127 29 128 5 129 22 130 23 139 16 140 2 
141 27 142 66 143 25 144 2 152 15 153 11 154 73 155 3 156 171 157 37 
166 16 167 7 168 131 169 71 170 331 171 5 180 47 181 31 182 108 183 6 
184 958 185 999 186 141 187 11 
