Name: 2-PROPYLTHIAZOLE
MW: 127
Formula: C6H9NS
Synonym: MassBank: JP007792
Synonym: 2-PROPYLTHIAZOLE
Structure: 310A32310A322D50524F50594C544849415A4F4C452E6D6F6C0A20204368656D447261773032323131303135303832440A2020382020382020302020302020302020302020302020302020302020303939392056323030300A2020202D312E3137323520202020302E3632353320202020302E303030302053202020302020302020302020302020302020302020302020302020302020302020302020300A2020202D302E3431383920202020302E3238393820202020302E303030302043202020302020302020302020302020302020302020302020302020302020302020302020300A2020202D302E353035312020202D302E3533303720202020302E30303030204E202020302020302020302020302020302020302020302020302020302020302020302020300A2020202D312E333132312020202D302E3730323320202020302E303030302043202020302020302020302020302020302020302020302020302020302020302020302020300A2020202D312E3732343620202020302E3031323220202020302E303030302043202020302020302020302020302020302020302020302020302020302020302020302020300A20202020302E3239353620202020302E3730323320202020302E303030302043202020302020302020302020302020302020302020302020302020302020302020302020300A20202020312E3031303120202020302E3238393820202020302E303030302043202020302020302020302020302020302020302020302020302020302020302020302020300A20202020312E3732343620202020302E3730323320202020302E303030302043202020302020302020302020302020302020302020302020302020302020302020302020300A2020312020322020312020302020202020200A2020322020332020322020302020202020200A2020332020342020312020302020202020200A2020342020352020322020302020202020200A2020312020352020312020302020202020200A2020362020372020312020302020202020200A2020372020382020312020302020202020200A2020322020362020312020302020202020200A4D2020454E44
Contributor: HASHIMOTO K, KYOTO COLLEGE OF PHARMACY
InstType: EI
InstName: HITACHI M-80
IoniMethod: _ENERGY 20 eV
IonPolarity: pos
Date: 2010-10-09 19:48:36+02:00
Num Peaks: 24
27 31 29 43 39 11 41 74 43 30 45 38 54 83 55 10 57 34 58 585 
59 156 60 31 71 11 85 10 86 22 98 241 99 999 100 108 101 80 112 316 
113 22 114 10 126 88 127 55 
