Name: 1-ACETYL-3-(6-METHYL-3-PYRIDYL)-2-PYRAZOLINE
MW: 203
Formula: C11H13N3O
Synonym: MassBank: JP001996
Synonym: 1-ACETYL-3-(6-METHYL-3-PYRIDYL)-2-PYRAZOLINE
Structure: 312D41434554594C2D332D28362D4D455448594C2D332D5059524944594C292D322D505952415A4F4C494E452E6D6F6C0A20204368656D447261773131313730393231303532440A2031352031362020302020302020302020302020302020302020302020303939392056323030300A2020202D312E3537343220202020302E3038393220202020302E30303030204E202020302020302020302020302020302020302020302020302020302020302020302020300A2020202D302E373839362020202D302E3136353720202020302E30303030204E202020302020302020302020302020302020302020302020302020302020302020302020300A2020202D302E3330343720202020302E3530313720202020302E303030302043202020302020302020302020302020302020302020302020302020302020302020302020300A2020202D302E3738393620202020312E3136393220202020302E303030302043202020302020302020302020302020302020302020302020302020302020302020302020300A2020202D312E3537343220202020302E3931343220202020302E303030302043202020302020302020302020302020302020302020302020302020302020302020302020300A20202020302E3933323820202020312E3231363220202020302E303030302043202020302020302020302020302020302020302020302020302020302020302020302020300A20202020302E3532303320202020302E3530313720202020302E303030302043202020302020302020302020302020302020302020302020302020302020302020302020300A20202020302E393332382020202D302E3231323820202020302E303030302043202020302020302020302020302020302020302020302020302020302020302020302020300A20202020312E373537382020202D302E3231323820202020302E303030302043202020302020302020302020302020302020302020302020302020302020302020302020300A20202020322E3137303320202020302E3530313720202020302E303030302043202020302020302020302020302020302020302020302020302020302020302020302020300A20202020312E3735373820202020312E3231363220202020302E30303030204E202020302020302020302020302020302020302020302020302020302020302020302020300A20202020322E3939353320202020302E3530313720202020302E303030302043202020302020302020302020302020302020302020302020302020302020302020302020300A2020202D322E323431372020202D302E3339353720202020302E303030302043202020302020302020302020302020302020302020302020302020302020302020302020300A2020202D322E393935332020202D302E3036303120202020302E30303030204F202020302020302020302020302020302020302020302020302020302020302020302020300A2020202D322E313535342020202D312E3231363220202020302E303030302043202020302020302020302020302020302020302020302020302020302020302020302020300A2020312020322020312020302020202020200A2020322020332020322020302020202020200A2020332020342020312020302020202020200A2020342020352020312020302020202020200A2020312020352020312020302020202020200A2020362020372020312020302020202020200A2020372020382020322020302020202020200A2020382020392020312020302020202020200A2020392031302020322020302020202020200A2031302031312020312020302020202020200A2020362031312020322020302020202020200A2031302031322020312020302020202020200A2020332020372020312020302020202020200A2031332031342020322020302020202020200A2031332031352020312020302020202020200A2020312031332020312020302020202020200A4D2020454E44
Contributor: SASAKI S, TOYOHASHI UNIV. OF TECH.
InstType: EI
InstName: Unknown
IoniMethod: _ENERGY 50 eV
IonPolarity: pos
Date: 2010-10-09 19:48:36+02:00
Num Peaks: 7
117 22 119 25 133 25 160 55 161 999 162 67 203 333 
