Name: ISOPROPYLHYDRAZINE
MW: 74
Formula: C3H10N2
Synonym: MassBank: JP000367
Synonym: ISOPROPYLHYDRAZINE
Structure: 310A31340A49534F50524F50594C48594452415A494E452E6D6F6C0A20204368656D447261773038313131303231353132440A2020352020342020302020302020302020302020302020302020302020303939392056323030300A2020202D302E333537322020202D302E3631383820202020302E30303030204E202020302020302020302020302020302020302020302020302020302020302020302020300A2020202D312E303731372020202D302E3230363220202020302E30303030204E202020302020302020302020302020302020302020302020302020302020302020302020300A20202020302E333537322020202D302E3230363220202020302E303030302043202020302020302020302020302020302020302020302020302020302020302020302020300A20202020302E3335373220202020302E3631383820202020302E303030302043202020302020302020302020302020302020302020302020302020302020302020302020300A20202020312E303731372020202D302E3631383720202020302E303030302043202020302020302020302020302020302020302020302020302020302020302020302020300A2020312020322020312020302020202020200A2020332020342020312020302020202020200A2020332020352020312020302020202020200A2020312020332020312020302020202020200A4D2020454E44
Contributor: SASAKI S, TOYOHASHI UNIV. OF TECH.
InstType: EI
InstName: SHIMADZU LKB-2091
IoniMethod: _ENERGY 70 eV
IonPolarity: pos
Date: 2010-10-09 19:48:36+02:00
Num Peaks: 24
26 19 27 187 28 51 29 6 30 90 31 238 32 661 33 1 38 13 39 87 
40 27 41 22 42 356 43 151 44 22 45 3 56 51 57 13 58 15 59 999 
60 32 73 17 74 340 75 27 
