Name: 2-METHYLTHIOCHROMOTHIONE
MW: 192
Formula: C10H8S2
Synonym: MassBank: JP009439
Synonym: 2-METHYLTHIOCHROMOTHIONE
Structure: 322D4D455448594C5448494F4348524F4D4F5448494F4E452E6D6F6C0A20204368656D447261773032323131303036313032440A2031322031332020302020302020302020302020302020302020302020303939392056323030300A20202020312E3037313720202020302E3832353020202020302E303030302043202020302020302020302020302020302020302020302020302020302020302020302020300A20202020312E303731372020202D302E3030303020202020302E303030302043202020302020302020302020302020302020302020302020302020302020302020302020300A20202020302E333537322020202D302E3431323520202020302E303030302043202020302020302020302020302020302020302020302020302020302020302020302020300A20202020302E333537322020202D312E3233373520202020302E303030302053202020302020302020302020302020302020302020302020302020302020302020302020300A2020202D302E333537322020202D302E3030303020202020302E303030302043202020302020302020302020302020302020302020302020302020302020302020302020300A2020202D312E303731372020202D302E3431323520202020302E303030302043202020302020302020302020302020302020302020302020302020302020302020302020300A2020202D312E373836312020202D302E3030303020202020302E303030302043202020302020302020302020302020302020302020302020302020302020302020302020300A2020202D312E3738363120202020302E3832353020202020302E303030302043202020302020302020302020302020302020302020302020302020302020302020302020300A2020202D312E3037313720202020312E3233373520202020302E303030302043202020302020302020302020302020302020302020302020302020302020302020302020300A2020202D302E3335373220202020302E3832353020202020302E303030302043202020302020302020302020302020302020302020302020302020302020302020302020300A20202020302E3335373220202020312E3233373520202020302E303030302053202020302020302020302020302020302020302020302020302020302020302020302020300A20202020312E3738363120202020312E3233373520202020302E303030302043202020302020302020302020302020302020302020302020302020302020302020302020300A2020312020322020322020302020202020200A2020322020332020312020302020202020200A2020332020342020322020302020202020200A2020332020352020312020302020202020200A2020352020362020312020302020202020200A2020362020372020322020302020202020200A2020372020382020312020302020202020200A2020382020392020322020302020202020200A2020392031302020312020302020202020200A2020352031302020322020302020202020200A2031302031312020312020302020202020200A2020312031312020312020302020202020200A2020312031322020312020302020202020200A4D2020454E44
Contributor: EGUCHI S, FAC. OF SCIENCE, HIROSHIMA UNIV.
InstType: EI
InstName: HITACHI RMU-7L
IoniMethod: _ENERGY 70 eV
IonPolarity: pos
Date: 2010-10-09 19:48:36+02:00
Num Peaks: 133
40 10 41 100 42 20 43 70 44 20 45 110 46 10 47 10 49 10 50 40 
51 60 52 20 53 15 54 10 55 70 56 15 57 55 58 40 59 65 60 20 
61 35 62 70 63 90 64 15 65 25 66 15 67 25 68 10 69 200 70 15 
71 20 72 10 73 30 74 60 75 40 76 40 77 20 78 15 79 10 80 10 
81 40 82 60 83 40 84 20 85 30 86 25 87 30 88 20 89 35 90 10 
91 20 92 10 93 60 94 20 95 25 96 35 97 10 98 20 99 20 100 10 
101 25 102 20 103 25 104 10 105 15 106 15 107 20 108 140 109 20 110 10 
111 10 112 10 113 25 114 35 115 135 116 30 117 20 118 10 119 20 120 25 
121 80 122 10 123 15 124 10 125 10 126 15 127 15 128 35 129 20 130 10 
131 10 132 15 133 15 134 25 135 10 136 10 137 10 138 10 139 15 140 10 
141 20 143 10 144 10 145 30 146 30 147 365 148 140 149 50 150 10 151 15 
152 30 153 10 154 10 156 10 157 15 158 40 159 40 160 20 161 15 162 10 
165 15 166 10 176 15 177 90 178 10 179 10 189 10 190 30 191 440 192 999 
193 140 194 115 195 15 
