Name: ETHANETHIOL
MW: 62
Formula: C2H6S
Synonym: MassBank: JP008741
Synonym: ETHANETHIOL
Structure: 310A31300A455448414E455448494F4C2E6D6F6C0A20204368656D447261773038313131303137353932440A2020332020322020302020302020302020302020302020302020302020303939392056323030300A20202020302E3030303020202020302E3230363220202020302E303030302043202020302020302020302020302020302020302020302020302020302020302020302020300A20202020302E373134352020202D302E3230363220202020302E303030302043202020302020302020302020302020302020302020302020302020302020302020302020300A2020202D302E373134352020202D302E3230363220202020302E303030302053202020302020302020302020302020302020302020302020302020302020302020302020300A2020312020322020312020302020202020200A2020312020332020312020302020202020200A4D2020454E44
Contributor: SODA AROMATIC CO., LTD.
InstType: EI
InstName: HITACHI M-80B
IoniMethod: _ENERGY 70 eV
IonPolarity: pos
Date: 2010-10-09 19:48:36+02:00
Num Peaks: 27
14 13 15 28 25 23 26 255 27 903 28 424 29 999 30 16 32 57 33 114 
34 222 35 136 44 15 45 292 46 163 47 862 48 18 49 28 56 14 57 92 
58 133 59 92 60 12 61 146 62 986 63 42 64 37 
