Name: 2-METHYLMERCAPTBENZOTHIAZOLE
MW: 181
Formula: C8H7NS2
Synonym: MassBank: JP003411
Synonym: 2-METHYLMERCAPTBENZOTHIAZOLE
Structure: 322D4D455448594C4D45524341505442454E5A4F544849415A4F4C452E6D6F6C0A20204368656D447261773032313831303134313432440A2031312031322020302020302020302020302020302020302020302020303939392056323030300A20202020302E3533393120202020302E3431323520202020302E303030302043202020302020302020302020302020302020302020302020302020302020302020302020300A20202020302E353339312020202D302E3431323520202020302E303030302043202020302020302020302020302020302020302020302020302020302020302020302020300A20202020312E323533352020202D302E3832353020202020302E303030302043202020302020302020302020302020302020302020302020302020302020302020302020300A20202020312E393638302020202D302E3431323520202020302E303030302043202020302020302020302020302020302020302020302020302020302020302020302020300A20202020312E3936383020202020302E3431323520202020302E303030302043202020302020302020302020302020302020302020302020302020302020302020302020300A20202020312E3235333520202020302E3832353020202020302E303030302043202020302020302020302020302020302020302020302020302020302020302020302020300A2020202D302E3234353620202020302E3636373420202020302E30303030204E202020302020302020302020302020302020302020302020302020302020302020302020300A2020202D302E3733303520202020302E3030303020202020302E303030302043202020302020302020302020302020302020302020302020302020302020302020302020300A2020202D302E323435362020202D302E3636373420202020302E303030302053202020302020302020302020302020302020302020302020302020302020302020302020300A2020202D312E3535353520202020302E3030303020202020302E303030302053202020302020302020302020302020302020302020302020302020302020302020302020300A2020202D312E393638302020202D302E3731343520202020302E303030302043202020302020302020302020302020302020302020302020302020302020302020302020300A2020312020322020322020302020202020200A2020322020332020312020302020202020200A2020332020342020322020302020202020200A2020342020352020312020302020202020200A2020352020362020322020302020202020200A2020362020312020312020302020202020200A2020312020372020312020302020202020200A2020372020382020322020302020202020200A2020382020392020312020302020202020200A2020392020322020312020302020202020200A2020382031302020312020302020202020200A2031302031312020312020302020202020200A4D2020454E44
Contributor: KOGA M, UNIV. OF OCCUPATIONAL AND ENVIRONMENTAL HEALTH
InstType: EI
InstName: JEOL JMS-01-SG-2
IoniMethod: _ENERGY 75 eV
IonPolarity: pos
Date: 2010-10-09 19:48:36+02:00
Num Peaks: 25
38 53 45 109 62 43 63 104 64 63 69 97 95 46 96 46 104 68 108 24 
109 73 121 46 122 97 128 4 133 48 135 102 136 163 139 5 148 614 149 114 
166 97 180 25 181 999 182 156 183 114 
