Name: ISOBORNEOL
CAS: 124-76-5
MW: 154
Formula: C10H18O
Synonym: MassBank: JP007650
Synonym: ISOBORNEOL
Synonym: EXO-1,7,7-TRIMETHYLBICYCLO(2.2.1)HEPTAN-2-OL
Structure: 303134385F49534F424F524E454F4C2E6D6F6C0A20204368656D447261773039303331303138323032440A2031312031322020302020302020302020302020302020302020302020303939392056323030300A20202020302E343132352020202D302E3335373220202020302E303030302043202020302020302020302020302020302020302020302020302020302020302020302020300A20202020312E323337352020202D302E3335373220202020302E30303030204F202020302020302020302020302020302020302020302020302020302020302020302020300A2020202D302E3030303020202020302E3335373220202020302E303030302043202020302020302020302020302020302020302020302020302020302020302020302020300A2020202D302E3832353020202020302E3335373220202020302E303030302043202020302020302020302020302020302020302020302020302020302020302020302020300A2020202D312E323337352020202D302E3335373220202020302E303030302043202020302020302020302020302020302020302020302020302020302020302020302020300A2020202D302E383235302020202D312E3037313720202020302E303030302043202020302020302020302020302020302020302020302020302020302020302020302020300A2020202D302E303030302020202D312E3037313720202020302E303030302043202020302020302020302020302020302020302020302020302020302020302020302020300A2020202D302E323537312020202D302E3432363720202020302E303030302043202020302020302020302020302020302020302020302020302020302020302020302020300A20202020302E3431323520202020312E3037313720202020302E303030302043202020302020302020302020302020302020302020302020302020302020302020302020300A20202020302E343539312020202D302E3833363220202020302E303030302043202020302020302020302020302020302020302020302020302020302020302020302020300A2020202D302E3733383420202020302E3234333420202020302E303030302043202020302020302020302020302020302020302020302020302020302020302020302020300A2020312020322020312020312020202020200A2020312020332020312020302020202020200A2020332020342020312020302020202020200A2020342020352020312020302020202020200A2020352020362020312020302020202020200A2020362020372020312020302020202020200A2020372020312020312020302020202020200A2020332020382020312020312020202020200A2020362020382020312020312020202020200A2020332020392020312020302020202020200A2020382031302020312020312020202020200A2020382031312020312020312020202020200A4D2020454E44
Contributor: YAMAMOTO M, DEP. CHEMISTRY, FAC. SCIENCE, NARA WOMEN'S UNIV.
InstType: EI
InstName: HITACHI RMU-6M
IoniMethod: _ENERGY 15 eV
IonPolarity: pos
Date: 2010-10-09 19:48:36+02:00
Num Peaks: 42
43 27 55 18 57 14 59 55 67 18 68 18 69 37 70 18 71 55 72 78 
79 14 80 23 81 52 82 146 83 78 84 68 85 20 92 161 93 233 94 39 
95 999 96 114 97 21 98 23 99 18 107 37 108 59 109 46 110 554 111 102 
112 14 113 18 121 194 122 26 123 23 125 14 126 18 136 424 137 55 139 221 
140 23 154 64 
