Name: MENTHOFURAN
MW: 150
Formula: C10H14O
Synonym: MassBank: JP008392
Synonym: MENTHOFURAN
Synonym: 4,5,6,7-TETRAHYDRO-3,6-DIMETHYLBENZOFURAN
Structure: 342C352C362C372D5445545241485944524F2D332C362D44494D455448594C42454E5A4F465552414E2E6D6F6C0A20204368656D447261773038313131303135333032440A2031312031322020302020302020302020302020302020302020302020303939392056323030300A2020202D312E303337312020202D302E3939303620202020302E30303030204F202020302020302020302020302020302020302020302020302020302020302020302020300A2020202D312E363738332020202D302E3437313520202020302E303030302043202020302020302020302020302020302020302020302020302020302020302020302020300A2020202D312E3338323620202020302E3239383720202020302E303030302043202020302020302020302020302020302020302020302020302020302020302020302020300A2020202D302E3535383720202020302E3235353620202020302E303030302043202020302020302020302020302020302020302020302020302020302020302020302020300A2020202D302E333435322020202D302E3534313320202020302E303030302043202020302020302020302020302020302020302020302020302020302020302020302020300A20202020302E3032343620202020302E3833383920202020302E303030302043202020302020302020302020302020302020302020302020302020302020302020302020300A20202020302E3832313520202020302E3632353420202020302E303030302043202020302020302020302020302020302020302020302020302020302020302020302020300A20202020312E303335302020202D302E3137313520202020302E303030302043202020302020302020302020302020302020302020302020302020302020302020302020300A20202020302E343531372020202D302E3735343820202020302E303030302043202020302020302020302020302020302020302020302020302020302020302020302020300A20202020312E383331392020202D302E3338353020202020302E303030302043202020302020302020302020302020302020302020302020302020302020302020302020300A2020202D312E3833313920202020302E3939303620202020302E303030302043202020302020302020302020302020302020302020302020302020302020302020302020300A2020312020322020312020302020202020200A2020322020332020322020302020202020200A2020332020342020312020302020202020200A2020342020352020322020302020202020200A2020312020352020312020302020202020200A2020362020372020312020302020202020200A2020372020382020312020302020202020200A2020382020392020312020302020202020200A2020352020392020312020302020202020200A2020342020362020312020302020202020200A2020382031302020312020302020202020200A2020332031312020312020302020202020200A4D2020454E44
Contributor: SODA AROMATIC CO., LTD.
InstType: EI
InstName: HITACHI M-80B
IoniMethod: _ENERGY 70 eV
IonPolarity: pos
Date: 2010-10-09 19:48:36+02:00
Num Peaks: 29
27 54 29 26 39 91 40 12 41 58 43 15 51 42 52 17 53 37 55 14 
63 16 65 39 66 14 77 81 78 21 79 156 80 30 91 60 93 16 95 15 
105 24 107 14 108 999 109 89 121 18 135 15 149 11 150 291 151 34 
