Name: MassBank: JP008622
MW: 166
Formula: C11H18O
Synonym: MassBank: JP008622
Synonym: 2-ACETYL-3,3-DIMETHYLNORBORNANE
Structure: 322D41434554594C2D332C332D44494D455448594C4E4F52424F524E414E452E6D6F6C0A20204368656D447261773132323130393232303132440A2031322031332020302020302020302020302020302020302020302020303939392056323030300A2020202D302E333136302020202D302E3230363220202020302E303030302043202020302020302020302020302020302020302020302020302020302020302020302020300A2020202D302E333136302020202D312E3033313320202020302E303030302043202020302020302020302020302020302020302020302020302020302020302020302020300A20202020302E333938342020202D312E3434333820202020302E303030302043202020302020302020302020302020302020302020302020302020302020302020302020300A20202020312E313132392020202D312E3033313320202020302E303030302043202020302020302020302020302020302020302020302020302020302020302020302020300A20202020312E313132392020202D302E3230363220202020302E303030302043202020302020302020302020302020302020302020302020302020302020302020302020300A20202020302E3339383420202020302E3230363220202020302E303030302043202020302020302020302020302020302020302020302020302020302020302020302020300A20202020302E323637332020202D302E3434373920202020302E303030302043202020302020302020302020302020302020302020302020302020302020302020302020300A20202020302E3339383420202020312E3033313320202020302E303030302043202020302020302020302020302020302020302020302020302020302020302020302020300A2020202D302E3331363020202020312E3434333820202020302E30303030204F202020302020302020302020302020302020302020302020302020302020302020302020300A20202020312E3131323920202020312E3434333820202020302E303030302043202020302020302020302020302020302020302020302020302020302020302020302020300A2020202D302E3732383520202020302E3530383220202020302E303030302043202020302020302020302020302020302020302020302020302020302020302020302020300A2020202D312E313132392020202D302E3431393820202020302E303030302043202020302020302020302020302020302020302020302020302020302020302020302020300A2020312020322020312020302020202020200A2020322020332020312020302020202020200A2020332020342020312020302020202020200A2020342020352020312020302020202020200A2020352020362020312020302020202020200A2020362020312020312020302020202020200A2020322020372020312020302020202020200A2020372020352020312020302020202020200A2020362020382020312020302020202020200A2020382020392020322020302020202020200A2020382031302020312020302020202020200A2020312031312020312020312020202020200A2020312031322020312020362020202020200A4D2020454E44
Contributor: SODA AROMATIC CO., LTD.
InstType: EI
InstName: HITACHI M-80B
IoniMethod: _ENERGY 70 eV
IonPolarity: pos
Date: 2010-10-09 19:48:36+02:00
Num Peaks: 58
15 37 27 134 29 77 39 237 41 414 42 30 43 999 44 15 45 23 50 11 
51 38 52 22 53 144 54 29 55 215 56 16 57 34 63 12 65 54 66 51 
67 496 68 38 69 156 70 13 71 24 77 108 78 21 79 166 80 42 81 471 
82 54 83 129 84 69 85 56 91 57 92 11 93 213 94 23 95 116 96 29 
97 39 98 14 99 684 100 44 105 28 106 20 107 85 108 645 109 166 110 23 
121 12 123 754 124 60 133 25 148 113 149 14 151 57 166 37 
