Name: NONANEDIOIC ACID DIHEXYL ESTER
MW: 356
Formula: C21H40O4
Synonym: MassBank: JP001742
Synonym: NONANEDIOIC ACID DIHEXYL ESTER
Synonym: DIHEXYL AZELATE
Structure: 4E4F4E414E4544494F49432041434944204449484558594C2045535445522E6D6F6C0A20204368656D447261773038313231303032353632440A2032352032342020302020302020302020302020302020302020302020303939392056323030300A2020202D332E353732342020202D312E3434333720202020302E303030302043202020302020302020302020302020302020302020302020302020302020302020302020300A2020202D322E383537392020202D312E3835363220202020302E303030302043202020302020302020302020302020302020302020302020302020302020302020302020300A2020202D322E313433342020202D312E3434333720202020302E303030302043202020302020302020302020302020302020302020302020302020302020302020302020300A2020202D312E343238392020202D312E3835363220202020302E303030302043202020302020302020302020302020302020302020302020302020302020302020302020300A2020202D302E373134352020202D312E3434333720202020302E303030302043202020302020302020302020302020302020302020302020302020302020302020302020300A20202020302E303030302020202D312E3835363220202020302E303030302043202020302020302020302020302020302020302020302020302020302020302020302020300A20202020302E373134352020202D312E3434333720202020302E303030302043202020302020302020302020302020302020302020302020302020302020302020302020300A20202020312E343238392020202D312E3835363220202020302E303030302043202020302020302020302020302020302020302020302020302020302020302020302020300A20202020322E313433342020202D312E3434333720202020302E303030302043202020302020302020302020302020302020302020302020302020302020302020302020300A2020202D332E353732342020202D302E3631383720202020302E30303030204F202020302020302020302020302020302020302020302020302020302020302020302020300A2020202D342E323836382020202D312E3835363220202020302E30303030204F202020302020302020302020302020302020302020302020302020302020302020302020300A20202020322E383537392020202D312E3835363220202020302E30303030204F202020302020302020302020302020302020302020302020302020302020302020302020300A20202020322E313433342020202D302E3631383720202020302E30303030204F202020302020302020302020302020302020302020302020302020302020302020302020300A2020202D352E303031332020202D312E3434333820202020302E303030302043202020302020302020302020302020302020302020302020302020302020302020302020300A2020202D352E303031332020202D302E3631383720202020302E303030302043202020302020302020302020302020302020302020302020302020302020302020302020300A2020202D352E373135382020202D302E3230363320202020302E303030302043202020302020302020302020302020302020302020302020302020302020302020302020300A2020202D352E3731353820202020302E3631383820202020302E303030302043202020302020302020302020302020302020302020302020302020302020302020302020300A2020202D362E3433303220202020312E3033313220202020302E303030302043202020302020302020302020302020302020302020302020302020302020302020302020300A2020202D362E3433303220202020312E3835363220202020302E303030302043202020302020302020302020302020302020302020302020302020302020302020302020300A20202020322E383537392020202D302E3230363220202020302E303030302043202020302020302020302020302020302020302020302020302020302020302020302020300A20202020332E353732342020202D302E3631383720202020302E303030302043202020302020302020302020302020302020302020302020302020302020302020302020300A20202020342E323836382020202D302E3230363220202020302E303030302043202020302020302020302020302020302020302020302020302020302020302020302020300A20202020352E303031332020202D302E3631383720202020302E303030302043202020302020302020302020302020302020302020302020302020302020302020302020300A20202020352E373135382020202D302E3230363220202020302E303030302043202020302020302020302020302020302020302020302020302020302020302020302020300A20202020362E343330322020202D302E3631383720202020302E303030302043202020302020302020302020302020302020302020302020302020302020302020302020300A2020312020322020312020302020202020200A2020322020332020312020302020202020200A2020332020342020312020302020202020200A2020342020352020312020302020202020200A2020352020362020312020302020202020200A2020362020372020312020302020202020200A2020372020382020312020302020202020200A2020382020392020312020302020202020200A2020312031302020322020302020202020200A2020312031312020312020302020202020200A2020392031322020322020302020202020200A2020392031332020312020302020202020200A2031342031352020312020302020202020200A2031352031362020312020302020202020200A2031362031372020312020302020202020200A2031372031382020312020302020202020200A2031382031392020312020302020202020200A2031312031342020312020302020202020200A2032302032312020312020302020202020200A2032312032322020312020302020202020200A2032322032332020312020302020202020200A2032332032342020312020302020202020200A2032342032352020312020302020202020200A2031332032302020312020302020202020200A4D2020454E44
Contributor: MASS SPECTROSCOPY SOC. OF JAPAN (MSSJ)
InstType: EI
InstName: Unknown
IoniMethod: EI
IonPolarity: pos
Date: 2010-10-09 19:48:36+02:00
Num Peaks: 142
27 6 29 18 37 9 41 42 42 96 43 644 44 25 54 12 55 170 56 316 
57 134 58 8 59 5 60 38 61 120 62 7 67 21 68 21 69 152 70 16 
71 7 73 81 74 11 75 14 78 72 79 8 80 9 81 27 82 69 83 233 
84 513 85 251 86 19 87 68 88 4 91 92 93 13 94 2 95 19 96 94 
100 12 101 69 102 17 103 4 105 3 106 3 107 34 108 11 109 50 110 47 
111 260 112 25 113 10 115 242 116 41 117 24 118 6 119 29 121 2 122 5 
123 43 124 144 125 327 126 71 127 35 128 23 129 584 130 52 131 6 133 2 
134 9 135 23 136 17 137 23 138 3 139 6 140 4 141 15 142 29 143 85 
144 90 145 46 146 5 150 7 151 28 152 678 153 153 154 33 155 19 156 3 
157 26 158 4 167 1 168 9 169 15 170 41 171 999 172 174 173 21 182 17 
183 4 184 3 185 7 186 3 189 5 194 2 198 5 199 4 200 22 201 4 
210 2 211 6 212 25 213 354 214 52 215 6 225 3 226 41 227 12 228 81 
229 14 230 1 236 1 238 37 254 80 255 979 256 249 257 31 258 3 270 2 
272 1 273 45 274 7 299 4 300 3 313 8 314 1 327 1 356 5 357 71 
358 16 359 2 
