Name: MassBank: JP001398
MW: 301
Formula: C18H23NO3
Synonym: MassBank: JP001398
Synonym: N-PIPEROYL-N,N-DIISOPROPYLAMINE
Synonym: N,N-DIISOPROPYL-5-(3,4-METHYLENEDIOXYPHENYL)-2,4-PENTADIENAMIDE
Structure: 4E2C4E2D444949534F50524F50594C2D352D28332C342D4D455448594C454E4544494F58595048454E594C292D322C342D50454E54414449454E414D4944452E6D6F6C0A20204368656D447261773038313231303032333532440A2032322032332020302020302020302020302020302020302020302020303939392056323030300A2020202D322E3039363620202020312E3032313020202020302E303030302043202020302020302020302020302020302020302020302020302020302020302020302020300A2020202D312E3237313620202020312E3032313020202020302E303030302043202020302020302020302020302020302020302020302020302020302020302020302020300A2020202D302E3835393120202020302E3330363520202020302E303030302043202020302020302020302020302020302020302020302020302020302020302020302020300A2020202D302E3033343120202020302E3330363520202020302E303030302043202020302020302020302020302020302020302020302020302020302020302020302020300A20202020302E333738342020202D302E3430373920202020302E303030302043202020302020302020302020302020302020302020302020302020302020302020302020300A2020202D322E3530393120202020312E3733353520202020302E30303030204F202020302020302020302020302020302020302020302020302020302020302020302020300A2020202D322E3530393120202020302E3330363520202020302E30303030204E202020302020302020302020302020302020302020302020302020302020302020302020300A20202020312E323033342020202D302E3430373920202020302E303030302043202020302020302020302020302020302020302020302020302020302020302020302020300A20202020312E363135392020202D312E3132323420202020302E303030302043202020302020302020302020302020302020302020302020302020302020302020302020300A20202020322E343430392020202D312E3132323420202020302E303030302043202020302020302020302020302020302020302020302020302020302020302020302020300A20202020322E383533342020202D302E3430373920202020302E303030302043202020302020302020302020302020302020302020302020302020302020302020302020300A20202020322E3434303920202020302E3330363520202020302E303030302043202020302020302020302020302020302020302020302020302020302020302020302020300A20202020312E3631353920202020302E3330363520202020302E303030302043202020302020302020302020302020302020302020302020302020302020302020302020300A20202020332E373436362020202D312E3339393920202020302E303030302043202020302020302020302020302020302020302020302020302020302020302020302020300A20202020322E393932392020202D312E3733353520202020302E30303030204F202020302020302020302020302020302020302020302020302020302020302020302020300A20202020332E363630342020202D302E3537393520202020302E30303030204F202020302020302020302020302020302020302020302020302020302020302020302020300A2020202D322E303936362020202D302E3430373920202020302E303030302043202020302020302020302020302020302020302020302020302020302020302020302020300A2020202D322E353039312020202D312E3132323420202020302E303030302043202020302020302020302020302020302020302020302020302020302020302020302020300A2020202D312E323731362020202D302E3430373920202020302E303030302043202020302020302020302020302020302020302020302020302020302020302020302020300A2020202D332E3333343120202020302E3330363520202020302E303030302043202020302020302020302020302020302020302020302020302020302020302020302020300A2020202D332E373436362020202D302E3430373920202020302E303030302043202020302020302020302020302020302020302020302020302020302020302020302020300A2020202D332E3734363620202020312E3032313020202020302E303030302043202020302020302020302020302020302020302020302020302020302020302020302020300A2020312020322020312020302020202020200A2020322020332020322020302020202020200A2020332020342020312020302020202020200A2020342020352020322020302020202020200A2020312020362020322020302020202020200A2020312020372020312020302020202020200A2020382020392020312020302020202020200A2020392031302020322020302020202020200A2031302031312020312020302020202020200A2031312031322020322020302020202020200A2031322031332020312020302020202020200A2020382031332020322020302020202020200A2031342031352020312020302020202020200A2031342031362020312020302020202020200A2031302031352020312020302020202020200A2031312031362020312020302020202020200A2020352020382020312020302020202020200A2031372031382020312020302020202020200A2031372031392020312020302020202020200A2020372031372020312020302020202020200A2032302032312020312020302020202020200A2032302032322020312020302020202020200A2020372032302020312020302020202020200A4D2020454E44
Contributor: HASHIMOTO K, KYOTO COLLEGE OF PHARMACY
InstType: EI
InstName: HITACHI M-80
IoniMethod: _ENERGY 20 eV
IonPolarity: pos
Date: 2010-10-09 19:48:36+02:00
Num Peaks: 12
143 35 144 22 171 69 173 5 174 487 175 29 201 999 202 17 216 63 286 14 
301 317 302 16 
