Name: 1-ISOPROPYL-1-METHYLHYDRAZINE
MW: 88
Formula: C4H12N2
Synonym: MassBank: JP000379
Synonym: 1-ISOPROPYL-1-METHYLHYDRAZINE
Structure: 310A31360A312D49534F50524F50594C2D312D4D455448594C48594452415A494E452E6D6F6C0A20204368656D447261773131313930393135353632440A2020362020352020302020302020302020302020302020302020302020303939392056323030300A20202020302E3230363220202020302E3335373220202020302E30303030204E202020302020302020302020302020302020302020302020302020302020302020302020300A20202020312E3033313320202020302E3335373220202020302E30303030204E202020302020302020302020302020302020302020302020302020302020302020302020300A2020202D302E3230363320202020312E3037313720202020302E303030302043202020302020302020302020302020302020302020302020302020302020302020302020300A2020202D302E323036332020202D302E3335373220202020302E303030302043202020302020302020302020302020302020302020302020302020302020302020302020300A20202020302E323036322020202D312E3037313720202020302E303030302043202020302020302020302020302020302020302020302020302020302020302020302020300A2020202D312E303331332020202D302E3335373220202020302E303030302043202020302020302020302020302020302020302020302020302020302020302020302020300A2020312020322020312020302020202020200A2020312020332020312020302020202020200A2020342020352020312020302020202020200A2020342020362020312020302020202020200A2020312020342020312020302020202020200A4D2020454E44
Contributor: SASAKI S, TOYOHASHI UNIV. OF TECH.
InstType: EI
InstName: SHIMADZU LKB-2091
IoniMethod: _ENERGY 70 eV
IonPolarity: pos
Date: 2010-10-09 19:48:36+02:00
Num Peaks: 29
26 15 27 123 28 260 29 12 30 119 31 115 38 10 39 8 40 18 41 137 
42 151 43 16 44 151 45 411 46 164 54 2 55 19 56 384 57 55 58 3 
59 21 70 27 71 9 72 2 73 999 74 51 87 14 88 48 89 47 
