Name: CYCLODODECANONE
MW: 182
Formula: C12H22O
Synonym: MassBank: JP001548
Synonym: CYCLODODECANONE
Structure: 4359434C4F444F444543414E4F4E452E6D6F6C0A20204368656D447261773039313531303035323532440A2031332031332020302020302020302020302020302020302020302020303939392056323030300A2020202D312E313831332020202D302E3030303020202020302E303030302043202020302020302020302020302020302020302020302020302020302020302020302020300A2020202D302E3936373820202020302E3739363920202020302E303030302043202020302020302020302020302020302020302020302020302020302020302020302020300A2020202D302E3338343420202020312E3338303320202020302E303030302043202020302020302020302020302020302020302020302020302020302020302020302020300A20202020302E3431323520202020312E3539333820202020302E303030302043202020302020302020302020302020302020302020302020302020302020302020302020300A20202020312E3230393420202020312E3338303320202020302E303030302043202020302020302020302020302020302020302020302020302020302020302020302020300A20202020312E3739323820202020302E3739363920202020302E303030302043202020302020302020302020302020302020302020302020302020302020302020302020300A20202020322E3030363320202020302E3030303020202020302E303030302043202020302020302020302020302020302020302020302020302020302020302020302020300A20202020312E373932382020202D302E3739363920202020302E303030302043202020302020302020302020302020302020302020302020302020302020302020302020300A20202020312E323039342020202D312E3338303320202020302E303030302043202020302020302020302020302020302020302020302020302020302020302020302020300A20202020302E343132352020202D312E3539333820202020302E303030302043202020302020302020302020302020302020302020302020302020302020302020302020300A2020202D302E333834342020202D312E3338303320202020302E303030302043202020302020302020302020302020302020302020302020302020302020302020302020300A2020202D302E393637382020202D302E3739363920202020302E303030302043202020302020302020302020302020302020302020302020302020302020302020302020300A2020202D322E303036332020202D302E3030303020202020302E30303030204F202020302020302020302020302020302020302020302020302020302020302020302020300A2020312020322020312020302020202020200A2020322020332020312020302020202020200A2020332020342020312020302020202020200A2020342020352020312020302020202020200A2020352020362020312020302020202020200A2020362020372020312020302020202020200A2020372020382020312020302020202020200A2020382020392020312020302020202020200A2020392031302020312020302020202020200A2031302031312020312020302020202020200A2031312031322020312020302020202020200A2020312031322020312020302020202020200A2020312031332020322020302020202020200A4D2020454E44
Contributor: YAMAMOTO M, DEP. CHEMISTRY, FAC. SCIENCE, NARA WOMEN'S UNIV.
InstType: EI
InstName: HITACHI RMU-6M
IoniMethod: _ENERGY 70 eV
IonPolarity: pos
Date: 2010-10-09 19:48:36+02:00
Num Peaks: 78
15 10 26 14 27 301 28 138 29 370 30 11 31 16 39 261 40 60 41 999 
42 317 43 17 44 14 51 13 52 10 53 99 54 143 55 841 56 302 57 149 
58 732 59 233 60 11 65 19 66 26 67 204 68 190 69 341 70 195 71 685 
72 73 77 17 78 16 79 78 80 82 81 194 82 337 83 283 84 235 85 86 
86 31 91 10 93 71 94 60 95 117 96 155 97 246 98 459 99 72 100 49 
107 51 108 58 109 45 110 30 111 315 112 117 113 30 114 45 121 52 122 102 
123 30 124 157 125 193 126 64 127 28 135 62 136 14 138 12 139 120 140 26 
141 11 149 25 153 21 154 19 165 21 167 21 182 311 183 47 
