Name: MassBank: JP007240
CAS: 530-59-6
MW: 224
Formula: C11H12O5
Synonym: MassBank: JP007240
Synonym: 3-(4-HYDROXY-3,5-DIMETHOXYPHENYL)-2-PROPENOIC ACID
Synonym: SINAPIC ACID
Structure: 332D28342D485944524F58592D332C352D44494D4554484F58595048454E594C292D322D50524F50454E4F494320414349442E6D6F6C0A20204368656D447261773032323231303130313132440A2031362031362020302020302020302020302020302020302020302020303939392056323030300A2020202D322E303632352020202D312E3037313720202020302E303030302043202020302020302020302020302020302020302020302020302020302020302020302020300A2020202D312E323337352020202D312E3037313720202020302E303030302043202020302020302020302020302020302020302020302020302020302020302020302020300A2020202D302E383235302020202D302E3335373220202020302E303030302043202020302020302020302020302020302020302020302020302020302020302020302020300A2020202D322E343735302020202D312E3738363220202020302E30303030204F202020302020302020302020302020302020302020302020302020302020302020302020300A2020202D322E343735302020202D302E3335373220202020302E30303030204F202020302020302020302020302020302020302020302020302020302020302020302020300A20202020302E303030302020202D302E3335373220202020302E303030302043202020302020302020302020302020302020302020302020302020302020302020302020300A20202020302E3431323520202020302E3335373220202020302E303030302043202020302020302020302020302020302020302020302020302020302020302020302020300A20202020312E3233373520202020302E3335373220202020302E303030302043202020302020302020302020302020302020302020302020302020302020302020302020300A20202020312E363530302020202D302E3335373220202020302E303030302043202020302020302020302020302020302020302020302020302020302020302020302020300A20202020312E323337352020202D312E3037313720202020302E303030302043202020302020302020302020302020302020302020302020302020302020302020302020300A20202020302E343132352020202D312E3037313720202020302E303030302043202020302020302020302020302020302020302020302020302020302020302020302020300A20202020312E363530302020202D312E3738363220202020302E30303030204F202020302020302020302020302020302020302020302020302020302020302020302020300A20202020322E343735302020202D312E3738363220202020302E303030302043202020302020302020302020302020302020302020302020302020302020302020302020300A20202020312E3635303020202020312E3037313720202020302E30303030204F202020302020302020302020302020302020302020302020302020302020302020302020300A20202020312E3233373520202020312E3738363220202020302E303030302043202020302020302020302020302020302020302020302020302020302020302020302020300A20202020322E343735302020202D302E3335373220202020302E30303030204F202020302020302020302020302020302020302020302020302020302020302020302020300A2020312020322020312020302020202020200A2020322020332020322020302020202020200A2020312020342020322020302020202020200A2020312020352020312020302020202020200A2020362020372020312020302020202020200A2020372020382020322020302020202020200A2020382020392020312020302020202020200A2020392031302020322020302020202020200A2031302031312020312020302020202020200A2020362031312020322020302020202020200A2031322031332020312020302020202020200A2031302031322020312020302020202020200A2031342031352020312020302020202020200A2020382031342020312020302020202020200A2020392031362020312020302020202020200A2020332020362020312020302020202020200A4D2020454E44
Contributor: ENDO K, PHARMACEUTICAL INST., TOHOKU UNIV.
InstType: EI
InstName: HITACHI M-52
IoniMethod: _ENERGY 25 eV
IonPolarity: pos
Date: 2010-10-09 19:48:36+02:00
Num Peaks: 53
39 9 41 34 43 60 44 2 51 9 55 38 57 98 60 2 65 51 67 9 
69 43 70 3 71 47 76 9 77 60 78 1 84 21 85 34 91 60 93 3 
94 13 95 13 96 21 97 4 98 9 105 13 107 9 109 3 110 13 111 26 
125 13 133 13 134 9 135 4 137 55 147 13 149 43 153 1 163 30 165 55 
166 17 177 1 178 17 179 17 180 149 181 6 207 21 209 149 210 13 223 2 
224 999 225 119 226 13 
