Name: INDOLE-2-CARBOXYLIC ACID METHYL ESTER
MW: 175
Formula: C10H9NO2
Synonym: MassBank: JP002635
Synonym: INDOLE-2-CARBOXYLIC ACID METHYL ESTER
Structure: 494E444F4C452D322D434152424F58594C49432041434944204D455448594C2045535445522E6D6F6C0A20204368656D447261773038313131303230353132440A2031332031342020302020302020302020302020302020302020302020303939392056323030300A20202020302E3234353620202020302E3336353520202020302E30303030204E202020302020302020302020302020302020302020302020302020302020302020302020300A20202020302E373330352020202D302E3330323020202020302E303030302043202020302020302020302020302020302020302020302020302020302020302020302020300A20202020302E323435362020202D302E3936393420202020302E303030302043202020302020302020302020302020302020302020302020302020302020302020302020300A2020202D302E353339312020202D302E3731343520202020302E303030302043202020302020302020302020302020302020302020302020302020302020302020302020300A2020202D312E323533352020202D312E3132373020202020302E303030302043202020302020302020302020302020302020302020302020302020302020302020302020300A2020202D312E393638302020202D302E3731343520202020302E303030302043202020302020302020302020302020302020302020302020302020302020302020302020300A2020202D312E3936383020202020302E3131303520202020302E303030302043202020302020302020302020302020302020302020302020302020302020302020302020300A2020202D312E3235333520202020302E3532333020202020302E303030302043202020302020302020302020302020302020302020302020302020302020302020302020300A2020202D302E3533393120202020302E3131303520202020302E303030302043202020302020302020302020302020302020302020302020302020302020302020302020300A20202020312E353535352020202D302E3330323020202020302E303030302043202020302020302020302020302020302020302020302020302020302020302020302020300A20202020312E393638302020202D312E3031363420202020302E30303030204F202020302020302020302020302020302020302020302020302020302020302020302020300A20202020312E3936383020202020302E3431323520202020302E30303030204F202020302020302020302020302020302020302020302020302020302020302020302020300A20202020312E3535353520202020312E3132373020202020302E303030302043202020302020302020302020302020302020302020302020302020302020302020302020300A2020312020322020312020302020202020200A2020322020332020322020302020202020200A2020332020342020312020302020202020200A2020342020352020312020302020202020200A2020352020362020322020302020202020200A2020362020372020312020302020202020200A2020372020382020322020302020202020200A2020382020392020312020302020202020200A2020312020392020312020302020202020200A2020342020392020322020302020202020200A2031302031312020322020302020202020200A2031302031322020312020302020202020200A2020322031302020312020302020202020200A2031322031332020312020302020202020200A4D2020454E44
Contributor: KOGA M, UNIV. OF OCCUPATIONAL AND ENVIRONMENTAL HEALTH
InstType: EI
InstName: JEOL JMS-01-SG
IoniMethod: _ENERGY 70 eV
IonPolarity: pos
Date: 2010-10-09 19:48:36+02:00
Num Peaks: 12
42 23 62 58 63 86 89 18 115 27 116 219 117 31 144 999 145 113 146 31 
175 494 176 43 
