Name: 2-METHYL-2-PROPANOL
MW: 74
Formula: C4H10O
Synonym: MassBank: JP001854
Synonym: 2-METHYL-2-PROPANOL
Synonym: TERT-BUTYL ALCOHOL
Structure: 310A31340A322D4D455448594C2D322D50524F50414E4F4C2E6D6F6C0A20204368656D447261773031323231303033313732440A2020352020342020302020302020302020302020302020302020302020303939392056323030300A20202020302E303030302020202D302E3832353020202020302E303030302043202020302020302020302020302020302020302020302020302020302020302020302020300A20202020302E3030303020202020302E3030303020202020302E303030302043202020302020302020302020302020302020302020302020302020302020302020302020300A2020202D302E3832353020202020302E3030303020202020302E303030302043202020302020302020302020302020302020302020302020302020302020302020302020300A20202020302E3030303020202020302E3832353020202020302E30303030204F202020302020302020302020302020302020302020302020302020302020302020302020300A20202020302E3832353020202020302E3030303020202020302E303030302043202020302020302020302020302020302020302020302020302020302020302020302020300A2020312020322020312020302020202020200A2020322020332020312020302020202020200A2020322020342020312020302020202020200A2020322020352020312020302020202020200A4D2020454E44
Contributor: TAJIMA S, GUNMA COLLEGE OF TECHNOLOGY
InstType: EI
InstName: HITACHI RMU-7M
IoniMethod: _ENERGY 70 eV
IonPolarity: pos
Date: 2010-10-09 19:48:36+02:00
Num Peaks: 14
15 44 27 53 28 55 29 94 31 375 39 54 41 234 42 22 43 92 55 19 
56 23 57 88 59 999 60 31 
