Name: 1-(PARA-NITROPHENYL)HEPTAMETHYLTRISILANE
MW: 311
Formula: C13H25NO2Si3
Synonym: MassBank: JP001977
Synonym: 1-(PARA-NITROPHENYL)HEPTAMETHYLTRISILANE
Structure: 312D28504152412D4E4954524F5048454E594C2948455054414D455448594C54524953494C414E452E6D6F6C0A20204368656D447261773131313730393230303932440A2031392031392020302020302020302020302020302020302020302020303939392056323030300A2020202D302E3832353020202020312E3536373520202020302E303030302053692020302020302020302020302020302020302020302020302020302020302020302020300A20202020302E3030303020202020312E3536373520202020302E303030302053692020302020302020302020302020302020302020302020302020302020302020302020300A20202020302E3832353020202020312E3536373520202020302E303030302053692020302020302020302020302020302020302020302020302020302020302020302020300A2020202D302E3832353020202020302E3439353020202020302E303030302043202020302020302020302020302020302020302020302020302020302020302020302020300A2020202D302E3131303520202020302E3038323520202020302E303030302043202020302020302020302020302020302020302020302020302020302020302020302020300A2020202D302E313130352020202D302E3734323520202020302E303030302043202020302020302020302020302020302020302020302020302020302020302020302020300A2020202D302E383235302020202D312E3135353020202020302E303030302043202020302020302020302020302020302020302020302020302020302020302020302020300A2020202D312E353339352020202D302E3734323520202020302E303030302043202020302020302020302020302020302020302020302020302020302020302020302020300A2020202D312E3533393520202020302E3038323520202020302E303030302043202020302020302020302020302020302020302020302020302020302020302020302020300A2020202D302E383235302020202D312E3938303020202020302E30303030204E202020302020332020302020302020302020302020302020302020302020302020302020300A2020202D302E313130352020202D322E3339323520202020302E30303030204F202020302020302020302020302020302020302020302020302020302020302020302020300A2020202D312E353339352020202D322E3339323520202020302E30303030204F202020302020352020302020302020302020302020302020302020302020302020302020300A2020202D302E3832353020202020322E3339323520202020302E303030302043202020302020302020302020302020302020302020302020302020302020302020302020300A2020202D312E3635303020202020312E3536373520202020302E303030302043202020302020302020302020302020302020302020302020302020302020302020302020300A20202020302E3030303020202020322E3339323520202020302E303030302043202020302020302020302020302020302020302020302020302020302020302020302020300A20202020302E3030303020202020302E3734323520202020302E303030302043202020302020302020302020302020302020302020302020302020302020302020302020300A20202020302E3832353020202020302E3734323520202020302E303030302043202020302020302020302020302020302020302020302020302020302020302020302020300A20202020312E3635303020202020312E3536373520202020302E303030302043202020302020302020302020302020302020302020302020302020302020302020302020300A20202020302E3832353020202020322E3339323520202020302E303030302043202020302020302020302020302020302020302020302020302020302020302020302020300A2020312020322020312020302020202020200A2020322020332020312020302020202020200A2020342020352020312020302020202020200A2020352020362020322020302020202020200A2020362020372020312020302020202020200A2020372020382020322020302020202020200A2020382020392020312020302020202020200A2020342020392020322020302020202020200A2031302031312020322020302020202020200A2031302031322020312020302020202020200A2020372031302020312020302020202020200A2020312020342020312020302020202020200A2020312031332020312020302020202020200A2020312031342020312020302020202020200A2020322031352020312020302020202020200A2020322031362020312020302020202020200A2020332031372020312020302020202020200A2020332031382020312020302020202020200A2020332031392020312020302020202020200A4D202043484720203220203130202020312020313220202D310A4D2020454E44
Contributor: MASS SPECTROSCOPY SOC. OF JAPAN (MSSJ)
InstType: EI
InstName: JEOL JMS-D-3000
IoniMethod: _ENERGY 70 eV
IonPolarity: pos
Date: 2010-10-09 19:48:36+02:00
Num Peaks: 26
40 75 56 57 73 999 74 88 75 47 117 43 119 92 131 383 132 68 133 96 
134 193 135 46 147 116 148 49 162 45 164 110 177 48 180 75 192 41 193 108 
222 59 223 59 238 81 296 44 311 140 312 44 
