Name: N-ACETYL-ALANINE METHYLESTER
MW: 145
Formula: C6H11NO3
Synonym: MassBank: JP000087
Synonym: N-ACETYL-ALANINE METHYLESTER
Structure: 303033355F4E2D41434554594C2D414C414E494E45204D455448594C45535445522E6D6F6C0A20204368656D447261773039303331303137303032440A2031312031302020302020302020302020302020302020302020302020303939392056323030300A2020202D312E3037313720202020302E3230363220202020302E303030302043202020302020302020302020302020302020302020302020302020302020302020302020300A20202020302E3335373220202020302E3230363320202020302E30303030204E202020302020302020302020302020302020302020302020302020302020302020302020300A2020202D302E333537322020202D302E3230363220202020302E303030302043202020302020302020302020302020302020302020302020302020302020302020302020300A2020202D302E333537322020202D312E3033313320202020302E303030302048202020302020302020302020302020302020302020302020302020302020302020302020300A2020202D312E3037313720202020312E3033313320202020302E30303030204F202020302020302020302020302020302020302020302020302020302020302020302020300A2020202D312E373836312020202D302E3230363220202020302E30303030204F202020302020302020302020302020302020302020302020302020302020302020302020300A20202020312E303731372020202D302E3230363220202020302E303030302043202020302020302020302020302020302020302020302020302020302020302020302020300A20202020312E303731372020202D312E3033313220202020302E30303030204F202020302020302020302020302020302020302020302020302020302020302020302020300A20202020312E3738363120202020302E3230363320202020302E303030302043202020302020302020302020302020302020302020302020302020302020302020302020300A2020202D312E373836312020202D312E3033313320202020302E303030302043202020302020302020302020302020302020302020302020302020302020302020302020300A20202020302E323738302020202D302E3733323720202020302E303030302043202020302020302020302020302020302020302020302020302020302020302020302020300A2020332020322020312020312020202020200A2020312020332020312020302020202020200A2020332020342020312020312020202020200A2020312020352020322020302020202020200A2020312020362020312020302020202020200A2020372020382020322020302020202020200A2020372020392020312020302020202020200A2020322020372020312020302020202020200A2020362031302020312020302020202020200A2020332031312020312020302020202020200A4D2020454E44
Contributor: YAMAMOTO M, DEP. CHEMISTRY, FAC. SCIENCE, NARA WOMEN'S UNIV.
InstType: EI
InstName: HITACHI RMU-6M
IoniMethod: _ENERGY 70 eV
IonPolarity: pos
Date: 2010-10-09 19:48:36+02:00
Num Peaks: 22
14 15 15 263 26 13 27 4 28 102 29 23 30 11 31 2 33 17 41 19 
42 112 43 29 44 999 45 23 55 12 59 2 70 12 86 112 87 16 88 4 
102 14 145 28 
