Name: TRIETHYLENE GLYCOL DIMETHYL ETHER
MW: 178
Formula: C8H18O4
Synonym: MassBank: JP006073
Synonym: TRIETHYLENE GLYCOL DIMETHYL ETHER
Structure: 545249455448594C454E4520474C59434F4C2044494D455448594C2045544845522E6D6F6C0A20204368656D447261773038313231303038333332440A2031322031312020302020302020302020302020302020302020302020303939392056323030300A20202020322E3530303620202020302E3230363320202020302E303030302043202020302020302020302020302020302020302020302020302020302020302020302020300A20202020312E373836322020202D302E3230363320202020302E303030302043202020302020302020302020302020302020302020302020302020302020302020302020300A20202020332E323135312020202D302E3230363220202020302E30303030204F202020302020302020302020302020302020302020302020302020302020302020302020300A20202020312E3037313720202020302E3230363320202020302E30303030204F202020302020302020302020302020302020302020302020302020302020302020302020300A20202020302E333537322020202D302E3230363220202020302E303030302043202020302020302020302020302020302020302020302020302020302020302020302020300A2020202D302E3335373220202020302E3230363320202020302E303030302043202020302020302020302020302020302020302020302020302020302020302020302020300A2020202D312E303731372020202D302E3230363220202020302E30303030204F202020302020302020302020302020302020302020302020302020302020302020302020300A2020202D312E3738363220202020302E3230363220202020302E303030302043202020302020302020302020302020302020302020302020302020302020302020302020300A2020202D322E353030362020202D302E3230363320202020302E303030302043202020302020302020302020302020302020302020302020302020302020302020302020300A2020202D332E3231353120202020302E3230363220202020302E30303030204F202020302020302020302020302020302020302020302020302020302020302020302020300A20202020332E3932393620202020302E3230363320202020302E303030302043202020302020302020302020302020302020302020302020302020302020302020302020300A2020202D332E393239362020202D302E3230363320202020302E303030302043202020302020302020302020302020302020302020302020302020302020302020302020300A2020312020322020312020302020202020200A2020312020332020312020302020202020200A2020322020342020312020302020202020200A2020352020362020312020302020202020200A2020362020372020312020302020202020200A2020342020352020312020302020202020200A2020382020392020312020302020202020200A2020392031302020312020302020202020200A2020372020382020312020302020202020200A2020332031312020312020302020202020200A2031302031322020312020302020202020200A4D2020454E44
Contributor: HASHIMOTO K, KYOTO COLLEGE OF PHARMACY
InstType: EI
InstName: HITACHI M-80
IoniMethod: _ENERGY 20 eV
IonPolarity: pos
Date: 2010-10-09 19:48:36+02:00
Num Peaks: 19
29 19 31 25 43 10 45 56 58 382 59 999 60 36 73 11 87 106 88 17 
89 138 90 10 101 15 102 50 103 200 104 12 119 10 133 84 178 2 
