Name: MassBank: JP004510
MW: 406
Formula: C17H26O11
Synonym: MassBank: JP004510
Synonym: 1,3,4,5,6-PENTA-O-ACETYL-2-O-METHYLHEXITOL(1-D)
Synonym: 1,3,4,5,6-PENTACETOXY-2-METHOXYHEXANE (1-D)
Structure: 312C332C342C352C362D50454E54412D4F2D41434554594C2D322D4F2D4D455448594C48455849544F4C28312D44292E6D6F6C0A20204368656D447261773131313130393137323532440A2032392032382020302020302020302020302020302020302020302020303939392056323030300A20202020302E393933362020202D312E3837353020202020302E303030302043202020302020302020302020302020302020302020302020302020302020302020302020300A20202020302E313638362020202D312E3837353020202020302E303030302043202020302020302020302020302020302020302020302020302020302020302020302020300A2020202D302E323433392020202D312E3136303620202020302E303030302043202020302020302020302020302020302020302020302020302020302020302020302020300A20202020302E323932332020202D302E3233313820202020302E303030302043202020302020302020302020302020302020302020302020302020302020302020302020300A20202020302E3031303220202020302E3534333520202020302E303030302043202020302020302020302020302020302020302020302020302020302020302020302020300A20202020302E3539333520202020312E3132363820202020302E303030302043202020302020302020302020302020302020302020302020302020302020302020302020300A20202020312E343036312020202D322E3538393520202020302E303030302048202020312020302020302020302020302020302020302020302020302020302020302020300A2020202D302E323433392020202D322E3538393520202020302E30303030204F202020302020302020302020302020302020302020302020302020302020302020302020300A20202020302E313638362020202D332E3330343020202020302E303030302043202020302020302020302020302020302020302020302020302020302020302020302020300A20202020302E3338303020202020312E3932333720202020302E30303030204F202020302020302020302020302020302020302020302020302020302020302020302020300A20202020302E3936333420202020322E3530373120202020302E303030302043202020302020302020302020302020302020302020302020302020302020302020302020300A20202020302E3734393920202020332E3330343020202020302E30303030204F202020302020302020302020302020302020302020302020302020302020302020302020300A20202020312E3736303320202020322E3239333620202020302E303030302043202020302020302020302020302020302020302020302020302020302020302020302020300A2020202D302E3736353120202020302E3832353720202020302E30303030204F202020302020302020302020302020302020302020302020302020302020302020302020300A2020202D302E3930383320202020312E3633383120202020302E303030302043202020302020302020302020302020302020302020302020302020302020302020302020300A2020202D312E3638333620202020312E3932303320202020302E30303030204F202020302020302020302020302020302020302020302020302020302020302020302020300A2020202D302E3237363320202020322E3136383420202020302E303030302043202020302020302020302020302020302020302020302020302020302020302020302020300A20202020312E313134322020202D302E3330333720202020302E30303030204F202020302020302020302020302020302020302020302020302020302020302020302020300A20202020312E3538373420202020302E3337323120202020302E303030302043202020302020302020302020302020302020302020302020302020302020302020302020300A20202020312E3233383720202020312E3131393820202020302E30303030204F202020302020302020302020302020302020302020302020302020302020302020302020300A20202020322E3430393320202020302E3330303220202020302E303030302043202020302020302020302020302020302020302020302020302020302020302020302020300A2020202D312E333136342020202D312E3136303620202020302E30303030204F202020302020302020302020302020302020302020302020302020302020302020302020300A2020202D312E383436372020202D302E3532383620202020302E303030302043202020302020302020302020302020302020302020302020302020302020302020302020300A2020202D322E363433362020202D302E3734323120202020302E30303030204F202020302020302020302020302020302020302020302020302020302020302020302020300A2020202D312E3730333420202020302E3238333920202020302E303030302043202020302020302020302020302020302020302020302020302020302020302020302020300A20202020312E343036312020202D312E3136303620202020302E30303030204F202020302020302020302020302020302020302020302020302020302020302020302020300A20202020322E323331312020202D312E3136303620202020302E303030302043202020302020302020302020302020302020302020302020302020302020302020302020300A20202020322E363433362020202D302E3434363120202020302E30303030204F202020302020302020302020302020302020302020302020302020302020302020302020300A20202020322E363433362020202D312E3837353020202020302E303030302043202020302020302020302020302020302020302020302020302020302020302020302020300A2020312020322020312020302020202020200A2020322020332020312020302020202020200A2020332020342020312020302020202020200A2020342020352020312020302020202020200A2020352020362020312020302020202020200A2020312020372020312020302020202020200A2020382020392020312020302020202020200A2020322020382020312020302020202020200A2031312031322020322020302020202020200A2031312031332020312020302020202020200A2031302031312020312020302020202020200A2020362031302020312020302020202020200A2031352031362020322020302020202020200A2031352031372020312020302020202020200A2031342031352020312020302020202020200A2020352031342020312020302020202020200A2031392032302020322020302020202020200A2031392032312020312020302020202020200A2031382031392020312020302020202020200A2020342031382020312020302020202020200A2032332032342020322020302020202020200A2032332032352020312020302020202020200A2032322032332020312020302020202020200A2020332032322020312020302020202020200A2032372032382020322020302020202020200A2032372032392020312020302020202020200A2032362032372020312020302020202020200A2020312032362020312020302020202020200A4D202049534F20203120202037202020320A4D2020454E44
Contributor: SEYAMA Y, DEPT. OF PHYSIOL. CHEMISTRY AND NUTRITION, FAC. OF MEDICINE, UNIV. OF TOKYO
InstType: EI
InstName: SHIMADZU LKB-9000B
IoniMethod: _ENERGY 70 eV
IonPolarity: pos
Date: 2010-10-09 19:48:36+02:00
Num Peaks: 47
43 801 44 19 45 19 59 5 61 11 69 10 73 12 74 2 85 28 86 14 
87 53 88 2 97 93 98 15 100 14 101 1 103 30 112 14 113 11 115 5 
116 12 117 26 118 999 119 6 120 10 126 11 127 11 128 2 129 97 130 23 
139 200 140 3 145 25 148 11 154 12 157 3 160 49 161 22 171 31 172 1 
187 13 189 15 202 18 231 1 259 48 333 61 334 11 
