Name: 3-(2-(METHOXY(ARBONYL)ETHYL)-2-CYCLOPENTEN-1-ONE
MW: 168
Formula: C9H12O3
Synonym: MassBank: JP000742
Synonym: 3-(2-(METHOXY(ARBONYL)ETHYL)-2-CYCLOPENTEN-1-ONE
Structure: 332D28322D284D4554484F5859284152424F4E594C29455448594C292D322D4359434C4F50454E54454E2D312D4F4E452E6D6F6C0A20204368656D447261773032323231303039333432440A2031322031322020302020302020302020302020302020302020302020303939392056323030300A2020202D312E373330322020202D302E3337323120202020302E303030302043202020302020302020302020302020302020302020302020302020302020302020302020300A2020202D312E373330322020202D312E3139373120202020302E303030302043202020302020302020302020302020302020302020302020302020302020302020302020300A2020202D302E393435362020202D312E3435323120202020302E303030302043202020302020302020302020302020302020302020302020302020302020302020302020300A2020202D302E343630372020202D302E3738343620202020302E303030302043202020302020302020302020302020302020302020302020302020302020302020302020300A2020202D302E393435362020202D302E3131373220202020302E303030302043202020302020302020302020302020302020302020302020302020302020302020302020300A2020202D302E3639303720202020302E3636373420202020302E303030302043202020302020302020302020302020302020302020302020302020302020302020302020300A2020202D302E363930372020202D322E3233363720202020302E30303030204F202020302020302020302020302020302020302020302020302020302020302020302020300A20202020302E3131363320202020302E3833393020202020302E303030302043202020302020302020302020302020302020302020302020302020302020302020302020300A20202020302E3337313220202020312E3632333620202020302E303030302043202020302020302020302020302020302020302020302020302020302020302020302020300A20202020312E3137383220202020312E3739353120202020302E30303030204F202020302020302020302020302020302020302020302020302020302020302020302020300A2020202D302E3138303820202020322E3233363720202020302E30303030204F202020302020302020302020302020302020302020302020302020302020302020302020300A20202020312E3733303220202020312E3138323020202020302E303030302043202020302020302020302020302020302020302020302020302020302020302020302020300A2020312020322020312020302020202020200A2020322020332020312020302020202020200A2020332020342020312020302020202020200A2020342020352020322020302020202020200A2020352020312020312020302020202020200A2020352020362020312020302020202020200A2020332020372020322020302020202020200A2020362020382020312020302020202020200A2020382020392020312020302020202020200A2020392031302020312020302020202020200A2020392031312020322020302020202020200A2031302031322020312020302020202020200A4D2020454E44
Contributor: NAKAYAMA M, MASS SPECTROSCOPY SOC. OF JAPAN (MSSJ)
InstType: EI
InstName: HITACHI RMS-4
IoniMethod: _ENERGY 70 eV
IonPolarity: pos
Date: 2010-10-09 19:48:36+02:00
Num Peaks: 66
39 340 40 80 41 330 42 6 43 170 44 20 45 80 50 7 51 150 52 170 
53 480 54 7 55 180 56 30 57 30 58 3 59 180 60 20 61 20 62 2 
63 30 64 20 65 110 66 15 67 250 68 60 69 60 71 3 74 40 75 20 
77 90 78 4 79 300 80 300 81 999 82 10 83 70 84 30 85 20 87 3 
91 30 92 10 93 30 94 15 95 180 96 30 97 80 98 18 99 50 107 70 
108 270 109 38 110 60 111 40 112 30 123 3 125 100 126 20 136 150 137 17 
138 30 139 30 140 180 141 3 168 520 169 50 
