Name: (E)-2-1-(4-METHYLPHENYL)-3-(1-PYRROLIDINYL)-1-PROPENYL-PYRIDINE
MW: 278
Formula: C19H22N2
Synonym: MassBank: JP003069
Synonym: (E)-2-1-(4-METHYLPHENYL)-3-(1-PYRROLIDINYL)-1-PROPENYL-PYRIDINE
Structure: 2845292D322D312D28342D4D455448594C5048454E594C292D332D28312D505952524F4C4944494E594C292D312D50524F50454E594C2D5059524944494E452E6D6F6C0A20204368656D447261773130323230393132353932440A2032322032342020302020302020302020302020302020302020302020303939392056323030300A20202020302E333537322020202D302E3834313020202020302E303030302043202020302020302020302020302020302020302020302020302020302020302020302020300A20202020302E333537322020202D302E3031363020202020302E303030302043202020302020302020302020302020302020302020302020302020302020302020302020300A20202020312E303731372020202D312E3235333520202020302E303030302043202020302020302020302020302020302020302020302020302020302020302020302020300A2020202D302E333537322020202D312E3235333520202020302E303030302043202020302020302020302020302020302020302020302020302020302020302020302020300A2020202D302E3335373220202020302E3339363520202020302E303030302043202020302020302020302020302020302020302020302020302020302020302020302020300A20202020312E3037313720202020302E3339363520202020302E303030302048202020302020302020302020302020302020302020302020302020302020302020302020300A2020202D302E3335373220202020312E3232313520202020302E30303030204E202020302020302020302020302020302020302020302020302020302020302020302020300A2020202D312E303731372020202D302E3834313020202020302E303030302043202020302020302020302020302020302020302020302020302020302020302020302020300A2020202D312E373836322020202D312E3235333520202020302E303030302043202020302020302020302020302020302020302020302020302020302020302020302020300A2020202D312E373836322020202D322E3037383520202020302E303030302043202020302020302020302020302020302020302020302020302020302020302020302020300A2020202D312E303731372020202D322E3439313020202020302E303030302043202020302020302020302020302020302020302020302020302020302020302020302020300A2020202D302E333537322020202D322E3037383520202020302E303030302043202020302020302020302020302020302020302020302020302020302020302020302020300A20202020312E303731372020202D322E3037383520202020302E303030302043202020302020302020302020302020302020302020302020302020302020302020302020300A20202020312E373836322020202D322E3439313020202020302E303030302043202020302020302020302020302020302020302020302020302020302020302020302020300A20202020322E353030362020202D322E3037383520202020302E303030302043202020302020302020302020302020302020302020302020302020302020302020302020300A20202020322E353030362020202D312E3235333520202020302E303030302043202020302020302020302020302020302020302020302020302020302020302020302020300A20202020312E373836322020202D302E3834313020202020302E30303030204E202020302020302020302020302020302020302020302020302020302020302020302020300A20202020302E3331303220202020312E3730363420202020302E303030302043202020302020302020302020302020302020302020302020302020302020302020302020300A20202020302E3035353320202020322E3439313020202020302E303030302043202020302020302020302020302020302020302020302020302020302020302020302020300A2020202D302E3736393720202020322E3439313020202020302E303030302043202020302020302020302020302020302020302020302020302020302020302020302020300A2020202D312E3032343720202020312E3730363420202020302E303030302043202020302020302020302020302020302020302020302020302020302020302020302020300A2020202D322E353030362020202D322E3439313020202020302E303030302043202020302020302020302020302020302020302020302020302020302020302020302020300A2020312020322020322020302020202020200A2020312020332020312020302020202020200A2020312020342020312020302020202020200A2020322020352020312020302020202020200A2020322020362020312020302020202020200A2020352020372020312020302020202020200A2020342020382020322020302020202020200A2020382020392020312020302020202020200A2020392031302020322020302020202020200A2031302031312020312020302020202020200A2031312031322020322020302020202020200A2031322020342020312020302020202020200A2020332031332020322020302020202020200A2031332031342020312020302020202020200A2031342031352020322020302020202020200A2031352031362020312020302020202020200A2031362031372020322020302020202020200A2031372020332020312020302020202020200A2020372031382020312020302020202020200A2031382031392020312020302020202020200A2031392032302020312020302020202020200A2032302032312020312020302020202020200A2032312020372020312020302020202020200A2031302032322020312020302020202020200A4D2020454E44
Contributor: SASAKI S, TOYOHASHI UNIV. OF TECH.
InstType: EI
InstName: Unknown
IoniMethod: EI
IonPolarity: pos
Date: 2010-10-09 19:48:36+02:00
Num Peaks: 173
38 31 39 7 40 48 41 9 42 19 43 3 50 3 51 4 52 19 53 19 
54 74 55 2 56 5 57 5 61 7 62 2 63 8 64 29 65 9 66 1 
67 13 68 12 69 38 70 0 73 1 74 9 75 10 76 1 77 29 78 64 
79 29 80 2 81 5 82 19 83 69 84 18 85 13 86 3 87 1 88 1 
89 37 90 19 91 29 92 1 93 60 94 15 95 3 96 15 97 27 98 1 
101 11 102 3 103 42 104 42 105 33 106 0 107 1 108 1 109 8 110 2 
111 9 114 11 115 53 116 4 117 119 118 74 119 19 120 0 124 13 125 1 
126 9 127 3 128 40 129 32 130 29 131 4 132 13 133 13 134 9 138 2 
139 29 140 12 141 15 142 0 143 10 144 20 145 18 146 0 147 8 151 15 
152 29 153 2 154 17 155 11 156 17 157 2 158 22 159 17 160 7 163 0 
164 12 165 33 166 25 167 6 168 19 169 4 170 10 171 1 172 29 173 56 
174 14 176 1 177 15 178 29 179 29 180 9 181 119 182 69 183 49 184 2 
185 19 186 24 187 19 188 0 189 3 190 29 191 94 192 10 193 224 194 194 
195 34 196 13 197 34 198 14 199 8 200 17 201 34 202 1 203 3 204 5 
205 49 206 174 207 367 208 92 209 999 210 169 211 19 217 0 218 11 219 19 
220 29 221 17 222 54 223 19 224 4 232 0 233 4 234 19 235 29 236 0 
246 4 247 14 248 19 249 2 262 4 263 14 275 7 276 3 277 65 278 585 
279 156 280 3 281 1 
