Name: 5-METHYL-N-NONYL-2-PYRROLIDONE
MW: 225
Formula: C14H27NO
Synonym: MassBank: JP004133
Synonym: 5-METHYL-N-NONYL-2-PYRROLIDONE
Structure: 352D4D455448594C2D4E2D4E4F4E594C2D322D505952524F4C49444F4E452E6D6F6C0A20204368656D447261773034323331303037323332440A2031362031362020302020302020302020302020302020302020302020303939392056323030300A2020202D322E3133313920202020302E3031363020202020302E30303030204E202020302020302020302020302020302020302020302020302020302020302020302020300A2020202D312E343634342020202D302E3436383920202020302E303030302043202020302020302020302020302020302020302020302020302020302020302020302020300A2020202D312E373139342020202D312E3235333520202020302E303030302043202020302020302020302020302020302020302020302020302020302020302020302020300A2020202D322E353434342020202D312E3235333520202020302E303030302043202020302020302020302020302020302020302020302020302020302020302020302020300A2020202D322E373939332020202D302E3436383920202020302E303030302043202020302020302020302020302020302020302020302020302020302020302020302020300A2020202D302E363739382020202D302E3231343020202020302E30303030204F202020302020302020302020302020302020302020302020302020302020302020302020300A2020202D322E3133313920202020302E3834313020202020302E303030302043202020302020302020302020302020302020302020302020302020302020302020302020300A2020202D312E3431373420202020312E3235333520202020302E303030302043202020302020302020302020302020302020302020302020302020302020302020302020300A2020202D302E3730323920202020302E3834313020202020302E303030302043202020302020302020302020302020302020302020302020302020302020302020302020300A20202020302E3031313620202020312E3235333520202020302E303030302043202020302020302020302020302020302020302020302020302020302020302020302020300A20202020302E3732363020202020302E3834313020202020302E303030302043202020302020302020302020302020302020302020302020302020302020302020302020300A20202020312E3434303520202020312E3235333520202020302E303030302043202020302020302020302020302020302020302020302020302020302020302020302020300A20202020322E3135353020202020302E3834313020202020302E303030302043202020302020302020302020302020302020302020302020302020302020302020302020300A20202020322E3836393420202020312E3235333520202020302E303030302043202020302020302020302020302020302020302020302020302020302020302020302020300A20202020332E3538333920202020302E3834313020202020302E303030302043202020302020302020302020302020302020302020302020302020302020302020302020300A2020202D332E353833392020202D302E3231343020202020302E303030302043202020302020302020302020302020302020302020302020302020302020302020302020300A2020312020322020312020302020202020200A2020322020332020312020302020202020200A2020332020342020312020302020202020200A2020342020352020312020302020202020200A2020312020352020312020302020202020200A2020322020362020322020302020202020200A2020372020382020312020302020202020200A2020382020392020312020302020202020200A2020392031302020312020302020202020200A2031302031312020312020302020202020200A2031312031322020312020302020202020200A2031322031332020312020302020202020200A2031332031342020312020302020202020200A2031342031352020312020302020202020200A2020312020372020312020302020202020200A2020352031362020312020302020202020200A4D2020454E44
Contributor: MASS SPECTROSCOPY SOC. OF JAPAN (MSSJ)
InstType: EI
InstName: HITACHI RMU-6E
IoniMethod: _ENERGY 70 eV
IonPolarity: pos
Date: 2010-10-09 19:48:36+02:00
Num Peaks: 77
27 40 28 50 29 90 30 7 39 28 40 6 41 150 42 5 43 84 44 40 
45 4 53 1 54 16 55 170 56 76 57 6 58 14 67 30 68 16 69 3 
70 24 71 24 72 8 73 0 80 4 81 8 82 30 83 11 84 194 85 24 
86 10 94 1 95 4 96 8 97 8 98 14 99 16 100 56 101 4 110 1 
111 8 112 999 113 550 114 4 115 4 124 6 125 2 126 12 127 32 128 4 
138 6 139 0 140 162 141 32 142 8 154 6 155 16 156 38 157 4 168 4 
169 12 170 8 182 28 183 1 184 2 196 40 197 10 198 0 208 10 209 2 
210 170 211 2 212 2 224 12 225 230 226 4 227 4 
