Name: MassBank: JP006600
MW: 112
Formula: C6H8O2
Synonym: MassBank: JP006600
Synonym: 1,2-CYCLOHEXANEDIONE
Structure: 310A32310A312C322D4359434C4F484558414E4544494F4E452E6D6F6C0A20204368656D447261773131303330393232333032440A2020382020382020302020302020302020302020302020302020302020303939392056323030300A2020202D302E3431323520202020302E3335373220202020302E303030302043202020302020302020302020302020302020302020302020302020302020302020302020300A20202020302E3431323520202020302E3335373220202020302E303030302043202020302020302020302020302020302020302020302020302020302020302020302020300A20202020302E383235302020202D302E3335373220202020302E303030302043202020302020302020302020302020302020302020302020302020302020302020302020300A20202020302E343132352020202D312E3037313720202020302E303030302043202020302020302020302020302020302020302020302020302020302020302020302020300A2020202D302E343132352020202D312E3037313720202020302E303030302043202020302020302020302020302020302020302020302020302020302020302020302020300A2020202D302E383235302020202D302E3335373220202020302E303030302043202020302020302020302020302020302020302020302020302020302020302020302020300A2020202D302E3832353020202020312E3037313720202020302E30303030204F202020302020302020302020302020302020302020302020302020302020302020302020300A20202020302E3832353020202020312E3037313720202020302E30303030204F202020302020302020302020302020302020302020302020302020302020302020302020300A2020312020322020312020302020202020200A2020322020332020312020302020202020200A2020332020342020312020302020202020200A2020342020352020312020302020202020200A2020352020362020312020302020202020200A2020312020362020312020302020202020200A2020312020372020322020302020202020200A2020322020382020322020302020202020200A4D2020454E44
Contributor: HISAHIRO HAGIWARA, CHEMICAL RESEARCH INSTITUTE OF NON-AQUEOUSSOLUTIONS TOHOKU UNIV.
InstType: EI
InstName: HITACHI M-80B
IoniMethod: _ENERGY 70 eV
IonPolarity: pos
Date: 2010-10-09 19:48:36+02:00
Num Peaks: 41
14 14 15 58 25 13 26 140 27 615 28 197 29 207 30 13 31 41 32 13 
37 39 38 82 39 432 40 42 41 315 42 284 43 452 44 34 49 20 50 69 
51 70 52 33 53 112 54 37 55 996 56 714 57 118 65 33 66 47 67 23 
69 146 70 385 71 216 81 10 82 13 83 622 84 199 97 22 111 15 112 999 
113 60 
