Name: MassBank: JP002327
MW: 234
Formula: C10H26O2Si2
Synonym: MassBank: JP002327
Synonym: 1,4-BIS(TRIMETHYLSILOXY)BUTANE
Structure: 312C342D424953285452494D455448594C53494C4F585929425554414E452E6D6F6C0A20204368656D447261773131313430393232343432440A2031342031332020302020302020302020302020302020302020302020303939392056323030300A2020202D302E373639372020202D302E3436373820202020302E303030302043202020302020302020302020302020302020302020302020302020302020302020302020300A2020202D302E303535332020202D302E3838303320202020302E303030302043202020302020302020302020302020302020302020302020302020302020302020302020300A20202020302E363539322020202D302E3436373820202020302E303030302043202020302020302020302020302020302020302020302020302020302020302020302020300A20202020312E333733372020202D302E3838303320202020302E303030302043202020302020302020302020302020302020302020302020302020302020302020302020300A20202020322E303838312020202D302E3436373820202020302E30303030204F202020302020302020302020302020302020302020302020302020302020302020302020300A20202020322E3038383120202020302E3335373220202020302E303030302053692020302020302020302020302020302020302020302020302020302020302020302020300A20202020322E3038383120202020312E3138323220202020302E303030302043202020302020302020302020302020302020302020302020302020302020302020302020300A20202020322E3931333120202020302E3335373220202020302E303030302043202020302020302020302020302020302020302020302020302020302020302020302020300A20202020312E3236333120202020302E3335373220202020302E303030302043202020302020302020302020302020302020302020302020302020302020302020302020300A2020202D312E343834322020202D302E3838303320202020302E30303030204F202020302020302020302020302020302020302020302020302020302020302020302020300A2020202D322E313938372020202D302E3436373820202020302E303030302053692020302020302020302020302020302020302020302020302020302020302020302020300A2020202D322E363131322020202D312E3138323220202020302E303030302043202020302020302020302020302020302020302020302020302020302020302020302020300A2020202D322E393133312020202D302E3035353320202020302E303030302043202020302020302020302020302020302020302020302020302020302020302020302020300A2020202D312E3738363220202020302E3234363720202020302E303030302043202020302020302020302020302020302020302020302020302020302020302020302020300A2020312020322020312020302020202020200A2020322020332020312020302020202020200A2020332020342020312020302020202020200A2020352020362020312020302020202020200A2020362020372020312020302020202020200A2020362020382020312020312020202020200A2020362020392020312020312020202020200A2020342020352020312020302020202020200A2031302031312020312020302020202020200A2031312031322020312020302020202020200A2031312031332020312020302020202020200A2031312031342020312020302020202020200A2020312031302020312020302020202020200A4D2020454E44
Contributor: MASS SPECTROSCOPY SOC. OF JAPAN (MSSJ)
InstType: EI
InstName: JEOL JMS-D-3000
IoniMethod: _ENERGY 70 eV
IonPolarity: pos
Date: 2010-10-09 19:48:36+02:00
Num Peaks: 26
45 61 47 29 55 142 59 57 61 25 66 73 72 21 73 487 74 43 75 128 
81 41 100 105 101 39 102 132 112 460 113 53 116 22 131 40 133 51 147 999 
148 161 149 84 177 112 178 22 219 29 234 1 
