Name: BUTYLAMINE
CAS: 109-73-9
MW: 73
Formula: C4H11N
Synonym: MassBank: JP009053
Synonym: BUTYLAMINE
Structure: 310A31340A425554594C414D494E452E6D6F6C0A20204368656D447261773039303631303034323332440A2020352020342020302020302020302020302020302020302020302020303939392056323030300A2020202D312E343238392020202D302E3230363320202020302E30303030204E202020302020302020302020302020302020302020302020302020302020302020302020300A2020202D302E3731343520202020302E3230363320202020302E303030302043202020302020302020302020302020302020302020302020302020302020302020302020300A20202020302E303030302020202D302E3230363320202020302E303030302043202020302020302020302020302020302020302020302020302020302020302020302020300A20202020302E3731343520202020302E3230363320202020302E303030302043202020302020302020302020302020302020302020302020302020302020302020302020300A20202020312E343238392020202D302E3230363220202020302E303030302043202020302020302020302020302020302020302020302020302020302020302020302020300A2020322020332020312020302020202020200A2020332020342020312020302020202020200A2020342020352020312020302020202020200A2020312020322020312020302020202020200A4D2020454E44
Contributor: SODA AROMATIC CO., LTD.
InstType: EI
InstName: HITACHI M-80B
IoniMethod: _ENERGY 70 eV
IonPolarity: pos
Date: 2010-10-09 19:48:36+02:00
Num Peaks: 11
29 28 30 999 31 22 39 37 41 38 42 29 43 16 44 22 55 10 56 14 
73 108 
