Name: TRIPROPYLHYDRAZINE
MW: 158
Formula: C9H22N2
Synonym: MassBank: JP000514
Synonym: TRIPROPYLHYDRAZINE
Structure: 54524950524F50594C48594452415A494E452E6D6F6C0A20204368656D447261773038313231303039313232440A2031312031302020302020302020302020302020302020302020302020303939392056323030300A20202020302E333537322020202D302E3431323520202020302E30303030204E202020302020302020302020302020302020302020302020302020302020302020302020300A20202020302E3335373220202020302E3431323520202020302E30303030204E202020302020302020302020302020302020302020302020302020302020302020302020300A20202020312E303731372020202D302E3832353020202020302E303030302043202020302020302020302020302020302020302020302020302020302020302020302020300A20202020312E373836322020202D302E3431323520202020302E303030302043202020302020302020302020302020302020302020302020302020302020302020302020300A20202020312E3738363220202020302E3431323520202020302E303030302043202020302020302020302020302020302020302020302020302020302020302020302020300A2020202D302E333537322020202D302E3832353020202020302E303030302043202020302020302020302020302020302020302020302020302020302020302020302020300A2020202D312E303731372020202D302E3431323520202020302E303030302043202020302020302020302020302020302020302020302020302020302020302020302020300A2020202D312E373836322020202D302E3832353020202020302E303030302043202020302020302020302020302020302020302020302020302020302020302020302020300A2020202D302E3335373220202020302E3832353020202020302E303030302043202020302020302020302020302020302020302020302020302020302020302020302020300A2020202D312E3037313720202020302E3431323520202020302E303030302043202020302020302020302020302020302020302020302020302020302020302020302020300A2020202D312E3738363220202020302E3832353020202020302E303030302043202020302020302020302020302020302020302020302020302020302020302020302020300A2020312020322020312020302020202020200A2020332020342020312020302020202020200A2020342020352020312020302020202020200A2020312020332020312020302020202020200A2020362020372020312020302020202020200A2020372020382020312020302020202020200A2020312020362020312020302020202020200A2020392031302020312020302020202020200A2031302031312020312020302020202020200A2020322020392020312020302020202020200A4D2020454E44
Contributor: SASAKI S, TOYOHASHI UNIV. OF TECH.
InstType: EI
InstName: SHIMADZU LKB-2091
IoniMethod: _ENERGY 70 eV
IonPolarity: pos
Date: 2010-10-09 19:48:36+02:00
Num Peaks: 40
27 142 28 85 29 46 30 17 31 37 32 26 39 28 40 1 41 186 42 98 
43 278 44 6 45 148 54 10 55 6 56 11 57 67 58 148 59 19 60 4 
70 59 71 15 72 152 73 11 74 9 85 22 86 20 87 33 88 21 98 9 
99 12 100 2 101 19 115 464 116 43 127 1 129 999 130 98 158 390 159 61 
