Name: 4-BROMO-2-(4-FLUOROPHENYL)PYRIMIDINE
MW: 251
Formula: C10H6BrFN2
Synonym: MassBank: JP007899
Synonym: 4-BROMO-2-(4-FLUOROPHENYL)PYRIMIDINE
Structure: 342D42524F4D4F2D322D28342D464C554F524F5048454E594C29505952494D4944494E452E6D6F6C0A20204368656D447261773033323531303038323532440A2031342031352020302020302020302020302020302020302020302020303939392056323030300A2020202D302E3832353020202020302E3335373220202020302E303030302043202020302020302020302020302020302020302020302020302020302020302020302020300A2020202D312E323337352020202D302E3335373220202020302E30303030204E202020302020302020302020302020302020302020302020302020302020302020302020300A2020202D322E303632352020202D302E3335373220202020302E303030302043202020302020302020302020302020302020302020302020302020302020302020302020300A2020202D322E3437353020202020302E3335373220202020302E303030302043202020302020302020302020302020302020302020302020302020302020302020302020300A2020202D322E3036323520202020312E3037313720202020302E303030302043202020302020302020302020302020302020302020302020302020302020302020302020300A2020202D312E3233373520202020312E3037313720202020302E30303030204E202020302020302020302020302020302020302020302020302020302020302020302020300A20202020302E3030303020202020302E3335373220202020302E303030302043202020302020302020302020302020302020302020302020302020302020302020302020300A20202020302E3431323520202020312E3037313720202020302E303030302043202020302020302020302020302020302020302020302020302020302020302020302020300A20202020312E3233373520202020312E3037313720202020302E303030302043202020302020302020302020302020302020302020302020302020302020302020302020300A20202020312E3635303020202020302E3335373220202020302E303030302043202020302020302020302020302020302020302020302020302020302020302020302020300A20202020312E323337352020202D302E3335373220202020302E303030302043202020302020302020302020302020302020302020302020302020302020302020302020300A20202020302E343132352020202D302E3335373220202020302E303030302043202020302020302020302020302020302020302020302020302020302020302020302020300A20202020322E3437353020202020302E3335373220202020302E303030302046202020302020302020302020302020302020302020302020302020302020302020302020300A2020202D322E343735302020202D312E3037313720202020302E303030302042722020302020302020302020302020302020302020302020302020302020302020302020300A2020312020322020312020302020202020200A2020322020332020322020302020202020200A2020332020342020312020302020202020200A2020342020352020322020302020202020200A2020352020362020312020302020202020200A2020312020362020322020302020202020200A2020372020382020312020302020202020200A2020382020392020322020302020202020200A2020392031302020312020302020202020200A2031302031312020322020302020202020200A2031312031322020312020302020202020200A2020372031322020322020302020202020200A2031302031332020312020302020202020200A2020312020372020312020302020202020200A2020332031342020312020302020202020200A4D2020454E44
Contributor: SASAKI S, TOYOHASHI UNIV. OF TECH.
InstType: EI
InstName: MS-902
IoniMethod: _ENERGY 70 eV
IonPolarity: pos
Date: 2010-10-09 19:48:36+02:00
Num Peaks: 39
46 10 50 11 52 38 57 3 61 15 62 18 68 18 73 3 74 25 75 116 
76 11 79 1 80 19 81 11 82 15 86 3 86.5 18 88 10 94 68 95 17 
102 15 112.5 10 121 140 122 20 123 17 126 24 127 15 136 1 146 158 147 11 
173 999 174 11 208 10 210 10 252 425 253 5 254 453 255 52 265 15 
