Name: ISOPROPYL BUTYRATE
MW: 130
Formula: C7H14O2
Synonym: MassBank: JP002546
Synonym: ISOPROPYL BUTYRATE
Structure: 310A32320A49534F50524F50594C2042555459524154452E6D6F6C0A20204368656D447261773131323130393138323432440A2020392020382020302020302020302020302020302020302020302020303939392056323030300A20202020302E303030302020202D302E3230363220202020302E303030302043202020302020302020302020302020302020302020302020302020302020302020302020300A2020202D302E373134352020202D302E3631383820202020302E303030302043202020302020302020302020302020302020302020302020302020302020302020302020300A2020202D312E343238392020202D302E3230363320202020302E303030302043202020302020302020302020302020302020302020302020302020302020302020302020300A2020202D322E313433342020202D302E3631383820202020302E303030302043202020302020302020302020302020302020302020302020302020302020302020302020300A20202020302E3030303020202020302E3631383720202020302E30303030204F202020302020302020302020302020302020302020302020302020302020302020302020300A20202020302E373134352020202D302E3631383820202020302E30303030204F202020302020302020302020302020302020302020302020302020302020302020302020300A20202020312E343238392020202D302E3230363320202020302E303030302043202020302020302020302020302020302020302020302020302020302020302020302020300A20202020312E3432383920202020302E3631383820202020302E303030302043202020302020302020302020302020302020302020302020302020302020302020302020300A20202020322E313433342020202D302E3631383720202020302E303030302043202020302020302020302020302020302020302020302020302020302020302020302020300A2020312020322020312020302020202020200A2020322020332020312020302020202020200A2020332020342020312020302020202020200A2020312020352020322020302020202020200A2020312020362020312020302020202020200A2020372020382020312020302020202020200A2020372020392020312020302020202020200A2020362020372020312020302020202020200A4D2020454E44
Contributor: YAMAMOTO M, DEP. CHEMISTRY, FAC. SCIENCE, NARA WOMEN'S UNIV.
InstType: EI
InstName: HITACHI RMU-6M
IoniMethod: _ENERGY 70 eV
IonPolarity: pos
Date: 2010-10-09 19:48:36+02:00
Num Peaks: 25
15 33 26 12 27 174 28 32 29 19 31 13 39 81 40 14 41 218 42 91 
43 999 44 33 45 33 55 13 59 137 60 143 71 714 72 32 73 64 88 119 
89 279 90 13 102 31 115 68 130 10 
