Name: CYCLOPENTADECANONE
MW: 224
Formula: C15H28O
Synonym: MassBank: JP009211
Synonym: CYCLOPENTADECANONE
Structure: 4359434C4F50454E5441444543414E4F4E452E6D6F6C0A20204368656D447261773039323031303038353932440A2031362031362020302020302020302020302020302020302020302020303939392056323030300A2020202D302E3930333620202020302E3035303920202020302E303030302043202020302020302020302020302020302020302020302020302020302020302020302020300A2020202D302E393033362020202D302E3737343120202020302E303030302043202020302020302020302020302020302020302020302020302020302020302020302020300A2020202D302E313839322020202D312E3138363620202020302E303030302043202020302020302020302020302020302020302020302020302020302020302020302020300A20202020302E353235332020202D302E3737343120202020302E303030302043202020302020302020302020302020302020302020302020302020302020302020302020300A20202020302E3532353320202020302E3035303920202020302E303030302043202020302020302020302020302020302020302020302020302020302020302020302020300A2020202D302E3138393220202020302E3436333420202020302E303030302043202020302020302020302020302020302020302020302020302020302020302020302020300A20202020312E313730332020202D312E3238383420202020302E303030302043202020302020302020302020302020302020302020302020302020302020302020302020300A20202020312E393734362020202D312E3130343920202020302E303030302043202020302020302020302020302020302020302020302020302020302020302020302020300A20202020322E333332362020202D302E3336313620202020302E303030302043202020302020302020302020302020302020302020302020302020302020302020302020300A20202020312E3937343620202020302E3338313720202020302E303030302043202020302020302020302020302020302020302020302020302020302020302020302020300A20202020312E3137303320202020302E3536353320202020302E303030302043202020302020302020302020302020302020302020302020302020302020302020302020300A2020202D312E3631383120202020302E3436333420202020302E303030302043202020302020302020302020302020302020302020302020302020302020302020302020300A2020202D322E3333323620202020302E3035303920202020302E303030302043202020302020302020302020302020302020302020302020302020302020302020302020300A2020202D322E333332362020202D302E3737343120202020302E303030302043202020302020302020302020302020302020302020302020302020302020302020302020300A2020202D312E363138312020202D312E3138363620202020302E303030302043202020302020302020302020302020302020302020302020302020302020302020302020300A2020202D312E3631383120202020312E3238383420202020302E30303030204F202020302020302020302020302020302020302020302020302020302020302020302020300A2020322020332020312020302020202020200A2020332020342020312020302020202020200A2020352020362020312020302020202020200A2020362020312020312020302020202020200A2020342020372020312020302020202020200A2020372020382020312020302020202020200A2020382020392020312020302020202020200A2020392031302020312020302020202020200A2031302031312020312020302020202020200A2031312020352020312020302020202020200A2020312031322020312020302020202020200A2031322031332020312020302020202020200A2031332031342020312020302020202020200A2031342031352020312020302020202020200A2031352020322020312020302020202020200A2031322031362020322020302020202020200A4D2020454E44
Contributor: SODA AROMATIC CO., LTD.
InstType: EI
InstName: HITACHI M-80B
IoniMethod: _ENERGY 70 eV
IonPolarity: pos
Date: 2010-10-09 19:48:36+02:00
Num Peaks: 77
27 170 29 326 39 182 41 999 42 298 43 434 53 71 54 128 55 927 56 223 
57 170 58 677 59 279 65 14 66 18 67 209 68 167 69 331 70 165 71 721 
72 58 77 14 78 10 79 54 80 105 81 196 82 263 83 244 84 174 85 115 
86 14 93 41 94 89 95 143 96 241 97 192 98 214 99 33 100 30 107 33 
108 56 109 56 110 130 111 143 112 39 113 29 114 19 121 60 122 35 123 33 
124 67 125 145 126 17 127 27 128 23 135 63 136 27 137 20 138 30 139 28 
141 13 142 25 149 42 150 20 153 10 156 14 163 24 164 34 166 59 167 18 
169 10 177 13 181 16 206 29 209 12 224 178 225 30 
