Name: MassBank: JP007395
MW: 140
Formula: C10H20
Synonym: MassBank: JP007395
Synonym: PARA-MENTHANE (2,2-D2)
Synonym: 1-METHYL-4-(1-METHYLETHYL)CYCLOHEXANE (2,2-D2)
Structure: 504152412D4D454E5448414E452028322C322D4432292E6D6F6C0A20204368656D447261773131323030393131313332440A2031322031322020302020302020302020302020302020302020302020303939392056323030300A20202020302E323036322020202D302E3330383220202020302E303030302043202020302020302020302020302020302020302020302020302020302020302020302020300A20202020302E3631383720202020302E3430363220202020302E303030302043202020302020302020302020302020302020302020302020302020302020302020302020300A20202020302E3230363220202020312E3132303720202020302E303030302043202020302020302020302020302020302020302020302020302020302020302020302020300A2020202D302E3631383820202020312E3132303720202020302E303030302043202020302020302020302020302020302020302020302020302020302020302020302020300A2020202D312E3033313320202020302E3430363220202020302E303030302043202020302020302020302020302020302020302020302020302020302020302020302020300A2020202D302E363138382020202D302E3330383220202020302E303030302043202020302020302020302020302020302020302020302020302020302020302020302020300A2020202D312E3835363320202020302E3430363220202020302E303030302043202020302020302020302020302020302020302020302020302020302020302020302020300A20202020312E3434333720202020302E3430363220202020302E303030302043202020302020302020302020302020302020302020302020302020302020302020302020300A20202020312E383536332020202D302E3330383220202020302E303030302043202020302020302020302020302020302020302020302020302020302020302020302020300A20202020312E3835363320202020312E3132303720202020302E303030302043202020302020302020302020302020302020302020302020302020302020302020302020300A2020202D312E333934302020202D302E3539303420202020302E303030302048202020312020302020302020302020302020302020302020302020302020302020302020300A2020202D302E343735352020202D312E3132303720202020302E303030302048202020312020302020302020302020302020302020302020302020302020302020302020300A2020312020322020312020302020202020200A2020322020332020312020302020202020200A2020332020342020312020302020202020200A2020342020352020312020302020202020200A2020352020362020312020302020202020200A2020312020362020312020302020202020200A2020352020372020312020302020202020200A2020382020392020312020302020202020200A2020382031302020312020302020202020200A2020322020382020312020302020202020200A2020362031312020312020362020202020200A2020362031322020312020312020202020200A4D202049534F202032202031312020203220203132202020320A4D2020454E44
Contributor: YAMAMOTO M, DEP. CHEMISTRY, FAC. SCIENCE, NARA WOMEN'S UNIV.
InstType: EI
InstName: HITACHI M-80
IoniMethod: _ENERGY 20 eV
IonPolarity: pos
Date: 2010-10-09 19:48:36+02:00
Num Peaks: 25
41 13 42 17 43 44 44 13 55 165 56 389 57 259 58 28 68 18 69 58 
70 88 71 78 72 12 81 17 82 67 83 199 84 43 85 58 97 61 98 652 
99 999 100 126 101 17 142 121 143 18 
