Name: MassBank: JP006368
MW: 376
Formula: C19H21BrO3
Synonym: MassBank: JP006368
Synonym: (4AS,5S)-(+)-1,4ABETA-DIMETHYL-5BETA((P-BROMOBENZOYL)OXY)-4,4A,5,6,7,8-HEXAHYDRONAPHTHALEN-2(3H)-ONE
Structure: 283441532C3553292D282B292D312C3441424554412D44494D455448594C2D35424554412828502D42524F4D4F42454E5A4F594C294F5859292D342C34412C352C362C372C382D48455841485944524F4E4150485448414C454E2D32283348292D4F4E452E6D6F6C0A20204368656D447261773130323130393132333032440A2032342032362020302020302020302020302020302020302020302020303939392056323030300A2020202D312E3432383920202020322E3236383720202020302E303030302043202020302020302020302020302020302020302020302020302020302020302020302020300A2020202D312E3432383920202020312E3434333820202020302E303030302043202020302020302020302020302020302020302020302020302020302020302020302020300A2020202D302E3731343520202020312E3033313320202020302E303030302043202020302020302020302020302020302020302020302020302020302020302020302020300A20202020302E3030303020202020312E3434333820202020302E303030302043202020302020302020302020302020302020302020302020302020302020302020302020300A20202020302E3030303020202020322E3236383720202020302E303030302043202020302020302020302020302020302020302020302020302020302020302020302020300A2020202D302E3731343520202020322E3638313220202020302E303030302043202020302020302020302020302020302020302020302020302020302020302020302020300A20202020302E3731343520202020312E3033313320202020302E303030302043202020302020302020302020302020302020302020302020302020302020302020302020300A20202020312E3432383920202020312E3434333820202020302E303030302043202020302020302020302020302020302020302020302020302020302020302020302020300A20202020312E3432383920202020322E3236383720202020302E303030302043202020302020302020302020302020302020302020302020302020302020302020302020300A20202020302E3731343520202020322E3638313220202020302E303030302043202020302020302020302020302020302020302020302020302020302020302020302020300A20202020322E3134333420202020322E3638313220202020302E30303030204F202020302020302020302020302020302020302020302020302020302020302020302020300A2020202D302E3731343520202020302E3230363220202020302E30303030204F202020302020302020302020302020302020302020302020302020302020302020302020300A2020202D312E3432383920202020302E3631383820202020302E303030302048202020302020302020302020302020302020302020302020302020302020302020302020300A2020202D312E343238392020202D302E3230363220202020302E303030302043202020302020302020302020302020302020302020302020302020302020302020302020300A2020202D312E343238392020202D312E3033313320202020302E303030302043202020302020302020302020302020302020302020302020302020302020302020302020300A2020202D322E3134333420202020302E3230363220202020302E30303030204F202020302020302020302020302020302020302020302020302020302020302020302020300A2020202D322E313433342020202D312E3434333820202020302E303030302043202020302020302020302020302020302020302020302020302020302020302020302020300A2020202D322E313433342020202D322E3236383720202020302E303030302043202020302020302020302020302020302020302020302020302020302020302020302020300A2020202D312E343238392020202D322E3638313220202020302E303030302043202020302020302020302020302020302020302020302020302020302020302020302020300A2020202D302E373134352020202D322E3236383720202020302E303030302043202020302020302020302020302020302020302020302020302020302020302020302020300A2020202D302E373134352020202D312E3434333820202020302E303030302043202020302020302020302020302020302020302020302020302020302020302020302020300A2020202D312E343238392020202D332E3530363320202020302E303030302042722020302020302020302020302020302020302020302020302020302020302020302020300A20202020302E3532303820202020332E3530363320202020302E303030302043202020302020302020302020302020302020302020302020302020302020302020302020300A2020202D302E3030303820202020302E3631383820202020302E303030302043202020302020302020302020302020302020302020302020302020302020302020302020300A2020312020322020312020302020202020200A2020322020332020312020302020202020200A2020332020342020312020302020202020200A2020342020352020312020302020202020200A2020352020362020312020302020202020200A2020362020312020312020302020202020200A2020342020372020312020302020202020200A2020372020382020312020302020202020200A2020382020392020312020302020202020200A2020392031302020312020302020202020200A2031302020352020322020302020202020200A2020392031312020322020302020202020200A2020332031322020312020312020202020200A2020332031332020312020362020202020200A2031322031342020312020302020202020200A2031342031352020312020302020202020200A2031342031362020322020302020202020200A2031352031372020322020302020202020200A2031372031382020312020302020202020200A2031382031392020322020302020202020200A2031392032302020312020302020202020200A2032302032312020322020302020202020200A2032312031352020312020302020202020200A2031392032322020312020302020202020200A2031302032332020312020302020202020200A2020342032342020312020312020202020200A4D202053545920203120202031205355500A4D2020534C4220203120202031202020310A4D202053414C20202031202031202032330A4D202053424C20202031202031202032350A4D2020534D5420202031204D650A4D2020534256202020312032352020202D372E3835383820202020392E333232350A4D202053545920203120202032205355500A4D2020534C4220203120202032202020320A4D202053414C20202032202031202032340A4D202053424C20202032202031202032360A4D2020534D5420202032204D650A4D2020534256202020322032362020202D372E3636353920202020372E363732350A4D2020454E44
Contributor: HISAHIRO HAGIWARA, CHEMICAL RESEARCH INSTITUTE OF NON-AQUEOUSSOLUTIONS TOHOKU UNIV.
InstType: EI
InstName: JEOL JMS-DX-300
IoniMethod: _ENERGY 70 eV
IonPolarity: pos
Date: 2010-10-09 19:48:36+02:00
Num Peaks: 43
27 12 39 18 41 36 50 24 51 11 53 19 55 27 65 13 67 15 75 32 
76 70 77 40 79 34 91 43 93 27 104 54 105 44 107 11 118 111 119 38 
120 10 121 11 132 71 133 38 134 20 147 13 148 17 155 97 156 11 157 100 
158 35 161 24 176 224 177 30 183 999 184 81 185 992 186 79 202 11 376 58 
377 17 378 56 379 15 
