Name: ISOBUTYL LEVULINATE
MW: 172
Formula: C9H16O3
Synonym: MassBank: JP009024
Synonym: ISOBUTYL LEVULINATE
Structure: 49534F425554594C204C4556554C494E4154452E6D6F6C0A20204368656D447261773038313131303231303832440A2031322031312020302020302020302020302020302020302020302020303939392056323030300A2020202D302E3030303020202020302E3230363320202020302E303030302043202020302020302020302020302020302020302020302020302020302020302020302020300A20202020302E373134352020202D302E3230363220202020302E303030302043202020302020302020302020302020302020302020302020302020302020302020302020300A20202020312E3432383920202020302E3230363320202020302E303030302043202020302020302020302020302020302020302020302020302020302020302020302020300A20202020322E313433342020202D302E3230363220202020302E303030302043202020302020302020302020302020302020302020302020302020302020302020302020300A20202020322E313433342020202D312E3033313220202020302E30303030204F202020302020302020302020302020302020302020302020302020302020302020302020300A20202020322E3835373920202020302E3230363320202020302E303030302043202020302020302020302020302020302020302020302020302020302020302020302020300A2020202D302E3030303020202020312E3033313320202020302E30303030204F202020302020302020302020302020302020302020302020302020302020302020302020300A2020202D302E373134352020202D302E3230363220202020302E30303030204F202020302020302020302020302020302020302020302020302020302020302020302020300A2020202D312E3432383920202020302E3230363220202020302E303030302043202020302020302020302020302020302020302020302020302020302020302020302020300A2020202D322E313433342020202D302E3230363220202020302E303030302043202020302020302020302020302020302020302020302020302020302020302020302020300A2020202D322E313433342020202D312E3033313320202020302E303030302043202020302020302020302020302020302020302020302020302020302020302020302020300A2020202D322E3835373920202020302E3230363220202020302E303030302043202020302020302020302020302020302020302020302020302020302020302020302020300A2020312020322020312020302020202020200A2020322020332020312020302020202020200A2020332020342020312020302020202020200A2020342020352020322020302020202020200A2020342020362020312020302020202020200A2020312020372020322020302020202020200A2020312020382020312020302020202020200A2020392031302020312020302020202020200A2031302031312020312020302020202020200A2031302031322020312020302020202020200A2020382020392020312020302020202020200A4D2020454E44
Contributor: SODA AROMATIC CO., LTD.
InstType: EI
InstName: HITACHI M-80B
IoniMethod: _ENERGY 70 eV
IonPolarity: pos
Date: 2010-10-09 19:48:36+02:00
Num Peaks: 26
15 40 26 15 27 137 29 132 31 12 39 90 41 222 42 59 43 874 44 17 
55 67 56 167 57 350 58 24 71 96 72 18 73 31 74 168 75 19 98 31 
99 999 100 63 101 90 117 113 130 33 157 12 
