Name: MassBank: JP009570
MW: 228
Formula: C13H12N2S
Synonym: MassBank: JP009570
Synonym: 1,1-DIPHENYLTHIOUREA
Structure: 312C312D44495048454E594C5448494F555245412E6D6F6C0A20204368656D447261773130323330393131313932440A2031362031372020302020302020302020302020302020302020302020303939392056323030300A20202020302E3030303020202020302E3230363320202020302E30303030204E202020302020302020302020302020302020302020302020302020302020302020302020300A20202020302E3030303020202020312E3033313320202020302E303030302043202020302020302020302020302020302020302020302020302020302020302020302020300A20202020302E3731343520202020312E3434333820202020302E303030302053202020302020302020302020302020302020302020302020302020302020302020302020300A2020202D302E3731343520202020312E3434333820202020302E30303030204E202020302020302020302020302020302020302020302020302020302020302020302020300A20202020302E373134352020202D302E3230363320202020302E303030302043202020302020302020302020302020302020302020302020302020302020302020302020300A20202020312E3432383920202020302E3230363220202020302E303030302043202020302020302020302020302020302020302020302020302020302020302020302020300A20202020322E313433342020202D302E3230363220202020302E303030302043202020302020302020302020302020302020302020302020302020302020302020302020300A20202020322E313433342020202D312E3033313220202020302E303030302043202020302020302020302020302020302020302020302020302020302020302020302020300A20202020312E343238392020202D312E3434333820202020302E303030302043202020302020302020302020302020302020302020302020302020302020302020302020300A20202020302E373134352020202D312E3033313320202020302E303030302043202020302020302020302020302020302020302020302020302020302020302020302020300A2020202D302E373134352020202D302E3230363320202020302E303030302043202020302020302020302020302020302020302020302020302020302020302020302020300A2020202D302E373134352020202D312E3033313220202020302E303030302043202020302020302020302020302020302020302020302020302020302020302020302020300A2020202D312E343238392020202D312E3434333720202020302E303030302043202020302020302020302020302020302020302020302020302020302020302020302020300A2020202D322E313433342020202D312E3033313320202020302E303030302043202020302020302020302020302020302020302020302020302020302020302020302020300A2020202D322E313433342020202D302E3230363320202020302E303030302043202020302020302020302020302020302020302020302020302020302020302020302020300A2020202D312E3432383920202020302E3230363320202020302E303030302043202020302020302020302020302020302020302020302020302020302020302020302020300A2020312020322020312020302020202020200A2020322020332020322020302020202020200A2020322020342020312020302020202020200A2020352020362020312020302020202020200A2020362020372020322020302020202020200A2020372020382020312020302020202020200A2020382020392020322020302020202020200A2020392031302020312020302020202020200A2020352031302020322020302020202020200A2020312020352020312020302020202020200A2031312031322020312020302020202020200A2031322031332020322020302020202020200A2031332031342020312020302020202020200A2031342031352020322020302020202020200A2031352031362020312020302020202020200A2031312031362020322020302020202020200A2020312031312020312020302020202020200A4D2020454E44
Contributor: HAMAMATSU UNIV. SCHOOL OF MEDICINE
InstType: EI
InstName: JEOL JMS-AX-505-H
IoniMethod: _ENERGY 70 eV
IonPolarity: pos
Date: 2010-10-09 19:48:36+02:00
Num Peaks: 78
27 21 28 589 29 14 32 155 38 12 39 76 40 12 41 24 43 30 45 19 
50 46 51 254 52 24 55 29 57 29 60 72 62 10 63 37 64 31 65 77 
66 111 67 17 69 33 70 11 71 16 74 14 75 17 76 27 77 382 78 38 
81 13 82 12 83 29 84 18 85 10 89 15 90 12 91 84 92 22 93 14 
95 11 96 14 97 23 103 19 104 52 109 16 110 52 111 10 114 33 115 40 
116 11 118 122 119 999 120 101 129 12 139 31 140 28 141 32 142 18 143 11 
149 14 151 15 152 15 153 11 154 18 166 79 167 260 168 354 169 347 170 48 
192 18 193 100 194 469 195 82 227 58 228 404 229 72 230 24 
