Name: 5-ETHYL-1-METHYL-5-PHENYL-BARBITURIC ACID
MW: 246
Formula: C13H14N2O3
Synonym: MassBank: JP002794
Synonym: 5-ETHYL-1-METHYL-5-PHENYL-BARBITURIC ACID
Structure: 352D455448594C2D312D4D455448594C2D352D5048454E594C2D4241524249545552494320414349442E6D6F6C0A20204368656D447261773034323331303035313232440A2031382031392020302020302020302020302020302020302020302020303939392056323030300A20202020302E3534343120202020312E3034353620202020302E30303030204E202020302020302020302020302020302020302020302020302020302020302020302020300A20202020312E3336393120202020312E3034353620202020302E303030302043202020302020302020302020302020302020302020302020302020302020302020302020300A20202020312E3738313620202020312E3736303120202020302E30303030204F202020302020302020302020302020302020302020302020302020302020302020302020300A20202020312E3738313620202020302E3333313220202020302E30303030204E202020302020302020302020302020302020302020302020302020302020302020302020300A20202020312E333639312020202D302E3338333320202020302E303030302043202020302020302020302020302020302020302020302020302020302020302020302020300A20202020312E373831362020202D312E3039373820202020302E30303030204F202020302020302020302020302020302020302020302020302020302020302020302020300A20202020302E353434312020202D302E3338333320202020302E303030302043202020302020302020302020302020302020302020302020302020302020302020302020300A20202020302E3133313620202020302E3333313220202020302E303030302043202020302020302020302020302020302020302020302020302020302020302020302020300A2020202D302E3639333420202020302E3333313220202020302E30303030204F202020302020302020302020302020302020302020302020302020302020302020302020300A2020202D302E323331312020202D302E3636353520202020302E303030302043202020302020302020302020302020302020302020302020302020302020302020302020300A2020202D302E333734342020202D312E3437373920202020302E303030302043202020302020302020302020302020302020302020302020302020302020302020302020300A2020202D312E313439362020202D312E3736303120202020302E303030302043202020302020302020302020302020302020302020302020302020302020302020302020300A2020202D312E373831362020202D312E3232393820202020302E303030302043202020302020302020302020302020302020302020302020302020302020302020302020300A2020202D312E363338342020202D302E3431373320202020302E303030302043202020302020302020302020302020302020302020302020302020302020302020302020300A2020202D302E383633312020202D302E3133353220202020302E303030302043202020302020302020302020302020302020302020302020302020302020302020302020300A20202020302E3133313620202020312E3736303120202020302E303030302043202020302020302020302020302020302020302020302020302020302020302020302020300A20202020302E363837342020202D312E3139353820202020302E303030302043202020302020302020302020302020302020302020302020302020302020302020302020300A20202020302E303535342020202D312E3732363120202020302E303030302043202020302020302020302020302020302020302020302020302020302020302020302020300A2020312020322020312020302020202020200A2020322020332020322020302020202020200A2020322020342020312020302020202020200A2020342020352020312020302020202020200A2020352020362020322020302020202020200A2020352020372020312020302020202020200A2020372020382020312020302020202020200A2020382020392020322020302020202020200A2020312020382020312020302020202020200A2031302031312020312020302020202020200A2031312031322020322020302020202020200A2031322031332020312020302020202020200A2031332031342020322020302020202020200A2031342031352020312020302020202020200A2031302031352020322020302020202020200A2020372031302020312020302020202020200A2020312031362020312020302020202020200A2031372031382020312020302020202020200A2020372031372020312020302020202020200A4D2020454E44
Contributor: SASAKI S, TOYOHASHI UNIV. OF TECH.
InstType: EI
InstName: Unknown
IoniMethod: EI
IonPolarity: pos
Date: 2010-10-09 19:48:36+02:00
Num Peaks: 135
25 4 26 29 27 96 28 13 29 56 30 18 31 9 32 1 37 8 38 16 
39 98 40 2 41 28 42 18 43 16 44 2 49 4 50 32 51 96 52 3 
53 13 54 7 55 10 56 2 57 26 58 48 59 6 60 0 61 7 62 19 
63 53 64 2 65 34 66 9 67 5 68 0 69 4 70 13 72 2 73 0 
74 9 75 14 76 19 77 9 78 39 79 9 80 2 83 0 84 2 85 4 
86 8 87 1 88 54 89 29 90 78 91 1 100 2 101 9 102 20 103 1 
104 41 105 24 106 4 107 0 112 5 113 4 114 4 115 9 116 32 117 204 
118 168 119 0 120 2 126 8 127 2 128 0 129 4 130 9 131 26 132 2 
133 26 134 4 141 4 142 1 143 20 144 26 145 19 146 19 147 33 148 4 
155 10 156 1 157 3 158 7 159 8 160 3 161 99 162 15 163 4 167 1 
168 7 169 13 170 2 171 0 172 9 173 8 174 57 175 8 176 14 177 4 
186 4 187 1 188 53 189 32 190 61 191 0 202 4 203 20 204 19 205 1 
216 5 217 30 218 999 219 13 220 14 221 5 229 11 230 0 231 41 232 10 
233 4 245 1 246 77 247 18 248 4 
