Name: PHENYLETHYL 2-FUROATE
MW: 216
Formula: C13H12O3
Synonym: MassBank: JP009044
Synonym: PHENYLETHYL 2-FUROATE
Structure: 5048454E594C455448594C20322D4655524F4154452E6D6F6C0A20204368656D447261773038313231303035323832440A2031362031372020302020302020302020302020302020302020302020303939392056323030300A2020202D312E3933343020202020312E3134393520202020302E30303030204F202020302020302020302020302020302020302020302020302020302020302020302020300A2020202D312E3834373820202020302E3332393020202020302E303030302043202020302020302020302020302020302020302020302020302020302020302020302020300A2020202D322E363031352020202D302E3030363620202020302E303030302043202020302020302020302020302020302020302020302020302020302020302020302020300A2020202D332E3135333520202020302E3630363520202020302E303030302043202020302020302020302020302020302020302020302020302020302020302020302020300A2020202D322E3734313020202020312E3332313020202020302E303030302043202020302020302020302020302020302020302020302020302020302020302020302020300A2020202D312E313333332020202D302E3038333520202020302E303030302043202020302020302020302020302020302020302020302020302020302020302020302020300A2020202D312E313333332020202D302E3930383520202020302E30303030204F202020302020302020302020302020302020302020302020302020302020302020302020300A2020202D302E3431383920202020302E3332393020202020302E30303030204F202020302020302020302020302020302020302020302020302020302020302020302020300A20202020302E323935362020202D302E3038333520202020302E303030302043202020302020302020302020302020302020302020302020302020302020302020302020300A20202020312E3031303120202020302E3332393020202020302E303030302043202020302020302020302020302020302020302020302020302020302020302020302020300A20202020312E373234362020202D302E3038333520202020302E303030302043202020302020302020302020302020302020302020302020302020302020302020302020300A20202020322E3433393020202020302E3332393020202020302E303030302043202020302020302020302020302020302020302020302020302020302020302020302020300A20202020332E313533352020202D302E3038333520202020302E303030302043202020302020302020302020302020302020302020302020302020302020302020302020300A20202020332E313533352020202D302E3930383520202020302E303030302043202020302020302020302020302020302020302020302020302020302020302020302020300A20202020322E343339302020202D312E3332313020202020302E303030302043202020302020302020302020302020302020302020302020302020302020302020302020300A20202020312E373234362020202D302E3930383520202020302E303030302043202020302020302020302020302020302020302020302020302020302020302020302020300A2020312020322020312020302020202020200A2020322020332020322020302020202020200A2020332020342020312020302020202020200A2020342020352020322020302020202020200A2020312020352020312020302020202020200A2020322020362020312020302020202020200A2020362020372020322020302020202020200A2020362020382020312020302020202020200A2020392031302020312020302020202020200A2031312031322020312020302020202020200A2031322031332020322020302020202020200A2031332031342020312020302020202020200A2031342031352020322020302020202020200A2031352031362020312020302020202020200A2031312031362020322020302020202020200A2031302031312020312020302020202020200A2020382020392020312020302020202020200A4D2020454E44
Contributor: SODA AROMATIC CO., LTD.
InstType: EI
InstName: HITACHI M-80B
IoniMethod: _ENERGY 70 eV
IonPolarity: pos
Date: 2010-10-09 19:48:36+02:00
Num Peaks: 18
27 17 38 25 39 170 50 11 51 50 52 11 63 14 65 51 67 14 77 64 
78 43 79 24 91 104 95 519 96 24 103 48 104 999 105 123 
