Name: MassBank: JP003876
MW: 204
Formula: C11H12N2O2
Synonym: MassBank: JP003876
Synonym: 3-ETHYL-5-PHENYL-IMIDAZOLIDINE-2,4-DIONE
Synonym: ETHOTOIN
Structure: 332D455448594C2D352D5048454E594C2D494D4944415A4F4C4944494E452D322C342D44494F4E452E6D6F6C0A20204368656D447261773032323231303137353732440A2031352031362020302020302020302020302020302020302020302020303939392056323030300A2020202D312E333035352020202D302E3138383920202020302E303030302043202020302020302020302020302020302020302020302020302020302020302020302020300A2020202D312E3039323020202020302E3630373920202020302E30303030204E202020302020302020302020302020302020302020302020302020302020302020302020300A2020202D302E3236383120202020302E3635313120202020302E303030302043202020302020302020302020302020302020302020302020302020302020302020302020300A20202020302E303237352020202D302E3131393120202020302E303030302043202020302020302020302020302020302020302020302020302020302020302020302020300A2020202D302E363133362020202D302E3633383320202020302E30303030204E202020302020302020302020302020302020302020302020302020302020302020302020300A2020202D322E303735372020202D302E3438343620202020302E30303030204F202020302020302020302020302020302020302020302020302020302020302020302020300A20202020302E3138313220202020312E3334333020202020302E30303030204F202020302020302020302020302020302020302020302020302020302020302020302020300A20202020302E383234342020202D302E3333323620202020302E303030302043202020302020302020302020302020302020302020302020302020302020302020302020300A20202020312E3430373820202020302E3235303820202020302E303030302043202020302020302020302020302020302020302020302020302020302020302020302020300A20202020322E3230343620202020302E3033373220202020302E303030302043202020302020302020302020302020302020302020302020302020302020302020302020300A20202020322E343138322020202D302E3735393720202020302E303030302043202020302020302020302020302020302020302020302020302020302020302020302020300A20202020312E383334382020202D312E3334333020202020302E303030302043202020302020302020302020302020302020302020302020302020302020302020302020300A20202020312E303337392020202D312E3132393520202020302E303030302043202020302020302020302020302020302020302020302020302020302020302020302020300A2020202D312E3631313220202020312E3234393120202020302E303030302043202020302020302020302020302020302020302020302020302020302020302020302020300A2020202D322E3431383220202020312E3037373620202020302E303030302043202020302020302020302020302020302020302020302020302020302020302020302020300A2020312020322020312020302020202020200A2020322020332020312020302020202020200A2020332020342020312020302020202020200A2020342020352020312020302020202020200A2020312020352020312020302020202020200A2020312020362020322020302020202020200A2020332020372020322020302020202020200A2020382020392020312020302020202020200A2020392031302020322020302020202020200A2031302031312020312020302020202020200A2031312031322020322020302020202020200A2031322031332020312020302020202020200A2020382031332020322020302020202020200A2020342020382020312020302020202020200A2031342031352020312020302020202020200A2020322031342020312020302020202020200A4D2020454E44
Contributor: SASAKI S, TOYOHASHI UNIV. OF TECH.
InstType: EI
InstName: Unknown
IoniMethod: _ENERGY 70 eV
IonPolarity: pos
Date: 2010-10-09 19:48:36+02:00
Num Peaks: 69
38 7 39 27 40 6 41 1 42 15 43 17 44 35 45 1 49 1 50 27 
51 80 52 3 53 8 54 1 55 8 56 3 57 13 61 1 62 8 63 3 
64 12 65 6 66 3 67 0 69 4 70 55 71 11 72 14 73 9 74 7 
75 10 76 2 77 194 78 120 79 19 88 0 89 39 90 35 91 30 92 1 
102 4 103 29 104 719 105 10 106 85 107 9 117 3 118 4 119 9 131 1 
132 89 133 23 134 25 135 1 146 6 147 1 148 3 149 6 161 49 162 1 
175 19 176 39 177 6 189 0 190 4 203 3 204 999 205 13 206 17 
