Name: TETRAMETHYLENEHYDRAZONE ACETALDEHYDE
MW: 112
Formula: C6H12N2
Synonym: MassBank: JP000828
Synonym: TETRAMETHYLENEHYDRAZONE ACETALDEHYDE
Synonym: ACETALDEHYDE TETRAMETHYLENEHYDRAZONE
Structure: 310A32310A54455452414D455448594C454E4548594452415A4F4E452041434554414C4445485944452E6D6F6C0A20204368656D447261773036323431303035343632440A2020382020382020302020302020302020302020302020302020302020303939392056323030300A2020202D312E303130312020202D302E3238393820202020302E303030302043202020302020302020302020302020302020302020302020302020302020302020302020300A2020202D312E373234362020202D302E3730323320202020302E303030302043202020302020302020302020302020302020302020302020302020302020302020302020300A2020202D302E323935362020202D302E3730323320202020302E30303030204E202020302020302020302020302020302020302020302020302020302020302020302020300A20202020302E343138392020202D302E3238393820202020302E30303030204E202020302020302020302020302020302020302020302020302020302020302020302020300A20202020302E3530353120202020302E3533303720202020302E303030302043202020302020302020302020302020302020302020302020302020302020302020302020300A20202020312E3331323120202020302E3730323320202020302E303030302043202020302020302020302020302020302020302020302020302020302020302020302020300A20202020312E373234362020202D302E3031323220202020302E303030302043202020302020302020302020302020302020302020302020302020302020302020302020300A20202020312E313732352020202D302E3632353320202020302E303030302043202020302020302020302020302020302020302020302020302020302020302020302020300A2020312020322020312020302020202020200A2020332020342020312020302020202020200A2020352020362020312020302020202020200A2020362020372020312020302020202020200A2020372020382020312020302020202020200A2020342020352020312020302020202020200A2020342020382020312020302020202020200A2020312020332020322020302020202020200A4D2020454E44
Contributor: SASAKI S, TOYOHASHI UNIV. OF TECH.
InstType: EI
InstName: SHIMADZU LKB-2091
IoniMethod: _ENERGY 70 eV
IonPolarity: pos
Date: 2010-10-09 19:48:36+02:00
Num Peaks: 31
27 194 28 388 29 40 30 5 32 6 38 7 39 78 40 3 41 284 42 999 
43 239 44 3 53 11 54 8 55 39 56 8 57 46 67 5 68 48 69 6 
70 194 71 36 82 5 83 1 84 20 97 149 98 8 110 1 111 448 112 552 
113 37 
