Name: MYRTENYL ACETATE
MW: 194
Formula: C12H18O2
Synonym: MassBank: JP007158
Synonym: MYRTENYL ACETATE
Structure: 303336385F4D595254454E594C20414345544154452E6D6F6C0A20204368656D447261773130313931303230313532440A2031342031352020302020302020302020302020302020302020302020303939392056323030300A2020202D312E383633382020202D302E3338383120202020302E303030302043202020302020302020302020302020302020302020302020302020302020302020302020300A2020202D322E343437322020202D302E3937313520202020302E303030302043202020302020302020302020302020302020302020302020302020302020302020302020300A2020202D322E3037373420202020302E3430383820202020302E30303030204F202020302020302020302020302020302020302020302020302020302020302020302020300A2020202D312E303637302020202D302E3630313620202020302E30303030204F202020302020302020302020302020302020302020302020302020302020302020302020300A2020202D302E343833362020202D302E3031383320202020302E303030302043202020302020302020302020302020302020302020302020302020302020302020302020300A20202020302E333135392020202D302E3233393820202020302E303030302043202020302020302020302020302020302020302020302020302020302020302020302020300A20202020302E343836362020202D302E3839333920202020302E303030302043202020302020302020302020302020302020302020302020302020302020302020302020300A20202020312E313432372020202D312E3036363520202020302E303030302043202020302020302020302020302020302020302020302020302020302020302020302020300A20202020312E363234302020202D302E3538353220202020302E303030302043202020302020302020302020302020302020302020302020302020302020302020302020300A20202020302E373937322020202D302E3538353220202020302E303030302043202020302020302020302020302020302020302020302020302020302020302020302020300A20202020312E3632343020202020302E3234313520202020302E303030302043202020302020302020302020302020302020302020302020302020302020302020302020300A20202020322E3434373220202020302E3234313520202020302E303030302043202020302020302020302020302020302020302020302020302020302020302020302020300A20202020312E3632343020202020312E3036363520202020302E303030302043202020302020302020302020302020302020302020302020302020302020302020302020300A20202020302E3739373220202020302E3234313520202020302E303030302043202020302020302020302020302020302020302020302020302020302020302020302020300A2020312020322020312020302020202020200A2020312020332020322020302020202020200A2020312020342020312020302020202020200A2020352020362020312020302020202020200A2020362020372020322020302020202020200A2020372020382020312020302020202020200A2020382020392020312020302020202020200A2020392031302020312020362020202020200A2020392031312020312020302020202020200A2031312031322020312020302020202020200A2031312031332020312020302020202020200A2031312031342020312020302020202020200A2031342031302020312020362020202020200A2020362031342020312020302020202020200A2020342020352020312020302020202020200A4D2020454E44
Contributor: SODA AROMATIC CO., LTD.
InstType: EI
InstName: HITACHI M-80B
IoniMethod: _ENERGY 70 eV
IonPolarity: pos
Date: 2010-10-09 19:48:36+02:00
Num Peaks: 42
15 19 27 53 29 35 39 91 40 12 41 156 42 13 43 542 44 11 51 23 
52 14 53 62 55 50 65 48 66 13 67 45 68 15 69 27 77 102 78 64 
79 143 80 19 81 23 85 11 91 999 92 349 93 136 95 12 96 11 103 16 
105 91 106 48 107 22 108 160 109 23 117 21 119 385 120 40 121 19 134 168 
135 22 152 36 
