Name: MassBank: JP004615
MW: 288
Formula: C19H28O2
Synonym: MassBank: JP004615
Synonym: (1E,7E,11E)-1-ACETYL-3,4-EPOXY-4,8,12-TRIMETHYLCYCLOTETRDECATRIENE
Structure: 2831452C37452C313145292D312D41434554594C2D332C342D45504F58592D342C382C31322D5452494D455448594C4359434C4F5445545244454341545249454E452E6D6F6C0A20204368656D447261773130313930393132303432440A2032342032352020302020302020302020302020302020302020302020303939392056323030300A2020202D322E3035373320202020312E3931333620202020302E303030302043202020302020302020302020302020302020302020302020302020302020302020302020300A2020202D322E3035373320202020312E3038383620202020302E303030302043202020302020302020302020302020302020302020302020302020302020302020302020300A2020202D312E3437333920202020302E3530353220202020302E303030302043202020302020302020302020302020302020302020302020302020302020302020302020300A2020202D302E3634383920202020302E3530353220202020302E303030302043202020302020302020302020302020302020302020302020302020302020302020302020300A2020202D302E3036353620202020312E3038383620202020302E303030302043202020302020302020302020302020302020302020302020302020302020302020302020300A2020202D302E3036353620202020312E3931333620202020302E303030302043202020302020302020302020302020302020302020302020302020302020302020302020300A2020202D302E3634383920202020322E3439363920202020302E303030302043202020302020302020302020302020302020302020302020302020302020302020302020300A2020202D312E3437333920202020322E3439363920202020302E303030302043202020302020302020302020302020302020302020302020302020302020302020302020300A2020202D302E363438392020202D302E3331393820202020302E303030302043202020302020302020302020302020302020302020302020302020302020302020302020300A2020202D302E303635362020202D302E3930333220202020302E303030302043202020302020302020302020302020302020302020302020302020302020302020302020300A20202020302E373539342020202D302E3930333220202020302E303030302043202020302020302020302020302020302020302020302020302020302020302020302020300A20202020312E333432382020202D302E3331393820202020302E303030302043202020302020302020302020302020302020302020302020302020302020302020302020300A20202020312E3334323820202020302E3530353220202020302E303030302043202020302020302020302020302020302020302020302020302020302020302020302020300A20202020302E3735393420202020312E3038383620202020302E303030302043202020302020302020302020302020302020302020302020302020302020302020302020300A20202020322E3035373320202020302E3039323720202020302E30303030204F202020302020302020302020302020302020302020302020302020302020302020302020300A2020202D302E323739312020202D312E3730303020202020302E303030302043202020302020302020302020302020302020302020302020302020302020302020302020300A20202020312E313731392020202D312E3631373620202020302E303030302048202020302020302020302020302020302020302020302020302020302020302020302020300A2020202D312E303736302020202D312E3438363520202020302E303030302043202020302020302020302020302020302020302020302020302020302020302020302020300A2020202D302E343932362020202D322E3439363920202020302E30303030204F202020302020302020302020302020302020302020302020302020302020302020302020300A2020202D312E3334323820202020312E3530313120202020302E303030302048202020302020302020302020302020302020302020302020302020302020302020302020300A20202020302E3634383920202020322E3332363120202020302E303030302048202020302020302020302020302020302020302020302020302020302020302020302020300A2020202D312E363838342020202D302E3239303620202020302E303030302043202020302020302020302020302020302020302020302020302020302020302020302020300A2020202D302E3836333420202020312E3730303420202020302E303030302043202020302020302020302020302020302020302020302020302020302020302020302020300A20202020312E3932353120202020312E3038383620202020302E303030302043202020302020302020302020302020302020302020302020302020302020302020302020300A2020312020322020312020302020202020200A2020322020332020322020302020202020200A2020332020342020312020302020202020200A2020352020362020312020302020202020200A2020362020372020322020302020202020200A2020372020382020312020302020202020200A2020382020312020312020302020202020200A2020342020392020312020302020202020200A2020392031302020312020302020202020200A2031302031312020322020302020202020200A2031312031322020312020302020202020200A2031322031332020312020302020202020200A2031332031342020312020302020202020200A2031342020352020312020302020202020200A2031332031352020312020302020202020200A2031322031352020312020302020202020200A2031302031362020312020302020202020200A2031312031372020312020302020202020200A2031362031382020312020302020202020200A2031362031392020322020302020202020200A2020322032302020312020302020202020200A2020362032312020312020302020202020200A2020332032322020312020302020202020200A2020372032332020312020302020202020200A2031332032342020312020302020202020200A4D202053545920203120202031205355500A4D2020534C4220203120202031202020310A4D202053414C20202031202031202032320A4D202053424C20202031202031202032330A4D2020534D5420202031204D650A4D2020534256202020312032332020202D362E3936383420202020342E353230390A4D202053545920203120202032205355500A4D2020534C4220203120202032202020320A4D202053414C20202032202031202032330A4D202053424C20202032202031202032340A4D2020534D5420202032204D650A4D2020534256202020322032342020202D362E3936383420202020342E353230320A4D202053545920203120202033205355500A4D2020534C4220203120202033202020330A4D202053414C20202033202031202032340A4D202053424C20202033202031202032350A4D2020534D5420202033204D650A4D2020534256202020332032352020202D362E3137313620202020352E393030310A4D2020454E44
Contributor: KATO T, DEPT. OF CHEM., FAC. OF SCI., TOHOKU UNIV.
InstType: EI
InstName: Unknown
IoniMethod: _ENERGY 25 eV
IonPolarity: pos
Date: 2010-10-09 19:48:36+02:00
Num Peaks: 60
18 75 28 35 29 28 41 12 43 999 53 53 55 110 58 3 67 169 68 146 
69 161 71 4 77 42 79 86 81 184 82 4 83 35 91 66 93 142 94 6 
95 995 96 146 97 67 105 6 107 121 108 51 109 191 110 5 111 38 119 65 
121 100 122 14 123 62 124 67 125 81 133 4 134 28 135 88 136 40 137 6 
145 25 147 39 148 38 149 4 150 19 151 20 152 19 159 2 161 38 162 48 
163 42 175 3 189 18 190 18 203 18 227 1 231 10 245 13 273 10 288 15 
