Name: 1-METHYL-2-PROPENYLHYDRAZINE
MW: 86
Formula: C4H10N2
Synonym: MassBank: JP000373
Synonym: 1-METHYL-2-PROPENYLHYDRAZINE
Structure: 310A31360A312D4D455448594C2D322D50524F50454E594C48594452415A494E452E6D6F6C0A20204368656D447261773131313930393136323932440A2020362020352020302020302020302020302020302020302020302020303939392056323030300A20202020302E3230363220202020302E3731343520202020302E30303030204E202020302020302020302020302020302020302020302020302020302020302020302020300A20202020312E3033313320202020302E3731343520202020302E30303030204E202020302020302020302020302020302020302020302020302020302020302020302020300A2020202D302E3230363320202020302E3030303020202020302E303030302043202020302020302020302020302020302020302020302020302020302020302020302020300A20202020302E323036322020202D302E3731343520202020302E303030302043202020302020302020302020302020302020302020302020302020302020302020302020300A20202020312E303331332020202D302E3731343520202020302E303030302043202020302020302020302020302020302020302020302020302020302020302020302020300A2020202D312E3033313320202020302E3030303020202020302E303030302043202020302020302020302020302020302020302020302020302020302020302020302020300A2020312020322020312020302020202020200A2020332020342020312020302020202020200A2020342020352020322020302020202020200A2020332020362020312020302020202020200A2020312020332020312020302020202020200A4D2020454E44
Contributor: SASAKI S, TOYOHASHI UNIV. OF TECH.
InstType: EI
InstName: SHIMADZU LKB-2091
IoniMethod: _ENERGY 70 eV
IonPolarity: pos
Date: 2010-10-09 19:48:36+02:00
Num Peaks: 32
26 67 27 401 28 517 29 51 30 102 31 285 32 999 39 26 40 39 41 315 
42 231 43 8 44 252 45 33 50 32 51 4 52 24 53 120 54 116 55 62 
56 207 57 35 58 17 59 14 68 31 69 22 70 20 71 54 72 24 85 13 
86 301 87 21 
