Name: MassBank: JP003036
MW: 314
Formula: C22H18O2
Synonym: MassBank: JP003036
Synonym: 1,4-DIMETHOXY-9-PHENYLANTHRACENE
Structure: 312C342D44494D4554484F58592D392D5048454E594C414E5448524143454E452E6D6F6C0A20204368656D447261773131313430393233303332440A2032342032372020302020302020302020302020302020302020302020303939392056323030300A20202020302E323036332020202D312E3432383920202020302E303030302043202020302020302020302020302020302020302020302020302020302020302020302020300A2020202D302E323036322020202D322E3134333420202020302E303030302043202020302020302020302020302020302020302020302020302020302020302020302020300A2020202D312E303331322020202D322E3134333420202020302E303030302043202020302020302020302020302020302020302020302020302020302020302020302020300A2020202D312E343433372020202D312E3432383920202020302E303030302043202020302020302020302020302020302020302020302020302020302020302020302020300A2020202D312E303331322020202D302E3731343520202020302E303030302043202020302020302020302020302020302020302020302020302020302020302020302020300A2020202D312E3434333720202020302E3030303020202020302E303030302043202020302020302020302020302020302020302020302020302020302020302020302020300A2020202D312E3033313220202020302E3731343520202020302E303030302043202020302020302020302020302020302020302020302020302020302020302020302020300A2020202D312E3434333720202020312E3432383920202020302E303030302043202020302020302020302020302020302020302020302020302020302020302020302020300A2020202D312E3033313220202020322E3134333420202020302E303030302043202020302020302020302020302020302020302020302020302020302020302020302020300A2020202D302E3230363220202020322E3134333420202020302E303030302043202020302020302020302020302020302020302020302020302020302020302020302020300A20202020302E3230363320202020312E3432383920202020302E303030302043202020302020302020302020302020302020302020302020302020302020302020302020300A2020202D302E3230363220202020302E3731343520202020302E303030302043202020302020302020302020302020302020302020302020302020302020302020302020300A20202020302E323036332020202D302E3030303020202020302E303030302043202020302020302020302020302020302020302020302020302020302020302020302020300A2020202D302E323036322020202D302E3731343520202020302E303030302043202020302020302020302020302020302020302020302020302020302020302020302020300A20202020312E303331332020202D302E3030303020202020302E303030302043202020302020302020302020302020302020302020302020302020302020302020302020300A20202020312E3434333820202020302E3731343520202020302E303030302043202020302020302020302020302020302020302020302020302020302020302020302020300A20202020322E3236383720202020302E3731343520202020302E303030302043202020302020302020302020302020302020302020302020302020302020302020302020300A20202020322E363831332020202D302E3030303020202020302E303030302043202020302020302020302020302020302020302020302020302020302020302020302020300A20202020322E323638382020202D302E3731343520202020302E303030302043202020302020302020302020302020302020302020302020302020302020302020302020300A20202020312E343433382020202D302E3731343520202020302E303030302043202020302020302020302020302020302020302020302020302020302020302020302020300A2020202D322E323638372020202D312E3432383920202020302E30303030204F202020302020302020302020302020302020302020302020302020302020302020302020300A2020202D322E363831332020202D322E3134333420202020302E303030302043202020302020302020302020302020302020302020302020302020302020302020302020300A20202020312E303331332020202D312E3432383920202020302E30303030204F202020302020302020302020302020302020302020302020302020302020302020302020300A20202020312E343433382020202D322E3134333420202020302E303030302043202020302020302020302020302020302020302020302020302020302020302020302020300A2020312020322020312020302020202020200A2020322020332020322020302020202020200A2020332020342020312020302020202020200A2020342020352020322020302020202020200A2020352020362020312020302020202020200A2020362020372020322020302020202020200A2020372020382020312020302020202020200A2020382020392020322020302020202020200A2020392031302020312020302020202020200A2031302031312020322020302020202020200A2031312031322020312020302020202020200A2020372031322020312020302020202020200A2031322031332020322020302020202020200A2031332031342020312020302020202020200A2020352031342020312020302020202020200A2020312031342020322020302020202020200A2031352031362020312020302020202020200A2031362031372020322020302020202020200A2031372031382020312020302020202020200A2031382031392020322020302020202020200A2031392032302020312020302020202020200A2031352032302020322020302020202020200A2031332031352020312020302020202020200A2032312032322020312020302020202020200A2020342032312020312020302020202020200A2032332032342020312020302020202020200A2020312032332020312020302020202020200A4D2020454E44
Contributor: SASAKI S, TOYOHASHI UNIV. OF TECH.
InstType: EI
InstName: Unknown
IoniMethod: EI
IonPolarity: pos
Date: 2010-10-09 19:48:36+02:00
Num Peaks: 128
41 13 43 73 55 23 56 0 57 19 67 5 69 16 70 1 71 14 73 3 
74 3 75 1 76 5 77 7 78 9 81 1 82 5 83 16 84 3 85 1 
86 1 87 9 88 26 89 0 91 6 92 2 93 3 94 1 95 2 96 8 
97 5 98 1 99 7 100 45 101 46 105 0 106 7 107 10 108 3 109 0 
110 2 111 7 112 24 113 14 114 23 115 20 118 12 119 4 120 3 121 6 
123 7 125 2 126 37 127 9 128 43 129 0 133 9 134 45 135 8 137 0 
139 3 140 2 141 77 142 1 149 61 150 26 151 7 152 1 153 7 154 7 
157 90 163 1 164 3 165 9 174 4 175 1 176 7 193 28 194 3 195 0 
198 3 199 7 200 38 201 4 202 58 203 9 208 17 209 0 211 3 212 1 
213 8 214 0 215 9 216 2 223 20 224 2 225 15 226 91 227 45 228 3 
229 13 237 23 238 26 239 9 240 24 241 8 252 8 253 1 254 5 255 89 
256 85 257 7 267 138 268 241 269 50 270 0 271 23 272 4 283 224 284 9 
285 27 298 17 299 460 300 10 301 6 314 999 315 230 316 17 
