Name: TRANS-3-HEPTENOL
MW: 114
Formula: C7H14O
Synonym: MassBank: JP008398
Synonym: TRANS-3-HEPTENOL
Structure: 310A32300A5452414E532D332D48455054454E4F4C2E6D6F6C0A20204368656D447261773038313231303037353932440A2020382020372020302020302020302020302020302020302020302020303939392056323030300A20202020312E373836322020202D302E3230363320202020302E303030302043202020302020302020302020302020302020302020302020302020302020302020302020300A20202020312E3037313720202020302E3230363320202020302E303030302043202020302020302020302020302020302020302020302020302020302020302020302020300A20202020302E333537322020202D302E3230363320202020302E303030302043202020302020302020302020302020302020302020302020302020302020302020302020300A2020202D302E3335373220202020302E3230363220202020302E303030302043202020302020302020302020302020302020302020302020302020302020302020302020300A2020202D312E303731372020202D302E3230363320202020302E303030302043202020302020302020302020302020302020302020302020302020302020302020302020300A2020202D312E3738363220202020302E3230363220202020302E303030302043202020302020302020302020302020302020302020302020302020302020302020302020300A2020202D322E353030362020202D302E3230363320202020302E303030302043202020302020302020302020302020302020302020302020302020302020302020302020300A20202020322E3530303620202020302E3230363320202020302E30303030204F202020302020302020302020302020302020302020302020302020302020302020302020300A2020312020322020312020302020202020200A2020322020332020312020302020202020200A2020332020342020322020302020202020200A2020342020352020312020302020202020200A2020352020362020312020302020202020200A2020362020372020312020302020202020200A2020312020382020312020302020202020200A4D2020454E44
Contributor: SODA AROMATIC CO., LTD.
InstType: EI
InstName: HITACHI M-80B
IoniMethod: _ENERGY 70 eV
IonPolarity: pos
Date: 2010-10-09 19:48:36+02:00
Num Peaks: 43
15 14 26 17 27 241 28 29 29 226 31 274 38 14 39 259 40 29 41 652 
42 184 43 156 44 53 45 13 50 21 51 34 52 14 53 98 54 236 55 999 
56 169 57 112 58 14 65 20 66 15 67 218 68 167 69 77 70 37 71 23 
72 12 77 13 79 26 81 477 82 35 83 77 84 24 85 12 86 18 95 18 
96 181 97 12 114 25 
