Name: CIS-5-EICOSENOIC ACID METHYL ESTER
MW: 324
Formula: C21H40O2
Synonym: MassBank: JP002190
Synonym: CIS-5-EICOSENOIC ACID METHYL ESTER
Structure: 4349532D352D4549434F53454E4F49432041434944204D455448594C2045535445522E6D6F6C0A20204368656D447261773039313331303130333832440A2032332032322020302020302020302020302020302020302020302020303939392056323030300A20202020352E3731353820202020312E3033313320202020302E303030302043202020302020302020302020302020302020302020302020302020302020302020302020300A20202020352E3030313320202020302E3631383820202020302E303030302043202020302020302020302020302020302020302020302020302020302020302020302020300A20202020352E303031332020202D302E3230363220202020302E303030302043202020302020302020302020302020302020302020302020302020302020302020302020300A20202020342E323836382020202D302E3631383720202020302E303030302043202020302020302020302020302020302020302020302020302020302020302020302020300A20202020342E323836382020202D312E3434333720202020302E303030302043202020302020302020302020302020302020302020302020302020302020302020302020300A20202020332E353732342020202D312E3835363220202020302E303030302043202020302020302020302020302020302020302020302020302020302020302020302020300A20202020322E383537392020202D312E3434333720202020302E303030302043202020302020302020302020302020302020302020302020302020302020302020302020300A20202020322E313433342020202D312E3835363220202020302E303030302043202020302020302020302020302020302020302020302020302020302020302020302020300A20202020312E343238392020202D312E3434333720202020302E303030302043202020302020302020302020302020302020302020302020302020302020302020302020300A20202020302E373134352020202D312E3835363220202020302E303030302043202020302020302020302020302020302020302020302020302020302020302020302020300A2020202D302E303030302020202D312E3434333720202020302E303030302043202020302020302020302020302020302020302020302020302020302020302020302020300A2020202D302E373134352020202D312E3835363220202020302E303030302043202020302020302020302020302020302020302020302020302020302020302020302020300A2020202D312E343238392020202D312E3434333820202020302E303030302043202020302020302020302020302020302020302020302020302020302020302020302020300A2020202D322E313433342020202D312E3835363220202020302E303030302043202020302020302020302020302020302020302020302020302020302020302020302020300A2020202D322E383537392020202D312E3434333820202020302E303030302043202020302020302020302020302020302020302020302020302020302020302020302020300A2020202D332E353732342020202D312E3835363320202020302E303030302043202020302020302020302020302020302020302020302020302020302020302020302020300A2020202D342E323836382020202D312E3434333820202020302E303030302043202020302020302020302020302020302020302020302020302020302020302020302020300A2020202D352E303031332020202D312E3835363320202020302E303030302043202020302020302020302020302020302020302020302020302020302020302020302020300A2020202D352E373135382020202D312E3434333820202020302E303030302043202020302020302020302020302020302020302020302020302020302020302020302020300A2020202D362E343330322020202D312E3835363320202020302E303030302043202020302020302020302020302020302020302020302020302020302020302020302020300A20202020352E3731353820202020312E3835363320202020302E30303030204F202020302020302020302020302020302020302020302020302020302020302020302020300A20202020362E3433303220202020302E3631383820202020302E30303030204F202020302020302020302020302020302020302020302020302020302020302020302020300A20202020362E343330322020202D302E3230363220202020302E303030302043202020302020302020302020302020302020302020302020302020302020302020302020300A2020312020322020312020302020202020200A2020322020332020312020302020202020200A2020332020342020312020302020202020200A2020342020352020312020302020202020200A2020352020362020322020302020202020200A2020362020372020312020302020202020200A2020372020382020312020302020202020200A2020382020392020312020302020202020200A2020392031302020312020302020202020200A2031302031312020312020302020202020200A2031312031322020312020302020202020200A2031322031332020312020302020202020200A2031332031342020312020302020202020200A2031342031352020312020302020202020200A2031352031362020312020302020202020200A2031362031372020312020302020202020200A2031372031382020312020302020202020200A2031382031392020312020302020202020200A2031392032302020312020302020202020200A2020312032312020322020302020202020200A2020312032322020312020302020202020200A2032322032332020312020302020202020200A4D2020454E44
Contributor: KOGA M, UNIV. OF OCCUPATIONAL AND ENVIRONMENTAL HEALTH
InstType: EI
InstName: JEOL JMS-01-SG
IoniMethod: _ENERGY 70 eV
IonPolarity: pos
Date: 2010-10-09 19:48:36+02:00
Num Peaks: 157
43 53 47 22 48 7 52 1 53 76 54 274 55 999 56 19 57 503 58 15 
61 15 62 2 64 7 65 61 66 7 67 69 68 564 69 603 70 190 71 21 
72 7 74 839 75 175 77 2 78 53 79 175 80 160 81 65 82 473 83 694 
84 694 85 22 87 328 88 61 91 45 92 3 93 45 94 106 95 374 96 91 
97 717 98 473 99 99 101 9 102 7 105 38 107 61 108 6 109 297 110 381 
111 374 112 13 113 38 114 76 115 68 116 2 118 38 119 45 120 7 121 11 
122 30 123 244 124 183 125 17 126 15 127 68 128 68 129 8 130 15 131 15 
132 30 133 3 134 106 135 99 136 7 137 12 138 122 139 68 140 15 141 14 
142 7 143 30 144 38 147 2 148 91 149 45 150 7 151 11 152 145 153 45 
155 30 157 2 161 7 162 38 163 15 164 4 165 45 166 76 167 15 169 3 
172 15 173 38 176 38 177 2 179 30 180 30 181 22 182 3 187 45 191 7 
194 106 196 3 199 38 203 7 204 7 205 1 206 30 207 38 208 145 210 3 
211 7 214 7 219 7 220 2 221 53 222 45 224 22 225 2 227 30 228 22 
235 7 236 4 237 22 241 30 242 7 248 6 249 68 250 229 251 61 252 1 
253 15 255 7 256 7 260 1 262 7 264 38 267 22 274 5 275 76 277 7 
278 15 283 1 292 351 293 122 294 22 324 5 325 7 
