Name: MassBank: JP004716
CAS: 95-93-2
MW: 134
Formula: C10H14
Synonym: MassBank: JP004716
Synonym: 1,2,4,5-TETRAMETHYLBENZENE
Synonym: DURENE
Structure: 312C322C342C352D54455452414D455448594C42454E5A454E452E6D6F6C0A20204368656D447261773130323330393133333732440A2031302031302020302020302020302020302020302020302020302020303939392056323030300A20202020302E343132352020202D302E3731343520202020302E303030302043202020302020302020302020302020302020302020302020302020302020302020302020300A2020202D302E343132352020202D302E3731343520202020302E303030302043202020302020302020302020302020302020302020302020302020302020302020302020300A2020202D302E3832353020202020302E3030303020202020302E303030302043202020302020302020302020302020302020302020302020302020302020302020302020300A2020202D302E3431323520202020302E3731343520202020302E303030302043202020302020302020302020302020302020302020302020302020302020302020302020300A20202020302E3431323520202020302E3731343520202020302E303030302043202020302020302020302020302020302020302020302020302020302020302020302020300A20202020302E383235302020202D302E3030303020202020302E303030302043202020302020302020302020302020302020302020302020302020302020302020302020300A20202020302E3832353020202020312E3432383920202020302E303030302043202020302020302020302020302020302020302020302020302020302020302020302020300A2020202D302E3832353020202020312E3432383920202020302E303030302043202020302020302020302020302020302020302020302020302020302020302020302020300A2020202D302E383235302020202D312E3432383920202020302E303030302043202020302020302020302020302020302020302020302020302020302020302020302020300A20202020302E383235302020202D312E3432383920202020302E303030302043202020302020302020302020302020302020302020302020302020302020302020302020300A2020312020322020312020302020202020200A2020322020332020322020302020202020200A2020332020342020312020302020202020200A2020342020352020322020302020202020200A2020352020362020312020302020202020200A2020312020362020322020302020202020200A2020352020372020312020302020202020200A2020342020382020312020302020202020200A2020322020392020312020302020202020200A2020312031302020312020302020202020200A4D2020454E44
Contributor: MASS SPECTROSCOPY SOC. OF JAPAN (MSSJ)
InstType: EI
InstName: JEOL JMS-D-3000
IoniMethod: _ENERGY 70 eV
IonPolarity: pos
Date: 2010-10-09 19:48:36+02:00
Num Peaks: 29
50 11 51 36 52 13 53 28 57 11 58 12 63 21 64 23 65 54 66 28 
67 15 77 61 78 16 79 25 91 113 92 12 93 13 103 29 104 18 105 31 
115 49 116 21 117 61 118 23 119 999 120 100 133 127 134 648 135 72 
