Name: OCTADECANOIC ACID HEXYL ESTER
MW: 368
Formula: C24H48O2
Synonym: MassBank: JP001782
Synonym: OCTADECANOIC ACID HEXYL ESTER
Structure: 4F435441444543414E4F4943204143494420484558594C2045535445522E6D6F6C0A20204368656D447261773038313231303033313732440A2032362032352020302020302020302020302020302020302020302020303939392056323030300A2020202D342E363434312020202D312E3434333720202020302E303030302043202020302020302020302020302020302020302020302020302020302020302020302020300A2020202D332E393239362020202D312E3835363220202020302E303030302043202020302020302020302020302020302020302020302020302020302020302020302020300A2020202D332E323135312020202D312E3434333720202020302E303030302043202020302020302020302020302020302020302020302020302020302020302020302020300A2020202D322E353030362020202D312E3835363220202020302E303030302043202020302020302020302020302020302020302020302020302020302020302020302020300A2020202D312E373836322020202D312E3434333720202020302E303030302043202020302020302020302020302020302020302020302020302020302020302020302020300A2020202D312E303731372020202D312E3835363220202020302E303030302043202020302020302020302020302020302020302020302020302020302020302020302020300A2020202D302E333537322020202D312E3434333720202020302E303030302043202020302020302020302020302020302020302020302020302020302020302020302020300A20202020302E333537322020202D312E3835363220202020302E303030302043202020302020302020302020302020302020302020302020302020302020302020302020300A20202020312E303731372020202D312E3434333720202020302E303030302043202020302020302020302020302020302020302020302020302020302020302020302020300A20202020312E373836322020202D312E3835363220202020302E303030302043202020302020302020302020302020302020302020302020302020302020302020302020300A20202020322E353030362020202D312E3434333720202020302E303030302043202020302020302020302020302020302020302020302020302020302020302020302020300A20202020332E323135312020202D312E3835363220202020302E303030302043202020302020302020302020302020302020302020302020302020302020302020302020300A20202020332E393239362020202D312E3434333720202020302E303030302043202020302020302020302020302020302020302020302020302020302020302020302020300A20202020342E363434312020202D312E3835363220202020302E303030302043202020302020302020302020302020302020302020302020302020302020302020302020300A20202020352E333538352020202D312E3434333720202020302E303030302043202020302020302020302020302020302020302020302020302020302020302020302020300A20202020362E303733302020202D312E3835363220202020302E303030302043202020302020302020302020302020302020302020302020302020302020302020302020300A20202020362E373837352020202D312E3434333720202020302E303030302043202020302020302020302020302020302020302020302020302020302020302020302020300A20202020372E353031392020202D312E3835363220202020302E303030302043202020302020302020302020302020302020302020302020302020302020302020302020300A2020202D342E363434312020202D302E3631383720202020302E30303030204F202020302020302020302020302020302020302020302020302020302020302020302020300A2020202D352E333538352020202D312E3835363220202020302E30303030204F202020302020302020302020302020302020302020302020302020302020302020302020300A2020202D362E303733302020202D312E3434333820202020302E303030302043202020302020302020302020302020302020302020302020302020302020302020302020300A2020202D362E303733302020202D302E3631383720202020302E303030302043202020302020302020302020302020302020302020302020302020302020302020302020300A2020202D362E373837352020202D302E3230363320202020302E303030302043202020302020302020302020302020302020302020302020302020302020302020302020300A2020202D362E3738373520202020302E3631383820202020302E303030302043202020302020302020302020302020302020302020302020302020302020302020302020300A2020202D372E3530313920202020312E3033313220202020302E303030302043202020302020302020302020302020302020302020302020302020302020302020302020300A2020202D372E3530313920202020312E3835363220202020302E303030302043202020302020302020302020302020302020302020302020302020302020302020302020300A2020312020322020312020302020202020200A2020322020332020312020302020202020200A2020332020342020312020302020202020200A2020342020352020312020302020202020200A2020352020362020312020302020202020200A2020362020372020312020302020202020200A2020372020382020312020302020202020200A2020382020392020312020302020202020200A2020392031302020312020302020202020200A2031302031312020312020302020202020200A2031312031322020312020302020202020200A2031322031332020312020302020202020200A2031332031342020312020302020202020200A2031342031352020312020302020202020200A2031352031362020312020302020202020200A2031362031372020312020302020202020200A2031372031382020312020302020202020200A2020312031392020322020302020202020200A2020312032302020312020302020202020200A2032312032322020312020302020202020200A2032322032332020312020302020202020200A2032332032342020312020302020202020200A2032342032352020312020302020202020200A2032352032362020312020302020202020200A2032302032312020312020302020202020200A4D2020454E44
Contributor: MASS SPECTROSCOPY SOC. OF JAPAN (MSSJ)
InstType: EI
InstName: Unknown
IoniMethod: EI
IonPolarity: pos
Date: 2010-10-09 19:48:36+02:00
Num Peaks: 124
37 8 41 3 42 26 43 138 44 9 55 34 56 277 57 135 58 7 60 94 
61 490 62 14 67 3 68 8 69 90 70 15 71 76 72 4 73 147 74 17 
81 8 82 16 83 44 84 999 85 216 86 14 87 34 88 3 89 1 95 13 
96 10 97 45 98 46 99 26 100 3 101 21 102 9 103 4 109 10 110 5 
111 26 112 14 113 13 114 3 115 34 116 19 117 2 121 4 123 6 124 4 
125 16 126 7 127 11 129 115 130 13 135 4 137 3 138 2 139 11 140 3 
141 6 143 17 144 35 145 69 146 6 149 4 152 1 153 8 154 3 155 5 
157 53 158 8 163 2 166 1 167 5 168 2 169 3 171 16 172 6 180 2 
181 5 182 2 185 44 186 8 195 3 196 2 199 19 200 4 209 1 213 23 
214 4 219 14 221 2 222 7 223 2 224 4 225 3 227 11 228 2 241 46 
242 9 247 3 248 3 255 11 256 3 264 9 265 11 266 6 267 99 268 25 
269 7 282 2 283 9 284 152 285 417 286 78 287 11 311 1 325 8 326 3 
339 1 368 113 369 37 370 7 
