Name: PROPYLHYDRAZONE ACETALDEHYDE
MW: 100
Formula: C5H12N2
Synonym: MassBank: JP000520
Synonym: PROPYLHYDRAZONE ACETALDEHYDE
Synonym: ACETALDEHYDE PROPYLHYDRAZONE
Structure: 310A31380A50524F50594C48594452415A4F4E452041434554414C4445485944452E6D6F6C0A20204368656D447261773036323431303035343632440A2020372020362020302020302020302020302020302020302020302020303939392056323030300A2020202D312E3432383920202020302E3230363320202020302E303030302043202020302020302020302020302020302020302020302020302020302020302020302020300A2020202D322E313433342020202D302E3230363320202020302E303030302043202020302020302020302020302020302020302020302020302020302020302020302020300A2020202D302E373134352020202D302E3230363220202020302E30303030204E202020302020302020302020302020302020302020302020302020302020302020302020300A20202020302E3030303020202020302E3230363320202020302E30303030204E202020302020302020302020302020302020302020302020302020302020302020302020300A20202020302E373134352020202D302E3230363220202020302E303030302043202020302020302020302020302020302020302020302020302020302020302020302020300A20202020312E3432383920202020302E3230363320202020302E303030302043202020302020302020302020302020302020302020302020302020302020302020302020300A20202020322E313433342020202D302E3230363220202020302E303030302043202020302020302020302020302020302020302020302020302020302020302020302020300A2020312020322020312020302020202020200A2020332020342020312020302020202020200A2020352020362020312020302020202020200A2020362020372020312020302020202020200A2020342020352020312020302020202020200A2020312020332020322020302020202020200A4D2020454E44
Contributor: SASAKI S, TOYOHASHI UNIV. OF TECH.
InstType: EI
InstName: SHIMADZU LKB-2091
IoniMethod: _ENERGY 70 eV
IonPolarity: pos
Date: 2010-10-09 19:48:36+02:00
Num Peaks: 22
28 15 29 67 30 670 31 2 39 35 40 16 41 93 42 27 43 78 44 37 
54 6 55 1 56 25 57 37 58 40 69 1 71 999 72 50 85 25 99 1 
100 289 101 45 
