Name: 4-(TRIMETHYLSILYL)OXY-CINNAMIC ACID TRIMETHYLSILYL ESTER
MW: 308
Formula: C15H24O3Si2
Synonym: MassBank: JP001024
Synonym: 4-(TRIMETHYLSILYL)OXY-CINNAMIC ACID TRIMETHYLSILYL ESTER
Synonym: TRIMETHYLSILYL 4-TRIMETHYLSILOXYCINNAMATE
Structure: 342D285452494D455448594C53494C594C294F58592D43494E4E414D49432041434944205452494D455448594C53494C594C2045535445522E6D6F6C0A20204368656D447261773033323531303034303132440A2032302032302020302020302020302020302020302020302020302020303939392056323030300A2020202D302E373134352020202D312E3830313020202020302E303030302043202020302020302020302020302020302020302020302020302020302020302020302020300A2020202D302E373134352020202D302E3937363020202020302E303030302043202020302020302020302020302020302020302020302020302020302020302020302020300A20202020302E303030302020202D302E3536333520202020302E303030302043202020302020302020302020302020302020302020302020302020302020302020302020300A20202020302E3030303020202020302E3236313520202020302E303030302043202020302020302020302020302020302020302020302020302020302020302020302020300A2020202D302E3731343520202020302E3637343020202020302E303030302043202020302020302020302020302020302020302020302020302020302020302020302020300A2020202D302E3731343520202020312E3439393020202020302E303030302043202020302020302020302020302020302020302020302020302020302020302020302020300A20202020302E3030303020202020312E3931313520202020302E303030302043202020302020302020302020302020302020302020302020302020302020302020302020300A20202020302E3731343520202020312E3439393020202020302E303030302043202020302020302020302020302020302020302020302020302020302020302020302020300A20202020302E3731343520202020302E3637343020202020302E303030302043202020302020302020302020302020302020302020302020302020302020302020302020300A2020202D312E343238392020202D322E3231333520202020302E30303030204F202020302020302020302020302020302020302020302020302020302020302020302020300A20202020302E303030302020202D322E3231333520202020302E30303030204F202020302020302020302020302020302020302020302020302020302020302020302020300A20202020302E3030303020202020322E3733363520202020302E30303030204F202020302020302020302020302020302020302020302020302020302020302020302020300A20202020302E3731343520202020332E3134393020202020302E303030302053692020302020302020302020302020302020302020302020302020302020302020302020300A20202020312E3132373020202020322E3433343520202020302E303030302043202020302020302020302020302020302020302020302020302020302020302020302020300A20202020302E3330323020202020332E3836333520202020302E303030302043202020302020302020302020302020302020302020302020302020302020302020302020300A20202020312E3432383920202020332E3536313520202020302E303030302043202020302020302020302020302020302020302020302020302020302020302020302020300A20202020302E303030302020202D332E3033383520202020302E303030302053692020302020302020302020302020302020302020302020302020302020302020302020300A20202020302E383235302020202D332E3033383520202020302E303030302043202020302020302020302020302020302020302020302020302020302020302020302020300A20202020302E303030302020202D332E3836333520202020302E303030302043202020302020302020302020302020302020302020302020302020302020302020302020300A2020202D302E383235302020202D332E3033383520202020302E303030302043202020302020302020302020302020302020302020302020302020302020302020302020300A2020312020322020312020302020202020200A2020322020332020322020302020202020200A2020332020342020312020302020202020200A2020342020352020312020302020202020200A2020352020362020322020302020202020200A2020362020372020312020302020202020200A2020372020382020322020302020202020200A2020382020392020312020302020202020200A2020342020392020322020302020202020200A2020312031302020322020302020202020200A2020312031312020312020302020202020200A2031332031342020312020302020202020200A2031332031352020312020302020202020200A2031332031362020312020302020202020200A2031322031332020312020302020202020200A2020372031322020312020302020202020200A2031372031382020312020312020202020200A2031372031392020312020302020202020200A2031372032302020312020312020202020200A2031312031372020312020302020202020200A4D2020454E44
Contributor: KOGA M, UNIV. OF OCCUPATIONAL AND ENVIRONMENTAL HEALTH
InstType: EI
InstName: JEOL JMS-01-SG
IoniMethod: _ENERGY 70 eV
IonPolarity: pos
Date: 2010-10-09 19:48:36+02:00
Num Peaks: 26
45 135 73 999 74 85 75 12 115 60 139 105 147 95 175 7 179 215 191 80 
192 65 203 9 219 970 220 185 221 55 223 6 233 65 249 560 250 140 251 6 
293 860 294 210 295 80 308 52 309 150 310 60 
