Name: 6-CHLORO-4-(ORTHO-CHLOROPHENYL)-2(1H)-QUINAZOLINONE
MW: 290
Formula: C14H8Cl2N2O
Synonym: MassBank: JP004074
Synonym: 6-CHLORO-4-(ORTHO-CHLOROPHENYL)-2(1H)-QUINAZOLINONE
Structure: 362D43484C4F524F2D342D284F5254484F2D43484C4F524F5048454E594C292D32283148292D5155494E415A4F4C494E4F4E452E6D6F6C0A20204368656D447261773035313731303133313732440A2031392032312020302020302020302020302020302020302020302020303939392056323030300A20202020302E373134352020202D322E3036323520202020302E30303030204E202020302020302020302020302020302020302020302020302020302020302020302020300A20202020312E343238392020202D312E3635303020202020302E303030302043202020302020302020302020302020302020302020302020302020302020302020302020300A20202020312E343238392020202D302E3832353020202020302E30303030204E202020302020302020302020302020302020302020302020302020302020302020302020300A20202020302E373134352020202D302E3431323520202020302E303030302043202020302020302020302020302020302020302020302020302020302020302020302020300A2020202D302E303030302020202D302E3832353020202020302E303030302043202020302020302020302020302020302020302020302020302020302020302020302020300A2020202D302E373134352020202D302E3431323520202020302E303030302043202020302020302020302020302020302020302020302020302020302020302020302020300A2020202D312E343238392020202D302E3832353020202020302E303030302043202020302020302020302020302020302020302020302020302020302020302020302020300A2020202D312E343238392020202D312E3635303020202020302E303030302043202020302020302020302020302020302020302020302020302020302020302020302020300A2020202D302E373134352020202D322E3036323520202020302E303030302043202020302020302020302020302020302020302020302020302020302020302020302020300A20202020302E303030302020202D312E3635303020202020302E303030302043202020302020302020302020302020302020302020302020302020302020302020302020300A20202020322E313433342020202D322E3036323520202020302E30303030204F202020302020302020302020302020302020302020302020302020302020302020302020300A20202020302E3731343520202020302E3431323520202020302E303030302043202020302020302020302020302020302020302020302020302020302020302020302020300A20202020312E3432383920202020302E3832353020202020302E303030302043202020302020302020302020302020302020302020302020302020302020302020302020300A20202020312E3432383920202020312E3635303020202020302E303030302043202020302020302020302020302020302020302020302020302020302020302020302020300A20202020302E3731343520202020322E3036323520202020302E303030302043202020302020302020302020302020302020302020302020302020302020302020302020300A20202020302E3030303020202020312E3635303020202020302E303030302043202020302020302020302020302020302020302020302020302020302020302020302020300A20202020302E3030303020202020302E3832353020202020302E303030302043202020302020302020302020302020302020302020302020302020302020302020302020300A20202020322E3134333420202020302E3431323520202020302E3030303020436C2020302020302020302020302020302020302020302020302020302020302020302020300A2020202D322E313433342020202D302E3431323520202020302E3030303020436C2020302020302020302020302020302020302020302020302020302020302020302020300A2020312020322020312020302020202020200A2020322020332020312020302020202020200A2020332020342020322020302020202020200A2020342020352020312020302020202020200A2020352020362020312020302020202020200A2020362020372020322020302020202020200A2020372020382020312020302020202020200A2020382020392020322020302020202020200A2020392031302020312020302020202020200A2020312031302020312020302020202020200A2020352031302020322020302020202020200A2020322031312020322020302020202020200A2031322031332020312020302020202020200A2031332031342020322020302020202020200A2031342031352020312020302020202020200A2031352031362020322020302020202020200A2031362031372020312020302020202020200A2031322031372020322020302020202020200A2031332031382020312020302020202020200A2020342031322020312020302020202020200A2020372031392020312020302020202020200A4D2020454E44
Contributor: YAMAMOTO M, DEP. CHEMISTRY, FAC. SCIENCE, NARA WOMEN'S UNIV.
InstType: EI
InstName: HITACHI RMU-6E
IoniMethod: _ENERGY 70 eV
IonPolarity: pos
Date: 2010-10-09 19:48:36+02:00
Num Peaks: 142
32 25 36 51 37 21 38 51 39 93 41 52 43 42 44 2 49 26 50 156 
51 159 52 5 55 37 56 17 57 47 61 4 62 107 63 186 64 67 65 4 
67 16 68 18 68.5 18 69 3 69.5 14 70 17 71 25 72 2 73 70 74 123 
74.5 16 75 39 76 107 77 80 78 18 81 2 81.5 32 82 60 82.5 100 83 3 
84 20 85 47 86 38 86.5 2 87 59 87.5 15 88 80 88.5 2 89 54 90 50 
91 23 93 2 95 36 95.5 72 96 96 96.5 3 97 29 98 50 99 65 99.5 8 
100 119 100.5 37 101 47 102 23 103 27 105 16 106 17 109 2 110 52 111 104 
112 54 112.5 1 113 150 114 79 115 37 116 2 117 13 118 18 119 15 123 2 
124 146 125 53 126 59 127 21 128 78 129 19 137 32 138 19 139 38 140 65 
141 39 144 3 149 44 150 59 151 103 152 3 153 34 163 42 164 141 165 8 
175 30 176 37 177 119 178 4 179 81 181 30 186 32 191 9 192 181 193 50 
200 43 213 5 220 99 221 23 225 22 226 7 227 52 228 29 237 39 248 54 
249 85 250 358 251 53 252 64 253 14 254 64 255 913 256 17 257 307 258 52 
262 177 263 3 264 115 265 19 266 22 289 53 290 999 291 486 292 635 293 16 
294 115 295 20 
