Name: MassBank: JP004704
MW: 282
Formula: C15H23Br
Synonym: MassBank: JP004704
Synonym: 2-BROMO-1,3,5-TRIISOPROPYLBENZENE
Synonym: 2,4,6-TRIISOPROPYLPHENYLBROMIDE
Structure: 322D42524F4D4F2D312C332C352D54524949534F50524F50594C42454E5A454E452E6D6F6C0A20204368656D447261773132323030393133333732440A2031362031362020302020302020302020302020302020302020302020303939392056323030300A20202020302E3631383720202020302E3731343520202020302E303030302043202020302020302020302020302020302020302020302020302020302020302020302020300A20202020312E303331332020202D302E3030303020202020302E303030302043202020302020302020302020302020302020302020302020302020302020302020302020300A20202020302E363138382020202D302E3731343520202020302E303030302043202020302020302020302020302020302020302020302020302020302020302020302020300A2020202D302E323036332020202D302E3731343520202020302E303030302043202020302020302020302020302020302020302020302020302020302020302020302020300A2020202D302E3631383820202020302E3030303020202020302E303030302043202020302020302020302020302020302020302020302020302020302020302020302020300A2020202D302E3230363320202020302E3731343520202020302E303030302043202020302020302020302020302020302020302020302020302020302020302020302020300A2020202D312E3434333820202020302E3030303020202020302E303030302043202020302020302020302020302020302020302020302020302020302020302020302020300A2020202D312E3835363320202020302E3731343520202020302E303030302043202020302020302020302020302020302020302020302020302020302020302020302020300A2020202D312E383536332020202D302E3731343520202020302E303030302043202020302020302020302020302020302020302020302020302020302020302020302020300A20202020312E303331332020202D312E3432383920202020302E303030302043202020302020302020302020302020302020302020302020302020302020302020302020300A20202020312E383536332020202D312E3432383920202020302E303030302043202020302020302020302020302020302020302020302020302020302020302020302020300A20202020302E363138382020202D322E3134333420202020302E303030302043202020302020302020302020302020302020302020302020302020302020302020302020300A20202020312E3033313220202020312E3432383920202020302E303030302043202020302020302020302020302020302020302020302020302020302020302020302020300A20202020302E3631383720202020322E3134333420202020302E303030302043202020302020302020302020302020302020302020302020302020302020302020302020300A20202020312E3835363320202020312E3432383920202020302E303030302043202020302020302020302020302020302020302020302020302020302020302020302020300A20202020312E383536332020202D302E3030303020202020302E303030302042722020302020302020302020302020302020302020302020302020302020302020302020300A2020312020322020312020302020202020200A2020322020332020322020302020202020200A2020332020342020312020302020202020200A2020342020352020322020302020202020200A2020352020362020312020302020202020200A2020312020362020322020302020202020200A2020372020382020312020302020202020200A2020372020392020312020302020202020200A2020352020372020312020302020202020200A2031302031312020312020302020202020200A2031302031322020312020302020202020200A2020332031302020312020302020202020200A2031332031342020312020302020202020200A2031332031352020312020302020202020200A2020312031332020312020302020202020200A2020322031362020312020302020202020200A4D2020454E44
Contributor: MASS SPECTROSCOPY SOC. OF JAPAN (MSSJ)
InstType: EI
InstName: JEOL JMS-D-3000
IoniMethod: _ENERGY 70 eV
IonPolarity: pos
Date: 2010-10-09 19:48:36+02:00
Num Peaks: 70
43 687 51 23 53 23 55 16 63 16 64 33 65 34 70 11 71 33 76 19 
77 69 78 23 79 21 91 112 92 11 103 18 104 17 105 58 111 14 112 14 
115 89 116 38 117 111 118 46 119 48 126 16 127 39 128 93 129 85 130 51 
131 70 132 22 133 14 141 43 142 31 143 42 144 25 145 87 146 47 147 11 
157 16 159 56 169 14 171 14 173 30 183 23 185 17 197 14 199 13 203 74 
204 11 211 38 213 34 225 56 227 61 239 110 240 14 241 120 242 11 253 23 
255 20 267 999 268 162 269 979 270 151 271 18 282 389 283 69 284 385 285 66 
