Name: MassBank: JP004314
MW: 187
Formula: C12H13NO
Synonym: MassBank: JP004314
Synonym: 4-BENZYL-3,5-DIMETHYLISOXAZOLE
Structure: 342D42454E5A594C2D332C352D44494D455448594C49534F58415A4F4C452E6D6F6C0A20204368656D447261773033323531303035343532440A2031342031352020302020302020302020302020302020302020302020303939392056323030300A20202020312E3636393320202020302E3837373020202020302E30303030204F202020302020302020302020302020302020302020302020302020302020302020302020300A20202020322E3038313820202020302E3136323520202020302E30303030204E202020302020302020302020302020302020302020302020302020302020302020302020300A20202020312E353239382020202D302E3435303520202020302E303030302043202020302020302020302020302020302020302020302020302020302020302020302020300A20202020302E373736312020202D302E3131353020202020302E303030302043202020302020302020302020302020302020302020302020302020302020302020302020300A20202020302E3836323320202020302E3730353520202020302E303030302043202020302020302020302020302020302020302020302020302020302020302020302020300A20202020302E3234393220202020312E3235373520202020302E303030302043202020302020302020302020302020302020302020302020302020302020302020302020300A20202020312E373031332020202D312E3235373520202020302E303030302043202020302020302020302020302020302020302020302020302020302020302020302020300A20202020302E303631362020202D302E3532373520202020302E303030302043202020302020302020302020302020302020302020302020302020302020302020302020300A2020202D302E363532392020202D302E3131353020202020302E303030302043202020302020302020302020302020302020302020302020302020302020302020302020300A2020202D312E333637332020202D302E3532373520202020302E303030302043202020302020302020302020302020302020302020302020302020302020302020302020300A2020202D322E303831382020202D302E3131353020202020302E303030302043202020302020302020302020302020302020302020302020302020302020302020302020300A2020202D322E3038313820202020302E3731303020202020302E303030302043202020302020302020302020302020302020302020302020302020302020302020302020300A2020202D312E3336373320202020312E3132323520202020302E303030302043202020302020302020302020302020302020302020302020302020302020302020302020300A2020202D302E3635323920202020302E3731303020202020302E303030302043202020302020302020302020302020302020302020302020302020302020302020302020300A2020312020322020312020302020202020200A2020322020332020322020302020202020200A2020332020342020312020302020202020200A2020342020352020322020302020202020200A2020312020352020312020302020202020200A2020352020362020312020302020202020200A2020332020372020312020302020202020200A2020382020392020312020302020202020200A2020392031302020312020302020202020200A2031302031312020322020302020202020200A2031312031322020312020302020202020200A2031322031332020322020302020202020200A2031332031342020312020302020202020200A2020392031342020322020302020202020200A2020342020382020312020302020202020200A4D2020454E44
Contributor: SASAKI S, TOYOHASHI UNIV. OF TECH.
InstType: EI
InstName: MX-1303
IoniMethod: _ENERGY 50 eV
IonPolarity: pos
Date: 2010-10-09 19:48:36+02:00
Num Peaks: 72
26 27 27 79 29 16 30 1 38 33 39 164 41 110 42 13 43 730 50 85 
51 218 52 7 53 35 54 27 55 22 62 3 63 96 64 25 65 145 66 6 
67 38 68 109 69 36 70 1 74 36 75 55 76 71 77 35 78 102 79 25 
81 25 87 1 88 11 89 49 90 19 91 38 92 41 101 33 102 140 103 61 
104 96 105 41 109 46 110 7 115 134 116 60 117 98 118 4 127 41 128 76 
129 60 130 15 131 470 132 52 141 14 142 3 143 49 144 590 145 282 146 6 
147 14 148 22 154 16 156 1 157 14 158 16 168 30 170 1 172 66 186 252 
187 999 188 131 
