Name: ISOPROPYL HEPTANOATE
MW: 172
Formula: C10H20O2
Synonym: MassBank: JP006421
Synonym: ISOPROPYL HEPTANOATE
Structure: 49534F50524F50594C2048455054414E4F4154452E6D6F6C0A20204368656D447261773038313131303231343132440A2031322031312020302020302020302020302020302020302020302020303939392056323030300A20202020302E383235302020202D302E3335373220202020302E303030302043202020302020302020302020302020302020302020302020302020302020302020302020300A20202020302E343132352020202D312E3037313720202020302E303030302043202020302020302020302020302020302020302020302020302020302020302020302020300A2020202D302E343132352020202D312E3037313720202020302E303030302043202020302020302020302020302020302020302020302020302020302020302020302020300A2020202D302E383235302020202D302E3335373220202020302E303030302043202020302020302020302020302020302020302020302020302020302020302020302020300A2020202D312E363530302020202D302E3335373220202020302E303030302043202020302020302020302020302020302020302020302020302020302020302020302020300A2020202D322E3036323520202020302E3335373220202020302E303030302043202020302020302020302020302020302020302020302020302020302020302020302020300A2020202D322E3838373520202020302E3335373220202020302E303030302043202020302020302020302020302020302020302020302020302020302020302020302020300A20202020302E3431323520202020302E3335373220202020302E30303030204F202020302020302020302020302020302020302020302020302020302020302020302020300A20202020312E363530302020202D302E3335373220202020302E30303030204F202020302020302020302020302020302020302020302020302020302020302020302020300A20202020322E3036323520202020302E3335373220202020302E303030302043202020302020302020302020302020302020302020302020302020302020302020302020300A20202020312E3635303020202020312E3037313720202020302E303030302043202020302020302020302020302020302020302020302020302020302020302020302020300A20202020322E3838373520202020302E3335373220202020302E303030302043202020302020302020302020302020302020302020302020302020302020302020302020300A2020312020322020312020302020202020200A2020322020332020312020302020202020200A2020332020342020312020302020202020200A2020342020352020312020302020202020200A2020352020362020312020302020202020200A2020362020372020312020302020202020200A2020312020382020322020302020202020200A2020312020392020312020302020202020200A2031302031312020312020302020202020200A2031302031322020312020302020202020200A2020392031302020312020302020202020200A4D2020454E44
Contributor: HISAHIRO HAGIWARA, CHEMICAL RESEARCH INSTITUTE OF NON-AQUEOUSSOLUTIONS TOHOKU UNIV.
InstType: EI
InstName: HITACHI M-80B
IoniMethod: _ENERGY 70 eV
IonPolarity: pos
Date: 2010-10-09 19:48:36+02:00
Num Peaks: 39
15 17 26 11 27 185 29 114 39 115 41 364 42 135 43 999 44 25 45 34 
53 13 55 147 56 41 57 55 59 199 60 481 61 70 68 19 69 56 70 110 
71 46 73 150 74 21 83 37 84 34 85 107 87 133 89 29 95 12 101 30 
102 221 103 17 111 13 113 479 114 33 130 132 131 281 132 18 157 14 
