Name: MassBank: JP003049
MW: 149
Formula: C2H2Cl3F
Synonym: MassBank: JP003049
Synonym: 1,1,2-TRICHLORO-2-FLUOROETHANE
Structure: 310A31360A312C312C322D54524943484C4F524F2D322D464C554F524F455448414E452E6D6F6C0A20204368656D447261773130323330393031333732440A2020362020352020302020302020302020302020302020302020302020303939392056323030300A2020202D302E343132352020202D302E3030303020202020302E303030302043202020302020302020302020302020302020302020302020302020302020302020302020300A20202020302E343132352020202D302E3030303020202020302E303030302043202020302020302020302020302020302020302020302020302020302020302020302020300A20202020302E3832353020202020302E3731343520202020302E303030302046202020302020302020302020302020302020302020302020302020302020302020302020300A20202020302E383235302020202D302E3731343520202020302E3030303020436C2020302020302020302020302020302020302020302020302020302020302020302020300A2020202D302E383235302020202D302E3731343520202020302E3030303020436C2020302020302020302020302020302020302020302020302020302020302020302020300A2020202D302E3832353020202020302E3731343520202020302E3030303020436C2020302020302020302020302020302020302020302020302020302020302020302020300A2020312020322020312020302020202020200A2020322020332020312020302020202020200A2020322020342020312020302020202020200A2020312020352020312020302020202020200A2020312020362020312020302020202020200A4D2020454E44
Contributor: SASAKI S, TOYOHASHI UNIV. OF TECH.
InstType: EI
InstName: Unknown
IoniMethod: EI
IonPolarity: pos
Date: 2010-10-09 19:48:36+02:00
Num Peaks: 65
24 7 25 28 26 55 27 0 31 35 32 11 33 2 35 6 36 26 37 20 
38 9 43 0 44 72 45 87 46 2 47 5 48 36 49 40 50 12 51 1 
57 1 58 1 59 11 60 5 61 27 62 15 63 8 66 0 67 230 68 4 
69 75 70 0 78 14 79 159 80 67 81 5 82 27 83 999 84 4 85 64 
86 6 87 103 94 10 95 10 96 9 97 66 98 9 99 1 101 38 103 24 
105 4 113 0 114 2 115 15 116 2 117 1 118 1 119 2 148 1 149 1 
150 84 151 13 152 80 154 2 156 3 
