Name: MassBank: JP005472
MW: 264
Formula: C10H14Cl2N2O2
Synonym: MassBank: JP005472
Synonym: N,N'-DICHLOROFORMYL-2,2'-BIPYRROLIDINE
Structure: 313030385F4E2C4E272D444943484C4F524F464F524D594C2D322C32272D4249505952524F4C4944494E452E6D6F6C0A20204368656D447261773039303631303231353332440A2031362031372020302020302020302020302020302020302020302020303939392056323030300A2020202D312E3638323020202020302E3431343020202020302E303030302043202020302020302020302020302020302020302020302020302020302020302020302020300A2020202D312E363832302020202D302E3431313020202020302E303030302043202020302020302020302020302020302020302020302020302020302020302020302020300A2020202D302E383935342020202D302E3636373120202020302E30303030204E202020302020302020302020302020302020302020302020302020302020302020302020300A2020202D302E3431323520202020302E3030313520202020302E303030302043202020302020302020302020302020302020302020302020302020302020302020302020300A2020202D302E3839373420202020302E3636383920202020302E303030302043202020302020302020302020302020302020302020302020302020302020302020302020300A20202020302E3431323520202020302E3030313520202020302E303030302043202020302020302020302020302020302020302020302020302020302020302020302020300A20202020302E383937342020202D302E3636363020202020302E303030302043202020302020302020302020302020302020302020302020302020302020302020302020300A20202020312E363832302020202D302E3431313020202020302E303030302043202020302020302020302020302020302020302020302020302020302020302020302020300A20202020312E3638323020202020302E3431343020202020302E303030302043202020302020302020302020302020302020302020302020302020302020302020302020300A20202020302E3839373620202020302E3636373320202020302E30303030204E202020302020302020302020302020302020302020302020302020302020302020302020300A20202020302E313536302020202D312E3636343620202020302E30303030204F202020302020302020302020302020302020302020302020302020302020302020302020300A2020202D302E363431312020202D312E3435313020202020302E303030302043202020302020302020302020302020302020302020302020302020302020302020302020300A2020202D312E323233322020202D322E3033353220202020302E3030303020436C2020302020302020302020302020302020302020302020302020302020302020302020300A2020202D302E3135343420202020312E3636353420202020302E30303030204F202020302020302020302020302020302020302020302020302020302020302020302020300A20202020302E3634323520202020312E3435313920202020302E303030302043202020302020302020302020302020302020302020302020302020302020302020302020300A20202020312E3232353820202020322E3033353220202020302E3030303020436C2020302020302020302020302020302020302020302020302020302020302020302020300A2020312020322020312020302020202020200A2020322020332020312020302020202020200A2020332020342020312020302020202020200A2020342020352020312020302020202020200A2020352020312020312020302020202020200A2020342020362020312020302020202020200A2020332031322020312020302020202020200A2020362020372020312020302020202020200A2020372020382020312020302020202020200A2020382020392020312020302020202020200A2020392031302020312020302020202020200A2031302020362020312020302020202020200A2031302031352020312020302020202020200A2031312031322020322020302020202020200A2031322031332020312020302020202020200A2031342031352020322020302020202020200A2031352031362020312020302020202020200A4D2020454E44
Contributor: HIRAMA M, TOHOKU UNIV. FACULTY OF SCIENCE DEPT. OF CHEMISTRY YUKIBUNSEKI
InstType: EI
InstName: HITACHI M-52
IoniMethod: _ENERGY 14 eV
IonPolarity: pos
Date: 2010-10-09 19:48:36+02:00
Num Peaks: 13
70 11 131 16 132 933 133 167 134 999 135 11 165 11 185 44 193 25 229 261 
264 25 265 9 266 22 
