Name: 1-NITRONAPHTHALENE
CAS: 86-57-7
MW: 173
Formula: C10H7NO2
Synonym: MassBank: JP001616
Synonym: 1-NITRONAPHTHALENE
Structure: 312D4E4954524F4E4150485448414C454E452E6D6F6C0A20204368656D447261773131323130393138353232440A2031332031342020302020302020302020302020302020302020302020303939392056323030300A2020202D302E373134352020202D302E3230363320202020302E303030302043202020302020302020302020302020302020302020302020302020302020302020302020300A2020202D312E3432383920202020302E3230363320202020302E303030302043202020302020302020302020302020302020302020302020302020302020302020302020300A2020202D312E3432383920202020312E3033313220202020302E303030302043202020302020302020302020302020302020302020302020302020302020302020302020300A2020202D302E3731343520202020312E3434333820202020302E303030302043202020302020302020302020302020302020302020302020302020302020302020302020300A20202020302E3030303020202020312E3033313320202020302E303030302043202020302020302020302020302020302020302020302020302020302020302020302020300A20202020302E3731343520202020312E3434333820202020302E303030302043202020302020302020302020302020302020302020302020302020302020302020302020300A20202020312E3432383920202020312E3033313320202020302E303030302043202020302020302020302020302020302020302020302020302020302020302020302020300A20202020312E3432383920202020302E3230363320202020302E303030302043202020302020302020302020302020302020302020302020302020302020302020302020300A20202020302E373134352020202D302E3230363320202020302E303030302043202020302020302020302020302020302020302020302020302020302020302020302020300A2020202D302E3030303020202020302E3230363320202020302E303030302043202020302020302020302020302020302020302020302020302020302020302020302020300A2020202D302E373134352020202D312E3033313220202020302E30303030204E202020302020332020302020302020302020302020302020302020302020302020302020300A20202020302E303030302020202D312E3434333820202020302E30303030204F202020302020302020302020302020302020302020302020302020302020302020302020300A2020202D312E343238392020202D312E3434333820202020302E30303030204F202020302020352020302020302020302020302020302020302020302020302020302020300A2020312020322020312020302020202020200A2020322020332020322020302020202020200A2020332020342020312020302020202020200A2020342020352020322020302020202020200A2020352020362020312020302020202020200A2020362020372020322020302020202020200A2020372020382020312020302020202020200A2020382020392020322020302020202020200A2020392031302020312020302020202020200A2020312031302020322020302020202020200A2020352031302020312020302020202020200A2031312031322020322020302020202020200A2031312031332020312020302020202020200A2020312031312020312020302020202020200A4D202043484720203220203131202020312020313320202D310A4D2020454E44
Contributor: KOGA M, UNIV. OF OCCUPATIONAL AND ENVIRONMENTAL HEALTH
InstType: EI
InstName: VARIAN MAT-44
IoniMethod: _ENERGY 70 eV
IonPolarity: pos
Date: 2010-10-09 19:48:36+02:00
Num Peaks: 54
40 27 41 12 43 25 44 13 45 10 46 236 49 58 50 563 51 642 52 93 
53 26 61 118 62 281 63 510 64 78 65 82 73 49 74 421 75 485 76 220 
77 531 78 53 85 31 86 88 87 124 88 56 89 150 90 93 97 12 98 79 
99 59 100 60 101 218 102 74 103 25 113 31 114 85 115 999 116 121 117 75 
118 49 125 43 126 366 127 859 128 117 129 123 130 27 143 110 144 22 145 130 
146 13 172 29 173 319 174 38 
