Name: PROPANAL DIETHYL ACETAL
MW: 132
Formula: C7H16O2
Synonym: MassBank: JP008636
Synonym: PROPANAL DIETHYL ACETAL
Structure: 310A32320A50524F50414E414C204449455448594C2041434554414C2E6D6F6C0A20204368656D447261773038313231303035353832440A2020392020382020302020302020302020302020302020302020302020303939392056323030300A2020202D302E323036332020202D302E3335373220202020302E303030302043202020302020302020302020302020302020302020302020302020302020302020302020300A2020202D312E303331332020202D302E3335373220202020302E303030302043202020302020302020302020302020302020302020302020302020302020302020302020300A2020202D312E343433382020202D312E3037313720202020302E303030302043202020302020302020302020302020302020302020302020302020302020302020302020300A20202020302E3230363320202020302E3335373220202020302E30303030204F202020302020302020302020302020302020302020302020302020302020302020302020300A20202020302E323036332020202D312E3037313720202020302E30303030204F202020302020302020302020302020302020302020302020302020302020302020302020300A2020202D302E3230363320202020312E3037313720202020302E303030302043202020302020302020302020302020302020302020302020302020302020302020302020300A2020202D312E3033313320202020312E3037313720202020302E303030302043202020302020302020302020302020302020302020302020302020302020302020302020300A20202020312E303331322020202D312E3037313720202020302E303030302043202020302020302020302020302020302020302020302020302020302020302020302020300A20202020312E343433382020202D302E3335373220202020302E303030302043202020302020302020302020302020302020302020302020302020302020302020302020300A2020312020322020312020302020202020200A2020322020332020312020302020202020200A2020362020372020312020302020202020200A2020342020362020312020302020202020200A2020382020392020312020302020202020200A2020352020382020312020302020202020200A2020312020342020312020302020202020200A2020312020352020312020302020202020200A4D2020454E44
Contributor: SODA AROMATIC CO., LTD.
InstType: EI
InstName: HITACHI M-80B
IoniMethod: _ENERGY 70 eV
IonPolarity: pos
Date: 2010-10-09 19:48:36+02:00
Num Peaks: 25
15 24 19 16 26 26 27 228 29 387 30 30 31 301 39 28 41 112 42 16 
43 48 45 84 47 622 57 175 58 97 59 999 60 28 75 362 76 12 78 13 
86 45 87 674 88 37 103 482 104 21 
