Name: 2-FORMYLTHIOPHENE
MW: 111
Formula: C5H4OS
Synonym: MassBank: JP009167
Synonym: 2-FORMYLTHIOPHENE
Structure: 310A31390A322D464F524D594C5448494F5048454E452E6D6F6C0A20204368656D447261773031303331303133353232440A2020372020372020302020302020302020302020302020302020302020303939392056323030300A2020202D302E3036313620202020302E3238393820202020302E303030302043202020302020302020302020302020302020302020302020302020302020302020302020300A2020202D302E313437392020202D302E3533303720202020302E303030302043202020302020302020302020302020302020302020302020302020302020302020302020300A2020202D302E393534382020202D302E3730323320202020302E303030302043202020302020302020302020302020302020302020302020302020302020302020302020300A2020202D312E3336373320202020302E3031323220202020302E303030302043202020302020302020302020302020302020302020302020302020302020302020302020300A2020202D302E3831353320202020302E3632353320202020302E303030302053202020302020302020302020302020302020302020302020302020302020302020302020300A20202020302E3635323920202020302E3730323320202020302E303030302043202020302020302020302020302020302020302020302020302020302020302020302020300A20202020312E3336373320202020302E3238393820202020302E30303030204F202020302020302020302020302020302020302020302020302020302020302020302020300A2020312020322020322020302020202020200A2020322020332020312020302020202020200A2020332020342020322020302020202020200A2020342020352020312020302020202020200A2020312020352020312020302020202020200A2020362020372020322020302020202020200A2020312020362020312020302020202020200A4D2020454E44
Contributor: SODA AROMATIC CO., LTD.
InstType: EI
InstName: HITACHI M-80B
IoniMethod: _ENERGY 70 eV
IonPolarity: pos
Date: 2010-10-09 19:48:36+02:00
Num Peaks: 26
26 21 29 87 32 13 37 65 38 93 39 352 40 15 42 13 44 14 45 228 
49 26 50 63 51 26 53 22 56 11 57 164 58 142 69 35 81 61 82 54 
83 117 84 41 111 999 112 940 113 107 114 44 
