Name: MassBank: JP007496
MW: 230
Formula: C12H26O2Si
Synonym: MassBank: JP007496
Synonym: 3,5,5-TRIMETHYLHEXANOIC ACID TRIMETHYLSILYL ESTER
Structure: 332C352C352D5452494D455448594C484558414E4F49432041434944205452494D455448594C53494C594C2045535445522E6D6F6C0A20204368656D447261773032323231303030333332440A2031352031342020302020302020302020302020302020302020302020303939392056323030300A2020202D302E373134352020202D302E3035353320202020302E303030302043202020302020302020302020302020302020302020302020302020302020302020302020300A20202020302E303030302020202D302E3436373820202020302E303030302043202020302020302020302020302020302020302020302020302020302020302020302020300A20202020302E373134352020202D302E3035353320202020302E303030302043202020302020302020302020302020302020302020302020302020302020302020302020300A20202020312E343238392020202D302E3436373820202020302E303030302043202020302020302020302020302020302020302020302020302020302020302020302020300A20202020322E313433342020202D302E3035353320202020302E303030302043202020302020302020302020302020302020302020302020302020302020302020302020300A20202020322E353535392020202D302E3736393720202020302E303030302043202020302020302020302020302020302020302020302020302020302020302020302020300A2020202D302E3731343520202020302E3736393720202020302E30303030204F202020302020302020302020302020302020302020302020302020302020302020302020300A2020202D312E343238392020202D302E3436373820202020302E30303030204F202020302020302020302020302020302020302020302020302020302020302020302020300A20202020312E3733303920202020302E3635393220202020302E303030302043202020302020302020302020302020302020302020302020302020302020302020302020300A20202020322E3835373920202020302E3335373220202020302E303030302043202020302020302020302020302020302020302020302020302020302020302020302020300A20202020302E3731343520202020302E3736393720202020302E303030302043202020302020302020302020302020302020302020302020302020302020302020302020300A2020202D322E313433342020202D302E3035353320202020302E303030302053692020302020302020302020302020302020302020302020302020302020302020302020300A2020202D322E353535392020202D302E3736393720202020302E303030302043202020302020302020302020302020302020302020302020302020302020302020302020300A2020202D322E3835373920202020302E3335373220202020302E303030302043202020302020302020302020302020302020302020302020302020302020302020302020300A2020202D312E3733303920202020302E3635393220202020302E303030302043202020302020302020302020302020302020302020302020302020302020302020302020300A2020312020322020312020302020202020200A2020322020332020312020302020202020200A2020332020342020312020302020202020200A2020342020352020312020302020202020200A2020352020362020312020312020202020200A2020312020372020322020302020202020200A2020312020382020312020302020202020200A2020352020392020312020312020202020200A2020352031302020312020302020202020200A2020332031312020312020302020202020200A2031322031332020312020302020202020200A2031322031342020312020302020202020200A2031322031352020312020302020202020200A2020382031322020312020302020202020200A4D2020454E44
Contributor: KOGA M, UNIV. OF OCCUPATIONAL AND ENVIRONMENTAL HEALTH
InstType: EI
InstName: JEOL JMS-01-SG
IoniMethod: _ENERGY 70 eV
IonPolarity: pos
Date: 2010-10-09 19:48:36+02:00
Num Peaks: 40
41 59 43 88 45 88 47 8 55 148 56 74 57 585 59 6 61 66 69 81 
70 22 73 99 74 74 75 896 76 66 77 3 83 540 84 51 85 29 97 6 
116 59 117 999 118 74 119 4 125 51 132 666 133 74 143 3 144 237 145 155 
146 44 158 4 159 51 173 118 188 237 189 3 202 96 215 748 216 118 217 22 
