Name: M-METHOXYPHENOL
MW: 124
Formula: C7H8O2
Synonym: MassBank: JP008435
Synonym: M-METHOXYPHENOL
Synonym: RESORCINOL MONOMETHYL ETHER
Structure: 310A32330A5245534F5243494E4F4C204D4F4E4F4D455448594C2045544845522E6D6F6C0A20204368656D447261773038313231303036333332440A2020392020392020302020302020302020302020302020302020302020303939392056323030300A20202020312E303731372020202D302E3832353020202020302E30303030204F202020302020302020302020302020302020302020302020302020302020302020302020300A20202020302E333537322020202D302E3431323520202020302E303030302043202020302020302020302020302020302020302020302020302020302020302020302020300A2020202D302E333537322020202D302E3832353020202020302E303030302043202020302020302020302020302020302020302020302020302020302020302020302020300A2020202D312E303731372020202D302E3431323520202020302E303030302043202020302020302020302020302020302020302020302020302020302020302020302020300A2020202D312E373836322020202D302E3832353020202020302E30303030204F202020302020302020302020302020302020302020302020302020302020302020302020300A2020202D312E3037313720202020302E3431323520202020302E303030302043202020302020302020302020302020302020302020302020302020302020302020302020300A2020202D302E3335373220202020302E3832353020202020302E303030302043202020302020302020302020302020302020302020302020302020302020302020302020300A20202020302E3335373220202020302E3431323520202020302E303030302043202020302020302020302020302020302020302020302020302020302020302020302020300A20202020312E373836322020202D302E3431323520202020302E303030302043202020302020302020302020302020302020302020302020302020302020302020302020300A2020312020322020312020302020202020200A2020322020332020312020302020202020200A2020332020342020322020302020202020200A2020342020352020312020302020202020200A2020342020362020312020302020202020200A2020362020372020322020302020202020200A2020372020382020312020302020202020200A2020322020382020322020302020202020200A2020312020392020312020302020202020200A4D2020454E44
Contributor: SODA AROMATIC CO., LTD.
InstType: EI
InstName: HITACHI M-80B
IoniMethod: _ENERGY 70 eV
IonPolarity: pos
Date: 2010-10-09 19:48:36+02:00
Num Peaks: 41
14 44 15 65 17 58 26 23 27 107 29 73 32 16 38 74 39 209 40 53 
41 45 42 20 45 21 50 38 51 83 52 89 53 191 54 40 55 87 58 17 
61 19 62 60 63 92 64 48 65 120 66 180 67 24 68 24 69 86 77 26 
78 19 79 21 80 26 81 325 82 22 93 54 94 436 95 255 123 22 124 999 
125 55 
