Name: BETA-ESTRADIOL
MW: 272
Formula: C18H24O2
Synonym: MassBank: JP009697
Synonym: BETA-ESTRADIOL
Synonym: ESTRA-1,3,5(10)-TRIENE-3,17-DIOL
Structure: 303737395F45535452412D312C332C35283130292D545249454E452D332C31372D44494F4C2E6D6F6C0A20204368656D447261773130323031303134353132440A2032332032362020302020302020302020302020302020302020302020303939392056323030300A2020202D322E303633372020202D312E3334343820202020302E303030302043202020302020302020302020302020302020302020302020302020302020302020302020300A2020202D322E303633372020202D302E3531393820202020302E303030302043202020302020302020302020302020302020302020302020302020302020302020302020300A2020202D312E333439322020202D302E3130373320202020302E303030302043202020302020302020302020302020302020302020302020302020302020302020302020300A2020202D312E333439322020202D312E3735373320202020302E303030302043202020302020302020302020302020302020302020302020302020302020302020302020300A2020202D302E363334382020202D312E3334343820202020302E303030302043202020302020302020302020302020302020302020302020302020302020302020302020300A20202020302E303739372020202D312E3735373320202020302E303030302043202020302020302020302020302020302020302020302020302020302020302020302020300A20202020302E373934322020202D312E3334343820202020302E303030302043202020302020302020302020302020302020302020302020302020302020302020302020300A20202020302E373934322020202D302E3531393820202020302E303030302043202020302020302020302020302020302020302020302020302020302020302020302020300A20202020312E353038362020202D302E3130373320202020302E303030302043202020302020302020302020302020302020302020302020302020302020302020302020300A20202020322E323933332020202D302E3336323220202020302E303030302043202020302020302020302020302020302020302020302020302020302020302020302020300A20202020322E3737383220202020302E3330353220202020302E303030302043202020302020302020302020302020302020302020302020302020302020302020302020300A20202020322E3239333320202020302E3937323720202020302E303030302043202020302020302020302020302020302020302020302020302020302020302020302020300A20202020312E3530383620202020302E3731373720202020302E303030302043202020302020302020302020302020302020302020302020302020302020302020302020300A20202020312E3530383620202020312E3534323720202020302E303030302043202020302020302020302020302020302020302020302020302020302020302020302020300A20202020302E3739343220202020312E3133303220202020302E303030302043202020302020302020302020302020302020302020302020302020302020302020302020300A20202020302E3037393720202020302E3731373720202020302E303030302043202020302020302020302020302020302020302020302020302020302020302020302020300A20202020302E303739372020202D302E3130373320202020302E303030302043202020302020302020302020302020302020302020302020302020302020302020302020300A2020202D302E363334382020202D302E3531393820202020302E303030302043202020302020302020302020302020302020302020302020302020302020302020302020300A2020202D322E373738322020202D312E3735373320202020302E30303030204F202020302020302020302020302020302020302020302020302020302020302020302020300A20202020322E3534383220202020312E3735373320202020302E30303030204F202020302020302020302020302020302020302020302020302020302020302020302020300A20202020302E303739372020202D302E3933323320202020302E303030302048202020302020302020302020302020302020302020302020302020302020302020302020300A20202020302E3739343220202020302E3330353220202020302E303030302048202020302020302020302020302020302020302020302020302020302020302020302020300A20202020312E353038362020202D302E3933323320202020302E303030302048202020302020302020302020302020302020302020302020302020302020302020302020300A2020312020322020312020302020202020200A2020322020332020322020302020202020200A2020312020342020322020302020202020200A2020342020352020312020302020202020200A2020352020362020312020302020202020200A2020362020372020312020302020202020200A2020372020382020312020302020202020200A2020382020392020312020302020202020200A2020392031302020312020302020202020200A2031302031312020312020302020202020200A2031312031322020312020302020202020200A2031322031332020312020302020202020200A2020392031332020312020302020202020200A2031332031342020312020312020202020200A2031332031352020312020302020202020200A2031352031362020312020302020202020200A2031362031372020312020302020202020200A2020382031372020312020302020202020200A2031372031382020312020302020202020200A2020332031382020312020302020202020200A2020352031382020322020302020202020200A2020312031392020312020302020202020200A2031322032302020312020312020202020200A2031372032312020312020362020202020200A2020382032322020312020312020202020200A2020392032332020312020362020202020200A4D2020454E44
Contributor: HASHIMOTO K, KYOTO COLLEGE OF PHARMACY
InstType: EI
InstName: HITACHI M-80
IoniMethod: _ENERGY 20 eV
IonPolarity: pos
Date: 2010-10-09 19:48:36+02:00
Num Peaks: 50
58 19 84 12 93 13 95 12 107 31 108 18 120 25 121 28 131 10 133 80 
134 19 144 17 145 55 146 157 147 53 157 33 158 57 159 105 160 204 161 29 
170 12 171 29 172 179 173 45 175 30 183 10 185 58 186 102 187 20 188 28 
197 17 199 32 200 16 211 19 212 11 213 270 214 51 215 37 225 16 226 25 
227 11 228 37 239 14 244 32 253 17 270 12 271 18 272 999 273 197 274 24 
