Name: MassBank: JP003938
MW: 107
Formula: C7H9N
Synonym: MassBank: JP003938
Synonym: 3,5-DIMETHYLPYRIDINE
Structure: 310A32310A332C352D44494D455448594C5059524944494E452E6D6F6C0A20204368656D447261773032323231303031343232440A2020382020382020302020302020302020302020302020302020302020303939392056323030300A20202020302E3731343520202020302E3431323520202020302E303030302043202020302020302020302020302020302020302020302020302020302020302020302020300A20202020302E373134352020202D302E3431323520202020302E303030302043202020302020302020302020302020302020302020302020302020302020302020302020300A2020202D302E303030302020202D302E3832353020202020302E303030302043202020302020302020302020302020302020302020302020302020302020302020302020300A2020202D302E373134352020202D302E3431323520202020302E303030302043202020302020302020302020302020302020302020302020302020302020302020302020300A2020202D302E3731343520202020302E3431323520202020302E303030302043202020302020302020302020302020302020302020302020302020302020302020302020300A20202020302E3030303020202020302E3832353020202020302E30303030204E202020302020302020302020302020302020302020302020302020302020302020302020300A2020202D312E343238392020202D302E3832353020202020302E303030302043202020302020302020302020302020302020302020302020302020302020302020302020300A20202020312E343238392020202D302E3832353020202020302E303030302043202020302020302020302020302020302020302020302020302020302020302020302020300A2020312020322020312020302020202020200A2020322020332020322020302020202020200A2020332020342020312020302020202020200A2020342020352020322020302020202020200A2020352020362020312020302020202020200A2020312020362020322020302020202020200A2020342020372020312020302020202020200A2020322020382020312020302020202020200A4D2020454E44
Contributor: MASS SPECTROSCOPY SOC. OF JAPAN (MSSJ)
InstType: EI
InstName: Unknown
IoniMethod: EI
IonPolarity: pos
Date: 2010-10-09 19:48:36+02:00
Num Peaks: 40
26 33 27 160 28 78 29 3 37 49 38 112 39 373 40 7 41 62 42 28 
49 20 50 7 51 156 52 92 53 103 54 4 61 28 62 30 63 56 64 3 
65 78 66 79 67 42 68 3 74 25 75 23 76 20 77 16 78 84 79 353 
80 88 81 4 91 29 92 209 93 20 104 3 105 58 106 491 107 999 108 79 
