Name: MassBank: JP009942
MW: 287
Formula: C17H37NO2
Synonym: MassBank: JP009942
Synonym: 1-(N,N-DIMETHYLAMINO)-3,7,11-TRIMETHYL-2,3-DODECANEDIOL
Structure: 312D284E2C4E2D44494D455448594C414D494E4F292D332C372C31312D5452494D455448594C2D322C332D444F444543414E4544494F4C2E6D6F6C0A20204368656D447261773131313730393230303332440A2032302031392020302020302020302020302020302020302020302020303939392056323030300A2020202D332E323135312020202D302E3236313520202020302E303030302043202020302020302020302020302020302020302020302020302020302020302020302020300A2020202D322E3530303620202020302E3135313020202020302E303030302043202020302020302020302020302020302020302020302020302020302020302020302020300A2020202D312E373836322020202D302E3236313520202020302E303030302043202020302020302020302020302020302020302020302020302020302020302020302020300A2020202D312E303731372020202D302E3637343020202020302E303030302043202020302020302020302020302020302020302020302020302020302020302020302020300A2020202D302E333537322020202D302E3236313520202020302E303030302043202020302020302020302020302020302020302020302020302020302020302020302020300A20202020302E333537322020202D302E3637343020202020302E303030302043202020302020302020302020302020302020302020302020302020302020302020302020300A20202020312E303731372020202D302E3236313520202020302E303030302043202020302020302020302020302020302020302020302020302020302020302020302020300A20202020312E373836322020202D302E3637343020202020302E303030302043202020302020302020302020302020302020302020302020302020302020302020302020300A20202020322E353030362020202D302E3236313520202020302E303030302043202020302020302020302020302020302020302020302020302020302020302020302020300A20202020332E323135312020202D302E3637343020202020302E303030302043202020302020302020302020302020302020302020302020302020302020302020302020300A20202020332E393239362020202D302E3236313520202020302E303030302043202020302020302020302020302020302020302020302020302020302020302020302020300A20202020342E363434312020202D302E3637343020202020302E303030302043202020302020302020302020302020302020302020302020302020302020302020302020300A2020202D322E3530303620202020302E3937363020202020302E30303030204F202020302020302020302020302020302020302020302020302020302020302020302020300A2020202D322E313938372020202D302E3937363020202020302E30303030204F202020302020302020302020302020302020302020302020302020302020302020302020300A20202020332E3932393620202020302E3536333520202020302E303030302043202020302020302020302020302020302020302020302020302020302020302020302020300A20202020312E3037313720202020302E3536333520202020302E303030302043202020302020302020302020302020302020302020302020302020302020302020302020300A2020202D312E3337333720202020302E3435333020202020302E303030302043202020302020302020302020302020302020302020302020302020302020302020302020300A2020202D332E3932393620202020302E3135313020202020302E30303030204E202020302020302020302020302020302020302020302020302020302020302020302020300A2020202D342E363434312020202D302E3236313520202020302E303030302043202020302020302020302020302020302020302020302020302020302020302020302020300A2020202D332E3932393620202020302E3937363020202020302E303030302043202020302020302020302020302020302020302020302020302020302020302020302020300A2020312020322020312020302020202020200A2020322020332020312020302020202020200A2020332020342020312020302020202020200A2020342020352020312020302020202020200A2020352020362020312020302020202020200A2020362020372020312020302020202020200A2020372020382020312020302020202020200A2020382020392020312020302020202020200A2020392031302020312020302020202020200A2031302031312020312020302020202020200A2031312031322020312020302020202020200A2020322031332020312020302020202020200A2020332031342020312020302020202020200A2031312031352020312020302020202020200A2020372031362020312020302020202020200A2020332031372020312020302020202020200A2031382031392020312020302020202020200A2031382032302020312020302020202020200A2020312031382020312020302020202020200A4D2020454E44
Contributor: KURARAY CO., LTD.
InstType: EI
InstName: JEOL JMS-D-300
IoniMethod: _ENERGY 70 eV
IonPolarity: pos
Date: 2010-10-09 19:48:36+02:00
Num Peaks: 53
28 180 32 47 41 36 43 7 44 28 45 66 46 8 55 5 57 53 58 999 
59 44 67 1 69 41 71 31 81 16 83 3 85 16 88 159 89 16 91 1 
95 16 97 20 100 16 109 2 111 16 121 5 122 5 123 1 124 5 125 8 
126 5 127 1 131 6 132 23 133 5 134 1 139 5 144 5 145 5 146 1 
147 5 149 5 150 5 151 1 152 5 153 5 155 5 159 1 160 5 270 3 
272 7 286 0 287 3 
