Name: O-BROMOPHENOL
MW: 171
Formula: C6H5BrO
Synonym: MassBank: JP006757
Synonym: O-BROMOPHENOL
Structure: 310A32310A4F2D42524F4D4F5048454E4F4C2E6D6F6C0A20204368656D447261773038313231303033303432440A2020382020382020302020302020302020302020302020302020302020303939392056323030300A2020202D302E343132352020202D302E3335373220202020302E303030302043202020302020302020302020302020302020302020302020302020302020302020302020300A20202020302E3030303020202020302E3335373220202020302E303030302043202020302020302020302020302020302020302020302020302020302020302020302020300A20202020302E3832353020202020302E3335373220202020302E303030302043202020302020302020302020302020302020302020302020302020302020302020302020300A20202020312E323337352020202D302E3335373220202020302E303030302043202020302020302020302020302020302020302020302020302020302020302020302020300A20202020302E383235302020202D312E3037313720202020302E303030302043202020302020302020302020302020302020302020302020302020302020302020302020300A20202020302E303030302020202D312E3037313720202020302E303030302043202020302020302020302020302020302020302020302020302020302020302020302020300A2020202D302E3431323520202020312E3037313720202020302E303030302042722020302020302020302020302020302020302020302020302020302020302020302020300A2020202D312E323337352020202D302E3335373220202020302E30303030204F202020302020302020302020302020302020302020302020302020302020302020302020300A2020312020322020312020302020202020200A2020322020332020322020302020202020200A2020332020342020312020302020202020200A2020342020352020322020302020202020200A2020352020362020312020302020202020200A2020312020362020322020302020202020200A2020322020372020312020302020202020200A2020312020382020312020302020202020200A4D2020454E44
Contributor: MASS SPECTROSCOPY SOC. OF JAPAN (MSSJ)
InstType: EI
InstName: HITACHI RMS-4
IoniMethod: _ENERGY 70 eV
IonPolarity: pos
Date: 2010-10-09 19:48:36+02:00
Num Peaks: 43
40 46 46 59 49 53 50 13 51 48 53 204 54 20 55 2 60 31 61 137 
62 226 63 55 64 552 65 873 66 112 72 1 73 36 74 84 75 43 76 2 
77 13 79 38 80 20 81 4 82 18 86 48 87 48 91 2 92 155 93 219 
94 23 116 1 117 56 118 15 119 51 143 6 144 23 145 56 146 23 172 999 
173 112 174 982 175 107 
