Name: MassBank: JP002441
MW: 196
Formula: C11H16O3
Synonym: MassBank: JP002441
Synonym: 4,4-DIMETHYL-8-OXO-1ALPHA,5ALPHA-BICYCLO(3.3.0)OCTANE-2BETA-CARBOXYLIC ACID
Structure: 342C342D44494D455448594C2D382D4F584F2D31414C5048412C35414C5048412D42494359434C4F28332E332E30294F4354414E452D32424554412D434152424F58594C494320414349442E6D6F6C0A20204368656D447261773130313831303136343132440A2031362031372020302020302020302020302020302020302020302020303939392056323030300A20202020302E3132383820202020302E3238383520202020302E303030302043202020302020302020302020302020302020302020302020302020302020302020302020300A20202020302E333833372020202D302E3439363120202020302E303030302043202020302020302020302020302020302020302020302020302020302020302020302020300A2020202D302E323833372020202D302E3938313120202020302E303030302043202020302020302020302020302020302020302020302020302020302020302020302020300A2020202D302E393531322020202D302E3439363120202020302E303030302043202020302020302020302020302020302020302020302020302020302020302020302020300A2020202D302E3639363220202020302E3238383520202020302E303030302043202020302020302020302020302020302020302020302020302020302020302020302020300A2020202D302E3935313220202020312E3037333120202020302E303030302043202020302020302020302020302020302020302020302020302020302020302020302020300A2020202D302E3238333720202020312E3535383020202020302E303030302043202020302020302020302020302020302020302020302020302020302020302020302020300A20202020302E3338333720202020312E3037333120202020302E303030302043202020302020302020302020302020302020302020302020302020302020302020302020300A20202020312E313638332020202D302E3735313120202020302E303030302043202020302020302020302020302020302020302020302020302020302020302020302020300A20202020312E333339382020202D312E3535383020202020302E30303030204F202020302020302020302020302020302020302020302020302020302020302020302020300A20202020312E373531372020202D302E3136373720202020302E30303030204F202020302020302020302020302020302020302020302020302020302020302020302020300A20202020312E3136383320202020312E3332383120202020302E30303030204F202020302020302020302020302020302020302020302020302020302020302020302020300A2020202D312E323939382020202D312E3234333820202020302E303030302043202020302020302020302020302020302020302020302020302020302020302020302020300A2020202D312E373531372020202D302E3239363520202020302E303030302043202020302020302020302020302020302020302020302020302020302020302020302020300A20202020302E3935333820202020302E3238383520202020302E303030302048202020302020302020302020302020302020302020302020302020302020302020302020300A2020202D312E3530383720202020302E3433313820202020302E303030302048202020302020302020302020302020302020302020302020302020302020302020302020300A2020312020322020312020302020202020200A2020322020332020312020302020202020200A2020332020342020312020302020202020200A2020342020352020312020302020202020200A2020352020362020312020302020202020200A2020362020372020312020302020202020200A2020372020382020312020302020202020200A2020312020382020312020302020202020200A2020312020352020312020302020202020200A2020392031302020322020302020202020200A2020392031312020312020302020202020200A2020322020392020312020312020202020200A2020382031322020322020302020202020200A2020342031332020312020302020202020200A2020342031342020312020302020202020200A2020312031352020312020362020202020200A2020352031362020312020362020202020200A4D2020454E44
Contributor: ITO S, DEPT. OF CHEM., TOHOKU UNIV.
InstType: EI
InstName: HITACHI M-52
IoniMethod: _ENERGY 13.5 eV
IonPolarity: pos
Date: 2010-10-09 19:48:36+02:00
Num Peaks: 31
81 32 82 22 83 39 84 3 93 31 94 63 95 115 96 999 97 156 108 157 
109 149 110 9 114 141 119 23 123 55 124 12 125 171 134 39 135 55 137 9 
140 61 150 101 151 25 152 18 153 366 154 25 168 219 169 2 178 340 181 51 
196 129 
