Name: MassBank: JP007283
MW: 310
Formula: C17H26O5
Synonym: MassBank: JP007283
Synonym: (3S,4S)-5-BENZYLOXY-3-METHOXYETHOXYMETHOXY-4-METHYLPENTAN-2-ONE
Structure: 2833532C3453292D352D42454E5A594C4F58592D332D4D4554484F58594554484F58594D4554484F58592D342D4D455448594C50454E54414E2D322D4F4E452E6D6F6C0A20204368656D447261773130323130393130343732440A2032342032342020302020302020302020302020302020302020302020303939392056323030300A2020202D332E303336392020202D302E3339373820202020302E303030302043202020302020302020302020302020302020302020302020302020302020302020302020300A2020202D322E3332323420202020302E3031343720202020302E303030302043202020302020302020302020302020302020302020302020302020302020302020302020300A2020202D312E363038302020202D302E3339373820202020302E30303030204F202020302020302020302020302020302020302020302020302020302020302020302020300A2020202D302E3839333620202020302E3031343720202020302E303030302043202020302020302020302020302020302020302020302020302020302020302020302020300A2020202D302E313739312020202D302E3339373820202020302E303030302043202020302020302020302020302020302020302020302020302020302020302020302020300A2020202D332E3735313320202020302E3031343720202020302E303030302043202020302020302020302020302020302020302020302020302020302020302020302020300A2020202D342E343635382020202D302E3339373820202020302E303030302043202020302020302020302020302020302020302020302020302020302020302020302020300A2020202D342E343635382020202D312E3232323820202020302E303030302043202020302020302020302020302020302020302020302020302020302020302020302020300A2020202D332E373531332020202D312E3633353320202020302E303030302043202020302020302020302020302020302020302020302020302020302020302020302020300A2020202D332E303336392020202D312E3232323820202020302E303030302043202020302020302020302020302020302020302020302020302020302020302020302020300A20202020302E353335342020202D302E3831303320202020302E303030302043202020302020302020302020302020302020302020302020302020302020302020302020300A20202020312E323439392020202D312E3232323820202020302E303030302043202020302020302020302020302020302020302020302020302020302020302020302020300A20202020312E393634322020202D302E3831303320202020302E30303030204F202020302020302020302020302020302020302020302020302020302020302020302020300A20202020312E323439392020202D322E3034373720202020302E303030302043202020302020302020302020302020302020302020302020302020302020302020302020300A2020202D302E353931362020202D312E3131323320202020302E303030302048202020302020302020302020302020302020302020302020302020302020302020302020300A20202020302E3233333420202020302E3331363720202020302E303030302043202020302020302020302020302020302020302020302020302020302020302020302020300A20202020302E393437392020202D302E3039353820202020302E30303030204F202020302020302020302020302020302020302020302020302020302020302020302020300A20202020302E313232392020202D312E3532343820202020302E303030302048202020302020302020302020302020302020302020302020302020302020302020302020300A20202020312E373732382020202D302E3039353820202020302E303030302043202020302020302020302020302020302020302020302020302020302020302020302020300A20202020322E3138353320202020302E3631383620202020302E30303030204F202020302020302020302020302020302020302020302020302020302020302020302020300A20202020332E3031303320202020302E3631383620202020302E303030302043202020302020302020302020302020302020302020302020302020302020302020302020300A20202020332E3432323820202020312E3333333120202020302E303030302043202020302020302020302020302020302020302020302020302020302020302020302020300A20202020342E3234373820202020312E3333333120202020302E30303030204F202020302020302020302020302020302020302020302020302020302020302020302020300A20202020342E3436353820202020322E3034373720202020302E303030302043202020302020302020302020302020302020302020302020302020302020302020302020300A2020312020322020312020302020202020200A2020322020332020312020302020202020200A2020332020342020312020302020202020200A2020342020352020312020302020202020200A2020312020362020322020302020202020200A2020362020372020312020302020202020200A2020372020382020322020302020202020200A2020382020392020312020302020202020200A2020392031302020322020302020202020200A2031302020312020312020302020202020200A2020352031312020312020302020202020200A2031312031322020312020302020202020200A2031322031332020322020302020202020200A2031322031342020312020302020202020200A2020352031352020312020312020202020200A2020352031362020312020312020202020200A2031312031372020312020312020202020200A2031312031382020312020312020202020200A2031372031392020312020302020202020200A2031392032302020312020302020202020200A2032302032312020312020302020202020200A2032312032322020312020302020202020200A2032322032332020312020302020202020200A2032332032342020312020302020202020200A4D202053545920203120202031205355500A4D2020534C4220203120202031202020310A4D202053414C20202031202031202032340A4D202053424C20202031202031202032340A4D2020534D5420202031204D650A4D2020534256202020312032342020202D362E3432303520202020382E353939370A4D2020454E44
Contributor: ITO S, DEPT. OF CHEM., TOHOKU UNIV.
InstType: EI
InstName: HITACHI M-52
IoniMethod: _ENERGY 14 eV
IonPolarity: pos
Date: 2010-10-09 19:48:36+02:00
Num Peaks: 33
58 57 59 87 75 47 82 4 89 999 90 60 91 161 92 3 98 40 101 203 
105 28 106 7 107 91 108 28 113 28 114 2 115 225 133 41 143 26 159 2 
161 112 162 45 163 32 164 2 165 28 167 519 168 76 205 2 221 25 234 21 
237 29 267 7 311 3 
