Name: MassBank: JP009843
MW: 196
Formula: C7H10Cl2O2
Synonym: MassBank: JP009843
Synonym: 2,4-DICHLORO-3-METHYLENEBUTYL ACETATE
Synonym: 2-CHLORO-3-CHLOROMETHYL-3-BUTENYL ACETATE
Structure: 322C342D444943484C4F524F2D332D4D455448594C454E45425554594C20414345544154452E6D6F6C0A20204368656D447261773132323030393136333432440A2031312031302020302020302020302020302020302020302020302020303939392056323030300A20202020312E3432383920202020302E3230363320202020302E303030302043202020302020302020302020302020302020302020302020302020302020302020302020300A20202020322E313433342020202D302E3230363220202020302E303030302043202020302020302020302020302020302020302020302020302020302020302020302020300A20202020312E3432383920202020312E3033313320202020302E30303030204F202020302020302020302020302020302020302020302020302020302020302020302020300A20202020302E373134352020202D302E3230363220202020302E30303030204F202020302020302020302020302020302020302020302020302020302020302020302020300A2020202D302E3030303020202020302E3230363320202020302E303030302043202020302020302020302020302020302020302020302020302020302020302020302020300A2020202D302E373134352020202D302E3230363220202020302E303030302043202020302020302020302020302020302020302020302020302020302020302020302020300A2020202D312E3432383920202020302E3230363320202020302E303030302043202020302020302020302020302020302020302020302020302020302020302020302020300A2020202D322E313433342020202D302E3230363220202020302E303030302043202020302020302020302020302020302020302020302020302020302020302020302020300A2020202D312E3432383920202020312E3033313220202020302E303030302043202020302020302020302020302020302020302020302020302020302020302020302020300A2020202D322E313433342020202D312E3033313320202020302E3030303020436C2020302020302020302020302020302020302020302020302020302020302020302020300A2020202D302E373134352020202D312E3033313220202020302E3030303020436C2020302020302020302020302020302020302020302020302020302020302020302020300A2020312020322020312020302020202020200A2020312020332020322020302020202020200A2020312020342020312020302020202020200A2020352020362020312020302020202020200A2020362020372020312020302020202020200A2020372020382020312020302020202020200A2020372020392020322020302020202020200A2020382031302020312020302020202020200A2020362031312020312020302020202020200A2020342020352020312020302020202020200A4D2020454E44
Contributor: KURARAY CO., LTD.
InstType: EI
InstName: JEOL JMS-D-300
IoniMethod: _ENERGY 70 eV
IonPolarity: pos
Date: 2010-10-09 19:48:36+02:00
Num Peaks: 38
27 26 29 14 39 38 40 1 41 29 42 19 43 999 44 3 51 23 53 23 
55 16 57 1 59 51 61 19 62 32 65 3 67 11 69 12 71 138 73 1 
75 14 83 16 84 13 85 3 86 27 87 10 90 21 101 9 102 58 103 36 
104 18 105 2 127 27 131 10 136 44 138 3 161 38 163 13 
