Name: GAMMA-BUTYROLACTONE
MW: 86
Formula: C4H6O2
Synonym: MassBank: JP004933
Synonym: GAMMA-BUTYROLACTONE
Synonym: DIHYDRO-2(3H)-FURANONE
Structure: 310A31370A4449485944524F2D32283348292D465552414E4F4E452E6D6F6C0A20204368656D447261773038313131303137333732440A2020362020362020302020302020302020302020302020302020302020303939392056323030300A20202020302E323632372020202D302E3636373420202020302E30303030204F202020302020302020302020302020302020302020302020302020302020302020302020300A2020202D302E323232332020202D302E3030303020202020302E303030302043202020302020302020302020302020302020302020302020302020302020302020302020300A20202020302E3236323720202020302E3636373420202020302E303030302043202020302020302020302020302020302020302020302020302020302020302020302020300A20202020312E3034373320202020302E3431323520202020302E303030302043202020302020302020302020302020302020302020302020302020302020302020302020300A20202020312E303437332020202D302E3431323520202020302E303030302043202020302020302020302020302020302020302020302020302020302020302020302020300A2020202D312E303437332020202D302E3030303020202020302E30303030204F202020302020302020302020302020302020302020302020302020302020302020302020300A2020312020322020312020302020202020200A2020322020332020312020302020202020200A2020332020342020312020302020202020200A2020342020352020312020302020202020200A2020312020352020312020302020202020200A2020322020362020322020302020202020200A4D2020454E44
Contributor: MASS SPECTROSCOPY SOC. OF JAPAN (MSSJ)
InstType: EI
InstName: JEOL JMS-D-3000
IoniMethod: _ENERGY 70 eV
IonPolarity: pos
Date: 2010-10-09 19:48:36+02:00
Num Peaks: 11
40 164 42 999 43 65 44 31 53 14 55 91 56 316 57 60 85 142 86 363 
87 18 
