Name: MassBank: JP001158
MW: 348
Formula: C22H36O3
Synonym: MassBank: JP001158
Synonym: L-MENTHYL 3-ETHYL-4-HYDROXYTRICYCLO(4.3.0.O(1,5))NONANE-5-CARBOXYLATE
Structure: 303232305F4C2D4D454E5448594C20332D455448594C2D342D485944524F58595452494359434C4F28342E332E302E4F28312C3529294E4F4E414E452D352D434152424F58594C4154452E6D6F6C0A20204368656D447261773039303631303135333232440A2032352032382020302020302020302020302020302020302020302020303939392056323030300A20202020302E333134312020202D302E3434323320202020302E303030302043202020302020302020302020302020302020302020302020302020302020302020302020300A20202020302E373236362020202D312E3135363820202020302E30303030204F202020302020302020302020302020302020302020302020302020302020302020302020300A20202020302E3732363620202020302E3237323120202020302E30303030204F202020302020302020302020302020302020302020302020302020302020302020302020300A20202020312E3535313620202020302E3237323120202020302E303030302043202020302020302020302020302020302020302020302020302020302020302020302020300A20202020312E3936343120202020302E3938363520202020302E303030302043202020302020302020302020302020302020302020302020302020302020302020302020300A20202020322E3738393020202020302E3938363520202020302E303030302043202020302020302020302020302020302020302020302020302020302020302020302020300A20202020332E3230313520202020302E3237323120202020302E303030302043202020302020302020302020302020302020302020302020302020302020302020302020300A20202020322E373839302020202D302E3434323320202020302E303030302043202020302020302020302020302020302020302020302020302020302020302020302020300A20202020312E393634312020202D302E3434323320202020302E303030302043202020302020302020302020302020302020302020302020302020302020302020302020300A20202020332E323031352020202D312E3135363820202020302E303030302043202020302020302020302020302020302020302020302020302020302020302020302020300A20202020312E3535313620202020312E3730313020202020302E303030302043202020302020302020302020302020302020302020302020302020302020302020302020300A20202020302E3732363620202020312E3730313020202020302E303030302043202020302020302020302020302020302020302020302020302020302020302020302020300A20202020312E3936343120202020322E3431353520202020302E303030302043202020302020302020302020302020302020302020302020302020302020302020302020300A2020202D302E353130392020202D302E3434323320202020302E303030302043202020302020302020302020302020302020302020302020302020302020302020302020300A2020202D302E3939353820202020302E3232353120202020302E303030302043202020302020302020302020302020302020302020302020302020302020302020302020300A2020202D312E373830342020202D302E3032393820202020302E303030302043202020302020302020302020302020302020302020302020302020302020302020302020300A2020202D312E373830342020202D302E3835343820202020302E303030302043202020302020302020302020302020302020302020302020302020302020302020302020300A2020202D302E393935382020202D312E3130393820202020302E303030302043202020302020302020302020302020302020302020302020302020302020302020302020300A2020202D302E313735332020202D312E3139363020202020302E303030302043202020302020302020302020302020302020302020302020302020302020302020302020300A2020202D312E333331342020202D312E3836333420202020302E303030302043202020302020302020302020302020302020302020302020302020302020302020302020300A2020202D302E373138332020202D322E3431353520202020302E303030302043202020302020302020302020302020302020302020302020302020302020302020302020300A2020202D302E303033382020202D322E3030333020202020302E303030302043202020302020302020302020302020302020302020302020302020302020302020302020300A2020202D302E3734303920202020312E3030393720202020302E30303030204F202020302020302020302020302020302020302020302020302020302020302020302020300A2020202D322E3434373920202020302E3435353120202020302E303030302043202020302020302020302020302020302020302020302020302020302020302020302020300A2020202D332E3230313520202020302E3131393520202020302E303030302043202020302020302020302020302020302020302020302020302020302020302020302020300A2020312020322020322020302020202020200A2020312020332020312020302020202020200A2020342020352020312020302020202020200A2020352020362020312020302020202020200A2020362020372020312020302020202020200A2020372020382020312020302020202020200A2020382020392020312020302020202020200A2020342020392020312020302020202020200A2020382031302020312020312020202020200A2031312031322020312020302020202020200A2031312031332020312020302020202020200A2031312020352020312020362020202020200A2020342020332020312020312020202020200A2020312031342020312020312020202020200A2031342031352020312020302020202020200A2031352031362020312020302020202020200A2031362031372020312020302020202020200A2031372031382020312020302020202020200A2031382031342020312020302020202020200A2031382031392020312020302020202020200A2031392031342020312020302020202020200A2031382032302020312020312020202020200A2032302032312020312020302020202020200A2032312032322020312020302020202020200A2031392032322020312020312020202020200A2031352032332020312020362020202020200A2031362032342020312020312020202020200A2032342032352020312020302020202020200A4D2020454E44
Contributor: NAKAYAMA M, MASS SPECTROSCOPY SOC. OF JAPAN (MSSJ)
InstType: EI
InstName: HITACHI RMU-6L
IoniMethod: _ENERGY 70 eV
IonPolarity: pos
Date: 2010-10-09 19:48:36+02:00
Num Peaks: 81
40 20 41 550 42 30 43 450 44 20 51 20 53 110 54 60 55 740 56 70 
57 370 58 20 65 40 66 30 67 220 68 50 69 450 70 30 71 70 77 120 
78 30 79 190 80 40 81 360 82 70 83 999 84 70 91 200 92 30 93 130 
94 40 95 250 96 60 97 170 105 90 107 70 108 60 109 30 117 50 119 160 
120 30 121 40 123 80 126 30 131 20 133 20 135 60 136 380 137 110 138 180 
139 130 140 20 145 20 147 340 148 50 149 20 150 20 151 20 154 400 155 30 
162 20 163 300 164 160 165 380 166 40 174 30 175 80 176 30 191 120 192 980 
193 360 194 40 210 30 211 370 212 50 213 10 292 3 330 3 347 1 348 2 
349 1 
