Name: N-VINYL-2-PYRROLIDONE
MW: 111
Formula: C6H9NO
Synonym: MassBank: JP009999
Synonym: N-VINYL-2-PYRROLIDONE
Structure: 310A32310A4E2D56494E594C2D322D505952524F4C49444F4E452E6D6F6C0A20204368656D447261773038313231303032323932440A2020382020382020302020302020302020302020302020302020302020303939392056323030300A2020202D302E303136302020202D302E3336383820202020302E30303030204E202020302020302020302020302020302020302020302020302020302020302020302020300A20202020302E3436383920202020302E3239383620202020302E303030302043202020302020302020302020302020302020302020302020302020302020302020302020300A20202020312E3235333520202020302E3034333720202020302E303030302043202020302020302020302020302020302020302020302020302020302020302020302020300A20202020312E323533352020202D302E3738313320202020302E303030302043202020302020302020302020302020302020302020302020302020302020302020302020300A20202020302E343638392020202D312E3033363220202020302E303030302043202020302020302020302020302020302020302020302020302020302020302020302020300A20202020302E3231343020202020312E3038333320202020302E30303030204F202020302020302020302020302020302020302020302020302020302020302020302020300A2020202D302E383431302020202D302E3336383820202020302E303030302043202020302020302020302020302020302020302020302020302020302020302020302020300A2020202D312E323533352020202D312E3038333320202020302E303030302043202020302020302020302020302020302020302020302020302020302020302020302020300A2020312020322020312020302020202020200A2020322020332020312020302020202020200A2020332020342020312020302020202020200A2020342020352020312020302020202020200A2020312020352020312020302020202020200A2020322020362020322020302020202020200A2020372020382020322020302020202020200A2020312020372020312020302020202020200A4D2020454E44
Contributor: KURARAY CO., LTD.
InstType: EI
InstName: JEOL JMS-D-300
IoniMethod: _ENERGY 70 eV
IonPolarity: pos
Date: 2010-10-09 19:48:36+02:00
Num Peaks: 29
26 55 27 205 28 35 29 4 30 36 31 26 39 81 40 1 41 178 42 134 
43 87 44 6 54 127 55 386 56 999 57 8 58 34 68 121 69 36 71 23 
73 51 82 106 83 105 84 3 85 32 86 35 110 36 111 76 112 62 
