Name: DIETHYL ETHER
MW: 74
Formula: C4H10O
Synonym: MassBank: JP003900
Synonym: DIETHYL ETHER
Structure: 310A31340A4449455448594C2045544845522E6D6F6C0A20204368656D447261773130323230393232333932440A2020352020342020302020302020302020302020302020302020302020303939392056323030300A20202020302E303030302020202D302E3230363320202020302E30303030204F202020302020302020302020302020302020302020302020302020302020302020302020300A2020202D302E3731343520202020302E3230363320202020302E303030302043202020302020302020302020302020302020302020302020302020302020302020302020300A2020202D312E343238392020202D302E3230363320202020302E303030302043202020302020302020302020302020302020302020302020302020302020302020302020300A20202020302E3731343520202020302E3230363220202020302E303030302043202020302020302020302020302020302020302020302020302020302020302020302020300A20202020312E343238392020202D302E3230363220202020302E303030302043202020302020302020302020302020302020302020302020302020302020302020302020300A2020322020332020312020302020202020200A2020312020322020312020302020202020200A2020342020352020312020302020202020200A2020312020342020312020302020202020200A4D2020454E44
Contributor: MASS SPECTROSCOPY SOC. OF JAPAN (MSSJ)
InstType: EI
InstName: Unknown
IoniMethod: EI
IonPolarity: pos
Date: 2010-10-09 19:48:36+02:00
Num Peaks: 17
26 43 27 176 28 63 29 40 30 22 31 999 32 33 41 5 42 21 43 70 
44 29 45 38 59 489 60 30 73 38 74 31 75 30 
