Name: MassBank: JP009972
MW: 324
Formula: C18H32N2O3
Synonym: MassBank: JP009972
Synonym: METHYL 2,6-DIMETHYL-9-(N-METHYLPIPERAZINYLCARBAMOYL)-6-NONENOATE
Structure: 303832355F4D455448594C20322C362D44494D455448594C2D392D284E2D4D455448594C5049504552415A494E594C43415242414D4F594C292D362D4E4F4E454E4F4154452E6D6F6C0A20204368656D447261773130323031303137353132440A2032332032332020302020302020302020302020302020302020302020303939392056323030300A20202020312E383536362020202D332E3231353220202020302E303030302043202020302020302020302020302020302020302020302020302020302020302020302020300A20202020312E303331362020202D332E3231353220202020302E303030302043202020302020302020302020302020302020302020302020302020302020302020302020300A20202020302E363139312020202D322E3530303820202020302E303030302043202020302020302020302020302020302020302020302020302020302020302020302020300A2020202D302E323035392020202D322E3530303820202020302E303030302043202020302020302020302020302020302020302020302020302020302020302020302020300A2020202D302E363138342020202D312E3738363320202020302E303030302043202020302020302020302020302020302020302020302020302020302020302020302020300A2020202D302E323035392020202D312E3037313820202020302E303030302043202020302020302020302020302020302020302020302020302020302020302020302020300A2020202D302E363138342020202D302E3335373420202020302E303030302043202020302020302020302020302020302020302020302020302020302020302020302020300A2020202D302E3230353920202020302E3335373120202020302E303030302043202020302020302020302020302020302020302020302020302020302020302020302020300A2020202D302E3631383420202020312E3037313620202020302E303030302043202020302020302020302020302020302020302020302020302020302020302020302020300A20202020322E323639312020202D332E3932393720202020302E30303030204F202020302020302020302020302020302020302020302020302020302020302020302020300A20202020322E323639312020202D322E3530303820202020302E30303030204F202020302020302020302020302020302020302020302020302020302020302020302020300A2020202D312E3434333420202020312E3037313620202020302E303030302043202020302020302020302020302020302020302020302020302020302020302020302020300A2020202D312E3835353920202020302E3335373120202020302E30303030204F202020302020302020302020302020302020302020302020302020302020302020302020300A2020202D312E3835353920202020312E3738363020202020302E30303030204E202020302020302020302020302020302020302020302020302020302020302020302020300A2020202D322E3638313620202020312E3738363420202020302E303030302043202020302020302020302020302020302020302020302020302020302020302020302020300A2020202D332E3039343120202020322E3530303920202020302E303030302043202020302020302020302020302020302020302020302020302020302020302020302020300A2020202D322E3638313020202020332E3231353220202020302E30303030204E202020302020302020302020302020302020302020302020302020302020302020302020300A2020202D312E3835363720202020332E3231353320202020302E303030302043202020302020302020302020302020302020302020302020302020302020302020302020300A2020202D312E3434343120202020322E3530303920202020302E303030302043202020302020302020302020302020302020302020302020302020302020302020302020300A20202020302E363139312020202D312E3037313820202020302E303030302043202020302020302020302020302020302020302020302020302020302020302020302020300A20202020302E363139312020202D332E3932393720202020302E303030302043202020302020302020302020302020302020302020302020302020302020302020302020300A20202020332E303934312020202D322E3530303820202020302E303030302043202020302020302020302020302020302020302020302020302020302020302020302020300A2020202D332E3039333520202020332E3932393720202020302E303030302043202020302020302020302020302020302020302020302020302020302020302020302020300A2020312020322020312020302020202020200A2020322020332020312020302020202020200A2020332020342020312020302020202020200A2020342020352020312020302020202020200A2020352020362020312020302020202020200A2020362020372020322020302020202020200A2020372020382020312020302020202020200A2020382020392020312020302020202020200A2020312031302020322020302020202020200A2020312031312020312020302020202020200A2031322031332020322020302020202020200A2031342031352020312020302020202020200A2031352031362020312020302020202020200A2031362031372020312020302020202020200A2031372031382020312020302020202020200A2031382031392020312020302020202020200A2031342031392020312020302020202020200A2020392031322020312020302020202020200A2020362032302020312020302020202020200A2020322032312020312020302020202020200A2031312032322020312020302020202020200A2031372032332020312020302020202020200A2031342031322020312020302020202020200A4D2020454E44
Contributor: KURARAY CO., LTD.
InstType: EI
InstName: JEOL JMS-D-300
IoniMethod: _ENERGY 70 eV
IonPolarity: pos
Date: 2010-10-09 19:48:36+02:00
Num Peaks: 17
28 525 32 127 43 198 44 22 56 238 57 348 58 522 70 999 71 172 83 311 
98 498 99 47 101 283 166 198 185 3 209 13 324 519 
