Name: 1-METHYL-1-CYCLOHEXANECARBOXYLIC ACID TRIMETHYLSILYL ESTER
MW: 214
Formula: C11H22O2Si
Synonym: MassBank: JP007475
Synonym: 1-METHYL-1-CYCLOHEXANECARBOXYLIC ACID TRIMETHYLSILYL ESTER
Structure: 312D4D455448594C2D312D4359434C4F484558414E45434152424F58594C49432041434944205452494D455448594C53494C594C2045535445522E6D6F6C0A20204368656D447261773131313930393136323132440A2031342031342020302020302020302020302020302020302020302020303939392056323030300A20202020302E3734303120202020302E3336333520202020302E303030302043202020302020302020302020302020302020302020302020302020302020302020302020300A20202020312E3531353420202020302E3634353720202020302E303030302043202020302020302020302020302020302020302020302020302020302020302020302020300A20202020322E3134373420202020302E3131353420202020302E303030302043202020302020302020302020302020302020302020302020302020302020302020302020300A20202020322E303034312020202D302E3639373120202020302E303030302043202020302020302020302020302020302020302020302020302020302020302020302020300A20202020312E323238392020202D302E3937393320202020302E303030302043202020302020302020302020302020302020302020302020302020302020302020302020300A20202020302E353936392020202D302E3434393020202020302E303030302043202020302020302020302020302020302020302020302020302020302020302020302020300A2020202D302E3038343920202020302E3336333520202020302E303030302043202020302020302020302020302020302020302020302020302020302020302020302020300A2020202D302E3439373420202020312E3037383020202020302E30303030204F202020302020302020302020302020302020302020302020302020302020302020302020300A2020202D302E343937342020202D302E3335313020202020302E30303030204F202020302020302020302020302020302020302020302020302020302020302020302020300A20202020302E3539363920202020312E3137363020202020302E303030302043202020302020302020302020302020302020302020302020302020302020302020302020300A2020202D312E333232342020202D302E3335313020202020302E303030302053692020302020302020302020302020302020302020302020302020302020302020302020300A2020202D312E333232342020202D312E3137363020202020302E303030302043202020302020302020302020302020302020302020302020302020302020302020302020300A2020202D322E313437342020202D302E3335313020202020302E303030302043202020302020302020302020302020302020302020302020302020302020302020302020300A2020202D312E3332323420202020302E3437343020202020302E303030302043202020302020302020302020302020302020302020302020302020302020302020302020300A2020312020322020312020302020202020200A2020322020332020312020302020202020200A2020332020342020312020302020202020200A2020342020352020312020302020202020200A2020352020362020312020302020202020200A2020312020362020312020302020202020200A2020372020382020322020302020202020200A2020372020392020312020302020202020200A2020312020372020312020302020202020200A2020312031302020312020302020202020200A2031312031322020312020312020202020200A2031312031332020312020302020202020200A2031312031342020312020312020202020200A2020392031312020312020302020202020200A4D2020454E44
Contributor: KOGA M, UNIV. OF OCCUPATIONAL AND ENVIRONMENTAL HEALTH
InstType: EI
InstName: JEOL JMS-01-SG
IoniMethod: _ENERGY 70 eV
IonPolarity: pos
Date: 2010-10-09 19:48:36+02:00
Num Peaks: 50
45 83 47 51 53 24 54 2 55 308 56 22 59 12 61 4 67 54 68 37 
69 98 72 2 73 999 74 116 75 316 76 2 77 22 79 17 81 180 82 2 
83 12 95 27 96 409 97 27 98 17 103 12 109 22 115 1 117 197 118 17 
119 22 124 1 130 19 131 14 132 12 141 1 143 88 144 14 145 29 146 8 
147 12 155 32 159 101 160 1 183 14 199 469 200 71 201 2 214 86 215 12 
