Name: ISOBUTYL METHYL SULFIDE
MW: 104
Formula: C5H12S
Synonym: MassBank: JP008753
Synonym: ISOBUTYL METHYL SULFIDE
Structure: 310A31360A49534F425554594C204D455448594C2053554C464944452E6D6F6C0A20204368656D447261773038313131303231303932440A2020362020352020302020302020302020302020302020302020302020303939392056323030300A2020202D312E303731372020202D302E3230363220202020302E303030302053202020302020302020302020302020302020302020302020302020302020302020302020300A2020202D312E3037313720202020302E3631383820202020302E303030302043202020302020302020302020302020302020302020302020302020302020302020302020300A2020202D302E333537322020202D302E3631383820202020302E303030302043202020302020302020302020302020302020302020302020302020302020302020302020300A20202020302E333537322020202D302E3230363220202020302E303030302043202020302020302020302020302020302020302020302020302020302020302020302020300A20202020302E3335373220202020302E3631383820202020302E303030302043202020302020302020302020302020302020302020302020302020302020302020302020300A20202020312E303731372020202D302E3631383720202020302E303030302043202020302020302020302020302020302020302020302020302020302020302020302020300A2020312020322020312020302020202020200A2020332020342020312020302020202020200A2020342020352020312020302020202020200A2020342020362020312020302020202020200A2020312020332020312020302020202020200A4D2020454E44
Contributor: SODA AROMATIC CO., LTD.
InstType: EI
InstName: HITACHI M-80B
IoniMethod: _ENERGY 70 eV
IonPolarity: pos
Date: 2010-10-09 19:48:36+02:00
Num Peaks: 32
15 48 27 182 28 23 29 150 35 64 38 19 39 221 40 23 41 434 42 23 
43 99 45 169 46 113 47 185 48 44 49 44 53 18 55 87 56 456 57 234 
58 14 59 21 61 999 62 211 63 53 71 14 73 16 75 68 89 46 104 470 
105 30 106 17 
