Name: MassBank: JP007790
CAS: 541-58-2
MW: 113
Formula: C5H7NS
Synonym: MassBank: JP007790
Synonym: 2,4-DIMETHYLTHIAZOLE
Structure: 310A31390A322C342D44494D455448594C544849415A4F4C452E6D6F6C0A20204368656D447261773132323030393139333032440A2020372020372020302020302020302020302020302020302020302020303939392056323030300A20202020302E373133362020202D302E3532373520202020302E303030302053202020302020302020302020302020302020302020302020302020302020302020302020300A20202020302E3731333620202020302E3239373520202020302E303030302043202020302020302020302020302020302020302020302020302020302020302020302020300A2020202D302E3037313120202020302E3535323420202020302E30303030204E202020302020302020302020302020302020302020302020302020302020302020302020300A2020202D302E353536302020202D302E3131353020202020302E303030302043202020302020302020302020302020302020302020302020302020302020302020302020300A2020202D302E303731312020202D302E3738323420202020302E303030302043202020302020302020302020302020302020302020302020302020302020302020302020300A2020202D312E333831302020202D302E3131353020202020302E303030302043202020302020302020302020302020302020302020302020302020302020302020302020300A20202020312E3338313020202020302E3738323420202020302E303030302043202020302020302020302020302020302020302020302020302020302020302020302020300A2020312020322020312020302020202020200A2020322020332020322020302020202020200A2020332020342020312020302020202020200A2020342020352020322020302020202020200A2020312020352020312020302020202020200A2020342020362020312020302020202020200A2020322020372020312020302020202020200A4D2020454E44
Contributor: HASHIMOTO K, KYOTO COLLEGE OF PHARMACY
InstType: EI
InstName: HITACHI M-80
IoniMethod: _ENERGY 20 eV
IonPolarity: pos
Date: 2010-10-09 19:48:36+02:00
Num Peaks: 22
27 10 39 441 41 10 42 310 44 10 45 240 46 88 47 10 59 60 68 99 
69 10 70 80 71 920 72 999 73 228 74 209 75 22 112 39 113 709 114 209 
115 208 116 11 
