Name: METHYL PROPIONATE
MW: 88
Formula: C4H8O2
Synonym: MassBank: JP001493
Synonym: METHYL PROPIONATE
Structure: 310A31360A50524F50494F4E49432041434944204D455448594C2045535445522E6D6F6C0A20204368656D447261773038313231303036303732440A2020362020352020302020302020302020302020302020302020302020303939392056323030300A20202020302E3030303020202020302E3030303020202020302E303030302043202020302020302020302020302020302020302020302020302020302020302020302020300A20202020302E343132352020202D302E3731343520202020302E303030302043202020302020302020302020302020302020302020302020302020302020302020302020300A20202020312E323337352020202D302E3731343520202020302E303030302043202020302020302020302020302020302020302020302020302020302020302020302020300A20202020302E3431323520202020302E3731343520202020302E30303030204F202020302020302020302020302020302020302020302020302020302020302020302020300A2020202D302E3832353020202020302E3030303020202020302E30303030204F202020302020302020302020302020302020302020302020302020302020302020302020300A2020202D312E323337352020202D302E3731343520202020302E303030302043202020302020302020302020302020302020302020302020302020302020302020302020300A2020312020322020312020302020202020200A2020322020332020312020302020202020200A2020312020342020322020302020202020200A2020312020352020312020302020202020200A2020352020362020312020302020202020200A4D2020454E44
Contributor: YAMAMOTO M, DEP. CHEMISTRY, FAC. SCIENCE, NARA WOMEN'S UNIV.
InstType: EI
InstName: HITACHI RMU-6M
IoniMethod: _ENERGY 70 eV
IonPolarity: pos
Date: 2010-10-09 19:48:36+02:00
Num Peaks: 21
14 20 15 241 26 66 27 234 28 112 29 798 30 22 31 97 32 28 33 12 
42 23 43 20 45 31 55 42 56 32 57 999 58 37 59 319 87 26 88 328 
89 17 
