Name: CUMINYL ALCOHOL
MW: 150
Formula: C10H14O
Synonym: MassBank: JP007030
Synonym: CUMINYL ALCOHOL
Synonym: 4-(1-METHYLETHYL)BENZENEMETHANOL
Structure: 43554D494E594C20414C434F484F4C2E6D6F6C0A20204368656D447261773039313531303034353632440A2031312031312020302020302020302020302020302020302020302020303939392056323030300A20202020302E303030302020202D302E3832353020202020302E303030302043202020302020302020302020302020302020302020302020302020302020302020302020300A2020202D302E373134352020202D302E3431323520202020302E303030302043202020302020302020302020302020302020302020302020302020302020302020302020300A2020202D302E3731343520202020302E3431323520202020302E303030302043202020302020302020302020302020302020302020302020302020302020302020302020300A20202020302E3030303020202020302E3832353020202020302E303030302043202020302020302020302020302020302020302020302020302020302020302020302020300A20202020302E3731343520202020302E3431323520202020302E303030302043202020302020302020302020302020302020302020302020302020302020302020302020300A20202020302E373134352020202D302E3431323520202020302E303030302043202020302020302020302020302020302020302020302020302020302020302020302020300A20202020302E303030302020202D312E3635303020202020302E303030302043202020302020302020302020302020302020302020302020302020302020302020302020300A20202020302E373134352020202D322E3036323520202020302E30303030204F202020302020302020302020302020302020302020302020302020302020302020302020300A20202020302E3030303020202020312E3635303020202020302E303030302043202020302020302020302020302020302020302020302020302020302020302020302020300A2020202D302E3731343520202020322E3036323520202020302E303030302043202020302020302020302020302020302020302020302020302020302020302020302020300A20202020302E3731343520202020322E3036323520202020302E303030302043202020302020302020302020302020302020302020302020302020302020302020302020300A2020312020322020312020302020202020200A2020322020332020322020302020202020200A2020332020342020312020302020202020200A2020342020352020322020302020202020200A2020352020362020312020302020202020200A2020312020362020322020302020202020200A2020372020382020312020302020202020200A2020312020372020312020302020202020200A2020392031302020312020302020202020200A2020392031312020312020302020202020200A2020342020392020312020302020202020200A4D2020454E44
Contributor: SODA AROMATIC CO., LTD.
InstType: EI
InstName: HITACHI M-80B
IoniMethod: _ENERGY 70 eV
IonPolarity: pos
Date: 2010-10-09 19:48:36+02:00
Num Peaks: 55
15 14 18 23 27 91 28 19 29 46 31 81 39 117 40 11 41 114 43 86 
50 37 51 123 52 24 53 31 55 12 60 20 62 16 63 58 64 15 65 72 
66 17 67 19 74 15 75 18 76 17 77 246 78 76 79 398 80 23 89 30 
91 314 92 31 93 18 102 20 103 90 104 25 105 442 106 35 107 356 108 25 
115 71 116 16 117 118 118 26 119 260 120 31 121 18 132 13 133 27 134 14 
135 999 136 99 149 15 150 481 151 45 
