Name: O-T-BUTYLCYCLOHEXYL ACETATE (CIS)
MW: 198
Formula: C12H22O2
Synonym: MassBank: JP000126
Synonym: O-T-BUTYLCYCLOHEXYL ACETATE (CIS)
Structure: 303030355F4F2D542D425554594C4359434C4F484558594C20414345544154452028434953292E6D6F6C0A20204368656D447261773130303131303230313332440A2031362031362020302020302020302020302020302020302020302020303939392056323030300A2020202D302E373133302020202D312E3338383420202020302E303030302043202020302020302020302020302020302020302020302020302020302020302020302020300A20202020302E303031392020202D312E3830303120202020302E30303030204F202020302020302020302020302020302020302020302020302020302020302020302020300A2020202D312E343237302020202D312E3830313720202020302E303030302043202020302020302020302020302020302020302020302020302020302020302020302020300A2020202D302E373133352020202D302E3536323720202020302E30303030204F202020302020302020302020302020302020302020302020302020302020302020302020300A20202020302E303030302020202D302E3135303220202020302E303030302043202020302020302020302020302020302020302020302020302020302020302020302020300A20202020302E3030303020202020302E3637343820202020302E303030302043202020302020302020302020302020302020302020302020302020302020302020302020300A20202020302E3731343520202020312E3038373220202020302E303030302043202020302020302020302020302020302020302020302020302020302020302020302020300A20202020312E3432383920202020302E3637343820202020302E303030302043202020302020302020302020302020302020302020302020302020302020302020302020300A20202020312E343238392020202D302E3135303220202020302E303030302043202020302020302020302020302020302020302020302020302020302020302020302020300A20202020302E373134352020202D302E3536323720202020302E303030302043202020302020302020302020302020302020302020302020302020302020302020302020300A2020202D302E3731343420202020312E3038373320202020302E303030302043202020302020302020302020302020302020302020302020302020302020302020302020300A2020202D312E3132363920202020302E3337323820202020302E303030302043202020302020302020302020302020302020302020302020302020302020302020302020300A2020202D312E3432383920202020312E3439393820202020302E303030302043202020302020302020302020302020302020302020302020302020302020302020302020300A2020202D302E3330313920202020312E3830313720202020302E303030302043202020302020302020302020302020302020302020302020302020302020302020302020300A20202020302E3134313820202020312E3438373520202020302E303030302048202020302020302020302020302020302020302020302020302020302020302020302020300A20202020302E303739352020202D302E3937313420202020302E303030302048202020302020302020302020302020302020302020302020302020302020302020302020300A2020312020322020322020302020202020200A2020312020332020312020302020202020200A2020312020342020312020302020202020200A2020352020362020312020302020202020200A2020362020372020312020302020202020200A2020372020382020312020302020202020200A2020382020392020312020302020202020200A2020392031302020312020302020202020200A2020352031302020312020302020202020200A2020352020342020312020312020202020200A2020362031312020312020312020202020200A2031312031322020312020302020202020200A2031312031332020312020302020202020200A2031312031342020312020302020202020200A2020362031352020312020362020202020200A2020352031362020312020362020202020200A4D2020454E44
Contributor: YAMAMOTO M, DEP. CHEMISTRY, FAC. SCIENCE, NARA WOMEN'S UNIV.
InstType: EI
InstName: HITACHI RMU-6M
IoniMethod: _ENERGY 70 eV
IonPolarity: pos
Date: 2010-10-09 19:48:36+02:00
Num Peaks: 50
15 61 27 161 28 24 29 159 39 105 40 15 41 337 42 20 53 52 54 82 
55 131 56 82 57 999 58 48 59 11 61 141 65 24 66 10 67 437 68 30 
69 69 70 21 71 15 77 19 79 42 80 155 81 199 82 721 83 124 84 14 
85 15 91 12 93 14 95 54 96 13 97 12 99 28 102 10 107 11 109 12 
110 12 117 102 118 11 123 151 124 19 138 82 139 17 141 19 142 24 143 13 
