Name: MassBank: JP004365
MW: 218
Formula: C13H14O3
Synonym: MassBank: JP004365
Synonym: 5-METHYL-1-PHENYL-6,8-DIOXABICYCLO(3.2.1)OCTAN-3-ONE
Structure: 352D4D455448594C2D312D5048454E594C2D362C382D44494F584142494359434C4F28332E322E31294F4354414E2D332D4F4E452E6D6F6C0A20204368656D447261773034323331303036353632440A2031362031382020302020302020302020302020302020302020302020303939392056323030300A20202020302E303030302020202D302E3230363220202020302E303030302043202020302020302020302020302020302020302020302020302020302020302020302020300A2020202D302E373134352020202D302E3631383820202020302E303030302043202020302020302020302020302020302020302020302020302020302020302020302020300A2020202D312E343238392020202D302E3230363220202020302E303030302043202020302020302020302020302020302020302020302020302020302020302020302020300A2020202D312E3432383920202020302E3631383720202020302E303030302043202020302020302020302020302020302020302020302020302020302020302020302020300A2020202D302E3731343520202020312E3033313320202020302E303030302043202020302020302020302020302020302020302020302020302020302020302020302020300A2020202D312E3031383520202020302E3432323320202020302E30303030204F202020302020302020302020302020302020302020302020302020302020302020302020300A2020202D302E363738322020202D302E3136373120202020302E303030302043202020302020302020302020302020302020302020302020302020302020302020302020300A20202020302E3030303020202020302E3631383820202020302E30303030204F202020302020302020302020302020302020302020302020302020302020302020302020300A2020202D322E313433342020202D302E3631383720202020302E30303030204F202020302020302020302020302020302020302020302020302020302020302020302020300A20202020302E373134352020202D302E3631383720202020302E303030302043202020302020302020302020302020302020302020302020302020302020302020302020300A20202020312E343238392020202D302E3230363220202020302E303030302043202020302020302020302020302020302020302020302020302020302020302020302020300A20202020322E313433342020202D302E3631383720202020302E303030302043202020302020302020302020302020302020302020302020302020302020302020302020300A20202020322E313433342020202D312E3434333720202020302E303030302043202020302020302020302020302020302020302020302020302020302020302020302020300A20202020312E343238392020202D312E3835363320202020302E303030302043202020302020302020302020302020302020302020302020302020302020302020302020300A20202020302E373134352020202D312E3434333720202020302E303030302043202020302020302020302020302020302020302020302020302020302020302020302020300A2020202D302E3731343520202020312E3835363320202020302E303030302043202020302020302020302020302020302020302020302020302020302020302020302020300A2020312020322020312020302020202020200A2020322020332020312020302020202020200A2020332020342020312020302020202020200A2020342020352020312020302020202020200A2020352020362020312020302020202020200A2020362020372020312020302020202020200A2020312020372020312020302020202020200A2020312020382020312020302020202020200A2020352020382020312020302020202020200A2020332020392020322020302020202020200A2031302031312020312020302020202020200A2031312031322020322020302020202020200A2031322031332020312020302020202020200A2031332031342020322020302020202020200A2031342031352020312020302020202020200A2031302031352020322020302020202020200A2020312031302020312020302020202020200A2020352031362020312020302020202020200A4D2020454E44
Contributor: HAGIWARA H, CHEM. RES. INST. OF NON-AQUEOUS SOLUTIONS, TOHOKU UNIV.
InstType: EI
InstName: JEOL JMS-DX-300
IoniMethod: _ENERGY 70 eV
IonPolarity: pos
Date: 2010-10-09 19:48:36+02:00
Num Peaks: 35
15 74 27 67 28 75 39 17 41 120 42 98 43 999 50 68 51 221 63 58 
65 93 69 54 76 52 77 481 78 85 91 205 99 102 102 75 103 299 104 74 
105 797 106 66 115 167 116 6 117 80 133 116 134 447 135 46 158 523 159 79 
160 94 161 88 176 40 188 95 218 76 
