Name: ACETALDEHYDE DIMETHYL ACETAL
CAS: 534-15-6
MW: 90
Formula: C4H10O2
Synonym: MassBank: JP006288
Synonym: ACETALDEHYDE DIMETHYL ACETAL
Synonym: 1,1-DIMETHOXYETHANE
Structure: 310A31360A41434554414C4445485944452044494D455448594C2041434554414C2E6D6F6C0A20204368656D447261773130323330393130333132440A2020362020352020302020302020302020302020302020302020302020303939392056323030300A2020202D302E3030303020202020302E3030303020202020302E303030302043202020302020302020302020302020302020302020302020302020302020302020302020300A20202020302E3431323520202020302E3731343520202020302E303030302043202020302020302020302020302020302020302020302020302020302020302020302020300A20202020302E343132352020202D302E3731343520202020302E30303030204F202020302020302020302020302020302020302020302020302020302020302020302020300A2020202D302E3832353020202020302E3030303020202020302E30303030204F202020302020302020302020302020302020302020302020302020302020302020302020300A20202020312E323337352020202D302E3731343520202020302E303030302043202020302020302020302020302020302020302020302020302020302020302020302020300A2020202D312E323337352020202D302E3731343520202020302E303030302043202020302020302020302020302020302020302020302020302020302020302020302020300A2020312020322020312020302020202020200A2020332020352020312020302020202020200A2020342020362020312020302020202020200A2020312020332020312020302020202020200A2020312020342020312020302020202020200A4D2020454E44
Contributor: MASS SPECTROSCOPY SOC. OF JAPAN (MSSJ)
InstType: EI
InstName: HITACHI M-80
IoniMethod: _ENERGY 30 eV
IonPolarity: pos
Date: 2010-10-09 19:48:36+02:00
Num Peaks: 26
14 19 15 357 16 12 18 14 27 73 28 139 29 999 30 40 31 802 32 25 
33 28 41 34 42 24 43 573 44 33 45 64 47 323 48 11 57 9 58 33 
59 928 60 34 61 7 75 437 76 10 89 15 
