Name: ISOPROPYL FORMATE
MW: 88
Formula: C4H8O2
Synonym: MassBank: JP008865
Synonym: ISOPROPYL FORMATE
Synonym: FORMIC ACID ISOPROPYL ESTER
Structure: 310A31360A49534F50524F50594C20464F524D4154452E6D6F6C0A20204368656D447261773131323130393138323432440A2020362020352020302020302020302020302020302020302020302020303939392056323030300A2020202D302E373134352020202D302E3230363220202020302E303030302043202020302020302020302020302020302020302020302020302020302020302020302020300A2020202D312E343238392020202D302E3631383820202020302E30303030204F202020302020302020302020302020302020302020302020302020302020302020302020300A20202020302E303030302020202D302E3631383820202020302E30303030204F202020302020302020302020302020302020302020302020302020302020302020302020300A20202020302E373134352020202D302E3230363220202020302E303030302043202020302020302020302020302020302020302020302020302020302020302020302020300A20202020302E3731343520202020302E3631383820202020302E303030302043202020302020302020302020302020302020302020302020302020302020302020302020300A20202020312E343238392020202D302E3631383720202020302E303030302043202020302020302020302020302020302020302020302020302020302020302020302020300A2020312020322020322020302020202020200A2020312020332020312020302020202020200A2020342020352020312020302020202020200A2020342020362020312020302020202020200A2020332020342020312020302020202020200A4D2020454E44
Contributor: TAJIMA S, GUNMA COLLEGE OF TECHNOLOGY
InstType: EI
InstName: HITACHI RMU-7M
IoniMethod: _ENERGY 70 eV
IonPolarity: pos
Date: 2010-10-09 19:48:36+02:00
Num Peaks: 17
15 50 19 50 27 208 28 26 29 96 31 44 39 95 40 26 41 303 42 483 
43 402 44 30 45 999 46 26 47 70 59 51 73 204 
