Name: 5-(1-HEXYNYL)-2-METHYLPYRIDINE
MW: 173
Formula: C12H15N
Synonym: MassBank: JP005093
Synonym: 5-(1-HEXYNYL)-2-METHYLPYRIDINE
Structure: 352D28312D484558594E594C292D322D4D455448594C5059524944494E452E6D6F6C0A20204368656D447261773034323331303032343632440A2031332031332020302020302020302020302020302020302020302020303939392056323030300A20202020322E343735302020202D302E3335373220202020302E303030302043202020302020302020302020302020302020302020302020302020302020302020302020300A20202020322E303632352020202D312E3037313720202020302E303030302043202020302020302020302020302020302020302020302020302020302020302020302020300A20202020312E323337352020202D312E3037313720202020302E303030302043202020302020302020302020302020302020302020302020302020302020302020302020300A20202020302E383235302020202D302E3335373220202020302E303030302043202020302020302020302020302020302020302020302020302020302020302020302020300A20202020312E3233373520202020302E3335373220202020302E303030302043202020302020302020302020302020302020302020302020302020302020302020302020300A20202020322E3036323520202020302E3335373220202020302E30303030204E202020302020302020302020302020302020302020302020302020302020302020302020300A20202020332E333030302020202D302E3335373220202020302E303030302043202020302020302020302020302020302020302020302020302020302020302020302020300A20202020302E303030302020202D302E3335373220202020302E303030302043202020302020302020302020302020302020302020302020302020302020302020302020300A2020202D302E383235302020202D302E3335373220202020302E303030302043202020302020302020302020302020302020302020302020302020302020302020302020300A2020202D312E363530302020202D302E3335373220202020302E303030302043202020302020302020302020302020302020302020302020302020302020302020302020300A2020202D322E3036323520202020302E3335373220202020302E303030302043202020302020302020302020302020302020302020302020302020302020302020302020300A2020202D322E3838373520202020302E3335373220202020302E303030302043202020302020302020302020302020302020302020302020302020302020302020302020300A2020202D332E3330303020202020312E3037313720202020302E303030302043202020302020302020302020302020302020302020302020302020302020302020302020300A2020312020322020312020302020202020200A2020322020332020322020302020202020200A2020332020342020312020302020202020200A2020342020352020322020302020202020200A2020352020362020312020302020202020200A2020312020362020322020302020202020200A2020312020372020312020302020202020200A2020382020392020332020302020202020200A2020392031302020312020302020202020200A2031302031312020312020302020202020200A2031312031322020312020302020202020200A2031322031332020312020302020202020200A2020342020382020312020302020202020200A4D2020454E44
Contributor: SASAKI S, TOYOHASHI UNIV. OF TECH.
InstType: EI
InstName: MX-1303
IoniMethod: _ENERGY 50 eV
IonPolarity: pos
Date: 2010-10-09 19:48:36+02:00
Num Peaks: 75
38 13 39 118 40 20 41 11 42 24 43 47 50 59 51 13 52 47 53 47 
55 14 57 2 61 14 62 47 63 196 64 4 65 77 66 16 67 20 74 3 
75 65 76 83 77 353 78 7 79 39 80 35 81 30 87 3 88 22 89 95 
90 59 91 10 92 30 93 53 94 30 101 3 102 113 103 138 104 71 105 2 
106 59 107 59 114 12 115 12 116 65 117 255 118 59 119 5 120 30 121 20 
124 30 127 2 128 71 129 59 130 765 131 28 132 157 133 24 137 12 141 2 
142 47 143 157 144 353 145 12 146 35 156 35 157 98 158 999 159 138 160 11 
170 14 171 1 172 255 173 520 174 78 
