Name: MassBank: JP006061
MW: 131
Formula: C2H3Cl3
Synonym: MassBank: JP006061
Synonym: 1,1,1-TRICHLOROETHANE
Structure: 310A31340A312C312C312D54524943484C4F524F455448414E452E6D6F6C0A20204368656D447261773130323230393232353332440A2020352020342020302020302020302020302020302020302020302020303939392056323030300A20202020302E3030303020202020302E3030303020202020302E303030302043202020302020302020302020302020302020302020302020302020302020302020302020300A20202020302E303030302020202D302E3832353020202020302E303030302043202020302020302020302020302020302020302020302020302020302020302020302020300A2020202D302E3832353020202020302E3030303020202020302E3030303020436C2020302020302020302020302020302020302020302020302020302020302020302020300A20202020302E3030303020202020302E3832353020202020302E3030303020436C2020302020302020302020302020302020302020302020302020302020302020302020300A20202020302E3832353020202020302E3030303020202020302E3030303020436C2020302020302020302020302020302020302020302020302020302020302020302020300A2020312020322020312020302020202020200A2020312020332020312020312020202020200A2020312020342020312020302020202020200A2020312020352020312020312020202020200A4D2020454E44
Contributor: HASHIMOTO K, KYOTO COLLEGE OF PHARMACY
InstType: EI
InstName: HITACHI M-80
IoniMethod: _ENERGY 20 eV
IonPolarity: pos
Date: 2010-10-09 19:48:36+02:00
Num Peaks: 15
26 11 27 55 61 311 62 28 63 108 96 11 97 999 98 28 99 639 100 15 
101 103 117 108 119 104 121 33 123 4 
