Name: CUMIC ALCOHOL
CAS: 536-60-7
MW: 150
Formula: C10H14O
Synonym: MassBank: JP005647
Synonym: CUMIC ALCOHOL
Synonym: 4-(1-METHYLETHYL)BENZENEMETHANOL
Structure: 43554D494320414C434F484F4C2E6D6F6C0A20204368656D447261773039313531303034353432440A2031312031312020302020302020302020302020302020302020302020303939392056323030300A2020202D302E3731343520202020302E3431323520202020302E303030302043202020302020302020302020302020302020302020302020302020302020302020302020300A2020202D302E373134352020202D302E3431323520202020302E303030302043202020302020302020302020302020302020302020302020302020302020302020302020300A20202020302E303030302020202D302E3832353020202020302E303030302043202020302020302020302020302020302020302020302020302020302020302020302020300A20202020302E373134352020202D302E3431323520202020302E303030302043202020302020302020302020302020302020302020302020302020302020302020302020300A20202020302E3731343520202020302E3431323520202020302E303030302043202020302020302020302020302020302020302020302020302020302020302020302020300A20202020302E3030303020202020302E3832353020202020302E303030302043202020302020302020302020302020302020302020302020302020302020302020302020300A20202020302E3030303020202020312E3635303020202020302E303030302043202020302020302020302020302020302020302020302020302020302020302020302020300A2020202D302E3731343520202020322E3036323520202020302E303030302043202020302020302020302020302020302020302020302020302020302020302020302020300A20202020302E3731343520202020322E3036323520202020302E303030302043202020302020302020302020302020302020302020302020302020302020302020302020300A20202020302E303030302020202D312E3635303020202020302E303030302043202020302020302020302020302020302020302020302020302020302020302020302020300A20202020302E373134352020202D322E3036323520202020302E30303030204F202020302020302020302020302020302020302020302020302020302020302020302020300A2020312020322020322020302020202020200A2020322020332020312020302020202020200A2020332020342020322020302020202020200A2020342020352020312020302020202020200A2020352020362020322020302020202020200A2020362020312020312020302020202020200A2020362020372020312020302020202020200A2020372020382020312020302020202020200A2020372020392020312020302020202020200A2020332031302020312020302020202020200A2031302031312020312020302020202020200A4D2020454E44
Contributor: HASHIMOTO K, KYOTO COLLEGE OF PHARMACY
InstType: EI
InstName: HITACHI M-80
IoniMethod: _ENERGY 20 eV
IonPolarity: pos
Date: 2010-10-09 19:48:36+02:00
Num Peaks: 32
29 41 31 42 41 76 43 194 58 10 59 20 77 106 79 688 80 35 91 378 
92 51 93 41 103 54 105 612 106 54 107 777 108 73 115 32 116 10 117 223 
118 30 119 608 120 95 121 47 132 26 133 61 134 25 135 999 136 233 149 10 
150 754 151 130 
