Name: 3-METHYLBUTANOIC ACID
CAS: 503-74-2
MW: 102
Formula: C5H10O2
Synonym: MassBank: JP004262
Synonym: 3-METHYLBUTANOIC ACID
Synonym: ISOVALERIC ACID
Structure: 310A31380A332D4D455448594C425554414E4F494320414349442E6D6F6C0A20204368656D447261773033323031303135313532440A2020372020362020302020302020302020302020302020302020302020303939392056323030300A2020202D302E3731343520202020302E3230363220202020302E303030302043202020302020302020302020302020302020302020302020302020302020302020302020300A20202020302E3030303020202020302E3631383820202020302E303030302043202020302020302020302020302020302020302020302020302020302020302020302020300A20202020302E3731343520202020302E3230363220202020302E303030302043202020302020302020302020302020302020302020302020302020302020302020302020300A20202020312E3432383920202020302E3631383820202020302E303030302043202020302020302020302020302020302020302020302020302020302020302020302020300A2020202D302E373134352020202D302E3631383820202020302E30303030204F202020302020302020302020302020302020302020302020302020302020302020302020300A2020202D312E3432383920202020302E3631383820202020302E30303030204F202020302020302020302020302020302020302020302020302020302020302020302020300A20202020302E373134352020202D302E3631383820202020302E303030302043202020302020302020302020302020302020302020302020302020302020302020302020300A2020312020322020312020302020202020200A2020322020332020312020302020202020200A2020332020342020312020302020202020200A2020312020352020322020302020202020200A2020312020362020312020302020202020200A2020332020372020312020302020202020200A4D2020454E44
Contributor: TAJIMA S, GUNMA COLLEGE OF TECHNOLOGY
InstType: EI
InstName: HITACHI RMU-7M
IoniMethod: _ENERGY 70 eV
IonPolarity: pos
Date: 2010-10-09 19:48:36+02:00
Num Peaks: 25
15 13 26 12 27 140 28 38 29 72 31 13 38 12 39 111 40 20 41 359 
42 101 43 456 44 63 45 190 53 10 55 27 56 30 57 24 59 29 60 999 
61 64 69 87 84 47 85 13 87 121 
