Name: DIMETHYL SUBERATE
MW: 202
Formula: C10H18O4
Synonym: MassBank: JP003889
Synonym: DIMETHYL SUBERATE
Structure: 4F4354414E4544494F494320414349442044494D455448594C2045535445522E6D6F6C0A20204368656D447261773038313231303033323232440A2031342031332020302020302020302020302020302020302020302020303939392056323030300A2020202D322E3530303620202020302E3230363320202020302E303030302043202020302020302020302020302020302020302020302020302020302020302020302020300A2020202D312E373836322020202D302E3230363320202020302E303030302043202020302020302020302020302020302020302020302020302020302020302020302020300A2020202D312E3037313720202020302E3230363320202020302E303030302043202020302020302020302020302020302020302020302020302020302020302020302020300A2020202D302E333537322020202D302E3230363220202020302E303030302043202020302020302020302020302020302020302020302020302020302020302020302020300A20202020302E3335373220202020302E3230363320202020302E303030302043202020302020302020302020302020302020302020302020302020302020302020302020300A20202020312E303731372020202D302E3230363220202020302E303030302043202020302020302020302020302020302020302020302020302020302020302020302020300A20202020312E3738363220202020302E3230363320202020302E303030302043202020302020302020302020302020302020302020302020302020302020302020302020300A20202020322E353030362020202D302E3230363220202020302E303030302043202020302020302020302020302020302020302020302020302020302020302020302020300A2020202D322E3530303620202020312E3033313220202020302E30303030204F202020302020302020302020302020302020302020302020302020302020302020302020300A2020202D332E323135312020202D302E3230363320202020302E30303030204F202020302020302020302020302020302020302020302020302020302020302020302020300A20202020322E353030362020202D312E3033313220202020302E30303030204F202020302020302020302020302020302020302020302020302020302020302020302020300A20202020332E3231353120202020302E3230363320202020302E30303030204F202020302020302020302020302020302020302020302020302020302020302020302020300A2020202D332E323135312020202D312E3033313320202020302E303030302043202020302020302020302020302020302020302020302020302020302020302020302020300A20202020332E3231353120202020312E3033313320202020302E303030302043202020302020302020302020302020302020302020302020302020302020302020302020300A2020312020322020312020302020202020200A2020322020332020312020302020202020200A2020332020342020312020302020202020200A2020342020352020312020302020202020200A2020352020362020312020302020202020200A2020362020372020312020302020202020200A2020372020382020312020302020202020200A2020312020392020322020302020202020200A2020312031302020312020302020202020200A2020382031312020322020302020202020200A2020382031322020312020302020202020200A2031302031332020312020302020202020200A2031322031342020312020302020202020200A4D2020454E44
Contributor: MASS SPECTROSCOPY SOC. OF JAPAN (MSSJ)
InstType: EI
InstName: Unknown
IoniMethod: EI
IonPolarity: pos
Date: 2010-10-09 19:48:36+02:00
Num Peaks: 76
15 718 16 21 18 19 25 2 26 20 27 281 28 175 29 28 30 30 31 76 
33 17 36 2 39 205 40 70 41 712 42 24 43 743 44 50 45 144 48 2 
51 22 53 60 54 56 55 89 56 163 57 64 58 37 59 71 60 35 67 89 
68 169 69 92 70 85 71 31 72 25 73 10 74 999 75 47 79 36 81 5 
82 93 83 400 84 96 85 5 86 33 87 367 88 50 93 3 95 30 96 36 
97 545 98 2 99 16 100 13 101 86 109 3 110 135 111 202 112 28 113 4 
114 102 115 35 116 30 127 3 128 26 129 584 130 39 137 4 138 495 139 125 
140 36 142 8 143 35 170 38 171 334 172 36 
