Name: MassBank: JP001356
MW: 321
Formula: C18H35NSi2
Synonym: MassBank: JP001356
Synonym: N,N-BIS(TERT-BUTYLDIMETHYLSILYL)ANILINE
Structure: 4E2C4E2D42495328544552542D425554594C44494D455448594C53494C594C29414E494C494E452E6D6F6C0A20204368656D447261773038313231303032333132440A2032312032312020302020302020302020302020302020302020302020303939392056323030300A2020202D302E343634342020202D302E3032383020202020302E30303030204E202020302020302020302020302020302020302020302020302020302020302020302020300A20202020302E343634342020202D302E3536343320202020302E303030302043202020302020302020302020302020302020302020302020302020302020302020302020300A20202020312E313738392020202D302E3135313820202020302E303030302043202020302020302020302020302020302020302020302020302020302020302020302020300A20202020312E383933332020202D302E3536343320202020302E303030302043202020302020302020302020302020302020302020302020302020302020302020302020300A20202020312E383933332020202D312E3338393320202020302E303030302043202020302020302020302020302020302020302020302020302020302020302020302020300A20202020312E313738392020202D312E3830313820202020302E303030302043202020302020302020302020302020302020302020302020302020302020302020302020300A20202020302E343634342020202D312E3338393320202020302E303030302043202020302020302020302020302020302020302020302020302020302020302020302020300A2020202D312E313738392020202D302E3434303520202020302E303030302053692020302020302020302020302020302020302020302020302020302020302020302020300A2020202D312E3539313420202020302E3237333920202020302E303030302043202020302020302020302020302020302020302020302020302020302020302020302020300A2020202D312E383933332020202D302E3835333020202020302E303030302043202020302020302020302020302020302020302020302020302020302020302020302020300A2020202D302E373636342020202D312E3135353020202020302E303030302043202020302020302020302020302020302020302020302020302020302020302020302020300A2020202D312E343830382020202D312E3536373520202020302E303030302043202020302020302020302020302020302020302020302020302020302020302020302020300A2020202D302E303531392020202D302E3734323520202020302E303030302043202020302020302020302020302020302020302020302020302020302020302020302020300A2020202D302E333533392020202D312E3836393520202020302E303030302043202020302020302020302020302020302020302020302020302020302020302020302020300A2020202D302E3436343420202020312E3034343520202020302E303030302053692020302020302020302020302020302020302020302020302020302020302020302020300A2020202D302E3436343420202020312E3836393520202020302E303030302043202020302020302020302020302020302020302020302020302020302020302020302020300A2020202D312E3238393420202020312E3034343520202020302E303030302043202020302020302020302020302020302020302020302020302020302020302020302020300A20202020302E3336303620202020312E3034343520202020302E303030302043202020302020302020302020302020302020302020302020302020302020302020302020300A20202020302E3336303620202020302E3231393520202020302E303030302043202020302020302020302020302020302020302020302020302020302020302020302020300A20202020312E3138353620202020312E3034343520202020302E303030302043202020302020302020302020302020302020302020302020302020302020302020302020300A20202020302E3336303620202020312E3836393520202020302E303030302043202020302020302020302020302020302020302020302020302020302020302020302020300A2020312020322020312020302020202020200A2020322020332020312020302020202020200A2020332020342020322020302020202020200A2020342020352020312020302020202020200A2020352020362020322020302020202020200A2020362020372020312020302020202020200A2020322020372020322020302020202020200A2020382020392020312020302020202020200A2020382031302020312020302020202020200A2031312031322020312020302020202020200A2031312031342020312020302020202020200A2031312031332020312020302020202020200A2020382031312020312020302020202020200A2020312020382020312020302020202020200A2031352031362020312020302020202020200A2031352031372020312020302020202020200A2031382031392020312020302020202020200A2031382032312020312020302020202020200A2031382032302020312020302020202020200A2031352031382020312020302020202020200A2020312031352020312020302020202020200A4D2020454E44
Contributor: MASS SPECTROSCOPY SOC. OF JAPAN (MSSJ)
InstType: EI
InstName: JEOL JMS-D-3000
IoniMethod: _ENERGY 70 eV
IonPolarity: pos
Date: 2010-10-09 19:48:36+02:00
Num Peaks: 69
43 29 45 97 46 11 50 12 51 16 52 11 53 16 55 20 56 55 57 79 
58 25 59 141 60 14 65 14 66 17 70 14 73 824 74 74 75 39 77 11 
84 27 85 17 86 13 91 19 93 44 95 16 97 12 99 25 100 42 103 11 
105 13 107 11 113 11 119 43 120 21 121 16 130 46 131 12 132 14 134 18 
135 15 146 12 148 15 149 14 150 116 151 18 160 31 162 18 176 25 178 15 
190 10 192 136 193 33 194 16 206 121 207 12 208 53 222 604 223 135 224 53 
225 11 248 46 249 14 264 999 265 257 266 98 267 20 306 36 307 13 
