Name: DIHYDRO-BETA-IONONE
MW: 194
Formula: C13H22O
Synonym: MassBank: JP003711
Synonym: DIHYDRO-BETA-IONONE
Structure: 4449485944524F2D424554412D494F4E4F4E452E6D6F6C0A20204368656D447261773039323131303230353032440A2031342031342020302020302020302020302020302020302020302020303939392056323030300A20202020302E383235302020202D302E3736333520202020302E303030302043202020302020302020302020302020302020302020302020302020302020302020302020300A20202020302E343132352020202D302E3034393020202020302E303030302043202020302020302020302020302020302020302020302020302020302020302020302020300A2020202D302E343132352020202D302E3034393020202020302E303030302043202020302020302020302020302020302020302020302020302020302020302020302020300A2020202D302E383235302020202D302E3736333520202020302E303030302043202020302020302020302020302020302020302020302020302020302020302020302020300A2020202D302E343132352020202D312E3437373920202020302E303030302043202020302020302020302020302020302020302020302020302020302020302020302020300A2020202D312E363530302020202D302E3736333520202020302E303030302043202020302020302020302020302020302020302020302020302020302020302020302020300A2020202D322E303632352020202D302E3034393020202020302E303030302043202020302020302020302020302020302020302020302020302020302020302020302020300A2020202D312E3635303020202020302E3636353520202020302E303030302043202020302020302020302020302020302020302020302020302020302020302020302020300A2020202D302E3832353020202020302E3636353520202020302E303030302043202020302020302020302020302020302020302020302020302020302020302020302020300A2020202D302E3936383320202020312E3437373920202020302E303030302043202020302020302020302020302020302020302020302020302020302020302020302020300A2020202D302E3034393820202020302E3934373620202020302E303030302043202020302020302020302020302020302020302020302020302020302020302020302020300A20202020312E363530302020202D302E3736333520202020302E303030302043202020302020302020302020302020302020302020302020302020302020302020302020300A20202020322E303632352020202D312E3437373920202020302E303030302043202020302020302020302020302020302020302020302020302020302020302020302020300A20202020322E303632352020202D302E3034393020202020302E303030302043202020302020302020302020302020302020302020302020302020302020302020302020300A2020312020322020312020302020202020200A2020322020332020312020302020202020200A2020332020342020322020302020202020200A2020342020352020312020302020202020200A2020342020362020312020302020202020200A2020362020372020312020302020202020200A2020372020382020312020302020202020200A2020382020392020312020302020202020200A2020332020392020312020302020202020200A2020392031302020312020362020202020200A2020392031312020312020312020202020200A2020312031322020312020302020202020200A2031322031332020322020302020202020200A2031322031342020312020302020202020200A4D2020454E44
Contributor: SASAKI S, TOYOHASHI UNIV. OF TECH.
InstType: EI
InstName: Unknown
IoniMethod: EI
IonPolarity: pos
Date: 2010-10-09 19:48:36+02:00
Num Peaks: 71
27 66 28 27 29 72 39 12 40 24 41 279 42 30 43 6 44 18 45 9 
51 36 52 2 53 117 54 15 55 177 56 2 57 30 58 12 63 12 65 7 
66 21 67 123 68 27 69 13 70 12 71 84 77 150 78 0 79 216 80 48 
81 248 82 5 83 30 91 186 92 45 93 34 94 57 95 267 96 39 97 2 
103 15 105 168 106 69 107 17 108 54 109 159 110 18 111 1 119 228 120 60 
121 999 122 11 123 363 124 57 125 15 133 4 135 33 136 363 137 72 138 0 
151 12 161 432 162 60 163 1 176 207 177 33 179 213 180 0 194 147 195 20 
196 5 
