Name: DIBENZOSUBERANE
CAS: 833-48-7
MW: 194
Formula: C15H14
Synonym: MassBank: JP009484
Synonym: DIBENZOSUBERANE
Synonym: 10,11-DIHYDRO-5H-DIBENZO(A,D)CYCLOHEPTENE
Structure: 444942454E5A4F5355424552414E452E6D6F6C0A20204368656D447261773131323230393233313032440A2031352031372020302020302020302020302020302020302020302020303939392056323030300A20202020312E3739373120202020302E3331303720202020302E303030302043202020302020302020302020302020302020302020302020302020302020302020302020300A20202020322E323631382020202D302E3337313020202020302E303030302043202020302020302020302020302020302020302020302020302020302020302020302020300A20202020312E393033392020202D312E3131343320202020302E303030302043202020302020302020302020302020302020302020302020302020302020302020302020300A20202020312E303831322020202D312E3137353920202020302E303030302043202020302020302020302020302020302020302020302020302020302020302020302020300A20202020302E363136342020202D302E3439343320202020302E303030302043202020302020302020302020302020302020302020302020302020302020302020302020300A2020202D302E313837392020202D302E3637373820202020302E303030302043202020302020302020302020302020302020302020302020302020302020302020302020300A2020202D302E383332392020202D302E3136333520202020302E303030302043202020302020302020302020302020302020302020302020302020302020302020302020300A2020202D312E353437342020202D302E3537363020202020302E303030302043202020302020302020302020302020302020302020302020302020302020302020302020300A2020202D322E323631382020202D302E3136333520202020302E303030302043202020302020302020302020302020302020302020302020302020302020302020302020300A2020202D322E3236313820202020302E3636313520202020302E303030302043202020302020302020302020302020302020302020302020302020302020302020302020300A2020202D312E3534373420202020312E3037343020202020302E303030302043202020302020302020302020302020302020302020302020302020302020302020302020300A2020202D302E3833323920202020302E3636313520202020302E303030302043202020302020302020302020302020302020302020302020302020302020302020302020300A2020202D302E3138373920202020312E3137353920202020302E303030302043202020302020302020302020302020302020302020302020302020302020302020302020300A20202020302E3631363420202020302E3939323320202020302E303030302043202020302020302020302020302020302020302020302020302020302020302020302020300A20202020302E3937343420202020302E3234393020202020302E303030302043202020302020302020302020302020302020302020302020302020302020302020302020300A2020312020322020322020302020202020200A2020322020332020312020302020202020200A2020332020342020322020302020202020200A2020342020352020312020302020202020200A2020352020362020312020302020202020200A2020362020372020312020302020202020200A2020372020382020312020302020202020200A2020382020392020322020302020202020200A2020392031302020312020302020202020200A2031302031312020322020302020202020200A2031312031322020312020302020202020200A2020372031322020322020302020202020200A2031322031332020312020302020202020200A2031332031342020312020302020202020200A2031342031352020312020302020202020200A2020352031352020322020302020202020200A2020312031352020312020302020202020200A4D2020454E44
Contributor: NARA WOMEN'S UNIVERSITY
InstType: EI
InstName: HITACHI M-80
IoniMethod: _ENERGY 70 eV
IonPolarity: pos
Date: 2010-10-09 19:48:36+02:00
Num Peaks: 61
18 26 27 38 39 59 50 22 51 50 52 14 62 17 63 62 64 12 65 31 
74 15 75 19 76 33 77 48 78 37 82 18 83 35 87 15 88 17 89 115 
90 24 91 60 95 21 96 44 97 13 102 21 103 28 115 243 116 221 117 72 
121 11 126 14 127 18 128 58 129 11 139 38 141 19 150 15 151 31 152 89 
153 31 163 30 164 24 165 200 166 64 167 19 176 43 177 41 178 434 179 572 
180 91 187 11 188 10 189 90 190 37 191 96 192 62 193 528 194 999 195 159 
196 12 
