Name: DIALLYLHYDRAZONE ACRYLALDEHYDE
MW: 150
Formula: C9H14N2
Synonym: MassBank: JP000869
Synonym: DIALLYLHYDRAZONE ACRYLALDEHYDE
Synonym: ACRYLALDEHYDE DIALLYLHYDRAZONE
Structure: 4449414C4C594C48594452415A4F4E4520414352594C414C4445485944452E6D6F6C0A20204368656D447261773036323431303138333932440A2031312031302020302020302020302020302020302020302020302020303939392056323030300A2020202D312E303331322020202D302E3335373220202020302E303030302043202020302020302020302020302020302020302020302020302020302020302020302020300A2020202D312E343433382020202D312E3037313720202020302E303030302043202020302020302020302020302020302020302020302020302020302020302020302020300A2020202D322E323638372020202D312E3037313720202020302E303030302043202020302020302020302020302020302020302020302020302020302020302020302020300A2020202D302E323036332020202D302E3335373220202020302E30303030204E202020302020302020302020302020302020302020302020302020302020302020302020300A20202020302E3230363320202020302E3335373220202020302E30303030204E202020302020302020302020302020302020302020302020302020302020302020302020300A2020202D302E3230363320202020312E3037313720202020302E303030302043202020302020302020302020302020302020302020302020302020302020302020302020300A2020202D312E3033313320202020312E3037313720202020302E303030302043202020302020302020302020302020302020302020302020302020302020302020302020300A2020202D312E3434333820202020302E3335373220202020302E303030302043202020302020302020302020302020302020302020302020302020302020302020302020300A20202020312E3033313220202020302E3335373220202020302E303030302043202020302020302020302020302020302020302020302020302020302020302020302020300A20202020312E343433382020202D302E3335373220202020302E303030302043202020302020302020302020302020302020302020302020302020302020302020302020300A20202020322E323638372020202D302E3335373220202020302E303030302043202020302020302020302020302020302020302020302020302020302020302020302020300A2020312020322020312020302020202020200A2020322020332020322020302020202020200A2020342020352020312020302020202020200A2020362020372020312020302020202020200A2020372020382020322020302020202020200A2020352020362020312020302020202020200A2020392031302020312020302020202020200A2031302031312020322020302020202020200A2020352020392020312020302020202020200A2020312020342020322020302020202020200A4D2020454E44
Contributor: SASAKI S, TOYOHASHI UNIV. OF TECH.
InstType: EI
InstName: SHIMADZU LKB-2091
IoniMethod: _ENERGY 70 eV
IonPolarity: pos
Date: 2010-10-09 19:48:36+02:00
Num Peaks: 31
29 40 38 18 39 315 40 14 41 999 42 62 52 9 53 17 54 75 55 88 
56 23 65 2 66 22 67 29 68 55 69 5 77 20 79 78 80 21 81 25 
82 27 94 18 95 9 107 1 109 122 110 9 123 33 124 0 149 9 150 220 
151 22 
