Name: CLOVENE
MW: 204
Formula: C15H24
Synonym: MassBank: JP002854
Synonym: CLOVENE
Structure: 434C4F56454E452E6D6F6C0A20204368656D447261773039313531303034313332440A2031362031382020302020302020302020302020302020302020302020303939392056323030300A2020202D312E3034313220202020302E3530353320202020302E303030302043202020302020302020302020302020302020302020302020302020302020302020302020300A2020202D312E303431322020202D302E3331393720202020302E303030302043202020302020302020302020302020302020302020302020302020302020302020302020300A2020202D302E333236382020202D302E3733323220202020302E303030302043202020302020302020302020302020302020302020302020302020302020302020302020300A20202020302E333837372020202D302E3331393720202020302E303030302043202020302020302020302020302020302020302020302020302020302020302020302020300A20202020302E3338373720202020302E3530353320202020302E303030302043202020302020302020302020302020302020302020302020302020302020302020302020300A2020202D302E3332363820202020302E3931373820202020302E303030302043202020302020302020302020302020302020302020302020302020302020302020302020300A20202020312E313732332020202D302E3537343620202020302E303030302043202020302020302020302020302020302020302020302020302020302020302020302020300A20202020312E3635373320202020302E3039323820202020302E303030302043202020302020302020302020302020302020302020302020302020302020302020302020300A20202020312E3137323320202020302E3736303320202020302E303030302043202020302020302020302020302020302020302020302020302020302020302020302020300A20202020312E3735353720202020312E3334333620202020302E303030302043202020302020302020302020302020302020302020302020302020302020302020302020300A2020202D312E373535372020202D302E3733323220202020302E303030302043202020302020302020302020302020302020302020302020302020302020302020302020300A20202020302E3935383820202020312E3535373220202020302E303030302043202020302020302020302020302020302020302020302020302020302020302020302020300A20202020302E3338373720202020312E3333303320202020302E303030302048202020302020302020302020302020302020302020302020302020302020302020302020300A2020202D312E303431322020202D312E3134343720202020302E303030302043202020302020302020302020302020302020302020302020302020302020302020302020300A20202020302E333837372020202D312E3134343720202020302E303030302043202020302020302020302020302020302020302020302020302020302020302020302020300A2020202D302E333236382020202D312E3535373220202020302E303030302043202020302020302020302020302020302020302020302020302020302020302020302020300A2020312020322020312020302020202020200A2020322020332020312020302020202020200A2020332020342020312020302020202020200A2020342020352020312020302020202020200A2020352020362020312020302020202020200A2020362020312020312020302020202020200A2020342020372020312020302020202020200A2020372020382020322020302020202020200A2020382020392020312020302020202020200A2020392020352020312020302020202020200A2020392031302020312020312020202020200A2020322031312020312020312020202020200A2020392031322020312020362020202020200A2020352031332020312020362020202020200A2020322031342020312020362020202020200A2020342031352020312020362020202020200A2031342031362020312020302020202020200A2031362031352020312020302020202020200A4D2020454E44
Contributor: SASAKI S, TOYOHASHI UNIV. OF TECH.
InstType: EI
InstName: Unknown
IoniMethod: EI
IonPolarity: pos
Date: 2010-10-09 19:48:36+02:00
Num Peaks: 88
27 170 28 26 29 170 30 1 38 8 39 228 40 41 41 51 42 30 43 70 
51 70 53 17 54 20 55 228 56 15 57 0 63 25 64 11 65 130 66 3 
67 147 68 16 69 105 70 1 71 5 77 260 78 71 79 23 80 30 81 130 
82 15 83 1 89 12 90 5 91 430 92 7 93 191 94 26 95 151 96 2 
97 8 102 10 103 53 104 3 105 375 106 60 107 137 108 4 109 45 110 5 
115 71 116 0 117 96 118 23 119 75 120 10 121 51 122 10 123 5 127 1 
128 36 129 35 130 18 131 8 132 25 133 175 134 31 135 1 141 8 142 5 
143 8 144 1 145 56 146 36 147 105 148 2 159 15 160 12 161 999 162 1 
163 11 175 20 176 5 189 50 190 81 191 8 204 56 205 10 
