Name: MassBank: JP007482
MW: 325
Formula: C11H13Cl3O3Si
Synonym: MassBank: JP007482
Synonym: 2,4,5-TRICHLOROPHENOXYACETIC ACID TRIMETHYLSILYL ESTER
Structure: 322C342C352D54524943484C4F524F5048454E4F58594143455449432041434944205452494D455448594C53494C594C2045535445522E6D6F6C0A20204368656D447261773132323030393133323532440A2031382031382020302020302020302020302020302020302020302020303939392056323030300A20202020312E323337352020202D302E3731343520202020302E303030302043202020302020302020302020302020302020302020302020302020302020302020302020300A20202020302E343132352020202D302E3731343520202020302E303030302043202020302020302020302020302020302020302020302020302020302020302020302020300A20202020312E363530302020202D312E3432383920202020302E30303030204F202020302020302020302020302020302020302020302020302020302020302020302020300A20202020312E3635303020202020302E3030303020202020302E30303030204F202020302020302020302020302020302020302020302020302020302020302020302020300A20202020302E3030303020202020302E3030303020202020302E30303030204F202020302020302020302020302020302020302020302020302020302020302020302020300A2020202D302E3832353020202020302E3030303020202020302E303030302043202020302020302020302020302020302020302020302020302020302020302020302020300A2020202D312E323337352020202D302E3731343520202020302E303030302043202020302020302020302020302020302020302020302020302020302020302020302020300A2020202D322E303632352020202D302E3731343520202020302E303030302043202020302020302020302020302020302020302020302020302020302020302020302020300A2020202D322E3437353020202020302E3030303020202020302E303030302043202020302020302020302020302020302020302020302020302020302020302020302020300A2020202D322E3036323520202020302E3731343520202020302E303030302043202020302020302020302020302020302020302020302020302020302020302020302020300A2020202D312E3233373520202020302E3731343520202020302E303030302043202020302020302020302020302020302020302020302020302020302020302020302020300A2020202D322E3437353020202020312E3432383920202020302E3030303020436C2020302020302020302020302020302020302020302020302020302020302020302020300A2020202D332E3330303020202020302E3030303020202020302E3030303020436C2020302020302020302020302020302020302020302020302020302020302020302020300A2020202D302E383235302020202D312E3432383920202020302E3030303020436C2020302020302020302020302020302020302020302020302020302020302020302020300A20202020322E3437353020202020302E3030303020202020302E303030302053692020302020302020302020302020302020302020302020302020302020302020302020300A20202020322E3437353020202020302E3832353020202020302E303030302043202020302020302020302020302020302020302020302020302020302020302020302020300A20202020332E3330303020202020302E3030303020202020302E303030302043202020302020302020302020302020302020302020302020302020302020302020302020300A20202020322E343735302020202D302E3832353020202020302E303030302043202020302020302020302020302020302020302020302020302020302020302020302020300A2020312020322020312020302020202020200A2020312020332020322020302020202020200A2020312020342020312020302020202020200A2020362020372020312020302020202020200A2020372020382020322020302020202020200A2020382020392020312020302020202020200A2020392031302020322020302020202020200A2031302031312020312020302020202020200A2020362031312020322020302020202020200A2020352020362020312020302020202020200A2020322020352020312020302020202020200A2031302031322020312020302020202020200A2020392031332020312020302020202020200A2020372031342020312020302020202020200A2031352031362020312020302020202020200A2031352031372020312020302020202020200A2031352031382020312020302020202020200A2020342031352020312020302020202020200A4D2020454E44
Contributor: KOGA M, UNIV. OF OCCUPATIONAL AND ENVIRONMENTAL HEALTH
InstType: EI
InstName: JEOL JMS-01-SG
IoniMethod: _ENERGY 70 eV
IonPolarity: pos
Date: 2010-10-09 19:48:36+02:00
Num Peaks: 44
43 18 44 14 45 46 47 2 58 7 59 7 61 7 72 2 73 999 74 101 
75 169 76 1 93 90 95 43 97 7 101 1 109 7 116 7 117 25 145 1 
179 7 181 14 193 10 195 1 232 10 237 14 239 14 247 1 249 7 253 14 
255 14 267 6 268 7 269 54 271 14 283 1 285 14 291 43 293 28 296 1 
326 64 327 7 328 64 330 18 
