Name: DIMETHYLHYDRAZONE TIGLYLALDEHYDE
MW: 126
Formula: C7H14N2
Synonym: MassBank: JP000871
Synonym: DIMETHYLHYDRAZONE TIGLYLALDEHYDE
Synonym: 2-METHYL-2-BUTENAL DIMETHYLHYDRAZONE
Structure: 310A32320A44494D455448594C48594452415A4F4E45205449474C594C414C4445485944452E6D6F6C0A20204368656D447261773031323231303033303832440A2020392020382020302020302020302020302020302020302020302020303939392056323030300A20202020302E3230363220202020312E3432383920202020302E303030302043202020302020302020302020302020302020302020302020302020302020302020302020300A20202020302E3631383820202020302E3731343520202020302E303030302043202020302020302020302020302020302020302020302020302020302020302020302020300A20202020302E323036322020202D302E3030303020202020302E303030302043202020302020302020302020302020302020302020302020302020302020302020302020300A20202020312E3434333720202020302E3731343520202020302E303030302043202020302020302020302020302020302020302020302020302020302020302020302020300A20202020312E383536332020202D302E3030303020202020302E303030302043202020302020302020302020302020302020302020302020302020302020302020302020300A2020202D302E363138382020202D302E3030303020202020302E30303030204E202020302020302020302020302020302020302020302020302020302020302020302020300A2020202D312E303331332020202D302E3731343520202020302E30303030204E202020302020302020302020302020302020302020302020302020302020302020302020300A2020202D302E363138382020202D312E3432383920202020302E303030302043202020302020302020302020302020302020302020302020302020302020302020302020300A2020202D312E383536332020202D302E3731343520202020302E303030302043202020302020302020302020302020302020302020302020302020302020302020302020300A2020312020322020312020302020202020200A2020322020332020312020302020202020200A2020322020342020322020302020202020200A2020342020352020312020302020202020200A2020362020372020312020302020202020200A2020372020382020312020302020202020200A2020372020392020312020302020202020200A2020332020362020322020302020202020200A4D2020454E44
Contributor: SASAKI S, TOYOHASHI UNIV. OF TECH.
InstType: EI
InstName: SHIMADZU LKB-2091
IoniMethod: _ENERGY 70 eV
IonPolarity: pos
Date: 2010-10-09 19:48:36+02:00
Num Peaks: 54
26 13 28 325 29 270 30 30 31 11 37 11 38 3 39 27 40 65 41 298 
42 760 43 52 44 999 45 300 46 176 49 1 50 24 51 35 52 38 53 22 
54 116 55 406 56 214 57 6 58 111 59 81 63 62 65 5 66 22 67 270 
68 90 69 3 70 214 71 54 72 46 80 1 81 257 82 930 83 227 84 11 
85 11 94 46 95 68 96 10 97 46 98 35 108 7 109 3 110 243 111 460 
112 38 125 3 126 676 127 66 
