Name: 3BETA-3-HYDROXY-ANDROST-5-EN-17-ONE
CAS: 53-43-0
MW: 288
Formula: C19H28O2
Synonym: MassBank: JP007246
Synonym: 3BETA-3-HYDROXY-ANDROST-5-EN-17-ONE
Synonym: DEHYDROEPIANDROSTERONE
Structure: 33424554412D332D485944524F58592D414E44524F53542D352D454E2D31372D4F4E452E6D6F6C0A20204368656D447261773039323031303132313332440A2032352032382020302020302020302020302020302020302020302020303939392056323030300A2020202D322E303038342020202D312E3139333820202020302E303030302043202020302020302020302020302020302020302020302020302020302020302020302020300A2020202D322E303038342020202D302E3336383820202020302E303030302043202020302020302020302020302020302020302020302020302020302020302020302020300A2020202D312E3239343020202020302E3034333720202020302E303030302043202020302020302020302020302020302020302020302020302020302020302020302020300A2020202D312E323934302020202D312E3630363320202020302E303030302043202020302020302020302020302020302020302020302020302020302020302020302020300A2020202D302E353739352020202D312E3139333820202020302E303030302043202020302020302020302020302020302020302020302020302020302020302020302020300A20202020302E313335302020202D312E3630363320202020302E303030302043202020302020302020302020302020302020302020302020302020302020302020302020300A20202020302E383439342020202D312E3139333820202020302E303030302043202020302020302020302020302020302020302020302020302020302020302020302020300A20202020302E383439342020202D302E3336383820202020302E303030302043202020302020302020302020302020302020302020302020302020302020302020302020300A20202020312E3536333920202020302E3034333720202020302E303030302043202020302020302020302020302020302020302020302020302020302020302020302020300A20202020322E333438352020202D302E3231313220202020302E303030302043202020302020302020302020302020302020302020302020302020302020302020302020300A20202020322E3833333420202020302E3435363220202020302E303030302043202020302020302020302020302020302020302020302020302020302020302020302020300A20202020322E3334383520202020312E3132333620202020302E303030302043202020302020302020302020302020302020302020302020302020302020302020302020300A20202020312E3536333920202020302E3836383720202020302E303030302043202020302020302020302020302020302020302020302020302020302020302020302020300A20202020312E3536333920202020312E3639333720202020302E303030302043202020302020302020302020302020302020302020302020302020302020302020302020300A20202020302E3834393420202020312E3238313220202020302E303030302043202020302020302020302020302020302020302020302020302020302020302020302020300A20202020302E3133353020202020302E3836383720202020302E303030302043202020302020302020302020302020302020302020302020302020302020302020302020300A20202020302E3133353020202020302E3034333720202020302E303030302043202020302020302020302020302020302020302020302020302020302020302020302020300A2020202D302E353739352020202D302E3336383820202020302E303030302043202020302020302020302020302020302020302020302020302020302020302020302020300A2020202D302E3537393520202020302E3435363220202020302E303030302043202020302020302020302020302020302020302020302020302020302020302020302020300A20202020322E3630333520202020312E3930383320202020302E30303030204F202020302020302020302020302020302020302020302020302020302020302020302020300A2020202D322E343230392020202D312E3930383320202020302E30303030204F202020302020302020302020302020302020302020302020302020302020302020302020300A20202020302E313335302020202D302E3738313320202020302E303030302048202020302020302020302020302020302020302020302020302020302020302020302020300A20202020302E3834393420202020302E3435363220202020302E303030302048202020302020302020302020302020302020302020302020302020302020302020302020300A20202020312E353633392020202D302E3738313320202020302E303030302048202020302020302020302020302020302020302020302020302020302020302020302020300A2020202D322E383333342020202D312E3139333820202020302E303030302048202020302020302020302020302020302020302020302020302020302020302020302020300A2020312020322020312020302020202020200A2020322020332020312020302020202020200A2020312020342020312020302020202020200A2020342020352020312020302020202020200A2020352020362020322020302020202020200A2020362020372020312020302020202020200A2020372020382020312020302020202020200A2020382020392020312020302020202020200A2020392031302020312020302020202020200A2031302031312020312020302020202020200A2031312031322020312020302020202020200A2031322031332020312020302020202020200A2020392031332020312020302020202020200A2031332031342020312020312020202020200A2031332031352020312020302020202020200A2031352031362020312020302020202020200A2031362031372020312020302020202020200A2020382031372020312020302020202020200A2031372031382020312020302020202020200A2020332031382020312020302020202020200A2020352031382020312020302020202020200A2031382031392020312020312020202020200A2031322032302020322020302020202020200A2020312032312020312020312020202020200A2031372032322020312020362020202020200A2020382032332020312020312020202020200A2020392032342020312020362020202020200A2020312032352020312020362020202020200A4D2020454E44
Contributor: ENDO K, PHARMACEUTICAL INST., TOHOKU UNIV.
InstType: EI
InstName: HITACHI M-52
IoniMethod: _ENERGY 25 eV
IonPolarity: pos
Date: 2010-10-09 19:48:36+02:00
Num Peaks: 156
43 33 53 19 55 75 57 3 59 10 61 14 67 91 69 4 71 24 77 15 
79 125 80 4 81 102 82 18 83 55 85 2 90 10 91 111 92 41 93 19 
94 48 95 142 96 29 97 16 98 26 99 15 104 15 105 20 106 111 107 253 
108 71 109 7 110 28 111 17 117 94 118 6 119 161 120 116 121 171 122 4 
124 28 125 78 126 11 128 2 129 51 130 26 131 93 132 5 133 97 134 65 
135 102 136 4 137 38 138 23 139 10 141 2 142 34 143 124 144 64 145 21 
146 55 147 99 148 79 149 8 150 26 151 45 155 38 156 2 157 89 158 29 
159 242 160 7 161 55 162 34 163 33 164 1 166 15 167 10 168 26 169 5 
170 23 171 75 172 28 173 8 174 102 175 51 176 168 177 23 178 41 179 14 
181 24 182 1 183 57 184 27 185 151 186 3 187 79 188 52 189 34 190 4 
195 84 196 34 197 61 198 3 199 107 200 40 201 65 202 10 203 485 205 23 
206 17 209 4 210 14 211 51 212 45 213 24 214 116 215 84 216 66 217 5 
218 18 219 13 220 13 221 1 223 23 224 10 225 24 226 2 227 156 228 110 
229 88 230 6 231 185 232 38 237 176 238 4 240 23 241 103 242 46 243 10 
244 75 245 26 248 23 249 1 253 26 255 758 256 143 260 6 269 27 270 538 
271 128 273 11 274 23 288 999 289 168 290 41 
