Name: MassBank: JP001615
CAS: 610-39-9
MW: 182
Formula: C7H6N2O4
Synonym: MassBank: JP001615
Synonym: 4-METHYL-1,2-DINITROBENZENE
Synonym: 3,4-DINITROTOLUENE
Structure: 342D4D455448594C2D312C322D44494E4954524F42454E5A454E452E6D6F6C0A20204368656D447261773032323131303232353632440A2031332031332020302020302020302020302020302020302020302020303939392056323030300A2020202D302E3230363320202020302E3335373220202020302E303030302043202020302020302020302020302020302020302020302020302020302020302020302020300A20202020302E323036332020202D302E3335373220202020302E303030302043202020302020302020302020302020302020302020302020302020302020302020302020300A2020202D302E323036322020202D312E3037313720202020302E303030302043202020302020302020302020302020302020302020302020302020302020302020302020300A2020202D312E303331322020202D312E3037313720202020302E303030302043202020302020302020302020302020302020302020302020302020302020302020302020300A2020202D312E343433382020202D302E3335373220202020302E303030302043202020302020302020302020302020302020302020302020302020302020302020302020300A2020202D312E3033313320202020302E3335373220202020302E303030302043202020302020302020302020302020302020302020302020302020302020302020302020300A20202020312E303331332020202D302E3335373220202020302E30303030204E202020302020332020302020302020302020302020302020302020302020302020302020300A20202020312E3434333820202020302E3335373220202020302E30303030204F202020302020302020302020302020302020302020302020302020302020302020302020300A20202020312E343433382020202D312E3037313720202020302E30303030204F202020302020352020302020302020302020302020302020302020302020302020302020300A20202020302E3230363320202020312E3037313720202020302E30303030204E202020302020332020302020302020302020302020302020302020302020302020302020300A20202020312E3033313320202020312E3037313720202020302E30303030204F202020302020302020302020302020302020302020302020302020302020302020302020300A2020202D302E3230363220202020312E3738363220202020302E30303030204F202020302020352020302020302020302020302020302020302020302020302020302020300A2020202D312E343433372020202D312E3738363220202020302E303030302043202020302020302020302020302020302020302020302020302020302020302020302020300A2020312020322020312020302020202020200A2020322020332020322020302020202020200A2020332020342020312020302020202020200A2020342020352020322020302020202020200A2020352020362020312020302020202020200A2020312020362020322020302020202020200A2020372020382020322020302020202020200A2020372020392020312020302020202020200A2020322020372020312020302020202020200A2031302031312020322020302020202020200A2031302031322020312020302020202020200A2020312031302020312020302020202020200A2020342031332020312020302020202020200A4D202043484720203420202037202020312020203920202D3120203130202020312020313220202D310A4D2020454E44
Contributor: KOGA M, UNIV. OF OCCUPATIONAL AND ENVIRONMENTAL HEALTH
InstType: EI
InstName: VARIAN MAT-44
IoniMethod: _ENERGY 70 eV
IonPolarity: pos
Date: 2010-10-09 19:48:36+02:00
Num Peaks: 52
40 235 41 125 42 25 43 117 44 217 45 12 46 115 49 33 50 457 51 753 
52 999 53 514 54 66 55 39 56 17 61 86 62 300 63 893 64 420 65 548 
66 521 67 65 68 24 74 69 75 77 76 106 77 452 78 606 79 65 80 17 
85 16 86 42 87 40 88 22 89 478 90 116 91 76 92 21 94 323 95 21 
105 70 106 27 108 40 134 18 135 28 136 17 152 18 165 60 166 17 181 13 
182 505 183 48 
