Name: MassBank: JP007517
MW: 203
Formula: C8H6Cl2O2
Synonym: MassBank: JP007517
Synonym: 2,3-DICHLOROPHENYL ACETATE
Structure: 322C332D444943484C4F524F5048454E594C20414345544154452E6D6F6C0A20204368656D447261773132323030393131323332440A2031322031322020302020302020302020302020302020302020302020303939392056323030300A20202020312E343238392020202D302E3030303020202020302E303030302043202020302020302020302020302020302020302020302020302020302020302020302020300A20202020322E313433342020202D302E3431323520202020302E303030302043202020302020302020302020302020302020302020302020302020302020302020302020300A20202020312E3432383920202020302E3832353020202020302E30303030204F202020302020302020302020302020302020302020302020302020302020302020302020300A20202020302E373134352020202D302E3431323520202020302E30303030204F202020302020302020302020302020302020302020302020302020302020302020302020300A2020202D302E303030302020202D302E3030303020202020302E303030302043202020302020302020302020302020302020302020302020302020302020302020302020300A2020202D302E373134352020202D302E3431323520202020302E303030302043202020302020302020302020302020302020302020302020302020302020302020302020300A2020202D312E343238392020202D302E3030303020202020302E303030302043202020302020302020302020302020302020302020302020302020302020302020302020300A2020202D312E3432383920202020302E3832353020202020302E303030302043202020302020302020302020302020302020302020302020302020302020302020302020300A2020202D302E3731343520202020312E3233373520202020302E303030302043202020302020302020302020302020302020302020302020302020302020302020302020300A20202020302E3030303020202020302E3832353020202020302E303030302043202020302020302020302020302020302020302020302020302020302020302020302020300A2020202D322E313433342020202D302E3431323520202020302E3030303020436C2020302020302020302020302020302020302020302020302020302020302020302020300A2020202D302E373134352020202D312E3233373520202020302E3030303020436C2020302020302020302020302020302020302020302020302020302020302020302020300A2020312020322020312020302020202020200A2020312020332020322020302020202020200A2020312020342020312020302020202020200A2020352020362020312020302020202020200A2020362020372020322020302020202020200A2020372020382020312020302020202020200A2020382020392020322020302020202020200A2020392031302020312020302020202020200A2020352031302020322020302020202020200A2020372031312020312020302020202020200A2020362031322020312020302020202020200A2020342020352020312020302020202020200A4D2020454E44
Contributor: KOGA M, UNIV. OF OCCUPATIONAL AND ENVIRONMENTAL HEALTH
InstType: EI
InstName: JEOL JMS-01-SG
IoniMethod: _ENERGY 70 eV
IonPolarity: pos
Date: 2010-10-09 19:48:36+02:00
Num Peaks: 55
38 22 39 34 42 44 43 99 44 37 49 17 50 17 51 1 53 12 60 11 
61 53 62 9 63 256 64 26 65 12 72 7 73 108 74 53 75 53 83 3 
84 17 85 20 87 13 91 1 96 13 97 55 98 99 99 7 100 35 101 14 
107 52 109 6 110 11 111 14 126 262 127 3 128 102 133 143 134 12 135 10 
137 14 145 25 147 14 161 2 162 999 163 129 164 766 165 8 166 182 167 12 
204 413 205 6 206 286 207 36 208 57 
