Name: 3-(CYCLOHEXYLIDENEMETHYL)-5-PHENYL-2-ISOXAZOLINE
MW: 241
Formula: C16H19NO
Synonym: MassBank: JP009346
Synonym: 3-(CYCLOHEXYLIDENEMETHYL)-5-PHENYL-2-ISOXAZOLINE
Structure: 332D284359434C4F484558594C4944454E454D455448594C292D352D5048454E594C2D322D49534F58415A4F4C494E452E6D6F6C0A20204368656D447261773032323231303130333032440A2031382032302020302020302020302020302020302020302020302020303939392056323030300A2020202D302E3433383620202020302E3639373620202020302E30303030204F202020302020302020302020302020302020302020302020302020302020302020302020300A20202020302E3336383420202020302E3532363020202020302E30303030204E202020302020302020302020302020302020302020302020302020302020302020302020300A20202020302E343534362020202D302E3239343420202020302E303030302043202020302020302020302020302020302020302020302020302020302020302020302020300A2020202D302E323939302020202D302E3633303020202020302E303030302043202020302020302020302020302020302020302020302020302020302020302020302020300A2020202D302E383531312020202D302E3031363920202020302E303030302043202020302020302020302020302020302020302020302020302020302020302020302020300A2020202D312E363731362020202D302E3130333120202020302E303030302043202020302020302020302020302020302020302020302020302020302020302020302020300A2020202D322E303037312020202D302E3835363820202020302E303030302043202020302020302020302020302020302020302020302020302020302020302020302020300A2020202D322E383237362020202D302E3934333120202020302E303030302043202020302020302020302020302020302020302020302020302020302020302020302020300A2020202D332E333132352020202D302E3237353620202020302E303030302043202020302020302020302020302020302020302020302020302020302020302020302020300A2020202D322E3937373020202020302E3437383120202020302E303030302043202020302020302020302020302020302020302020302020302020302020302020302020300A2020202D322E3135363520202020302E3536343320202020302E303030302043202020302020302020302020302020302020302020302020302020302020302020302020300A20202020312E313639312020202D302E3730363920202020302E303030302043202020302020302020302020302020302020302020302020302020302020302020302020300A20202020312E383833362020202D302E3239343420202020302E303030302043202020302020302020302020302020302020302020302020302020302020302020302020300A20202020312E3838333620202020302E3533303620202020302E303030302043202020302020302020302020302020302020302020302020302020302020302020302020300A20202020322E3539383020202020302E3934333120202020302E303030302043202020302020302020302020302020302020302020302020302020302020302020302020300A20202020332E3331323520202020302E3533303620202020302E303030302043202020302020302020302020302020302020302020302020302020302020302020302020300A20202020332E333132352020202D302E3239343420202020302E303030302043202020302020302020302020302020302020302020302020302020302020302020302020300A20202020322E353938302020202D302E3730363920202020302E303030302043202020302020302020302020302020302020302020302020302020302020302020302020300A2020312020322020312020302020202020200A2020322020332020322020302020202020200A2020332020342020312020302020202020200A2020342020352020312020302020202020200A2020312020352020312020302020202020200A2020362020372020312020302020202020200A2020372020382020322020302020202020200A2020382020392020312020302020202020200A2020392031302020322020302020202020200A2031302031312020312020302020202020200A2020362031312020322020302020202020200A2020352020362020312020302020202020200A2031332031342020312020302020202020200A2031342031352020312020302020202020200A2031352031362020312020302020202020200A2031362031372020312020302020202020200A2031372031382020312020302020202020200A2031332031382020312020302020202020200A2031322031332020322020302020202020200A2020332031322020312020302020202020200A4D2020454E44
Contributor: KANEMASA S, INST. OF ADVANCED MATERIAL STUDY KYUSHU UNIV.
InstType: EI
InstName: JEOL JMS-01-SG-2
IoniMethod: _ENERGY 75 eV
IonPolarity: pos
Date: 2010-10-09 19:48:36+02:00
Num Peaks: 51
39 673 41 642 43 198 50 146 51 455 52 210 53 315 55 231 63 132 65 414 
66 133 67 283 77 837 78 496 79 432 80 156 91 762 93 132 103 303 104 545 
105 270 106 421 107 305 115 237 128 208 129 130 134 999 135 249 136 49 137 66 
141 108 142 50 143 56 144 49 146 79 150 134 152 82 153 72 154 64 155 76 
156 63 164 56 165 58 167 80 168 48 180 39 182 44 198 66 224 177 241 210 
242 41 
