Name: TRICHLOROETHYLENE
MW: 129
Formula: C2HCl3
Synonym: MassBank: JP008791
Synonym: TRICHLOROETHYLENE
Structure: 310A31340A54524943484C4F524F455448594C454E452E6D6F6C0A20204368656D447261773038313231303038323332440A2020352020342020302020302020302020302020302020302020302020303939392056323030300A20202020302E333537322020202D302E3230363220202020302E303030302043202020302020302020302020302020302020302020302020302020302020302020302020300A2020202D302E333537322020202D302E3631383820202020302E303030302043202020302020302020302020302020302020302020302020302020302020302020302020300A20202020312E303731372020202D302E3631383720202020302E3030303020436C2020302020302020302020302020302020302020302020302020302020302020302020300A20202020302E3335373220202020302E3631383820202020302E3030303020436C2020302020302020302020302020302020302020302020302020302020302020302020300A2020202D312E303731372020202D302E3230363220202020302E3030303020436C2020302020302020302020302020302020302020302020302020302020302020302020300A2020312020322020322020302020202020200A2020312020332020312020302020202020200A2020312020342020312020302020202020200A2020322020352020312020302020202020200A4D2020454E44
Contributor: UOEH
InstType: EI
InstName: HP 5970
IoniMethod: _ENERGY 70 eV
IonPolarity: pos
Date: 2010-10-09 19:48:36+02:00
Num Peaks: 33
35 267 36 112 37 183 38 186 39 523 40 107 41 603 42 78 47 162 48 92 
49 184 51 56 59 134 60 518 61 182 62 809 63 929 64 236 65 305 66 42 
75 49 76 347 77 98 78 128 93 120 95 882 96 127 97 646 99 113 130 999 
132 880 134 300 136 56 
