Name: ADIPIC ACID DIMETHYL ESTER
CAS: 627-93-0
MW: 174
Formula: C8H14O4
Synonym: MassBank: JP007326
Synonym: ADIPIC ACID DIMETHYL ESTER
Synonym: HEXANEDIOIC ACID DIMETHYL ESTER
Structure: 41444950494320414349442044494D455448594C2045535445522E6D6F6C0A20204368656D447261773036323431303139333032440A2031322031312020302020302020302020302020302020302020302020303939392056323030300A2020202D312E3037313720202020302E3832353020202020302E303030302043202020302020302020302020302020302020302020302020302020302020302020302020300A2020202D312E303731372020202D302E3030303020202020302E303030302043202020302020302020302020302020302020302020302020302020302020302020302020300A2020202D302E333537322020202D302E3431323520202020302E303030302043202020302020302020302020302020302020302020302020302020302020302020302020300A20202020302E333537322020202D302E3030303020202020302E303030302043202020302020302020302020302020302020302020302020302020302020302020302020300A20202020312E303731372020202D302E3431323520202020302E303030302043202020302020302020302020302020302020302020302020302020302020302020302020300A20202020312E373836322020202D302E3030303020202020302E303030302043202020302020302020302020302020302020302020302020302020302020302020302020300A2020202D302E3335373220202020312E3233373520202020302E30303030204F202020302020302020302020302020302020302020302020302020302020302020302020300A2020202D312E3738363220202020312E3233373520202020302E30303030204F202020302020302020302020302020302020302020302020302020302020302020302020300A20202020312E3738363220202020302E3832353020202020302E30303030204F202020302020302020302020302020302020302020302020302020302020302020302020300A20202020322E353030362020202D302E3431323520202020302E30303030204F202020302020302020302020302020302020302020302020302020302020302020302020300A2020202D322E3530303620202020302E3832353020202020302E303030302043202020302020302020302020302020302020302020302020302020302020302020302020300A20202020322E353030362020202D312E3233373520202020302E303030302043202020302020302020302020302020302020302020302020302020302020302020302020300A2020312020322020312020302020202020200A2020322020332020312020302020202020200A2020332020342020312020302020202020200A2020342020352020312020302020202020200A2020352020362020312020302020202020200A2020312020372020322020302020202020200A2020312020382020312020302020202020200A2020362020392020322020302020202020200A2020362031302020312020302020202020200A2020382031312020312020302020202020200A2031302031322020312020302020202020200A4D2020454E44
Contributor: YAMAMOTO M, DEP. CHEMISTRY, FAC. SCIENCE, NARA WOMEN'S UNIV.
InstType: EI
InstName: HITACHI RMU-6M
IoniMethod: _ENERGY 70 eV
IonPolarity: pos
Date: 2010-10-09 19:48:36+02:00
Num Peaks: 58
14 15 15 745 26 41 27 308 28 253 29 256 30 16 31 76 32 17 33 13 
38 11 39 199 40 33 41 412 42 172 43 527 44 35 45 91 51 16 53 64 
54 139 55 835 56 130 57 67 58 33 59 849 60 32 68 62 69 131 70 11 
71 68 72 118 73 445 74 668 75 29 81 21 82 119 83 322 84 42 85 11 
86 14 87 206 88 57 97 54 99 30 100 47 101 999 102 58 110 48 111 787 
112 58 113 25 114 919 115 252 116 21 142 262 143 821 144 69 
