Name: MassBank: JP004325
MW: 192
Formula: C12H20N2
Synonym: MassBank: JP004325
Synonym: 3-PENTYL-4,5,6,7-TETRAHYDRO-1H-INDAZOLE
Structure: 332D50454E54594C2D342C352C362C372D5445545241485944524F2D31482D494E44415A4F4C452E6D6F6C0A20204368656D447261773033323331303037323932440A2031342031352020302020302020302020302020302020302020302020303939392056323030300A20202020312E313431392020202D312E3439353620202020302E30303030204E202020302020302020302020302020302020302020302020302020302020302020302020300A20202020302E393730332020202D302E3638383620202020302E30303030204E202020302020302020302020302020302020302020302020302020302020302020302020300A20202020302E313439382020202D302E3630323420202020302E303030302043202020302020302020302020302020302020302020302020302020302020302020302020300A2020202D302E313835372020202D312E3335363020202020302E303030302043202020302020302020302020302020302020302020302020302020302020302020302020300A2020202D302E393730332020202D312E3631313020202020302E303030302043202020302020302020302020302020302020302020302020302020302020302020302020300A2020202D312E313431392020202D322E3431383020202020302E303030302043202020302020302020302020302020302020302020302020302020302020302020302020300A2020202D302E353238382020202D322E3937303020202020302E303030302043202020302020302020302020302020302020302020302020302020302020302020302020300A20202020302E323535392020202D322E3731353020202020302E303030302043202020302020302020302020302020302020302020302020302020302020302020302020300A20202020302E343237342020202D312E3930383120202020302E303030302043202020302020302020302020302020302020302020302020302020302020302020302020300A2020202D302E3236323720202020302E3131323120202020302E303030302043202020302020302020302020302020302020302020302020302020302020302020302020300A20202020302E3134393820202020302E3832363620202020302E303030302043202020302020302020302020302020302020302020302020302020302020302020302020300A2020202D302E3236323720202020312E3534313020202020302E303030302043202020302020302020302020302020302020302020302020302020302020302020302020300A20202020302E3134393820202020322E3235353520202020302E303030302043202020302020302020302020302020302020302020302020302020302020302020302020300A2020202D302E3236323720202020322E3937303020202020302E303030302043202020302020302020302020302020302020302020302020302020302020302020302020300A2020312020322020312020302020202020200A2020322020332020322020302020202020200A2020332020342020312020302020202020200A2020342020352020312020302020202020200A2020352020362020312020302020202020200A2020362020372020312020302020202020200A2020372020382020312020302020202020200A2020382020392020312020302020202020200A2020312020392020312020302020202020200A2020342020392020322020302020202020200A2031302031312020312020302020202020200A2031312031322020312020302020202020200A2031322031332020312020302020202020200A2031332031342020312020302020202020200A2020332031302020312020302020202020200A4D2020454E44
Contributor: SASAKI S, TOYOHASHI UNIV. OF TECH.
InstType: EI
InstName: MX-1303
IoniMethod: _ENERGY 50 eV
IonPolarity: pos
Date: 2010-10-09 19:48:36+02:00
Num Peaks: 60
27 41 28 32 29 43 30 1 39 44 40 13 41 103 42 3 43 29 51 13 
52 19 53 4 54 33 55 33 65 29 66 2 67 59 68 19 69 16 77 4 
78 17 79 34 80 35 81 4 91 32 92 19 93 21 94 7 95 93 96 19 
105 12 106 1 107 116 108 98 109 23 119 2 120 17 121 137 122 49 123 2 
124 13 131 10 132 13 133 3 134 36 135 377 136 999 137 10 147 11 148 8 
149 316 150 13 151 13 163 93 164 78 177 2 191 37 192 243 193 35 194 94 
