Name: MassBank: JP005357
MW: 294
Formula: C19H34O2
Synonym: MassBank: JP005357
Synonym: (Z,Z)-12,15-OCTADECADIENOIC ACID METHYL ESTER
Structure: 285A2C5A292D31322C31352D4F435441444543414449454E4F49432041434944204D455448594C2045535445522E6D6F6C0A20204368656D447261773130323230393231353332440A2032352032342020302020302020302020302020302020302020302020303939392056323030300A20202020352E3030313320202020302E3230363220202020302E303030302043202020302020302020302020302020302020302020302020302020302020302020302020300A20202020352E3030313320202020312E3033313320202020302E303030302043202020302020302020302020302020302020302020302020302020302020302020302020300A20202020342E3238363820202020312E3434333820202020302E303030302043202020302020302020302020302020302020302020302020302020302020302020302020300A20202020352E3731353820202020312E3434333820202020302E303030302048202020302020302020302020302020302020302020302020302020302020302020302020300A20202020352E373135382020202D302E3230363220202020302E303030302048202020302020302020302020302020302020302020302020302020302020302020302020300A20202020342E323836382020202D302E3230363220202020302E303030302043202020302020302020302020302020302020302020302020302020302020302020302020300A20202020342E323836382020202D312E3033313320202020302E303030302043202020302020302020302020302020302020302020302020302020302020302020302020300A20202020352E303031332020202D312E3434333820202020302E303030302048202020302020302020302020302020302020302020302020302020302020302020302020300A20202020332E353732342020202D312E3434333820202020302E303030302043202020302020302020302020302020302020302020302020302020302020302020302020300A20202020332E353732342020202D322E3236383720202020302E303030302048202020302020302020302020302020302020302020302020302020302020302020302020300A20202020322E383537392020202D312E3033313320202020302E303030302043202020302020302020302020302020302020302020302020302020302020302020302020300A20202020342E3238363820202020322E3236383720202020302E303030302043202020302020302020302020302020302020302020302020302020302020302020302020300A20202020322E313433342020202D312E3434333820202020302E303030302043202020302020302020302020302020302020302020302020302020302020302020302020300A20202020312E343238392020202D312E3033313320202020302E303030302043202020302020302020302020302020302020302020302020302020302020302020302020300A20202020302E373134352020202D312E3434333820202020302E303030302043202020302020302020302020302020302020302020302020302020302020302020302020300A20202020302E303030302020202D312E3033313320202020302E303030302043202020302020302020302020302020302020302020302020302020302020302020302020300A2020202D302E373134352020202D312E3434333820202020302E303030302043202020302020302020302020302020302020302020302020302020302020302020302020300A2020202D312E343238392020202D312E3033313320202020302E303030302043202020302020302020302020302020302020302020302020302020302020302020302020300A2020202D322E313433342020202D312E3434333820202020302E303030302043202020302020302020302020302020302020302020302020302020302020302020302020300A2020202D322E383537392020202D312E3033313320202020302E303030302043202020302020302020302020302020302020302020302020302020302020302020302020300A2020202D332E353732342020202D312E3434333820202020302E303030302043202020302020302020302020302020302020302020302020302020302020302020302020300A2020202D342E323836382020202D312E3033313320202020302E303030302043202020302020302020302020302020302020302020302020302020302020302020302020300A2020202D352E303031332020202D312E3434333820202020302E30303030204F202020302020302020302020302020302020302020302020302020302020302020302020300A2020202D342E323836382020202D302E3230363320202020302E30303030204F202020302020302020302020302020302020302020302020302020302020302020302020300A2020202D352E373135382020202D312E3033313320202020302E303030302043202020302020302020302020302020302020302020302020302020302020302020302020300A2020312020322020322020302020202020200A2020322020332020312020302020202020200A2020322020342020312020302020202020200A2020312020352020312020302020202020200A2020312020362020312020302020202020200A2020362020372020312020302020202020200A2020372020382020312020302020202020200A2020372020392020322020302020202020200A2020392031302020312020302020202020200A2020392031312020312020302020202020200A2020332031322020312020302020202020200A2031312031332020312020302020202020200A2031332031342020312020302020202020200A2031342031352020312020302020202020200A2031352031362020312020302020202020200A2031362031372020312020302020202020200A2031382031372020312020302020202020200A2031392031382020312020302020202020200A2032302031392020312020302020202020200A2032312032302020312020302020202020200A2032312032322020312020302020202020200A2032322032332020312020302020202020200A2032322032342020322020302020202020200A2032332032352020312020302020202020200A4D2020454E44
Contributor: YAMAOKA R, KYOTO INSTITUTE OF TECHNOLOGY
InstType: EI
InstName: HITACHI M-80B
IoniMethod: _ENERGY 70 eV
IonPolarity: pos
Date: 2010-10-09 19:48:36+02:00
Num Peaks: 74
40 11 41 658 42 64 43 206 45 30 51 15 53 112 54 269 55 670 56 45 
57 54 59 174 65 65 66 59 67 999 68 528 69 242 70 26 71 19 73 41 
74 169 75 16 77 84 78 23 79 215 80 112 81 578 82 481 83 159 84 45 
85 19 87 87 91 47 93 85 94 62 95 484 96 357 97 129 105 11 107 47 
108 66 109 186 110 117 111 38 121 49 122 46 123 70 124 52 125 34 129 23 
133 17 135 46 136 33 137 36 138 39 143 19 149 32 150 41 151 26 152 27 
153 14 163 28 164 40 165 16 166 15 177 18 178 22 179 17 192 17 220 18 
262 34 263 48 294 85 295 19 
