Name: 3-(METHYLTHIO)HEXANOL
MW: 148
Formula: C7H16OS
Synonym: MassBank: JP008747
Synonym: 3-(METHYLTHIO)HEXANOL
Structure: 310A32320A332D284D455448594C5448494F29484558414E4F4C2E6D6F6C0A20204368656D447261773032323231303131303232440A2020392020382020302020302020302020302020302020302020302020303939392056323030300A2020202D302E3230363320202020312E3037313720202020302E303030302043202020302020302020302020302020302020302020302020302020302020302020302020300A20202020302E3230363220202020302E3335373220202020302E303030302043202020302020302020302020302020302020302020302020302020302020302020302020300A2020202D302E323036332020202D302E3335373220202020302E303030302043202020302020302020302020302020302020302020302020302020302020302020302020300A20202020302E323036322020202D312E3037313720202020302E303030302043202020302020302020302020302020302020302020302020302020302020302020302020300A20202020312E303331322020202D312E3037313720202020302E303030302043202020302020302020302020302020302020302020302020302020302020302020302020300A20202020312E343433382020202D302E3335373220202020302E303030302043202020302020302020302020302020302020302020302020302020302020302020302020300A2020202D312E303331332020202D302E3335373220202020302E303030302053202020302020302020302020302020302020302020302020302020302020302020302020300A2020202D312E343433382020202D312E3037313720202020302E303030302043202020302020302020302020302020302020302020302020302020302020302020302020300A2020202D312E3033313320202020312E3037313720202020302E30303030204F202020302020302020302020302020302020302020302020302020302020302020302020300A2020312020322020312020302020202020200A2020322020332020312020302020202020200A2020332020342020312020302020202020200A2020342020352020312020302020202020200A2020352020362020312020302020202020200A2020372020382020312020302020202020200A2020332020372020312020302020202020200A2020312020392020312020302020202020200A4D2020454E44
Contributor: SODA AROMATIC CO., LTD.
InstType: EI
InstName: HITACHI M-80B
IoniMethod: _ENERGY 70 eV
IonPolarity: pos
Date: 2010-10-09 19:48:36+02:00
Num Peaks: 68
14 12 15 39 19 10 26 17 27 395 28 40 29 289 31 432 35 25 38 16 
39 273 40 38 41 846 42 170 43 224 44 146 45 237 46 51 47 254 48 102 
49 156 50 16 51 25 53 90 54 56 55 999 56 173 57 662 58 69 59 86 
60 23 61 731 62 28 63 34 65 18 67 334 68 25 69 97 70 53 71 162 
72 91 73 38 74 16 75 639 76 25 77 38 79 13 81 52 82 518 83 221 
84 18 85 22 87 31 88 11 89 35 100 81 101 31 102 14 103 204 104 13 
105 249 106 15 115 28 117 13 133 36 148 617 149 45 150 27 
