Name: TRIETHYLENEGLYCOL DIMETHACRYLATE
MW: 286
Formula: C14H22O6
Synonym: MassBank: JP009941
Synonym: TRIETHYLENEGLYCOL DIMETHACRYLATE
Structure: 545249455448594C454E45474C59434F4C2044494D455448414352594C4154452E6D6F6C0A20204368656D447261773038313231303038333432440A2032302031392020302020302020302020302020302020302020302020303939392056323030300A20202020322E383537392020202D302E3832353020202020302E303030302043202020302020302020302020302020302020302020302020302020302020302020302020300A20202020322E313433342020202D302E3431323520202020302E303030302043202020302020302020302020302020302020302020302020302020302020302020302020300A20202020312E343238392020202D302E3832353020202020302E30303030204F202020302020302020302020302020302020302020302020302020302020302020302020300A20202020302E373134352020202D302E3431323520202020302E303030302043202020302020302020302020302020302020302020302020302020302020302020302020300A2020202D302E303030302020202D302E3832353020202020302E303030302043202020302020302020302020302020302020302020302020302020302020302020302020300A2020202D302E373134352020202D302E3431323520202020302E30303030204F202020302020302020302020302020302020302020302020302020302020302020302020300A2020202D312E343238392020202D302E3832353020202020302E303030302043202020302020302020302020302020302020302020302020302020302020302020302020300A2020202D322E313433342020202D302E3431323520202020302E303030302043202020302020302020302020302020302020302020302020302020302020302020302020300A20202020332E3537323420202020302E3431323520202020302E303030302043202020302020302020302020302020302020302020302020302020302020302020302020300A20202020342E3238363820202020302E3832353020202020302E303030302043202020302020302020302020302020302020302020302020302020302020302020302020300A20202020342E3238363820202020312E3635303020202020302E303030302043202020302020302020302020302020302020302020302020302020302020302020302020300A20202020352E3030313320202020302E3431323520202020302E303030302043202020302020302020302020302020302020302020302020302020302020302020302020300A20202020322E3835373920202020302E3832353020202020302E30303030204F202020302020302020302020302020302020302020302020302020302020302020302020300A20202020332E353732342020202D302E3431323520202020302E30303030204F202020302020302020302020302020302020302020302020302020302020302020302020300A2020202D332E353732342020202D302E3431323520202020302E303030302043202020302020302020302020302020302020302020302020302020302020302020302020300A2020202D342E323836382020202D302E3832353020202020302E303030302043202020302020302020302020302020302020302020302020302020302020302020302020300A2020202D342E323836382020202D312E3635303020202020302E303030302043202020302020302020302020302020302020302020302020302020302020302020302020300A2020202D352E303031332020202D302E3431323520202020302E303030302043202020302020302020302020302020302020302020302020302020302020302020302020300A2020202D332E3537323420202020302E3431323520202020302E30303030204F202020302020302020302020302020302020302020302020302020302020302020302020300A2020202D322E383537392020202D302E3832353020202020302E30303030204F202020302020302020302020302020302020302020302020302020302020302020302020300A2020312020322020312020302020202020200A2020322020332020312020302020202020200A2020342020352020312020302020202020200A2020352020362020312020302020202020200A2020332020342020312020302020202020200A2020372020382020312020302020202020200A2020362020372020312020302020202020200A2020392031302020312020302020202020200A2031302031312020312020302020202020200A2031302031322020322020302020202020200A2020392031332020322020302020202020200A2020392031342020312020302020202020200A2020312031342020312020302020202020200A2031352031362020312020302020202020200A2031362031372020312020302020202020200A2031362031382020322020302020202020200A2031352031392020322020302020202020200A2031352032302020312020302020202020200A2020382032302020312020302020202020200A4D2020454E44
Contributor: KURARAY CO., LTD.
InstType: EI
InstName: JEOL JMS-D-300
IoniMethod: _ENERGY 70 eV
IonPolarity: pos
Date: 2010-10-09 19:48:36+02:00
Num Peaks: 20
39 23 40 16 41 178 43 3 45 45 68 16 69 623 70 5 73 16 84 23 
86 120 87 2 89 16 100 31 112 189 113 999 114 100 143 52 172 19 200 58 
