Name: METHYL ETHYL ETHER
MW: 60
Formula: C3H8O
Synonym: MassBank: JP003899
Synonym: METHYL ETHYL ETHER
Structure: 310A31320A4D455448594C20455448594C2045544845522E6D6F6C0A20204368656D447261773038313231303030313932440A2020342020332020302020302020302020302020302020302020302020303939392056323030300A2020202D302E333537322020202D302E3230363220202020302E30303030204F202020302020302020302020302020302020302020302020302020302020302020302020300A20202020302E3335373220202020302E3230363220202020302E303030302043202020302020302020302020302020302020302020302020302020302020302020302020300A20202020312E303731372020202D302E3230363220202020302E303030302043202020302020302020302020302020302020302020302020302020302020302020302020300A2020202D312E3037313720202020302E3230363220202020302E303030302043202020302020302020302020302020302020302020302020302020302020302020302020300A2020322020332020312020302020202020200A2020312020322020312020302020202020200A2020312020342020312020302020202020200A4D2020454E44
Contributor: MASS SPECTROSCOPY SOC. OF JAPAN (MSSJ)
InstType: EI
InstName: Unknown
IoniMethod: EI
IonPolarity: pos
Date: 2010-10-09 19:48:36+02:00
Num Peaks: 19
12 22 13 30 14 59 15 26 25 23 26 74 27 195 28 9 29 502 30 45 
31 194 32 3 33 24 42 29 43 60 45 999 46 36 59 106 60 258 
