Name: MassBank: JP004223
CAS: 1916-07-0
MW: 226
Formula: C11H14O5
Synonym: MassBank: JP004223
Synonym: 3,4,5-TRIMETHOXYBENZOIC ACID METHYL ESTER
Structure: 332C342C352D5452494D4554484F585942454E5A4F49432041434944204D455448594C2045535445522E6D6F6C0A20204368656D447261773032323131303231343732440A2031362031362020302020302020302020302020302020302020302020303939392056323030300A20202020312E363530302020202D302E3030303020202020302E303030302043202020302020302020302020302020302020302020302020302020302020302020302020300A20202020302E383235302020202D302E3030303020202020302E303030302043202020302020302020302020302020302020302020302020302020302020302020302020300A20202020302E343132352020202D302E3731343520202020302E303030302043202020302020302020302020302020302020302020302020302020302020302020302020300A2020202D302E343132352020202D302E3731343520202020302E303030302043202020302020302020302020302020302020302020302020302020302020302020302020300A2020202D302E3832353020202020302E3030303020202020302E303030302043202020302020302020302020302020302020302020302020302020302020302020302020300A2020202D302E3431323520202020302E3731343520202020302E303030302043202020302020302020302020302020302020302020302020302020302020302020302020300A20202020302E3431323520202020302E3731343520202020302E303030302043202020302020302020302020302020302020302020302020302020302020302020302020300A20202020322E303632352020202D302E3731343520202020302E30303030204F202020302020302020302020302020302020302020302020302020302020302020302020300A20202020322E3036323520202020302E3731343520202020302E30303030204F202020302020302020302020302020302020302020302020302020302020302020302020300A2020202D302E3832353020202020312E3432383920202020302E30303030204F202020302020302020302020302020302020302020302020302020302020302020302020300A2020202D302E3431323520202020322E3134333420202020302E303030302043202020302020302020302020302020302020302020302020302020302020302020302020300A2020202D312E3635303020202020302E3030303020202020302E30303030204F202020302020302020302020302020302020302020302020302020302020302020302020300A2020202D322E303632352020202D302E3731343520202020302E303030302043202020302020302020302020302020302020302020302020302020302020302020302020300A2020202D302E383235302020202D312E3432383920202020302E30303030204F202020302020302020302020302020302020302020302020302020302020302020302020300A2020202D302E343132352020202D322E3134333420202020302E303030302043202020302020302020302020302020302020302020302020302020302020302020302020300A20202020312E3635303020202020312E3432383920202020302E303030302043202020302020302020302020302020302020302020302020302020302020302020302020300A2020312020322020312020302020202020200A2020322020332020312020302020202020200A2020332020342020322020302020202020200A2020342020352020312020302020202020200A2020352020362020322020302020202020200A2020362020372020312020302020202020200A2020322020372020322020302020202020200A2020312020382020322020302020202020200A2020312020392020312020302020202020200A2031302031312020312020302020202020200A2020362031302020312020302020202020200A2031322031332020312020302020202020200A2020352031322020312020302020202020200A2031342031352020312020302020202020200A2020342031342020312020302020202020200A2020392031362020312020302020202020200A4D2020454E44
Contributor: KOGA M, UNIV. OF OCCUPATIONAL AND ENVIRONMENTAL HEALTH
InstType: EI
InstName: JEOL JMS-01-SG
IoniMethod: _ENERGY 70 eV
IonPolarity: pos
Date: 2010-10-09 19:48:36+02:00
Num Peaks: 66
38 56 39 50 50 62 51 2 53 73 59 113 63 33 64 2 65 42 66 110 
67 16 69 5 75 25 76 22 77 79 78 4 79 73 81 79 91 14 92 4 
93 36 94 16 95 56 96 2 97 14 106 14 107 101 108 4 109 79 110 14 
112 14 113 2 119 25 121 19 122 50 123 8 124 110 125 118 134 14 135 4 
136 33 137 73 139 36 140 7 149 14 150 19 151 175 152 10 153 90 155 322 
156 25 165 5 166 56 167 65 168 84 169 2 179 39 183 175 184 14 195 45 
196 73 211 999 212 110 226 47 227 212 228 28 
