Name: N-(3-TRIMETHYLSILYLOXYPROPYL)MORPHOLINE
MW: 217
Formula: C10H23NO2Si
Synonym: MassBank: JP003491
Synonym: N-(3-TRIMETHYLSILYLOXYPROPYL)MORPHOLINE
Structure: 4E2D28332D5452494D455448594C53494C594C4F585950524F50594C294D4F5250484F4C494E452E6D6F6C0A20204368656D447261773038313231303031313532440A2031342031342020302020302020302020302020302020302020302020303939392056323030300A20202020322E383537392020202D302E3035353320202020302E303030302043202020302020302020302020302020302020302020302020302020302020302020302020300A20202020322E313433342020202D302E3436373820202020302E303030302043202020302020302020302020302020302020302020302020302020302020302020302020300A20202020312E343238392020202D302E3035353320202020302E30303030204E202020302020302020302020302020302020302020302020302020302020302020302020300A20202020312E3432383920202020302E3736393720202020302E303030302043202020302020302020302020302020302020302020302020302020302020302020302020300A20202020322E3134333420202020312E3138323220202020302E303030302043202020302020302020302020302020302020302020302020302020302020302020302020300A20202020322E3835373920202020302E3736393720202020302E30303030204F202020302020302020302020302020302020302020302020302020302020302020302020300A20202020302E373134352020202D302E3436373820202020302E303030302043202020302020302020302020302020302020302020302020302020302020302020302020300A2020202D302E303030302020202D302E3035353320202020302E303030302043202020302020302020302020302020302020302020302020302020302020302020302020300A2020202D302E373134352020202D302E3436373820202020302E303030302043202020302020302020302020302020302020302020302020302020302020302020302020300A2020202D312E343238392020202D302E3035353320202020302E30303030204F202020302020302020302020302020302020302020302020302020302020302020302020300A2020202D322E313433342020202D302E3436373820202020302E303030302053692020302020302020302020302020302020302020302020302020302020302020302020300A2020202D312E373330392020202D312E3138323220202020302E303030302043202020302020302020302020302020302020302020302020302020302020302020302020300A2020202D322E383537392020202D302E3838303320202020302E303030302043202020302020302020302020302020302020302020302020302020302020302020302020300A2020202D322E3535353920202020302E3234363720202020302E303030302043202020302020302020302020302020302020302020302020302020302020302020302020300A2020312020322020312020302020202020200A2020322020332020312020302020202020200A2020332020342020312020302020202020200A2020342020352020312020302020202020200A2020352020362020312020302020202020200A2020312020362020312020302020202020200A2020372020382020312020302020202020200A2020382020392020312020302020202020200A2031312031322020312020302020202020200A2031312031332020312020302020202020200A2031312031342020312020302020202020200A2031302031312020312020302020202020200A2020392031302020312020302020202020200A2020332020372020312020302020202020200A4D2020454E44
Contributor: MASS SPECTROSCOPY SOC. OF JAPAN (MSSJ)
InstType: EI
InstName: HITACHI M-60
IoniMethod: _ENERGY 20 eV
IonPolarity: pos
Date: 2010-10-09 19:48:36+02:00
Num Peaks: 37
41 62 42 108 43 158 44 31 45 61 47 11 55 28 56 123 57 34 58 24 
59 59 69 28 70 33 71 38 72 16 73 158 74 8 75 75 84 18 86 57 
87 6 89 8 98 13 100 999 101 105 102 7 103 18 115 16 116 4 129 4 
144 8 145 39 158 4 171 6 186 12 202 24 217 11 
