Name: 2-METHYL-3-OXO-5-(TETRAHYDROPYRAN-2-YLOXYMETHYL)TETRADECAN-5-OLIDE
MW: 368
Formula: C21H36O5
Synonym: MassBank: JP004375
Synonym: 2-METHYL-3-OXO-5-(TETRAHYDROPYRAN-2-YLOXYMETHYL)TETRADECAN-5-OLIDE
Synonym: 3-METHYL-6-NONYL-6-(PERHYDROPYRAN-2-YLOXYMETHYL)PERHYDROPYRAN-2,4-DIONE
Structure: 322D4D455448594C2D332D4F584F2D352D285445545241485944524F505952414E2D322D594C4F58594D455448594C295445545241444543414E2D352D4F4C4944452E6D6F6C0A20204368656D447261773031323231303033333932440A2032362032372020302020302020302020302020302020302020302020303939392056323030300A20202020332E343436352020202D302E3232373320202020302E303030302043202020302020302020302020302020302020302020302020302020302020302020302020300A20202020332E353839372020202D312E3033393720202020302E303030302043202020302020302020302020302020302020302020302020302020302020302020302020300A20202020322E393537372020202D312E3537303020202020302E303030302043202020302020302020302020302020302020302020302020302020302020302020302020300A20202020322E313832352020202D312E3238373920202020302E303030302043202020302020302020302020302020302020302020302020302020302020302020302020300A20202020322E303339322020202D302E3437353420202020302E303030302043202020302020302020302020302020302020302020302020302020302020302020302020300A20202020312E323634302020202D302E3735373620202020302E303030302043202020302020302020302020302020302020302020302020302020302020302020302020300A20202020302E363332302020202D302E3232373320202020302E303030302043202020302020302020302020302020302020302020302020302020302020302020302020300A2020202D302E313433332020202D302E3530393420202020302E303030302043202020302020302020302020302020302020302020302020302020302020302020302020300A2020202D302E3737353220202020302E3032303920202020302E303030302043202020302020302020302020302020302020302020302020302020302020302020302020300A2020202D312E353530352020202D302E3236313320202020302E303030302043202020302020302020302020302020302020302020302020302020302020302020302020300A2020202D322E3138323520202020302E3236393020202020302E303030302043202020302020302020302020302020302020302020302020302020302020302020302020300A2020202D322E393537372020202D302E3031333220202020302E303030302043202020302020302020302020302020302020302020302020302020302020302020302020300A2020202D332E3538393720202020302E3531373120202020302E303030302043202020302020302020302020302020302020302020302020302020302020302020302020300A2020202D342E3336353020202020302E3233353020202020302E303030302043202020302020302020302020302020302020302020302020302020302020302020302020300A20202020312E3632363720202020302E3233393120202020302E303030302043202020302020302020302020302020302020302020302020302020302020302020302020300A20202020302E3830313720202020302E3233393120202020302E30303030204F202020302020302020302020302020302020302020302020302020302020302020302020300A20202020302E3338393220202020302E3935333620202020302E303030302043202020302020302020302020302020302020302020302020302020302020302020302020300A20202020302E3830313720202020312E3636383020202020302E303030302043202020302020302020302020302020302020302020302020302020302020302020302020300A20202020302E3338393220202020322E3338323520202020302E303030302043202020302020302020302020302020302020302020302020302020302020302020302020300A2020202D302E3433353820202020322E3338323520202020302E303030302043202020302020302020302020302020302020302020302020302020302020302020302020300A2020202D302E3834383320202020312E3636383020202020302E303030302043202020302020302020302020302020302020302020302020302020302020302020302020300A2020202D302E3433353820202020302E3935333520202020302E30303030204F202020302020302020302020302020302020302020302020302020302020302020302020300A20202020332E313031302020202D322E3338323520202020302E30303030204F202020302020302020302020302020302020302020302020302020302020302020302020300A20202020342E333635302020202D312E3332313920202020302E303030302043202020302020302020302020302020302020302020302020302020302020302020302020300A20202020342E3037383420202020302E3330333020202020302E30303030204F202020302020302020302020302020302020302020302020302020302020302020302020300A20202020322E3637313220202020302E3035343920202020302E30303030204F202020302020302020302020302020302020302020302020302020302020302020302020300A2020312020322020312020302020202020200A2020322020332020312020302020202020200A2020332020342020312020302020202020200A2020342020352020312020302020202020200A2020352020362020312020302020202020200A2020362020372020312020302020202020200A2020372020382020312020302020202020200A2020382020392020312020302020202020200A2020392031302020312020302020202020200A2031302031312020312020302020202020200A2031312031322020312020302020202020200A2031322031332020312020302020202020200A2031332031342020312020302020202020200A2031372031382020312020302020202020200A2031382031392020312020302020202020200A2031392032302020312020302020202020200A2032302032312020312020302020202020200A2032312032322020312020302020202020200A2031372032322020312020302020202020200A2031362031372020312020302020202020200A2031352031362020312020302020202020200A2020352031352020312020302020202020200A2020332032332020322020302020202020200A2020322032342020312020302020202020200A2020312032352020322020302020202020200A2020312032362020312020302020202020200A2020352032362020312020302020202020200A4D2020454E44
Contributor: HAGIWARA H, CHEM. RES. INST. OF NON-AQUEOUS SOLUTIONS, TOHOKU UNIV.
InstType: EI
InstName: JEOL JMS-DX-300
IoniMethod: _ENERGY 70 eV
IonPolarity: pos
Date: 2010-10-09 19:48:36+02:00
Num Peaks: 47
28 436 29 180 31 37 32 81 39 41 41 241 42 44 43 386 44 48 45 18 
53 25 54 21 55 196 56 108 57 188 58 19 67 87 68 27 69 93 70 22 
71 90 73 16 81 62 82 3 83 73 84 54 85 999 86 63 87 19 95 59 
96 15 97 33 98 29 101 59 109 25 111 24 114 16 151 25 152 17 155 13 
156 20 195 15 211 41 235 18 253 135 254 27 367 2 
