Name: MassBank: JP001379
MW: 196
Formula: C7H14Cl2Si
Synonym: MassBank: JP001379
Synonym: (E)-1,4-DICHLORO-2-TRIMETHYLSILYL-2-BUTENE
Structure: 2845292D312C342D444943484C4F524F2D322D5452494D455448594C53494C594C2D322D425554454E452E6D6F6C0A20204368656D447261773130323230393131343232440A2031312031302020302020302020302020302020302020302020302020303939392056323030300A2020202D312E363530302020202D302E3330323020202020302E303030302043202020302020302020302020302020302020302020302020302020302020302020302020300A2020202D302E383235302020202D302E3330323020202020302E303030302043202020302020302020302020302020302020302020302020302020302020302020302020300A20202020302E303030302020202D302E3330323020202020302E303030302043202020302020302020302020302020302020302020302020302020302020302020302020300A2020202D302E3832353020202020302E3532333020202020302E303030302043202020302020302020302020302020302020302020302020302020302020302020302020300A2020202D302E383235302020202D312E3132373020202020302E303030302043202020302020302020302020302020302020302020302020302020302020302020302020300A20202020302E343132352020202D312E3031363420202020302E303030302043202020302020302020302020302020302020302020302020302020302020302020302020300A20202020302E3431323520202020302E3431323520202020302E303030302043202020302020302020302020302020302020302020302020302020302020302020302020300A20202020312E323337352020202D312E3031363420202020302E3030303020436C2020302020302020302020302020302020302020302020302020302020302020302020300A20202020312E3233373520202020302E3431323520202020302E303030302043202020302020302020302020302020302020302020302020302020302020302020302020300A20202020302E3030303020202020312E3132373020202020302E303030302048202020302020302020302020302020302020302020302020302020302020302020302020300A20202020312E363530302020202D302E3330323020202020302E3030303020436C2020302020302020302020302020302020302020302020302020302020302020302020300A2020312020322020312020302020202020200A2020322020332020312020302020202020200A2020322020342020312020312020202020200A2020322020352020312020312020202020200A2020332020362020312020302020202020200A2020332020372020322020302020202020200A2020362020382020312020302020202020200A2020372020392020312020302020202020200A2020372031302020312020302020202020200A2020392031312020312020302020202020200A4D2020454E44
Contributor: MASS SPECTROSCOPY SOC. OF JAPAN (MSSJ)
InstType: EI
InstName: JEOL JMS-D-3000
IoniMethod: _ENERGY 70 eV
IonPolarity: pos
Date: 2010-10-09 19:48:36+02:00
Num Peaks: 22
43 35 45 38 51 16 52 31 53 999 54 47 63 23 65 37 67 10 73 209 
75 13 79 22 88 62 90 23 93 470 94 38 95 174 96 13 113 14 115 10 
181 37 183 27 
