Name: MESITYLALDEHYDE
CAS: 487-68-3
MW: 148
Formula: C10H12O
Synonym: MassBank: JP008789
Synonym: MESITYLALDEHYDE
Synonym: 2,4,6-TRIMETHYLBENZALDEHYDE
Structure: 4D45534954594C414C4445485944452E6D6F6C0A20204368656D447261773132323030393133333832440A2031312031312020302020302020302020302020302020302020302020303939392056323030300A20202020302E3631383820202020302E3030303020202020302E303030302043202020302020302020302020302020302020302020302020302020302020302020302020300A20202020302E323036322020202D302E3731343520202020302E303030302043202020302020302020302020302020302020302020302020302020302020302020302020300A20202020302E363138382020202D312E3432383920202020302E303030302043202020302020302020302020302020302020302020302020302020302020302020302020300A2020202D302E363138372020202D302E3731343520202020302E303030302043202020302020302020302020302020302020302020302020302020302020302020302020300A2020202D312E3033313320202020302E3030303020202020302E303030302043202020302020302020302020302020302020302020302020302020302020302020302020300A2020202D312E3835363320202020302E3030303020202020302E303030302043202020302020302020302020302020302020302020302020302020302020302020302020300A2020202D302E3631383820202020302E3731343520202020302E303030302043202020302020302020302020302020302020302020302020302020302020302020302020300A20202020302E3230363220202020302E3731343520202020302E303030302043202020302020302020302020302020302020302020302020302020302020302020302020300A20202020302E3631383720202020312E3432383920202020302E303030302043202020302020302020302020302020302020302020302020302020302020302020302020300A20202020312E3434333720202020302E3030303020202020302E303030302043202020302020302020302020302020302020302020302020302020302020302020302020300A20202020312E383536332020202D302E3731343520202020302E30303030204F202020302020302020302020302020302020302020302020302020302020302020302020300A2020312020322020312020302020202020200A2020322020332020312020302020202020200A2020322020342020322020302020202020200A2020342020352020312020302020202020200A2020352020362020312020302020202020200A2020352020372020322020302020202020200A2020372020382020312020302020202020200A2020382020392020312020302020202020200A2020312020382020322020302020202020200A2020312031302020312020302020202020200A2031302031312020322020302020202020200A4D2020454E44
Contributor: UOEH
InstType: EI
InstName: HP 5970
IoniMethod: _ENERGY 70 eV
IonPolarity: pos
Date: 2010-10-09 19:48:36+02:00
Num Peaks: 39
38 33 39 183 40 33 41 120 50 59 51 155 52 49 53 59 57 25 61 13 
62 30 63 96 64 27 65 104 66 25 73 22 74 28 75 26 76 17 77 196 
78 79 79 74 89 34 91 296 92 25 93 25 102 24 103 89 104 48 105 196 
106 25 115 89 116 25 117 99 119 715 120 104 147 999 148 722 149 67 
