Name: 2-METHYL-5-(P-TOLYL)PYRIDINE
MW: 183
Formula: C13H13N
Synonym: MassBank: JP005108
Synonym: 2-METHYL-5-(P-TOLYL)PYRIDINE
Structure: 322D4D455448594C2D352D28502D544F4C594C295059524944494E452E6D6F6C0A20204368656D447261773031323231303037313332440A2031342031352020302020302020302020302020302020302020302020303939392056323030300A20202020322E3036323520202020302E3030303020202020302E303030302043202020302020302020302020302020302020302020302020302020302020302020302020300A20202020312E363530302020202D302E3731343520202020302E303030302043202020302020302020302020302020302020302020302020302020302020302020302020300A20202020302E383235302020202D302E3731343520202020302E303030302043202020302020302020302020302020302020302020302020302020302020302020302020300A20202020302E3431323520202020302E3030303020202020302E303030302043202020302020302020302020302020302020302020302020302020302020302020302020300A20202020302E3832353020202020302E3731343520202020302E303030302043202020302020302020302020302020302020302020302020302020302020302020302020300A20202020312E3635303020202020302E3731343520202020302E30303030204E202020302020302020302020302020302020302020302020302020302020302020302020300A2020202D302E3431323520202020302E3030303020202020302E303030302043202020302020302020302020302020302020302020302020302020302020302020302020300A2020202D302E383235302020202D302E3731343520202020302E303030302043202020302020302020302020302020302020302020302020302020302020302020302020300A2020202D322E3036323520202020302E3030303020202020302E303030302043202020302020302020302020302020302020302020302020302020302020302020302020300A2020202D302E3832353020202020302E3731343520202020302E303030302043202020302020302020302020302020302020302020302020302020302020302020302020300A2020202D312E363530302020202D302E3731343520202020302E303030302043202020302020302020302020302020302020302020302020302020302020302020302020300A2020202D312E3635303020202020302E3731343520202020302E303030302043202020302020302020302020302020302020302020302020302020302020302020302020300A2020202D322E3838373520202020302E3030303020202020302E303030302043202020302020302020302020302020302020302020302020302020302020302020302020300A20202020322E3838373520202020302E3030303020202020302E303030302043202020302020302020302020302020302020302020302020302020302020302020302020300A2020312020322020312020302020202020200A2020322020332020322020302020202020200A2020332020342020312020302020202020200A2020342020352020322020302020202020200A2020352020362020312020302020202020200A2020312020362020322020302020202020200A2020372020382020312020302020202020200A2020372031302020322020302020202020200A2020382031312020322020302020202020200A2020392031312020312020302020202020200A2020392031322020322020302020202020200A2031302031322020312020302020202020200A2020392031332020312020302020202020200A2020342020372020312020302020202020200A2020312031342020312020302020202020200A4D2020454E44
Contributor: SASAKI S, TOYOHASHI UNIV. OF TECH.
InstType: EI
InstName: MX-1303
IoniMethod: _ENERGY 50 eV
IonPolarity: pos
Date: 2010-10-09 19:48:36+02:00
Num Peaks: 32
39 141 41 132 51 91 63 7 65 55 70 33 76 56 77 13 78 56 83.5 124 
84 24 84.5 1 89 51 91 123 115 143 127 8 128 86 139 34 140 31 141 13 
153 51 154 243 155 298 166 4 167 163 168 165 169 41 180 3 181 61 182 350 
183 999 184 147 
