Name: METHYL CAPRYLATE
CAS: 111-11-5
MW: 158
Formula: C9H18O2
Synonym: MassBank: JP006244
Synonym: METHYL CAPRYLATE
Synonym: METHYL OCTANOATE
Structure: 4F4354414E4F49432041434944204D455448594C2045535445522E6D6F6C0A20204368656D447261773038313231303033323332440A2031312031302020302020302020302020302020302020302020302020303939392056323030300A2020202D322E3134333420202020302E3230363220202020302E303030302043202020302020302020302020302020302020302020302020302020302020302020302020300A2020202D312E343238392020202D302E3230363220202020302E303030302043202020302020302020302020302020302020302020302020302020302020302020302020300A2020202D302E3731343520202020302E3230363220202020302E303030302043202020302020302020302020302020302020302020302020302020302020302020302020300A20202020302E303030302020202D302E3230363220202020302E303030302043202020302020302020302020302020302020302020302020302020302020302020302020300A20202020302E3731343520202020302E3230363220202020302E303030302043202020302020302020302020302020302020302020302020302020302020302020302020300A20202020312E343238392020202D302E3230363220202020302E303030302043202020302020302020302020302020302020302020302020302020302020302020302020300A20202020322E3134333420202020302E3230363320202020302E303030302043202020302020302020302020302020302020302020302020302020302020302020302020300A20202020322E383537392020202D302E3230363220202020302E303030302043202020302020302020302020302020302020302020302020302020302020302020302020300A2020202D322E3134333420202020312E3033313320202020302E30303030204F202020302020302020302020302020302020302020302020302020302020302020302020300A2020202D322E383537392020202D302E3230363220202020302E30303030204F202020302020302020302020302020302020302020302020302020302020302020302020300A2020202D322E383537392020202D312E3033313320202020302E303030302043202020302020302020302020302020302020302020302020302020302020302020302020300A2020312020322020312020302020202020200A2020322020332020312020302020202020200A2020332020342020312020302020202020200A2020342020352020312020302020202020200A2020352020362020312020302020202020200A2020362020372020312020302020202020200A2020372020382020312020302020202020200A2020312020392020322020302020202020200A2020312031302020312020302020202020200A2031302031312020312020302020202020200A4D2020454E44
Contributor: MASS SPECTROSCOPY SOC. OF JAPAN (MSSJ)
InstType: EI
InstName: HITACHI M-80
IoniMethod: _ENERGY 70 eV
IonPolarity: pos
Date: 2010-10-09 19:48:36+02:00
Num Peaks: 54
39 48 40 14 41 325 42 82 43 267 44 12 45 19 51 2 53 12 54 9 
55 183 56 38 57 171 58 8 59 120 60 5 61 3 65 1 67 12 68 5 
69 59 70 13 71 5 72 1 73 20 74 999 75 78 76 6 79 2 80 2 
81 4 82 6 83 22 84 31 85 5 87 351 88 37 89 3 97 12 98 14 
99 2 101 54 102 4 115 57 116 5 125 2 126 1 127 73 128 6 129 24 
130 2 143 2 158 10 159 4 
