Name: 2-ALLYL-2-METHYLCYCLOHEXANONE
MW: 152
Formula: C10H16O
Synonym: MassBank: JP002319
Synonym: 2-ALLYL-2-METHYLCYCLOHEXANONE
Structure: 322D414C4C594C2D322D4D455448594C4359434C4F484558414E4F4E452E6D6F6C0A20204368656D447261773132323130393232303532440A2031312031312020302020302020302020302020302020302020302020303939392056323030300A2020202D302E333633312020202D302E3539333920202020302E303030302043202020302020302020302020302020302020302020302020302020302020302020302020300A2020202D302E3336333120202020302E3233313120202020302E303030302043202020302020302020302020302020302020302020302020302020302020302020302020300A2020202D312E3037373620202020302E3634333620202020302E303030302043202020302020302020302020302020302020302020302020302020302020302020302020300A2020202D312E3739323120202020302E3233313120202020302E303030302043202020302020302020302020302020302020302020302020302020302020302020302020300A2020202D312E373932312020202D302E3539333920202020302E303030302043202020302020302020302020302020302020302020302020302020302020302020302020300A2020202D312E303737362020202D312E3030363420202020302E303030302043202020302020302020302020302020302020302020302020302020302020302020302020300A2020202D302E3038313020202020312E3030363420202020302E303030302043202020302020302020302020302020302020302020302020302020302020302020302020300A20202020302E3434393320202020302E3038373920202020302E303030302043202020302020302020302020302020302020302020302020302020302020302020302020300A20202020302E3937393620202020302E3731393920202020302E303030302043202020302020302020302020302020302020302020302020302020302020302020302020300A20202020312E3739323120202020302E3537363620202020302E303030302043202020302020302020302020302020302020302020302020302020302020302020302020300A20202020302E333531332020202D312E3030363420202020302E30303030204F202020302020302020302020302020302020302020302020302020302020302020302020300A2020312020322020312020302020202020200A2020322020332020312020302020202020200A2020332020342020312020302020202020200A2020342020352020312020302020202020200A2020352020362020312020302020202020200A2020312020362020312020302020202020200A2020322020372020312020302020202020200A2020382020392020312020302020202020200A2020392031302020322020302020202020200A2020322020382020312020302020202020200A2020312031312020322020302020202020200A4D2020454E44
Contributor: MASS SPECTROSCOPY SOC. OF JAPAN (MSSJ)
InstType: EI
InstName: JEOL JMS-D-3000
IoniMethod: _ENERGY 70 eV
IonPolarity: pos
Date: 2010-10-09 19:48:36+02:00
Num Peaks: 38
42 605 43 94 51 40 53 159 54 103 55 999 56 62 65 49 66 41 67 526 
68 193 69 161 70 43 71 36 77 60 79 167 80 92 81 304 82 184 83 438 
84 88 91 52 93 518 94 212 95 313 96 62 97 36 108 277 109 487 110 85 
111 48 119 58 123 191 124 43 134 48 137 248 152 292 153 34 
