Name: METHYLPROPARGYLHYDRAZONE ACETONE
MW: 124
Formula: C7H12N2
Synonym: MassBank: JP000864
Synonym: METHYLPROPARGYLHYDRAZONE ACETONE
Synonym: ACETONE METHYL(2-PROPYNYL)HYDRAZONE
Structure: 310A32320A4D455448594C50524F50415247594C48594452415A4F4E4520414345544F4E452E6D6F6C0A20204368656D447261773036323431303138313432440A2020392020382020302020302020302020302020302020302020302020303939392056323030300A20202020322E313433342020202D302E3631383820202020302E303030302043202020302020302020302020302020302020302020302020302020302020302020302020300A20202020312E343238392020202D302E3230363220202020302E303030302043202020302020302020302020302020302020302020302020302020302020302020302020300A20202020312E3432383920202020302E3631383820202020302E303030302043202020302020302020302020302020302020302020302020302020302020302020302020300A20202020302E373134352020202D302E3631383820202020302E30303030204E202020302020302020302020302020302020302020302020302020302020302020302020300A2020202D302E303030302020202D302E3230363220202020302E30303030204E202020302020302020302020302020302020302020302020302020302020302020302020300A2020202D302E373134352020202D302E3631383820202020302E303030302043202020302020302020302020302020302020302020302020302020302020302020302020300A2020202D312E343238392020202D302E3230363220202020302E303030302043202020302020302020302020302020302020302020302020302020302020302020302020300A2020202D322E3134333420202020302E3230363220202020302E303030302043202020302020302020302020302020302020302020302020302020302020302020302020300A2020202D302E3030303020202020302E3631383820202020302E303030302043202020302020302020302020302020302020302020302020302020302020302020302020300A2020312020322020312020302020202020200A2020322020332020312020302020202020200A2020342020352020312020302020202020200A2020362020372020312020302020202020200A2020372020382020332020302020202020200A2020352020362020312020302020202020200A2020352020392020312020302020202020200A2020322020342020322020302020202020200A4D2020454E44
Contributor: SASAKI S, TOYOHASHI UNIV. OF TECH.
InstType: EI
InstName: SHIMADZU LKB-2091
IoniMethod: _ENERGY 70 eV
IonPolarity: pos
Date: 2010-10-09 19:48:36+02:00
Num Peaks: 38
26 31 27 125 28 150 29 9 37 30 38 81 39 488 40 10 41 400 42 656 
43 188 44 38 45 25 51 12 52 34 53 6 54 49 55 38 56 988 57 5 
65 16 66 88 67 36 68 10 69 24 70 24 79 88 80 2 81 888 82 88 
85 999 86 6 94 12 99 8 109 94 123 10 124 838 125 78 
