Name: FURFURYL CROTONATE
MW: 166
Formula: C9H10O3
Synonym: MassBank: JP009099
Synonym: FURFURYL CROTONATE
Structure: 465552465552594C2043524F544F4E4154452E6D6F6C0A20204368656D447261773038313131303139333732440A2031322031322020302020302020302020302020302020302020302020303939392056323030300A2020202D302E3834313020202020302E3335373220202020302E303030302043202020302020302020302020302020302020302020302020302020302020302020302020300A2020202D312E323533352020202D302E3335373220202020302E303030302043202020302020302020302020302020302020302020302020302020302020302020302020300A2020202D322E303738352020202D302E3335373220202020302E303030302043202020302020302020302020302020302020302020302020302020302020302020302020300A2020202D322E343931302020202D312E3037313720202020302E303030302043202020302020302020302020302020302020302020302020302020302020302020302020300A2020202D312E3235333520202020312E3037313720202020302E30303030204F202020302020302020302020302020302020302020302020302020302020302020302020300A2020202D302E3031363020202020302E3335373220202020302E30303030204F202020302020302020302020302020302020302020302020302020302020302020302020300A20202020302E333936352020202D302E3335373220202020302E303030302043202020302020302020302020302020302020302020302020302020302020302020302020300A20202020312E323231352020202D302E3335373220202020302E303030302043202020302020302020302020302020302020302020302020302020302020302020302020300A20202020312E3730363420202020302E3331303220202020302E303030302043202020302020302020302020302020302020302020302020302020302020302020302020300A20202020322E3439313020202020302E3035353320202020302E303030302043202020302020302020302020302020302020302020302020302020302020302020302020300A20202020322E343931302020202D302E3736393720202020302E303030302043202020302020302020302020302020302020302020302020302020302020302020302020300A20202020312E373036342020202D312E3032343720202020302E30303030204F202020302020302020302020302020302020302020302020302020302020302020302020300A2020312020322020312020302020202020200A2020322020332020322020302020202020200A2020332020342020312020302020202020200A2020312020352020322020302020202020200A2020312020362020312020302020202020200A2020372020382020312020302020202020200A2020382020392020322020302020202020200A2020392031302020312020302020202020200A2031302031312020322020302020202020200A2031312031322020312020302020202020200A2020382031322020312020302020202020200A2020362020372020312020302020202020200A4D2020454E44
Contributor: SODA AROMATIC CO., LTD.
InstType: EI
InstName: HITACHI M-80B
IoniMethod: _ENERGY 70 eV
IonPolarity: pos
Date: 2010-10-09 19:48:36+02:00
Num Peaks: 47
15 18 29 85 37 64 38 103 39 476 41 310 42 52 43 24 44 28 45 20 
49 14 50 54 51 85 52 317 53 318 54 29 55 16 63 13 64 47 65 27 
66 15 67 12 68 43 69 852 70 39 71 11 79 17 80 95 81 999 82 51 
86 12 87 23 91 15 93 93 94 27 95 89 96 51 97 110 98 116 107 12 
120 29 121 126 122 11 148 25 151 19 166 178 167 22 
