Name: MassBank: JP005356
MW: 294
Formula: C19H34O2
Synonym: MassBank: JP005356
Synonym: (Z,Z)-9,15-OCTADECADIENOIC ACID METHYL ESTER
Structure: 285A2C5A292D392C31352D4F435441444543414449454E4F49432041434944204D455448594C2045535445522E6D6F6C0A20204368656D447261773130323230393232313232440A2032352032342020302020302020302020302020302020302020302020303939392056323030300A20202020312E363530302020202D312E3432383920202020302E303030302043202020302020302020302020302020302020302020302020302020302020302020302020300A20202020302E383235302020202D312E3432383920202020302E303030302043202020302020302020302020302020302020302020302020302020302020302020302020300A20202020302E343132352020202D302E3731343520202020302E303030302043202020302020302020302020302020302020302020302020302020302020302020302020300A20202020302E343132352020202D322E3134333420202020302E303030302048202020302020302020302020302020302020302020302020302020302020302020302020300A20202020322E303632352020202D322E3134333420202020302E303030302048202020302020302020302020302020302020302020302020302020302020302020302020300A20202020322E303632352020202D302E3731343520202020302E303030302043202020302020302020302020302020302020302020302020302020302020302020302020300A2020202D302E343132352020202D302E3731343520202020302E303030302043202020302020302020302020302020302020302020302020302020302020302020302020300A2020202D302E3832353020202020302E3030303020202020302E303030302043202020302020302020302020302020302020302020302020302020302020302020302020300A2020202D312E3635303020202020302E3030303020202020302E303030302043202020302020302020302020302020302020302020302020302020302020302020302020300A2020202D322E3036323520202020302E3731343520202020302E303030302043202020302020302020302020302020302020302020302020302020302020302020302020300A2020202D322E3838373520202020302E3731343520202020302E303030302043202020302020302020302020302020302020302020302020302020302020302020302020300A2020202D332E3330303020202020312E3432383920202020302E303030302043202020302020302020302020302020302020302020302020302020302020302020302020300A2020202D342E3132353020202020312E3432383920202020302E303030302043202020302020302020302020302020302020302020302020302020302020302020302020300A2020202D342E3533373520202020302E3731343520202020302E30303030204F202020302020302020302020302020302020302020302020302020302020302020302020300A2020202D342E3533373520202020322E3134333420202020302E30303030204F202020302020302020302020302020302020302020302020302020302020302020302020300A2020202D352E3336323520202020302E3731343520202020302E303030302043202020302020302020302020302020302020302020302020302020302020302020302020300A20202020322E383837352020202D302E3731343520202020302E303030302043202020302020302020302020302020302020302020302020302020302020302020302020300A20202020332E3330303020202020302E3030303020202020302E303030302043202020302020302020302020302020302020302020302020302020302020302020302020300A20202020342E3132353020202020302E3030303020202020302E303030302043202020302020302020302020302020302020302020302020302020302020302020302020300A20202020342E3533373520202020302E3731343520202020302E303030302043202020302020302020302020302020302020302020302020302020302020302020302020300A20202020342E3132353020202020312E3432383920202020302E303030302043202020302020302020302020302020302020302020302020302020302020302020302020300A20202020352E3336323520202020302E3731343520202020302E303030302048202020302020302020302020302020302020302020302020302020302020302020302020300A20202020342E3533373520202020322E3134333420202020302E303030302048202020302020302020302020302020302020302020302020302020302020302020302020300A20202020332E3330303020202020312E3432383920202020302E303030302043202020302020302020302020302020302020302020302020302020302020302020302020300A20202020322E3838373520202020322E3134333420202020302E303030302043202020302020302020302020302020302020302020302020302020302020302020302020300A2020312020322020322020302020202020200A2020322020332020312020302020202020200A2020322020342020312020302020202020200A2020312020352020312020302020202020200A2020312020362020312020302020202020200A2020332020372020312020302020202020200A2020382020372020312020302020202020200A2020392020382020312020302020202020200A2031302020392020312020302020202020200A2031312031302020312020302020202020200A2031322031312020312020302020202020200A2031332031322020312020302020202020200A2031332031342020312020302020202020200A2031332031352020322020302020202020200A2031342031362020312020302020202020200A2020362031372020312020302020202020200A2031372031382020312020302020202020200A2031382031392020312020302020202020200A2031392032302020312020302020202020200A2032302032312020322020302020202020200A2032302032322020312020302020202020200A2032312032332020312020302020202020200A2032312032342020312020302020202020200A2032342032352020312020302020202020200A4D2020454E44
Contributor: YAMAOKA R, KYOTO INSTITUTE OF TECHNOLOGY
InstType: EI
InstName: HITACHI M-80B
IoniMethod: _ENERGY 70 eV
IonPolarity: pos
Date: 2010-10-09 19:48:36+02:00
Num Peaks: 75
40 33 41 902 42 113 43 188 45 54 51 17 52 11 53 128 54 304 55 808 
56 59 57 60 59 212 60 10 65 42 66 69 67 999 68 333 69 471 70 35 
71 20 73 45 74 149 77 40 79 163 80 112 81 697 82 786 83 207 84 32 
87 102 91 23 93 65 94 60 95 454 96 382 97 91 98 34 101 26 105 12 
107 54 108 41 109 213 110 268 111 85 115 26 121 68 122 36 123 156 124 140 
125 50 127 19 129 26 135 47 136 39 137 82 138 40 139 21 149 24 150 44 
151 31 152 11 157 29 163 25 164 26 178 27 179 11 192 16 206 21 238 14 
251 18 252 12 263 48 294 47 295 21 
