Name: BETA-METHOXYETHOXYMETHYLCHLORIDE
MW: 124
Formula: C4H9ClO2
Synonym: MassBank: JP009723
Synonym: BETA-METHOXYETHOXYMETHYLCHLORIDE
Structure: 310A31380A424554412D4D4554484F58594554484F58594D455448594C43484C4F524944452E6D6F6C0A20204368656D447261773039303531303137333332440A2020372020362020302020302020302020302020302020302020302020303939392056323030300A20202020312E3432383920202020302E3230363320202020302E303030302043202020302020302020302020302020302020302020302020302020302020302020302020300A20202020302E373134352020202D302E3230363220202020302E30303030204F202020302020302020302020302020302020302020302020302020302020302020302020300A20202020302E3030303020202020302E3230363320202020302E303030302043202020302020302020302020302020302020302020302020302020302020302020302020300A2020202D302E373134352020202D302E3230363320202020302E303030302043202020302020302020302020302020302020302020302020302020302020302020302020300A2020202D312E3432383920202020302E3230363320202020302E30303030204F202020302020302020302020302020302020302020302020302020302020302020302020300A2020202D322E313433342020202D302E3230363220202020302E303030302043202020302020302020302020302020302020302020302020302020302020302020302020300A20202020322E313433342020202D302E3230363220202020302E3030303020436C2020302020302020302020302020302020302020302020302020302020302020302020300A2020332020342020312020302020202020200A2020322020332020312020302020202020200A2020352020362020312020302020202020200A2020342020352020312020302020202020200A2020312020322020312020302020202020200A2020312020372020312020302020202020200A4D2020454E44
Contributor: HASHIMOTO K, KYOTO COLLEGE OF PHARMACY
InstType: EI
InstName: HITACHI M-80
IoniMethod: _ENERGY 20 eV
IonPolarity: pos
Date: 2010-10-09 19:48:36+02:00
Num Peaks: 19
15 44 28 27 29 109 31 93 43 58 44 51 45 999 46 23 49 64 51 22 
58 192 59 286 60 132 79 31 81 10 88 80 89 88 93 7 95 2 
