Name: 1-METHYL-5-(3-PYRIDYL)-2-PYRROLIDINONE
MW: 176
Formula: C10H12N2O
Synonym: MassBank: JP003493
Synonym: 1-METHYL-5-(3-PYRIDYL)-2-PYRROLIDINONE
Structure: 312D4D455448594C2D352D28332D5059524944594C292D322D505952524F4C4944494E4F4E452E6D6F6C0A20204368656D447261773131323030393131343532440A2031332031342020302020302020302020302020302020302020302020303939392056323030300A2020202D302E353035312020202D302E3737323620202020302E30303030204E202020302020302020302020302020302020302020302020302020302020302020302020300A2020202D312E333132312020202D302E3934343220202020302E303030302043202020302020302020302020302020302020302020302020302020302020302020302020300A2020202D312E373234362020202D302E3232393720202020302E303030302043202020302020302020302020302020302020302020302020302020302020302020302020300A2020202D312E3137323520202020302E3338333420202020302E303030302043202020302020302020302020302020302020302020302020302020302020302020302020300A2020202D302E3431383920202020302E3034373820202020302E303030302043202020302020302020302020302020302020302020302020302020302020302020302020300A2020202D312E363437362020202D312E3639373820202020302E30303030204F202020302020302020302020302020302020302020302020302020302020302020302020300A20202020302E3239353620202020312E3238353320202020302E303030302043202020302020302020302020302020302020302020302020302020302020302020302020300A20202020302E3239353620202020302E3436303320202020302E303030302043202020302020302020302020302020302020302020302020302020302020302020302020300A20202020312E3031303120202020302E3034373820202020302E303030302043202020302020302020302020302020302020302020302020302020302020302020302020300A20202020312E3732343620202020302E3436303320202020302E303030302043202020302020302020302020302020302020302020302020302020302020302020302020300A20202020312E3732343620202020312E3238353320202020302E303030302043202020302020302020302020302020302020302020302020302020302020302020302020300A20202020312E3031303120202020312E3639373820202020302E30303030204E202020302020302020302020302020302020302020302020302020302020302020302020300A20202020302E313038302020202D312E3332343720202020302E303030302043202020302020302020302020302020302020302020302020302020302020302020302020300A2020312020322020312020302020202020200A2020322020332020312020302020202020200A2020332020342020312020302020202020200A2020342020352020312020302020202020200A2020312020352020312020302020202020200A2020322020362020322020302020202020200A2020372020382020312020302020202020200A2020382020392020322020302020202020200A2020392031302020312020302020202020200A2031302031312020322020302020202020200A2031312031322020312020302020202020200A2020372031322020322020302020202020200A2020352020382020312020302020202020200A2020312031332020312020302020202020200A4D2020454E44
Contributor: MASS SPECTROSCOPY SOC. OF JAPAN (MSSJ)
InstType: EI
InstName: HITACHI M-60
IoniMethod: _ENERGY 20 eV
IonPolarity: pos
Date: 2010-10-09 19:48:36+02:00
Num Peaks: 45
41 51 42 29 43 3 44 4 55 8 56 8 58 2 68 13 69 48 70 20 
71 4 78 5 79 31 80 31 81 2 91 13 92 12 93 6 97 9 98 999 
99 74 104 7 105 18 106 20 116 2 117 11 118 79 119 81 120 22 121 66 
122 7 123 3 132 1 133 4 134 1 145 2 146 6 147 56 148 12 149 2 
161 5 175 81 176 307 177 38 178 2 
