Name: EPSILON-MUUROLENE
MW: 204
Formula: C15H24
Synonym: MassBank: JP002851
Synonym: EPSILON-MUUROLENE
Structure: 303532335F455053494C4F4E2D4D5555524F4C454E452E6D6F6C0A20204368656D447261773039303631303138323832440A2031382031392020302020302020302020302020302020302020302020303939392056323030300A2020202D312E303336302020202D312E3035323620202020302E303030302043202020302020302020302020302020302020302020302020302020302020302020302020300A2020202D302E363332312020202D312E3737323020202020302E303030302043202020302020302020302020302020302020302020302020302020302020302020302020300A20202020302E313932382020202D312E3737323020202020302E303030302043202020302020302020302020302020302020302020302020302020302020302020302020300A20202020302E363133392020202D312E3035323620202020302E303030302043202020302020302020302020302020302020302020302020302020302020302020302020300A20202020302E313932382020202D302E3333333320202020302E303030302043202020302020302020302020302020302020302020302020302020302020302020302020300A2020202D302E363332312020202D302E3333333320202020302E303030302043202020302020302020302020302020302020302020302020302020302020302020302020300A20202020312E343437342020202D312E3035323620202020302E303030302043202020302020302020302020302020302020302020302020302020302020302020302020300A20202020312E383539392020202D302E3333333320202020302E303030302043202020302020302020302020302020302020302020302020302020302020302020302020300A20202020312E3434373420202020302E3338363120202020302E303030302043202020302020302020302020302020302020302020302020302020302020302020302020300A20202020302E3631333920202020302E3338363120202020302E303030302043202020302020302020302020302020302020302020302020302020302020302020302020300A2020202D312E383631302020202D312E3035323620202020302E303030302043202020302020302020302020302020302020302020302020302020302020302020302020300A20202020312E383631302020202D312E3736363520202020302E303030302043202020302020302020302020302020302020302020302020302020302020302020302020300A20202020302E393535342020202D312E3830333720202020302E303030302048202020302020302020302020302020302020302020302020302020302020302020302020300A2020202D302E3235353920202020302E3335393020202020302E303030302048202020302020302020302020302020302020302020302020302020302020302020302020300A20202020302E3933333020202020312E3134363920202020302E303030302043202020302020302020302020302020302020302020302020302020302020302020302020300A2020202D302E3132343120202020302E3735343820202020302E303030302048202020302020302020302020302020302020302020302020302020302020302020302020300A20202020302E3433333620202020312E3830333720202020302E303030302043202020302020302020302020302020302020302020302020302020302020302020302020300A20202020312E3735313420202020312E3235313020202020302E303030302043202020302020302020302020302020302020302020302020302020302020302020302020300A2020312020322020312020302020202020200A2020322020332020312020302020202020200A2020332020342020312020302020202020200A2020342020352020312020302020202020200A2020352020362020312020302020202020200A2020362020312020312020302020202020200A2020342020372020312020302020202020200A2020372020382020312020302020202020200A2020382020392020312020302020202020200A2020392031302020312020302020202020200A2031302020352020312020302020202020200A2020312031312020322020302020202020200A2020372031322020322020302020202020200A2020342031332020312020362020202020200A2020352031342020312020362020202020200A2031302031352020312020362020202020200A2031302031362020312020312020202020200A2031352031372020312020302020202020200A2031352031382020312020302020202020200A4D2020454E44
Contributor: SASAKI S, TOYOHASHI UNIV. OF TECH.
InstType: EI
InstName: Unknown
IoniMethod: EI
IonPolarity: pos
Date: 2010-10-09 19:48:36+02:00
Num Peaks: 97
15 8 17 13 18 62 26 1 27 262 28 47 29 207 31 1 39 296 40 68 
41 900 42 5 43 340 44 12 50 10 51 6 52 38 53 251 54 36 55 41 
56 30 57 80 59 10 63 0 64 11 65 153 66 52 67 53 68 45 69 350 
70 23 71 3 75 15 77 438 78 117 79 69 80 263 81 999 82 113 83 6 
89 13 90 8 91 810 92 2 93 768 94 163 95 220 96 2 97 12 102 8 
103 43 104 1 105 722 106 185 107 296 108 5 109 65 110 10 115 46 116 0 
117 80 118 28 119 482 120 2 121 120 122 45 123 107 124 2 127 11 128 18 
129 17 130 1 131 43 132 21 133 328 134 9 135 328 136 110 137 273 138 3 
145 25 146 8 147 88 148 25 149 61 150 20 159 12 160 6 161 140 162 340 
163 26 175 3 176 47 189 75 190 10 204 46 205 70 
