Name: MassBank: JP009441
MW: 190
Formula: C11H10OS
Synonym: MassBank: JP009441
Synonym: 2,3-DIMETHYLCHROMOTHIONE
Structure: 322C332D44494D455448594C4348524F4D4F5448494F4E452E6D6F6C0A20204368656D447261773132323030393131353932440A2031332031342020302020302020302020302020302020302020302020303939392056323030300A2020202D312E3738363220202020302E3832353020202020302E303030302043202020302020302020302020302020302020302020302020302020302020302020302020300A2020202D312E3738363220202020302E3030303020202020302E303030302043202020302020302020302020302020302020302020302020302020302020302020302020300A2020202D312E303731372020202D302E3431323520202020302E303030302043202020302020302020302020302020302020302020302020302020302020302020302020300A2020202D302E3335373220202020302E3030303020202020302E303030302043202020302020302020302020302020302020302020302020302020302020302020302020300A2020202D302E3335373220202020302E3832353020202020302E303030302043202020302020302020302020302020302020302020302020302020302020302020302020300A2020202D312E3037313720202020312E3233373520202020302E303030302043202020302020302020302020302020302020302020302020302020302020302020302020300A20202020302E333537322020202D302E3431323520202020302E303030302043202020302020302020302020302020302020302020302020302020302020302020302020300A20202020312E3037313720202020302E3030303020202020302E303030302043202020302020302020302020302020302020302020302020302020302020302020302020300A20202020312E3037313720202020302E3832353020202020302E303030302043202020302020302020302020302020302020302020302020302020302020302020302020300A20202020302E3335373220202020312E3233373520202020302E303030302053202020302020302020302020302020302020302020302020302020302020302020302020300A20202020312E3738363220202020312E3233373520202020302E303030302043202020302020302020302020302020302020302020302020302020302020302020302020300A20202020312E373836322020202D302E3431323520202020302E303030302043202020302020302020302020302020302020302020302020302020302020302020302020300A20202020302E333537322020202D312E3233373520202020302E30303030204F202020302020302020302020302020302020302020302020302020302020302020302020300A2020312020322020322020302020202020200A2020322020332020312020302020202020200A2020332020342020322020302020202020200A2020342020352020312020302020202020200A2020352020362020322020302020202020200A2020362020312020312020302020202020200A2020342020372020312020302020202020200A2020372020382020312020302020202020200A2020382020392020322020302020202020200A2020392031302020312020302020202020200A2031302020352020312020302020202020200A2020392031312020312020302020202020200A2020382031322020312020302020202020200A2020372031332020322020302020202020200A4D2020454E44
Contributor: EGUCHI S, FAC. OF SCIENCE, HIROSHIMA UNIV.
InstType: EI
InstName: HITACHI RMU-7L
IoniMethod: _ENERGY 70 eV
IonPolarity: pos
Date: 2010-10-09 19:48:36+02:00
Num Peaks: 115
40 10 41 20 42 10 43 110 44 10 45 40 46 10 47 15 49 10 50 20 
51 40 52 10 53 30 54 10 55 10 56 10 57 10 58 10 59 15 60 10 
61 10 62 15 63 45 64 15 65 30 66 10 67 15 68 10 71 15 72 10 
73 15 74 20 75 25 76 45 77 50 78 15 79 10 81 10 82 15 83 11 
84 10 85 10 86 10 87 20 88 10 89 20 91 25 92 10 93 10 94 10 
95 45 96 10 97 60 98 10 99 10 101 10 102 20 103 25 104 10 105 15 
106 15 107 10 108 35 109 10 111 10 112 10 113 10 114 15 115 35 116 10 
117 15 118 10 119 10 121 10 122 25 123 10 124 10 125 10 126 15 127 35 
128 55 129 45 130 15 131 65 132 20 133 10 134 10 135 10 139 15 140 10 
141 10 142 15 143 10 144 35 145 60 146 20 147 50 148 50 149 10 155 10 
156 15 157 380 158 40 159 10 173 10 174 10 175 70 176 15 177 10 188 10 
189 245 190 999 191 155 192 75 193 15 
