Name: MassBank: JP000956
CAS: 79-34-5
MW: 165
Formula: C2H2Cl4
Synonym: MassBank: JP000956
Synonym: 1,1,2,2,-TETRACHLOROETHANE
Structure: 310A31360A312C312C322C322C2D544554524143484C4F524F455448414E452E6D6F6C0A20204368656D447261773130323330393030353832440A2020362020352020302020302020302020302020302020302020302020303939392056323030300A20202020302E3431323520202020302E3030303020202020302E303030302043202020302020302020302020302020302020302020302020302020302020302020302020300A2020202D302E3431323520202020302E3030303020202020302E303030302043202020302020302020302020302020302020302020302020302020302020302020302020300A2020202D302E383235302020202D302E3731343520202020302E3030303020436C2020302020302020302020302020302020302020302020302020302020302020302020300A2020202D302E3832353020202020302E3731343520202020302E3030303020436C2020302020302020302020302020302020302020302020302020302020302020302020300A20202020302E3832353020202020302E3731343520202020302E3030303020436C2020302020302020302020302020302020302020302020302020302020302020302020300A20202020302E383235302020202D302E3731343520202020302E3030303020436C2020302020302020302020302020302020302020302020302020302020302020302020300A2020312020322020312020302020202020200A2020322020332020312020302020202020200A2020322020342020312020302020202020200A2020312020352020312020302020202020200A2020312020362020312020302020202020200A4D2020454E44
Contributor: KOGA M, UNIV. OF OCCUPATIONAL AND ENVIRONMENTAL HEALTH
InstType: EI
InstName: JEOL JMS-01-SG
IoniMethod: _ENERGY 70 eV
IonPolarity: pos
Date: 2010-10-09 19:48:36+02:00
Num Peaks: 26
35 84 36 26 37 28 45 2 47 54 48 41 49 25 60 14 61 119 62 46 
63 38 83 999 85 663 87 98 95 156 96 11 97 108 98 60 130 26 131 9 
132 29 133 84 135 26 166 8 168 99 170 41 
