Name: MassBank: JP009988
MW: 98
Formula: C6H10O
Synonym: MassBank: JP009988
Synonym: 3-METHYL-2,4-PENTADIEN-1-OL
Structure: 310A31380A332D4D455448594C2D322C342D50454E54414449454E2D312D4F4C2E6D6F6C0A20204368656D447261773033313931303232343532440A2020372020362020302020302020302020302020302020302020302020303939392056323030300A2020202D312E3033313320202020302E3731343520202020302E303030302043202020302020302020302020302020302020302020302020302020302020302020302020300A2020202D302E3230363220202020302E3731343520202020302E303030302043202020302020302020302020302020302020302020302020302020302020302020302020300A20202020302E323036332020202D302E3030303020202020302E303030302043202020302020302020302020302020302020302020302020302020302020302020302020300A20202020312E303331332020202D302E3030303020202020302E303030302043202020302020302020302020302020302020302020302020302020302020302020302020300A20202020312E3434333820202020302E3731343520202020302E303030302043202020302020302020302020302020302020302020302020302020302020302020302020300A2020202D312E343433382020202D302E3030303020202020302E30303030204F202020302020302020302020302020302020302020302020302020302020302020302020300A2020202D302E323036322020202D302E3731343520202020302E303030302043202020302020302020302020302020302020302020302020302020302020302020302020300A2020312020322020312020302020202020200A2020322020332020322020302020202020200A2020332020342020312020302020202020200A2020342020352020322020302020202020200A2020312020362020312020302020202020200A2020332020372020312020302020202020200A4D2020454E44
Contributor: KURARAY CO., LTD.
InstType: EI
InstName: JEOL JMS-D-300
IoniMethod: _ENERGY 70 eV
IonPolarity: pos
Date: 2010-10-09 19:48:36+02:00
Num Peaks: 44
26 30 27 291 28 456 29 22 31 92 32 74 37 18 38 4 39 482 40 31 
41 999 42 14 43 452 44 35 45 35 49 1 50 70 51 118 52 65 53 30 
54 72 55 618 56 156 57 8 62 16 63 25 65 87 66 3 67 74 68 23 
69 902 70 27 71 57 77 103 78 13 79 20 80 104 81 76 82 14 83 60 
84 39 97 94 98 210 99 16 
