Name: CYCLOHEXANEPROPIONIC ACID TRIMETHYLSILYL ESTER
MW: 228
Formula: C12H24O2Si
Synonym: MassBank: JP001902
Synonym: CYCLOHEXANEPROPIONIC ACID TRIMETHYLSILYL ESTER
Structure: 4359434C4F484558414E4550524F50494F4E49432041434944205452494D455448594C53494C594C2045535445522E6D6F6C0A20204368656D447261773039313531303035343132440A2031352031352020302020302020302020302020302020302020302020303939392056323030300A20202020312E323337352020202D302E3330323020202020302E303030302043202020302020302020302020302020302020302020302020302020302020302020302020300A20202020312E3635303020202020302E3431323520202020302E303030302043202020302020302020302020302020302020302020302020302020302020302020302020300A20202020322E3437353020202020302E3431323520202020302E303030302043202020302020302020302020302020302020302020302020302020302020302020302020300A20202020322E383837352020202D302E3330323020202020302E303030302043202020302020302020302020302020302020302020302020302020302020302020302020300A20202020322E343735302020202D312E3031363420202020302E303030302043202020302020302020302020302020302020302020302020302020302020302020302020300A20202020312E363530302020202D312E3031363420202020302E303030302043202020302020302020302020302020302020302020302020302020302020302020302020300A2020202D302E3832353020202020302E3431323520202020302E303030302043202020302020302020302020302020302020302020302020302020302020302020302020300A2020202D302E3030303020202020302E3431323520202020302E303030302043202020302020302020302020302020302020302020302020302020302020302020302020300A20202020302E343132352020202D302E3330323020202020302E303030302043202020302020302020302020302020302020302020302020302020302020302020302020300A2020202D312E3233373520202020312E3132373020202020302E30303030204F202020302020302020302020302020302020302020302020302020302020302020302020300A2020202D312E323337352020202D302E3330323020202020302E30303030204F202020302020302020302020302020302020302020302020302020302020302020302020300A2020202D322E303632352020202D302E3330323020202020302E303030302053692020302020302020302020302020302020302020302020302020302020302020302020300A2020202D322E303632352020202D312E3132373020202020302E303030302043202020302020302020302020302020302020302020302020302020302020302020302020300A2020202D322E383837352020202D302E3330323020202020302E303030302043202020302020302020302020302020302020302020302020302020302020302020302020300A2020202D322E3036323520202020302E3532333020202020302E303030302043202020302020302020302020302020302020302020302020302020302020302020302020300A2020312020322020312020302020202020200A2020322020332020312020302020202020200A2020332020342020312020302020202020200A2020342020352020312020302020202020200A2020352020362020312020302020202020200A2020312020362020312020302020202020200A2020372020382020312020302020202020200A2020382020392020312020302020202020200A2020372031302020322020302020202020200A2020372031312020312020302020202020200A2020312020392020312020302020202020200A2031322031332020312020302020202020200A2031322031342020312020302020202020200A2031322031352020312020302020202020200A2031312031322020312020302020202020200A4D2020454E44
Contributor: KOGA M, UNIV. OF OCCUPATIONAL AND ENVIRONMENTAL HEALTH
InstType: EI
InstName: JEOL JMS-01-SG
IoniMethod: _ENERGY 70 eV
IonPolarity: pos
Date: 2010-10-09 19:48:36+02:00
Num Peaks: 25
43 149 45 392 47 71 55 32 56 65 61 87 67 141 72 6 73 939 74 121 
75 999 76 7 77 114 79 110 81 59 93 9 95 105 117 518 121 86 129 27 
131 216 132 148 145 301 213 28 214 54 
