Name: DI-N-PROPYLHYDRAZONE FORMALDEHYDE
MW: 128
Formula: C7H16N2
Synonym: MassBank: JP000833
Synonym: DI-N-PROPYLHYDRAZONE FORMALDEHYDE
Synonym: FORMALDEHYDE DIPROPYLHYDRAZONE
Structure: 310A32320A303137315F44492D4E2D50524F50594C48594452415A4F4E4520464F524D414C4445485944452E6D6F6C0A20204368656D447261773039303331303138333332440A2020392020382020302020302020302020302020302020302020302020303939392056323030300A2020202D312E343433372020202D302E3731343420202020302E303030302043202020302020302020302020302020302020302020302020302020302020302020302020300A2020202D302E363138372020202D302E3731343420202020302E30303030204E202020302020302020302020302020302020302020302020302020302020302020302020300A2020202D302E323036322020202D302E3030303120202020302E30303030204E202020302020302020302020302020302020302020302020302020302020302020302020300A2020202D302E3631383720202020302E3731343420202020302E303030302043202020302020302020302020302020302020302020302020302020302020302020302020300A2020202D312E3434333720202020302E3731343420202020302E303030302043202020302020302020302020302020302020302020302020302020302020302020302020300A2020202D312E383536332020202D302E3030303120202020302E303030302043202020302020302020302020302020302020302020302020302020302020302020302020300A20202020302E363138382020202D302E3030303120202020302E303030302043202020302020302020302020302020302020302020302020302020302020302020302020300A20202020312E303331332020202D302E3731343420202020302E303030302043202020302020302020302020302020302020302020302020302020302020302020302020300A20202020312E383536332020202D302E3731343420202020302E303030302043202020302020302020302020302020302020302020302020302020302020302020302020300A2020322020332020312020302020202020200A2020342020352020312020302020202020200A2020352020362020312020302020202020200A2020332020342020312020302020202020200A2020372020382020312020302020202020200A2020382020392020312020302020202020200A2020332020372020312020302020202020200A2020312020322020322020302020202020200A4D2020454E44
Contributor: SASAKI S, TOYOHASHI UNIV. OF TECH.
InstType: EI
InstName: SHIMADZU LKB-2091
IoniMethod: _ENERGY 70 eV
IonPolarity: pos
Date: 2010-10-09 19:48:36+02:00
Num Peaks: 23
28 107 29 69 30 25 31 7 39 40 40 6 41 134 42 10 43 280 44 15 
54 7 55 1 56 33 57 800 58 36 70 4 71 37 85 12 86 24 99 999 
100 65 128 253 129 28 
