Name: N-TRIMETHYLSILYLPHENYLACETYLGLYCINE TRIMETHYLSILYL ESTER
MW: 337
Formula: C16H27NO3Si2
Synonym: MassBank: JP007503
Synonym: N-TRIMETHYLSILYLPHENYLACETYLGLYCINE TRIMETHYLSILYL ESTER
Structure: 303431345F4E2D5452494D455448594C53494C594C5048454E594C41434554594C474C5943494E45205452494D455448594C53494C594C2045535445522E6D6F6C0A20204368656D447261773130313931303230333232440A2032322032322020302020302020302020302020302020302020302020303939392056323030300A20202020312E343433382020202D302E3731343120202020302E303030302043202020302020302020302020302020302020302020302020302020302020302020302020300A20202020302E323036332020202D302E3030303420202020302E30303030204E202020302020302020302020302020302020302020302020302020302020302020302020300A20202020302E363138382020202D302E3731343120202020302E303030302043202020302020302020302020302020302020302020302020302020302020302020302020300A20202020312E383537312020202D312E3432393320202020302E30303030204F202020302020302020302020302020302020302020302020302020302020302020302020300A20202020312E3835373120202020302E3030303320202020302E30303030204F202020302020302020302020302020302020302020302020302020302020302020302020300A2020202D302E3631383720202020302E3030303420202020302E303030302043202020302020302020302020302020302020302020302020302020302020302020302020300A2020202D312E303239392020202D302E3731353220202020302E30303030204F202020302020302020302020302020302020302020302020302020302020302020302020300A2020202D312E3033313320202020302E3731343820202020302E303030302043202020302020302020302020302020302020302020302020302020302020302020302020300A2020202D312E3835363220202020302E3731343820202020302E303030302043202020302020302020302020302020302020302020302020302020302020302020302020300A2020202D322E3236383820202020302E3030303420202020302E303030302043202020302020302020302020302020302020302020302020302020302020302020302020300A2020202D332E3039333720202020302E3030303420202020302E303030302043202020302020302020302020302020302020302020302020302020302020302020302020300A2020202D332E3530363320202020302E3731343820202020302E303030302043202020302020302020302020302020302020302020302020302020302020302020302020300A2020202D332E3039333820202020312E3432393320202020302E303030302043202020302020302020302020302020302020302020302020302020302020302020302020300A2020202D322E3236383720202020312E3432393320202020302E303030302043202020302020302020302020302020302020302020302020302020302020302020302020300A20202020322E3638323120202020302E3030303320202020302E303030302053692020302020302020302020302020302020302020302020302020302020302020302020300A20202020322E3638313320202020302E3832353420202020302E303030302043202020302020302020302020302020302020302020302020302020302020302020302020300A20202020332E3530363320202020302E3030303420202020302E303030302043202020302020302020302020302020302020302020302020302020302020302020302020300A20202020322E363831332020202D302E3832343620202020302E303030302043202020302020302020302020302020302020302020302020302020302020302020302020300A20202020302E3631383820202020302E3731343120202020302E303030302053692020302020302020302020302020302020302020302020302020302020302020302020300A2020202D302E3039353620202020312E3132363620202020302E303030302043202020302020302020302020302020302020302020302020302020302020302020302020300A20202020312E3033313320202020312E3432383520202020302E303030302043202020302020302020302020302020302020302020302020302020302020302020302020300A20202020312E3333333320202020302E3330313620202020302E303030302043202020302020302020302020302020302020302020302020302020302020302020302020300A2020322020332020312020302020202020200A2020312020332020312020302020202020200A2020312020342020322020302020202020200A2020312020352020312020302020202020200A2020362020372020322020302020202020200A2020362020382020312020302020202020200A2020392031302020312020302020202020200A2031302031312020322020302020202020200A2031312031322020312020302020202020200A2031322031332020322020302020202020200A2031332031342020312020302020202020200A2020392031342020322020302020202020200A2020382020392020312020302020202020200A2020322020362020312020302020202020200A2031352031362020312020302020202020200A2031352031372020312020302020202020200A2031352031382020312020302020202020200A2020352031352020312020302020202020200A2020322031392020312020302020202020200A2031392032302020312020302020202020200A2031392032312020312020302020202020200A2031392032322020312020302020202020200A4D2020454E44
Contributor: KOGA M, UNIV. OF OCCUPATIONAL AND ENVIRONMENTAL HEALTH
InstType: EI
InstName: JEOL JMS-01-SG
IoniMethod: _ENERGY 70 eV
IonPolarity: pos
Date: 2010-10-09 19:48:36+02:00
Num Peaks: 46
43 38 44 45 45 148 47 5 56 12 59 38 65 51 72 2 73 999 74 96 
75 161 76 1 77 19 86 32 91 306 92 5 100 19 102 270 103 19 104 2 
105 12 116 19 117 19 118 3 130 19 131 25 133 19 147 12 148 19 149 12 
174 32 176 10 177 12 218 180 219 38 220 15 221 25 246 193 247 51 248 2 
294 32 322 51 323 12 336 2 337 103 338 25 
