Name: MassBank: JP009948
MW: 290
Formula: C20H34O
Synonym: MassBank: JP009948
Synonym: 3,7,11,15-TETRAMETHYL-2E,6E,10E,14E-2,6,10,14-HEXADECATETRAEN-1-OL
Synonym: GERANYL GERANIOL
Structure: 332C372C31312C31352D54455452414D455448594C2D32452C36452C3130452C3134452D322C362C31302C31342D48455841444543415445545241454E2D312D4F4C2E6D6F6C0A20204368656D447261773032323231303032343232440A2032312032302020302020302020302020302020302020302020302020303939392056323030300A2020202D332E3530363320202020312E3738363220202020302E303030302043202020302020302020302020302020302020302020302020302020302020302020302020300A2020202D332E3039333820202020312E3037313720202020302E303030302043202020302020302020302020302020302020302020302020302020302020302020302020300A2020202D322E3236383820202020312E3037313720202020302E303030302043202020302020302020302020302020302020302020302020302020302020302020302020300A2020202D312E3835363320202020302E3335373220202020302E303030302043202020302020302020302020302020302020302020302020302020302020302020302020300A2020202D322E323638372020202D302E3335373220202020302E303030302043202020302020302020302020302020302020302020302020302020302020302020302020300A2020202D312E383536332020202D312E3037313720202020302E303030302043202020302020302020302020302020302020302020302020302020302020302020302020300A2020202D312E303331332020202D312E3037313720202020302E303030302043202020302020302020302020302020302020302020302020302020302020302020302020300A2020202D302E363138382020202D312E3738363220202020302E303030302043202020302020302020302020302020302020302020302020302020302020302020302020300A20202020302E323036322020202D312E3738363220202020302E303030302043202020302020302020302020302020302020302020302020302020302020302020302020300A20202020302E363138382020202D312E3037313720202020302E303030302043202020302020302020302020302020302020302020302020302020302020302020302020300A20202020312E343433382020202D312E3037313720202020302E303030302043202020302020302020302020302020302020302020302020302020302020302020302020300A20202020312E383536332020202D302E3335373220202020302E303030302043202020302020302020302020302020302020302020302020302020302020302020302020300A20202020322E363831322020202D302E3335373220202020302E303030302043202020302020302020302020302020302020302020302020302020302020302020302020300A20202020332E3039333820202020302E3335373220202020302E303030302043202020302020302020302020302020302020302020302020302020302020302020302020300A20202020332E3931383820202020302E3335373220202020302E303030302043202020302020302020302020302020302020302020302020302020302020302020302020300A20202020342E3333313220202020312E3037313720202020302E303030302043202020302020302020302020302020302020302020302020302020302020302020302020300A2020202D342E3333313320202020312E3738363220202020302E30303030204F202020302020302020302020302020302020302020302020302020302020302020302020300A20202020342E333331332020202D302E3335373220202020302E303030302043202020302020302020302020302020302020302020302020302020302020302020302020300A20202020312E383536332020202D312E3738363220202020302E303030302043202020302020302020302020302020302020302020302020302020302020302020302020300A2020202D302E363138372020202D302E3335373220202020302E303030302043202020302020302020302020302020302020302020302020302020302020302020302020300A2020202D312E3835363320202020312E3738363220202020302E303030302043202020302020302020302020302020302020302020302020302020302020302020302020300A2020312020322020312020302020202020200A2020322020332020322020302020202020200A2020332020342020312020302020202020200A2020342020352020312020302020202020200A2020352020362020312020302020202020200A2020362020372020322020302020202020200A2020372020382020312020302020202020200A2020382020392020312020302020202020200A2020392031302020312020302020202020200A2031302031312020322020302020202020200A2031312031322020312020302020202020200A2031322031332020312020302020202020200A2031332031342020312020302020202020200A2031342031352020322020302020202020200A2031352031362020312020302020202020200A2020312031372020312020302020202020200A2031352031382020312020302020202020200A2031312031392020312020302020202020200A2020372032302020312020302020202020200A2020332032312020312020302020202020200A4D2020454E44
Contributor: KURARAY CO., LTD.
InstType: EI
InstName: JEOL JMS-D-300
IoniMethod: _ENERGY 70 eV
IonPolarity: pos
Date: 2010-10-09 19:48:36+02:00
Num Peaks: 62
27 45 29 70 39 70 40 1 41 578 42 23 43 106 53 11 55 234 57 39 
65 31 67 19 68 117 69 999 70 83 71 2 77 94 78 13 79 173 80 5 
81 516 82 58 83 31 84 5 91 130 92 44 93 453 94 6 95 184 96 16 
97 23 105 12 106 23 107 195 108 31 109 11 119 153 120 109 121 109 122 3 
123 70 131 16 132 47 133 13 134 63 135 125 136 53 137 6 145 19 146 16 
147 55 148 2 149 19 159 31 161 59 162 2 187 26 189 22 191 21 203 3 
204 15 272 33 
