Name: 4-TERT-AMYLCYCLOHEXANONE
MW: 168
Formula: C11H20O
Synonym: MassBank: JP008620
Synonym: 4-TERT-AMYLCYCLOHEXANONE
Synonym: 4-(1,1-DIMETHYLPROPYL)CYCLOHEXANONE
Structure: 342D544552542D414D594C4359434C4F484558414E4F4E452E6D6F6C0A20204368656D447261773034323231303231313632440A2031322031322020302020302020302020302020302020302020302020303939392056323030300A2020202D312E323337352020202D302E3230363320202020302E303030302043202020302020302020302020302020302020302020302020302020302020302020302020300A2020202D302E3832353020202020302E3530383220202020302E303030302043202020302020302020302020302020302020302020302020302020302020302020302020300A20202020302E3030303020202020302E3530383220202020302E303030302043202020302020302020302020302020302020302020302020302020302020302020302020300A20202020302E343132352020202D302E3230363320202020302E303030302043202020302020302020302020302020302020302020302020302020302020302020302020300A20202020302E303030302020202D302E3932303720202020302E303030302043202020302020302020302020302020302020302020302020302020302020302020302020300A2020202D302E383235302020202D302E3932303720202020302E303030302043202020302020302020302020302020302020302020302020302020302020302020302020300A20202020312E323337352020202D302E3230363320202020302E303030302043202020302020302020302020302020302020302020302020302020302020302020302020300A20202020312E3233373520202020302E3631383720202020302E303030302043202020302020302020302020302020302020302020302020302020302020302020302020300A20202020312E3935323020202020312E3033313320202020302E303030302043202020302020302020302020302020302020302020302020302020302020302020302020300A20202020312E323337352020202D312E3033313320202020302E303030302043202020302020302020302020302020302020302020302020302020302020302020302020300A20202020322E303632352020202D302E3230363320202020302E303030302043202020302020302020302020302020302020302020302020302020302020302020302020300A2020202D322E303632352020202D302E3230363320202020302E30303030204F202020302020302020302020302020302020302020302020302020302020302020302020300A2020312020322020312020302020202020200A2020322020332020312020302020202020200A2020332020342020312020302020202020200A2020342020352020312020302020202020200A2020352020362020312020302020202020200A2020312020362020312020302020202020200A2020372020382020312020302020202020200A2020382020392020312020302020202020200A2020372031312020312020302020202020200A2020372031302020312020302020202020200A2020342020372020312020302020202020200A2020312031322020322020302020202020200A4D2020454E44
Contributor: SODA AROMATIC CO., LTD.
InstType: EI
InstName: HITACHI M-80B
IoniMethod: _ENERGY 70 eV
IonPolarity: pos
Date: 2010-10-09 19:48:36+02:00
Num Peaks: 45
15 15 26 15 27 250 29 262 39 239 40 26 41 589 42 85 43 969 44 19 
51 19 52 12 53 89 54 41 55 517 56 54 57 64 65 21 66 11 67 92 
68 47 69 257 70 164 71 999 72 50 77 17 79 50 80 12 81 43 82 16 
83 301 84 18 93 30 95 39 96 21 97 162 98 936 99 78 111 13 121 23 
135 15 138 46 153 18 168 89 169 12 
