Name: MassBank: JP005058
MW: 244
Formula: C16H24N2
Synonym: MassBank: JP005058
Synonym: 1,1,3,3,5-PENTAMETHYL-1,2,3,4,4A,9B-HEXAHYDRO-GAMMA-CARBOLINE
Structure: 312C312C332C332C352D50454E54414D455448594C2D312C322C332C342C34412C39422D48455841485944524F2D47414D4D412D434152424F4C494E452E6D6F6C0A20204368656D447261773130323330393031343732440A2031382032302020302020302020302020302020302020302020302020303939392056323030300A2020202D312E3532383820202020302E3332373620202020302E30303030204E202020302020302020302020302020302020302020302020302020302020302020302020300A2020202D312E353238382020202D302E3439373420202020302E303030302043202020302020302020302020302020302020302020302020302020302020302020302020300A2020202D302E383134332020202D302E3930393920202020302E303030302043202020302020302020302020302020302020302020302020302020302020302020302020300A2020202D302E303939392020202D302E3439373420202020302E303030302043202020302020302020302020302020302020302020302020302020302020302020302020300A2020202D302E3039393920202020302E3332373620202020302E303030302043202020302020302020302020302020302020302020302020302020302020302020302020300A2020202D302E3831343320202020302E3734303120202020302E303030302043202020302020302020302020302020302020302020302020302020302020302020302020300A20202020302E363834372020202D302E3735323420202020302E30303030204E202020302020302020302020302020302020302020302020302020302020302020302020300A20202020312E313639372020202D302E3038343920202020302E303030302043202020302020302020302020302020302020302020302020302020302020302020302020300A20202020302E3638343720202020302E3538323520202020302E303030302043202020302020302020302020302020302020302020302020302020302020302020302020300A20202020312E3939303120202020302E3030313320202020302E303030302043202020302020302020302020302020302020302020302020302020302020302020302020300A20202020322E3332353720202020302E3735353020202020302E303030302043202020302020302020302020302020302020302020302020302020302020302020302020300A20202020312E3834303820202020312E3432323420202020302E303030302043202020302020302020302020302020302020302020302020302020302020302020302020300A20202020312E3032303320202020312E3333363220202020302E303030302043202020302020302020302020302020302020302020302020302020302020302020302020300A2020202D302E3630303820202020312E3533373020202020302E303030302043202020302020302020302020302020302020302020302020302020302020302020302020300A2020202D322E333235372020202D302E3731303920202020302E303030302043202020302020302020302020302020302020302020302020302020302020302020302020300A2020202D312E3436383920202020312E3234323320202020302E303030302043202020302020302020302020302020302020302020302020302020302020302020302020300A2020202D312E363336352020202D312E3331353420202020302E303030302043202020302020302020302020302020302020302020302020302020302020302020302020300A20202020302E393339372020202D312E3533373020202020302E303030302043202020302020302020302020302020302020302020302020302020302020302020302020300A2020312020322020312020302020202020200A2020322020332020312020302020202020200A2020332020342020312020302020202020200A2020342020352020312020302020202020200A2020352020362020312020302020202020200A2020362020312020312020302020202020200A2020342020372020312020302020202020200A2020372020382020312020302020202020200A2020382020392020322020302020202020200A2020392020352020312020302020202020200A2020382031302020312020302020202020200A2031302031312020322020302020202020200A2031312031322020312020302020202020200A2031322031332020322020302020202020200A2031332020392020312020302020202020200A2020362031342020312020312020202020200A2020322031352020312020312020202020200A2020362031362020312020362020202020200A2020322031372020312020362020202020200A2020372031382020312020302020202020200A4D2020454E44
Contributor: SASAKI S, TOYOHASHI UNIV. OF TECH.
InstType: EI
InstName: Unknown
IoniMethod: _ENERGY 75 eV
IonPolarity: pos
Date: 2010-10-09 19:48:36+02:00
Num Peaks: 24
42 106 57 65 58 392 70 5 71 110 84 162 91 25 98 18 99 999 100 691 
101 60 115 5 130 172 131 515 132 106 144 10 145 72 146 98 170 20 171 2 
172 10 186 40 187 25 244 148 
