Name: 2-ETHOXY-6-FORMYLPHENOL
MW: 166
Formula: C9H10O3
Synonym: MassBank: JP008296
Synonym: 2-ETHOXY-6-FORMYLPHENOL
Structure: 322D4554484F58592D362D464F524D594C5048454E4F4C2E6D6F6C0A20204368656D447261773031303331303132333132440A2031322031322020302020302020302020302020302020302020302020303939392056323030300A20202020302E3230363220202020302E3335373220202020302E303030302043202020302020302020302020302020302020302020302020302020302020302020302020300A2020202D302E323036322020202D302E3335373220202020302E303030302043202020302020302020302020302020302020302020302020302020302020302020302020300A20202020302E323036322020202D312E3037313720202020302E303030302043202020302020302020302020302020302020302020302020302020302020302020302020300A20202020312E303331332020202D312E3037313720202020302E303030302043202020302020302020302020302020302020302020302020302020302020302020302020300A20202020312E343433382020202D302E3335373220202020302E303030302043202020302020302020302020302020302020302020302020302020302020302020302020300A20202020312E3033313320202020302E3335373220202020302E303030302043202020302020302020302020302020302020302020302020302020302020302020302020300A20202020312E3434333820202020312E3037313720202020302E303030302043202020302020302020302020302020302020302020302020302020302020302020302020300A20202020322E3236383720202020312E3037313720202020302E30303030204F202020302020302020302020302020302020302020302020302020302020302020302020300A2020202D312E303331332020202D302E3335373220202020302E30303030204F202020302020302020302020302020302020302020302020302020302020302020302020300A2020202D312E343433382020202D312E3037313720202020302E303030302043202020302020302020302020302020302020302020302020302020302020302020302020300A2020202D322E323638372020202D312E3037313720202020302E303030302043202020302020302020302020302020302020302020302020302020302020302020302020300A2020202D302E3230363220202020312E3037313720202020302E30303030204F202020302020302020302020302020302020302020302020302020302020302020302020300A2020312020322020312020302020202020200A2020322020332020322020302020202020200A2020332020342020312020302020202020200A2020342020352020322020302020202020200A2020352020362020312020302020202020200A2020312020362020322020302020202020200A2020372020382020322020302020202020200A2020362020372020312020302020202020200A2031302031312020312020302020202020200A2020392031302020312020302020202020200A2020322020392020312020302020202020200A2020312031322020312020302020202020200A4D2020454E44
Contributor: UBE SCIENTIFIC ANALYSIS LABORATORY
InstType: EI
InstName: HITACHI M-60
IoniMethod: _ENERGY 70 eV
IonPolarity: pos
Date: 2010-10-09 19:48:36+02:00
Num Peaks: 83
14 3 15 12 18 5 26 29 27 219 28 21 29 210 30 4 31 5 37 7 
38 26 39 87 40 6 41 8 42 6 43 16 44 1 45 5 49 5 50 38 
51 75 52 67 53 131 54 20 55 92 56 4 57 2 61 6 62 18 63 72 
64 71 65 57 66 14 67 4 68 3 69 4 74 5 75 28 76 12 77 11 
78 3 79 25 80 23 81 156 82 28 83 2 87 6 91 21 92 191 93 41 
94 9 95 6 104 15 105 4 107 23 108 28 109 121 110 51 111 5 115 27 
119 10 120 232 121 39 122 42 123 13 134 2 135 1 136 98 137 911 138 999 
139 86 140 10 141 1 147 2 148 5 149 6 151 23 152 3 154 2 165 8 
166 684 167 13 168 7 
