Name: EUGENOL
MW: 164
Formula: C10H12O2
Synonym: MassBank: JP009332
Synonym: EUGENOL
Structure: 455547454E4F4C2E6D6F6C0A20204368656D447261773031323231303032303532440A2031322031322020302020302020302020302020302020302020302020303939392056323030300A20202020312E303731372020202D302E3431323520202020302E303030302043202020302020302020302020302020302020302020302020302020302020302020302020300A20202020312E3037313720202020302E3431323520202020302E303030302043202020302020302020302020302020302020302020302020302020302020302020302020300A20202020312E3738363220202020302E3832353020202020302E30303030204F202020302020302020302020302020302020302020302020302020302020302020302020300A20202020322E3530303620202020302E3431323520202020302E303030302043202020302020302020302020302020302020302020302020302020302020302020302020300A20202020302E3335373220202020302E3832353020202020302E303030302043202020302020302020302020302020302020302020302020302020302020302020302020300A2020202D302E3335373220202020302E3431323520202020302E303030302043202020302020302020302020302020302020302020302020302020302020302020302020300A2020202D312E3037313720202020302E3832353020202020302E303030302043202020302020302020302020302020302020302020302020302020302020302020302020300A2020202D312E3738363220202020302E3431323520202020302E303030302043202020302020302020302020302020302020302020302020302020302020302020302020300A2020202D322E3530303620202020302E3832353020202020302E303030302043202020302020302020302020302020302020302020302020302020302020302020302020300A2020202D302E333537322020202D302E3431323520202020302E303030302043202020302020302020302020302020302020302020302020302020302020302020302020300A20202020302E333537322020202D302E3832353020202020302E303030302043202020302020302020302020302020302020302020302020302020302020302020302020300A20202020312E373836322020202D302E3832353020202020302E30303030204F202020302020302020302020302020302020302020302020302020302020302020302020300A2020312020322020312020302020202020200A2020322020332020312020302020202020200A2020332020342020312020302020202020200A2020322020352020322020302020202020200A2020352020362020312020302020202020200A2020362020372020312020302020202020200A2020372020382020312020302020202020200A2020382020392020322020302020202020200A2020362031302020322020302020202020200A2031302031312020312020302020202020200A2020312031312020322020302020202020200A2020312031322020312020302020202020200A4D2020454E44
Contributor: YAMAMOTO M, DEP. CHEMISTRY, FAC. SCIENCE, NARA WOMEN'S UNIV.
InstType: EI
InstName: HITACHI RMU-6M
IoniMethod: _ENERGY 70 eV
IonPolarity: pos
Date: 2010-10-09 19:48:36+02:00
Num Peaks: 63
26 10 27 71 28 26 29 2 31 9 38 22 39 152 40 3 41 75 43 42 
45 10 50 5 51 129 52 54 53 48 55 22 56 11 62 20 63 51 64 2 
65 98 66 40 67 13 69 1 74 13 75 12 76 13 77 26 78 69 79 62 
81 22 89 2 91 170 92 24 93 46 94 6 95 11 102 17 103 206 104 15 
105 63 106 11 107 32 109 1 115 22 119 19 120 11 121 15 122 63 131 206 
132 97 133 16 134 18 135 18 137 193 138 2 147 48 149 346 150 33 163 4 
164 999 165 111 166 11 
