Name: MassBank: JP005077
MW: 371
Formula: C26H17N3
Synonym: MassBank: JP005077
Synonym: 9,11-DIPHENYLBENZO(E)PYRIMIDO(4,5-B)INDOLE
Structure: 392C31312D44495048454E594C42454E5A4F284529505952494D49444F28342C352D4229494E444F4C452E6D6F6C0A20204368656D447261773035323431303232333532440A2032392033342020302020302020302020302020302020302020302020303939392056323030300A20202020302E373534332020202D322E3039323720202020302E30303030204E202020302020302020302020302020302020302020302020302020302020302020302020300A20202020302E323032322020202D312E3437393620202020302E303030302043202020302020302020302020302020302020302020302020302020302020302020302020300A20202020302E363134372020202D302E3736353220202020302E303030302043202020302020302020302020302020302020302020302020302020302020302020302020300A20202020312E343231372020202D302E3933363720202020302E303030302043202020302020302020302020302020302020302020302020302020302020302020302020300A20202020322E303839312020202D302E3435313820202020302E303030302043202020302020302020302020302020302020302020302020302020302020302020302020300A20202020322E383432382020202D302E3738373320202020302E303030302043202020302020302020302020302020302020302020302020302020302020302020302020300A20202020322E393239312020202D312E3630373820202020302E303030302043202020302020302020302020302020302020302020302020302020302020302020302020300A20202020322E323631362020202D322E3039323720202020302E303030302043202020302020302020302020302020302020302020302020302020302020302020302020300A20202020312E353037392020202D312E3735373220202020302E303030302043202020302020302020302020302020302020302020302020302020302020302020302020300A2020202D312E303335332020202D302E3736353220202020302E303030302043202020302020302020302020302020302020302020302020302020302020302020302020300A2020202D302E363232382020202D312E3437393620202020302E30303030204E202020302020302020302020302020302020302020302020302020302020302020302020300A20202020302E323032322020202D302E3035303720202020302E303030302043202020302020302020302020302020302020302020302020302020302020302020302020300A2020202D302E363232382020202D302E3035303720202020302E30303030204E202020302020302020302020302020302020302020302020302020302020302020302020300A20202020332E353130332020202D302E3330323420202020302E303030302043202020302020302020302020302020302020302020302020302020302020302020302020300A20202020332E3432343020202020302E3531383120202020302E303030302043202020302020302020302020302020302020302020302020302020302020302020302020300A20202020322E3637303420202020302E3835333620202020302E303030302043202020302020302020302020302020302020302020302020302020302020302020302020300A20202020322E3030323920202020302E3336383720202020302E303030302043202020302020302020302020302020302020302020302020302020302020302020302020300A20202020302E3631343720202020302E3636333820202020302E303030302043202020302020302020302020302020302020302020302020302020302020302020302020300A20202020302E3230323220202020312E3337383320202020302E303030302043202020302020302020302020302020302020302020302020302020302020302020302020300A20202020302E3631343720202020322E3039323720202020302E303030302043202020302020302020302020302020302020302020302020302020302020302020302020300A20202020312E3433393720202020322E3039323720202020302E303030302043202020302020302020302020302020302020302020302020302020302020302020302020300A20202020312E3835323220202020312E3337383320202020302E303030302043202020302020302020302020302020302020302020302020302020302020302020302020300A20202020312E3433393720202020302E3636333820202020302E303030302043202020302020302020302020302020302020302020302020302020302020302020302020300A2020202D312E383630332020202D302E3736353220202020302E303030302043202020302020302020302020302020302020302020302020302020302020302020302020300A2020202D322E323732382020202D312E3437393620202020302E303030302043202020302020302020302020302020302020302020302020302020302020302020302020300A2020202D332E303937382020202D312E3437393620202020302E303030302043202020302020302020302020302020302020302020302020302020302020302020302020300A2020202D332E353130332020202D302E3736353220202020302E303030302043202020302020302020302020302020302020302020302020302020302020302020302020300A2020202D332E303937382020202D302E3035303720202020302E303030302043202020302020302020302020302020302020302020302020302020302020302020302020300A2020202D322E323732382020202D302E3035303720202020302E303030302043202020302020302020302020302020302020302020302020302020302020302020302020300A2020312020322020312020302020202020200A2020322020332020312020302020202020200A2020332020342020312020302020202020200A2020342020352020322020302020202020200A2020352020362020312020302020202020200A2020362020372020312020302020202020200A2020372020382020322020302020202020200A2020382020392020312020302020202020200A2020312020392020322020302020202020200A2020342020392020312020302020202020200A2031302031312020312020302020202020200A2031322031332020312020302020202020200A2031302031332020322020302020202020200A2020322031312020322020302020202020200A2020332031322020322020302020202020200A2031342031352020312020302020202020200A2031352031362020322020302020202020200A2031362031372020312020302020202020200A2020352031372020312020302020202020200A2020362031342020322020302020202020200A2031382031392020312020302020202020200A2031392032302020322020302020202020200A2032302032312020312020302020202020200A2032312032322020322020302020202020200A2032322032332020312020302020202020200A2031382032332020322020302020202020200A2031322031382020312020302020202020200A2032342032352020312020302020202020200A2032352032362020322020302020202020200A2032362032372020312020302020202020200A2032372032382020322020302020202020200A2032382032392020312020302020202020200A2032342032392020322020302020202020200A2031302032342020312020302020202020200A4D2020454E44
Contributor: SASAKI S, TOYOHASHI UNIV. OF TECH.
InstType: EI
InstName: MS-902
IoniMethod: _ENERGY 70 eV
IonPolarity: pos
Date: 2010-10-09 19:48:36+02:00
Num Peaks: 50
325 189 36 23 44 122 69 7 73 12 77 20 80 10 106.5 1 107 10 119.5 10 
120 14 120.5 2 131 49 133 11 133.5 11 138 2 139 14 164 35 165 22 170.5 1 
171 19 172 18 177 12 183 1 183.5 10 184 34 185 216 186 19 189 12 190 10 
213 30 214 3 215 13 238 21 239 25 240 9 241 25 265 52 266 120 267 5 
268 18 291 18 292 32 293 2 368 16 369 48 370 763 371 999 372 252 373 32 
