Name: (2S)-N-TERT-BUTOXYCARBONYL-2-(4-(1-ETHOXYETHOXY)-1-HYDROXYBUTYL)PYRROLIDINE
MW: 331
Formula: C17H33NO5
Synonym: MassBank: JP005511
Synonym: (2S)-N-TERT-BUTOXYCARBONYL-2-(4-(1-ETHOXYETHOXY)-1-HYDROXYBUTYL)PYRROLIDINE
Structure: 283253292D4E2D544552542D4255544F5859434152424F4E594C2D322D28342D28312D4554484F58594554484F5859292D312D485944524F5859425554594C29505952524F4C4944494E452E6D6F6C0A20204368656D447261773130323030393134343432440A2032342032342020302020302020302020302020302020302020302020303939392056323030300A2020202D322E303336362020202D312E3637353520202020302E303030302043202020302020302020302020302020302020302020302020302020302020302020302020300A2020202D312E323131362020202D312E3637353520202020302E303030302043202020302020302020302020302020302020302020302020302020302020302020302020300A2020202D302E393536362020202D302E3839303920202020302E303030302043202020302020302020302020302020302020302020302020302020302020302020302020300A2020202D312E363234312020202D302E3430363020202020302E30303030204E202020302020302020302020302020302020302020302020302020302020302020302020300A2020202D322E323931352020202D302E3839303920202020302E303030302043202020302020302020302020302020302020302020302020302020302020302020302020300A2020202D302E313539372020202D312E3130343420202020302E303030302048202020302020302020302020302020302020302020302020302020302020302020302020300A2020202D302E333733332020202D302E3330373520202020302E303030302043202020302020302020302020302020302020302020302020302020302020302020302020300A2020202D312E3632343120202020302E3431393020202020302E303030302043202020302020302020302020302020302020302020302020302020302020302020302020300A2020202D322E3333383520202020302E3833313520202020302E30303030204F202020302020302020302020302020302020302020302020302020302020302020302020300A2020202D302E3930393620202020302E3833313520202020302E30303030204F202020302020302020302020302020302020302020302020302020302020302020302020300A2020202D332E3035333020202020312E3234343020202020302E303030302043202020302020302020302020302020302020302020302020302020302020302020302020300A2020202D332E3736373520202020312E3635363520202020302E303030302043202020302020302020302020302020302020302020302020302020302020302020302020300A2020202D322E3634303520202020312E3935383520202020302E303030302043202020302020302020302020302020302020302020302020302020302020302020302020300A2020202D332E3436353520202020302E3532393620202020302E303030302043202020302020302020302020302020302020302020302020302020302020302020302020300A20202020302E343233362020202D302E3532313020202020302E303030302043202020302020302020302020302020302020302020302020302020302020302020302020300A2020202D302E3538363820202020302E3438393420202020302E30303030204F202020302020302020302020302020302020302020302020302020302020302020302020300A20202020312E3030373020202020302E3036323320202020302E303030302043202020302020302020302020302020302020302020302020302020302020302020302020300A20202020312E383033392020202D302E3135313220202020302E303030302043202020302020302020302020302020302020302020302020302020302020302020302020300A20202020322E3338373220202020302E3433323220202020302E30303030204F202020302020302020302020302020302020302020302020302020302020302020302020300A20202020332E3138343120202020302E3231383620202020302E303030302043202020302020302020302020302020302020302020302020302020302020302020302020300A20202020332E3736373520202020302E3830323020202020302E303030302043202020302020302020302020302020302020302020302020302020302020302020302020300A20202020332E333937362020202D302E3537383320202020302E30303030204F202020302020302020302020302020302020302020302020302020302020302020302020300A20202020322E383134332020202D312E3136313620202020302E303030302043202020302020302020302020302020302020302020302020302020302020302020302020300A20202020332E303237382020202D312E3935383520202020302E303030302043202020302020302020302020302020302020302020302020302020302020302020302020300A2020312020322020312020302020202020200A2020322020332020312020302020202020200A2020332020342020312020302020202020200A2020342020352020312020302020202020200A2020352020312020312020302020202020200A2020332020362020312020312020202020200A2020332020372020312020362020202020200A2020342020382020312020302020202020200A2020382020392020312020302020202020200A2020382031302020322020302020202020200A2020392031312020312020302020202020200A2031312031322020312020302020202020200A2031312031332020312020302020202020200A2031312031342020312020302020202020200A2020372031352020312020302020202020200A2020372031362020312020302020202020200A2031352031372020312020302020202020200A2031372031382020312020302020202020200A2031382031392020312020302020202020200A2031392032302020312020302020202020200A2032302032312020312020302020202020200A2032302032322020312020302020202020200A2032322032332020312020302020202020200A2032332032342020312020302020202020200A4D2020454E44
Contributor: HIRAMA M, TOHOKU UNIV. FACULTY OF SCIENCE DEPT. OF CHEMISTRY YUKIBUNSEKI
InstType: EI
InstName: HITACHI M-52
IoniMethod: _ENERGY 25 eV
IonPolarity: pos
Date: 2010-10-09 19:48:36+02:00
Num Peaks: 9
70 73 114 636 142 21 170 999 171 124 184 94 186 11 230 19 332 4 
