Name: MassBank: JP002423
MW: 172
Formula: C10H20O2
Synonym: MassBank: JP002423
Synonym: (6S)-2,6-DIMETHYL-7-OCTENE-2,3-DIOL
Structure: 283653292D322C362D44494D455448594C2D372D4F4354454E452D322C332D44494F4C2E6D6F6C0A20204368656D447261773130323230393034343432440A2031332031322020302020302020302020302020302020302020302020303939392056323030300A2020202D312E3037313720202020302E3135313020202020302E303030302043202020302020302020302020302020302020302020302020302020302020302020302020300A2020202D312E373836322020202D302E3236313520202020302E303030302043202020302020302020302020302020302020302020302020302020302020302020302020300A2020202D322E353030362020202D302E3637343020202020302E30303030204F202020302020302020302020302020302020302020302020302020302020302020302020300A2020202D322E3139383720202020302E3435333020202020302E303030302043202020302020302020302020302020302020302020302020302020302020302020302020300A2020202D312E333733372020202D302E3937363020202020302E303030302043202020302020302020302020302020302020302020302020302020302020302020302020300A2020202D312E3037313720202020302E3937363020202020302E30303030204F202020302020302020302020302020302020302020302020302020302020302020302020300A2020202D302E333537322020202D302E3236313520202020302E303030302043202020302020302020302020302020302020302020302020302020302020302020302020300A20202020302E3335373220202020302E3135313020202020302E303030302043202020302020302020302020302020302020302020302020302020302020302020302020300A20202020312E303731372020202D302E3236313520202020302E303030302043202020302020302020302020302020302020302020302020302020302020302020302020300A20202020312E373836322020202D302E3637343020202020302E303030302043202020302020302020302020302020302020302020302020302020302020302020302020300A20202020322E353030362020202D302E3236313520202020302E303030302043202020302020302020302020302020302020302020302020302020302020302020302020300A20202020312E3438343220202020302E3435333020202020302E303030302043202020302020302020302020302020302020302020302020302020302020302020302020300A20202020302E363539322020202D302E3937363020202020302E303030302048202020302020302020302020302020302020302020302020302020302020302020302020300A2020312020322020312020302020202020200A2020322020332020312020302020202020200A2020322020342020312020302020202020200A2020322020352020312020302020202020200A2020312020362020312020302020202020200A2020312020372020312020302020202020200A2020372020382020312020302020202020200A2020382020392020312020302020202020200A2020392031302020312020302020202020200A2031302031312020322020302020202020200A2020392031322020312020312020202020200A2020392031332020312020312020202020200A4D2020454E44
Contributor: ITO S, DEPT. OF CHEM., TOHOKU UNIV.
InstType: EI
InstName: HITACHI M-52
IoniMethod: _ENERGY 11 eV
IonPolarity: pos
Date: 2010-10-09 19:48:36+02:00
Num Peaks: 27
55 66 57 55 59 110 60 19 68 79 70 764 71 110 73 10 81 999 82 128 
84 48 85 9 93 76 94 31 96 527 97 35 102 17 107 21 110 93 113 44 
114 309 117 38 121 24 138 2 139 66 154 245 155 17 
