Name: N-ACETYL-ALANYL-ALANYL-GLYCINE METHYL ESTER
MW: 273
Formula: C11H19N3O5
Synonym: MassBank: JP000298
Synonym: N-ACETYL-ALANYL-ALANYL-GLYCINE METHYL ESTER
Structure: 303132335F4E2D41434554594C2D414C414E594C2D414C414E594C2D474C5943494E45204D455448594C2045535445522E6D6F6C0A20204368656D447261773039303331303137353732440A2032312032302020302020302020302020302020302020302020302020303939392056323030300A20202020322E3835373820202020302E3431323520202020302E303030302043202020302020302020302020302020302020302020302020302020302020302020302020300A20202020312E3432383920202020302E3431323520202020302E30303030204E202020302020302020302020302020302020302020302020302020302020302020302020300A20202020322E3134333320202020302E3832353020202020302E303030302043202020302020302020302020302020302020302020302020302020302020302020302020300A20202020322E383537382020202D302E3431323520202020302E30303030204F202020302020302020302020302020302020302020302020302020302020302020302020300A20202020332E3537323320202020302E3832353020202020302E30303030204F202020302020302020302020302020302020302020302020302020302020302020302020300A20202020312E343238392020202D302E3431323520202020302E303030302043202020302020302020302020302020302020302020302020302020302020302020302020300A20202020302E303030302020202D302E3431323520202020302E30303030204E202020302020302020302020302020302020302020302020302020302020302020302020300A20202020302E373134352020202D302E3832353020202020302E303030302043202020302020302020302020302020302020302020302020302020302020302020302020300A20202020302E373134352020202D312E3635303020202020302E303030302043202020302020302020302020302020302020302020302020302020302020302020302020300A20202020322E313433332020202D302E3832353020202020302E30303030204F202020302020302020302020302020302020302020302020302020302020302020302020300A2020202D302E373134352020202D302E3832353020202020302E303030302043202020302020302020302020302020302020302020302020302020302020302020302020300A2020202D322E313433332020202D302E3832353020202020302E30303030204E202020302020302020302020302020302020302020302020302020302020302020302020300A2020202D312E343238392020202D302E3431323520202020302E303030302043202020302020302020302020302020302020302020302020302020302020302020302020300A2020202D312E3432383920202020302E3431323520202020302E303030302043202020302020302020302020302020302020302020302020302020302020302020302020300A2020202D302E373134352020202D312E3635303020202020302E30303030204F202020302020302020302020302020302020302020302020302020302020302020302020300A2020202D322E383537382020202D302E3431323520202020302E303030302043202020302020302020302020302020302020302020302020302020302020302020302020300A2020202D322E3835373820202020302E3431323520202020302E30303030204F202020302020302020302020302020302020302020302020302020302020302020302020300A2020202D332E353732332020202D302E3832353020202020302E303030302043202020302020302020302020302020302020302020302020302020302020302020302020300A20202020332E3537323320202020312E3635303020202020302E303030302043202020302020302020302020302020302020302020302020302020302020302020302020300A2020202D302E363637392020202D302E3039333720202020302E303030302048202020302020302020302020302020302020302020302020302020302020302020302020300A20202020302E3731343520202020302E3030303020202020302E303030302048202020302020302020302020302020302020302020302020302020302020302020302020300A2020322020332020312020302020202020200A2020312020332020312020302020202020200A2020312020342020322020302020202020200A2020312020352020312020302020202020200A2020372020382020312020302020202020200A2020362020382020312020302020202020200A2020382020392020312020312020202020200A2020362031302020322020302020202020200A2031332031322020312020312020202020200A2031312031332020312020302020202020200A2031332031342020312020302020202020200A2031312031352020322020302020202020200A2020372031312020312020302020202020200A2020322020362020312020302020202020200A2031362031372020322020302020202020200A2031362031382020312020302020202020200A2031322031362020312020302020202020200A2020352031392020312020302020202020200A2031332032302020312020312020202020200A2020382032312020312020312020202020200A4D2020454E44
Contributor: YAMAMOTO M, DEP. CHEMISTRY, FAC. SCIENCE, NARA WOMEN'S UNIV.
InstType: EI
InstName: HITACHI RMU-6M
IoniMethod: _ENERGY 70 eV
IonPolarity: pos
Date: 2010-10-09 19:48:36+02:00
Num Peaks: 32
15 40 27 17 28 120 29 1 30 70 32 20 41 13 42 5 43 107 44 999 
45 32 55 2 56 40 57 13 70 27 71 2 72 44 85 12 86 187 87 14 
88 21 90 24 99 29 113 1 114 106 127 19 145 30 157 12 158 49 185 32 
187 18 273 10 
