Name: ORTHO-CHLORO-3-METHOXYDIAZEPAM
MW: 348
Formula: C17H14Cl2N2O2
Synonym: MassBank: JP004075
Synonym: ORTHO-CHLORO-3-METHOXYDIAZEPAM
Structure: 303230325F4F5254484F2D43484C4F524F2D332D4D4554484F58594449415A4550414D2E6D6F6C0A20204368656D447261773130313931303137343032440A2032332032352020302020302020302020302020302020302020302020303939392056323030300A2020202D312E383830382020202D302E3339373420202020302E303030302043202020302020302020302020302020302020302020302020302020302020302020302020300A2020202D312E383830382020202D312E3232323420202020302E303030302043202020302020302020302020302020302020302020302020302020302020302020302020300A2020202D312E313636332020202D312E3633343920202020302E303030302043202020302020302020302020302020302020302020302020302020302020302020302020300A2020202D302E343531382020202D312E3232323420202020302E303030302043202020302020302020302020302020302020302020302020302020302020302020302020300A2020202D302E343531382020202D302E3339373420202020302E303030302043202020302020302020302020302020302020302020302020302020302020302020302020300A2020202D312E3136363320202020302E3031353120202020302E303030302043202020302020302020302020302020302020302020302020302020302020302020302020300A20202020302E313934322020202D312E3733363920202020302E30303030204E202020302020302020302020302020302020302020302020302020302020302020302020300A20202020302E393937352020202D312E3535333120202020302E303030302043202020302020302020302020302020302020302020302020302020302020302020302020300A20202020312E333535352020202D302E3830393920202020302E303030302043202020302020302020302020302020302020302020302020302020302020302020302020300A20202020302E393938342020202D302E3036373120202020302E30303030204E202020302020302020302020302020302020302020302020302020302020302020302020300A20202020302E3139333220202020302E3131373020202020302E303030302043202020302020302020302020302020302020302020302020302020302020302020302020300A20202020312E353132392020202D322E3139393120202020302E30303030204F202020302020302020302020302020302020302020302020302020302020302020302020300A20202020322E313830352020202D302E3831313220202020302E30303030204F202020302020302020302020302020302020302020302020302020302020302020302020300A2020202D322E3539343220202020302E3031353120202020302E3030303020436C2020302020302020302020302020302020302020302020302020302020302020302020300A20202020302E3032303620202020302E3931303220202020302E303030302043202020302020302020302020302020302020302020302020302020302020302020302020300A20202020302E3630333920202020312E3439333620202020302E303030302043202020302020302020302020302020302020302020302020302020302020302020302020300A20202020302E3433313320202020322E3238363820202020302E303030302043202020302020302020302020302020302020302020302020302020302020302020302020300A2020202D302E3336373820202020322E3534313320202020302E303030302043202020302020302020302020302020302020302020302020302020302020302020302020300A2020202D302E3935313120202020312E3935373920202020302E303030302043202020302020302020302020302020302020302020302020302020302020302020302020300A2020202D302E3737383520202020312E3136343720202020302E303030302043202020302020302020302020302020302020302020302020302020302020302020302020300A20202020302E303131302020202D322E3534313320202020302E303030302043202020302020302020302020302020302020302020302020302020302020302020302020300A20202020322E353934322020202D302E3039373420202020302E303030302043202020302020302020302020302020302020302020302020302020302020302020302020300A2020202D312E3338383620202020302E3630393420202020302E3030303020436C2020302020302020302020302020302020302020302020302020302020302020302020300A2020312020322020322020302020202020200A2020322020332020312020302020202020200A2020332020342020322020302020202020200A2020342020352020312020302020202020200A2020352020362020322020302020202020200A2020362020312020312020302020202020200A2020342020372020312020302020202020200A2020372020382020312020302020202020200A2020382020392020312020302020202020200A2020392031302020312020302020202020200A2031302031312020322020302020202020200A2031312020352020312020302020202020200A2020382031322020322020302020202020200A2020392031332020312020302020202020200A2031312031352020312020302020202020200A2020312031342020312020302020202020200A2031352031362020322020302020202020200A2031362031372020312020302020202020200A2031372031382020322020302020202020200A2031382031392020312020302020202020200A2031392032302020322020302020202020200A2031352032302020312020302020202020200A2020372032312020312020302020202020200A2031332032322020312020302020202020200A2032302032332020312020302020202020200A4D2020454E44
Contributor: YAMAMOTO M, DEP. CHEMISTRY, FAC. SCIENCE, NARA WOMEN'S UNIV.
InstType: EI
InstName: HITACHI RMU-6E
IoniMethod: _ENERGY 70 eV
IonPolarity: pos
Date: 2010-10-09 19:48:36+02:00
Num Peaks: 171
39 36 42 31 43 14 45 15 50 34 51 60 58 19 62 3 63 71 64 16 
65 14 70 4 73 26 74 31 75 149 75.5 2 76 66 77 51 81 53 82 7 
83 31 86 17 87 29 88 3 89 84 90 31 93 28 95 13 96 61 96.5 83 
97 20 98 2 99 48 100 49 101 32 102 6 102.5 18 103 44 104 18 105 2 
106.5 22 110 20 111 76 112 3 113 46 113.5 78 114 106 114.5 4 115 42 116 23 
117 115 117.5 3 118 17 123 20 124 42 125 14 126 38 127 55 127.5 21 128 2 
131 14 135 69 136 38 137 2 138 54 139 147 140 54 141 5 142 20 149 35 
150 74 151 9 152 142 153 34 154 20 156 2 162 19 163 78 164 71 165 15 
166 52 167 20 168 79 170 2 174 32 175 32 176 44 177 10 178 59 179 22 
180 20 186 3 188 16 190 28 191 43 192 6 193 100 194 22 195 19 196 3 
198 19 199 59 200 18 201 3 206 42 209 202 210 42 211 10 212 37 213 112 
214 29 215 4 221 132 222 26 223 29 225 1 226 26 227 104 228 237 229 7 
230 77 231 14 235 32 237 18 239 15 240 15 241 20 247 3 248 19 249 36 
250 15 254 2 255 20 256 135 257 30 258 4 262 160 263 36 264 105 265 2 
266 20 269 74 270 25 271 3 276 38 278 27 283 23 285 4 287 14 289 31 
290 16 291 4 292 14 293 19 305 999 306 17 307 653 308 108 309 115 310 2 
313 41 315 14 319 36 320 4 321 28 322 27 348 350 349 8 350 233 351 45 
352 41 
