Name: MassBank: JP004337
MW: 202
Formula: C13H18N2
Synonym: MassBank: JP004337
Synonym: 3,3A,8A-TRIMETHYL-2,3,3A,8A-TETRAHYDROPYRROLO(2,3-B)INDOLE
Structure: 332C33412C38412D5452494D455448594C2D322C332C33412C38412D5445545241485944524F505952524F4C4F28322C332D4229494E444F4C452E6D6F6C0A20204368656D447261773032323131303231323332440A2031352031372020302020302020302020302020302020302020302020303939392056323030300A20202020302E343732302020202D312E3331343720202020302E30303030204E202020302020302020302020302020302020302020302020302020302020302020302020300A20202020302E393536392020202D302E3634373220202020302E303030302043202020302020302020302020302020302020302020302020302020302020302020302020300A20202020302E3437323020202020302E3032303220202020302E303030302043202020302020302020302020302020302020302020302020302020302020302020302020300A2020202D302E333132362020202D302E3233343720202020302E303030302043202020302020302020302020302020302020302020302020302020302020302020302020300A2020202D312E3032373120202020302E3137373820202020302E303030302043202020302020302020302020302020302020302020302020302020302020302020302020300A2020202D312E373431362020202D302E3233343720202020302E303030302043202020302020302020302020302020302020302020302020302020302020302020302020300A2020202D312E373431362020202D312E3035393720202020302E303030302043202020302020302020302020302020302020302020302020302020302020302020302020300A2020202D312E303237312020202D312E3437323220202020302E303030302043202020302020302020302020302020302020302020302020302020302020302020302020300A2020202D302E333132362020202D312E3035393720202020302E303030302043202020302020302020302020302020302020302020302020302020302020302020302020300A20202020312E373431362020202D302E3339323320202020302E30303030204E202020302020302020302020302020302020302020302020302020302020302020302020300A20202020302E3935363920202020302E3638373620202020302E303030302043202020302020302020302020302020302020302020302020302020302020302020302020300A20202020312E3734313620202020302E3433323720202020302E303030302043202020302020302020302020302020302020302020302020302020302020302020302020300A20202020312E343431392020202D312E3331343720202020302E303030302043202020302020302020302020302020302020302020302020302020302020302020302020300A2020202D302E3031323920202020302E3638373620202020302E303030302043202020302020302020302020302020302020302020302020302020302020302020302020300A20202020302E3730323020202020312E3437323220202020302E303030302043202020302020302020302020302020302020302020302020302020302020302020302020300A2020312020322020312020302020202020200A2020322020332020312020302020202020200A2020332020342020312020302020202020200A2020342020352020312020302020202020200A2020352020362020322020302020202020200A2020362020372020312020302020202020200A2020372020382020322020302020202020200A2020382020392020312020302020202020200A2020312020392020312020302020202020200A2020342020392020322020302020202020200A2031312031322020312020302020202020200A2031302031322020312020302020202020200A2020322031302020312020302020202020200A2020332031312020312020302020202020200A2020322031332020312020302020202020200A2020332031342020312020302020202020200A2031312031352020312020302020202020200A4D2020454E44
Contributor: SASAKI S, TOYOHASHI UNIV. OF TECH.
InstType: EI
InstName: MX-1303
IoniMethod: _ENERGY 50 eV
IonPolarity: pos
Date: 2010-10-09 19:48:36+02:00
Num Peaks: 92
27 34 28 47 29 21 30 2 39 50 40 11 41 33 42 8 43 34 44 12 
50 13 51 5 52 21 53 21 54 17 55 2 56 64 57 15 63 34 64 2 
65 42 66 11 75 20 76 2 77 118 78 38 78.5 29 79 3 80 25 82 12 
86 15 87 2 89 36 90 26 91 86 92 2 93 23 93.5 16 94 15 96 3 
101 25 102 43 103 48 104 2 105 15 106 32 107 18 115 13 116 52 117 77 
120 13 127 3 128 58 129 45 130 123 131 6 132 41 133 13 140 11 141 1 
142 45 143 121 144 342 145 11 146 85 147 13 154 18 155 2 156 52 157 94 
158 999 159 67 160 139 161 21 168 11 169 1 170 34 171 44 172 450 173 8 
174 21 184 17 185 23 186 2 187 151 188 31 189 31 200 1 201 23 202 356 
203 115 204 13 
