Name: MassBank: JP003734
MW: 344
Formula: C15H16N6O4
Synonym: MassBank: JP003734
Synonym: 1-(4,6-DIMETHOXY-1,2-DIHYDRO-1,3,5-TRIAZINE-2-YLIDENE)-2-(4,6 -DIMETHOXY-1,3,5-TRIAZINE-2-YL)-CYCLOPENTA-2,4-DIENE
Structure: 312D28342C362D44494D4554484F58592D312C322D4449485944524F2D312C332C352D545249415A494E452D322D594C4944454E45292D322D28342C36202D44494D4554484F58592D312C332C352D545249415A494E452D322D594C292D4359434C4F50454E54412D322C342D4449454E452E6D6F6C0A20204368656D447261773131313730393137333332440A2032382033302020302020302020302020302020302020302020302020303939392056323030300A2020202D312E3035373420202020302E3031303220202020302E303030302043202020302020302020302020302020302020302020302020302020302020302020302020300A2020202D302E3732313920202020302E3736333920202020302E303030302043202020302020302020302020302020302020302020302020302020302020302020302020300A2020202D312E3333353020202020312E3331353920202020302E303030302043202020302020302020302020302020302020302020302020302020302020302020302020300A2020202D322E3034393420202020302E3930333420202020302E303030302043202020302020302020302020302020302020302020302020302020302020302020302020300A2020202D312E3837373920202020302E3039363420202020302E303030302043202020302020302020302020302020302020302020302020302020302020302020302020300A20202020302E3334303020202020312E3732303020202020302E30303030204E202020302020302020302020302020302020302020302020302020302020302020302020300A20202020302E3038353120202020302E3933353420202020302E303030302043202020302020302020302020302020302020302020302020302020302020302020302020300A20202020302E3633373120202020302E3332323320202020302E30303030204E202020302020302020302020302020302020302020302020302020302020302020302020300A20202020312E3434343120202020302E3439333820202020302E303030302043202020302020302020302020302020302020302020302020302020302020302020302020300A20202020312E3639393020202020312E3237383420202020302E30303030204E202020302020302020302020302020302020302020302020302020302020302020302020300A20202020312E3134373020202020312E3839313520202020302E303030302043202020302020302020302020302020302020302020302020302020302020302020302020300A20202020312E3430323020202020322E3637363220202020302E30303030204F202020302020302020302020302020302020302020302020302020302020302020302020300A20202020322E3230383920202020322E3834373720202020302E303030302043202020302020302020302020302020302020302020302020302020302020302020302020300A20202020312E393936312020202D302E3131393320202020302E30303030204F202020302020302020302020302020302020302020302020302020302020302020302020300A20202020322E3830333120202020302E3035323320202020302E303030302043202020302020302020302020302020302020302020302020302020302020302020302020300A20202020302E313830312020202D302E3730343320202020302E30303030204E202020302020302020302020302020302020302020302020302020302020302020302020300A2020202D302E363434392020202D302E3730343320202020302E303030302043202020302020302020302020302020302020302020302020302020302020302020302020300A2020202D312E303537342020202D312E3431383820202020302E30303030204E202020302020302020302020302020302020302020302020302020302020302020302020300A2020202D302E363434392020202D322E3133333220202020302E303030302043202020302020302020302020302020302020302020302020302020302020302020302020300A20202020302E313830312020202D322E3133333220202020302E30303030204E202020302020302020302020302020302020302020302020302020302020302020302020300A20202020302E353932362020202D312E3431383720202020302E303030302043202020302020302020302020302020302020302020302020302020302020302020302020300A20202020312E343137362020202D312E3431383720202020302E30303030204F202020302020302020302020302020302020302020302020302020302020302020302020300A20202020312E383330312020202D322E3133333220202020302E303030302043202020302020302020302020302020302020302020302020302020302020302020302020300A2020202D312E303537342020202D322E3834373720202020302E30303030204F202020302020302020302020302020302020302020302020302020302020302020302020300A2020202D312E383832342020202D322E3834373720202020302E303030302043202020302020302020302020302020302020302020302020302020302020302020302020300A2020202D312E3234383720202020322E3133363420202020302E303030302048202020302020302020302020302020302020302020302020302020302020302020302020300A2020202D322E3830333120202020312E3233393020202020302E303030302048202020302020302020302020302020302020302020302020302020302020302020302020300A2020202D322E343239392020202D302E3531363720202020302E303030302048202020302020302020302020302020302020302020302020302020302020302020302020300A2020312020322020312020302020202020200A2020322020332020322020302020202020200A2020332020342020312020302020202020200A2020342020352020322020302020202020200A2020312020352020312020302020202020200A2020362020372020312020302020202020200A2020372020382020322020302020202020200A2020382020392020312020302020202020200A2020392031302020322020302020202020200A2031302031312020312020302020202020200A2020362031312020322020302020202020200A2031322031332020312020302020202020200A2031312031322020312020302020202020200A2031342031352020312020302020202020200A2020392031342020312020302020202020200A2020322020372020312020302020202020200A2031362031372020312020302020202020200A2031372031382020312020302020202020200A2031382031392020322020302020202020200A2031392032302020312020302020202020200A2032302032312020322020302020202020200A2031362032312020312020302020202020200A2032322032332020312020302020202020200A2032312032322020312020302020202020200A2032342032352020312020302020202020200A2031392032342020312020302020202020200A2020312031372020322020302020202020200A2020332032362020312020302020202020200A2020342032372020312020302020202020200A2020352032382020312020302020202020200A4D2020454E44
Contributor: SASAKI S, TOYOHASHI UNIV. OF TECH.
InstType: EI
InstName: Unknown
IoniMethod: EI
IonPolarity: pos
Date: 2010-10-09 19:48:36+02:00
Num Peaks: 70
39 13 40 58 42 68 49 2 56 80 58 360 64 23 69 1 70 70 72 460 
73 50 77 0 79 10 88 8 89 8 90 1 93 8 94 8 101 10 102 1 
103 25 104 10 115 35 116 1 117 15 112 8 122 13 129 2 130 155 131 80 
132 10 134 0 135 10 136 18 141 10 142 1 143 33 172 70 175 13 203 1 
204 13 205 13 216 35 217 1 218 60 219 15 229 25 230 13 231 45 243 25 
244 30 245 3 256 20 257 15 258 10 259 1 270 5 271 13 272 12 273 1 
286 10 299 10 300 5 301 1 302 5 329 6 343 80 344 999 345 240 346 20 
