Name: ACETALDEHYDE CYANOHYDRIN
CAS: 78-97-7
MW: 71
Formula: C3H5NO
Synonym: MassBank: JP008265
Synonym: ACETALDEHYDE CYANOHYDRIN
Structure: 310A31340A41434554414C444548594445204359414E4F48594452494E2E6D6F6C0A20204368656D447261773036323431303035323832440A2020352020342020302020302020302020302020302020302020302020303939392056323030300A20202020302E303030302020202D302E3335373220202020302E303030302043202020302020302020302020302020302020302020302020302020302020302020302020300A20202020302E343132352020202D312E3037313720202020302E303030302043202020302020302020302020302020302020302020302020302020302020302020302020300A2020202D302E383235302020202D302E3335373220202020302E30303030204F202020302020302020302020302020302020302020302020302020302020302020302020300A20202020302E3431323520202020302E3335373220202020302E303030302043202020302020302020302020302020302020302020302020302020302020302020302020300A20202020302E3832353020202020312E3037313720202020302E30303030204E202020302020302020302020302020302020302020302020302020302020302020302020300A2020312020322020312020302020202020200A2020342020352020332020302020202020200A2020312020332020312020302020202020200A2020312020342020312020302020202020200A4D2020454E44
Contributor: UBE SCIENTIFIC ANALYSIS LABORATORY
InstType: EI
InstName: HITACHI M-60
IoniMethod: _ENERGY 70 eV
IonPolarity: pos
Date: 2010-10-09 19:48:36+02:00
Num Peaks: 18
22 18 13 46 14 160 15 346 16 42 25 27 26 233 27 999 29 856 30 6 
40 7 41 34 42 113 43 302 44 512 45 30 56 53 70 4 
