Name: BUTYRALDEHYDE
MW: 72
Formula: C4H8O
Synonym: MassBank: JP001477
Synonym: BUTYRALDEHYDE
Structure: 310A31340A4255545952414C4445485944452E6D6F6C0A20204368656D447261773039303631303034353432440A2020352020342020302020302020302020302020302020302020302020303939392056323030300A2020202D302E3731343520202020302E3230363320202020302E303030302043202020302020302020302020302020302020302020302020302020302020302020302020300A20202020302E303030302020202D302E3230363320202020302E303030302043202020302020302020302020302020302020302020302020302020302020302020302020300A20202020302E3731343520202020302E3230363320202020302E303030302043202020302020302020302020302020302020302020302020302020302020302020302020300A20202020312E343238392020202D302E3230363220202020302E303030302043202020302020302020302020302020302020302020302020302020302020302020302020300A2020202D312E343238392020202D302E3230363220202020302E30303030204F202020302020302020302020302020302020302020302020302020302020302020302020300A2020312020322020312020302020202020200A2020322020332020312020302020202020200A2020332020342020312020302020202020200A2020312020352020322020302020202020200A4D2020454E44
Contributor: YAMAMOTO M, DEP. CHEMISTRY, FAC. SCIENCE, NARA WOMEN'S UNIV.
InstType: EI
InstName: HITACHI RMU-6M
IoniMethod: _ENERGY 70 eV
IonPolarity: pos
Date: 2010-10-09 19:48:36+02:00
Num Peaks: 28
14 33 15 123 25 15 26 124 27 926 28 244 29 642 30 19 31 30 37 43 
38 76 39 365 40 49 41 743 42 106 43 777 44 999 45 35 50 20 51 11 
53 14 54 24 55 18 57 253 58 11 71 61 72 585 73 34 
