Name: (2S)-N-TERT-BUTOXYCARBONYL-2-HYDROXYMETHYLPYRROLIDINE
MW: 201
Formula: C10H19NO3
Synonym: MassBank: JP005513
Synonym: (2S)-N-TERT-BUTOXYCARBONYL-2-HYDROXYMETHYLPYRROLIDINE
Synonym: (2S)-N-TERT-BUTOXYCARBONYLPROLINOL
Structure: 283253292D4E2D544552542D4255544F5859434152424F4E594C50524F4C494E4F4C2E6D6F6C0A20204368656D447261773130323030393134343732440A2031352031352020302020302020302020302020302020302020302020303939392056323030300A2020202D302E303733302020202D312E3831373020202020302E303030302043202020302020302020302020302020302020302020302020302020302020302020302020300A20202020302E373532302020202D312E3831373020202020302E303030302043202020302020302020302020302020302020302020302020302020302020302020302020300A20202020312E303037302020202D312E3033323420202020302E303030302043202020302020302020302020302020302020302020302020302020302020302020302020300A20202020302E333339352020202D302E3534373520202020302E30303030204E202020302020302020302020302020302020302020302020302020302020302020302020300A2020202D302E333237382020202D312E3033323420202020302E303030302043202020302020302020302020302020302020302020302020302020302020302020302020300A20202020312E383033382020202D312E3234353920202020302E303030302048202020302020302020302020302020302020302020302020302020302020302020302020300A20202020312E353930322020202D302E3434393020202020302E303030302043202020302020302020302020302020302020302020302020302020302020302020302020300A20202020302E3333393520202020302E3237373520202020302E303030302043202020302020302020302020302020302020302020302020302020302020302020302020300A2020202D302E3337343820202020302E3639303020202020302E30303030204F202020302020302020302020302020302020302020302020302020302020302020302020300A20202020312E3035343120202020302E3639303020202020302E30303030204F202020302020302020302020302020302020302020302020302020302020302020302020300A2020202D312E3038393320202020312E3130323520202020302E303030302043202020302020302020302020302020302020302020302020302020302020302020302020300A2020202D312E3830333820202020312E3531353020202020302E303030302043202020302020302020302020302020302020302020302020302020302020302020302020300A2020202D302E3637363820202020312E3831373020202020302E303030302043202020302020302020302020302020302020302020302020302020302020302020302020300A2020202D312E3530313820202020302E3338383120202020302E303030302043202020302020302020302020302020302020302020302020302020302020302020302020300A20202020312E3337363820202020302E3334373920202020302E30303030204F202020302020302020302020302020302020302020302020302020302020302020302020300A2020312020322020312020302020202020200A2020322020332020312020302020202020200A2020332020342020312020302020202020200A2020342020352020312020302020202020200A2020352020312020312020302020202020200A2020332020362020312020312020202020200A2020332020372020312020362020202020200A2020342020382020312020302020202020200A2020382020392020312020302020202020200A2020382031302020322020302020202020200A2020392031312020312020302020202020200A2031312031322020312020302020202020200A2031312031332020312020302020202020200A2031312031342020312020302020202020200A2020372031352020312020302020202020200A4D2020454E44
Contributor: HIRAMA M, TOHOKU UNIV. FACULTY OF SCIENCE DEPT. OF CHEMISTRY YUKIBUNSEKI
InstType: EI
InstName: HITACHI M-52
IoniMethod: _ENERGY 14 eV
IonPolarity: pos
Date: 2010-10-09 19:48:36+02:00
Num Peaks: 14
18 60 41 56 56 162 57 137 58 24 70 999 71 28 114 277 115 108 129 64 
146 17 170 380 171 82 201 5 
