Name: ACENAPHTHENE
CAS: 83-32-9
MW: 154
Formula: C12H10
Synonym: MassBank: JP006280
Synonym: ACENAPHTHENE
Structure: 4143454E4150485448454E452E6D6F6C0A20204368656D447261773131303530393132353832440A2031322031342020302020302020302020302020302020302020302020303939392056323030300A2020202D302E3431313220202020312E3230393120202020302E303030302043202020302020302020302020302020302020302020302020302020302020302020302020300A20202020302E3431333820202020312E3230393120202020302E303030302043202020302020302020302020302020302020302020302020302020302020302020302020300A20202020302E3731343520202020302E3434303920202020302E303030302043202020302020302020302020302020302020302020302020302020302020302020302020300A20202020312E3432383920202020302E3032383420202020302E303030302043202020302020302020302020302020302020302020302020302020302020302020302020300A20202020312E343238392020202D302E3739363620202020302E303030302043202020302020302020302020302020302020302020302020302020302020302020302020300A20202020302E373134352020202D312E3230393120202020302E303030302043202020302020302020302020302020302020302020302020302020302020302020302020300A2020202D302E303030302020202D302E3739363620202020302E303030302043202020302020302020302020302020302020302020302020302020302020302020302020300A2020202D302E373134352020202D312E3230393120202020302E303030302043202020302020302020302020302020302020302020302020302020302020302020302020300A2020202D312E343238392020202D302E3739363620202020302E303030302043202020302020302020302020302020302020302020302020302020302020302020302020300A2020202D312E3432383920202020302E3032383420202020302E303030302043202020302020302020302020302020302020302020302020302020302020302020302020300A2020202D302E3731343520202020302E3434303920202020302E303030302043202020302020302020302020302020302020302020302020302020302020302020302020300A20202020302E3030303020202020302E3032383420202020302E303030302043202020302020302020302020302020302020302020302020302020302020302020302020300A2020312020322020312020302020202020200A2020322020332020312020302020202020200A2020332020342020312020302020202020200A2020342020352020322020302020202020200A2020352020362020312020302020202020200A2020362020372020322020302020202020200A2020372020382020312020302020202020200A2020382020392020322020302020202020200A2020392031302020312020302020202020200A2031302031312020322020302020202020200A2020312031312020312020302020202020200A2031312031322020312020302020202020200A2020332031322020322020302020202020200A2020372031322020312020302020202020200A4D2020454E44
Contributor: MASS SPECTROSCOPY SOC. OF JAPAN (MSSJ)
InstType: EI
InstName: HITACHI M-80
IoniMethod: _ENERGY 70 eV
IonPolarity: pos
Date: 2010-10-09 19:48:36+02:00
Num Peaks: 58
26 345 27 676 28 40 29 10 37 73 38 388 39 999 40 61 41 18 49 20 
50 598 51 519 52 121 53 15 61 109 62 420 63 746 64 98 65 46 73 24 
74 366 75 322 76 164 77 98 78 35 85 45 86 189 87 295 88 75 89 95 
90 10 97 9 98 115 99 67 100 32 101 29 102 109 103 12 109 9 111 29 
112 11 113 75 114 18 115 79 122 11 124 7 125 7 126 71 127 41 128 28 
139 12 150 51 151 91 152 227 153 459 154 592 155 86 156 7 
