Name: MassBank: JP001066
MW: 384
Formula: C17H32O4Si3
Synonym: MassBank: JP001066
Synonym: 2,5-BIS(TRIMETHYLSILYL)OXY-PHENYLACETIC ACID TRIMETHYLSILYL ESTER
Synonym: TRIMETHYLSILYL 2,5-BIS(TRIMETHYLSILOXY)PHENYLACETATE
Structure: 322C352D424953285452494D455448594C53494C594C294F58592D5048454E594C4143455449432041434944205452494D455448594C53494C594C2045535445522E6D6F6C0A20204368656D447261773132323130393030323532440A2032342032342020302020302020302020302020302020302020302020303939392056323030300A20202020312E343238392020202D312E3038363520202020302E303030302043202020302020302020302020302020302020302020302020302020302020302020302020300A20202020302E373134352020202D312E3439393020202020302E303030302043202020302020302020302020302020302020302020302020302020302020302020302020300A20202020312E343238392020202D302E3236313520202020302E30303030204F202020302020302020302020302020302020302020302020302020302020302020302020300A20202020322E313433342020202D312E3439393020202020302E30303030204F202020302020302020302020302020302020302020302020302020302020302020302020300A2020202D302E303030302020202D312E3038363520202020302E303030302043202020302020302020302020302020302020302020302020302020302020302020302020300A2020202D302E303030302020202D302E3236313520202020302E303030302043202020302020302020302020302020302020302020302020302020302020302020302020300A2020202D302E3731343520202020302E3135313020202020302E303030302043202020302020302020302020302020302020302020302020302020302020302020302020300A2020202D312E343238392020202D302E3236313520202020302E303030302043202020302020302020302020302020302020302020302020302020302020302020302020300A2020202D312E343238392020202D312E3038363520202020302E303030302043202020302020302020302020302020302020302020302020302020302020302020302020300A2020202D302E373134352020202D312E3439393020202020302E303030302043202020302020302020302020302020302020302020302020302020302020302020302020300A2020202D322E313433342020202D312E3439393020202020302E30303030204F202020302020302020302020302020302020302020302020302020302020302020302020300A2020202D322E383537392020202D312E3038363520202020302E303030302053692020302020302020302020302020302020302020302020302020302020302020302020300A2020202D322E343435342020202D302E3337323020202020302E303030302043202020302020302020302020302020302020302020302020302020302020302020302020300A2020202D332E353732342020202D302E3637343020202020302E303030302043202020302020302020302020302020302020302020302020302020302020302020302020300A2020202D332E323730342020202D312E3830313020202020302E303030302043202020302020302020302020302020302020302020302020302020302020302020302020300A20202020302E3731343520202020302E3135313020202020302E30303030204F202020302020302020302020302020302020302020302020302020302020302020302020300A20202020302E3731343520202020302E3937363020202020302E303030302053692020302020302020302020302020302020302020302020302020302020302020302020300A2020202D302E3131303520202020302E3937363020202020302E303030302043202020302020302020302020302020302020302020302020302020302020302020302020300A20202020312E3533393520202020302E3937363020202020302E303030302043202020302020302020302020302020302020302020302020302020302020302020302020300A20202020302E3731343520202020312E3830313020202020302E303030302043202020302020302020302020302020302020302020302020302020302020302020302020300A20202020322E383537392020202D312E3038363520202020302E303030302053692020302020302020302020302020302020302020302020302020302020302020302020300A20202020332E323730342020202D312E3830313020202020302E303030302043202020302020302020302020302020302020302020302020302020302020302020302020300A20202020332E353732342020202D302E3637343020202020302E303030302043202020302020302020302020302020302020302020302020302020302020302020302020300A20202020322E343435342020202D302E3337323020202020302E303030302043202020302020302020302020302020302020302020302020302020302020302020302020300A2020312020322020312020302020202020200A2020312020332020322020302020202020200A2020312020342020312020302020202020200A2020352020362020312020302020202020200A2020362020372020322020302020202020200A2020372020382020312020302020202020200A2020382020392020322020302020202020200A2020392031302020312020302020202020200A2020352031302020322020302020202020200A2020322020352020312020302020202020200A2031312031322020312020302020202020200A2031322031332020312020312020202020200A2031322031342020312020302020202020200A2031322031352020312020312020202020200A2020392031312020312020302020202020200A2031362031372020312020302020202020200A2031372031382020312020302020202020200A2031372031392020312020302020202020200A2031372032302020312020302020202020200A2020362031362020312020302020202020200A2032312032322020312020312020202020200A2032312032332020312020302020202020200A2032312032342020312020312020202020200A2020342032312020312020302020202020200A4D2020454E44
Contributor: KOGA M, UNIV. OF OCCUPATIONAL AND ENVIRONMENTAL HEALTH
InstType: EI
InstName: JEOL JMS-01-SG
IoniMethod: _ENERGY 70 eV
IonPolarity: pos
Date: 2010-10-09 19:48:36+02:00
Num Peaks: 17
45 146 47 52 73 999 74 7 75 239 77 65 147 243 194 9 237 117 252 166 
341 308 342 8 343 40 369 40 384 394 385 11 386 52 
