Name: ACETIC ACID (3-METHOXY-3-METHYL)BUTYL ESTER
MW: 160
Formula: C8H16O3
Synonym: MassBank: JP007670
Synonym: ACETIC ACID (3-METHOXY-3-METHYL)BUTYL ESTER
Structure: 41434554494320414349442028332D4D4554484F58592D332D4D455448594C29425554594C2045535445522E6D6F6C0A20204368656D447261773036323431303035353132440A2031312031302020302020302020302020302020302020302020302020303939392056323030300A20202020312E363930352020202D302E3035353320202020302E303030302043202020302020302020302020302020302020302020302020302020302020302020302020300A20202020322E343034392020202D302E3436373820202020302E303030302043202020302020302020302020302020302020302020302020302020302020302020302020300A20202020312E3639303520202020302E3736393720202020302E30303030204F202020302020302020302020302020302020302020302020302020302020302020302020300A20202020302E393736302020202D302E3436373820202020302E30303030204F202020302020302020302020302020302020302020302020302020302020302020302020300A20202020302E323631352020202D302E3035353320202020302E303030302043202020302020302020302020302020302020302020302020302020302020302020302020300A2020202D302E343533302020202D302E3436373820202020302E303030302043202020302020302020302020302020302020302020302020302020302020302020302020300A2020202D312E313637342020202D302E3035353320202020302E303030302043202020302020302020302020302020302020302020302020302020302020302020302020300A2020202D302E3735343920202020302E3635393220202020302E303030302043202020302020302020302020302020302020302020302020302020302020302020302020300A2020202D312E3838313920202020302E3335373220202020302E303030302043202020302020302020302020302020302020302020302020302020302020302020302020300A2020202D312E353739392020202D302E3736393720202020302E30303030204F202020302020302020302020302020302020302020302020302020302020302020302020300A2020202D322E343034392020202D302E3736393720202020302E303030302043202020302020302020302020302020302020302020302020302020302020302020302020300A2020312020322020312020302020202020200A2020312020332020322020302020202020200A2020312020342020312020302020202020200A2020352020362020312020302020202020200A2020362020372020312020302020202020200A2020372020382020312020302020202020200A2020372020392020312020302020202020200A2031302031312020312020302020202020200A2020372031302020312020302020202020200A2020342020352020312020302020202020200A4D2020454E44
Contributor: TAJIMA S, GUNMA COLLEGE OF TECHNOLOGY
InstType: EI
InstName: HITACHI RMU-7M
IoniMethod: _ENERGY 70 eV
IonPolarity: pos
Date: 2010-10-09 19:48:36+02:00
Num Peaks: 27
15 70 27 47 28 17 29 65 31 17 33 14 39 56 40 13 41 194 42 57 
43 522 44 15 45 60 53 20 55 196 56 26 57 25 67 19 68 20 69 158 
70 20 71 16 72 12 73 999 74 44 85 314 86 22 
