Name: MassBank: JP002089
MW: 248
Formula: C15H20O3
Synonym: MassBank: JP002089
Synonym: 8,12-EPOXYEUDESMA-4(14),7(11)-DIEN-8-OL-12-ONE
Synonym: ATRACTYLENOLIDE 3
Structure: 382C31322D45504F585945554445534D412D34283134292C37283131292D4449454E2D382D4F4C2D31322D4F4E452E6D6F6C0A20204368656D447261773035323431303138333632440A2031392032312020302020302020302020302020302020302020302020303939392056323030300A2020202D322E3437363220202020302E3230363220202020302E303030302043202020302020302020302020302020302020302020302020302020302020302020302020300A2020202D322E343736322020202D302E3631383820202020302E303030302043202020302020302020302020302020302020302020302020302020302020302020302020300A2020202D312E373631372020202D312E3033313320202020302E303030302043202020302020302020302020302020302020302020302020302020302020302020302020300A2020202D312E303437332020202D302E3631383820202020302E303030302043202020302020302020302020302020302020302020302020302020302020302020302020300A2020202D312E3034373320202020302E3230363220202020302E303030302043202020302020302020302020302020302020302020302020302020302020302020302020300A2020202D312E3736313720202020302E3631383820202020302E303030302043202020302020302020302020302020302020302020302020302020302020302020302020300A2020202D302E333332382020202D312E3033313320202020302E303030302043202020302020302020302020302020302020302020302020302020302020302020302020300A20202020302E333831372020202D302E3631383820202020302E303030302043202020302020302020302020302020302020302020302020302020302020302020302020300A20202020302E3338313720202020302E3230363220202020302E303030302043202020302020302020302020302020302020302020302020302020302020302020302020300A2020202D302E3333323820202020302E3631383820202020302E303030302043202020302020302020302020302020302020302020302020302020302020302020302020300A20202020312E313636332020202D302E3837333720202020302E30303030204F202020302020302020302020302020302020302020302020302020302020302020302020300A20202020312E363531322020202D302E3230363220202020302E303030302043202020302020302020302020302020302020302020302020302020302020302020302020300A20202020312E3136363320202020302E3436313220202020302E303030302043202020302020302020302020302020302020302020302020302020302020302020302020300A2020202D312E3736313720202020312E3434333820202020302E303030302043202020302020302020302020302020302020302020302020302020302020302020302020300A20202020312E3432313220202020312E3234353820202020302E303030302043202020302020302020302020302020302020302020302020302020302020302020302020300A20202020322E343736322020202D302E3230363220202020302E30303030204F202020302020302020302020302020302020302020302020302020302020302020302020300A2020202D312E3034373320202020312E3033313320202020302E303030302048202020302020302020302020302020302020302020302020302020302020302020302020300A2020202D312E303437332020202D312E3434333820202020302E303030302043202020302020302020302020302020302020302020302020302020302020302020302020300A20202020302E353935322020202D312E3431353620202020302E30303030204F202020302020302020302020302020302020302020302020302020302020302020302020300A2020312020322020312020302020202020200A2020322020332020312020302020202020200A2020332020342020312020302020202020200A2020342020352020312020302020202020200A2020352020362020312020302020202020200A2020362020312020312020302020202020200A2020342020372020312020302020202020200A2020372020382020312020302020202020200A2020382020392020312020302020202020200A2020392031302020312020302020202020200A2031302020352020312020302020202020200A2020382031312020312020302020202020200A2031312031322020312020302020202020200A2031322031332020312020302020202020200A2031332020392020322020302020202020200A2020362031342020322020302020202020200A2031332031352020312020302020202020200A2031322031362020322020302020202020200A2020352031372020312020312020202020200A2020342031382020312020362020202020200A2020382031392020312020362020202020200A4D2020454E44
Contributor: ENDO K, PHARMACEUTICAL INST., TOHOKU UNIV.
InstType: EI
InstName: HITACHI M-52
IoniMethod: _ENERGY 25 eV
IonPolarity: pos
Date: 2010-10-09 19:48:36+02:00
Num Peaks: 118
17 54 18 395 28 54 29 6 39 76 41 297 43 173 44 4 52 27 53 232 
54 49 55 22 56 38 57 60 65 54 66 3 67 227 68 141 69 254 70 5 
77 265 78 86 79 395 80 12 81 232 82 65 83 86 91 49 92 92 93 395 
94 108 95 16 96 43 97 32 98 81 99 8 103 70 104 49 105 389 106 10 
107 341 108 200 109 103 112 4 115 43 116 49 117 168 118 7 119 260 120 103 
121 486 122 16 123 81 124 49 125 27 126 7 127 49 128 70 129 108 130 6 
131 227 132 76 133 173 134 14 135 114 136 54 138 43 141 4 142 32 143 60 
144 43 145 22 146 168 147 849 148 195 149 10 150 60 151 38 157 54 158 3 
159 276 160 243 161 216 162 22 163 49 164 49 165 32 169 4 172 38 173 178 
174 287 175 24 176 60 177 92 178 32 185 5 186 65 187 303 188 135 189 7 
190 38 191 20 192 81 201 35 202 254 203 232 204 119 205 20 206 43 215 999 
216 178 217 4 220 297 221 49 230 822 231 18 233 32 248 92 
