Name: METHYL PELARGONATE
CAS: 1731-84-6
MW: 172
Formula: C10H20O2
Synonym: MassBank: JP006245
Synonym: METHYL PELARGONATE
Synonym: METHYL NONANOATE
Structure: 4D455448594C2050454C4152474F4E4154452E6D6F6C0A20204368656D447261773038313231303030333432440A2031322031312020302020302020302020302020302020302020302020303939392056323030300A2020202D322E3530303620202020302E3230363220202020302E303030302043202020302020302020302020302020302020302020302020302020302020302020302020300A2020202D312E373836322020202D302E3230363220202020302E303030302043202020302020302020302020302020302020302020302020302020302020302020302020300A2020202D312E3037313720202020302E3230363220202020302E303030302043202020302020302020302020302020302020302020302020302020302020302020302020300A2020202D302E333537322020202D302E3230363220202020302E303030302043202020302020302020302020302020302020302020302020302020302020302020302020300A20202020302E3335373220202020302E3230363220202020302E303030302043202020302020302020302020302020302020302020302020302020302020302020302020300A20202020312E303731372020202D302E3230363220202020302E303030302043202020302020302020302020302020302020302020302020302020302020302020302020300A20202020312E3738363220202020302E3230363320202020302E303030302043202020302020302020302020302020302020302020302020302020302020302020302020300A20202020322E353030362020202D302E3230363220202020302E303030302043202020302020302020302020302020302020302020302020302020302020302020302020300A20202020332E3231353120202020302E3230363320202020302E303030302043202020302020302020302020302020302020302020302020302020302020302020302020300A2020202D322E3530303620202020312E3033313320202020302E30303030204F202020302020302020302020302020302020302020302020302020302020302020302020300A2020202D332E323135312020202D302E3230363220202020302E30303030204F202020302020302020302020302020302020302020302020302020302020302020302020300A2020202D332E323135312020202D312E3033313320202020302E303030302043202020302020302020302020302020302020302020302020302020302020302020302020300A2020312020322020312020302020202020200A2020322020332020312020302020202020200A2020332020342020312020302020202020200A2020342020352020312020302020202020200A2020352020362020312020302020202020200A2020362020372020312020302020202020200A2020372020382020312020302020202020200A2020382020392020312020302020202020200A2020312031302020322020302020202020200A2020312031312020312020302020202020200A2031312031322020312020302020202020200A4D2020454E44
Contributor: MASS SPECTROSCOPY SOC. OF JAPAN (MSSJ)
InstType: EI
InstName: HITACHI M-80
IoniMethod: _ENERGY 70 eV
IonPolarity: pos
Date: 2010-10-09 19:48:36+02:00
Num Peaks: 63
39 29 40 9 41 236 42 52 43 199 44 8 45 12 53 10 54 10 55 156 
56 36 57 91 58 5 59 91 60 3 61 2 67 12 68 10 69 69 70 14 
71 40 72 3 73 19 74 999 75 89 76 7 77 1 79 3 81 10 82 2 
83 26 84 30 85 4 87 432 88 46 89 3 95 2 96 5 97 17 98 17 
99 3 100 2 101 53 102 4 111 5 112 8 113 2 115 18 116 4 122 1 
123 3 125 1 129 85 130 8 139 3 140 2 141 95 142 10 143 71 144 7 
172 31 173 11 174 1 
