Name: OCTAMETHYLTRISILANE
CAS: 3704-44-7
MW: 204
Formula: C8H24Si3
Synonym: MassBank: JP004802
Synonym: OCTAMETHYLTRISILANE
Structure: 4F4354414D455448594C54524953494C414E452E6D6F6C0A20204368656D447261773038313231303033313932440A2031312031302020302020302020302020302020302020302020302020303939392056323030300A2020202D302E3734343520202020302E3533363720202020302E303030302053692020302020302020302020302020302020302020302020302020302020302020302020300A2020202D302E333737372020202D302E3437313220202020302E303030302053692020302020302020302020302020302020302020302020302020302020302020302020300A20202020302E363738352020202D302E3238343920202020302E303030302053692020302020302020302020302020302020302020302020302020302020302020302020300A2020202D312E3131343820202020312E3237333920202020302E303030302043202020302020302020302020302020302020302020302020302020302020302020302020300A2020202D302E3033303120202020302E3934393220202020302E303030302043202020302020302020302020302020302020302020302020302020302020302020302020300A2020202D312E3530323120202020302E3230393920202020302E303030302043202020302020302020302020302020302020302020302020302020302020302020302020300A2020202D302E313837352020202D312E3237333920202020302E303030302043202020302020302020302020302020302020302020302020302020302020302020302020300A2020202D312E313638312020202D302E3730373820202020302E303030302043202020302020302020302020302020302020302020302020302020302020302020302020300A20202020302E3637383520202020302E3534303120202020302E303030302043202020302020302020302020302020302020302020302020302020302020302020302020300A20202020312E353032312020202D302E3233363920202020302E303030302043202020302020302020302020302020302020302020302020302020302020302020302020300A20202020302E373734332020202D312E3130343320202020302E303030302043202020302020302020302020302020302020302020302020302020302020302020302020300A2020312020322020312020302020202020200A2020322020332020312020302020202020200A2020312020342020312020302020202020200A2020312020352020312020302020202020200A2020312020362020312020302020202020200A2020322020372020312020302020202020200A2020322020382020312020302020202020200A2020332020392020312020302020202020200A2020332031302020312020302020202020200A2020332031312020312020302020202020200A4D2020454E44
Contributor: MASS SPECTROSCOPY SOC. OF JAPAN (MSSJ)
InstType: EI
InstName: JEOL JMS-D-3000
IoniMethod: _ENERGY 70 eV
IonPolarity: pos
Date: 2010-10-09 19:48:36+02:00
Num Peaks: 28
43 30 45 85 59 51 73 834 74 73 75 36 85 15 99 25 101 72 113 13 
115 119 116 466 117 85 118 38 129 55 130 20 131 999 132 168 133 84 145 54 
173 20 187 23 189 284 190 67 191 38 204 357 205 89 206 47 
