Name: 3-METHYL-1-BUTYN-3-OL
MW: 84
Formula: C5H8O
Synonym: MassBank: JP005326
Synonym: 3-METHYL-1-BUTYN-3-OL
Structure: 310A31360A332D4D455448594C2D312D425554594E2D332D4F4C2E6D6F6C0A20204368656D447261773032323231303233323132440A2020362020352020302020302020302020302020302020302020302020303939392056323030300A2020202D302E3030303020202020312E3233373520202020302E303030302043202020302020302020302020302020302020302020302020302020302020302020302020300A2020202D302E3030303020202020302E3431323520202020302E303030302043202020302020302020302020302020302020302020302020302020302020302020302020300A2020202D302E303030302020202D302E3431323520202020302E303030302043202020302020302020302020302020302020302020302020302020302020302020302020300A20202020302E383235302020202D302E3431323520202020302E303030302043202020302020302020302020302020302020302020302020302020302020302020302020300A2020202D302E303030302020202D312E3233373520202020302E30303030204F202020302020302020302020302020302020302020302020302020302020302020302020300A2020202D302E383235302020202D302E3431323520202020302E303030302043202020302020302020302020302020302020302020302020302020302020302020302020300A2020312020322020332020302020202020200A2020322020332020312020302020202020200A2020332020342020312020302020202020200A2020332020352020312020302020202020200A2020332020362020312020302020202020200A4D2020454E44
Contributor: YAMAMOTO M, DEP. CHEMISTRY, FAC. SCIENCE, NARA WOMEN'S UNIV.
InstType: EI
InstName: HITACHI RMU-6M
IoniMethod: _ENERGY 70 eV
IonPolarity: pos
Date: 2010-10-09 19:48:36+02:00
Num Peaks: 26
15 47 26 15 27 37 29 16 31 13 37 17 38 29 39 127 40 22 41 97 
42 20 43 417 44 13 49 11 50 36 51 43 53 45 55 21 56 13 65 12 
67 21 69 27 70 999 71 46 83 68 84 5 
