Name: MassBank: JP000240
MW: 129
Formula: C8H19N
Synonym: MassBank: JP000240
Synonym: 1,1,3,3-TETRAMETHYL-1-BUTYLAMINE
Structure: 310A32320A312C312C332C332D54455452414D455448594C2D312D425554594C414D494E452E6D6F6C0A20204368656D447261773130323330393031353632440A2020392020382020302020302020302020302020302020302020302020303939392056323030300A2020202D302E333032302020202D302E3731343520202020302E303030302043202020302020302020302020302020302020302020302020302020302020302020302020300A2020202D302E373134352020202D302E3030303020202020302E303030302043202020302020302020302020302020302020302020302020302020302020302020302020300A20202020302E3030303020202020302E3431323520202020302E303030302043202020302020302020302020302020302020302020302020302020302020302020302020300A20202020302E3731343520202020302E3030303020202020302E303030302043202020302020302020302020302020302020302020302020302020302020302020302020300A20202020312E3132373020202020302E3731343520202020302E303030302043202020302020302020302020302020302020302020302020302020302020302020302020300A20202020312E343238392020202D302E3431323520202020302E303030302043202020302020302020302020302020302020302020302020302020302020302020302020300A20202020302E333032302020202D302E3731343520202020302E303030302043202020302020302020302020302020302020302020302020302020302020302020302020300A2020202D312E343238392020202D302E3431323520202020302E30303030204E202020302020302020302020302020302020302020302020302020302020302020302020300A2020202D312E3132373020202020302E3731343520202020302E303030302043202020302020302020302020302020302020302020302020302020302020302020302020300A2020322020332020312020302020202020200A2020332020342020312020302020202020200A2020342020352020312020312020202020200A2020312020322020312020302020202020200A2020342020362020312020302020202020200A2020342020372020312020312020202020200A2020322020382020312020302020202020200A2020322020392020312020302020202020200A4D2020454E44
Contributor: YAMAMOTO M, DEP. CHEMISTRY, FAC. SCIENCE, NARA WOMEN'S UNIV.
InstType: EI
InstName: HITACHI RMU-6M
IoniMethod: _ENERGY 70 eV
IonPolarity: pos
Date: 2010-10-09 19:48:36+02:00
Num Peaks: 16
15 19 18 76 27 35 28 2 29 54 30 33 39 37 41 10 42 82 55 29 
560 280 570 80 58 999 59 38 72 21 114 30 
