Name: TETRABUTYLTIN
MW: 348
Formula: C16H36Sn
Synonym: MassBank: JP002171
Synonym: TETRABUTYLTIN
Structure: 5445545241425554594C54494E2E6D6F6C0A20204368656D447261773038313231303037313432440A2031372031362020302020302020302020302020302020302020302020303939392056323030300A20202020302E313635382020202D302E3435333020202020302E3030303020536E2020302020302020302020302020302020302020302020302020302020302020302020300A20202020302E3136353820202020302E3337323020202020302E303030302043202020302020302020302020302020302020302020302020302020302020302020302020300A2020202D302E3534383720202020302E3738343520202020302E303030302043202020302020302020302020302020302020302020302020302020302020302020302020300A2020202D312E3236333120202020302E3337323020202020302E303030302043202020302020302020302020302020302020302020302020302020302020302020302020300A2020202D312E3937373620202020302E3738343520202020302E303030302043202020302020302020302020302020302020302020302020302020302020302020302020300A20202020302E393930382020202D302E3435333020202020302E303030302043202020302020302020302020302020302020302020302020302020302020302020302020300A20202020312E3430333320202020302E3236313520202020302E303030302043202020302020302020302020302020302020302020302020302020302020302020302020300A20202020302E3939303820202020302E3937363020202020302E303030302043202020302020302020302020302020302020302020302020302020302020302020302020300A20202020312E3430333320202020312E3639303520202020302E303030302043202020302020302020302020302020302020302020302020302020302020302020302020300A20202020302E313635382020202D312E3237383020202020302E303030302043202020302020302020302020302020302020302020302020302020302020302020302020300A20202020302E383830332020202D312E3639303520202020302E303030302043202020302020302020302020302020302020302020302020302020302020302020302020300A20202020312E353934372020202D312E3237383020202020302E303030302043202020302020302020302020302020302020302020302020302020302020302020302020300A20202020322E333039322020202D312E3639303520202020302E303030302043202020302020302020302020302020302020302020302020302020302020302020302020300A2020202D302E363539322020202D302E3435333020202020302E303030302043202020302020302020302020302020302020302020302020302020302020302020302020300A2020202D312E303731372020202D312E3136373420202020302E303030302043202020302020302020302020302020302020302020302020302020302020302020302020300A2020202D312E383936372020202D312E3136373420202020302E303030302043202020302020302020302020302020302020302020302020302020302020302020302020300A2020202D322E333039322020202D302E3435333020202020302E303030302043202020302020302020302020302020302020302020302020302020302020302020302020300A2020322020332020312020302020202020200A2020332020342020312020302020202020200A2020342020352020312020302020202020200A2020312020322020312020302020202020200A2020362020372020312020302020202020200A2020372020382020312020302020202020200A2020382020392020312020302020202020200A2020312020362020312020302020202020200A2031302031312020312020302020202020200A2031312031322020312020302020202020200A2031322031332020312020302020202020200A2020312031302020312020302020202020200A2031342031352020312020302020202020200A2031352031362020312020302020202020200A2031362031372020312020302020202020200A2020312031342020312020302020202020200A4D2020454E44
Contributor: KOGA M, UNIV. OF OCCUPATIONAL AND ENVIRONMENTAL HEALTH
InstType: EI
InstName: VARIAN MAT-44
IoniMethod: _ENERGY 70 eV
IonPolarity: pos
Date: 2010-10-09 19:48:36+02:00
Num Peaks: 56
116 96 117 311 118 289 119 609 120 385 121 689 122 90 123 274 124 35 125 123 
127 35 131 54 133 42 135 52 145 48 147 94 148 41 149 111 151 70 171 40 
173 145 174 155 175 643 176 429 177 984 178 395 179 999 180 69 181 176 183 158 
203 42 204 30 205 69 206 35 207 85 230 49 231 363 232 296 233 621 234 351 
235 762 236 84 237 110 239 129 261 32 263 40 286 57 287 369 288 330 289 620 
290 413 291 749 292 121 293 113 294 35 295 126 
