Name: 3-HYDROXY-3-METHYL-2-PENTANONE
MW: 116
Formula: C6H12O2
Synonym: MassBank: JP008599
Synonym: 3-HYDROXY-3-METHYL-2-PENTANONE
Synonym: DIACETONE ALCOHOL
Structure: 310A32300A332D485944524F58592D332D4D455448594C2D322D50454E54414E4F4E452E6D6F6C0A20204368656D447261773032323231303231313732440A2020382020372020302020302020302020302020302020302020302020303939392056323030300A20202020302E323036322020202D302E3330323020202020302E303030302043202020302020302020302020302020302020302020302020302020302020302020302020300A2020202D302E363138382020202D302E3330323020202020302E303030302043202020302020302020302020302020302020302020302020302020302020302020302020300A2020202D302E3631383820202020302E3532333020202020302E303030302043202020302020302020302020302020302020302020302020302020302020302020302020300A2020202D302E363138382020202D312E3132373020202020302E303030302043202020302020302020302020302020302020302020302020302020302020302020302020300A2020202D312E343433382020202D302E3330323020202020302E30303030204F202020302020302020302020302020302020302020302020302020302020302020302020300A20202020302E3631383820202020302E3431323520202020302E303030302043202020302020302020302020302020302020302020302020302020302020302020302020300A20202020312E3434333820202020302E3431323520202020302E30303030204F202020302020302020302020302020302020302020302020302020302020302020302020300A20202020302E3230363220202020312E3132373020202020302E303030302043202020302020302020302020302020302020302020302020302020302020302020302020300A2020312020322020312020302020202020200A2020322020332020312020302020202020200A2020322020342020312020302020202020200A2020322020352020312020302020202020200A2020312020362020312020302020202020200A2020362020372020322020302020202020200A2020362020382020312020302020202020200A4D2020454E44
Contributor: SODA AROMATIC CO., LTD.
InstType: EI
InstName: HITACHI M-80B
IoniMethod: _ENERGY 70 eV
IonPolarity: pos
Date: 2010-10-09 19:48:36+02:00
Num Peaks: 19
15 84 26 13 27 59 29 34 31 84 39 53 41 64 42 48 43 999 44 19 
55 14 56 36 57 12 58 149 59 402 60 12 83 11 98 22 101 120 
