Name: CIS-BICYCLO(4.3.0)NONANE
MW: 124
Formula: C9H16
Synonym: MassBank: JP000135
Synonym: CIS-BICYCLO(4.3.0)NONANE
Synonym: CIS-HEXAHYDROINDANE
Structure: 4349532D42494359434C4F28342E332E30294E4F4E414E452E6D6F6C0A20204368656D447261773039313331303131353032440A2031312031322020302020302020302020302020302020302020302020303939392056323030300A2020202D302E343132352020202D302E3037393720202020302E303030302043202020302020302020302020302020302020302020302020302020302020302020302020300A2020202D302E3832353020202020302E3633343820202020302E303030302043202020302020302020302020302020302020302020302020302020302020302020302020300A2020202D302E3431323520202020312E3334393220202020302E303030302043202020302020302020302020302020302020302020302020302020302020302020302020300A20202020302E3431323520202020312E3334393220202020302E303030302043202020302020302020302020302020302020302020302020302020302020302020302020300A20202020302E3832353020202020302E3633343820202020302E303030302043202020302020302020302020302020302020302020302020302020302020302020302020300A20202020302E343132352020202D302E3037393720202020302E303030302043202020302020302020302020302020302020302020302020302020302020302020302020300A20202020302E363637342020202D302E3836343320202020302E303030302043202020302020302020302020302020302020302020302020302020302020302020302020300A20202020302E303030302020202D312E3334393220202020302E303030302043202020302020302020302020302020302020302020302020302020302020302020302020300A2020202D302E363637342020202D302E3836343320202020302E303030302043202020302020302020302020302020302020302020302020302020302020302020302020300A2020202D312E323333302020202D302E3136353920202020302E303030302048202020302020302020302020302020302020302020302020302020302020302020302020300A20202020312E323333302020202D302E3136353920202020302E303030302048202020302020302020302020302020302020302020302020302020302020302020302020300A2020312020322020312020302020202020200A2020322020332020312020302020202020200A2020332020342020312020302020202020200A2020342020352020312020302020202020200A2020352020362020312020302020202020200A2020362020372020312020302020202020200A2020372020382020312020302020202020200A2020382020392020312020302020202020200A2020312020392020312020302020202020200A2020312020362020312020302020202020200A2020312031302020312020362020202020200A2020362031312020312020362020202020200A4D2020454E44
Contributor: YAMAMOTO M, DEP. CHEMISTRY, FAC. SCIENCE, NARA WOMEN'S UNIV.
InstType: EI
InstName: HITACHI M-80
IoniMethod: _ENERGY 70 eV
IonPolarity: pos
Date: 2010-10-09 19:48:36+02:00
Num Peaks: 35
26 25 27 368 28 478 29 279 31 29 32 87 39 470 40 94 41 619 42 73 
43 50 44 46 51 58 52 24 53 177 54 377 55 365 56 31 65 43 66 131 
67 996 68 363 69 65 77 54 79 114 80 42 81 999 82 957 83 91 91 14 
95 235 96 799 97 66 124 224 125 23 
