Name: MassBank: JP005057
MW: 242
Formula: C16H22N2
Synonym: MassBank: JP005057
Synonym: 2-ISOBUTYL-8-METHYL-1,2,3,4-TETRAHYDRO-GAMMA-CARBOLINE
Structure: 322D49534F425554594C2D382D4D455448594C2D312C322C332C342D5445545241485944524F2D47414D4D412D434152424F4C494E452E6D6F6C0A20204368656D447261773031323231303030313032440A2031382032302020302020302020302020302020302020302020302020303939392056323030300A2020202D302E383535362020202D302E3330353520202020302E30303030204E202020302020302020302020302020302020302020302020302020302020302020302020300A2020202D302E383535362020202D312E3133303520202020302E303030302043202020302020302020302020302020302020302020302020302020302020302020302020300A2020202D302E313431312020202D312E3534333020202020302E303030302043202020302020302020302020302020302020302020302020302020302020302020302020300A20202020302E353733342020202D312E3133303520202020302E303030302043202020302020302020302020302020302020302020302020302020302020302020302020300A20202020302E353733342020202D302E3330353520202020302E303030302043202020302020302020302020302020302020302020302020302020302020302020302020300A2020202D302E3134313120202020302E3130373020202020302E303030302043202020302020302020302020302020302020302020302020302020302020302020302020300A20202020312E333538302020202D312E3338353520202020302E30303030204E202020302020302020302020302020302020302020302020302020302020302020302020300A20202020312E383432392020202D302E3731383020202020302E303030302043202020302020302020302020302020302020302020302020302020302020302020302020300A20202020312E333538302020202D302E3035303620202020302E303030302043202020302020302020302020302020302020302020302020302020302020302020302020300A20202020322E363633342020202D302E3633313820202020302E303030302043202020302020302020302020302020302020302020302020302020302020302020302020300A20202020322E3939393020202020302E3132313920202020302E303030302043202020302020302020302020302020302020302020302020302020302020302020302020300A20202020322E3531343020202020302E3738393320202020302E303030302043202020302020302020302020302020302020302020302020302020302020302020302020300A20202020312E3639333620202020302E3730333120202020302E303030302043202020302020302020302020302020302020302020302020302020302020302020302020300A20202020322E3834393620202020312E3534333020202020302E303030302043202020302020302020302020302020302020302020302020302020302020302020302020300A2020202D312E3537303020202020302E3130373020202020302E303030302043202020302020302020302020302020302020302020302020302020302020302020302020300A2020202D322E323834352020202D302E3330353520202020302E303030302043202020302020302020302020302020302020302020302020302020302020302020302020300A2020202D322E3939393020202020302E3130373020202020302E303030302043202020302020302020302020302020302020302020302020302020302020302020302020300A2020202D322E323834352020202D312E3133303520202020302E303030302043202020302020302020302020302020302020302020302020302020302020302020302020300A2020312020322020312020302020202020200A2020322020332020312020302020202020200A2020332020342020312020302020202020200A2020342020352020322020302020202020200A2020352020362020312020302020202020200A2020362020312020312020302020202020200A2020342020372020312020302020202020200A2020372020382020312020302020202020200A2020382020392020322020302020202020200A2020392020352020312020302020202020200A2020382031302020312020302020202020200A2031302031312020322020302020202020200A2031312031322020312020302020202020200A2031322031332020322020302020202020200A2031332020392020312020302020202020200A2031322031342020312020302020202020200A2020312031352020312020302020202020200A2031352031362020312020302020202020200A2031362031372020312020302020202020200A2031362031382020312020302020202020200A4D2020454E44
Contributor: SASAKI S, TOYOHASHI UNIV. OF TECH.
InstType: EI
InstName: Unknown
IoniMethod: _ENERGY 75 eV
IonPolarity: pos
Date: 2010-10-09 19:48:36+02:00
Num Peaks: 18
42 92 43 11 56 32 57 1 77 10 115 21 128 13 154 2 155 22 156 140 
157 999 158 18 170 63 198 16 199 380 200 4 241 110 242 310 
