Name: 4-(TERT-BUTOXYDIMETHYLSILYL)ACETOPHENONE
MW: 250
Formula: C14H22O2Si
Synonym: MassBank: JP001955
Synonym: 4-(TERT-BUTOXYDIMETHYLSILYL)ACETOPHENONE
Structure: 342D28544552542D4255544F585944494D455448594C53494C594C29414345544F5048454E4F4E452E6D6F6C0A20204368656D447261773033323531303033353732440A2031372031372020302020302020302020302020302020302020302020303939392056323030300A2020202D312E323738302020202D302E3039353720202020302E303030302043202020302020302020302020302020302020302020302020302020302020302020302020300A2020202D312E323738302020202D302E3932303720202020302E303030302043202020302020302020302020302020302020302020302020302020302020302020302020300A2020202D302E353633352020202D312E3333333220202020302E303030302043202020302020302020302020302020302020302020302020302020302020302020302020300A20202020302E313531302020202D302E3932303720202020302E303030302043202020302020302020302020302020302020302020302020302020302020302020302020300A20202020302E313531302020202D302E3039353720202020302E303030302043202020302020302020302020302020302020302020302020302020302020302020302020300A2020202D302E3536333520202020302E3331363820202020302E303030302043202020302020302020302020302020302020302020302020302020302020302020302020300A2020202D302E353633352020202D322E3135383220202020302E303030302043202020302020302020302020302020302020302020302020302020302020302020302020300A2020202D312E323738302020202D322E3537303720202020302E30303030204F202020302020302020302020302020302020302020302020302020302020302020302020300A20202020302E313531302020202D322E3537303720202020302E303030302043202020302020302020302020302020302020302020302020302020302020302020302020300A2020202D302E3536333520202020312E3134313820202020302E303030302043202020302020302020302020302020302020302020302020302020302020302020302020300A2020202D302E3536333520202020312E3936363820202020302E303030302043202020302020302020302020302020302020302020302020302020302020302020302020300A20202020302E3236313520202020312E3134313820202020302E30303030204F202020302020302020302020302020302020302020302020302020302020302020302020300A2020202D312E3338383520202020312E3134313820202020302E303030302043202020302020302020302020302020302020302020302020302020302020302020302020300A20202020302E3637343020202020312E3835363320202020302E303030302043202020302020302020302020302020302020302020302020302020302020302020302020300A20202020312E3038363520202020322E3537303720202020302E303030302043202020302020302020302020302020302020302020302020302020302020302020302020300A2020202D302E3034303520202020322E3236383820202020302E303030302043202020302020302020302020302020302020302020302020302020302020302020302020300A20202020312E3338383520202020312E3434333820202020302E303030302043202020302020302020302020302020302020302020302020302020302020302020302020300A2020312020322020322020302020202020200A2020322020332020312020302020202020200A2020332020342020322020302020202020200A2020342020352020312020302020202020200A2020352020362020322020302020202020200A2020362020312020312020302020202020200A2020332020372020312020302020202020200A2020372020382020322020302020202020200A2020372020392020312020302020202020200A2020362031302020312020302020202020200A2031302031312020312020302020202020200A2031302031322020312020302020202020200A2031302031332020312020302020202020200A2031322031342020312020302020202020200A2031342031352020312020302020202020200A2031342031362020312020312020202020200A2031342031372020312020312020202020200A4D2020454E44
Contributor: MASS SPECTROSCOPY SOC. OF JAPAN (MSSJ)
InstType: EI
InstName: JEOL JMS-D-3000
IoniMethod: _ENERGY 70 eV
IonPolarity: pos
Date: 2010-10-09 19:48:36+02:00
Num Peaks: 24
42 33 44 58 46 23 75 66 77 19 81 64 91 26 103 15 110 94 115 16 
119 59 121 22 134 61 135 24 136 41 177 428 178 81 179 999 180 161 181 33 
235 675 236 129 237 38 250 12 
