Name: METYL 2(S)-(TERT-BUTOXYCARBONYL)AMINO-4-METHYLPENTANOATE
MW: 245
Formula: C12H23NO4
Synonym: MassBank: JP005444
Synonym: METYL 2(S)-(TERT-BUTOXYCARBONYL)AMINO-4-METHYLPENTANOATE
Synonym: (S)-N-(TERT-BUTOXYCARBONYL)LEUCINE METHY ESTER
Structure: 2853292D4E2D28544552542D4255544F5859434152424F4E594C294C455543494E45204D455448592045535445522E6D6F6C0A20204368656D447261773130323230393139323032440A2031382031372020302020302020302020302020302020302020302020303939392056323030300A20202020302E3731333320202020302E3030313020202020302E303030302043202020302020302020302020302020302020302020302020302020302020302020302020300A2020202D312E343238392020202D302E3832343020202020302E30303030204F202020302020302020302020302020302020302020302020302020302020302020302020300A2020202D302E373134352020202D302E3431313520202020302E303030302043202020302020302020302020302020302020302020302020302020302020302020302020300A20202020302E303030302020202D302E3832343020202020302E30303030204E202020302020302020302020302020302020302020302020302020302020302020302020300A2020202D302E3731343520202020302E3431333520202020302E30303030204F202020302020302020302020302020302020302020302020302020302020302020302020300A2020202D322E313433332020202D302E3431313520202020302E303030302043202020302020302020302020302020302020302020302020302020302020302020302020300A2020202D322E3835373820202020302E3030313020202020302E303030302043202020302020302020302020302020302020302020302020302020302020302020302020300A2020202D312E3733303820202020302E3330333020202020302E303030302043202020302020302020302020302020302020302020302020302020302020302020302020300A2020202D322E353535382020202D312E3132353920202020302E303030302043202020302020302020302020302020302020302020302020302020302020302020302020300A20202020302E373134352020202D302E3431313520202020302E303030302043202020302020302020302020302020302020302020302020302020302020302020302020300A20202020312E343238392020202D302E3832343020202020302E303030302043202020302020302020302020302020302020302020302020302020302020302020302020300A20202020322E313433332020202D302E3431313520202020302E303030302043202020302020302020302020302020302020302020302020302020302020302020302020300A20202020322E383537382020202D302E3832343020202020302E303030302043202020302020302020302020302020302020302020302020302020302020302020302020300A20202020322E3134333320202020302E3431333520202020302E303030302043202020302020302020302020302020302020302020302020302020302020302020302020300A20202020302E373134352020202D312E3233363420202020302E303030302048202020302020302020302020302020302020302020302020302020302020302020302020300A20202020312E3432363520202020302E3431353620202020302E30303030204F202020302020302020302020302020302020302020302020302020302020302020302020300A2020202D302E3030323420202020302E3431313420202020302E30303030204F202020302020302020302020302020302020302020302020302020302020302020302020300A2020202D302E3030323420202020312E3233363420202020302E303030302043202020302020302020302020302020302020302020302020302020302020302020302020300A2020322020332020312020302020202020200A2020332020342020312020302020202020200A2020332020352020322020302020202020200A2020322020362020312020302020202020200A2020362020372020312020302020202020200A2020362020382020312020302020202020200A2020362020392020312020302020202020200A2020342031302020312020302020202020200A2031302031312020312020302020202020200A2031312031322020312020302020202020200A2031322031332020312020302020202020200A2031322031342020312020302020202020200A2031302031352020312020312020202020200A2031302020312020312020312020202020200A2020312031362020322020302020202020200A2020312031372020312020302020202020200A2031372031382020312020302020202020200A4D2020454E44
Contributor: HIRAMA M, TOHOKU UNIV. FACULTY OF SCIENCE DEPT. OF CHEMISTRY YUKIBUNSEKI
InstType: EI
InstName: HITACHI M-52
IoniMethod: _ENERGY 14 eV
IonPolarity: pos
Date: 2010-10-09 19:48:36+02:00
Num Peaks: 46
18 17 41 9 43 21 55 1 56 31 57 620 58 6 59 2 69 9 74 13 
82 7 83 0 84 3 85 7 86 701 87 3 88 42 101 11 112 11 113 1 
128 10 129 7 130 999 131 5 132 9 133 42 140 90 141 3 142 15 143 4 
144 107 145 1 146 13 147 3 154 12 157 1 158 13 172 44 174 12 186 45 
187 55 188 11 189 15 190 3 191 4 246 7 
