Name: MassBank: JP009339
MW: 166
Formula: C11H18O
Synonym: MassBank: JP009339
Synonym: 1,4,4A,5,6,7,8,8A-OCTAHYDRO-4A-METHYL-2(3H)-NAPHTHALENONE
Structure: 312C342C34412C352C362C372C382C38412D4F435441485944524F2D34412D4D455448594C2D32283348292D4E4150485448414C454E4F4E452E6D6F6C0A20204368656D447261773131313230393132303832440A2031322031332020302020302020302020302020302020302020302020303939392056323030300A2020202D302E3335373220202020312E3033313320202020302E303030302043202020302020302020302020302020302020302020302020302020302020302020302020300A2020202D312E3037313720202020302E3631383720202020302E303030302043202020302020302020302020302020302020302020302020302020302020302020302020300A2020202D312E303731372020202D302E3230363320202020302E303030302043202020302020302020302020302020302020302020302020302020302020302020302020300A2020202D302E333537322020202D302E3631383820202020302E303030302043202020302020302020302020302020302020302020302020302020302020302020302020300A20202020302E333537322020202D302E3230363220202020302E303030302043202020302020302020302020302020302020302020302020302020302020302020302020300A20202020312E303731372020202D302E3631383720202020302E303030302043202020302020302020302020302020302020302020302020302020302020302020302020300A20202020312E373836322020202D302E3230363220202020302E303030302043202020302020302020302020302020302020302020302020302020302020302020302020300A20202020312E3738363220202020302E3631383820202020302E303030302043202020302020302020302020302020302020302020302020302020302020302020302020300A20202020312E3037313720202020312E3033313320202020302E303030302043202020302020302020302020302020302020302020302020302020302020302020302020300A20202020302E3335373220202020302E3631383720202020302E303030302043202020302020302020302020302020302020302020302020302020302020302020302020300A2020202D312E3738363220202020312E3033313220202020302E30303030204F202020302020302020302020302020302020302020302020302020302020302020302020300A20202020302E333537322020202D312E3033313320202020302E303030302043202020302020302020302020302020302020302020302020302020302020302020302020300A2020312020322020312020302020202020200A2020322020332020312020302020202020200A2020332020342020312020302020202020200A2020342020352020312020302020202020200A2020352020362020312020302020202020200A2020362020372020312020302020202020200A2020372020382020312020302020202020200A2020382020392020312020302020202020200A2020392031302020312020302020202020200A2020312031302020312020302020202020200A2020352031302020312020302020202020200A2020322031312020322020302020202020200A2020352031322020312020302020202020200A4D2020454E44
Contributor: YAMAMOTO M, DEP. CHEMISTRY, FAC. SCIENCE, NARA WOMEN'S UNIV.
InstType: EI
InstName: HITACHI RMU-6M
IoniMethod: _ENERGY 70 eV
IonPolarity: pos
Date: 2010-10-09 19:48:36+02:00
Num Peaks: 62
15 23 26 26 27 444 28 15 29 339 38 22 39 542 40 12 41 999 42 74 
43 101 50 3 51 93 52 71 53 348 54 16 55 650 56 103 57 115 63 3 
65 95 66 66 67 689 68 32 69 525 70 63 71 63 77 13 78 32 79 210 
80 70 81 58 82 170 83 77 84 258 85 3 91 93 92 30 93 188 94 40 
95 644 96 353 97 120 98 13 105 36 106 15 107 61 109 57 110 224 111 530 
112 49 119 3 122 93 123 130 124 58 133 7 137 126 138 32 148 45 151 10 
166 605 167 76 
