Name: 1H-TETRAZOLE
CAS: 288-94-8
MW: 70
Formula: CH2N4
Synonym: MassBank: JP009497
Synonym: 1H-TETRAZOLE
Structure: 310A31350A31482D54455452415A4F4C452E6D6F6C0A20204368656D447261773132313130393031323732440A2020352020352020302020302020302020302020302020302020302020303939392056323030300A2020202D302E343132352020202D302E3633343820202020302E30303030204E202020302020302020302020302020302020302020302020302020302020302020302020300A2020202D302E3636373420202020302E3134393820202020302E30303030204E202020302020302020302020302020302020302020302020302020302020302020302020300A20202020302E3030303020202020302E3633343820202020302E30303030204E202020302020302020302020302020302020302020302020302020302020302020302020300A20202020302E3636373420202020302E3134393820202020302E30303030204E202020302020302020302020302020302020302020302020302020302020302020302020300A20202020302E343132352020202D302E3633343820202020302E303030302043202020302020302020302020302020302020302020302020302020302020302020302020300A2020312020322020312020302020202020200A2020322020332020322020302020202020200A2020332020342020312020302020202020200A2020342020352020322020302020202020200A2020312020352020312020302020202020200A4D2020454E44
Contributor: NARA WOMEN'S UNIVERSITY
InstType: EI
InstName: HITACHI M-80
IoniMethod: _ENERGY 70 eV
IonPolarity: pos
Date: 2010-10-09 19:48:36+02:00
Num Peaks: 16
12 30 13 117 14 100 15 35 26 31 27 107 28 216 29 246 40 14 41 145 
42 999 43 53 44 5 70 13 71 96 72 3 
