Name: MassBank: JP004279
CAS: 6117-80-2
MW: 88
Formula: C4H8O2
Synonym: MassBank: JP004279
Synonym: (Z)-2-BUTEN-1,4-DIOL
Structure: 310A32300A285A292D322D425554454E2D312C342D44494F4C2E6D6F6C0A20204368656D447261773130323230393230303532440A2020382020372020302020302020302020302020302020302020302020303939392056323030300A2020202D302E343132352020202D302E3030303020202020302E303030302043202020302020302020302020302020302020302020302020302020302020302020302020300A20202020302E343132352020202D302E3030303020202020302E303030302043202020302020302020302020302020302020302020302020302020302020302020302020300A20202020302E383235302020202D302E3731343520202020302E303030302048202020302020302020302020302020302020302020302020302020302020302020302020300A2020202D302E383235302020202D302E3731343520202020302E303030302048202020302020302020302020302020302020302020302020302020302020302020302020300A20202020302E3832353020202020302E3731343520202020302E303030302043202020302020302020302020302020302020302020302020302020302020302020302020300A2020202D302E3832353020202020302E3731343520202020302E303030302043202020302020302020302020302020302020302020302020302020302020302020302020300A20202020312E3635303020202020302E3731343520202020302E30303030204F202020302020302020302020302020302020302020302020302020302020302020302020300A2020202D312E3635303020202020302E3731343520202020302E30303030204F202020302020302020302020302020302020302020302020302020302020302020302020300A2020312020322020322020302020202020200A2020322020332020312020302020202020200A2020312020342020312020302020202020200A2020322020352020312020302020202020200A2020312020362020312020302020202020200A2020352020372020312020302020202020200A2020362020382020312020302020202020200A4D2020454E44
Contributor: TAJIMA S, GUNMA COLLEGE OF TECHNOLOGY
InstType: EI
InstName: HITACHI RMU-7M
IoniMethod: _ENERGY 70 eV
IonPolarity: pos
Date: 2010-10-09 19:48:36+02:00
Num Peaks: 32
15 30 19 23 26 90 27 353 28 150 29 466 30 41 31 285 37 79 38 126 
39 999 40 203 41 723 42 818 43 293 44 182 45 82 47 71 49 21 50 79 
51 75 52 35 53 147 54 196 55 109 56 36 57 347 58 94 68 53 69 137 
70 187 71 68 
