Name: 3-CHLORO-1-PHENYLPYRAZOLE
MW: 178
Formula: C9H7ClN2
Synonym: MassBank: JP002014
Synonym: 3-CHLORO-1-PHENYLPYRAZOLE
Structure: 332D43484C4F524F2D312D5048454E594C505952415A4F4C452E6D6F6C0A20204368656D447261773032323231303134343932440A2031322031332020302020302020302020302020302020302020302020303939392056323030300A20202020302E323639302020202D302E3039313520202020302E30303030204E202020302020302020302020302020302020302020302020302020302020302020302020300A20202020302E3735333920202020302E3537363020202020302E30303030204E202020302020302020302020302020302020302020302020302020302020302020302020300A20202020312E3533383620202020302E3332313020202020302E303030302043202020302020302020302020302020302020302020302020302020302020302020302020300A20202020312E353338362020202D302E3530343020202020302E303030302043202020302020302020302020302020302020302020302020302020302020302020302020300A20202020302E373533392020202D302E3735383920202020302E303030302043202020302020302020302020302020302020302020302020302020302020302020302020300A2020202D302E353536302020202D302E3039313520202020302E303030302043202020302020302020302020302020302020302020302020302020302020302020302020300A2020202D302E393638352020202D302E3830353920202020302E303030302043202020302020302020302020302020302020302020302020302020302020302020302020300A2020202D312E373933352020202D302E3830353920202020302E303030302043202020302020302020302020302020302020302020302020302020302020302020302020300A2020202D322E323036302020202D302E3039313520202020302E303030302043202020302020302020302020302020302020302020302020302020302020302020302020300A2020202D312E3739333520202020302E3632333020202020302E303030302043202020302020302020302020302020302020302020302020302020302020302020302020300A2020202D302E3936383520202020302E3632333020202020302E303030302043202020302020302020302020302020302020302020302020302020302020302020302020300A20202020322E3230363020202020302E3830353920202020302E3030303020436C2020302020302020302020302020302020302020302020302020302020302020302020300A2020312020322020312020302020202020200A2020322020332020322020302020202020200A2020332020342020312020302020202020200A2020342020352020322020302020202020200A2020312020352020312020302020202020200A2020362020372020312020302020202020200A2020372020382020322020302020202020200A2020382020392020312020302020202020200A2020392031302020322020302020202020200A2031302031312020312020302020202020200A2020362031312020322020302020202020200A2020312020362020312020302020202020200A2020332031322020312020302020202020200A4D2020454E44
Contributor: SASAKI S, TOYOHASHI UNIV. OF TECH.
InstType: EI
InstName: MX-1303
IoniMethod: _ENERGY 50 eV
IonPolarity: pos
Date: 2010-10-09 19:48:36+02:00
Num Peaks: 55
26 40 27 92 28 47 36 2 38 107 39 241 40 62 41 2 47 28 49 16 
50 158 51 55 52 156 53 17 61 17 62 6 63 151 640 111 65 102 66 2 
71 25 71.5 17 72 26 73 4 74 50 75 81 76 62 77 65 78 75 88 26 
89 217 90 12 91 39 102 14 103 20 104 9 114 32 115 113 116 454 117 9 
124 62 126 15 141 17 142 19 143 362 144 43 151 68 152 7 153 27 154 22 
177 18 178 999 179 124 180 333 181 39 
