Name: 2-ACETYLTHIAZOLE
MW: 127
Formula: C5H5NOS
Synonym: MassBank: JP007803
Synonym: 2-ACETYLTHIAZOLE
Structure: 310A32310A322D41434554594C544849415A4F4C452E6D6F6C0A20204368656D447261773132323130393232303432440A2020382020382020302020302020302020302020302020302020302020303939392056323030300A2020202D302E3436383920202020302E3636373420202020302E303030302053202020302020302020302020302020302020302020302020302020302020302020302020300A20202020302E303136302020202D302E3030303020202020302E303030302043202020302020302020302020302020302020302020302020302020302020302020302020300A2020202D302E343638392020202D302E3636373420202020302E30303030204E202020302020302020302020302020302020302020302020302020302020302020302020300A2020202D312E323533352020202D302E3431323520202020302E303030302043202020302020302020302020302020302020302020302020302020302020302020302020300A2020202D312E3235333520202020302E3431323520202020302E303030302043202020302020302020302020302020302020302020302020302020302020302020302020300A20202020302E383431302020202D302E3030303020202020302E303030302043202020302020302020302020302020302020302020302020302020302020302020302020300A20202020312E3235333520202020302E3731343520202020302E30303030204F202020302020302020302020302020302020302020302020302020302020302020302020300A20202020312E323533352020202D302E3731343520202020302E303030302043202020302020302020302020302020302020302020302020302020302020302020302020300A2020312020322020312020302020202020200A2020322020332020322020302020202020200A2020332020342020312020302020202020200A2020342020352020322020302020202020200A2020312020352020312020302020202020200A2020362020372020322020302020202020200A2020362020382020312020302020202020200A2020322020362020312020302020202020200A4D2020454E44
Contributor: HASHIMOTO K, KYOTO COLLEGE OF PHARMACY
InstType: EI
InstName: HITACHI M-80
IoniMethod: _ENERGY 20 eV
IonPolarity: pos
Date: 2010-10-09 19:48:36+02:00
Num Peaks: 18
42 20 43 999 44 29 57 109 58 320 59 56 83 10 84 61 85 127 99 484 
100 32 101 21 112 243 113 10 114 10 127 366 128 20 129 11 
