Name: IMIDAZOLE
CAS: 288-32-4
MW: 68
Formula: C3H4N2
Synonym: MassBank: JP005749
Synonym: IMIDAZOLE
Structure: 310A31350A494D4944415A4F4C452E6D6F6C0A20204368656D447261773038313131303230353032440A2020352020352020302020302020302020302020302020302020302020303939392056323030300A20202020302E3431323520202020302E3633343820202020302E303030302043202020302020302020302020302020302020302020302020302020302020302020302020300A20202020302E363637342020202D302E3134393820202020302E30303030204E202020302020302020302020302020302020302020302020302020302020302020302020300A20202020302E303030302020202D302E3633343820202020302E303030302043202020302020302020302020302020302020302020302020302020302020302020302020300A2020202D302E363637342020202D302E3134393820202020302E303030302043202020302020302020302020302020302020302020302020302020302020302020302020300A2020202D302E3431323520202020302E3633343820202020302E30303030204E202020302020302020302020302020302020302020302020302020302020302020302020300A2020312020322020322020302020202020200A2020322020332020312020302020202020200A2020332020342020322020302020202020200A2020342020352020312020302020202020200A2020312020352020312020302020202020200A4D2020454E44
Contributor: MASS SPECTROSCOPY SOC. OF JAPAN (MSSJ)
InstType: EI
InstName: HITACHI M-80
IoniMethod: _ENERGY 70 eV
IonPolarity: pos
Date: 2010-10-09 19:48:36+02:00
Num Peaks: 9
26 21 28 224 38 62 39 91 40 313 41 586 67 101 68 999 69 97 
