Name: CHLOROACETIC ACID METHYL ESTER
MW: 107
Formula: C3H5ClO2
Synonym: MassBank: JP005275
Synonym: CHLOROACETIC ACID METHYL ESTER
Synonym: METHYL CHLOROACETATE
Structure: 310A31360A43484C4F524F4143455449432041434944204D455448594C2045535445522E6D6F6C0A20204368656D447261773039303731303034323032440A2020362020352020302020302020302020302020302020302020302020303939392056323030300A20202020302E3030303020202020302E3030303020202020302E303030302043202020302020302020302020302020302020302020302020302020302020302020302020300A20202020302E343132352020202D302E3731343520202020302E303030302043202020302020302020302020302020302020302020302020302020302020302020302020300A20202020302E3431323520202020302E3731343520202020302E30303030204F202020302020302020302020302020302020302020302020302020302020302020302020300A2020202D302E3832353020202020302E3030303020202020302E30303030204F202020302020302020302020302020302020302020302020302020302020302020302020300A20202020312E323337352020202D302E3731343520202020302E3030303020436C2020302020302020302020302020302020302020302020302020302020302020302020300A2020202D312E323337352020202D302E3731343520202020302E303030302043202020302020302020302020302020302020302020302020302020302020302020302020300A2020312020322020312020302020202020200A2020312020332020322020302020202020200A2020312020342020312020302020202020200A2020322020352020312020302020202020200A2020342020362020312020302020202020200A4D2020454E44
Contributor: YAMAMOTO M, DEP. CHEMISTRY, FAC. SCIENCE, NARA WOMEN'S UNIV.
InstType: EI
InstName: HITACHI RMU-6M
IoniMethod: _ENERGY 70 eV
IonPolarity: pos
Date: 2010-10-09 19:48:36+02:00
Num Peaks: 27
13 19 14 65 15 433 27 14 28 61 29 204 30 13 31 33 41 18 42 124 
43 13 45 29 47 18 48 38 49 484 50 17 51 156 59 999 60 24 64 192 
66 60 76 26 77 312 78 14 79 98 108 104 110 33 
