Name: MassBank: JP006717
MW: 231
Formula: C14H17NO2
Synonym: MassBank: JP006717
Synonym: N-(3,3-DIDEUTERO-3-PHENYLPROPIONYL)PIPERIDIN-2-ONE
Structure: 313138365F4E2D28332C332D44494445555445524F2D332D5048454E594C50524F50494F4E594C2950495045524944494E2D322D4F4E452E6D6F6C0A20204368656D447261773039303731303131333332440A2031392032302020302020302020302020302020302020302020302020303939392056323030300A2020202D312E3432383320202020302E3431313820202020302E30303030204E202020302020302020302020302020302020302020302020302020302020302020302020300A2020202D322E3134333420202020302E3030303020202020302E303030302043202020302020302020302020302020302020302020302020302020302020302020302020300A2020202D322E3835373920202020302E3431323520202020302E303030302043202020302020302020302020302020302020302020302020302020302020302020302020300A2020202D322E3835373920202020312E3233373520202020302E303030302043202020302020302020302020302020302020302020302020302020302020302020302020300A2020202D322E3134333420202020312E3635303020202020302E303030302043202020302020302020302020302020302020302020302020302020302020302020302020300A2020202D312E3432383920202020312E3233373520202020302E303030302043202020302020302020302020302020302020302020302020302020302020302020302020300A2020202D322E313432342020202D302E3832353020202020302E30303030204F202020302020302020302020302020302020302020302020302020302020302020302020300A2020202D302E3731343520202020302E3030303020202020302E303030302043202020302020302020302020302020302020302020302020302020302020302020302020300A2020202D302E373134352020202D302E3832353020202020302E30303030204F202020302020302020302020302020302020302020302020302020302020302020302020300A2020202D302E3030303020202020302E3431323520202020302E303030302043202020302020302020302020302020302020302020302020302020302020302020302020300A20202020302E3731343420202020302E3030303020202020302E303030302043202020302020302020302020302020302020302020302020302020302020302020302020300A20202020312E3132373020202020302E3731333720202020302E303030302048202020312020302020302020302020302020302020302020302020302020302020302020300A20202020302E333033322020202D302E3731353520202020302E303030302048202020312020302020302020302020302020302020302020302020302020302020302020300A20202020312E343238392020202D302E3431323520202020302E303030302043202020302020302020302020302020302020302020302020302020302020302020302020300A20202020312E343238392020202D312E3233373520202020302E303030302043202020302020302020302020302020302020302020302020302020302020302020302020300A20202020322E313433342020202D312E3635303020202020302E303030302043202020302020302020302020302020302020302020302020302020302020302020302020300A20202020322E383537392020202D312E3233373520202020302E303030302043202020302020302020302020302020302020302020302020302020302020302020302020300A20202020322E383537392020202D302E3431323520202020302E303030302043202020302020302020302020302020302020302020302020302020302020302020302020300A20202020322E3134333420202020302E3030303020202020302E303030302043202020302020302020302020302020302020302020302020302020302020302020302020300A2020312020322020312020302020202020200A2020322020332020312020302020202020200A2020332020342020312020302020202020200A2020342020352020312020302020202020200A2020352020362020312020302020202020200A2020312020362020312020302020202020200A2020322020372020322020302020202020200A2020382020392020322020302020202020200A2020382031302020312020302020202020200A2031302031312020312020302020202020200A2031312031322020312020312020202020200A2031312031342020312020302020202020200A2031312031332020312020312020202020200A2020312020382020312020302020202020200A2031342031352020322020302020202020200A2031352031362020312020302020202020200A2031362031372020322020302020202020200A2031372031382020312020302020202020200A2031382031392020322020302020202020200A2031342031392020312020302020202020200A4D202049534F202032202031322020203220203133202020320A4D2020454E44
Contributor: MASS SPECTROSCOPY SOC. OF JAPAN (MSSJ)
InstType: EI
InstName: HITACHI RMU-6G
IoniMethod: _ENERGY 20 eV
IonPolarity: pos
Date: 2010-10-09 19:48:36+02:00
Num Peaks: 40
55 80 56 60 57 40 70 20 71 60 72 30 78 20 79 30 80 20 81 30 
82 50 83 10 84 50 85 20 91 20 92 20 93 260 94 20 98 60 99 140 
100 520 101 999 102 100 104 40 105 700 106 190 107 190 112 160 113 50 114 20 
132 40 133 90 134 70 135 20 140 40 141 30 233 360 234 190 235 170 236 30 
