Name: ALLYL 3-CYCLOHEXYLPROPIONATE
MW: 196
Formula: C12H20O2
Synonym: MassBank: JP006489
Synonym: ALLYL 3-CYCLOHEXYLPROPIONATE
Structure: 414C4C594C20332D4359434C4F484558594C50524F50494F4E4154452E6D6F6C0A20204368656D447261773038303631303034303832440A2031342031342020302020302020302020302020302020302020302020303939392056323030300A2020202D302E3631383820202020302E3335373220202020302E303030302043202020302020302020302020302020302020302020302020302020302020302020302020300A20202020302E3230363220202020302E3335373220202020302E303030302043202020302020302020302020302020302020302020302020302020302020302020302020300A20202020302E363138382020202D302E3335373220202020302E303030302043202020302020302020302020302020302020302020302020302020302020302020302020300A2020202D312E3033313320202020312E3037313720202020302E30303030204F202020302020302020302020302020302020302020302020302020302020302020302020300A2020202D312E303331332020202D302E3335373220202020302E30303030204F202020302020302020302020302020302020302020302020302020302020302020302020300A20202020312E343433372020202D302E3335373220202020302E303030302043202020302020302020302020302020302020302020302020302020302020302020302020300A20202020312E3835363320202020302E3335373220202020302E303030302043202020302020302020302020302020302020302020302020302020302020302020302020300A20202020322E3638313220202020302E3335373220202020302E303030302043202020302020302020302020302020302020302020302020302020302020302020302020300A20202020332E303933382020202D302E3335373220202020302E303030302043202020302020302020302020302020302020302020302020302020302020302020302020300A20202020322E363831322020202D312E3037313720202020302E303030302043202020302020302020302020302020302020302020302020302020302020302020302020300A20202020312E383536322020202D312E3037313720202020302E303030302043202020302020302020302020302020302020302020302020302020302020302020302020300A2020202D312E383536332020202D302E3335373220202020302E303030302043202020302020302020302020302020302020302020302020302020302020302020302020300A2020202D322E323638382020202D312E3037313720202020302E303030302043202020302020302020302020302020302020302020302020302020302020302020302020300A2020202D332E303933382020202D312E3037313720202020302E303030302043202020302020302020302020302020302020302020302020302020302020302020302020300A2020312020322020312020302020202020200A2020322020332020312020302020202020200A2020312020342020322020302020202020200A2020312020352020312020302020202020200A2020362020372020312020302020202020200A2020372020382020312020302020202020200A2020382020392020312020302020202020200A2020392031302020312020302020202020200A2031302031312020312020302020202020200A2020362031312020312020302020202020200A2020332020362020312020302020202020200A2031322031332020312020302020202020200A2031332031342020322020302020202020200A2020352031322020312020302020202020200A4D2020454E44
Contributor: HISAHIRO HAGIWARA, CHEMICAL RESEARCH INSTITUTE OF NON-AQUEOUSSOLUTIONS TOHOKU UNIV.
InstType: EI
InstName: HITACHI M-80B
IoniMethod: _ENERGY 70 eV
IonPolarity: pos
Date: 2010-10-09 19:48:36+02:00
Num Peaks: 61
15 13 26 13 27 167 28 39 29 186 31 11 38 11 39 354 40 46 41 999 
42 88 43 152 45 14 51 15 53 91 54 167 55 817 56 141 57 122 58 66 
60 32 65 19 66 11 67 251 68 50 69 219 70 14 71 48 73 18 77 20 
79 79 80 15 81 131 82 53 83 147 85 22 91 33 93 147 94 49 95 620 
96 165 97 296 98 21 99 27 100 389 101 111 109 133 110 19 111 11 113 344 
114 23 119 134 120 15 121 312 122 22 137 142 138 31 139 155 140 13 155 15 
167 33 
