Name: NITROBENZENE
CAS: 98-95-3
MW: 123
Formula: C6H5NO2
Synonym: MassBank: JP000975
Synonym: NITROBENZENE
Structure: 310A32340A4E4954524F42454E5A454E452E6D6F6C0A20204368656D447261773038313231303032353232440A2020392020392020302020302020302020302020302020302020302020303939392056323030300A2020202D302E323036322020202D302E3030303020202020302E303030302043202020302020302020302020302020302020302020302020302020302020302020302020300A20202020302E3230363220202020302E3731343520202020302E303030302043202020302020302020302020302020302020302020302020302020302020302020302020300A20202020312E3033313320202020302E3731343520202020302E303030302043202020302020302020302020302020302020302020302020302020302020302020302020300A20202020312E343433382020202D302E3030303020202020302E303030302043202020302020302020302020302020302020302020302020302020302020302020302020300A20202020312E303331332020202D302E3731343520202020302E303030302043202020302020302020302020302020302020302020302020302020302020302020302020300A20202020302E323036322020202D302E3731343520202020302E303030302043202020302020302020302020302020302020302020302020302020302020302020302020300A2020202D312E303331332020202D302E3030303020202020302E30303030204E202020302020332020302020302020302020302020302020302020302020302020302020300A2020202D312E343433382020202D302E3731343520202020302E30303030204F202020302020302020302020302020302020302020302020302020302020302020302020300A2020202D312E3434333820202020302E3731343520202020302E30303030204F202020302020352020302020302020302020302020302020302020302020302020302020300A2020312020322020312020302020202020200A2020322020332020322020302020202020200A2020332020342020312020302020202020200A2020342020352020322020302020202020200A2020352020362020312020302020202020200A2020312020362020322020302020202020200A2020372020382020322020302020202020200A2020372020392020312020302020202020200A2020312020372020312020302020202020200A4D202043484720203220202037202020312020203920202D310A4D2020454E44
Contributor: KOGA M, UNIV. OF OCCUPATIONAL AND ENVIRONMENTAL HEALTH
InstType: EI
InstName: JEOL JMS-01-SG
IoniMethod: _ENERGY 70 eV
IonPolarity: pos
Date: 2010-10-09 19:48:36+02:00
Num Peaks: 13
50 161 51 438 52 25 63 2 65 140 74 79 75 46 76 4 77 999 78 67 
93 148 123 76 124 54 
