Name: MassBank: JP000979
MW: 299
Formula: C11H17N3O5Si
Synonym: MassBank: JP000979
Synonym: N-2,4-DINITROPHENYL-O-TRIMETHYLSILYL-ETHANOLAMINE
Synonym: N-(2,4-DINITROPHENYL)-2-TRIMETHYLSILYLOXYETHYLAMINE
Structure: 4E2D28322C342D44494E4954524F5048454E594C292D322D5452494D455448594C53494C594C4F5859455448594C414D494E452E6D6F6C0A20204368656D447261773038313231303031313032440A2032302032302020302020302020302020302020302020302020302020303939392056323030300A2020202D302E3335373220202020302E3631383820202020302E30303030204E202020302020302020302020302020302020302020302020302020302020302020302020300A2020202D312E3037313720202020302E3230363220202020302E303030302043202020302020302020302020302020302020302020302020302020302020302020302020300A2020202D312E303731372020202D302E3631383820202020302E303030302043202020302020302020302020302020302020302020302020302020302020302020302020300A2020202D312E373836322020202D312E3033313320202020302E30303030204F202020302020302020302020302020302020302020302020302020302020302020302020300A2020202D322E353030362020202D302E3631383820202020302E303030302053692020302020302020302020302020302020302020302020302020302020302020302020300A2020202D322E393133312020202D312E3333333220202020302E303030302043202020302020302020302020302020302020302020302020302020302020302020302020300A2020202D332E323135312020202D302E3230363320202020302E303030302043202020302020302020302020302020302020302020302020302020302020302020302020300A2020202D322E3038383120202020302E3039353720202020302E303030302043202020302020302020302020302020302020302020302020302020302020302020302020300A20202020302E3335373220202020302E3230363220202020302E303030302043202020302020302020302020302020302020302020302020302020302020302020302020300A20202020312E3037313720202020302E3631383820202020302E303030302043202020302020302020302020302020302020302020302020302020302020302020302020300A20202020312E3738363220202020302E3230363220202020302E303030302043202020302020302020302020302020302020302020302020302020302020302020302020300A20202020312E373836322020202D302E3631383820202020302E303030302043202020302020302020302020302020302020302020302020302020302020302020302020300A20202020312E303731372020202D312E3033313320202020302E303030302043202020302020302020302020302020302020302020302020302020302020302020302020300A20202020302E333537322020202D302E3631383820202020302E303030302043202020302020302020302020302020302020302020302020302020302020302020302020300A20202020322E353030362020202D312E3033313320202020302E30303030204E202020302020332020302020302020302020302020302020302020302020302020302020300A20202020322E353030362020202D312E3835363320202020302E30303030204F202020302020302020302020302020302020302020302020302020302020302020302020300A20202020332E323135312020202D302E3631383820202020302E30303030204F202020302020352020302020302020302020302020302020302020302020302020302020300A20202020312E3037313720202020312E3434333720202020302E30303030204E202020302020332020302020302020302020302020302020302020302020302020302020300A20202020302E3335373220202020312E3835363320202020302E30303030204F202020302020302020302020302020302020302020302020302020302020302020302020300A20202020312E3738363220202020312E3835363320202020302E30303030204F202020302020352020302020302020302020302020302020302020302020302020302020300A2020322020332020312020302020202020200A2020312020322020312020302020202020200A2020352020362020312020302020202020200A2020352020372020312020302020202020200A2020352020382020312020302020202020200A2020342020352020312020302020202020200A2020332020342020312020302020202020200A2020392031302020312020302020202020200A2031302031312020322020302020202020200A2031312031322020312020302020202020200A2031322031332020322020302020202020200A2031332031342020312020302020202020200A2020392031342020322020302020202020200A2031352031362020322020302020202020200A2031352031372020312020302020202020200A2031322031352020312020302020202020200A2031382031392020322020302020202020200A2031382032302020312020302020202020200A2031302031382020312020302020202020200A2020312020392020312020302020202020200A4D202043484720203420203135202020312020313720202D3120203138202020312020323020202D310A4D2020454E44
Contributor: HORI T, DEPT. OF CHEMISTRY, FAC. OF LIBERAL ARTS AND EDUCATION, SHIGA UNIV.
InstType: EI
InstName: SHIMADZU LKB-9000
IoniMethod: _ENERGY 70 eV
IonPolarity: pos
Date: 2010-10-09 19:48:36+02:00
Num Peaks: 20
59 55 61 45 73 999 74 90 75 440 103 500 104 90 105 75 117 135 133 60 
150 60 166 90 179 165 180 60 196 180 197 30 241 30 269 45 284 60 299 120 
