Name: METHOXYTRIS(TRIMETHYLSILYL)SILANE
MW: 278
Formula: C10H30OSi4
Synonym: MassBank: JP004808
Synonym: METHOXYTRIS(TRIMETHYLSILYL)SILANE
Structure: 4D4554484F585954524953285452494D455448594C53494C594C2953494C414E452E6D6F6C0A20204368656D447261773038313131303233303632440A2031352031342020302020302020302020302020302020302020302020303939392056323030300A20202020302E3333303020202020302E3034303320202020302E303030302053692020302020302020302020302020302020302020302020302020302020302020302020300A20202020302E323637362020202D312E3033303420202020302E303030302053692020302020302020302020302020302020302020302020302020302020302020302020300A20202020312E303932362020202D312E3033303420202020302E303030302043202020302020302020302020302020302020302020302020302020302020302020302020300A20202020302E333135362020202D312E3835343020202020302E303030302043202020302020302020302020302020302020302020302020302020302020302020302020300A2020202D302E353531382020202D312E3132363220202020302E303030302043202020302020302020302020302020302020302020302020302020302020302020302020300A2020202D302E3734323520202020302E3034303320202020302E303030302053692020302020302020302020302020302020302020302020302020302020302020302020300A2020202D302E3639343520202020302E3836333920202020302E303030302043202020302020302020302020302020302020302020302020302020302020302020302020300A2020202D312E3536373520202020302E3034303320202020302E303030302043202020302020302020302020302020302020302020302020302020302020302020302020300A2020202D302E383338332020202D302E3737393120202020302E303030302043202020302020302020302020302020302020302020302020302020302020302020302020300A20202020302E3531363220202020312E3039363520202020302E303030302053692020302020302020302020302020302020302020302020302020302020302020302020300A2020202D302E3235393020202020312E3337383720202020302E303030302043202020302020302020302020302020302020302020302020302020302020302020302020300A20202020302E3834333020202020312E3835343020202020302E303030302043202020302020302020302020302020302020302020302020302020302020302020302020300A20202020312E3330363620202020302E3835393920202020302E303030302043202020302020302020302020302020302020302020302020302020302020302020302020300A20202020312E3135353020202020302E3034303320202020302E30303030204F202020302020302020302020302020302020302020302020302020302020302020302020300A20202020312E353637352020202D302E3637343220202020302E303030302043202020302020302020302020302020302020302020302020302020302020302020302020300A2020322020332020312020302020202020200A2020322020342020312020302020202020200A2020322020352020312020302020202020200A2020312020322020312020302020202020200A2020362020372020312020302020202020200A2020362020382020312020302020202020200A2020362020392020312020302020202020200A2020312020362020312020302020202020200A2031302031312020312020302020202020200A2031302031322020312020302020202020200A2031302031332020312020302020202020200A2020312031302020312020302020202020200A2031342031352020312020302020202020200A2020312031342020312020302020202020200A4D2020454E44
Contributor: MASS SPECTROSCOPY SOC. OF JAPAN (MSSJ)
InstType: EI
InstName: JEOL JMS-D-3000
IoniMethod: _ENERGY 70 eV
IonPolarity: pos
Date: 2010-10-09 19:48:36+02:00
Num Peaks: 70
43 40 45 123 58 13 59 248 60 17 71 11 73 999 74 80 75 73 85 24 
89 102 90 11 99 42 100 38 101 60 102 18 103 20 113 26 114 39 115 129 
116 55 117 248 118 41 119 12 129 174 130 26 131 449 132 77 133 40 145 49 
146 13 147 131 148 24 149 11 157 24 159 303 160 68 161 64 162 13 173 59 
174 61 175 607 176 140 177 67 178 10 187 11 189 273 190 114 191 43 192 13 
203 22 204 13 205 460 206 102 207 58 208 11 219 15 233 32 247 14 248 12 
250 12 252 21 254 13 263 870 264 265 265 166 266 36 278 64 279 26 280 11 
