Name: N-ACETYL-O-TRIMETHYLSILYLSPHINGATRIENE
MW: 481
Formula: C26H51NO3Si2
Synonym: MassBank: JP004555
Synonym: N-ACETYL-O-TRIMETHYLSILYLSPHINGATRIENE
Synonym: 2-(METHYLACETAMIDO)-1O,3O-BIS(TRIMETHYLSILYL)-4,8.10-OCTADECATRIEN-1,3-DIOL
Structure: 4E2D41434554594C2D4F2D5452494D455448594C53494C594C535048494E4741545249454E452E6D6F6C0A20204368656D447261773132323130393231303032440A2033342033332020302020302020302020302020302020302020302020303939392056323030300A2020202D322E3036323520202020302E3432373320202020302E303030302043202020302020302020302020302020302020302020302020302020302020302020302020300A2020202D322E303632352020202D302E3339373720202020302E303030302043202020302020302020302020302020302020302020302020302020302020302020302020300A2020202D322E383837352020202D302E3339373720202020302E30303030204E202020302020302020302020302020302020302020302020302020302020302020302020300A2020202D312E323337352020202D302E3339373720202020302E303030302048202020302020302020302020302020302020302020302020302020302020302020302020300A2020202D312E3233373520202020302E3432373320202020302E303030302043202020302020302020302020302020302020302020302020302020302020302020302020300A2020202D322E3838373520202020302E3432373320202020302E303030302048202020302020302020302020302020302020302020302020302020302020302020302020300A2020202D322E3036323520202020312E3235323320202020302E30303030204F202020302020302020302020302020302020302020302020302020302020302020302020300A2020202D322E3737373020202020312E3636343820202020302E303030302053692020302020302020302020302020302020302020302020302020302020302020302020300A2020202D332E3439313420202020322E3037373320202020302E303030302043202020302020302020302020302020302020302020302020302020302020302020302020300A2020202D322E3336343520202020322E3337393320202020302E303030302043202020302020302020302020302020302020302020302020302020302020302020302020300A2020202D332E3138393520202020302E3935303320202020302E303030302043202020302020302020302020302020302020302020302020302020302020302020302020300A2020202D322E303632352020202D312E3232323720202020302E303030302043202020302020302020302020302020302020302020302020302020302020302020302020300A2020202D332E333030302020202D312E3131323220202020302E303030302043202020302020302020302020302020302020302020302020302020302020302020302020300A2020202D342E313235302020202D312E3131323220202020302E303030302043202020302020302020302020302020302020302020302020302020302020302020302020300A2020202D322E383837352020202D312E3832363620202020302E30303030204F202020302020302020302020302020302020302020302020302020302020302020302020300A2020202D312E333438302020202D312E3633353220202020302E30303030204F202020302020302020302020302020302020302020302020302020302020302020302020300A2020202D312E333438302020202D322E3436303220202020302E303030302053692020302020302020302020302020302020302020302020302020302020302020302020300A2020202D312E333438302020202D332E3238353220202020302E303030302043202020302020302020302020302020302020302020302020302020302020302020302020300A2020202D302E353233302020202D322E3436303220202020302E303030302043202020302020302020302020302020302020302020302020302020302020302020302020300A2020202D322E313733302020202D322E3436303220202020302E303030302043202020302020302020302020302020302020302020302020302020302020302020302020300A2020202D302E3832353020202020312E3134313820202020302E303030302043202020302020302020302020302020302020302020302020302020302020302020302020300A20202020302E3030303020202020312E3134313820202020302E303030302043202020302020302020302020302020302020302020302020302020302020302020302020300A20202020302E3431323520202020312E3835363320202020302E303030302043202020302020302020302020302020302020302020302020302020302020302020302020300A20202020312E3233373520202020312E3835363320202020302E303030302043202020302020302020302020302020302020302020302020302020302020302020302020300A20202020312E3635303020202020322E3537303720202020302E303030302043202020302020302020302020302020302020302020302020302020302020302020302020300A20202020322E3437353020202020322E3537303720202020302E303030302043202020302020302020302020302020302020302020302020302020302020302020302020300A20202020322E3838373520202020332E3238353220202020302E303030302043202020302020302020302020302020302020302020302020302020302020302020302020300A20202020332E3731323520202020332E3238353220202020302E303030302043202020302020302020302020302020302020302020302020302020302020302020302020300A20202020342E3132353020202020322E3537303720202020302E303030302043202020302020302020302020302020302020302020302020302020302020302020302020300A20202020332E3731323520202020312E3835363320202020302E303030302043202020302020302020302020302020302020302020302020302020302020302020302020300A20202020322E3838373520202020312E3835363320202020302E303030302043202020302020302020302020302020302020302020302020302020302020302020302020300A20202020322E3437353020202020312E3134313820202020302E303030302043202020302020302020302020302020302020302020302020302020302020302020302020300A20202020312E3635303020202020312E3134313820202020302E303030302043202020302020302020302020302020302020302020302020302020302020302020302020300A20202020312E3233373520202020302E3432373320202020302E303030302043202020302020302020302020302020302020302020302020302020302020302020302020300A2020312020322020312020302020202020200A2020322020332020312020312020202020200A2020322020342020312020312020202020200A2020312020352020312020312020202020200A2020312020362020312020312020202020200A2020312020372020312020302020202020200A2020372020382020312020302020202020200A2020382020392020312020302020202020200A2020382031302020312020302020202020200A2020382031312020312020302020202020200A2020322031322020312020302020202020200A2020332031332020312020302020202020200A2031332031342020312020302020202020200A2031332031352020322020302020202020200A2031322031362020312020302020202020200A2031362031372020312020302020202020200A2031372031382020312020302020202020200A2031372031392020312020312020202020200A2031372032302020312020312020202020200A2020352032312020322020302020202020200A2032312032322020312020302020202020200A2032322032332020312020302020202020200A2032332032342020312020302020202020200A2032342032352020322020302020202020200A2032352032362020312020302020202020200A2032362032372020322020302020202020200A2032372032382020312020302020202020200A2032382032392020312020302020202020200A2032392033302020312020302020202020200A2033302033312020312020302020202020200A2033312033322020312020302020202020200A2033322033332020312020302020202020200A2033332033342020312020302020202020200A4D2020454E44
Contributor: HAYASHI A, DEPT. OF CHEMISTRY, FAC. OF SCI. AND TECHNOLOGY, KINKI UNIV.
InstType: EI
InstName: SHIMADZU LKB-9000B
IoniMethod: _ENERGY 23 eV
IonPolarity: pos
Date: 2010-10-09 19:48:36+02:00
Num Peaks: 201
41 47 42 22 43 111 45 3 47 46 48 15 55 66 56 4 57 98 59 78 
60 57 67 25 68 41 69 140 70 11 71 9 72 21 73 293 75 315 76 2 
77 27 78 48 79 86 80 10 81 165 82 38 83 151 84 7 85 213 86 129 
87 33 91 5 92 20 93 77 94 51 95 20 96 50 97 80 98 75 99 4 
100 16 103 324 104 54 105 6 106 21 107 46 108 28 109 15 110 53 111 53 
112 83 113 3 116 201 117 116 118 35 119 11 120 25 121 47 122 39 123 12 
124 70 125 28 128 54 129 27 130 50 131 70 132 250 133 15 134 39 135 41 
136 49 137 3 138 35 141 49 142 79 143 8 144 26 145 63 146 22 147 7 
148 23 149 31 150 16 151 2 154 94 155 74 156 34 157 71 158 124 159 61 
160 29 161 2 164 186 165 235 166 34 167 2 168 38 169 40 170 26 171 3 
172 22 173 62 174 999 175 16 176 64 177 21 178 38 179 3 180 20 181 28 
182 154 183 5 184 24 185 30 186 49 187 4 188 30 190 15 191 23 192 2 
193 53 194 18 196 21 197 3 200 18 201 23 202 16 203 2 204 29 205 24 
206 15 212 4 213 26 214 23 215 21 216 3 217 218 218 55 219 26 220 2 
221 22 227 81 228 103 229 10 230 45 231 35 232 20 233 2 241 72 242 46 
243 62 244 5 245 20 246 35 247 219 248 6 249 39 250 18 256 25 257 3 
258 20 260 17 261 17 276 2 282 7 283 16 288 124 289 3 290 34 292 58 
293 16 301 2 302 17 306 19 307 208 308 6 309 73 311 79 312 27 313 12 
314 28 319 25 320 23 321 2 322 35 323 30 332 55 333 2 334 20 364 60 
376 34 378 3 382 23 384 19 391 61 392 2 422 25 466 48 467 21 472 2 
481 19 
