Name: 5-METHYL-1-PHENYLPYRAZOLE
MW: 158
Formula: C10H10N2
Synonym: MassBank: JP002025
Synonym: 5-METHYL-1-PHENYLPYRAZOLE
Structure: 352D4D455448594C2D312D5048454E594C505952415A4F4C452E6D6F6C0A20204368656D447261773034323331303036353732440A2031322031332020302020302020302020302020302020302020302020303939392056323030300A20202020302E363032372020202D302E3336383820202020302E30303030204E202020302020302020302020302020302020302020302020302020302020302020302020300A20202020312E303837372020202D312E3033363220202020302E30303030204E202020302020302020302020302020302020302020302020302020302020302020302020300A20202020312E383732332020202D302E3738313320202020302E303030302043202020302020302020302020302020302020302020302020302020302020302020302020300A20202020312E3837323320202020302E3034333720202020302E303030302043202020302020302020302020302020302020302020302020302020302020302020302020300A20202020312E3038373720202020302E3239383620202020302E303030302043202020302020302020302020302020302020302020302020302020302020302020302020300A2020202D302E323232332020202D302E3336383820202020302E303030302043202020302020302020302020302020302020302020302020302020302020302020302020300A2020202D302E3633343820202020302E3334353720202020302E303030302043202020302020302020302020302020302020302020302020302020302020302020302020300A2020202D312E3435393820202020302E3334353720202020302E303030302043202020302020302020302020302020302020302020302020302020302020302020302020300A2020202D312E383732332020202D302E3336383820202020302E303030302043202020302020302020302020302020302020302020302020302020302020302020302020300A2020202D312E343539382020202D312E3038333320202020302E303030302043202020302020302020302020302020302020302020302020302020302020302020302020300A2020202D302E363334382020202D312E3038333320202020302E303030302043202020302020302020302020302020302020302020302020302020302020302020302020300A20202020302E3833323720202020312E3038333320202020302E303030302043202020302020302020302020302020302020302020302020302020302020302020302020300A2020312020322020312020302020202020200A2020322020332020322020302020202020200A2020332020342020312020302020202020200A2020342020352020322020302020202020200A2020312020352020312020302020202020200A2020362020372020312020302020202020200A2020372020382020322020302020202020200A2020382020392020312020302020202020200A2020392031302020322020302020202020200A2031302031312020312020302020202020200A2020362031312020322020302020202020200A2020312020362020312020302020202020200A2020352031322020312020302020202020200A4D2020454E44
Contributor: SASAKI S, TOYOHASHI UNIV. OF TECH.
InstType: EI
InstName: MX-1303
IoniMethod: _ENERGY 50 eV
IonPolarity: pos
Date: 2010-10-09 19:48:36+02:00
Num Peaks: 61
26 37 27 146 28 84 29 2 37 17 38 60 39 200 40 6 41 62 42 51 
43 15 50 11 51 453 52 102 53 50 54 5 55 50 62 23 63 94 64 9 
65 98 66 70 67 18 74 2 75 27 76 47 77 647 78 11 79 40 81 60 
89 86 90 16 91 80 92 28 93 106 102 2 103 57 104 68 105 17 106 2 
115 38 116 64 117 90 118 7 119 12 128 29 129 36 130 37 131 54 132 35 
142 33 143 7 144 44 145 28 154 17 155 2 156 54 157 594 158 999 159 12 
160 14 
