Name: MassBank: JP000508
MW: 130
Formula: C7H18N2
Synonym: MassBank: JP000508
Synonym: 1,1-DIMETHYL-2-(1-METHYLBUTYL)HYDRAZINE
Structure: 310A32320A312C312D44494D455448594C2D322D28312D4D455448594C425554594C2948594452415A494E452E6D6F6C0A20204368656D447261773130323330393130333632440A2020392020382020302020302020302020302020302020302020302020303939392056323030300A2020202D312E343238392020202D302E3230363220202020302E30303030204E202020302020302020302020302020302020302020302020302020302020302020302020300A2020202D302E373134352020202D302E3631383820202020302E30303030204E202020302020302020302020302020302020302020302020302020302020302020302020300A20202020302E303030302020202D302E3230363220202020302E303030302043202020302020302020302020302020302020302020302020302020302020302020302020300A20202020302E373134352020202D302E3631383820202020302E303030302043202020302020302020302020302020302020302020302020302020302020302020302020300A20202020312E343238392020202D302E3230363220202020302E303030302043202020302020302020302020302020302020302020302020302020302020302020302020300A20202020322E313433342020202D302E3631383820202020302E303030302043202020302020302020302020302020302020302020302020302020302020302020302020300A20202020302E3030303020202020302E3631383820202020302E303030302043202020302020302020302020302020302020302020302020302020302020302020302020300A2020202D312E3432383920202020302E3631383820202020302E303030302043202020302020302020302020302020302020302020302020302020302020302020302020300A2020202D322E313433342020202D302E3631383820202020302E303030302043202020302020302020302020302020302020302020302020302020302020302020302020300A2020312020322020312020302020202020200A2020332020342020312020302020202020200A2020342020352020312020302020202020200A2020352020362020312020302020202020200A2020332020372020312020302020202020200A2020322020332020312020302020202020200A2020312020382020312020302020202020200A2020312020392020312020302020202020200A4D2020454E44
Contributor: SASAKI S, TOYOHASHI UNIV. OF TECH.
InstType: EI
InstName: SHIMADZU LKB-2091
IoniMethod: _ENERGY 70 eV
IonPolarity: pos
Date: 2010-10-09 19:48:36+02:00
Num Peaks: 32
27 44 28 34 29 33 30 4 39 17 40 4 41 39 42 8 43 93 44 204 
45 139 46 2 55 8 56 7 57 120 58 3 59 999 60 148 61 6 70 1 
71 14 72 7 73 9 85 1 86 14 87 222 88 14 101 0 115 37 116 6 
130 278 131 36 
