Name: HEPTYL (3S)-3-HYDROXY-5-METHOXYPENTANOATE
MW: 246
Formula: C13H26O4
Synonym: MassBank: JP007270
Synonym: HEPTYL (3S)-3-HYDROXY-5-METHOXYPENTANOATE
Structure: 303338385F48455054594C20283353292D332D485944524F58592D352D4D4554484F585950454E54414E4F4154452E6D6F6C0A20204368656D447261773130313931303230323032440A2031382031372020302020302020302020302020302020302020302020303939392056323030300A20202020312E343433382020202D312E3432383920202020302E303030302043202020302020302020302020302020302020302020302020302020302020302020302020300A20202020322E323638372020202D312E3432383920202020302E303030302043202020302020302020302020302020302020302020302020302020302020302020302020300A20202020322E363831332020202D302E3731343520202020302E303030302043202020302020302020302020302020302020302020302020302020302020302020302020300A20202020322E3236383720202020302E3030303020202020302E303030302043202020302020302020302020302020302020302020302020302020302020302020302020300A20202020322E3638313220202020302E3731343520202020302E303030302043202020302020302020302020302020302020302020302020302020302020302020302020300A20202020312E303331322020202D302E3731343520202020302E30303030204F202020302020302020302020302020302020302020302020302020302020302020302020300A20202020312E303331322020202D322E3134333420202020302E30303030204F202020302020302020302020302020302020302020302020302020302020302020302020300A20202020322E3236383720202020312E3432383920202020302E30303030204F202020302020302020302020302020302020302020302020302020302020302020302020300A20202020322E3638313220202020322E3134333420202020302E303030302043202020302020302020302020302020302020302020302020302020302020302020302020300A20202020332E353036332020202D302E3731343520202020302E30303030204F202020302020302020302020302020302020302020302020302020302020302020302020300A20202020302E323036322020202D322E3134333420202020302E303030302043202020302020302020302020302020302020302020302020302020302020302020302020300A2020202D302E323036332020202D312E3432383920202020302E303030302043202020302020302020302020302020302020302020302020302020302020302020302020300A2020202D312E303331332020202D312E3432383920202020302E303030302043202020302020302020302020302020302020302020302020302020302020302020302020300A2020202D312E343433382020202D302E3731343520202020302E303030302043202020302020302020302020302020302020302020302020302020302020302020302020300A2020202D322E323638372020202D302E3731343520202020302E303030302043202020302020302020302020302020302020302020302020302020302020302020302020300A2020202D322E3638313220202020302E3030303020202020302E303030302043202020302020302020302020302020302020302020302020302020302020302020302020300A2020202D332E3530363320202020302E3030303020202020302E303030302043202020302020302020302020302020302020302020302020302020302020302020302020300A20202020312E383639392020202D302E3536353220202020302E303030302048202020302020302020302020302020302020302020302020302020302020302020302020300A2020312020322020312020302020202020200A2020322020332020312020302020202020200A2020332020342020312020302020202020200A2020342020352020312020302020202020200A2020312020362020322020302020202020200A2020312020372020312020302020202020200A2020382020392020312020302020202020200A2020352020382020312020302020202020200A2020332031302020312020312020202020200A2031312031322020312020302020202020200A2031322031332020312020302020202020200A2031332031342020312020302020202020200A2031342031352020312020302020202020200A2031352031362020312020302020202020200A2031362031372020312020302020202020200A2020372031312020312020302020202020200A2020332031382020312020312020202020200A4D2020454E44
Contributor: ITO S, DEPT. OF CHEM., TOHOKU UNIV.
InstType: EI
InstName: HITACHI M-52
IoniMethod: _ENERGY 25 eV
IonPolarity: pos
Date: 2010-10-09 19:48:36+02:00
Num Peaks: 62
39 60 40 27 41 342 42 29 43 570 44 60 45 911 53 3 54 60 55 342 
56 481 57 90 58 181 59 64 60 198 61 9 67 20 68 77 69 124 70 33 
71 316 72 64 73 40 81 4 82 20 83 57 84 380 85 15 86 70 87 161 
88 20 89 999 90 44 91 60 92 47 96 2 97 291 98 418 99 228 100 17 
101 131 102 278 103 57 104 2 112 37 113 354 114 50 115 8 116 595 117 278 
118 20 122 3 127 23 129 342 130 329 131 82 132 47 149 80 186 137 187 3 
227 23 246 27 
