Name: INDOLE
MW: 117
Formula: C8H7N
Synonym: MassBank: JP002807
Synonym: INDOLE
Structure: 310A32340A494E444F4C452E6D6F6C0A20204368656D447261773038313131303230353132440A2020392031302020302020302020302020302020302020302020302020303939392056323030300A2020202D302E383634332020202D302E3636373420202020302E30303030204E202020302020302020302020302020302020302020302020302020302020302020302020300A2020202D312E333439322020202D302E3030303020202020302E303030302043202020302020302020302020302020302020302020302020302020302020302020302020300A2020202D302E3836343320202020302E3636373420202020302E303030302043202020302020302020302020302020302020302020302020302020302020302020302020300A2020202D302E3037393720202020302E3431323520202020302E303030302043202020302020302020302020302020302020302020302020302020302020302020302020300A20202020302E3633343820202020302E3832353020202020302E303030302043202020302020302020302020302020302020302020302020302020302020302020302020300A20202020312E3334393220202020302E3431323520202020302E303030302043202020302020302020302020302020302020302020302020302020302020302020302020300A20202020312E333439322020202D302E3431323520202020302E303030302043202020302020302020302020302020302020302020302020302020302020302020302020300A20202020302E363334382020202D302E3832353020202020302E303030302043202020302020302020302020302020302020302020302020302020302020302020302020300A2020202D302E303739372020202D302E3431323520202020302E303030302043202020302020302020302020302020302020302020302020302020302020302020302020300A2020312020322020312020302020202020200A2020322020332020322020302020202020200A2020332020342020312020302020202020200A2020342020352020312020302020202020200A2020352020362020322020302020202020200A2020362020372020312020302020202020200A2020372020382020322020302020202020200A2020382020392020312020302020202020200A2020312020392020312020302020202020200A2020342020392020322020302020202020200A4D2020454E44
Contributor: SASAKI S, TOYOHASHI UNIV. OF TECH.
InstType: EI
InstName: Unknown
IoniMethod: EI
IonPolarity: pos
Date: 2010-10-09 19:48:36+02:00
Num Peaks: 57
27 39 28 110 29 2 31 0 32 1 36 7 37 47 38 7 39 98 40 19 
41 15 42 0 43 9 44 3 45 1 48 0 49 15 50 60 51 51 52 3 
53 5 54 2 56 1 57 0 58 10 59 9 60 5 61 4 62 82 63 150 
64 53 65 2 66 4 67 3 73 4 74 2 75 13 76 11 77 5 78 0 
79 1 84 3 85 11 86 2 87 22 88 29 89 255 90 38 91 37 92 1 
111 1 114 1 116 87 117 999 118 91 119 0 115 9 
