Name: 2-TERT-BUTYLMERCAPTO-4-PICOLINE
MW: 181
Formula: C10H15NS
Synonym: MassBank: JP003005
Synonym: 2-TERT-BUTYLMERCAPTO-4-PICOLINE
Structure: 322D544552542D425554594C4D4552434150544F2D342D5049434F4C494E452E6D6F6C0A20204368656D447261773032323131303136323232440A2031322031322020302020302020302020302020302020302020302020303939392056323030300A20202020302E303030302020202D302E3236313520202020302E303030302043202020302020302020302020302020302020302020302020302020302020302020302020300A2020202D302E373134352020202D302E3637343020202020302E303030302043202020302020302020302020302020302020302020302020302020302020302020302020300A2020202D312E343238392020202D302E3236313520202020302E303030302043202020302020302020302020302020302020302020302020302020302020302020302020300A2020202D312E3432383920202020302E3536333520202020302E303030302043202020302020302020302020302020302020302020302020302020302020302020302020300A2020202D302E3731343520202020302E3937363020202020302E303030302043202020302020302020302020302020302020302020302020302020302020302020302020300A20202020302E3030303020202020302E3536333520202020302E30303030204E202020302020302020302020302020302020302020302020302020302020302020302020300A2020202D322E313433342020202D302E3637343020202020302E303030302043202020302020302020302020302020302020302020302020302020302020302020302020300A20202020302E373134352020202D302E3637343020202020302E303030302053202020302020302020302020302020302020302020302020302020302020302020302020300A20202020312E343238392020202D302E3236313520202020302E303030302043202020302020302020302020302020302020302020302020302020302020302020302020300A20202020312E3031363420202020302E3435333020202020302E303030302043202020302020302020302020302020302020302020302020302020302020302020302020300A20202020322E3134333420202020302E3135313020202020302E303030302043202020302020302020302020302020302020302020302020302020302020302020302020300A20202020312E383431342020202D302E3937363020202020302E303030302043202020302020302020302020302020302020302020302020302020302020302020302020300A2020312020322020312020302020202020200A2020322020332020322020302020202020200A2020332020342020312020302020202020200A2020342020352020322020302020202020200A2020352020362020312020302020202020200A2020312020362020322020302020202020200A2020332020372020312020302020202020200A2020392031302020312020302020202020200A2020392031322020312020302020202020200A2020392031312020312020302020202020200A2020382020392020312020302020202020200A2020312020382020312020302020202020200A4D2020454E44
Contributor: SASAKI S, TOYOHASHI UNIV. OF TECH.
InstType: EI
InstName: Unknown
IoniMethod: EI
IonPolarity: pos
Date: 2010-10-09 19:48:36+02:00
Num Peaks: 14
29 70 39 110 41 110 53 5 57 120 65 70 80 80 81 2 92 60 125 999 
126 140 127 1 181 90 182 10 
