Name: MassBank: JP009398
MW: 90
Formula: C4H10O2
Synonym: MassBank: JP009398
Synonym: 2,3-BUTANEDIOL
Structure: 310A31360A322C332D425554414E4544494F4C2E6D6F6C0A20204368656D447261773132323030393131313832440A2020362020352020302020302020302020302020302020302020302020303939392056323030300A2020202D312E303331332020202D302E3335373220202020302E303030302043202020302020302020302020302020302020302020302020302020302020302020302020300A2020202D302E323036322020202D302E3335373220202020302E303030302043202020302020302020302020302020302020302020302020302020302020302020302020300A20202020302E3230363320202020302E3335373220202020302E303030302043202020302020302020302020302020302020302020302020302020302020302020302020300A2020202D302E3230363220202020312E3037313720202020302E303030302043202020302020302020302020302020302020302020302020302020302020302020302020300A20202020302E323036332020202D312E3037313720202020302E30303030204F202020302020302020302020302020302020302020302020302020302020302020302020300A20202020312E3033313320202020302E3335373220202020302E30303030204F202020302020302020302020302020302020302020302020302020302020302020302020300A2020312020322020312020302020202020200A2020322020332020312020302020202020200A2020332020342020312020302020202020200A2020322020352020312020302020202020200A2020332020362020312020302020202020200A4D2020454E44
Contributor: GUNMA COLLEGE OF TECHNOLOGY
InstType: EI
InstName: HITACHI M-80A
IoniMethod: _ENERGY 70 eV
IonPolarity: pos
Date: 2010-10-09 19:48:36+02:00
Num Peaks: 20
15 50 17 26 18 110 19 60 26 19 27 111 29 103 31 33 39 14 41 14 
42 26 43 155 44 51 45 999 46 35 47 49 55 19 57 89 75 25 90 10 
