Name: MassBank: JP006372
MW: 176
Formula: C8H16O4
Synonym: MassBank: JP006372
Synonym: 1,4,7,10-TETRAOXACYCLODODECANE
Synonym: 12-CROWN-4
Structure: 312C342C372C31302D54455452414F58414359434C4F444F444543414E452E6D6F6C0A20204368656D447261773131313430393232303232440A2031322031322020302020302020302020302020302020302020302020303939392056323030300A2020202D312E3731303320202020302E3431323520202020302E303030302043202020302020302020302020302020302020302020302020302020302020302020302020300A2020202D312E373130332020202D302E3431323520202020302E303030302043202020302020302020302020302020302020302020302020302020302020302020302020300A2020202D302E393935392020202D302E3832353020202020302E30303030204F202020302020302020302020302020302020302020302020302020302020302020302020300A2020202D302E323831342020202D302E3431323520202020302E303030302043202020302020302020302020302020302020302020302020302020302020302020302020300A2020202D302E3238313420202020302E3431323520202020302E303030302043202020302020302020302020302020302020302020302020302020302020302020302020300A2020202D302E3939353920202020302E3832353020202020302E30303030204F202020302020302020302020302020302020302020302020302020302020302020302020300A20202020302E333032302020202D302E3939353920202020302E303030302043202020302020302020302020302020302020302020302020302020302020302020302020300A20202020312E313237302020202D302E3939353920202020302E30303030204F202020302020302020302020302020302020302020302020302020302020302020302020300A20202020312E373130332020202D302E3431323520202020302E303030302043202020302020302020302020302020302020302020302020302020302020302020302020300A20202020312E3731303320202020302E3431323520202020302E303030302043202020302020302020302020302020302020302020302020302020302020302020302020300A20202020312E3132373020202020302E3939353920202020302E30303030204F202020302020302020302020302020302020302020302020302020302020302020302020300A20202020302E3330323020202020302E3939353920202020302E303030302043202020302020302020302020302020302020302020302020302020302020302020302020300A2020312020322020312020302020202020200A2020322020332020312020302020202020200A2020332020342020312020302020202020200A2020352020362020312020302020202020200A2020362020312020312020302020202020200A2020342020372020312020302020202020200A2020372020382020312020302020202020200A2020382020392020312020302020202020200A2020392031302020312020302020202020200A2031302031312020312020302020202020200A2031312031322020312020302020202020200A2031322020352020312020302020202020200A4D2020454E44
Contributor: HISAHIRO HAGIWARA, CHEMICAL RESEARCH INSTITUTE OF NON-AQUEOUSSOLUTIONS TOHOKU UNIV.
InstType: EI
InstName: JEOL JMS-DX-300
IoniMethod: _ENERGY 70 eV
IonPolarity: pos
Date: 2010-10-09 19:48:36+02:00
Num Peaks: 54
30 192 31 905 32 25 33 24 40 11 41 172 42 715 46 222 51 20 54 12 
55 14 56 98 57 637 58 905 59 838 60 56 61 99 62 18 63 11 69 32 
70 245 71 183 72 912 73 999 74 166 75 319 76 16 85 15 86 201 87 940 
88 535 90 81 91 11 92 21 99 27 100 29 101 222 102 148 103 125 104 86 
105 18 107 15 113 10 114 15 115 25 117 125 118 17 119 37 128 15 132 15 
133 331 134 35 175 11 177 113 
