Name: MassBank: JP001459
MW: 266
Formula: C18H22Si
Synonym: MassBank: JP001459
Synonym: 2,3,6,7,9,9-HEXAMETHYL-9-SILAFLUORENE
Structure: 322C332C362C372C392C392D484558414D455448594C2D392D53494C41464C554F52454E452E6D6F6C0A20204368656D447261773132323030393039353432440A2031392032312020302020302020302020302020302020302020302020303939392056323030300A2020202D302E313537302020202D312E3032313020202020302E303030302053692020302020302020302020302020302020302020302020302020302020302020302020300A20202020302E353936372020202D302E3638353520202020302E303030302043202020302020302020302020302020302020302020302020302020302020302020302020300A20202020312E333530342020202D312E3032313020202020302E303030302043202020302020302020302020302020302020302020302020302020302020302020302020300A20202020322E303137382020202D302E3533363120202020302E303030302043202020302020302020302020302020302020302020302020302020302020302020302020300A20202020312E3933313620202020302E3238343420202020302E303030302043202020302020302020302020302020302020302020302020302020302020302020302020300A20202020312E3137373920202020302E3631393920202020302E303030302043202020302020302020302020302020302020302020302020302020302020302020302020300A20202020302E3531303520202020302E3133353020202020302E303030302043202020302020302020302020302020302020302020302020302020302020302020302020300A2020202D302E3239363520202020302E3330363520202020302E303030302043202020302020302020302020302020302020302020302020302020302020302020302020300A2020202D302E3730393020202020312E3032313020202020302E303030302043202020302020302020302020302020302020302020302020302020302020302020302020300A2020202D312E3533343020202020312E3032313020202020302E303030302043202020302020302020302020302020302020302020302020302020302020302020302020300A2020202D312E3934363520202020302E3330363520202020302E303030302043202020302020302020302020302020302020302020302020302020302020302020302020300A2020202D312E353334302020202D302E3430373920202020302E303030302043202020302020302020302020302020302020302020302020302020302020302020302020300A2020202D302E373039302020202D302E3430373920202020302E303030302043202020302020302020302020302020302020302020302020302020302020302020302020300A2020202D302E383234342020202D312E3530353920202020302E303030302043202020302020302020302020302020302020302020302020302020302020302020302020300A20202020302E323535352020202D312E3733353520202020302E303030302043202020302020302020302020302020302020302020302020302020302020302020302020300A2020202D322E3737313520202020302E3330363520202020302E303030302043202020302020302020302020302020302020302020302020302020302020302020302020300A2020202D312E3934363520202020312E3733353520202020302E303030302043202020302020302020302020302020302020302020302020302020302020302020302020300A20202020322E3539393020202020302E3736393320202020302E303030302043202020302020302020302020302020302020302020302020302020302020302020302020300A20202020322E373731352020202D302E3837313720202020302E303030302043202020302020302020302020302020302020302020302020302020302020302020302020300A2020312020322020312020302020202020200A2020322020332020312020302020202020200A2020332020342020322020302020202020200A2020342020352020312020302020202020200A2020352020362020322020302020202020200A2020362020372020312020302020202020200A2020322020372020322020302020202020200A2020372020382020312020302020202020200A2020382020392020312020302020202020200A2020392031302020322020302020202020200A2031302031312020312020302020202020200A2031312031322020322020302020202020200A2031322031332020312020302020202020200A2020382031332020322020302020202020200A2020312031332020312020302020202020200A2020312031342020312020312020202020200A2020312031352020312020362020202020200A2031312031362020312020302020202020200A2031302031372020312020302020202020200A2020352031382020312020302020202020200A2020342031392020312020302020202020200A4D2020454E44
Contributor: MASS SPECTROSCOPY SOC. OF JAPAN (MSSJ)
InstType: EI
InstName: JEOL JMS-D-3000
IoniMethod: _ENERGY 70 eV
IonPolarity: pos
Date: 2010-10-09 19:48:36+02:00
Num Peaks: 42
104 23 105 11 110 12 111 12 116 11 117 15 118 153 119 29 125 45 126 143 
133 38 134 10 165 14 178 14 179 14 189 14 191 22 192 21 193 19 195 12 
205 28 206 38 207 13 217 10 219 22 220 16 221 53 222 14 223 13 233 12 
235 40 236 21 237 15 249 22 250 27 251 999 252 243 253 62 265 27 266 621 
267 160 268 37 
