Name: ORTHO-AMINOTHIOPHENOL
MW: 125
Formula: C6H7NS
Synonym: MassBank: JP008882
Synonym: ORTHO-AMINOTHIOPHENOL
Synonym: 2-MERCAPTOANILINE
Structure: 310A32310A4F5254484F2D414D494E4F5448494F5048454E4F4C2E6D6F6C0A20204368656D447261773031323231303031353632440A2020382020382020302020302020302020302020302020302020302020303939392056323030300A2020202D302E343132352020202D302E3335373220202020302E303030302043202020302020302020302020302020302020302020302020302020302020302020302020300A20202020302E3030303020202020302E3335373220202020302E303030302043202020302020302020302020302020302020302020302020302020302020302020302020300A20202020302E3832353020202020302E3335373220202020302E303030302043202020302020302020302020302020302020302020302020302020302020302020302020300A20202020312E323337352020202D302E3335373220202020302E303030302043202020302020302020302020302020302020302020302020302020302020302020302020300A20202020302E383235302020202D312E3037313720202020302E303030302043202020302020302020302020302020302020302020302020302020302020302020302020300A20202020302E303030302020202D312E3037313720202020302E303030302043202020302020302020302020302020302020302020302020302020302020302020302020300A2020202D302E3431323520202020312E3037313720202020302E30303030204E202020302020302020302020302020302020302020302020302020302020302020302020300A2020202D312E323337352020202D302E3335373220202020302E303030302053202020302020302020302020302020302020302020302020302020302020302020302020300A2020312020322020312020302020202020200A2020322020332020322020302020202020200A2020332020342020312020302020202020200A2020342020352020322020302020202020200A2020352020362020312020302020202020200A2020312020362020322020302020202020200A2020322020372020312020302020202020200A2020312020382020312020302020202020200A4D2020454E44
Contributor: TAJIMA S, GUNMA COLLEGE OF TECHNOLOGY
InstType: EI
InstName: HITACHI RMU-7M
IoniMethod: _ENERGY 70 eV
IonPolarity: pos
Date: 2010-10-09 19:48:36+02:00
Num Peaks: 49
27 58 28 52 29 27 37 59 38 109 39 250 40 44 41 96 42 41 43 31 
44 34 45 194 50 72 51 107 52 145 53 207 54 62 57 59 58 46 60 40 
61 36 61.5 27 62 59 62.5 43 63 133 64 70 65 169 66 85 67 29 69 152 
70 82 71 39 80 418 81 212 82 44 91 37 92 46 93 267 94 45 95 31 
96 35 97 165 98 99 99 37 108 41 124 202 125 999 126 107 127 50 
