Name: MassBank: JP002516
MW: 366
Formula: C21H42OSi2
Synonym: MassBank: JP002516
Synonym: 2,5-BIS(TRIMETHYLSILYLMETHYL)-5-HYDROXY-8-ISOPROPYL-1,4,4A,5,6,7,8,8A-OCTAHYDRONAPHTHALENE
Structure: 322C352D424953285452494D455448594C53494C594C4D455448594C292D352D485944524F58592D382D49534F50524F50594C2D312C342C34412C352C362C372C382C38412D4F435441485944524F4E4150485448414C454E452E6D6F6C0A20204368656D447261773132323130393030323932440A2032342032352020302020302020302020302020302020302020302020303939392056323030300A2020202D302E323031392020202D302E3736353320202020302E303030302043202020302020302020302020302020302020302020302020302020302020302020302020300A20202020302E353132362020202D312E3137373820202020302E303030302043202020302020302020302020302020302020302020302020302020302020302020302020300A20202020312E323237312020202D302E3736353320202020302E303030302043202020302020302020302020302020302020302020302020302020302020302020302020300A20202020312E3232373120202020302E3035393720202020302E303030302043202020302020302020302020302020302020302020302020302020302020302020302020300A20202020302E3531323620202020302E3437323220202020302E303030302043202020302020302020302020302020302020302020302020302020302020302020302020300A20202020302E3531323620202020312E3239373220202020302E303030302043202020302020302020302020302020302020302020302020302020302020302020302020300A2020202D302E3230313920202020312E3730393720202020302E303030302043202020302020302020302020302020302020302020302020302020302020302020302020300A2020202D302E3931363320202020312E3239373220202020302E303030302043202020302020302020302020302020302020302020302020302020302020302020302020300A2020202D302E3931363320202020302E3437323220202020302E303030302043202020302020302020302020302020302020302020302020302020302020302020302020300A2020202D302E3230313920202020302E3035393720202020302E303030302043202020302020302020302020302020302020302020302020302020302020302020302020300A2020202D312E3633303820202020302E3035393720202020302E303030302043202020302020302020302020302020302020302020302020302020302020302020302020300A2020202D312E363330382020202D302E3736353320202020302E303030302043202020302020302020302020302020302020302020302020302020302020302020302020300A2020202D322E3334353320202020302E3437323220202020302E303030302043202020302020302020302020302020302020302020302020302020302020302020302020300A20202020312E3332353120202020312E3135333920202020302E30303030204F202020302020302020302020302020302020302020302020302020302020302020302020300A20202020302E3739343820202020322E3037323420202020302E303030302043202020302020302020302020302020302020302020302020302020302020302020302020300A20202020312E3537303020202020322E3335343620202020302E303030302053692020302020302020302020302020302020302020302020302020302020302020302020300A20202020322E3334353320202020322E3633363720202020302E303030302043202020302020302020302020302020302020302020302020302020302020302020302020300A20202020312E3835323220202020312E3537393320202020302E303030302043202020302020302020302020302020302020302020302020302020302020302020302020300A20202020312E3238373920202020332E3132393820202020302E303030302043202020302020302020302020302020302020302020302020302020302020302020302020300A20202020302E353132362020202D322E3030323820202020302E303030302043202020302020302020302020302020302020302020302020302020302020302020302020300A20202020312E323237312020202D322E3431353320202020302E303030302053692020302020302020302020302020302020302020302020302020302020302020302020300A20202020302E383134362020202D332E3132393820202020302E303030302043202020302020302020302020302020302020302020302020302020302020302020302020300A20202020312E393431362020202D322E3832373820202020302E303030302043202020302020302020302020302020302020302020302020302020302020302020302020300A20202020312E363339362020202D312E3730303920202020302E303030302043202020302020302020302020302020302020302020302020302020302020302020302020300A2020312020322020312020302020202020200A2020322020332020322020302020202020200A2020332020342020312020302020202020200A2020342020352020312020302020202020200A2020352020362020312020302020202020200A2020362020372020312020302020202020200A2020372020382020312020302020202020200A2020382020392020312020302020202020200A2020392031302020312020302020202020200A2020312031302020312020302020202020200A2020352031302020312020302020202020200A2031312031322020312020302020202020200A2031312031332020312020302020202020200A2020392031312020312020302020202020200A2020362031342020312020302020202020200A2031362031372020312020302020202020200A2031362031382020312020312020202020200A2031362031392020312020312020202020200A2031352031362020312020302020202020200A2020362031352020312020302020202020200A2032312032322020312020312020202020200A2032312032332020312020302020202020200A2032312032342020312020312020202020200A2032302032312020312020302020202020200A2020322032302020312020302020202020200A4D2020454E44
Contributor: MASS SPECTROSCOPY SOC. OF JAPAN (MSSJ)
InstType: EI
InstName: JEOL JMS-D-3000
IoniMethod: _ENERGY 70 eV
IonPolarity: pos
Date: 2010-10-09 19:48:36+02:00
Num Peaks: 29
45 50 59 60 73 999 74 88 75 49 91 16 149 46 157 23 164 12 165 60 
166 19 175 28 177 25 191 22 204 15 208 70 209 17 217 47 218 12 231 22 
259 13 261 28 274 51 275 16 305 15 333 31 348 114 349 38 350 13 
