Name: 3-(PARA-METHOXYPHENYL)-2-TRIMETHYLSILOXYPROPENE
MW: 236
Formula: C13H20O2Si
Synonym: MassBank: JP002260
Synonym: 3-(PARA-METHOXYPHENYL)-2-TRIMETHYLSILOXYPROPENE
Structure: 332D28504152412D4D4554484F58595048454E594C292D322D5452494D455448594C53494C4F585950524F50454E452E6D6F6C0A20204368656D447261773032323231303133323232440A2031362031362020302020302020302020302020302020302020302020303939392056323030300A20202020312E303731372020202D302E3536333520202020302E303030302043202020302020302020302020302020302020302020302020302020302020302020302020300A20202020312E3037313720202020302E3236313520202020302E303030302043202020302020302020302020302020302020302020302020302020302020302020302020300A20202020302E3335373220202020302E3637343020202020302E303030302043202020302020302020302020302020302020302020302020302020302020302020302020300A20202020312E3738363220202020302E3637343020202020302E30303030204F202020302020302020302020302020302020302020302020302020302020302020302020300A20202020322E3530303620202020302E3236313520202020302E303030302053692020302020302020302020302020302020302020302020302020302020302020302020300A20202020322E303838312020202D302E3435333020202020302E303030302043202020302020302020302020302020302020302020302020302020302020302020302020300A20202020322E3931333120202020302E3937363020202020302E303030302043202020302020302020302020302020302020302020302020302020302020302020302020300A20202020332E323135312020202D302E3135313020202020302E303030302043202020302020302020302020302020302020302020302020302020302020302020302020300A2020202D302E3335373220202020302E3236313520202020302E303030302043202020302020302020302020302020302020302020302020302020302020302020302020300A2020202D302E333537322020202D302E3536333520202020302E303030302043202020302020302020302020302020302020302020302020302020302020302020302020300A2020202D312E303731372020202D302E3937363020202020302E303030302043202020302020302020302020302020302020302020302020302020302020302020302020300A2020202D312E373836322020202D302E3536333520202020302E303030302043202020302020302020302020302020302020302020302020302020302020302020302020300A2020202D312E3738363220202020302E3236313520202020302E303030302043202020302020302020302020302020302020302020302020302020302020302020302020300A2020202D312E3037313720202020302E3637343020202020302E303030302043202020302020302020302020302020302020302020302020302020302020302020302020300A2020202D322E353030362020202D302E3937363020202020302E30303030204F202020302020302020302020302020302020302020302020302020302020302020302020300A2020202D332E323135312020202D302E3536333520202020302E303030302043202020302020302020302020302020302020302020302020302020302020302020302020300A2020312020322020322020302020202020200A2020322020332020312020302020202020200A2020342020352020312020302020202020200A2020352020362020312020302020202020200A2020352020372020312020302020202020200A2020352020382020312020302020202020200A2020322020342020312020302020202020200A2020392031302020312020302020202020200A2031302031312020322020302020202020200A2031312031322020312020302020202020200A2031322031332020322020302020202020200A2031332031342020312020302020202020200A2020392031342020322020302020202020200A2031352031362020312020302020202020200A2031322031352020312020302020202020200A2020332020392020312020302020202020200A4D2020454E44
Contributor: MASS SPECTROSCOPY SOC. OF JAPAN (MSSJ)
InstType: EI
InstName: JEOL JMS-D-3000
IoniMethod: _ENERGY 70 eV
IonPolarity: pos
Date: 2010-10-09 19:48:36+02:00
Num Peaks: 42
47 27 48 50 51 35 55 43 57 56 58 42 59 54 60 48 69 27 73 999 
74 102 75 436 76 42 77 120 78 38 79 24 89 29 91 55 92 35 97 24 
103 31 105 28 107 30 115 29 117 30 121 200 135 235 136 33 147 31 163 26 
164 32 193 35 205 30 206 35 207 30 209 418 210 74 211 23 221 55 223 39 
236 238 237 85 
