Name: 1-OCTADEC-CIS-9-ENOYLPYRROLIDINE
MW: 335
Formula: C22H41NO
Synonym: MassBank: JP001857
Synonym: 1-OCTADEC-CIS-9-ENOYLPYRROLIDINE
Synonym: N-OLEOYLPYRROLIDINE
Structure: 312D4F4354414445432D4349532D392D454E4F594C505952524F4C4944494E452E6D6F6C0A20204368656D447261773131323230393231333532440A2032362032362020302020302020302020302020302020302020302020303939392056323030300A20202020332E393931322020202D302E3631383720202020302E30303030204E202020302020302020302020302020302020302020302020302020302020302020302020300A20202020342E3037373420202020302E3230313720202020302E303030302043202020302020302020302020302020302020302020302020302020302020302020302020300A20202020342E3838343420202020302E3337333320202020302E303030302043202020302020302020302020302020302020302020302020302020302020302020302020300A20202020352E323936392020202D302E3334313220202020302E303030302043202020302020302020302020302020302020302020302020302020302020302020302020300A20202020342E373434392020202D302E3935343320202020302E303030302043202020302020302020302020302020302020302020302020302020302020302020302020300A20202020332E323736372020202D312E3033313220202020302E303030302043202020302020302020302020302020302020302020302020302020302020302020302020300A20202020332E323736372020202D312E3835363220202020302E303030302043202020302020302020302020302020302020302020302020302020302020302020302020300A20202020322E353632332020202D322E3236383720202020302E303030302043202020302020302020302020302020302020302020302020302020302020302020302020300A20202020312E383437382020202D312E3835363220202020302E303030302043202020302020302020302020302020302020302020302020302020302020302020302020300A20202020312E313333332020202D322E3236383720202020302E303030302043202020302020302020302020302020302020302020302020302020302020302020302020300A20202020302E343138392020202D312E3835363220202020302E303030302043202020302020302020302020302020302020302020302020302020302020302020302020300A2020202D302E323935362020202D322E3236383720202020302E303030302043202020302020302020302020302020302020302020302020302020302020302020302020300A2020202D312E303130312020202D312E3835363220202020302E303030302043202020302020302020302020302020302020302020302020302020302020302020302020300A2020202D312E373234362020202D322E3236383720202020302E303030302043202020302020302020302020302020302020302020302020302020302020302020302020300A2020202D322E343339302020202D312E3835363220202020302E303030302043202020302020302020302020302020302020302020302020302020302020302020302020300A2020202D322E343339302020202D312E3033313220202020302E303030302043202020302020302020302020302020302020302020302020302020302020302020302020300A2020202D332E313533352020202D302E3631383720202020302E303030302043202020302020302020302020302020302020302020302020302020302020302020302020300A2020202D332E3135333520202020302E3230363220202020302E303030302043202020302020302020302020302020302020302020302020302020302020302020302020300A2020202D332E3836383020202020302E3631383720202020302E303030302043202020302020302020302020302020302020302020302020302020302020302020302020300A2020202D332E3836383020202020312E3434333720202020302E303030302043202020302020302020302020302020302020302020302020302020302020302020302020300A2020202D342E3538323420202020312E3835363220202020302E303030302043202020302020302020302020302020302020302020302020302020302020302020302020300A2020202D342E3538323420202020322E3638313220202020302E303030302043202020302020302020302020302020302020302020302020302020302020302020302020300A2020202D352E3239363920202020332E3039333720202020302E303030302043202020302020302020302020302020302020302020302020302020302020302020302020300A20202020322E353632332020202D302E3631383720202020302E30303030204F202020302020302020302020302020302020302020302020302020302020302020302020300A2020202D332E313533352020202D322E3236383720202020302E303030302048202020302020302020302020302020302020302020302020302020302020302020302020300A2020202D312E373234362020202D332E3039333720202020302E303030302048202020302020302020302020302020302020302020302020302020302020302020302020300A2020312020322020312020302020202020200A2020322020332020312020302020202020200A2020332020342020312020302020202020200A2020342020352020312020302020202020200A2020312020352020312020302020202020200A2020362020372020312020302020202020200A2020372020382020312020302020202020200A2020382020392020312020302020202020200A2020392031302020312020302020202020200A2031302031312020312020302020202020200A2031312031322020312020302020202020200A2031322031332020312020302020202020200A2031332031342020312020302020202020200A2031342031352020322020302020202020200A2031352031362020312020302020202020200A2031362031372020312020302020202020200A2031372031382020312020302020202020200A2031382031392020312020302020202020200A2031392032302020312020302020202020200A2032302032312020312020302020202020200A2032312032322020312020302020202020200A2032322032332020312020302020202020200A2020362032342020322020302020202020200A2020312020362020312020302020202020200A2031352032352020312020302020202020200A2031342032362020312020302020202020200A4D2020454E44
Contributor: SEYAMA Y, DEPT. OF PHYSIOL. CHEMISTRY AND NUTRITION, FAC. OF MEDICINE, UNIV. OF TOKYO
InstType: EI
InstName: SHIMADZU QP-1000
IoniMethod: _ENERGY 70 eV
IonPolarity: pos
Date: 2010-10-09 19:48:36+02:00
Num Peaks: 30
95 13 97 11 98 194 99 21 112 21 113 999 114 76 126 496 127 107 140 59 
141 18 154 23 168 48 169 10 180 16 182 66 183 11 194 12 196 18 208 18 
222 25 236 40 250 36 264 17 278 11 292 11 306 7 320 1 335 57 336 16 
