Name: MEPROBAMATE
MW: 218
Formula: C9H18N2O4
Synonym: MassBank: JP003870
Synonym: MEPROBAMATE
Synonym: 2-METHYL-2-PROPYL-1,3-PROPANEDIOL DICARBAMATE
Structure: 4D4550524F42414D4154452E6D6F6C0A20204368656D447261773031323231303033313932440A2031352031342020302020302020302020302020302020302020302020303939392056323030300A20202020302E383235302020202D302E3331363820202020302E303030302043202020302020302020302020302020302020302020302020302020302020302020302020300A20202020302E303030302020202D302E3331363820202020302E303030302043202020302020302020302020302020302020302020302020302020302020302020302020300A2020202D302E383235302020202D302E3331363820202020302E303030302043202020302020302020302020302020302020302020302020302020302020302020302020300A20202020302E3030303020202020302E3530383220202020302E303030302043202020302020302020302020302020302020302020302020302020302020302020302020300A20202020302E3731343520202020302E3932303720202020302E303030302043202020302020302020302020302020302020302020302020302020302020302020302020300A20202020302E3731343520202020312E3734353720202020302E303030302043202020302020302020302020302020302020302020302020302020302020302020302020300A20202020302E303030302020202D312E3134313820202020302E303030302043202020302020302020302020302020302020302020302020302020302020302020302020300A20202020322E303632352020202D312E3033313320202020302E303030302043202020302020302020302020302020302020302020302020302020302020302020302020300A20202020322E343735302020202D302E3331363820202020302E30303030204E202020302020302020302020302020302020302020302020302020302020302020302020300A20202020322E343735302020202D312E3734353720202020302E30303030204F202020302020302020302020302020302020302020302020302020302020302020302020300A20202020312E323337352020202D312E3033313320202020302E30303030204F202020302020302020302020302020302020302020302020302020302020302020302020300A2020202D322E303632352020202D312E3033313320202020302E303030302043202020302020302020302020302020302020302020302020302020302020302020302020300A2020202D322E343735302020202D312E3734353720202020302E30303030204E202020302020302020302020302020302020302020302020302020302020302020302020300A2020202D322E343735302020202D302E3331363820202020302E30303030204F202020302020302020302020302020302020302020302020302020302020302020302020300A2020202D312E323337352020202D312E3033313320202020302E30303030204F202020302020302020302020302020302020302020302020302020302020302020302020300A2020312020322020312020302020202020200A2020322020332020312020302020202020200A2020342020352020312020302020202020200A2020352020362020312020302020202020200A2020322020342020312020302020202020200A2020322020372020312020302020202020200A2020382020392020312020302020202020200A2020382031302020322020302020202020200A2020382031312020312020302020202020200A2020312031312020312020302020202020200A2031322031332020312020302020202020200A2031322031342020322020302020202020200A2031322031352020312020302020202020200A2020332031352020312020302020202020200A4D2020454E44
Contributor: SASAKI S, TOYOHASHI UNIV. OF TECH.
InstType: EI
InstName: Unknown
IoniMethod: _ENERGY 70 eV
IonPolarity: pos
Date: 2010-10-09 19:48:36+02:00
Num Peaks: 89
26 1 27 54 28 58 29 9 30 10 31 84 32 6 38 0 39 61 40 17 
41 235 42 5 43 179 44 237 45 158 46 3 47 9 51 4 52 3 53 3 
54 27 55 594 56 259 57 11 58 39 59 109 60 9 61 0 62 304 63 9 
64 1 65 0 66 8 67 52 68 39 69 10 70 28 71 449 72 99 73 1 
74 18 75 194 76 16 77 1 79 12 80 3 81 161 82 3 83 999 84 249 
85 57 86 2 87 4 88 4 89 7 92 4 93 6 94 1 95 13 96 44 
97 53 98 9 99 34 100 3 101 132 102 15 103 1 104 1 105 10 112 1 
113 11 114 42 115 59 116 9 117 2 131 1 132 13 133 1 135 15 136 1 
142 8 144 349 145 31 146 0 157 18 158 9 159 1 174 0 175 6 
