Name: DICHLOROMETHYLTRIMETHYLSILANE
CAS: 5926-38-5
MW: 155
Formula: C4H10Cl2Si
Synonym: MassBank: JP004740
Synonym: DICHLOROMETHYLTRIMETHYLSILANE
Structure: 310A31380A444943484C4F524F4D455448594C5452494D455448594C53494C414E452E6D6F6C0A20204368656D447261773039323131303138313932440A2020372020362020302020302020302020302020302020302020302020303939392056323030300A20202020302E303030302020202D302E3230363320202020302E303030302053692020302020302020302020302020302020302020302020302020302020302020302020300A2020202D302E383235302020202D302E3230363320202020302E303030302043202020302020302020302020302020302020302020302020302020302020302020302020300A20202020302E383235302020202D302E3230363320202020302E303030302043202020302020302020302020302020302020302020302020302020302020302020302020300A20202020302E303030302020202D312E3033313320202020302E303030302043202020302020302020302020302020302020302020302020302020302020302020302020300A20202020302E3030303020202020302E3631383720202020302E303030302043202020302020302020302020302020302020302020302020302020302020302020302020300A2020202D302E3731343520202020312E3033313320202020302E3030303020436C2020302020302020302020302020302020302020302020302020302020302020302020300A20202020302E3731343520202020312E3033313320202020302E3030303020436C2020302020302020302020302020302020302020302020302020302020302020302020300A2020312020322020312020302020202020200A2020312020332020312020302020202020200A2020312020342020312020302020202020200A2020352020362020312020302020202020200A2020352020372020312020302020202020200A2020312020352020312020302020202020200A4D2020454E44
Contributor: MASS SPECTROSCOPY SOC. OF JAPAN (MSSJ)
InstType: EI
InstName: JEOL JMS-D-3000
IoniMethod: _ENERGY 70 eV
IonPolarity: pos
Date: 2010-10-09 19:48:36+02:00
Num Peaks: 21
42 14 43 47 44 13 45 124 53 11 63 56 65 42 73 999 74 87 75 39 
78 14 79 21 93 119 94 10 95 45 113 311 114 22 115 213 116 13 117 40 
156 5 
