Name: MassBank: JP004908
CAS: 79-34-5
MW: 165
Formula: C2H2Cl4
Synonym: MassBank: JP004908
Synonym: 1,1,2,2-TETRACHLOROETHANE
Structure: 310A31360A312C312C322C322D544554524143484C4F524F455448414E452E6D6F6C0A20204368656D447261773130323330393031303732440A2020362020352020302020302020302020302020302020302020302020303939392056323030300A20202020302E3431323520202020302E3030303020202020302E303030302043202020302020302020302020302020302020302020302020302020302020302020302020300A2020202D302E3431323520202020302E3030303020202020302E303030302043202020302020302020302020302020302020302020302020302020302020302020302020300A2020202D302E383235302020202D302E3731343520202020302E3030303020436C2020302020302020302020302020302020302020302020302020302020302020302020300A2020202D302E3832353020202020302E3731343520202020302E3030303020436C2020302020302020302020302020302020302020302020302020302020302020302020300A20202020302E3832353020202020302E3731343520202020302E3030303020436C2020302020302020302020302020302020302020302020302020302020302020302020300A20202020302E383235302020202D302E3731343520202020302E3030303020436C2020302020302020302020302020302020302020302020302020302020302020302020300A2020312020322020312020302020202020200A2020322020332020312020302020202020200A2020322020342020312020302020202020200A2020312020352020312020302020202020200A2020312020362020312020302020202020200A4D2020454E44
Contributor: MASS SPECTROSCOPY SOC. OF JAPAN (MSSJ)
InstType: EI
InstName: JEOL JMS-D-3000
IoniMethod: _ENERGY 70 eV
IonPolarity: pos
Date: 2010-10-09 19:48:36+02:00
Num Peaks: 23
47 14 48 13 60 42 61 45 62 15 63 14 83 999 84 13 85 652 87 105 
95 80 96 55 97 51 98 34 130 12 131 78 132 13 133 72 135 29 137 10 
166 53 168 67 170 32 
