Name: MassBank: JP004947
CAS: 1559-02-0
MW: 186
Formula: C9H14O4
Synonym: MassBank: JP004947
Synonym: 1,1-BIS(ETHOXYCARBONYL)CYCLOPROPANE
Synonym: DIETHYL 1,1-CYCLOPROPANEDICARBOXYLATE
Structure: 312C312D424953284554484F5859434152424F4E594C294359434C4F50524F50414E452E6D6F6C0A20204368656D447261773130323330393033333032440A2031332031332020302020302020302020302020302020302020302020303939392056323030300A20202020302E373033362020202D302E3938353520202020302E303030302043202020302020302020302020302020302020302020302020302020302020302020302020300A20202020312E313136312020202D312E3730303020202020302E303030302043202020302020302020302020302020302020302020302020302020302020302020302020300A20202020302E323931312020202D312E3730303020202020302E303030302043202020302020302020302020302020302020302020302020302020302020302020302020300A20202020302E303731362020202D302E3435353220202020302E303030302043202020302020302020302020302020302020302020302020302020302020302020302020300A20202020302E3231343920202020302E3335373220202020302E30303030204F202020302020302020302020302020302020302020302020302020302020302020302020300A2020202D302E373033362020202D302E3733373420202020302E30303030204F202020302020302020302020302020302020302020302020302020302020302020302020300A2020202D312E333335362020202D302E3230373120202020302E303030302043202020302020302020302020302020302020302020302020302020302020302020302020300A2020202D322E313130382020202D302E3438393320202020302E303030302043202020302020302020302020302020302020302020302020302020302020302020302020300A20202020312E333335362020202D302E3435353220202020302E303030302043202020302020302020302020302020302020302020302020302020302020302020302020300A20202020322E313130382020202D302E3733373420202020302E30303030204F202020302020302020302020302020302020302020302020302020302020302020302020300A20202020312E3139323320202020302E3335373220202020302E30303030204F202020302020302020302020302020302020302020302020302020302020302020302020300A20202020312E3832343320202020302E3838373520202020302E303030302043202020302020302020302020302020302020302020302020302020302020302020302020300A20202020312E3638313120202020312E3730303020202020302E303030302043202020302020302020302020302020302020302020302020302020302020302020302020300A2020312020322020312020302020202020200A2020322020332020312020302020202020200A2020312020332020312020302020202020200A2020342020352020322020302020202020200A2020372020382020312020302020202020200A2020362020372020312020302020202020200A2020342020362020312020302020202020200A2020312020342020312020302020202020200A2020392031302020322020302020202020200A2031322031332020312020302020202020200A2031312031322020312020302020202020200A2020392031312020312020302020202020200A2020312020392020312020302020202020200A4D2020454E44
Contributor: MASS SPECTROSCOPY SOC. OF JAPAN (MSSJ)
InstType: EI
InstName: JEOL JMS-D-3000
IoniMethod: _ENERGY 70 eV
IonPolarity: pos
Date: 2010-10-09 19:48:36+02:00
Num Peaks: 40
40 77 42 18 43 48 44 61 45 80 53 28 54 28 55 25 57 24 59 26 
67 17 68 142 69 134 70 12 71 11 82 86 83 16 84 59 85 152 86 170 
87 12 95 101 96 13 97 47 99 29 111 11 112 496 113 588 114 190 127 12 
130 364 131 39 140 44 141 999 142 88 143 13 158 204 159 174 160 15 186 28 
