Name: MassBank: JP004722
MW: 242
Formula: C12H22O3Si
Synonym: MassBank: JP004722
Synonym: METHYL 3,4-EPOXY-4-TRIMETHYLSILYLMETHYLCYCLOHEXANECARBOXYLATE
Structure: 4D455448594C20332C342D45504F58592D342D5452494D455448594C53494C594C4D455448594C4359434C4F484558414E45434152424F58594C4154452E6D6F6C0A20204368656D447261773038313131303233353332440A2031362031372020302020302020302020302020302020302020302020303939392056323030300A20202020312E323738302020202D302E3335373220202020302E303030302043202020302020302020302020302020302020302020302020302020302020302020302020300A20202020302E383635352020202D312E3037313720202020302E303030302043202020302020302020302020302020302020302020302020302020302020302020302020300A20202020302E303430352020202D312E3037313720202020302E303030302043202020302020302020302020302020302020302020302020302020302020302020302020300A2020202D302E333732302020202D302E3335373220202020302E303030302043202020302020302020302020302020302020302020302020302020302020302020302020300A20202020302E3034303520202020302E3335373220202020302E303030302043202020302020302020302020302020302020302020302020302020302020302020302020300A20202020302E3836353520202020302E3335373220202020302E303030302043202020302020302020302020302020302020302020302020302020302020302020302020300A20202020322E313033302020202D302E3335373220202020302E303030302043202020302020302020302020302020302020302020302020302020302020302020302020300A20202020322E353135352020202D312E3037313720202020302E30303030204F202020302020302020302020302020302020302020302020302020302020302020302020300A20202020322E3531353520202020302E3335373220202020302E30303030204F202020302020302020302020302020302020302020302020302020302020302020302020300A2020202D312E3038363520202020302E3035353320202020302E303030302043202020302020302020302020302020302020302020302020302020302020302020302020300A2020202D312E383031302020202D302E3335373220202020302E303030302053692020302020302020302020302020302020302020302020302020302020302020302020300A2020202D322E3231333520202020302E3335373220202020302E303030302043202020302020302020302020302020302020302020302020302020302020302020302020300A2020202D312E333838352020202D312E3037313720202020302E303030302043202020302020302020302020302020302020302020302020302020302020302020302020300A2020202D322E353135352020202D302E3736393720202020302E303030302043202020302020302020302020302020302020302020302020302020302020302020302020300A2020202D302E373834352020202D312E3037313720202020302E30303030204F202020302020302020302020302020302020302020302020302020302020302020302020300A20202020322E3130333020202020312E3037313720202020302E303030302043202020302020302020302020302020302020302020302020302020302020302020302020300A2020312020322020312020302020202020200A2020322020332020312020302020202020200A2020332020342020312020302020202020200A2020342020352020312020302020202020200A2020352020362020312020302020202020200A2020312020362020312020302020202020200A2020372020382020322020302020202020200A2020372020392020312020302020202020200A2020312020372020312020302020202020200A2031312031322020312020302020202020200A2031312031332020312020302020202020200A2031312031342020312020302020202020200A2031302031312020312020302020202020200A2020342031302020312020302020202020200A2020332031352020312020302020202020200A2020342031352020312020302020202020200A2020392031362020312020302020202020200A4D2020454E44
Contributor: MASS SPECTROSCOPY SOC. OF JAPAN (MSSJ)
InstType: EI
InstName: JEOL JMS-D-3000
IoniMethod: _ENERGY 70 eV
IonPolarity: pos
Date: 2010-10-09 19:48:36+02:00
Num Peaks: 31
43 76 45 152 47 76 55 323 59 189 61 148 73 818 74 86 75 999 76 81 
77 157 87 90 89 303 91 273 92 83 93 748 94 62 109 73 121 70 149 252 
151 73 159 329 167 303 182 123 183 660 184 116 213 14 224 22 227 76 228 14 
242 23 
