Name: MassBank: JP004404
MW: 200
Formula: C13H16N2
Synonym: MassBank: JP004404
Synonym: 5,7-DIMETHYL-1,2,3,4-TETRAHYDROPYRIMIDO(1,6-A)INDOLE
Structure: 352C372D44494D455448594C2D312C322C332C342D5445545241485944524F505952494D49444F28312C362D4129494E444F4C452E6D6F6C0A20204368656D447261773034323331303032333032440A2031352031372020302020302020302020302020302020302020302020303939392056323030300A20202020302E3838373320202020302E3533383520202020302E30303030204E202020302020302020302020302020302020302020302020302020302020302020302020300A20202020302E393733352020202D302E3238323020202020302E303030302043202020302020302020302020302020302020302020302020302020302020302020302020300A20202020302E323139392020202D302E3631373520202020302E303030302043202020302020302020302020302020302020302020302020302020302020302020302020300A2020202D302E333332322020202D302E3030343420202020302E303030302043202020302020302020302020302020302020302020302020302020302020302020302020300A2020202D312E313537322020202D302E3030343420202020302E303030302043202020302020302020302020302020302020302020302020302020302020302020302020300A2020202D312E3536393720202020302E3731303020202020302E303030302043202020302020302020302020302020302020302020302020302020302020302020302020300A2020202D312E3135373220202020312E3432343520202020302E303030302043202020302020302020302020302020302020302020302020302020302020302020302020300A2020202D302E3333323220202020312E3432343520202020302E303030302043202020302020302020302020302020302020302020302020302020302020302020302020300A20202020302E3038303320202020302E3731303020202020302E303030302043202020302020302020302020302020302020302020302020302020302020302020302020300A20202020312E3535343820202020312E3032333420202020302E303030302043202020302020302020302020302020302020302020302020302020302020302020302020300A20202020322E3330383420202020302E3638373920202020302E30303030204E202020302020302020302020302020302020302020302020302020302020302020302020300A20202020322E333934372020202D302E3133323620202020302E303030302043202020302020302020302020302020302020302020302020302020302020302020302020300A20202020312E373237322020202D302E3631373520202020302E303030302043202020302020302020302020302020302020302020302020302020302020302020302020300A2020202D322E3339343720202020302E3731303020202020302E303030302043202020302020302020302020302020302020302020302020302020302020302020302020300A20202020302E303438332020202D312E3432343520202020302E303030302043202020302020302020302020302020302020302020302020302020302020302020302020300A2020312020322020312020302020202020200A2020322020332020322020302020202020200A2020332020342020312020302020202020200A2020342020352020312020302020202020200A2020352020362020322020302020202020200A2020362020372020312020302020202020200A2020372020382020322020302020202020200A2020382020392020312020302020202020200A2020312020392020312020302020202020200A2020342020392020322020302020202020200A2031302031312020312020302020202020200A2031312031322020312020302020202020200A2031322031332020312020302020202020200A2020312031302020312020302020202020200A2020322031332020312020302020202020200A2020362031342020312020302020202020200A2020332031352020312020302020202020200A4D2020454E44
Contributor: SASAKI S, TOYOHASHI UNIV. OF TECH.
InstType: EI
InstName: JEOL JMS-01-SG-2
IoniMethod: _ENERGY 75 eV
IonPolarity: pos
Date: 2010-10-09 19:48:36+02:00
Num Peaks: 14
51 12 77 21 115 45 128 1 130 10 143 78 156 67 157 7 158 999 159 102 
170 56 171 34 199 19 200 360 
