Name: 1-ETHYLINDOLE
MW: 145
Formula: C10H11N
Synonym: MassBank: JP007830
Synonym: 1-ETHYLINDOLE
Structure: 312D455448594C494E444F4C452E6D6F6C0A20204368656D447261773131313830393033353932440A2031332031342020302020302020302020302020302020302020302020303939392056323030300A2020202D302E3532393620202020302E3533383520202020302E30303030204E202020302020302020302020302020302020302020302020302020302020302020302020300A2020202D302E363135392020202D302E3238323020202020302E303030302043202020302020302020302020302020302020302020302020302020302020302020302020300A20202020302E313337382020202D302E3631373520202020302E303030302043202020302020302020302020302020302020302020302020302020302020302020302020300A20202020302E363839382020202D302E3030343420202020302E303030302043202020302020302020302020302020302020302020302020302020302020302020302020300A20202020312E353134382020202D302E3030343420202020302E303030302043202020302020302020302020302020302020302020302020302020302020302020302020300A20202020312E3932373320202020302E3731303020202020302E303030302043202020302020302020302020302020302020302020302020302020302020302020302020300A20202020312E3531343820202020312E3432343520202020302E303030302043202020302020302020302020302020302020302020302020302020302020302020302020300A20202020302E3638393820202020312E3432343520202020302E303030302043202020302020302020302020302020302020302020302020302020302020302020302020300A20202020302E3237373320202020302E3731303020202020302E303030302043202020302020302020302020302020302020302020302020302020302020302020302020300A2020202D312E3134323720202020312E3039303520202020302E303030302043202020302020302020302020302020302020302020302020302020302020302020302020300A2020202D312E3932373320202020302E3833353620202020302E303030302043202020302020302020302020302020302020302020302020302020302020302020302020300A2020202D312E333330332020202D302E3639343520202020302E303030302048202020302020302020302020302020302020302020302020302020302020302020302020300A20202020302E333039332020202D312E3432343520202020302E303030302048202020302020302020302020302020302020302020302020302020302020302020302020300A2020312020322020312020302020202020200A2020322020332020322020302020202020200A2020332020342020312020302020202020200A2020342020352020312020302020202020200A2020352020362020322020302020202020200A2020362020372020312020302020202020200A2020372020382020322020302020202020200A2020382020392020312020302020202020200A2020312020392020312020302020202020200A2020342020392020322020302020202020200A2031302031312020312020302020202020200A2020312031302020312020302020202020200A2020322031322020312020302020202020200A2020332031332020312020302020202020200A4D2020454E44
Contributor: HASHIMOTO K, KYOTO COLLEGE OF PHARMACY
InstType: EI
InstName: HITACHI M-80
IoniMethod: _ENERGY 20 eV
IonPolarity: pos
Date: 2010-10-09 19:48:36+02:00
Num Peaks: 19
27 10 29 40 39 32 42 16 51 55 52 15 63 90 69 43 77 130 89 235 
90 85 103 70 115 70 116 66 130 999 131 145 144 28 145 501 146 75 
