Name: MassBank: JP002437
MW: 236
Formula: C15H24O2
Synonym: MassBank: JP002437
Synonym: 9-METHOXY-6,6,9-TRIMETHYL-5ALPHA,8BETA-TRICYCLO(6.3.0.0(1,5))UNDECAN-2-ONE
Structure: 392D4D4554484F58592D362C362C392D5452494D455448594C2D35414C5048412C38424554412D5452494359434C4F28362E332E302E3028312C352929554E444543414E2D322D4F4E452E6D6F6C0A20204368656D447261773036323131303231343432440A2031392032312020302020302020302020302020302020302020302020303939392056323030300A20202020302E3232363820202020302E3536313920202020302E303030302043202020302020302020302020302020302020302020302020302020302020302020302020300A20202020302E3731313720202020312E3232393320202020302E303030302043202020302020302020302020302020302020302020302020302020302020302020302020300A20202020302E3232363820202020312E3839363820202020302E303030302043202020302020302020302020302020302020302020302020302020302020302020302020300A2020202D302E3535373920202020312E3634313820202020302E303030302043202020302020302020302020302020302020302020302020302020302020302020302020300A2020202D302E3535373920202020302E3831363820202020302E303030302043202020302020302020302020302020302020302020302020302020302020302020302020300A2020202D312E3033323420202020302E3133393420202020302E303030302043202020302020302020302020302020302020302020302020302020302020302020302020300A2020202D302E353537392020202D302E3531383020202020302E303030302043202020302020302020302020302020302020302020302020302020302020302020302020300A20202020302E323236382020202D302E3236333120202020302E303030302043202020302020302020302020302020302020302020302020302020302020302020302020300A20202020312E303131342020202D302E3531383020202020302E303030302043202020302020302020302020302020302020302020302020302020302020302020302020300A20202020312E3439363320202020302E3134393420202020302E303030302043202020302020302020302020302020302020302020302020302020302020302020302020300A20202020312E3031313420202020302E3831363820202020302E303030302043202020302020302020302020302020302020302020302020302020302020302020302020300A20202020312E3533363720202020312E3232393320202020302E30303030204F202020302020302020302020302020302020302020302020302020302020302020302020300A20202020312E373539312020202D302E3836363720202020302E303030302043202020302020302020302020302020302020302020302020302020302020302020302020300A2020202D312E363135382020202D302E3434343020202020302E303030302043202020302020302020302020302020302020302020302020302020302020302020302020300A2020202D312E3735393120202020302E3535383920202020302E303030302043202020302020302020302020302020302020302020302020302020302020302020302020300A20202020302E383136382020202D312E3331333420202020302E30303030204F202020302020302020302020302020302020302020302020302020302020302020302020300A20202020312E343030322020202D312E3839363820202020302E303030302043202020302020302020302020302020302020302020302020302020302020302020302020300A2020202D312E3237323320202020312E3232393320202020302E303030302048202020302020302020302020302020302020302020302020302020302020302020302020300A20202020302E303833352020202D312E3037353620202020302E303030302048202020302020302020302020302020302020302020302020302020302020302020302020300A2020312020322020312020302020202020200A2020322020332020312020302020202020200A2020332020342020312020302020202020200A2020342020352020312020302020202020200A2020352020362020312020302020202020200A2020362020372020312020302020202020200A2020372020382020312020302020202020200A2020382020392020312020302020202020200A2020392031302020312020302020202020200A2031302031312020312020302020202020200A2020312031312020312020302020202020200A2020312020382020312020302020202020200A2020312020352020312020302020202020200A2020322031322020322020302020202020200A2020392031332020312020302020202020200A2020362031342020312020362020202020200A2020362031352020312020312020202020200A2031362031372020312020302020202020200A2020392031362020312020302020202020200A2020352031382020312020312020202020200A2020382031392020312020312020202020200A4D2020454E44
Contributor: ITO S, DEPT. OF CHEM., TOHOKU UNIV.
InstType: EI
InstName: HITACHI M-52
IoniMethod: _ENERGY 13.5 eV
IonPolarity: pos
Date: 2010-10-09 19:48:36+02:00
Num Peaks: 24
57 21 72 362 73 411 85 999 86 47 94 81 110 80 136 11 149 34 150 258 
151 55 152 4 164 62 165 221 166 21 189 2 204 216 205 70 206 960 207 35 
209 21 221 164 222 29 236 37 
