Name: MassBank: JP005344
MW: 292
Formula: C19H32O2
Synonym: MassBank: JP005344
Synonym: (Z,Z,Z)-6,9,12-OCTADECATRIENOIC ACID METHYL ESTER
Synonym: GAMMA-METHYL LINOLENATE
Structure: 285A2C5A2C5A292D362C392C31322D4F43544144454341545249454E4F49432041434944204D455448594C2045535445522E6D6F6C0A20204368656D447261773130323230393232323032440A2032372032362020302020302020302020302020302020302020302020303939392056323030300A2020202D312E3635303020202020322E3530303620202020302E303030302043202020302020302020302020302020302020302020302020302020302020302020302020300A2020202D322E3036323520202020312E3738363220202020302E303030302043202020302020302020302020302020302020302020302020302020302020302020302020300A2020202D312E3635303020202020312E3037313720202020302E303030302043202020302020302020302020302020302020302020302020302020302020302020302020300A2020202D322E3036323520202020302E3335373220202020302E303030302043202020302020302020302020302020302020302020302020302020302020302020302020300A2020202D312E363530302020202D302E3335373220202020302E303030302043202020302020302020302020302020302020302020302020302020302020302020302020300A2020202D322E303632352020202D312E3037313720202020302E303030302043202020302020302020302020302020302020302020302020302020302020302020302020300A2020202D312E363530302020202D312E3738363220202020302E303030302043202020302020302020302020302020302020302020302020302020302020302020302020300A2020202D302E383235302020202D312E3738363220202020302E303030302043202020302020302020302020302020302020302020302020302020302020302020302020300A2020202D302E343132352020202D322E3530303620202020302E303030302043202020302020302020302020302020302020302020302020302020302020302020302020300A20202020302E343132352020202D322E3530303620202020302E303030302043202020302020302020302020302020302020302020302020302020302020302020302020300A20202020302E383235302020202D312E3738363220202020302E303030302043202020302020302020302020302020302020302020302020302020302020302020302020300A20202020312E363530302020202D312E3738363220202020302E303030302043202020302020302020302020302020302020302020302020302020302020302020302020300A20202020322E303632352020202D312E3037313720202020302E303030302043202020302020302020302020302020302020302020302020302020302020302020302020300A20202020312E363530302020202D302E3335373220202020302E303030302043202020302020302020302020302020302020302020302020302020302020302020302020300A20202020322E3036323520202020302E3335373220202020302E303030302043202020302020302020302020302020302020302020302020302020302020302020302020300A20202020312E3635303020202020312E3037313720202020302E303030302043202020302020302020302020302020302020302020302020302020302020302020302020300A20202020322E3036323520202020312E3738363220202020302E303030302043202020302020302020302020302020302020302020302020302020302020302020302020300A20202020312E3635303020202020322E3530303620202020302E303030302043202020302020302020302020302020302020302020302020302020302020302020302020300A2020202D302E3832353020202020322E3530303620202020302E30303030204F202020302020302020302020302020302020302020302020302020302020302020302020300A2020202D322E3036323520202020332E3231353120202020302E30303030204F202020302020302020302020302020302020302020302020302020302020302020302020300A2020202D322E3838373520202020332E3231353120202020302E303030302043202020302020302020302020302020302020302020302020302020302020302020302020300A2020202D322E383837352020202D312E3037313720202020302E303030302048202020302020302020302020302020302020302020302020302020302020302020302020300A2020202D322E303632352020202D322E3530303620202020302E303030302048202020302020302020302020302020302020302020302020302020302020302020302020300A2020202D302E383235302020202D332E3231353120202020302E303030302048202020302020302020302020302020302020302020302020302020302020302020302020300A20202020302E383235302020202D332E3231353120202020302E303030302048202020302020302020302020302020302020302020302020302020302020302020302020300A20202020322E303632352020202D322E3530303620202020302E303030302048202020302020302020302020302020302020302020302020302020302020302020302020300A20202020322E383837352020202D312E3037313720202020302E303030302048202020302020302020302020302020302020302020302020302020302020302020302020300A2020312020322020312020302020202020200A2020322020332020312020302020202020200A2020332020342020312020302020202020200A2020342020352020312020302020202020200A2020352020362020312020302020202020200A2020362020372020322020302020202020200A2020372020382020312020302020202020200A2020382020392020312020302020202020200A2020392031302020322020302020202020200A2031302031312020312020302020202020200A2031312031322020312020302020202020200A2031322031332020322020302020202020200A2031332031342020312020302020202020200A2031342031352020312020302020202020200A2031352031362020312020302020202020200A2031362031372020312020302020202020200A2031372031382020312020302020202020200A2020312031392020322020302020202020200A2020312032302020312020302020202020200A2032302032312020312020302020202020200A2020362032322020312020302020202020200A2020372032332020312020302020202020200A2020392032342020312020302020202020200A2031302032352020312020302020202020200A2031322032362020312020302020202020200A2031332032372020312020302020202020200A4D2020454E44
Contributor: YAMAOKA R, KYOTO INSTITUTE OF TECHNOLOGY
InstType: EI
InstName: HITACHI M-80B
IoniMethod: _ENERGY 20 eV
IonPolarity: pos
Date: 2010-10-09 19:48:36+02:00
Num Peaks: 89
40 27 41 131 42 38 43 184 44 25 53 14 54 161 55 263 56 21 57 106 
59 86 60 16 65 16 66 171 67 924 68 159 69 215 70 11 71 93 73 36 
74 125 77 72 78 161 79 849 80 999 81 603 82 173 83 82 84 58 85 133 
87 239 88 59 91 244 92 120 93 629 94 422 95 373 96 117 97 100 101 45 
105 149 106 128 107 266 108 158 109 57 110 61 111 30 117 22 118 50 119 119 
120 203 121 237 122 55 123 91 124 11 125 12 129 25 131 45 133 90 134 88 
135 117 136 110 137 79 138 13 144 11 145 19 147 44 148 43 149 123 150 243 
151 31 157 19 161 49 162 48 163 151 164 75 171 25 173 10 175 81 177 79 
189 25 194 141 195 16 208 27 221 10 222 19 243 16 292 136 293 12 
