Name: EXO-NORBORNEOL
MW: 112
Formula: C7H12O
Synonym: MassBank: JP000555
Synonym: EXO-NORBORNEOL
Synonym: ISONORBORNEOL
Structure: 310A32320A303134375F45584F2D4E4F52424F524E454F4C2E6D6F6C0A20204368656D447261773039303331303138313932440A2020382020392020302020302020302020302020302020302020302020303939392056323030300A20202020302E3431323520202020302E3030303020202020302E303030302043202020302020302020302020302020302020302020302020302020302020302020302020300A20202020312E3233373520202020302E3030303020202020302E30303030204F202020302020302020302020302020302020302020302020302020302020302020302020300A2020202D302E3030303020202020302E3731343520202020302E303030302043202020302020302020302020302020302020302020302020302020302020302020302020300A2020202D302E3832353020202020302E3731343520202020302E303030302043202020302020302020302020302020302020302020302020302020302020302020302020300A2020202D312E3233373520202020302E3030303020202020302E303030302043202020302020302020302020302020302020302020302020302020302020302020302020300A2020202D302E383235302020202D302E3731343520202020302E303030302043202020302020302020302020302020302020302020302020302020302020302020302020300A2020202D302E303030302020202D302E3731343520202020302E303030302043202020302020302020302020302020302020302020302020302020302020302020302020300A2020202D302E323537312020202D302E3036393420202020302E303030302043202020302020302020302020302020302020302020302020302020302020302020302020300A2020312020322020312020312020202020200A2020312020332020312020302020202020200A2020332020342020312020302020202020200A2020342020352020312020302020202020200A2020352020362020312020302020202020200A2020362020372020312020302020202020200A2020372020312020312020302020202020200A2020332020382020312020312020202020200A2020362020382020312020312020202020200A4D2020454E44
Contributor: HASHIMOTO K, KYOTO COLLEGE OF PHARMACY
InstType: EI
InstName: HITACHI M-80
IoniMethod: _ENERGY 20 eV
IonPolarity: pos
Date: 2010-10-09 19:48:36+02:00
Num Peaks: 32
29 25 39 10 40 68 41 25 42 52 43 24 44 39 52 41 53 21 54 105 
55 73 56 153 58 47 66 470 67 436 68 469 69 62 70 105 71 47 77 15 
79 597 80 45 81 101 82 13 83 161 84 64 93 41 94 999 95 90 97 62 
111 14 112 23 
