Name: ISOPROPYLHYDRAZONE CROTONE ALDEHYDE
MW: 126
Formula: C7H14N2
Synonym: MassBank: JP000874
Synonym: ISOPROPYLHYDRAZONE CROTONE ALDEHYDE
Synonym: 2-BUTENAL ISOPROPYLHYDRAZONE
Structure: 310A32320A49534F50524F50594C48594452415A4F4E452043524F544F4E4520414C4445485944452E6D6F6C0A20204368656D447261773132323130393233313832440A2020392020382020302020302020302020302020302020302020302020303939392056323030300A20202020302E3335373220202020302E3631383820202020302E303030302043202020302020302020302020302020302020302020302020302020302020302020302020300A20202020312E3037313720202020302E3230363220202020302E303030302043202020302020302020302020302020302020302020302020302020302020302020302020300A20202020312E3738363220202020302E3631383720202020302E303030302043202020302020302020302020302020302020302020302020302020302020302020302020300A20202020322E3530303620202020302E3230363320202020302E303030302043202020302020302020302020302020302020302020302020302020302020302020302020300A2020202D302E3335373220202020302E3230363220202020302E30303030204E202020302020302020302020302020302020302020302020302020302020302020302020300A2020202D312E3037313720202020302E3631383720202020302E30303030204E202020302020302020302020302020302020302020302020302020302020302020302020300A2020202D312E3738363220202020302E3230363220202020302E303030302043202020302020302020302020302020302020302020302020302020302020302020302020300A2020202D312E373836322020202D302E3631383820202020302E303030302043202020302020302020302020302020302020302020302020302020302020302020302020300A2020202D322E3530303620202020302E3631383720202020302E303030302043202020302020302020302020302020302020302020302020302020302020302020302020300A2020312020322020312020302020202020200A2020322020332020322020302020202020200A2020332020342020312020302020202020200A2020352020362020312020302020202020200A2020372020382020312020302020202020200A2020372020392020312020302020202020200A2020362020372020312020302020202020200A2020312020352020322020302020202020200A4D2020454E44
Contributor: SASAKI S, TOYOHASHI UNIV. OF TECH.
InstType: EI
InstName: SHIMADZU LKB-2091
IoniMethod: _ENERGY 70 eV
IonPolarity: pos
Date: 2010-10-09 19:48:36+02:00
Num Peaks: 30
26 295 27 295 28 180 29 10 30 84 39 328 40 51 41 61 42 361 43 270 
44 869 45 3 53 79 54 49 55 131 56 21 57 36 58 64 67 62 68 30 
69 279 70 66 81 23 82 9 83 559 84 46 111 999 112 7 126 599 127 51 
