Name: N-ACETYL-PHENYLALANINE METHYLESTER
MW: 221
Formula: C12H15NO3
Synonym: MassBank: JP000093
Synonym: N-ACETYL-PHENYLALANINE METHYLESTER
Structure: 303034315F4E2D41434554594C2D5048454E594C414C414E494E45204D455448594C45535445522E6D6F6C0A20204368656D447261773039303331303137303432440A2031372031372020302020302020302020302020302020302020302020303939392056323030300A2020202D312E363439392020202D302E3335373220202020302E303030302043202020302020302020302020302020302020302020302020302020302020302020302020300A2020202D302E3431323520202020302E3335373220202020302E30303030204E202020302020302020302020302020302020302020302020302020302020302020302020300A2020202D302E383235302020202D302E3335373220202020302E303030302043202020302020302020302020302020302020302020302020302020302020302020302020300A2020202D302E343132352020202D312E3037313720202020302E303030302043202020302020302020302020302020302020302020302020302020302020302020302020300A20202020302E343132352020202D312E3037313720202020302E303030302043202020302020302020302020302020302020302020302020302020302020302020302020300A20202020302E383235302020202D302E3335373220202020302E303030302043202020302020302020302020302020302020302020302020302020302020302020302020300A20202020312E363439392020202D302E3335373220202020302E303030302043202020302020302020302020302020302020302020302020302020302020302020302020300A20202020322E303632342020202D312E3037313720202020302E303030302043202020302020302020302020302020302020302020302020302020302020302020302020300A20202020312E363439392020202D312E3738363120202020302E303030302043202020302020302020302020302020302020302020302020302020302020302020302020300A20202020302E383235302020202D312E3738363120202020302E303030302043202020302020302020302020302020302020302020302020302020302020302020302020300A2020202D322E3036323420202020302E3335373220202020302E30303030204F202020302020302020302020302020302020302020302020302020302020302020302020300A2020202D322E303632342020202D312E3037313720202020302E30303030204F202020302020302020302020302020302020302020302020302020302020302020302020300A2020202D302E3832353020202020312E3037313720202020302E303030302043202020302020302020302020302020302020302020302020302020302020302020302020300A2020202D312E3634393920202020312E3037313720202020302E30303030204F202020302020302020302020302020302020302020302020302020302020302020302020300A2020202D302E3431323520202020312E3738363120202020302E303030302043202020302020302020302020302020302020302020302020302020302020302020302020300A2020202D312E363439392020202D312E3738363120202020302E303030302043202020302020302020302020302020302020302020302020302020302020302020302020300A2020202D312E323337352020202D312E3037313720202020302E303030302048202020302020302020302020302020302020302020302020302020302020302020302020300A2020332020322020312020312020202020200A2020312020332020312020302020202020200A2020332020342020312020302020202020200A2020342020352020312020302020202020200A2020352020362020312020302020202020200A2020362020372020322020302020202020200A2020372020382020312020302020202020200A2020382020392020322020302020202020200A2020392031302020312020302020202020200A2020352031302020322020302020202020200A2020312031312020322020302020202020200A2020312031322020312020302020202020200A2031332031342020322020302020202020200A2031332031352020312020302020202020200A2020322031332020312020302020202020200A2031322031362020312020302020202020200A2020332031372020312020312020202020200A4D2020454E44
Contributor: YAMAMOTO M, DEP. CHEMISTRY, FAC. SCIENCE, NARA WOMEN'S UNIV.
InstType: EI
InstName: HITACHI RMU-6M
IoniMethod: _ENERGY 70 eV
IonPolarity: pos
Date: 2010-10-09 19:48:36+02:00
Num Peaks: 44
15 140 27 19 28 132 29 13 31 15 33 103 39 80 41 31 42 37 43 728 
44 20 50 20 51 65 52 17 59 24 60 32 63 38 64 12 65 161 66 10 
77 93 78 29 88 961 89 73 90 28 91 574 92 108 93 24 102 37 103 118 
104 38 117 41 118 57 119 55 120 531 121 58 130 33 131 326 132 38 144 14 
161 131 162 999 163 115 221 4 
