Name: 2-ETHYLFURAN
CAS: 3208-16-0
MW: 96
Formula: C6H8O
Synonym: MassBank: JP007726
Synonym: 2-ETHYLFURAN
Structure: 310A31390A322D455448594C465552414E2E6D6F6C0A20204368656D447261773031303331303133303132440A2020372020372020302020302020302020302020302020302020302020303939392056323030300A2020202D302E3831353320202020302E3632353320202020302E30303030204F202020302020302020302020302020302020302020302020302020302020302020302020300A2020202D302E3036313620202020302E3238393820202020302E303030302043202020302020302020302020302020302020302020302020302020302020302020302020300A2020202D302E313437392020202D302E3533303720202020302E303030302043202020302020302020302020302020302020302020302020302020302020302020302020300A2020202D302E393534382020202D302E3730323320202020302E303030302043202020302020302020302020302020302020302020302020302020302020302020302020300A2020202D312E3336373320202020302E3031323220202020302E303030302043202020302020302020302020302020302020302020302020302020302020302020302020300A20202020302E3635323920202020302E3730323320202020302E303030302043202020302020302020302020302020302020302020302020302020302020302020302020300A20202020312E3336373320202020302E3238393820202020302E303030302043202020302020302020302020302020302020302020302020302020302020302020302020300A2020312020322020312020302020202020200A2020322020332020322020302020202020200A2020332020342020312020302020202020200A2020342020352020322020302020202020200A2020312020352020312020302020202020200A2020362020372020312020302020202020200A2020322020362020312020302020202020200A4D2020454E44
Contributor: HASHIMOTO K, KYOTO COLLEGE OF PHARMACY
InstType: EI
InstName: HITACHI M-80
IoniMethod: _ENERGY 20 eV
IonPolarity: pos
Date: 2010-10-09 19:48:36+02:00
Num Peaks: 23
27 141 29 69 39 170 40 59 41 280 42 39 51 27 52 46 53 678 54 40 
55 19 65 68 66 49 67 201 68 66 69 66 80 10 81 999 82 107 94 19 
95 130 96 620 97 59 
