Name: MassBank: JP009880
CAS: 19894-82-7
MW: 210
Formula: C13H22O2
Synonym: MassBank: JP009880
Synonym: METHYL 5,9-DIMETHYL-4,8-DECADIENOATE(E)
Synonym: FARNECIC ACID METHYL ESTER(E)
Structure: 4D455448594C20352C392D44494D455448594C2D342C382D444543414449454E4F4154452845292E6D6F6C0A20204368656D447261773038313231303030303432440A2031352031342020302020302020302020302020302020302020302020303939392056323030300A20202020322E3134333420202020302E3431323520202020302E303030302043202020302020302020302020302020302020302020302020302020302020302020302020300A20202020312E3432383920202020302E3030303020202020302E303030302043202020302020302020302020302020302020302020302020302020302020302020302020300A20202020312E343238392020202D302E3832353020202020302E303030302043202020302020302020302020302020302020302020302020302020302020302020302020300A20202020302E373134352020202D312E3233373520202020302E303030302043202020302020302020302020302020302020302020302020302020302020302020302020300A2020202D302E303030302020202D302E3832353020202020302E303030302043202020302020302020302020302020302020302020302020302020302020302020302020300A2020202D302E373134352020202D312E3233373520202020302E303030302043202020302020302020302020302020302020302020302020302020302020302020302020300A2020202D312E343238392020202D302E3832353020202020302E303030302043202020302020302020302020302020302020302020302020302020302020302020302020300A2020202D312E343238392020202D302E3030303020202020302E303030302043202020302020302020302020302020302020302020302020302020302020302020302020300A2020202D322E3134333420202020302E3431323520202020302E303030302043202020302020302020302020302020302020302020302020302020302020302020302020300A2020202D322E3134333420202020312E3233373520202020302E303030302043202020302020302020302020302020302020302020302020302020302020302020302020300A20202020322E3134333420202020312E3233373520202020302E30303030204F202020302020302020302020302020302020302020302020302020302020302020302020300A20202020322E3835373920202020302E3030303020202020302E30303030204F202020302020302020302020302020302020302020302020302020302020302020302020300A2020202D322E383537392020202D302E3030303020202020302E303030302043202020302020302020302020302020302020302020302020302020302020302020302020300A2020202D302E3030303020202020302E3030303020202020302E303030302043202020302020302020302020302020302020302020302020302020302020302020302020300A20202020322E383537392020202D302E3832353020202020302E303030302043202020302020302020302020302020302020302020302020302020302020302020302020300A2020312020322020312020302020202020200A2020322020332020312020302020202020200A2020332020342020312020302020202020200A2020342020352020322020302020202020200A2020352020362020312020302020202020200A2020362020372020312020302020202020200A2020372020382020312020302020202020200A2020382020392020322020302020202020200A2020392031302020312020302020202020200A2020312031312020322020302020202020200A2020312031322020312020302020202020200A2020392031332020312020302020202020200A2020352031342020312020302020202020200A2031322031352020312020302020202020200A4D2020454E44
Contributor: KURARAY CO., LTD.
InstType: EI
InstName: JEOL JMS-D-300
IoniMethod: _ENERGY 70 eV
IonPolarity: pos
Date: 2010-10-09 19:48:36+02:00
Num Peaks: 64
27 45 28 23 29 32 39 70 40 30 41 467 42 40 43 45 51 12 53 73 
54 18 55 86 56 12 59 79 65 26 66 12 67 136 68 80 69 999 70 63 
74 53 77 27 79 44 80 23 81 463 82 163 83 23 85 17 87 36 91 18 
93 60 94 17 95 30 99 537 100 47 105 16 107 40 108 16 109 355 110 58 
111 30 119 15 121 40 122 20 123 70 124 10 125 10 135 124 136 35 137 35 
140 28 141 137 142 37 154 18 161 23 163 18 166 27 167 528 168 58 178 14 
179 24 195 21 210 34 211 12 
