Name: O-ETHYLPHENOL
MW: 122
Formula: C8H10O
Synonym: MassBank: JP009214
Synonym: O-ETHYLPHENOL
Structure: 310A32330A4F2D455448594C5048454E4F4C2E6D6F6C0A20204368656D447261773038313231303033303732440A2020392020392020302020302020302020302020302020302020302020303939392056323030300A2020202D302E3230363220202020302E3335373220202020302E303030302043202020302020302020302020302020302020302020302020302020302020302020302020300A20202020302E323036332020202D302E3335373220202020302E303030302043202020302020302020302020302020302020302020302020302020302020302020302020300A2020202D302E323036322020202D312E3037313720202020302E303030302043202020302020302020302020302020302020302020302020302020302020302020302020300A2020202D312E303331322020202D312E3037313720202020302E303030302043202020302020302020302020302020302020302020302020302020302020302020302020300A2020202D312E343433382020202D302E3335373220202020302E303030302043202020302020302020302020302020302020302020302020302020302020302020302020300A2020202D312E3033313320202020302E3335373220202020302E303030302043202020302020302020302020302020302020302020302020302020302020302020302020300A20202020312E303331332020202D302E3335373220202020302E303030302043202020302020302020302020302020302020302020302020302020302020302020302020300A20202020312E343433382020202D312E3037313720202020302E303030302043202020302020302020302020302020302020302020302020302020302020302020302020300A20202020302E3230363320202020312E3037313720202020302E30303030204F202020302020302020302020302020302020302020302020302020302020302020302020300A2020312020322020312020302020202020200A2020322020332020322020302020202020200A2020332020342020312020302020202020200A2020342020352020322020302020202020200A2020352020362020312020302020202020200A2020312020362020322020302020202020200A2020372020382020312020302020202020200A2020322020372020312020302020202020200A2020312020392020312020302020202020200A4D2020454E44
Contributor: SODA AROMATIC CO., LTD.
InstType: EI
InstName: HITACHI M-80B
IoniMethod: _ENERGY 70 eV
IonPolarity: pos
Date: 2010-10-09 19:48:36+02:00
Num Peaks: 33
15 13 27 46 29 13 38 16 39 116 40 14 41 16 50 30 51 86 52 34 
53 42 55 14 60 11 62 15 63 36 64 12 65 41 66 13 75 12 77 255 
78 52 79 119 91 58 93 11 94 18 103 38 104 12 105 11 107 999 108 63 
121 26 122 418 123 31 
