Name: METHYL 10-UNDECENOATE
CAS: 111-81-9
MW: 198
Formula: C12H22O2
Synonym: MassBank: JP009114
Synonym: METHYL 10-UNDECENOATE
Structure: 4D455448594C2031302D554E444543454E4F4154452E6D6F6C0A20204368656D447261773038313131303233323332440A2031342031332020302020302020302020302020302020302020302020303939392056323030300A2020202D332E3231353120202020302E3230363220202020302E303030302043202020302020302020302020302020302020302020302020302020302020302020302020300A2020202D322E353030362020202D302E3230363220202020302E303030302043202020302020302020302020302020302020302020302020302020302020302020302020300A2020202D312E3738363220202020302E3230363220202020302E303030302043202020302020302020302020302020302020302020302020302020302020302020302020300A2020202D312E303731372020202D302E3230363220202020302E303030302043202020302020302020302020302020302020302020302020302020302020302020302020300A2020202D302E3335373220202020302E3230363220202020302E303030302043202020302020302020302020302020302020302020302020302020302020302020302020300A20202020302E333537322020202D302E3230363220202020302E303030302043202020302020302020302020302020302020302020302020302020302020302020302020300A20202020312E3037313720202020302E3230363320202020302E303030302043202020302020302020302020302020302020302020302020302020302020302020302020300A20202020312E373836322020202D302E3230363220202020302E303030302043202020302020302020302020302020302020302020302020302020302020302020302020300A20202020322E3530303620202020302E3230363320202020302E303030302043202020302020302020302020302020302020302020302020302020302020302020302020300A20202020332E323135312020202D302E3230363220202020302E303030302043202020302020302020302020302020302020302020302020302020302020302020302020300A20202020332E3932393620202020302E3230363320202020302E303030302043202020302020302020302020302020302020302020302020302020302020302020302020300A2020202D332E3231353120202020312E3033313320202020302E30303030204F202020302020302020302020302020302020302020302020302020302020302020302020300A2020202D332E393239362020202D302E3230363220202020302E30303030204F202020302020302020302020302020302020302020302020302020302020302020302020300A2020202D332E393239362020202D312E3033313320202020302E303030302043202020302020302020302020302020302020302020302020302020302020302020302020300A2020312020322020312020302020202020200A2020322020332020312020302020202020200A2020332020342020312020302020202020200A2020342020352020312020302020202020200A2020352020362020312020302020202020200A2020362020372020312020302020202020200A2020372020382020312020302020202020200A2020382020392020312020302020202020200A2020392031302020312020302020202020200A2031302031312020322020302020202020200A2020312031322020322020302020202020200A2020312031332020312020302020202020200A2031332031342020312020302020202020200A4D2020454E44
Contributor: SODA AROMATIC CO., LTD.
InstType: EI
InstName: HITACHI M-80B
IoniMethod: _ENERGY 70 eV
IonPolarity: pos
Date: 2010-10-09 19:48:36+02:00
Num Peaks: 77
14 15 15 80 18 11 26 12 27 136 29 190 30 13 31 28 39 217 41 741 
42 138 43 262 44 15 45 40 51 14 53 83 54 121 55 884 56 89 57 61 
59 299 60 11 65 16 66 13 67 172 68 145 69 356 70 41 71 36 72 16 
73 65 74 999 75 72 77 13 79 34 80 30 81 125 82 199 83 283 84 235 
85 43 87 494 88 50 93 20 94 28 95 74 96 290 97 134 98 119 99 22 
100 10 101 52 107 20 108 11 109 34 110 63 111 34 112 13 113 28 114 38 
115 44 119 15 122 48 123 75 124 247 125 60 127 19 128 24 129 17 137 46 
138 35 141 17 148 22 149 58 155 12 166 84 167 31 
