Name: MassBank: JP006955
MW: 140
Formula: C9H16O
Synonym: MassBank: JP006955
Synonym: 3,3,5-TRIMETHYLCYCLOHEXANONE
Structure: 332C332C352D5452494D455448594C4359434C4F484558414E4F4E452E6D6F6C0A20204368656D447261773032323131303139353332440A2031302031302020302020302020302020302020302020302020302020303939392056323030300A20202020302E3736333520202020302E3634333620202020302E303030302043202020302020302020302020302020302020302020302020302020302020302020302020300A20202020302E3034393020202020312E3035363120202020302E303030302043202020302020302020302020302020302020302020302020302020302020302020302020300A2020202D302E3636353520202020302E3634333620202020302E303030302043202020302020302020302020302020302020302020302020302020302020302020302020300A2020202D302E363635352020202D302E3138313420202020302E303030302043202020302020302020302020302020302020302020302020302020302020302020302020300A20202020302E303439302020202D302E3539333920202020302E303030302043202020302020302020302020302020302020302020302020302020302020302020302020300A20202020302E373633352020202D302E3138313420202020302E303030302043202020302020302020302020302020302020302020302020302020302020302020302020300A20202020302E303439302020202D312E3431383920202020302E303030302043202020302020302020302020302020302020302020302020302020302020302020302020300A2020202D302E3934373620202020312E3431383920202020302E303030302043202020302020302020302020302020302020302020302020302020302020302020302020300A2020202D312E3437373920202020302E3530303420202020302E303030302043202020302020302020302020302020302020302020302020302020302020302020302020300A20202020312E3437373920202020312E3035363120202020302E30303030204F202020302020302020302020302020302020302020302020302020302020302020302020300A2020312020322020312020302020202020200A2020322020332020312020302020202020200A2020332020342020312020302020202020200A2020342020352020312020302020202020200A2020352020362020312020302020202020200A2020312020362020312020302020202020200A2020352020372020312020302020202020200A2020332020382020312020312020202020200A2020332020392020312020362020202020200A2020312031302020322020302020202020200A4D2020454E44
Contributor: TAJIMA S, GUNMA COLLEGE OF TECHNOLOGY
InstType: EI
InstName: HITACHI M-80B
IoniMethod: _ENERGY 70 eV
IonPolarity: pos
Date: 2010-10-09 19:48:36+02:00
Num Peaks: 34
15 32 27 183 28 27 29 155 38 12 39 276 40 38 41 486 42 138 43 68 
51 20 52 10 53 56 54 18 55 440 56 377 57 91 67 33 69 544 70 33 
77 10 79 12 81 15 82 19 83 999 84 90 85 13 96 19 97 38 98 24 
107 11 125 72 140 183 141 14 
