Name: MassBank: JP000762
MW: 305
Formula: C9H8Br2O2
Synonym: MassBank: JP000762
Synonym: 3,7-BIS(BROMOMETHYL)TROPOLONE
Structure: 332C372D4249532842524F4D4F4D455448594C2954524F504F4C4F4E452E6D6F6C0A20204368656D447261773032323231303033333332440A2031332031332020302020302020302020302020302020302020302020303939392056323030300A20202020312E3136323320202020302E3937353620202020302E30303030204F202020302020302020302020302020302020302020302020302020302020302020302020300A20202020302E3634333120202020302E3333343420202020302E303030302043202020302020302020302020302020302020302020302020302020302020302020302020300A20202020302E393935352020202D302E3431343620202020302E303030302043202020302020302020302020302020302020302020302020302020302020302020302020300A20202020302E363332302020202D312E3135323120202020302E303030302043202020302020302020302020302020302020302020302020302020302020302020302020300A2020202D302E313733372020202D312E3332393720202020302E303030302043202020302020302020302020302020302020302020302020302020302020302020302020300A2020202D302E383131372020202D302E3831303520202020302E303030302043202020302020302020302020302020302020302020302020302020302020302020302020300A2020202D302E3831313720202020302E3031343520202020302E303030302043202020302020302020302020302020302020302020302020302020302020302020302020300A2020202D302E3135393820202020302E3532343020202020302E303030302043202020302020302020302020302020302020302020302020302020302020302020302020300A2020202D302E3333373320202020312E3332393720202020302E30303030204F202020302020302020302020302020302020302020302020302020302020302020302020300A20202020312E383230352020202D302E3431343620202020302E303030302043202020302020302020302020302020302020302020302020302020302020302020302020300A20202020322E323334332020202D312E3133313420202020302E303030302042722020302020302020302020302020302020302020302020302020302020302020302020300A2020202D312E3534393220202020302E3337383020202020302E303030302043202020302020302020302020302020302020302020302020302020302020302020302020300A2020202D322E323334332020202D302E3038313620202020302E303030302042722020302020302020302020302020302020302020302020302020302020302020302020300A2020312020322020322020302020202020200A2020322020332020312020302020202020200A2020332020342020322020302020202020200A2020342020352020312020302020202020200A2020352020362020322020302020202020200A2020362020372020312020302020202020200A2020372020382020322020302020202020200A2020322020382020312020302020202020200A2020382020392020312020302020202020200A2031302031312020312020302020202020200A2020332031302020312020302020202020200A2031322031332020312020302020202020200A2020372031322020312020302020202020200A4D2020454E44
Contributor: ITO S, DEPT. OF CHEM., TOHOKU UNIV.
InstType: EI
InstName: Unknown
IoniMethod: _ENERGY 25 eV
IonPolarity: pos
Date: 2010-10-09 19:48:36+02:00
Num Peaks: 22
65 175 79 35 80 85 81 3 82 90 89 45 90 40 91 58 92 60 119 999 
120 90 148 47 149 70 198 50 200 40 227 21 228 35 229 215 230 20 306 4 
308 70 310 30 
