Name: DIMETHYL ETHYL(2-OXOPROPYL)MALONATE
MW: 216
Formula: C10H16O5
Synonym: MassBank: JP004758
Synonym: DIMETHYL ETHYL(2-OXOPROPYL)MALONATE
Structure: 44494D455448594C20455448594C28322D4F584F50524F50594C294D414C4F4E4154452E6D6F6C0A20204368656D447261773130313831303136353332440A2031352031342020302020302020302020302020302020302020302020303939392056323030300A20202020302E343535332020202D312E3336333520202020302E303030302043202020302020302020302020302020302020302020302020302020302020302020302020300A20202020302E343939302020202D302E3534343420202020302E303030302043202020302020302020302020302020302020302020302020302020302020302020302020300A2020202D302E353733352020202D302E3534343420202020302E303030302043202020302020302020302020302020302020302020302020302020302020302020302020300A2020202D302E343139352020202D312E3633393020202020302E30303030204F202020302020302020302020302020302020302020302020302020302020302020302020300A20202020302E393833332020202D312E3839313520202020302E30303030204F202020302020302020302020302020302020302020302020302020302020302020302020300A2020202D302E3938363020202020302E3137303120202020302E30303030204F202020302020302020302020302020302020302020302020302020302020302020302020300A2020202D302E393836302020202D312E3235383820202020302E30303030204F202020302020302020302020302020302020302020302020302020302020302020302020300A20202020302E3638353220202020302E3531313920202020302E303030302043202020302020302020302020302020302020302020302020302020302020302020302020300A20202020302E3135343920202020312E3134333820202020302E303030302043202020302020302020302020302020302020302020302020302020302020302020302020300A2020202D302E3637303120202020312E3134333820202020302E303030302043202020302020302020302020302020302020302020302020302020302020302020302020300A20202020302E3530333620202020312E3839313520202020302E30303030204F202020302020302020302020302020302020302020302020302020302020302020302020300A20202020312E333138342020202D302E3634303120202020302E303030302043202020302020302020302020302020302020302020302020302020302020302020302020300A20202020312E3831313020202020302E3032313620202020302E303030302043202020302020302020302020302020302020302020302020302020302020302020302020300A20202020312E373632392020202D312E3630353020202020302E303030302043202020302020302020302020302020302020302020302020302020302020302020302020300A2020202D312E383131302020202D312E3235383820202020302E303030302043202020302020302020302020302020302020302020302020302020302020302020302020300A2020312020322020312020302020202020200A2020322020332020312020302020202020200A2020312020342020322020302020202020200A2020312020352020312020302020202020200A2020332020362020322020302020202020200A2020332020372020312020302020202020200A2020382020392020312020302020202020200A2020392031302020312020302020202020200A2020392031312020322020302020202020200A2020322020382020312020302020202020200A2031322031332020312020302020202020200A2020322031322020312020302020202020200A2020352031342020312020302020202020200A2020372031352020312020302020202020200A4D2020454E44
Contributor: MASS SPECTROSCOPY SOC. OF JAPAN (MSSJ)
InstType: EI
InstName: JEOL JMS-D-3000
IoniMethod: _ENERGY 70 eV
IonPolarity: pos
Date: 2010-10-09 19:48:36+02:00
Num Peaks: 44
41 51 42 23 43 999 44 30 45 31 53 49 54 27 55 159 56 10 58 35 
59 242 69 19 71 38 79 11 81 63 82 41 83 105 85 17 95 34 97 24 
99 36 113 203 114 110 115 125 124 27 125 300 126 26 127 522 128 37 129 27 
141 103 142 59 145 143 146 12 155 12 156 11 157 35 159 434 160 34 173 15 
184 11 185 95 201 13 216 1 
