Name: MassBank: JP001598
CAS: 613-33-2
MW: 182
Formula: C14H14
Synonym: MassBank: JP001598
Synonym: 4,4'-DIMETHYLDIPHENYL
Structure: 310A350A342C34272D44494D455448594C44495048454E594C2E6D6F6C0A20204368656D447261773130313831303136333732440A2020302020302020302020302020302020302020302020302020302020303939392056323030300A4D2020454E44
Contributor: KOGA M, UNIV. OF OCCUPATIONAL AND ENVIRONMENTAL HEALTH
InstType: EI
InstName: VARIAN MAT-44
IoniMethod: _ENERGY 70 eV
IonPolarity: pos
Date: 2010-10-09 19:48:36+02:00
Num Peaks: 47
41 21 43 15 50 23 51 72 52 13 53 16 57 13 62 17 63 84 64 48 
65 53 69 22 70 10 74 12 75 30 76 165 77 72 78 13 81 15 82 72 
83 72 88 25 89 232 90 236 91 155 115 43 127 10 128 23 139 16 141 17 
151 14 152 72 153 24 164 20 165 243 166 131 167 376 168 53 176 10 177 10 
178 52 179 27 180 18 181 253 182 999 183 156 184 10 
