Name: 4-BUTANOLIDE
MW: 86
Formula: C4H6O2
Synonym: MassBank: JP001809
Synonym: 4-BUTANOLIDE
Synonym: GAMMA-BUTYROLACTONE
Structure: 310A31370A342D425554414E4F4C4944452E6D6F6C0A20204368656D447261773033323531303038343532440A2020362020362020302020302020302020302020302020302020302020303939392056323030300A2020202D302E3232323320202020302E3030303020202020302E303030302043202020302020302020302020302020302020302020302020302020302020302020302020300A20202020302E3236323720202020302E3636373420202020302E303030302043202020302020302020302020302020302020302020302020302020302020302020302020300A20202020312E3034373320202020302E3431323520202020302E303030302043202020302020302020302020302020302020302020302020302020302020302020302020300A20202020312E303437332020202D302E3431323520202020302E303030302043202020302020302020302020302020302020302020302020302020302020302020302020300A2020202D312E3034373320202020302E3030303020202020302E30303030204F202020302020302020302020302020302020302020302020302020302020302020302020300A20202020302E323632372020202D302E3636373420202020302E30303030204F202020302020302020302020302020302020302020302020302020302020302020302020300A2020312020322020312020302020202020200A2020322020332020312020302020202020200A2020332020342020312020302020202020200A2020312020352020322020302020202020200A2020312020362020312020302020202020200A2020342020362020312020302020202020200A4D2020454E44
Contributor: TAJIMA S, GUNMA COLLEGE OF TECHNOLOGY
InstType: EI
InstName: HITACHI RMU-7M
IoniMethod: _ENERGY 70 eV
IonPolarity: pos
Date: 2010-10-09 19:48:36+02:00
Num Peaks: 24
14 27 15 27 18 29 25 13 26 113 27 294 28 999 29 446 30 22 31 27 
37 19 38 27 39 87 40 78 41 321 42 923 43 57 44 12 55 80 56 314 
57 65 85 114 86 366 87 52 
