Name: 9-FLUORENONE
MW: 180
Formula: C13H8O
Synonym: MassBank: JP001404
Synonym: 9-FLUORENONE
Structure: 392D464C554F52454E4F4E452E6D6F6C0A20204368656D447261773036323131303230353732440A2031342031362020302020302020302020302020302020302020302020303939392056323030300A20202020302E3238363320202020302E3639353120202020302E303030302043202020302020302020302020302020302020302020302020302020302020302020302020300A20202020302E3737313220202020302E3032373620202020302E303030302043202020302020302020302020302020302020302020302020302020302020302020302020300A20202020312E353931372020202D302E3035383620202020302E303030302043202020302020302020302020302020302020302020302020302020302020302020302020300A20202020312E393237332020202D302E3831323320202020302E303030302043202020302020302020302020302020302020302020302020302020302020302020302020300A20202020312E343432332020202D312E3437393720202020302E303030302043202020302020302020302020302020302020302020302020302020302020302020302020300A20202020302E363231392020202D312E3339333520202020302E303030302043202020302020302020302020302020302020302020302020302020302020302020302020300A20202020302E323836332020202D302E3633393820202020302E303030302043202020302020302020302020302020302020302020302020302020302020302020302020300A2020202D302E343938332020202D302E3338343920202020302E303030302043202020302020302020302020302020302020302020302020302020302020302020302020300A2020202D312E323132382020202D302E3739373420202020302E303030302043202020302020302020302020302020302020302020302020302020302020302020302020300A2020202D312E393237332020202D302E3338343920202020302E303030302043202020302020302020302020302020302020302020302020302020302020302020302020300A2020202D312E3932373320202020302E3434303120202020302E303030302043202020302020302020302020302020302020302020302020302020302020302020302020300A2020202D312E3231323820202020302E3835323620202020302E303030302043202020302020302020302020302020302020302020302020302020302020302020302020300A2020202D302E3439383320202020302E3434303120202020302E303030302043202020302020302020302020302020302020302020302020302020302020302020302020300A20202020302E3534313220202020312E3437393720202020302E30303030204F202020302020302020302020302020302020302020302020302020302020302020302020300A2020312020322020312020302020202020200A2020322020332020312020302020202020200A2020332020342020322020302020202020200A2020342020352020312020302020202020200A2020352020362020322020302020202020200A2020362020372020312020302020202020200A2020322020372020322020302020202020200A2020372020382020312020302020202020200A2020382020392020312020302020202020200A2020392031302020322020302020202020200A2031302031312020312020302020202020200A2031312031322020322020302020202020200A2031322031332020312020302020202020200A2020382031332020322020302020202020200A2020312031332020312020302020202020200A2020312031342020322020302020202020200A4D2020454E44
Contributor: HASHIMOTO K, KYOTO COLLEGE OF PHARMACY
InstType: EI
InstName: HITACHI M-80
IoniMethod: _ENERGY 20 eV
IonPolarity: pos
Date: 2010-10-09 19:48:36+02:00
Num Peaks: 6
151 24 152 225 153 33 180 999 181 146 182 11 
