Name: N-ACETYL-VALINE METHYLESTER
MW: 173
Formula: C8H15NO3
Synonym: MassBank: JP000089
Synonym: N-ACETYL-VALINE METHYLESTER
Structure: 303033375F4E2D41434554594C2D56414C494E45204D455448594C45535445522E6D6F6C0A20204368656D447261773039303331303137303232440A2031332031322020302020302020302020302020302020302020302020303939392056323030300A2020202D302E383235302020202D302E3731343520202020302E303030302043202020302020302020302020302020302020302020302020302020302020302020302020300A20202020302E3431323520202020302E3030303020202020302E30303030204E202020302020302020302020302020302020302020302020302020302020302020302020300A2020202D302E3431323520202020302E3030303020202020302E303030302043202020302020302020302020302020302020302020302020302020302020302020302020300A2020202D302E3832353020202020302E3731343520202020302E303030302043202020302020302020302020302020302020302020302020302020302020302020302020300A2020202D302E3431323520202020312E3432383920202020302E303030302043202020302020302020302020302020302020302020302020302020302020302020302020300A2020202D312E3635303020202020302E3731343520202020302E303030302043202020302020302020302020302020302020302020302020302020302020302020302020300A2020202D312E363530302020202D302E3731343520202020302E30303030204F202020302020302020302020302020302020302020302020302020302020302020302020300A2020202D302E343132352020202D312E3432383920202020302E30303030204F202020302020302020302020302020302020302020302020302020302020302020302020300A20202020302E3832353020202020302E3731343520202020302E303030302043202020302020302020302020302020302020302020302020302020302020302020302020300A20202020312E3635303020202020302E3731343520202020302E30303030204F202020302020302020302020302020302020302020302020302020302020302020302020300A20202020302E3431323520202020312E3432383920202020302E303030302043202020302020302020302020302020302020302020302020302020302020302020302020300A20202020302E343132352020202D312E3432383920202020302E303030302043202020302020302020302020302020302020302020302020302020302020302020302020300A2020202D312E3233373520202020302E3030303020202020302E303030302048202020302020302020302020302020302020302020302020302020302020302020302020300A2020332020322020312020312020202020200A2020312020332020312020302020202020200A2020332020342020312020302020202020200A2020342020352020312020302020202020200A2020342020362020312020302020202020200A2020312020372020322020302020202020200A2020312020382020312020302020202020200A2020392031302020322020302020202020200A2020392031312020312020302020202020200A2020322020392020312020302020202020200A2020382031322020312020302020202020200A2020332031332020312020312020202020200A4D2020454E44
Contributor: YAMAMOTO M, DEP. CHEMISTRY, FAC. SCIENCE, NARA WOMEN'S UNIV.
InstType: EI
InstName: HITACHI RMU-6M
IoniMethod: _ENERGY 70 eV
IonPolarity: pos
Date: 2010-10-09 19:48:36+02:00
Num Peaks: 45
14 12 15 290 27 90 28 24 29 57 30 90 31 11 33 8 39 70 40 17 
41 98 42 5 43 582 44 17 45 12 53 1 54 21 55 187 56 107 57 8 
59 24 60 143 69 13 70 5 71 48 72 999 73 54 74 3 82 16 83 28 
84 10 88 37 89 65 98 15 99 158 100 1 102 10 114 521 115 44 116 1 
126 10 130 19 131 37 142 1 173 9 
