Name: ACRYLONITRILE
CAS: 107-13-1
MW: 53
Formula: C3H3N
Synonym: MassBank: JP007366
Synonym: ACRYLONITRILE
Synonym: 2-PROPENENITRILE
Structure: 310A31320A414352594C4F4E495452494C452E6D6F6C0A20204368656D447261773032323131303134343832440A2020342020332020302020302020302020302020302020302020302020303939392056323030300A2020202D302E323036322020202D302E3335373220202020302E303030302043202020302020302020302020302020302020302020302020302020302020302020302020300A20202020302E363138382020202D302E3335373220202020302E303030302043202020302020302020302020302020302020302020302020302020302020302020302020300A20202020312E3033313320202020302E3335373220202020302E303030302043202020302020302020302020302020302020302020302020302020302020302020302020300A2020202D312E303331332020202D302E3335373220202020302E30303030204E202020302020302020302020302020302020302020302020302020302020302020302020300A2020312020322020312020302020202020200A2020322020332020322020302020202020200A2020312020342020332020302020202020200A4D2020454E44
Contributor: YAMAMOTO M, DEP. CHEMISTRY, FAC. SCIENCE, NARA WOMEN'S UNIV.
InstType: EI
InstName: HITACHI RMU-6M
IoniMethod: _ENERGY 70 eV
IonPolarity: pos
Date: 2010-10-09 19:48:36+02:00
Num Peaks: 14
24 20 25 55 26 718 27 99 28 36 36 15 37 32 38 40 39 14 50 67 
51 290 52 677 53 999 54 35 
