Name: MassBank: JP002797
MW: 236
Formula: C12H16N2O3
Synonym: MassBank: JP002797
Synonym: 5-(CYCLOHEX-1-ENYL)-1,5-DIMETHYL-BARBITURIC ACID
Structure: 352D284359434C4F4845582D312D454E594C292D312C352D44494D455448594C2D4241524249545552494320414349442E6D6F6C0A20204368656D447261773034323331303033333632440A2031372031382020302020302020302020302020302020302020302020303939392056323030300A20202020302E3836313520202020302E3832353020202020302E30303030204E202020302020302020302020302020302020302020302020302020302020302020302020300A20202020312E3537353920202020302E3431323520202020302E303030302043202020302020302020302020302020302020302020302020302020302020302020302020300A20202020322E3239303420202020302E3832353020202020302E30303030204F202020302020302020302020302020302020302020302020302020302020302020302020300A20202020312E353735392020202D302E3431323520202020302E30303030204E202020302020302020302020302020302020302020302020302020302020302020302020300A20202020302E383631352020202D302E3832353020202020302E303030302043202020302020302020302020302020302020302020302020302020302020302020302020300A20202020302E383631352020202D312E3635303020202020302E30303030204F202020302020302020302020302020302020302020302020302020302020302020302020300A20202020302E313437302020202D302E3431323520202020302E303030302043202020302020302020302020302020302020302020302020302020302020302020302020300A20202020302E3134373020202020302E3431323520202020302E303030302043202020302020302020302020302020302020302020302020302020302020302020302020300A2020202D302E3536373520202020302E3832353020202020302E30303030204F202020302020302020302020302020302020302020302020302020302020302020302020300A2020202D302E313335322020202D312E3138373720202020302E303030302043202020302020302020302020302020302020302020302020302020302020302020302020300A20202020302E3836313520202020312E3635303020202020302E303030302043202020302020302020302020302020302020302020302020302020302020302020302020300A2020202D302E363635352020202D302E3236393220202020302E303030302043202020302020302020302020302020302020302020302020302020302020302020302020300A2020202D312E313935382020202D302E3930313220202020302E303030302043202020302020302020302020302020302020302020302020302020302020302020302020300A2020202D322E303038322020202D302E3735383020202020302E303030302043202020302020302020302020302020302020302020302020302020302020302020302020300A2020202D322E3239303420202020302E3031373320202020302E303030302043202020302020302020302020302020302020302020302020302020302020302020302020300A2020202D312E3736303120202020302E3634393320202020302E303030302043202020302020302020302020302020302020302020302020302020302020302020302020300A2020202D302E3934373620202020302E3530363020202020302E303030302043202020302020302020302020302020302020302020302020302020302020302020302020300A2020312020322020312020302020202020200A2020322020332020322020302020202020200A2020322020342020312020302020202020200A2020342020352020312020302020202020200A2020352020362020322020302020202020200A2020352020372020312020302020202020200A2020372020382020312020302020202020200A2020382020392020322020302020202020200A2020312020382020312020302020202020200A2020372031302020312020302020202020200A2020312031312020312020302020202020200A2031322031332020322020302020202020200A2031332031342020312020302020202020200A2031342031352020312020302020202020200A2031352031362020312020302020202020200A2031362031372020312020302020202020200A2031322031372020312020302020202020200A2020372031322020312020302020202020200A4D2020454E44
Contributor: SASAKI S, TOYOHASHI UNIV. OF TECH.
InstType: EI
InstName: Unknown
IoniMethod: EI
IonPolarity: pos
Date: 2010-10-09 19:48:36+02:00
Num Peaks: 156
26 74 27 284 28 464 29 9 30 24 31 13 32 15 36 1 37 13 38 20 
39 229 40 6 41 209 42 60 43 63 44 5 45 15 50 42 51 108 52 1 
53 138 54 45 55 71 56 1 57 70 58 50 62 14 63 4 64 20 65 120 
66 64 67 14 68 29 69 18 70 24 71 2 72 10 73 10 74 18 75 2 
76 19 77 214 78 80 79 41 80 295 81 560 82 58 83 5 84 18 85 19 
86 11 87 0 88 10 89 20 90 14 91 19 92 42 93 147 94 49 95 4 
96 26 97 14 98 33 99 2 100 29 101 10 102 14 103 3 104 21 105 48 
106 40 107 1 108 121 109 21 110 20 111 0 112 28 113 20 114 14 115 1 
116 14 117 22 118 26 119 2 120 20 121 50 122 40 123 8 124 21 125 14 
126 14 127 1 128 36 129 24 130 14 131 1 132 24 133 22 134 31 135 0 
136 81 137 40 138 14 139 1 140 18 141 20 142 10 143 1 144 10 145 10 
146 20 147 5 148 17 149 20 150 34 151 4 152 15 153 12 154 4 155 28 
156 88 157 298 158 28 159 1 162 10 163 8 164 48 165 3 166 12 167 11 
176 4 177 1 178 38 179 20 180 12 181 1 189 11 190 12 191 14 192 1 
193 34 194 14 195 4 208 0 216 9 217 10 218 11 219 1 220 10 221 999 
222 131 223 2 224 10 236 61 237 20 238 5 
