Name: PROPYL (3S)-3-HYDROXY-5-METHOXYPENTANOATE
MW: 190
Formula: C9H18O4
Synonym: MassBank: JP007269
Synonym: PROPYL (3S)-3-HYDROXY-5-METHOXYPENTANOATE
Structure: 50524F50594C20283353292D332D485944524F58592D352D4D4554484F585950454E54414E4F4154452E6D6F6C0A20204368656D447261773038313231303036303832440A2031332031322020302020302020302020302020302020302020302020303939392056323030300A20202020302E363138382020202D302E3030303020202020302E303030302043202020302020302020302020302020302020302020302020302020302020302020302020300A20202020302E3230363220202020302E3731343520202020302E303030302043202020302020302020302020302020302020302020302020302020302020302020302020300A2020202D302E3631383820202020302E3731343520202020302E303030302043202020302020302020302020302020302020302020302020302020302020302020302020300A2020202D312E303331332020202D302E3030303020202020302E303030302043202020302020302020302020302020302020302020302020302020302020302020302020300A2020202D312E383536332020202D302E3030303020202020302E303030302043202020302020302020302020302020302020302020302020302020302020302020302020300A20202020302E323036322020202D302E3731343520202020302E30303030204F202020302020302020302020302020302020302020302020302020302020302020302020300A20202020312E343433372020202D302E3030303020202020302E30303030204F202020302020302020302020302020302020302020302020302020302020302020302020300A2020202D322E323638382020202D302E3731343520202020302E30303030204F202020302020302020302020302020302020302020302020302020302020302020302020300A2020202D332E303933382020202D302E3731343520202020302E303030302043202020302020302020302020302020302020302020302020302020302020302020302020300A2020202D312E3033313320202020312E3432383920202020302E30303030204F202020302020302020302020302020302020302020302020302020302020302020302020300A20202020312E383536332020202D302E3731343520202020302E303030302043202020302020302020302020302020302020302020302020302020302020302020302020300A20202020322E363831332020202D302E3731343520202020302E303030302043202020302020302020302020302020302020302020302020302020302020302020302020300A20202020332E303933382020202D312E3432383920202020302E303030302043202020302020302020302020302020302020302020302020302020302020302020302020300A2020312020322020312020302020202020200A2020322020332020312020302020202020200A2020332020342020312020302020202020200A2020342020352020312020302020202020200A2020312020362020322020302020202020200A2020312020372020312020302020202020200A2020382020392020312020302020202020200A2020352020382020312020302020202020200A2020332031302020312020362020202020200A2031312031322020312020302020202020200A2031322031332020312020302020202020200A2020372031312020312020302020202020200A4D2020454E44
Contributor: ITO S, DEPT. OF CHEM., TOHOKU UNIV.
InstType: EI
InstName: HITACHI M-52
IoniMethod: _ENERGY 25 eV
IonPolarity: pos
Date: 2010-10-09 19:48:36+02:00
Num Peaks: 52
39 67 40 28 41 159 42 18 43 409 44 22 45 606 46 2 54 24 55 39 
56 81 57 9 58 87 59 99 60 182 61 17 68 28 69 36 70 112 71 39 
72 57 73 75 74 20 81 3 82 22 84 629 85 189 86 4 87 197 88 28 
89 999 90 7 97 235 98 265 99 144 100 8 101 91 102 220 103 39 112 3 
113 273 114 36 115 32 116 29 117 36 129 447 130 39 131 55 132 53 158 32 
172 41 191 22 
