Name: DIMETHYL SEBACATE
MW: 230
Formula: C12H22O4
Synonym: MassBank: JP006040
Synonym: DIMETHYL SEBACATE
Structure: 44494D455448594C2053454241434154452E6D6F6C0A20204368656D447261773130313831303136343632440A2031362031352020302020302020302020302020302020302020302020303939392056323030300A2020202D332E3231353120202020302E3230363220202020302E303030302043202020302020302020302020302020302020302020302020302020302020302020302020300A2020202D322E353030362020202D302E3230363320202020302E303030302043202020302020302020302020302020302020302020302020302020302020302020302020300A2020202D312E3738363220202020302E3230363220202020302E303030302043202020302020302020302020302020302020302020302020302020302020302020302020300A2020202D312E303731372020202D302E3230363320202020302E303030302043202020302020302020302020302020302020302020302020302020302020302020302020300A2020202D302E3335373220202020302E3230363220202020302E303030302043202020302020302020302020302020302020302020302020302020302020302020302020300A20202020302E333537322020202D302E3230363320202020302E303030302043202020302020302020302020302020302020302020302020302020302020302020302020300A20202020312E3037313720202020302E3230363220202020302E303030302043202020302020302020302020302020302020302020302020302020302020302020302020300A20202020312E373836322020202D302E3230363220202020302E303030302043202020302020302020302020302020302020302020302020302020302020302020302020300A20202020322E3530303620202020302E3230363320202020302E303030302043202020302020302020302020302020302020302020302020302020302020302020302020300A20202020332E323135312020202D302E3230363220202020302E303030302043202020302020302020302020302020302020302020302020302020302020302020302020300A2020202D332E3231353120202020312E3033313220202020302E30303030204F202020302020302020302020302020302020302020302020302020302020302020302020300A2020202D332E393239362020202D302E3230363320202020302E30303030204F202020302020302020302020302020302020302020302020302020302020302020302020300A20202020332E323135312020202D312E3033313220202020302E30303030204F202020302020302020302020302020302020302020302020302020302020302020302020300A20202020332E3932393620202020302E3230363320202020302E30303030204F202020302020302020302020302020302020302020302020302020302020302020302020300A2020202D332E393239362020202D312E3033313320202020302E303030302043202020302020302020302020302020302020302020302020302020302020302020302020300A20202020332E3932393620202020312E3033313320202020302E303030302043202020302020302020302020302020302020302020302020302020302020302020302020300A2020312020322020312020302020202020200A2020322020332020312020302020202020200A2020332020342020312020302020202020200A2020342020352020312020302020202020200A2020352020362020312020302020202020200A2020362020372020312020302020202020200A2020372020382020312020302020202020200A2020382020392020312020302020202020200A2020392031302020312020302020202020200A2020312031312020322020302020202020200A2020312031322020312020302020202020200A2031302031332020322020302020202020200A2031302031342020312020302020202020200A2031322031352020312020302020202020200A2031342031362020312020302020202020200A4D2020454E44
Contributor: HASHIMOTO K, KYOTO COLLEGE OF PHARMACY
InstType: EI
InstName: HITACHI M-80
IoniMethod: _ENERGY 20 eV
IonPolarity: pos
Date: 2010-10-09 19:48:36+02:00
Num Peaks: 84
40 13 41 39 43 176 45 20 55 383 56 34 57 39 59 120 67 60 68 46 
69 224 70 28 71 16 73 69 74 926 75 66 79 22 80 35 81 80 82 51 
83 366 84 720 85 61 87 366 88 34 93 27 94 45 95 64 96 128 97 532 
98 999 99 71 100 20 101 110 102 14 104 15 106 22 107 53 109 38 110 93 
111 134 112 103 113 36 114 32 115 131 116 19 119 15 120 37 121 128 122 24 
123 35 124 125 125 905 126 72 127 24 128 20 129 19 130 15 137 41 138 568 
139 184 140 25 142 34 143 10 144 84 147 12 148 85 149 27 154 20 155 14 
156 52 157 837 158 83 165 18 166 542 167 82 170 86 171 12 180 13 198 98 
199 798 200 105 201 18 230 0 
