Name: 5-PHENYL-3-STYRYL-2-ISOXAZOLINE
MW: 249
Formula: C17H15NO
Synonym: MassBank: JP009363
Synonym: 5-PHENYL-3-STYRYL-2-ISOXAZOLINE
Structure: 352D5048454E594C2D332D53545952594C2D322D49534F58415A4F4C494E452E6D6F6C0A20204368656D447261773034323331303037333532440A2031392032312020302020302020302020302020302020302020302020303939392056323030300A2020202D302E3739353820202020312E3332313020202020302E30303030204F202020302020302020302020302020302020302020302020302020302020302020302020300A20202020302E3031313220202020312E3134393520202020302E30303030204E202020302020302020302020302020302020302020302020302020302020302020302020300A20202020302E3039373420202020302E3332393020202020302E303030302043202020302020302020302020302020302020302020302020302020302020302020302020300A2020202D302E363536332020202D302E3030363620202020302E303030302043202020302020302020302020302020302020302020302020302020302020302020302020300A2020202D312E3230383320202020302E3630363520202020302E303030302043202020302020302020302020302020302020302020302020302020302020302020302020300A20202020302E383131392020202D302E3038333520202020302E303030302043202020302020302020302020302020302020302020302020302020302020302020302020300A20202020312E3532363320202020302E3332393020202020302E303030302043202020302020302020302020302020302020302020302020302020302020302020302020300A20202020322E323430382020202D302E3038333520202020302E303030302043202020302020302020302020302020302020302020302020302020302020302020302020300A20202020322E3935353320202020302E3332393020202020302E303030302043202020302020302020302020302020302020302020302020302020302020302020302020300A20202020332E363639382020202D302E3038333520202020302E303030302043202020302020302020302020302020302020302020302020302020302020302020302020300A20202020332E363639382020202D302E3930383520202020302E303030302043202020302020302020302020302020302020302020302020302020302020302020302020300A20202020322E393535332020202D312E3332313020202020302E303030302043202020302020302020302020302020302020302020302020302020302020302020302020300A20202020322E323430382020202D302E3930383520202020302E303030302043202020302020302020302020302020302020302020302020302020302020302020302020300A2020202D322E3032383820202020302E3532303320202020302E303030302043202020302020302020302020302020302020302020302020302020302020302020302020300A2020202D322E333634332020202D302E3233333420202020302E303030302043202020302020302020302020302020302020302020302020302020302020302020302020300A2020202D332E313834382020202D302E3331393620202020302E303030302043202020302020302020302020302020302020302020302020302020302020302020302020300A2020202D332E3636393820202020302E3334373820202020302E303030302043202020302020302020302020302020302020302020302020302020302020302020302020300A2020202D332E3333343220202020312E3130313520202020302E303030302043202020302020302020302020302020302020302020302020302020302020302020302020300A2020202D322E3531333720202020312E3138373720202020302E303030302043202020302020302020302020302020302020302020302020302020302020302020302020300A2020312020322020312020302020202020200A2020322020332020322020302020202020200A2020332020342020312020302020202020200A2020342020352020312020302020202020200A2020312020352020312020302020202020200A2020362020372020322020302020202020200A2020372020382020312020302020202020200A2020382020392020312020302020202020200A2020392031302020322020302020202020200A2031302031312020312020302020202020200A2031312031322020322020302020202020200A2031322031332020312020302020202020200A2020382031332020322020302020202020200A2020332020362020312020302020202020200A2031342031352020312020302020202020200A2031352031362020322020302020202020200A2031362031372020312020302020202020200A2031372031382020322020302020202020200A2031382031392020312020302020202020200A2031342031392020322020302020202020200A2020352031342020312020302020202020200A4D2020454E44
Contributor: KANEMASA S, INST. OF ADVANCED MATERIAL STUDY KYUSHU UNIV.
InstType: EI
InstName: JEOL JMS-01-SG-2
IoniMethod: _ENERGY 75 eV
IonPolarity: pos
Date: 2010-10-09 19:48:36+02:00
Num Peaks: 35
38 316 50 243 51 624 52 163 62 79 63 246 64 81 65 249 74 75 75 124 
76 190 77 999 78 449 87 51 89 297 90 57 91 553 92 48 101 56 102 253 
103 415 104 429 105 229 115 807 116 122 127 76 128 200 129 48 130 232 139 45 
141 64 142 46 143 195 248 178 249 104 
