Name: MassBank: JP001630
MW: 121
Formula: C8H11N
Synonym: MassBank: JP001630
Synonym: 2,5-DIMETHYLANILINE
Synonym: 2,5-XYLIDINE
Structure: 310A32330A322C352D44494D455448594C414E494C494E452E6D6F6C0A20204368656D447261773132323130393031333732440A2020392020392020302020302020302020302020302020302020302020303939392056323030300A2020202D312E343238392020202D302E3832353020202020302E30303030204E202020302020302020302020302020302020302020302020302020302020302020302020300A2020202D302E373134352020202D302E3431323520202020302E303030302043202020302020302020302020302020302020302020302020302020302020302020302020300A2020202D302E3731343520202020302E3431323520202020302E303030302043202020302020302020302020302020302020302020302020302020302020302020302020300A20202020302E3030303020202020302E3832353020202020302E303030302043202020302020302020302020302020302020302020302020302020302020302020302020300A20202020302E3731343520202020302E3431323520202020302E303030302043202020302020302020302020302020302020302020302020302020302020302020302020300A20202020302E373134352020202D302E3431323520202020302E303030302043202020302020302020302020302020302020302020302020302020302020302020302020300A2020202D302E303030302020202D302E3832353020202020302E303030302043202020302020302020302020302020302020302020302020302020302020302020302020300A20202020312E343238392020202D302E3832353020202020302E303030302043202020302020302020302020302020302020302020302020302020302020302020302020300A2020202D312E3432383920202020302E3832353020202020302E303030302043202020302020302020302020302020302020302020302020302020302020302020302020300A2020312020322020312020302020202020200A2020322020332020312020302020202020200A2020332020342020322020302020202020200A2020342020352020312020302020202020200A2020352020362020322020302020202020200A2020362020372020312020302020202020200A2020322020372020322020302020202020200A2020362020382020312020302020202020200A2020332020392020312020302020202020200A4D2020454E44
Contributor: KOGA M, UNIV. OF OCCUPATIONAL AND ENVIRONMENTAL HEALTH
InstType: EI
InstName: VARIAN MAT-44
IoniMethod: _ENERGY 70 eV
IonPolarity: pos
Date: 2010-10-09 19:48:36+02:00
Num Peaks: 66
30 88 37 28 38 94 39 422 40 40 41 220 42 194 43 44 45 21 46 46 
47 23 49 15 50 153 51 286 52 200 53 222 54 85 55 44 56 17 57 34 
58 89 59 138 60 130 61 29 62 53 63 66 64 75 65 140 66 62 67 39 
68 24 69 24 71 14 73 26 74 24 75 25 76 40 77 568 78 229 79 260 
80 82 81 18 83 13 87 10 89 52 90 34 91 427 92 116 93 210 94 60 
95 10 97 10 102 23 103 127 104 91 105 102 106 989 107 116 108 32 116 12 
117 29 118 133 119 118 120 753 121 999 122 110 
