Name: SEC-BUTYLHYDRAZONE METHYLETHYLKETONE
MW: 142
Formula: C8H18N2
Synonym: MassBank: JP000824
Synonym: SEC-BUTYLHYDRAZONE METHYLETHYLKETONE
Synonym: 2-BUTANONE SEC-BUTYLHYDRAZONE
Structure: 5345432D425554594C48594452415A4F4E45204D455448594C455448594C4B45544F4E452E6D6F6C0A20204368656D447261773132323130393233313632440A2031302020392020302020302020302020302020302020302020302020303939392056323030300A2020202D302E3431323520202020312E3738363220202020302E303030302043202020302020302020302020302020302020302020302020302020302020302020302020300A2020202D302E3030303020202020312E3037313720202020302E303030302043202020302020302020302020302020302020302020302020302020302020302020302020300A20202020302E3832353020202020312E3037313720202020302E303030302043202020302020302020302020302020302020302020302020302020302020302020302020300A20202020312E3233373520202020302E3335373220202020302E303030302043202020302020302020302020302020302020302020302020302020302020302020302020300A2020202D302E3431323520202020302E3335373220202020302E30303030204E202020302020302020302020302020302020302020302020302020302020302020302020300A2020202D302E303030302020202D302E3335373220202020302E30303030204E202020302020302020302020302020302020302020302020302020302020302020302020300A2020202D302E343132352020202D312E3037313720202020302E303030302043202020302020302020302020302020302020302020302020302020302020302020302020300A2020202D302E303030302020202D312E3738363220202020302E303030302043202020302020302020302020302020302020302020302020302020302020302020302020300A20202020302E383235302020202D312E3738363220202020302E303030302043202020302020302020302020302020302020302020302020302020302020302020302020300A2020202D312E323337352020202D312E3037313720202020302E303030302043202020302020302020302020302020302020302020302020302020302020302020302020300A2020312020322020312020302020202020200A2020322020332020312020302020202020200A2020332020342020312020302020202020200A2020352020362020312020302020202020200A2020372020382020312020302020202020200A2020382020392020312020302020202020200A2020372031302020312020302020202020200A2020362020372020312020302020202020200A2020322020352020322020302020202020200A4D2020454E44
Contributor: SASAKI S, TOYOHASHI UNIV. OF TECH.
InstType: EI
InstName: SHIMADZU LKB-2091
IoniMethod: _ENERGY 70 eV
IonPolarity: pos
Date: 2010-10-09 19:48:36+02:00
Num Peaks: 32
27 95 28 78 29 189 30 3 39 45 40 10 41 114 42 999 43 51 44 128 
53 10 54 2 55 44 56 38 57 65 58 2 68 27 69 17 70 189 71 3 
72 57 84 10 85 17 86 1 97 9 111 21 113 716 114 6 127 55 140 17 
142 149 143 23 
