Name: TRIDEUTEROMETHYLEUGENOL(D3)
MW: 178
Formula: C11H14O2
Synonym: MassBank: JP009444
Synonym: TRIDEUTEROMETHYLEUGENOL(D3)
Structure: 303231325F5452494445555445524F4D455448594C455547454E4F4C284433292E6D6F6C0A20204368656D447261773038323031303030333232440A2031362031362020302020302020302020302020302020302020302020303939392056323030300A20202020312E3733303820202020302E3832353020202020302E303030302043202020302020302020302020302020302020302020302020302020302020302020302020300A20202020312E3733303820202020302E3030303020202020302E30303030204F202020302020302020302020302020302020302020302020302020302020302020302020300A20202020312E303136352020202D302E3431323520202020302E303030302043202020302020302020302020302020302020302020302020302020302020302020302020300A20202020312E303136352020202D312E3233373520202020302E303030302043202020302020302020302020302020302020302020302020302020302020302020302020300A20202020312E373330382020202D312E3634393920202020302E30303030204F202020302020302020302020302020302020302020302020302020302020302020302020300A20202020322E343435332020202D312E3233373520202020302E303030302043202020302020302020302020302020302020302020302020302020302020302020302020300A20202020302E333032302020202D312E3634393920202020302E303030302043202020302020302020302020302020302020302020302020302020302020302020302020300A2020202D302E343132352020202D312E3233373520202020302E303030302043202020302020302020302020302020302020302020302020302020302020302020302020300A2020202D312E313236392020202D312E3634393920202020302E303030302043202020302020302020302020302020302020302020302020302020302020302020302020300A2020202D312E383431332020202D312E3233373520202020302E303030302043202020302020302020302020302020302020302020302020302020302020302020302020300A2020202D322E353535382020202D312E3634393920202020302E303030302043202020302020302020302020302020302020302020302020302020302020302020302020300A2020202D302E343132352020202D302E3431323520202020302E303030302043202020302020302020302020302020302020302020302020302020302020302020302020300A20202020302E3330323020202020302E3030303020202020302E303030302043202020302020302020302020302020302020302020302020302020302020302020302020300A20202020302E3930353920202020302E3832353020202020302E303030302048202020312020302020302020302020302020302020302020302020302020302020302020300A20202020312E3733303820202020312E3634393920202020302E303030302048202020312020302020302020302020302020302020302020302020302020302020302020300A20202020322E3535353820202020302E3832353020202020302E303030302048202020312020302020302020302020302020302020302020302020302020302020302020300A2020312020322020312020302020202020200A2020322020332020312020302020202020200A2020332020342020312020302020202020200A2020342020352020312020302020202020200A2020352020362020312020302020202020200A2020342020372020322020302020202020200A2020372020382020312020302020202020200A2020382020392020312020302020202020200A2020392031302020312020302020202020200A2031302031312020322020302020202020200A2020382031322020322020302020202020200A2031322031332020312020302020202020200A2020332031332020322020302020202020200A2020312031342020312020302020202020200A2020312031352020312020302020202020200A2020312031362020312020302020202020200A4D202049534F2020332020313420202032202031352020203220203136202020320A4D2020454E44
Contributor: EGUCHI S, FAC. OF SCIENCE, HIROSHIMA UNIV.
InstType: EI
InstName: HITACHI RMS-4
IoniMethod: _ENERGY 80 eV
IonPolarity: pos
Date: 2010-10-09 19:48:36+02:00
Num Peaks: 105
40 45 41 240 42 40 43 160 44 25 45 40 46 15 47 30 50 90 51 250 
52 85 53 85 54 15 55 115 56 15 57 30 58 10 59 20 60 35 61 15 
62 70 63 155 64 75 65 275 66 80 67 30 68 15 69 25 74 45 75 35 
76 45 77 265 78 165 79 255 80 70 81 35 82 25 83 15 86 15 87 15 
88 10 89 95 90 80 91 575 92 175 93 65 94 40 95 40 96 15 97 10 
101 15 102 40 103 535 104 140 105 215 106 105 107 290 108 70 109 65 110 50 
111 25 114 10 115 125 116 85 117 85 118 65 119 95 120 115 121 30 122 15 
123 15 124 15 131 125 132 55 133 45 134 25 135 15 136 40 137 45 138 85 
139 20 145 10 146 35 147 235 148 75 149 120 150 175 151 35 152 30 153 70 
154 135 155 15 161 15 162 15 163 35 164 75 165 75 166 120 167 25 168 10 
178 35 179 125 180 575 181 999 182 125 
