Name: 2-PHENYLETHYL ISOPROPYL ETHER
MW: 164
Formula: C11H16O
Synonym: MassBank: JP009071
Synonym: 2-PHENYLETHYL ISOPROPYL ETHER
Structure: 322D5048454E594C455448594C2049534F50524F50594C2045544845522E6D6F6C0A20204368656D447261773032323131303134323532440A2031322031322020302020302020302020302020302020302020302020303939392056323030300A2020202D302E383235302020202D302E3335373220202020302E30303030204F202020302020302020302020302020302020302020302020302020302020302020302020300A2020202D312E363530302020202D302E3335373220202020302E303030302043202020302020302020302020302020302020302020302020302020302020302020302020300A2020202D322E303632352020202D312E3037313720202020302E303030302043202020302020302020302020302020302020302020302020302020302020302020302020300A2020202D322E3036323520202020302E3335373220202020302E303030302043202020302020302020302020302020302020302020302020302020302020302020302020300A2020202D302E343132352020202D312E3037313720202020302E303030302043202020302020302020302020302020302020302020302020302020302020302020302020300A20202020302E343132352020202D312E3037313720202020302E303030302043202020302020302020302020302020302020302020302020302020302020302020302020300A20202020302E383235302020202D302E3335373220202020302E303030302043202020302020302020302020302020302020302020302020302020302020302020302020300A20202020302E3431323520202020302E3335373220202020302E303030302043202020302020302020302020302020302020302020302020302020302020302020302020300A20202020302E3832353020202020312E3037313720202020302E303030302043202020302020302020302020302020302020302020302020302020302020302020302020300A20202020312E3635303020202020312E3037313720202020302E303030302043202020302020302020302020302020302020302020302020302020302020302020302020300A20202020322E3036323520202020302E3335373220202020302E303030302043202020302020302020302020302020302020302020302020302020302020302020302020300A20202020312E363530302020202D302E3335373220202020302E303030302043202020302020302020302020302020302020302020302020302020302020302020302020300A2020322020332020312020302020202020200A2020322020342020312020302020202020200A2020312020322020312020302020202020200A2020352020362020312020302020202020200A2020372020382020312020302020202020200A2020382020392020322020302020202020200A2020392031302020312020302020202020200A2031302031312020322020302020202020200A2031312031322020312020302020202020200A2020372031322020322020302020202020200A2020362020372020312020302020202020200A2020312020352020312020302020202020200A4D2020454E44
Contributor: SODA AROMATIC CO., LTD.
InstType: EI
InstName: HITACHI M-80B
IoniMethod: _ENERGY 70 eV
IonPolarity: pos
Date: 2010-10-09 19:48:36+02:00
Num Peaks: 42
15 16 27 141 29 19 31 18 38 11 39 129 41 157 42 22 43 999 44 24 
45 18 50 26 51 110 52 23 53 14 55 33 58 10 59 58 62 11 63 33 
64 13 65 132 73 462 74 20 75 18 76 10 77 188 78 105 79 100 89 23 
90 15 91 799 92 573 93 34 102 11 103 94 104 53 105 350 106 489 107 34 
146 13 164 13 
