Name: 5-ETHYL-5-ISOPROPYL-BARBITURIC ACID
MW: 198
Formula: C9H14N2O3
Synonym: MassBank: JP003863
Synonym: 5-ETHYL-5-ISOPROPYL-BARBITURIC ACID
Synonym: PROBARBITAL
Structure: 352D455448594C2D352D49534F50524F50594C2D4241524249545552494320414349442E6D6F6C0A20204368656D447261773034323331303035323232440A2031342031342020302020302020302020302020302020302020302020303939392056323030300A20202020302E3331343120202020312E3332323420202020302E30303030204E202020302020302020302020302020302020302020302020302020302020302020302020300A20202020312E3032383620202020302E3930393920202020302E303030302043202020302020302020302020302020302020302020302020302020302020302020302020300A20202020312E3734333120202020312E3332323420202020302E30303030204F202020302020302020302020302020302020302020302020302020302020302020302020300A20202020312E3032383620202020302E3038343920202020302E30303030204E202020302020302020302020302020302020302020302020302020302020302020302020300A20202020302E333134312020202D302E3332373620202020302E303030302043202020302020302020302020302020302020302020302020302020302020302020302020300A20202020302E333134312020202D312E3135323620202020302E30303030204F202020302020302020302020302020302020302020302020302020302020302020302020300A2020202D302E3430303320202020302E3038343920202020302E303030302043202020302020302020302020302020302020302020302020302020302020302020302020300A2020202D302E3430303320202020302E3930393920202020302E303030302043202020302020302020302020302020302020302020302020302020302020302020302020300A2020202D312E3131343820202020312E3332323420202020302E30303030204F202020302020302020302020302020302020302020302020302020302020302020302020300A2020202D302E363832352020202D302E3639303420202020302E303030302043202020302020302020302020302020302020302020302020302020302020302020302020300A2020202D312E343935302020202D302E3833333620202020302E303030302043202020302020302020302020302020302020302020302020302020302020302020302020300A2020202D302E313532322020202D312E3332323420202020302E303030302043202020302020302020302020302020302020302020302020302020302020302020302020300A2020202D312E3231323820202020302E3232383120202020302E303030302043202020302020302020302020302020302020302020302020302020302020302020302020300A2020202D312E373433312020202D302E3430333920202020302E303030302043202020302020302020302020302020302020302020302020302020302020302020302020300A2020312020322020312020302020202020200A2020322020332020322020302020202020200A2020322020342020312020302020202020200A2020342020352020312020302020202020200A2020352020362020322020302020202020200A2020352020372020312020302020202020200A2020372020382020312020302020202020200A2020382020392020322020302020202020200A2020312020382020312020302020202020200A2031302031312020312020302020202020200A2031302031322020312020302020202020200A2020372031302020312020302020202020200A2031332031342020312020302020202020200A2020372031332020312020302020202020200A4D2020454E44
Contributor: SASAKI S, TOYOHASHI UNIV. OF TECH.
InstType: EI
InstName: Unknown
IoniMethod: _ENERGY 70 eV
IonPolarity: pos
Date: 2010-10-09 19:48:36+02:00
Num Peaks: 75
26 3 27 34 28 29 29 2 30 1 37 1 38 4 39 4 40 14 41 119 
42 19 43 10 44 29 51 4 52 9 53 2 54 17 55 39 56 13 57 0 
58 9 59 1 65 5 66 1 67 23 68 15 69 39 70 3 71 9 72 1 
79 4 80 2 81 3 82 9 83 19 84 1 85 29 86 9 94 16 95 1 
96 9 97 27 98 79 99 1 100 1 108 1 109 24 110 1 111 9 112 49 
113 17 114 0 124 2 126 19 140 3 141 58 142 44 143 14 144 4 153 0 
154 9 155 99 156 999 157 8 158 14 159 4 168 1 169 6 170 29 171 9 
182 1 183 1 184 1 198 1 199 6 
