Name: MassBank: JP005685
MW: 116
Formula: C7H16O
Synonym: MassBank: JP005685
Synonym: 2,2-DIMETHYL-1-PENTANOL
Structure: 310A32300A322C322D44494D455448594C2D312D50454E54414E4F4C2E6D6F6C0A20204368656D447261773132323030393036333732440A2020382020372020302020302020302020302020302020302020302020303939392056323030300A2020202D302E373134352020202D302E3335373220202020302E303030302043202020302020302020302020302020302020302020302020302020302020302020302020300A20202020302E3030303020202020302E3035353320202020302E303030302043202020302020302020302020302020302020302020302020302020302020302020302020300A20202020302E3731343520202020302E3436373820202020302E303030302043202020302020302020302020302020302020302020302020302020302020302020302020300A20202020312E3432383920202020302E3035353320202020302E303030302043202020302020302020302020302020302020302020302020302020302020302020302020300A20202020312E343238392020202D302E3736393720202020302E303030302043202020302020302020302020302020302020302020302020302020302020302020302020300A2020202D312E3432383920202020302E3035353320202020302E30303030204F202020302020302020302020302020302020302020302020302020302020302020302020300A2020202D302E3431323520202020302E3736393720202020302E303030302043202020302020302020302020302020302020302020302020302020302020302020302020300A20202020302E343132352020202D302E3635393220202020302E303030302043202020302020302020302020302020302020302020302020302020302020302020302020300A2020312020322020312020302020202020200A2020322020332020312020302020202020200A2020332020342020312020302020202020200A2020342020352020312020302020202020200A2020312020362020312020302020202020200A2020322020372020312020312020202020200A2020322020382020312020312020202020200A4D2020454E44
Contributor: HASHIMOTO K, KYOTO COLLEGE OF PHARMACY
InstType: EI
InstName: HITACHI M-80
IoniMethod: _ENERGY 20 eV
IonPolarity: pos
Date: 2010-10-09 19:48:36+02:00
Num Peaks: 24
27 27 29 69 31 38 39 13 41 190 42 19 43 999 44 39 45 86 55 204 
56 95 57 254 58 13 59 36 69 80 70 10 72 14 73 86 83 29 84 161 
85 464 86 28 101 2 115 1 
