Name: MassBank: JP000983
MW: 236
Formula: C10H20O6
Synonym: MassBank: JP000983
Synonym: METHYL-3,4,6-TRI-O-METHYLMANNOSIDE
Structure: 303138365F4D455448594C2D332C342C362D5452492D4F2D4D455448594C4D414E4E4F534944452E6D6F6C0A20204368656D447261773039303631303134333432440A2031362031362020302020302020302020302020302020302020302020303939392056323030300A20202020312E3738363120202020302E3832353020202020302E30303030204F202020302020302020302020302020302020302020302020302020302020302020302020300A20202020312E3037313720202020302E3431323520202020302E303030302043202020302020302020302020302020302020302020302020302020302020302020302020300A20202020312E303731372020202D302E3431323520202020302E303030302043202020302020302020302020302020302020302020302020302020302020302020302020300A20202020312E373836312020202D302E3832353020202020302E30303030204F202020302020302020302020302020302020302020302020302020302020302020302020300A20202020302E333537322020202D302E3832353020202020302E303030302043202020302020302020302020302020302020302020302020302020302020302020302020300A20202020302E333537322020202D312E3634393920202020302E30303030204F202020302020302020302020302020302020302020302020302020302020302020302020300A2020202D302E333537322020202D302E3431323520202020302E303030302043202020302020302020302020302020302020302020302020302020302020302020302020300A2020202D312E303731372020202D302E3832353020202020302E30303030204F202020302020302020302020302020302020302020302020302020302020302020302020300A2020202D302E3335373220202020302E3431323520202020302E303030302043202020302020302020302020302020302020302020302020302020302020302020302020300A20202020302E3335373220202020302E3832353020202020302E30303030204F202020302020302020302020302020302020302020302020302020302020302020302020300A2020202D312E3037313720202020302E3832353020202020302E303030302043202020302020302020302020302020302020302020302020302020302020302020302020300A2020202D312E3037313720202020312E3634393920202020302E30303030204F202020302020302020302020302020302020302020302020302020302020302020302020300A2020202D312E3738363120202020322E3036323420202020302E303030302043202020302020302020302020302020302020302020302020302020302020302020302020300A2020202D312E303731372020202D312E3634393920202020302E303030302043202020302020302020302020302020302020302020302020302020302020302020302020300A20202020312E303731372020202D322E3036323420202020302E303030302043202020302020302020302020302020302020302020302020302020302020302020302020300A20202020312E3738363120202020312E3634393920202020302E303030302043202020302020302020302020302020302020302020302020302020302020302020302020300A2020322020312020312020362020202020200A2020322020332020312020302020202020200A2020332020342020312020312020202020200A2020332020352020312020302020202020200A2020352020362020312020312020202020200A2020352020372020312020302020202020200A2020372020382020312020362020202020200A2020372020392020312020302020202020200A2020392031302020312020302020202020200A2020392031312020312020312020202020200A2031312031322020312020302020202020200A2020322031302020312020302020202020200A2031322031332020312020302020202020200A2020382031342020312020302020202020200A2020362031352020312020302020202020200A2020312031362020312020302020202020200A4D2020454E44
Contributor: HORI T, DEPT. OF CHEMISTRY, FAC. OF LIBERAL ARTS AND EDUCATION, SHIGA UNIV.
InstType: EI
InstName: SHIMADZU LKB-9000
IoniMethod: _ENERGY 70 eV
IonPolarity: pos
Date: 2010-10-09 19:48:36+02:00
Num Peaks: 60
41 220 42 55 43 140 44 50 45 760 46 10 47 20 53 50 54 15 55 80 
56 30 57 90 58 140 59 200 60 15 61 30 67 10 68 40 69 80 70 10 
71 999 72 100 73 170 74 610 75 980 76 20 81 35 82 15 83 30 84 40 
85 120 86 15 87 340 88 680 89 280 97 15 99 110 100 20 101 380 102 130 
103 20 111 40 112 40 113 15 114 10 115 80 116 10 117 70 118 10 127 150 
130 20 131 40 141 15 143 15 144 10 149 20 159 60 161 180 172 20 173 20 
