Name: 2-CYCLOPENTEN-1-ONE
MW: 82
Formula: C5H6O
Synonym: MassBank: JP008942
Synonym: 2-CYCLOPENTEN-1-ONE
Structure: 310A31370A322D4359434C4F50454E54454E2D312D4F4E452E6D6F6C0A20204368656D447261773031303331303132313132440A2020362020362020302020302020302020302020302020302020302020303939392056323030300A2020202D302E323232332020202D302E3030303020202020302E303030302043202020302020302020302020302020302020302020302020302020302020302020302020300A20202020302E3236323720202020302E3636373420202020302E303030302043202020302020302020302020302020302020302020302020302020302020302020302020300A20202020312E3034373320202020302E3431323520202020302E303030302043202020302020302020302020302020302020302020302020302020302020302020302020300A20202020312E303437332020202D302E3431323520202020302E303030302043202020302020302020302020302020302020302020302020302020302020302020302020300A20202020302E323632372020202D302E3636373420202020302E303030302043202020302020302020302020302020302020302020302020302020302020302020302020300A2020202D312E303437332020202D302E3030303020202020302E30303030204F202020302020302020302020302020302020302020302020302020302020302020302020300A2020312020322020312020302020202020200A2020322020332020322020302020202020200A2020332020342020312020302020202020200A2020342020352020312020302020202020200A2020312020352020312020302020202020200A2020312020362020322020302020202020200A4D2020454E44
Contributor: YAMAMOTO M, DEP. CHEMISTRY, FAC. SCIENCE, NARA WOMEN'S UNIV.
InstType: EI
InstName: HITACHI RMU-6M
IoniMethod: _ENERGY 20 eV
IonPolarity: pos
Date: 2010-10-09 19:48:36+02:00
Num Peaks: 17
26 36 27 129 28 227 39 59 40 26 41 11 42 15 51 2 52 30 53 313 
54 492 55 12 56 68 81 131 82 999 83 6 84 12 
