Name: METHYL NONANOATE
MW: 172
Formula: C10H20O2
Synonym: MassBank: JP007006
Synonym: METHYL NONANOATE
Structure: 4D455448594C2050454C4152474F4E4154452E6D6F6C0A20204368656D447261773038313231303030333432440A2031322031312020302020302020302020302020302020302020302020303939392056323030300A2020202D322E3530303620202020302E3230363220202020302E303030302043202020302020302020302020302020302020302020302020302020302020302020302020300A2020202D312E373836322020202D302E3230363220202020302E303030302043202020302020302020302020302020302020302020302020302020302020302020302020300A2020202D312E3037313720202020302E3230363220202020302E303030302043202020302020302020302020302020302020302020302020302020302020302020302020300A2020202D302E333537322020202D302E3230363220202020302E303030302043202020302020302020302020302020302020302020302020302020302020302020302020300A20202020302E3335373220202020302E3230363220202020302E303030302043202020302020302020302020302020302020302020302020302020302020302020302020300A20202020312E303731372020202D302E3230363220202020302E303030302043202020302020302020302020302020302020302020302020302020302020302020302020300A20202020312E3738363220202020302E3230363320202020302E303030302043202020302020302020302020302020302020302020302020302020302020302020302020300A20202020322E353030362020202D302E3230363220202020302E303030302043202020302020302020302020302020302020302020302020302020302020302020302020300A20202020332E3231353120202020302E3230363320202020302E303030302043202020302020302020302020302020302020302020302020302020302020302020302020300A2020202D322E3530303620202020312E3033313320202020302E30303030204F202020302020302020302020302020302020302020302020302020302020302020302020300A2020202D332E323135312020202D302E3230363220202020302E30303030204F202020302020302020302020302020302020302020302020302020302020302020302020300A2020202D332E323135312020202D312E3033313320202020302E303030302043202020302020302020302020302020302020302020302020302020302020302020302020300A2020312020322020312020302020202020200A2020322020332020312020302020202020200A2020332020342020312020302020202020200A2020342020352020312020302020202020200A2020352020362020312020302020202020200A2020362020372020312020302020202020200A2020372020382020312020302020202020200A2020382020392020312020302020202020200A2020312031302020322020302020202020200A2020312031312020312020302020202020200A2031312031322020312020302020202020200A4D2020454E44
Contributor: SODA AROMATIC CO., LTD.
InstType: EI
InstName: HITACHI M-80B
IoniMethod: _ENERGY 70 eV
IonPolarity: pos
Date: 2010-10-09 19:48:36+02:00
Num Peaks: 34
15 36 27 88 29 111 39 65 41 216 42 54 43 216 45 14 53 15 54 11 
55 164 56 32 57 79 59 115 67 12 68 11 69 69 70 12 71 30 73 17 
74 999 75 89 83 23 84 25 87 447 88 40 97 15 98 14 101 37 115 13 
129 74 141 89 143 57 172 14 
