Name: DIBUTYL TIN MALEATE
MW: 348
Formula: C12H20O4Sn
Synonym: MassBank: JP003360
Synonym: DIBUTYL TIN MALEATE
Structure: 4449425554594C2054494E204D414C454154452E6D6F6C0A20204368656D447261773039323131303138303432440A2031372031372020302020302020302020302020302020302020302020303939392056323030300A2020202D312E373333332020202D302E3530323520202020302E303030302043202020302020302020302020302020302020302020302020302020302020302020302020300A2020202D312E373333332020202D312E3332373520202020302E303030302043202020302020302020302020302020302020302020302020302020302020302020302020300A2020202D312E303838332020202D312E3834313920202020302E303030302043202020302020302020302020302020302020302020302020302020302020302020302020300A2020202D302E323833392020202D312E3635383320202020302E303030302043202020302020302020302020302020302020302020302020302020302020302020302020300A20202020302E303734302020202D302E3931353020202020302E30303030204F202020302020302020302020302020302020302020302020302020302020302020302020300A2020202D302E323833392020202D302E3137313720202020302E3030303020536E2020302020302020302020302020302020302020302020302020302020302020302020300A2020202D312E3038383320202020302E3031313920202020302E30303030204F202020302020302020302020302020302020302020302020302020302020302020302020300A20202020302E323330342020202D322E3330333320202020302E30303030204F202020302020302020302020302020302020302020302020302020302020302020302020300A2020202D322E343736362020202D302E3134343520202020302E30303030204F202020302020302020302020302020302020302020302020302020302020302020302020300A2020202D302E3238333920202020302E3635333320202020302E303030302043202020302020302020302020302020302020302020302020302020302020302020302020300A20202020302E3531323920202020302E3034313820202020302E303030302043202020302020302020302020302020302020302020302020302020302020302020302020300A2020202D302E3939383420202020312E3036353820202020302E303030302043202020302020302020302020302020302020302020302020302020302020302020302020300A2020202D302E3939383420202020312E3839303820202020302E303030302043202020302020302020302020302020302020302020302020302020302020302020302020300A2020202D312E3731323920202020322E3330333320202020302E303030302043202020302020302020302020302020302020302020302020302020302020302020302020300A20202020312E303936332020202D302E3534313520202020302E303030302043202020302020302020302020302020302020302020302020302020302020302020302020300A20202020312E383933322020202D302E3332383020202020302E303030302043202020302020302020302020302020302020302020302020302020302020302020302020300A20202020322E343736362020202D302E3931313420202020302E303030302043202020302020302020302020302020302020302020302020302020302020302020302020300A2020312020322020312020302020202020200A2020322020332020322020302020202020200A2020332020342020312020302020202020200A2020342020352020312020302020202020200A2020352020362020312020302020202020200A2020362020372020312020302020202020200A2020372020312020312020302020202020200A2020342020382020322020302020202020200A2020312020392020322020302020202020200A2020362031302020312020302020202020200A2020362031312020312020302020202020200A2031302031322020312020302020202020200A2031322031332020312020302020202020200A2031332031342020312020302020202020200A2031312031352020312020302020202020200A2031352031362020312020302020202020200A2031362031372020312020302020202020200A4D2020454E44
Contributor: KOGA M, UNIV. OF OCCUPATIONAL AND ENVIRONMENTAL HEALTH
InstType: EI
InstName: JEOL JMS-01-SG-2
IoniMethod: _ENERGY 75 eV
IonPolarity: pos
Date: 2010-10-09 19:48:36+02:00
Num Peaks: 26
44 178 52 41 53 160 54 999 55 82 56 257 98 340 99 2 105 26 121 22 
153 20 155 3 175 36 177 41 211 20 213 2 265 29 266 18 267 58 268 3 
269 84 270 11 271 33 273 2 289 9 291 13 
