Name: LIMONENE DIOXIDE
MW: 168
Formula: C10H16O2
Synonym: MassBank: JP006439
Synonym: LIMONENE DIOXIDE
Structure: 4C494D4F4E454E452044494F584944452E6D6F6C0A20204368656D447261773131313030393135343332440A2031322031342020302020302020302020302020302020302020302020303939392056323030300A20202020312E323637392020202D302E3030303020202020302E303030302043202020302020302020302020302020302020302020302020302020302020302020302020300A20202020302E383535342020202D302E3731343520202020302E303030302043202020302020302020302020302020302020302020302020302020302020302020302020300A20202020302E303330342020202D302E3731343520202020302E303030302043202020302020302020302020302020302020302020302020302020302020302020302020300A2020202D302E333832312020202D302E3030303020202020302E303030302043202020302020302020302020302020302020302020302020302020302020302020302020300A20202020302E3033303420202020302E3731343520202020302E303030302043202020302020302020302020302020302020302020302020302020302020302020302020300A20202020302E3835353420202020302E3731343520202020302E303030302043202020302020302020302020302020302020302020302020302020302020302020302020300A20202020312E3938323420202020302E3431323520202020302E303030302043202020302020302020302020302020302020302020302020302020302020302020302020300A2020202D312E323037312020202D302E3030303020202020302E303030302043202020302020302020302020302020302020302020302020302020302020302020302020300A2020202D312E3335303420202020302E3831323520202020302E303030302043202020302020302020302020302020302020302020302020302020302020302020302020300A2020202D312E333530342020202D302E3831323520202020302E303030302043202020302020302020302020302020302020302020302020302020302020302020302020300A2020202D312E3938323420202020302E3238323220202020302E30303030204F202020302020302020302020302020302020302020302020302020302020302020302020300A20202020312E363830342020202D302E3731343520202020302E30303030204F202020302020302020302020302020302020302020302020302020302020302020302020300A2020312020322020312020302020202020200A2020322020332020312020302020202020200A2020332020342020312020302020202020200A2020342020352020312020302020202020200A2020352020362020312020302020202020200A2020312020362020312020302020202020200A2020312020372020312020302020202020200A2020382020392020312020302020202020200A2020382031302020312020302020202020200A2020382031312020312020302020202020200A2020392031312020312020302020202020200A2020342020382020312020302020202020200A2020312031322020312020302020202020200A2020322031322020312020302020202020200A4D2020454E44
Contributor: HISAHIRO HAGIWARA, CHEMICAL RESEARCH INSTITUTE OF NON-AQUEOUSSOLUTIONS TOHOKU UNIV.
InstType: EI
InstName: HITACHI M-80B
IoniMethod: _ENERGY 70 eV
IonPolarity: pos
Date: 2010-10-09 19:48:36+02:00
Num Peaks: 59
15 29 27 148 29 111 31 21 39 164 40 18 41 266 42 30 43 999 44 52 
45 30 51 15 52 15 53 93 54 34 55 186 56 27 57 50 58 75 59 24 
65 31 66 20 67 166 68 42 69 86 70 22 71 103 72 17 77 50 79 106 
80 23 81 97 82 100 83 88 84 55 85 54 91 64 92 59 93 104 94 26 
95 130 96 18 97 98 98 27 105 29 106 15 107 164 108 46 109 73 110 38 
111 40 121 37 123 53 124 15 125 37 135 29 137 16 139 16 153 29 
