Name: MassBank: JP006694
MW: 258
Formula: C12H18O4S
Synonym: MassBank: JP006694
Synonym: 3,4,5-TRIMETHOXY-2-METHYLTHIOMETHYLBENZYLALCOHOL
Structure: 332C342C352D5452494D4554484F58592D322D4D455448594C5448494F4D455448594C42454E5A594C414C434F484F4C2E6D6F6C0A20204368656D447261773032323131303231343432440A2031372031372020302020302020302020302020302020302020302020303939392056323030300A20202020312E303731372020202D312E3033313320202020302E303030302043202020302020302020302020302020302020302020302020302020302020302020302020300A20202020302E333537322020202D302E3631383820202020302E303030302043202020302020302020302020302020302020302020302020302020302020302020302020300A20202020302E3335373220202020302E3230363220202020302E303030302043202020302020302020302020302020302020302020302020302020302020302020302020300A2020202D302E3335373220202020302E3631383820202020302E303030302043202020302020302020302020302020302020302020302020302020302020302020302020300A2020202D312E3037313720202020302E3230363220202020302E303030302043202020302020302020302020302020302020302020302020302020302020302020302020300A2020202D312E303731372020202D302E3631383820202020302E303030302043202020302020302020302020302020302020302020302020302020302020302020302020300A2020202D302E333537322020202D312E3033313320202020302E303030302043202020302020302020302020302020302020302020302020302020302020302020302020300A20202020312E3037313720202020302E3631383820202020302E303030302043202020302020302020302020302020302020302020302020302020302020302020302020300A20202020312E3738363220202020302E3230363220202020302E303030302053202020302020302020302020302020302020302020302020302020302020302020302020300A20202020322E3530303620202020302E3631383720202020302E303030302043202020302020302020302020302020302020302020302020302020302020302020302020300A2020202D312E373836322020202D312E3033313320202020302E30303030204F202020302020302020302020302020302020302020302020302020302020302020302020300A2020202D312E373836322020202D312E3835363320202020302E303030302043202020302020302020302020302020302020302020302020302020302020302020302020300A2020202D312E3738363220202020302E3631383820202020302E30303030204F202020302020302020302020302020302020302020302020302020302020302020302020300A2020202D322E3530303620202020302E3230363220202020302E303030302043202020302020302020302020302020302020302020302020302020302020302020302020300A2020202D302E3335373220202020312E3434333720202020302E30303030204F202020302020302020302020302020302020302020302020302020302020302020302020300A20202020302E3335373220202020312E3835363320202020302E303030302043202020302020302020302020302020302020302020302020302020302020302020302020300A20202020312E303731372020202D312E3835363320202020302E30303030204F202020302020302020302020302020302020302020302020302020302020302020302020300A2020312020322020312020302020202020200A2020322020332020312020302020202020200A2020332020342020322020302020202020200A2020342020352020312020302020202020200A2020352020362020322020302020202020200A2020362020372020312020302020202020200A2020322020372020322020302020202020200A2020392031302020312020302020202020200A2020382020392020312020302020202020200A2020332020382020312020302020202020200A2031312031322020312020302020202020200A2020362031312020312020302020202020200A2031332031342020312020302020202020200A2020352031332020312020302020202020200A2031352031362020312020302020202020200A2020342031352020312020302020202020200A2020312031372020312020302020202020200A4D2020454E44
Contributor: MASS SPECTROSCOPY SOC. OF JAPAN (MSSJ)
InstType: EI
InstName: JEOL JMS-D-300
IoniMethod: _ENERGY 70 eV
IonPolarity: pos
Date: 2010-10-09 19:48:36+02:00
Num Peaks: 54
39 34 41 24 43 27 45 2 51 32 53 36 61 69 65 4 67 21 77 49 
79 40 91 5 93 21 95 21 105 36 107 5 108 24 109 41 121 45 123 4 
125 25 135 24 136 43 137 7 138 27 139 22 141 23 148 2 149 31 150 29 
151 79 152 16 153 69 165 29 166 70 167 7 168 92 169 23 178 40 179 6 
181 144 182 21 183 46 194 4 195 95 196 220 197 38 209 3 210 895 211 999 
212 260 213 3 258 33 259 5 
