Name: CYCLODODECANOL
MW: 184
Formula: C12H24O
Synonym: MassBank: JP006567
Synonym: CYCLODODECANOL
Structure: 4359434C4F444F444543414E4F4C2E6D6F6C0A20204368656D447261773039313531303035323532440A2031332031332020302020302020302020302020302020302020302020303939392056323030300A2020202D312E313831332020202D302E3030303020202020302E303030302043202020302020302020302020302020302020302020302020302020302020302020302020300A2020202D302E3936373820202020302E3739363920202020302E303030302043202020302020302020302020302020302020302020302020302020302020302020302020300A2020202D302E3338343420202020312E3338303320202020302E303030302043202020302020302020302020302020302020302020302020302020302020302020302020300A20202020302E3431323520202020312E3539333820202020302E303030302043202020302020302020302020302020302020302020302020302020302020302020302020300A20202020312E3230393420202020312E3338303320202020302E303030302043202020302020302020302020302020302020302020302020302020302020302020302020300A20202020312E3739323820202020302E3739363920202020302E303030302043202020302020302020302020302020302020302020302020302020302020302020302020300A20202020322E3030363320202020302E3030303020202020302E303030302043202020302020302020302020302020302020302020302020302020302020302020302020300A20202020312E373932382020202D302E3739363920202020302E303030302043202020302020302020302020302020302020302020302020302020302020302020302020300A20202020312E323039342020202D312E3338303320202020302E303030302043202020302020302020302020302020302020302020302020302020302020302020302020300A20202020302E343132352020202D312E3539333820202020302E303030302043202020302020302020302020302020302020302020302020302020302020302020302020300A2020202D302E333834342020202D312E3338303320202020302E303030302043202020302020302020302020302020302020302020302020302020302020302020302020300A2020202D302E393637382020202D302E3739363920202020302E303030302043202020302020302020302020302020302020302020302020302020302020302020302020300A2020202D322E303036332020202D302E3030303020202020302E30303030204F202020302020302020302020302020302020302020302020302020302020302020302020300A2020312020322020312020302020202020200A2020322020332020312020302020202020200A2020332020342020312020302020202020200A2020342020352020312020302020202020200A2020352020362020312020302020202020200A2020362020372020312020302020202020200A2020372020382020312020302020202020200A2020382020392020312020302020202020200A2020392031302020312020302020202020200A2031302031312020312020302020202020200A2031312031322020312020302020202020200A2020312031322020312020302020202020200A2020312031332020312020302020202020200A4D2020454E44
Contributor: HISAHIRO HAGIWARA, CHEMICAL RESEARCH INSTITUTE OF NON-AQUEOUSSOLUTIONS TOHOKU UNIV.
InstType: EI
InstName: HITACHI M-80B
IoniMethod: _ENERGY 70 eV
IonPolarity: pos
Date: 2010-10-09 19:48:36+02:00
Num Peaks: 58
27 234 29 390 30 14 31 83 39 227 40 27 41 999 42 282 43 421 44 224 
45 80 51 11 53 81 54 307 55 823 56 271 57 732 58 77 59 14 65 17 
66 102 67 642 68 574 69 384 70 159 71 217 72 54 77 14 79 41 80 33 
81 480 82 887 83 314 84 102 85 112 86 21 93 14 94 23 95 360 96 521 
97 140 98 75 99 35 109 152 110 222 111 72 112 34 113 14 123 73 124 94 
125 17 137 45 138 93 139 12 140 86 141 13 156 14 166 56 
