Name: 3-(4-HYDROXY-3-METHOXYPHENYL)PROP-2-ENOICACID
CAS: 1135-24-6
MW: 194
Formula: C10H10O4
Synonym: MassBank: JP007239
Synonym: 3-(4-HYDROXY-3-METHOXYPHENYL)PROP-2-ENOICACID
Synonym: FERULIC ACID
Structure: 332D28342D485944524F58592D332D4D4554484F58595048454E594C2950524F502D322D454E4F4943414349442E6D6F6C0A20204368656D447261773032323231303130313232440A2031342031342020302020302020302020302020302020302020302020303939392056323030300A20202020312E373836322020202D302E3431323520202020302E303030302043202020302020302020302020302020302020302020302020302020302020302020302020300A20202020312E3037313720202020302E3030303020202020302E303030302043202020302020302020302020302020302020302020302020302020302020302020302020300A20202020302E333537322020202D302E3431323520202020302E303030302043202020302020302020302020302020302020302020302020302020302020302020302020300A20202020312E373836322020202D312E3233373520202020302E30303030204F202020302020302020302020302020302020302020302020302020302020302020302020300A20202020322E3530303620202020302E3030303020202020302E30303030204F202020302020302020302020302020302020302020302020302020302020302020302020300A2020202D302E333537322020202D302E3030303020202020302E303030302043202020302020302020302020302020302020302020302020302020302020302020302020300A2020202D312E303731372020202D302E3431323520202020302E303030302043202020302020302020302020302020302020302020302020302020302020302020302020300A2020202D312E373836322020202D302E3030303020202020302E303030302043202020302020302020302020302020302020302020302020302020302020302020302020300A2020202D312E3738363220202020302E3832353020202020302E303030302043202020302020302020302020302020302020302020302020302020302020302020302020300A2020202D312E3037313720202020312E3233373520202020302E303030302043202020302020302020302020302020302020302020302020302020302020302020302020300A2020202D302E3335373220202020302E3832353020202020302E303030302043202020302020302020302020302020302020302020302020302020302020302020302020300A2020202D322E353030362020202D302E3431323520202020302E30303030204F202020302020302020302020302020302020302020302020302020302020302020302020300A2020202D322E353030362020202D312E3233373520202020302E303030302043202020302020302020302020302020302020302020302020302020302020302020302020300A2020202D322E3530303620202020312E3233373520202020302E30303030204F202020302020302020302020302020302020302020302020302020302020302020302020300A2020312020322020312020302020202020200A2020322020332020322020302020202020200A2020312020342020322020302020202020200A2020312020352020312020302020202020200A2020362020372020312020302020202020200A2020372020382020322020302020202020200A2020382020392020312020302020202020200A2020392031302020322020302020202020200A2031302031312020312020302020202020200A2020362031312020322020302020202020200A2031322031332020312020302020202020200A2020382031322020312020302020202020200A2020392031342020312020302020202020200A2020332020362020312020302020202020200A4D2020454E44
Contributor: ENDO K, PHARMACEUTICAL INST., TOHOKU UNIV.
InstType: EI
InstName: HITACHI M-52
IoniMethod: _ENERGY 25 eV
IonPolarity: pos
Date: 2010-10-09 19:48:36+02:00
Num Peaks: 30
53 8 55 28 65 8 67 1 69 16 77 96 78 28 79 1 89 28 91 16 
95 28 105 4 107 72 119 12 123 16 133 156 134 2 135 116 145 24 148 16 
149 2 150 188 151 44 161 20 177 7 179 188 180 8 193 48 194 999 195 108 
