Name: HALFORDININ
MW: 330
Formula: C18H18O6
Synonym: MassBank: JP003116
Synonym: HALFORDININ
Structure: 303537325F48414C464F5244494E494E2E6D6F6C0A20204368656D447261773039303631303138343932440A2032342032362020302020302020302020302020302020302020302020303939392056323030300A2020202D322E3737383220202020312E3233373620202020302E303030302043202020302020302020302020302020302020302020302020302020302020302020302020300A2020202D322E3239333320202020302E3537303120202020302E303030302043202020302020302020302020302020302020302020302020302020302020302020302020300A2020202D312E3530383620202020302E3832353120202020302E303030302043202020302020302020302020302020302020302020302020302020302020302020302020300A2020202D312E3530383620202020312E3635303120202020302E303030302043202020302020302020302020302020302020302020302020302020302020302020302020300A2020202D322E3239323020202020312E3930343020202020302E30303030204F202020302020302020302020302020302020302020302020302020302020302020302020300A2020202D302E3739343220202020302E3431323620202020302E303030302043202020302020302020302020302020302020302020302020302020302020302020302020300A2020202D302E3037393720202020302E3832353120202020302E303030302043202020302020302020302020302020302020302020302020302020302020302020302020300A2020202D302E3037393720202020312E3635303120202020302E303030302043202020302020302020302020302020302020302020302020302020302020302020302020300A2020202D302E3739343220202020322E3036323620202020302E303030302043202020302020302020302020302020302020302020302020302020302020302020302020300A20202020302E3633343820202020302E3431323620202020302E303030302043202020302020302020302020302020302020302020302020302020302020302020302020300A20202020312E3334393220202020302E3832353120202020302E303030302043202020302020302020302020302020302020302020302020302020302020302020302020300A20202020312E3334393220202020312E3635303120202020302E303030302043202020302020302020302020302020302020302020302020302020302020302020302020300A20202020302E3633353320202020322E3036323420202020302E30303030204F202020302020302020302020302020302020302020302020302020302020302020302020300A2020202D302E373933392020202D302E3431323620202020302E30303030204F202020302020302020302020302020302020302020302020302020302020302020302020300A2020202D302E303739372020202D302E3832343920202020302E303030302043202020302020302020302020302020302020302020302020302020302020302020302020300A20202020322E3036343620202020322E3036323420202020302E30303030204F202020302020302020302020302020302020302020302020302020302020302020302020300A20202020322E3036343620202020302E3431323420202020302E30303030204F202020302020302020302020302020302020302020302020302020302020302020302020300A20202020322E3737383220202020302E3832353120202020302E303030302043202020302020302020302020302020302020302020302020302020302020302020302020300A20202020302E363335332020202D302E3431323620202020302E30303030204F202020302020302020302020302020302020302020302020302020302020302020302020300A20202020312E333439382020202D302E3832353120202020302E303030302043202020302020302020302020302020302020302020302020302020302020302020302020300A20202020312E373632332020202D302E3131303620202020302E303030302043202020302020302020302020302020302020302020302020302020302020302020302020300A20202020322E303634332020202D312E3233373620202020302E303030302043202020302020302020302020302020302020302020302020302020302020302020302020300A20202020302E393337332020202D312E3533393620202020302E303030302043202020302020302020302020302020302020302020302020302020302020302020302020300A20202020322E303634332020202D322E3036323620202020302E303030302043202020302020302020302020302020302020302020302020302020302020302020302020300A2020312020322020322020302020202020200A2020322020332020312020302020202020200A2020332020342020322020302020202020200A2020342020352020312020302020202020200A2020352020312020312020302020202020200A2020332020362020312020302020202020200A2020362020372020322020302020202020200A2020372020382020312020302020202020200A2020382020392020322020302020202020200A2020392020342020312020302020202020200A2020372031302020312020302020202020200A2031302031312020322020302020202020200A2031312031322020312020302020202020200A2031322031332020312020302020202020200A2031332020382020312020302020202020200A2020362031342020312020302020202020200A2031342031352020312020302020202020200A2031322031362020322020302020202020200A2031312031372020312020302020202020200A2031372031382020312020302020202020200A2031302031392020312020302020202020200A2031392032302020312020302020202020200A2032302032312020312020302020202020200A2032302032322020312020302020202020200A2032302032332020312020302020202020200A2032322032342020322020302020202020200A4D2020454E44
Contributor: NAKAYAMA M, MASS SPECTROSCOPY SOC. OF JAPAN (MSSJ)
InstType: EI
InstName: AEI-GEC MS-902
IoniMethod: _ENERGY 70 eV
IonPolarity: pos
Date: 2010-10-09 19:48:36+02:00
Num Peaks: 12
69 570 147 90 175 70 176 90 190 630 191 170 219 110 233 330 247 120 262 999 
330 230 331 50 
