Name: MassBank: JP003088
MW: 368
Formula: C27H44
Synonym: MassBank: JP003088
Synonym: CHOLESTA-3,5-DIENE
Structure: 43484F4C455354412D332C352D4449454E452E6D6F6C0A20204368656D447261773039303731303131323232440A2033322033352020302020302020302020302020302020302020302020303939392056323030300A2020202D342E303930392020202D322E3037393520202020302E303030302043202020302020302020302020302020302020302020302020302020302020302020302020300A2020202D342E303930392020202D312E3235343520202020302E303030302043202020302020302020302020302020302020302020302020302020302020302020302020300A2020202D332E333736352020202D302E3834323020202020302E303030302043202020302020302020302020302020302020302020302020302020302020302020302020300A2020202D332E333736352020202D322E3439323020202020302E303030302043202020302020302020302020302020302020302020302020302020302020302020302020300A2020202D322E363632302020202D322E3037393520202020302E303030302043202020302020302020302020302020302020302020302020302020302020302020302020300A2020202D312E393437352020202D322E3439323020202020302E303030302043202020302020302020302020302020302020302020302020302020302020302020302020300A2020202D312E323333302020202D322E3037393520202020302E303030302043202020302020302020302020302020302020302020302020302020302020302020302020300A2020202D312E323333302020202D312E3235343520202020302E303030302043202020302020302020302020302020302020302020302020302020302020302020302020300A2020202D302E353138362020202D302E3834323020202020302E303030302043202020302020302020302020302020302020302020302020302020302020302020302020300A20202020302E323636302020202D312E3039363920202020302E303030302043202020302020302020302020302020302020302020302020302020302020302020302020300A20202020302E373531302020202D302E3432393520202020302E303030302043202020302020302020302020302020302020302020302020302020302020302020302020300A20202020302E3236363020202020302E3233383020202020302E303030302043202020302020302020302020302020302020302020302020302020302020302020302020300A20202020302E3532313020202020312E3032323620202020302E303030302043202020302020302020302020302020302020302020302020302020302020302020302020300A2020202D302E353138362020202D302E3031373020202020302E303030302043202020302020302020302020302020302020302020302020302020302020302020302020300A2020202D302E3531383620202020302E3830383020202020302E303030302043202020302020302020302020302020302020302020302020302020302020302020302020300A2020202D312E3233333020202020302E3339353520202020302E303030302043202020302020302020302020302020302020302020302020302020302020302020302020300A2020202D312E393437352020202D302E3031373020202020302E303030302043202020302020302020302020302020302020302020302020302020302020302020302020300A2020202D312E393437352020202D302E3834323020202020302E303030302043202020302020302020302020302020302020302020302020302020302020302020302020300A2020202D322E363632302020202D312E3235343520202020302E303030302043202020302020302020302020302020302020302020302020302020302020302020302020300A2020202D312E393437352020202D312E3636373020202020302E303030302043202020302020302020302020302020302020302020302020302020302020302020302020300A2020202D322E363632302020202D302E3432393520202020302E303030302048202020302020302020302020302020302020302020302020302020302020302020302020300A2020202D302E353138362020202D312E3636373020202020302E303030302048202020302020302020302020302020302020302020302020302020302020302020302020300A2020202D302E313036312020202D312E3535363420202020302E303030302048202020302020302020302020302020302020302020302020302020302020302020302020300A20202020312E3038303920202020302E3336373020202020302E303030302048202020302020302020302020302020302020302020302020302020302020302020302020300A20202020302E3733343520202020312E3831393520202020302E303030302048202020302020302020302020302020302020302020302020302020302020302020302020300A20202020312E3331323020202020302E3738383320202020302E303030302043202020302020302020302020302020302020302020302020302020302020302020302020300A2020202D302E3237303020202020312E3235363920202020302E303030302043202020302020302020302020302020302020302020302020302020302020302020302020300A20202020312E3931303420202020312E3335363220202020302E303030302043202020302020302020302020302020302020302020302020302020302020302020302020300A20202020322E3730313520202020312E3132313920202020302E303030302043202020302020302020302020302020302020302020302020302020302020302020302020300A20202020332E3239393920202020312E3638393820202020302E303030302043202020302020302020302020302020302020302020302020302020302020302020302020300A20202020342E3039303920202020312E3435353420202020302E303030302043202020302020302020302020302020302020302020302020302020302020302020302020300A20202020332E3130373320202020322E3439323020202020302E303030302043202020302020302020302020302020302020302020302020302020302020302020302020300A2020312020322020312020302020202020200A2020322020332020312020302020202020200A2020312020342020322020302020202020200A2020342020352020312020302020202020200A2020352020362020322020302020202020200A2020362020372020312020302020202020200A2020372020382020312020302020202020200A2020382020392020312020302020202020200A2020392031302020312020302020202020200A2031302031312020312020302020202020200A2031312031322020312020302020202020200A2031322031332020312020302020202020200A2031322031342020312020302020202020200A2020392031342020312020302020202020200A2031342031352020312020312020202020200A2031342031362020312020302020202020200A2031362031372020312020302020202020200A2031372031382020312020302020202020200A2020382031382020312020302020202020200A2031382031392020312020302020202020200A2020332031392020312020302020202020200A2020352031392020312020302020202020200A2031392032302020312020312020202020200A2031382032312020312020362020202020200A2020382032322020312020312020202020200A2020392032332020312020362020202020200A2031322032342020312020362020202020200A2031332032352020312020312020202020200A2031332032362020312020302020202020200A2031332032372020312020302020202020200A2032362032382020312020302020202020200A2032382032392020312020302020202020200A2032392033302020312020302020202020200A2033302033312020312020302020202020200A2033302033322020312020302020202020200A4D2020454E44
Contributor: SASAKI S, TOYOHASHI UNIV. OF TECH.
InstType: EI
InstName: Unknown
IoniMethod: EI
IonPolarity: pos
Date: 2010-10-09 19:48:36+02:00
Num Peaks: 99
41 730 42 250 43 999 44 44 55 460 56 350 57 911 58 0 67 20 68 30 
69 210 70 0 71 140 77 110 78 40 79 2 80 50 81 360 82 70 83 1 
91 160 92 90 93 360 94 1 95 210 96 50 97 60 105 4 106 130 107 270 
108 120 109 2 114 100 116 40 117 160 118 1 119 190 120 220 121 180 122 1 
123 90 124 30 128 280 129 1 130 50 131 160 132 40 133 1 134 40 135 180 
136 90 137 0 141 330 142 340 143 220 144 1 145 210 146 80 147 280 148 1 
149 90 155 180 156 120 157 2 158 160 159 100 160 60 161 1 162 20 179 20 
180 40 181 1 182 20 183 40 184 30 185 0 193 60 194 40 195 80 196 0 
197 60 211 90 212 40 213 1 237 50 238 10 247 120 248 1 249 10 255 60 
256 20 260 1 269 20 262 10 353 50 366 2 367 30 368 200 369 20 
