Name: 3-METHYLPENTANOL
MW: 102
Formula: C6H14O
Synonym: MassBank: JP009995
Synonym: 3-METHYLPENTANOL
Structure: 310A31380A332D4D455448594C50454E54414E4F4C2E6D6F6C0A20204368656D447261773033323031303137323132440A2020372020362020302020302020302020302020302020302020302020303939392056323030300A2020202D312E3033313320202020302E3731343520202020302E303030302043202020302020302020302020302020302020302020302020302020302020302020302020300A2020202D302E3230363220202020302E3731343520202020302E303030302043202020302020302020302020302020302020302020302020302020302020302020302020300A20202020302E323036332020202D302E3030303020202020302E303030302043202020302020302020302020302020302020302020302020302020302020302020302020300A20202020312E303331332020202D302E3030303020202020302E303030302043202020302020302020302020302020302020302020302020302020302020302020302020300A20202020312E3434333820202020302E3731343520202020302E303030302043202020302020302020302020302020302020302020302020302020302020302020302020300A2020202D302E323036322020202D302E3731343520202020302E303030302043202020302020302020302020302020302020302020302020302020302020302020302020300A2020202D312E343433382020202D302E3030303020202020302E30303030204F202020302020302020302020302020302020302020302020302020302020302020302020300A2020312020322020312020302020202020200A2020322020332020312020302020202020200A2020332020342020312020302020202020200A2020342020352020312020302020202020200A2020332020362020312020302020202020200A2020312020372020312020302020202020200A4D2020454E44
Contributor: KURARAY CO., LTD.
InstType: EI
InstName: JEOL JMS-D-300
IoniMethod: _ENERGY 70 eV
IonPolarity: pos
Date: 2010-10-09 19:48:36+02:00
Num Peaks: 31
26 12 27 177 28 129 29 35 31 296 32 14 39 129 40 2 41 627 42 193 
43 681 44 4 45 106 46 42 51 10 53 3 54 23 55 834 56 999 57 35 
58 11 59 12 67 11 69 78 70 49 71 45 73 14 83 2 84 213 85 25 
135 10 
