Name: 1-META-METHOXYPHENYL-2-PROPANOL
MW: 166
Formula: C10H14O2
Synonym: MassBank: JP004565
Synonym: 1-META-METHOXYPHENYL-2-PROPANOL
Structure: 312D4D4554412D4D4554484F58595048454E594C2D322D50524F50414E4F4C2E6D6F6C0A20204368656D447261773131313930393136303332440A2031322031322020302020302020302020302020302020302020302020303939392056323030300A20202020302E3832353020202020312E3037313720202020302E303030302043202020302020302020302020302020302020302020302020302020302020302020302020300A20202020302E3431323520202020312E3738363220202020302E303030302043202020302020302020302020302020302020302020302020302020302020302020302020300A2020202D302E3431323520202020312E3738363220202020302E303030302043202020302020302020302020302020302020302020302020302020302020302020302020300A20202020302E3832353020202020322E3530303620202020302E30303030204F202020302020302020302020302020302020302020302020302020302020302020302020300A20202020302E3431323520202020302E3335373220202020302E303030302043202020302020302020302020302020302020302020302020302020302020302020302020300A20202020302E383235302020202D302E3335373220202020302E303030302043202020302020302020302020302020302020302020302020302020302020302020302020300A20202020302E343132352020202D312E3037313720202020302E303030302043202020302020302020302020302020302020302020302020302020302020302020302020300A2020202D302E343132352020202D312E3037313720202020302E303030302043202020302020302020302020302020302020302020302020302020302020302020302020300A2020202D302E383235302020202D302E3335373220202020302E303030302043202020302020302020302020302020302020302020302020302020302020302020302020300A2020202D302E3431323520202020302E3335373220202020302E303030302043202020302020302020302020302020302020302020302020302020302020302020302020300A20202020302E383235302020202D312E3738363220202020302E30303030204F202020302020302020302020302020302020302020302020302020302020302020302020300A20202020302E343132352020202D322E3530303620202020302E303030302043202020302020302020302020302020302020302020302020302020302020302020302020300A2020312020322020312020302020202020200A2020322020332020312020302020202020200A2020322020342020312020302020202020200A2020352020362020312020302020202020200A2020362020372020322020302020202020200A2020372020382020312020302020202020200A2020382020392020322020302020202020200A2020392031302020312020302020202020200A2020352031302020322020302020202020200A2031312031322020312020302020202020200A2020372031312020312020302020202020200A2020312020352020312020302020202020200A4D2020454E44
Contributor: HAYASHI A, DEPT. OF CHEMISTRY, FAC. OF SCI. AND TECHNOLOGY, KINKI UNIV.
InstType: EI
InstName: JEOL JMS-HX-100
IoniMethod: _ENERGY 70 eV
IonPolarity: pos
Date: 2010-10-09 19:48:36+02:00
Num Peaks: 81
37 3 38 12 39 56 40 1 41 24 42 4 43 74 44 1 45 206 46 6 
50 22 51 47 52 28 53 16 54 2 55 11 57 4 58 3 59 3 61 3 
62 10 63 37 64 20 65 62 66 13 67 13 68 4 69 1 74 7 75 7 
77 124 78 90 79 97 80 9 81 3 89 43 90 206 91 240 92 89 93 24 
94 20 95 12 102 3 103 10 104 4 105 28 106 16 107 281 108 49 109 64 
110 6 115 12 116 4 117 7 118 3 119 6 120 5 121 262 122 999 123 127 
124 10 131 3 132 3 133 7 134 4 135 6 136 4 137 23 138 78 139 8 
147 5 148 5 149 5 150 3 151 40 152 4 164 10 165 9 166 284 167 35 
168 3 
