Name: MassBank: JP008019
MW: 220
Formula: C14H20O2
Synonym: MassBank: JP008019
Synonym: 6-(3-OXO-4-PENTENYL)-3,5,5,TRIMETHYL-2-CYCLOHEXEN-1-ONE
Structure: 362D28332D4F584F2D342D50454E54454E594C292D332C352C352C5452494D455448594C2D322D4359434C4F484558454E2D312D4F4E452E6D6F6C0A20204368656D447261773035313731303130323532440A2031362031362020302020302020302020302020302020302020302020303939392056323030300A20202020302E373633352020202D302E3431323520202020302E303030302043202020302020302020302020302020302020302020302020302020302020302020302020300A20202020302E373633352020202D312E3233373520202020302E303030302043202020302020302020302020302020302020302020302020302020302020302020302020300A20202020302E303439302020202D312E3635303020202020302E303030302043202020302020302020302020302020302020302020302020302020302020302020302020300A2020202D302E363635352020202D312E3233373520202020302E303030302043202020302020302020302020302020302020302020302020302020302020302020302020300A2020202D302E363635352020202D302E3431323520202020302E303030302043202020302020302020302020302020302020302020302020302020302020302020302020300A20202020302E3034393020202020302E3030303020202020302E303030302043202020302020302020302020302020302020302020302020302020302020302020302020300A20202020312E3437373920202020302E3030303020202020302E30303030204F202020302020302020302020302020302020302020302020302020302020302020302020300A2020202D302E3934373620202020302E3336323720202020302E303030302043202020302020302020302020302020302020302020302020302020302020302020302020300A2020202D312E343737392020202D302E3535353820202020302E303030302043202020302020302020302020302020302020302020302020302020302020302020302020300A20202020302E303439302020202D322E3437353020202020302E303030302043202020302020302020302020302020302020302020302020302020302020302020302020300A20202020302E3034393020202020302E3832353020202020302E303030302043202020302020302020302020302020302020302020302020302020302020302020302020300A20202020302E3736333520202020312E3233373520202020302E303030302043202020302020302020302020302020302020302020302020302020302020302020302020300A20202020302E3736333520202020322E3036323520202020302E303030302043202020302020302020302020302020302020302020302020302020302020302020302020300A20202020302E3034393020202020322E3437353020202020302E303030302043202020302020302020302020302020302020302020302020302020302020302020302020300A2020202D302E3636353520202020322E3036323520202020302E303030302043202020302020302020302020302020302020302020302020302020302020302020302020300A20202020312E3437373920202020322E3437353020202020302E30303030204F202020302020302020302020302020302020302020302020302020302020302020302020300A2020312020322020312020302020202020200A2020322020332020322020302020202020200A2020332020342020312020302020202020200A2020342020352020312020302020202020200A2020352020362020312020302020202020200A2020312020362020312020302020202020200A2020312020372020322020302020202020200A2020352020382020312020312020202020200A2020352020392020312020362020202020200A2020332031302020312020302020202020200A2031312031322020312020302020202020200A2031322031332020312020302020202020200A2031332031342020312020302020202020200A2031342031352020322020302020202020200A2031332031362020322020302020202020200A2020362031312020312020302020202020200A4D2020454E44
Contributor: HISAHIRO HAGIWARA, CHEMICAL RESEARCH INSTITUTE OF NON-AQUEOUSSOLUTIONS TOHOKU UNIV.
InstType: EI
InstName: JEOL JMS-DX-300
IoniMethod: _ENERGY 70 eV
IonPolarity: pos
Date: 2010-10-09 19:48:36+02:00
Num Peaks: 53
31 22 39 299 40 25 41 414 43 127 52 35 53 136 54 18 55 810 56 50 
57 58 65 77 66 28 67 135 68 56 69 12 70 85 77 148 78 35 79 107 
80 32 81 106 82 999 83 391 84 24 91 146 92 23 93 4 94 46 95 181 
96 44 97 23 105 70 107 88 108 50 109 110 110 35 122 26 123 976 124 80 
135 747 136 103 137 61 138 153 150 31 151 111 165 40 177 50 191 27 205 276 
206 33 220 68 221 14 
