Name: DODECANAL
CAS: 112-54-9
MW: 184
Formula: C12H24O
Synonym: MassBank: JP008770
Synonym: DODECANAL
Structure: 444F444543414E414C2E6D6F6C0A20204368656D447261773130313831303137303632440A2031332031322020302020302020302020302020302020302020302020303939392056323030300A2020202D332E3537323420202020302E3230363320202020302E303030302043202020302020302020302020302020302020302020302020302020302020302020302020300A2020202D322E383537392020202D302E3230363320202020302E303030302043202020302020302020302020302020302020302020302020302020302020302020302020300A2020202D322E3134333420202020302E3230363320202020302E303030302043202020302020302020302020302020302020302020302020302020302020302020302020300A2020202D312E343238392020202D302E3230363220202020302E303030302043202020302020302020302020302020302020302020302020302020302020302020302020300A2020202D302E3731343520202020302E3230363320202020302E303030302043202020302020302020302020302020302020302020302020302020302020302020302020300A20202020302E303030302020202D302E3230363220202020302E303030302043202020302020302020302020302020302020302020302020302020302020302020302020300A20202020302E3731343520202020302E3230363320202020302E303030302043202020302020302020302020302020302020302020302020302020302020302020302020300A20202020312E343238392020202D302E3230363220202020302E303030302043202020302020302020302020302020302020302020302020302020302020302020302020300A20202020322E3134333420202020302E3230363320202020302E303030302043202020302020302020302020302020302020302020302020302020302020302020302020300A20202020322E383537392020202D302E3230363220202020302E303030302043202020302020302020302020302020302020302020302020302020302020302020302020300A20202020332E3537323420202020302E3230363320202020302E303030302043202020302020302020302020302020302020302020302020302020302020302020302020300A20202020342E323836382020202D302E3230363220202020302E303030302043202020302020302020302020302020302020302020302020302020302020302020302020300A2020202D342E323836382020202D302E3230363320202020302E30303030204F202020302020302020302020302020302020302020302020302020302020302020302020300A2020312020322020312020302020202020200A2020322020332020312020302020202020200A2020332020342020312020302020202020200A2020342020352020312020302020202020200A2020352020362020312020302020202020200A2020362020372020312020302020202020200A2020372020382020312020302020202020200A2020382020392020312020302020202020200A2020392031302020312020302020202020200A2031302031312020312020302020202020200A2031312031322020312020302020202020200A2020312031332020322020302020202020200A4D2020454E44
Contributor: UOEH
InstType: EI
InstName: HP 5970
IoniMethod: _ENERGY 70 eV
IonPolarity: pos
Date: 2010-10-09 19:48:36+02:00
Num Peaks: 36
39 295 41 999 42 263 43 789 44 349 45 104 53 75 54 126 55 667 56 376 
57 777 58 43 66 73 67 358 68 338 69 309 70 243 71 273 72 63 80 36 
81 284 82 444 83 207 84 103 85 141 95 195 96 228 97 134 98 65 109 83 
110 134 111 75 123 41 124 42 138 56 140 72 
