Name: MassBank: JP004295
MW: 129
Formula: C6H11NO2
Synonym: MassBank: JP004295
Synonym: N,N-DIMETHYL ACETOACETAMIDE
Structure: 310A32320A4E2C4E2D44494D455448594C20414345544F41434554414D4944452E6D6F6C0A20204368656D447261773038313231303032333832440A2020392020382020302020302020302020302020302020302020302020303939392056323030300A2020202D302E333537322020202D302E3230363320202020302E303030302043202020302020302020302020302020302020302020302020302020302020302020302020300A20202020302E3335373220202020302E3230363320202020302E303030302043202020302020302020302020302020302020302020302020302020302020302020302020300A20202020312E303731372020202D302E3230363220202020302E303030302043202020302020302020302020302020302020302020302020302020302020302020302020300A20202020312E303731372020202D312E3033313220202020302E30303030204F202020302020302020302020302020302020302020302020302020302020302020302020300A20202020312E3738363220202020302E3230363320202020302E303030302043202020302020302020302020302020302020302020302020302020302020302020302020300A2020202D302E333537322020202D312E3033313220202020302E30303030204F202020302020302020302020302020302020302020302020302020302020302020302020300A2020202D312E3037313720202020302E3230363320202020302E30303030204E202020302020302020302020302020302020302020302020302020302020302020302020300A2020202D312E373836322020202D302E3230363220202020302E303030302043202020302020302020302020302020302020302020302020302020302020302020302020300A2020202D312E3037313720202020312E3033313220202020302E303030302043202020302020302020302020302020302020302020302020302020302020302020302020300A2020312020322020312020302020202020200A2020322020332020312020302020202020200A2020332020342020322020302020202020200A2020332020352020312020302020202020200A2020312020362020322020302020202020200A2020312020372020312020302020202020200A2020372020382020312020302020202020200A2020372020392020312020302020202020200A4D2020454E44
Contributor: TAJIMA S, GUNMA COLLEGE OF TECHNOLOGY
InstType: EI
InstName: HITACHI RMU-7M
IoniMethod: _ENERGY 70 eV
IonPolarity: pos
Date: 2010-10-09 19:48:36+02:00
Num Peaks: 26
14 34 15 215 18 162 26 43 27 70 28 166 29 34 30 44 39 36 40 36 
41 67 42 206 43 832 44 999 45 565 46 40 58 194 69 137 72 78 84 136 
85 36 86 22 87 44 101 11 112 27 129 52 
