Name: N-ACETYL-GLYCYL-PHENYLALANYL-ALANINE METHYLESTER
MW: 349
Formula: C17H23N3O5
Synonym: MassBank: JP000111
Synonym: N-ACETYL-GLYCYL-PHENYLALANYL-ALANINE METHYLESTER
Structure: 303035335F4E2D41434554594C2D474C5943594C2D5048454E594C414C414E594C2D414C414E494E45204D455448594C45535445522E6D6F6C0A20204368656D447261773039303331303137313432440A2032372032372020302020302020302020302020302020302020302020303939392056323030300A2020202D322E323638382020202D322E3134333420202020302E303030302043202020302020302020302020302020302020302020302020302020302020302020302020300A2020202D312E303331332020202D312E3432383920202020302E30303030204E202020302020302020302020302020302020302020302020302020302020302020302020300A2020202D312E383536332020202D312E3432383920202020302E303030302043202020302020302020302020302020302020302020302020302020302020302020302020300A2020202D322E323638382020202D302E3731343520202020302E303030302043202020302020302020302020302020302020302020302020302020302020302020302020300A2020202D332E303933382020202D322E3134333420202020302E30303030204F202020302020302020302020302020302020302020302020302020302020302020302020300A2020202D312E383536332020202D322E3835373920202020302E30303030204F202020302020302020302020302020302020302020302020302020302020302020302020300A2020202D302E363138382020202D302E3731343520202020302E303030302043202020302020302020302020302020302020302020302020302020302020302020302020300A20202020302E363138382020202D302E3030303020202020302E30303030204E202020302020302020302020302020302020302020302020302020302020302020302020300A20202020302E323036322020202D302E3731343520202020302E303030302043202020302020302020302020302020302020302020302020302020302020302020302020300A20202020302E363138382020202D312E3432383920202020302E303030302043202020302020302020302020302020302020302020302020302020302020302020302020300A20202020312E343433382020202D312E3432383920202020302E303030302043202020302020302020302020302020302020302020302020302020302020302020302020300A20202020312E383536332020202D302E3731343520202020302E303030302043202020302020302020302020302020302020302020302020302020302020302020302020300A20202020322E363831322020202D302E3731343520202020302E303030302043202020302020302020302020302020302020302020302020302020302020302020302020300A20202020332E303933382020202D312E3432383920202020302E303030302043202020302020302020302020302020302020302020302020302020302020302020302020300A20202020322E363831322020202D322E3134333420202020302E303030302043202020302020302020302020302020302020302020302020302020302020302020302020300A20202020312E383536332020202D322E3134333420202020302E303030302043202020302020302020302020302020302020302020302020302020302020302020302020300A2020202D312E303331332020202D302E3030303020202020302E30303030204F202020302020302020302020302020302020302020302020302020302020302020302020300A20202020302E3230363220202020302E3731343520202020302E303030302043202020302020302020302020302020302020302020302020302020302020302020302020300A2020202D312E3033313320202020312E3432383920202020302E30303030204E202020302020302020302020302020302020302020302020302020302020302020302020300A2020202D302E3631383820202020302E3731343520202020302E303030302043202020302020302020302020302020302020302020302020302020302020302020302020300A20202020302E3631383720202020312E3432383920202020302E30303030204F202020302020302020302020302020302020302020302020302020302020302020302020300A2020202D302E3631383820202020322E3134333420202020302E303030302043202020302020302020302020302020302020302020302020302020302020302020302020300A2020202D312E3033313320202020322E3835373920202020302E30303030204F202020302020302020302020302020302020302020302020302020302020302020302020300A20202020302E3230363220202020322E3134333420202020302E303030302043202020302020302020302020302020302020302020302020302020302020302020302020300A2020202D312E303331332020202D322E3835373920202020302E303030302043202020302020302020302020302020302020302020302020302020302020302020302020300A2020202D302E323036322020202D312E3432393020202020302E303030302048202020302020302020302020302020302020302020302020302020302020302020302020300A2020202D312E343433382020202D322E3134333420202020302E303030302048202020302020302020302020302020302020302020302020302020302020302020302020300A2020322020332020312020302020202020200A2020312020332020312020302020202020200A2020332020342020312020312020202020200A2020312020352020322020302020202020200A2020312020362020312020302020202020200A2020392020382020312020312020202020200A2020372020392020312020302020202020200A2020392031302020312020302020202020200A2031302031312020312020302020202020200A2031312031322020312020302020202020200A2031322031332020322020302020202020200A2031332031342020312020302020202020200A2031342031352020322020302020202020200A2031352031362020312020302020202020200A2031312031362020322020302020202020200A2020372031372020322020302020202020200A2031392032302020312020302020202020200A2031382032302020312020302020202020200A2031382032312020322020302020202020200A2020382031382020312020302020202020200A2020322020372020312020302020202020200A2032322032332020322020302020202020200A2032322032342020312020302020202020200A2031392032322020312020302020202020200A2020362032352020312020302020202020200A2020392032362020312020312020202020200A2020332032372020312020312020202020200A4D2020454E44
Contributor: YAMAMOTO M, DEP. CHEMISTRY, FAC. SCIENCE, NARA WOMEN'S UNIV.
InstType: EI
InstName: HITACHI RMU-6M
IoniMethod: _ENERGY 70 eV
IonPolarity: pos
Date: 2010-10-09 19:48:36+02:00
Num Peaks: 68
15 80 27 21 28 81 29 2 30 380 31 27 39 19 41 3 42 50 43 217 
44 218 45 2 51 16 55 23 56 18 57 2 58 25 59 32 65 44 70 5 
71 23 72 180 73 44 77 5 78 17 85 11 89 11 90 1 91 166 92 44 
93 13 99 7 100 200 101 16 102 47 103 8 104 79 105 18 117 21 118 4 
119 81 120 999 121 103 127 4 128 34 131 161 132 36 133 2 145 47 146 11 
159 119 160 1 161 11 174 164 175 26 189 1 217 20 218 17 219 37 220 2 
233 195 234 45 247 50 290 1 317 11 318 10 349 95 350 24 
