Name: N-CHLOROMETHYL-2-PYRROLIDONE
MW: 133
Formula: C5H8ClNO
Synonym: MassBank: JP004177
Synonym: N-CHLOROMETHYL-2-PYRROLIDONE
Structure: 310A32310A4E2D43484C4F524F4D455448594C2D322D505952524F4C49444F4E452E6D6F6C0A20204368656D447261773038313231303031353732440A2020382020382020302020302020302020302020302020302020302020303939392056323030300A2020202D302E303136302020202D302E3336383820202020302E30303030204E202020302020302020302020302020302020302020302020302020302020302020302020300A20202020302E3436383920202020302E3239383620202020302E303030302043202020302020302020302020302020302020302020302020302020302020302020302020300A20202020312E3235333520202020302E3034333720202020302E303030302043202020302020302020302020302020302020302020302020302020302020302020302020300A20202020312E323533352020202D302E3738313320202020302E303030302043202020302020302020302020302020302020302020302020302020302020302020302020300A20202020302E343638392020202D312E3033363220202020302E303030302043202020302020302020302020302020302020302020302020302020302020302020302020300A20202020302E3231343020202020312E3038333320202020302E30303030204F202020302020302020302020302020302020302020302020302020302020302020302020300A2020202D302E383431302020202D302E3336383820202020302E303030302043202020302020302020302020302020302020302020302020302020302020302020302020300A2020202D312E323533352020202D312E3038333320202020302E3030303020436C2020302020302020302020302020302020302020302020302020302020302020302020300A2020312020322020312020302020202020200A2020322020332020312020302020202020200A2020332020342020312020302020202020200A2020342020352020312020302020202020200A2020312020352020312020302020202020200A2020322020362020322020302020202020200A2020372020382020312020302020202020200A2020312020372020312020302020202020200A4D2020454E44
Contributor: MASS SPECTROSCOPY SOC. OF JAPAN (MSSJ)
InstType: EI
InstName: HITACHI RMU-6E
IoniMethod: _ENERGY 70 eV
IonPolarity: pos
Date: 2010-10-09 19:48:36+02:00
Num Peaks: 74
25 2 26 23 27 74 28 20 29 70 30 96 31 31 32 0 34 1 35 6 
36 25 37 1 38 18 39 96 40 43 41 32 42 264 43 100 44 19 45 0 
46 1 47 1 48 2 49 3 50 2 51 11 52 6 53 2 54 19 55 42 
56 39 57 1 58 2 59 1 60 2 61 0 64 2 65 1 66 2 67 0 
68 56 69 220 70 312 71 3 72 2 75 3 76 5 77 0 78 21 79 1 
80 8 82 0 83 4 84 45 85 90 86 5 87 5 96 8 97 166 98 999 
99 150 100 11 101 1 111 1 112 6 113 3 114 7 115 0 116 1 132 4 
133 74 134 1 135 23 136 3 
