Name: ALPHA-TERPINYL FORMATE
MW: 182
Formula: C11H18O2
Synonym: MassBank: JP006477
Synonym: ALPHA-TERPINYL FORMATE
Synonym: P-MENTH-1-EN-8-YL FORMATE
Structure: 414C5048412D54455250494E594C20464F524D4154452E6D6F6C0A20204368656D447261773038303731303033343632440A2031332031332020302020302020302020302020302020302020302020303939392056323030300A20202020302E3631383820202020312E3935323020202020302E303030302043202020302020302020302020302020302020302020302020302020302020302020302020300A20202020312E3434333820202020312E3935323020202020302E30303030204F202020302020302020302020302020302020302020302020302020302020302020302020300A20202020302E3230363220202020312E3233373520202020302E30303030204F202020302020302020302020302020302020302020302020302020302020302020302020300A20202020302E303935372020202D302E3030303020202020302E303030302043202020302020302020302020302020302020302020302020302020302020302020302020300A2020202D302E3631383820202020302E3431323520202020302E303030302043202020302020302020302020302020302020302020302020302020302020302020302020300A2020202D312E333333322020202D302E3030303020202020302E303030302043202020302020302020302020302020302020302020302020302020302020302020302020300A2020202D312E333333322020202D302E3832353020202020302E303030302043202020302020302020302020302020302020302020302020302020302020302020302020300A2020202D302E363138382020202D312E3233373520202020302E303030302043202020302020302020302020302020302020302020302020302020302020302020302020300A20202020302E303935372020202D302E3832353020202020302E303030302043202020302020302020302020302020302020302020302020302020302020302020302020300A2020202D302E363138382020202D322E3036323520202020302E303030302043202020302020302020302020302020302020302020302020302020302020302020302020300A2020202D302E3631383820202020312E3233373520202020302E303030302043202020302020302020302020302020302020302020302020302020302020302020302020300A2020202D302E3631383820202020322E3036323520202020302E303030302043202020302020302020302020302020302020302020302020302020302020302020302020300A2020202D312E3434333820202020312E3233373520202020302E303030302043202020302020302020302020302020302020302020302020302020302020302020302020300A2020312020322020322020302020202020200A2020312020332020312020302020202020200A2020342020352020312020302020202020200A2020352020362020312020302020202020200A2020362020372020312020302020202020200A2020372020382020312020302020202020200A2020382020392020322020302020202020200A2020342020392020312020302020202020200A2020382031302020312020302020202020200A2031312031322020312020302020202020200A2031312031332020312020302020202020200A2020352031312020312020302020202020200A2020332031312020312020302020202020200A4D2020454E44
Contributor: HISAHIRO HAGIWARA, CHEMICAL RESEARCH INSTITUTE OF NON-AQUEOUSSOLUTIONS TOHOKU UNIV.
InstType: EI
InstName: HITACHI M-80B
IoniMethod: _ENERGY 70 eV
IonPolarity: pos
Date: 2010-10-09 19:48:36+02:00
Num Peaks: 45
18 20 27 61 28 15 29 73 31 40 39 133 40 26 41 254 42 18 43 191 
51 27 52 15 53 121 54 20 55 104 59 260 65 35 66 16 67 181 68 126 
69 111 71 28 77 124 78 21 79 159 80 61 81 241 82 18 91 108 92 118 
93 717 94 90 95 156 96 14 105 41 106 12 107 107 108 48 119 12 121 999 
122 96 136 555 137 141 138 12 139 21 
