Name: METHYL TETRA-O-METHYL-BETA-D-GALACTOPYRANOSIDE
MW: 250
Formula: C11H22O6
Synonym: MassBank: JP009684
Synonym: METHYL TETRA-O-METHYL-BETA-D-GALACTOPYRANOSIDE
Structure: 303737355F4D455448594C2054455452412D4F2D4D455448594C2D424554412D442D47414C4143544F505952414E4F534944452E6D6F6C0A20204368656D447261773130313931303232353632440A2032322032322020302020302020302020302020302020302020302020303939392056323030300A2020202D302E3935343920202020302E3531393820202020302E303030302043202020302020302020302020302020302020302020302020302020302020302020302020300A2020202D322E313434382020202D302E3338363320202020302E303030302043202020302020302020302020302020302020302020302020302020302020302020302020300A2020202D302E393534392020202D312E3238303420202020302E303030302043202020302020302020302020302020302020302020302020302020302020302020302020300A20202020302E393037332020202D312E3238303420202020302E303030302043202020302020302020302020302020302020302020302020302020302020302020302020300A20202020322E313434382020202D302E3338363320202020302E303030302043202020302020302020302020302020302020302020302020302020302020302020302020300A20202020302E3930373320202020302E3531393820202020302E30303030204F202020302020302020302020302020302020302020302020302020302020302020302020300A2020202D322E3134343820202020302E3337343320202020302E30303030204F202020302020302020302020302020302020302020302020302020302020302020302020300A2020202D322E313434382020202D312E3238303420202020302E303030302048202020302020302020302020302020302020302020302020302020302020302020302020300A20202020322E3134343820202020302E3436393720202020302E30303030204F202020302020302020302020302020302020302020302020302020302020302020302020300A20202020322E313434382020202D312E3139393320202020302E303030302048202020302020302020302020302020302020302020302020302020302020302020302020300A20202020302E393037332020202D302E3438313620202020302E303030302048202020302020302020302020302020302020302020302020302020302020302020302020300A20202020302E393037332020202D322E3130353420202020302E30303030204F202020302020302020302020302020302020302020302020302020302020302020302020300A2020202D302E393534392020202D322E3130353420202020302E303030302048202020302020302020302020302020302020302020302020302020302020302020302020300A2020202D302E393534392020202D302E3532393320202020302E30303030204F202020302020302020302020302020302020302020302020302020302020302020302020300A2020202D302E3935343920202020312E3238303420202020302E303030302043202020302020302020302020302020302020302020302020302020302020302020302020300A2020202D302E393636392020202D302E3037363320202020302E303030302048202020302020302020302020302020302020302020302020302020302020302020302020300A20202020312E363231372020202D322E3531373920202020302E303030302043202020302020302020302020302020302020302020302020302020302020302020302020300A2020202D302E323433332020202D302E3131323020202020302E303030302043202020302020302020302020302020302020302020302020302020302020302020302020300A2020202D312E3636393420202020312E3639323920202020302E30303030204F202020302020302020302020302020302020302020302020302020302020302020302020300A2020202D312E3636393420202020322E3531373920202020302E303030302043202020302020302020302020302020302020302020302020302020302020302020302020300A2020202D322E3835393220202020302E3738363820202020302E303030302043202020302020302020302020302020302020302020302020302020302020302020302020300A20202020322E3835393220202020302E3838323220202020302E303030302043202020302020302020302020302020302020302020302020302020302020302020302020300A2020312020322020312020302020202020200A2020322020332020312020302020202020200A2020332020342020312020302020202020200A2020342020352020312020302020202020200A2020352020362020312020302020202020200A2020312020362020312020302020202020200A2020322020372020312020302020202020200A2020322020382020312020302020202020200A2020352020392020312020302020202020200A2020352031302020312020302020202020200A2020342031312020312020302020202020200A2020342031322020312020302020202020200A2020332031332020312020302020202020200A2020332031342020312020302020202020200A2020312031352020312020302020202020200A2020312031362020312020302020202020200A2031322031372020312020302020202020200A2031342031382020312020302020202020200A2031352031392020312020302020202020200A2031392032302020312020302020202020200A2020372032312020312020302020202020200A2020392032322020312020302020202020200A4D2020454E44
Contributor: THE INSTITUTE OF SCIENTIFIC AND INDUSTRIALRESEARCH
InstType: EI
InstName: JEOL JMS-DX-300
IoniMethod: _ENERGY 70 eV
IonPolarity: pos
Date: 2010-10-09 19:48:36+02:00
Num Peaks: 31
27 18 29 38 31 18 33 1 41 47 42 10 43 16 45 24 47 16 55 18 
57 14 59 3 69 10 71 137 72 18 73 13 74 20 75 685 76 21 83 1 
85 19 88 999 89 69 101 54 102 54 127 25 131 20 149 28 150 18 159 11 
176 42 
