Name: 3-METHYL-2-(TRIMETHYLSILYL)OXYBENZOIC ACIDTRIMETHYLSILYL ESTER
MW: 296
Formula: C14H24O3Si2
Synonym: MassBank: JP001020
Synonym: 3-METHYL-2-(TRIMETHYLSILYL)OXYBENZOIC ACIDTRIMETHYLSILYL ESTER
Synonym: TRIMETHYLSILYL 3-METHYL-2-TRIMETHYLSILOXYBENZOATE
Structure: 332D4D455448594C2D322D285452494D455448594C53494C594C294F585942454E5A4F494320414349445452494D455448594C53494C594C2045535445522E6D6F6C0A20204368656D447261773033313931303233353632440A2031392031392020302020302020302020302020302020302020302020303939392056323030300A20202020302E333537322020202D302E3135313020202020302E303030302043202020302020302020302020302020302020302020302020302020302020302020302020300A2020202D302E333537322020202D302E3536333520202020302E303030302043202020302020302020302020302020302020302020302020302020302020302020302020300A2020202D312E303731372020202D302E3135313020202020302E303030302043202020302020302020302020302020302020302020302020302020302020302020302020300A2020202D312E373836322020202D302E3536333520202020302E303030302043202020302020302020302020302020302020302020302020302020302020302020302020300A2020202D312E373836322020202D312E3338383520202020302E303030302043202020302020302020302020302020302020302020302020302020302020302020302020300A2020202D312E303731372020202D312E3830313020202020302E303030302043202020302020302020302020302020302020302020302020302020302020302020302020300A2020202D302E333537322020202D312E3338383520202020302E303030302043202020302020302020302020302020302020302020302020302020302020302020302020300A20202020302E3335373220202020302E3637343020202020302E30303030204F202020302020302020302020302020302020302020302020302020302020302020302020300A20202020312E303731372020202D302E3536333520202020302E30303030204F202020302020302020302020302020302020302020302020302020302020302020302020300A2020202D312E3037313720202020302E3637343020202020302E30303030204F202020302020302020302020302020302020302020302020302020302020302020302020300A2020202D312E3738363220202020312E3038363520202020302E303030302053692020302020302020302020302020302020302020302020302020302020302020302020300A2020202D322E3530303620202020312E3439393020202020302E303030302043202020302020302020302020302020302020302020302020302020302020302020302020300A2020202D312E3337333720202020312E3830313020202020302E303030302043202020302020302020302020302020302020302020302020302020302020302020302020300A2020202D322E3139383720202020302E3337323020202020302E303030302043202020302020302020302020302020302020302020302020302020302020302020302020300A2020202D322E353030362020202D302E3135313020202020302E303030302043202020302020302020302020302020302020302020302020302020302020302020302020300A20202020312E373836322020202D302E3135313020202020302E303030302053692020302020302020302020302020302020302020302020302020302020302020302020300A20202020322E313938372020202D302E3836353520202020302E303030302043202020302020302020302020302020302020302020302020302020302020302020302020300A20202020322E3530303620202020302E3236313520202020302E303030302043202020302020302020302020302020302020302020302020302020302020302020302020300A20202020312E3337333720202020302E3536333520202020302E303030302043202020302020302020302020302020302020302020302020302020302020302020302020300A2020312020322020312020302020202020200A2020322020332020312020302020202020200A2020332020342020322020302020202020200A2020342020352020312020302020202020200A2020352020362020322020302020202020200A2020362020372020312020302020202020200A2020322020372020322020302020202020200A2020312020382020322020302020202020200A2020312020392020312020302020202020200A2031312031322020312020302020202020200A2031312031332020312020302020202020200A2031312031342020312020302020202020200A2031302031312020312020302020202020200A2020332031302020312020302020202020200A2020342031352020312020302020202020200A2031362031372020312020312020202020200A2031362031382020312020302020202020200A2031362031392020312020312020202020200A2020392031362020312020302020202020200A4D2020454E44
Contributor: KOGA M, UNIV. OF OCCUPATIONAL AND ENVIRONMENTAL HEALTH
InstType: EI
InstName: JEOL JMS-01-SG
IoniMethod: _ENERGY 70 eV
IonPolarity: pos
Date: 2010-10-09 19:48:36+02:00
Num Peaks: 28
43 37 45 190 47 50 51 3 59 31 73 999 74 82 75 11 77 100 78 31 
79 26 91 4 105 71 106 31 133 50 134 3 135 29 147 108 149 246 150 3 
193 31 207 42 208 121 209 3 223 76 281 568 282 137 283 58 
