Name: MassBank: JP003710
MW: 236
Formula: C15H24O2
Synonym: MassBank: JP003710
Synonym: 2-(3-FORMYLOXYMETHYLENE)-BUTYL-1,3,3-TRIMETHYLCYCLOHEX-1-ENE
Structure: 322D28332D464F524D594C4F58594D455448594C454E45292D425554594C2D312C332C332D5452494D455448594C4359434C4F4845582D312D454E452E6D6F6C0A20204368656D447261773132323130393138303932440A2031372031372020302020302020302020302020302020302020302020303939392056323030300A2020202D312E303330352020202D312E3835363320202020302E303030302043202020302020302020302020302020302020302020302020302020302020302020302020300A2020202D312E303330352020202D322E3638313220202020302E303030302043202020302020302020302020302020302020302020302020302020302020302020302020300A2020202D302E333136302020202D332E3039333820202020302E303030302043202020302020302020302020302020302020302020302020302020302020302020302020300A20202020302E333938342020202D322E3638313220202020302E303030302043202020302020302020302020302020302020302020302020302020302020302020302020300A20202020302E333938342020202D312E3835363320202020302E303030302043202020302020302020302020302020302020302020302020302020302020302020302020300A2020202D302E333136302020202D312E3434333820202020302E303030302043202020302020302020302020302020302020302020302020302020302020302020302020300A2020202D302E333136302020202D302E3631383820202020302E303030302043202020302020302020302020302020302020302020302020302020302020302020302020300A20202020312E313132392020202D312E3434333720202020302E303030302043202020302020302020302020302020302020302020302020302020302020302020302020300A2020202D312E343433302020202D312E3134313820202020302E303030302043202020302020302020302020302020302020302020302020302020302020302020302020300A2020202D312E383237342020202D322E3036393820202020302E303030302043202020302020302020302020302020302020302020302020302020302020302020302020300A20202020302E333938342020202D302E3230363220202020302E303030302043202020302020302020302020302020302020302020302020302020302020302020302020300A20202020302E3339383420202020302E3631383820202020302E303030302043202020302020302020302020302020302020302020302020302020302020302020302020300A20202020312E3131323920202020312E3033313320202020302E303030302043202020302020302020302020302020302020302020302020302020302020302020302020300A2020202D302E3331363020202020312E3033313320202020302E303030302043202020302020302020302020302020302020302020302020302020302020302020302020300A20202020312E3131323920202020312E3835363320202020302E30303030204F202020302020302020302020302020302020302020302020302020302020302020302020300A20202020312E3832373420202020322E3236383720202020302E303030302043202020302020302020302020302020302020302020302020302020302020302020302020300A20202020312E3832373420202020332E3039333820202020302E30303030204F202020302020302020302020302020302020302020302020302020302020302020302020300A2020312020322020312020302020202020200A2020322020332020312020302020202020200A2020332020342020312020302020202020200A2020342020352020312020302020202020200A2020352020362020322020302020202020200A2020362020312020312020302020202020200A2020362020372020312020302020202020200A2020352020382020312020302020202020200A2020312020392020312020312020202020200A2020312031302020312020362020202020200A2020372031312020312020302020202020200A2031312031322020312020302020202020200A2031322031332020322020302020202020200A2031322031342020312020302020202020200A2031332031352020312020302020202020200A2031352031362020312020302020202020200A2031362031372020322020302020202020200A4D2020454E44
Contributor: SASAKI S, TOYOHASHI UNIV. OF TECH.
InstType: EI
InstName: Unknown
IoniMethod: EI
IonPolarity: pos
Date: 2010-10-09 19:48:36+02:00
Num Peaks: 68
27 118 28 147 29 135 31 1 39 96 40 19 41 376 42 6 43 208 44 11 
51 19 52 1 53 78 54 11 55 163 56 9 57 159 65 30 66 14 67 11 
68 17 69 181 70 16 71 1 77 56 78 14 79 76 80 2 81 354 82 33 
83 22 84 2 86 20 91 63 92 13 93 7 94 20 95 451 96 39 105 4 
106 11 107 55 108 17 109 8 112 11 119 28 120 13 121 5 122 26 123 54 
124 15 133 2 134 15 135 21 136 49 137 999 138 115 139 10 147 14 150 1 
175 56 176 11 190 48 191 0 208 9 221 10 236 94 237 17 
