Name: MassBank: JP007765
MW: 139
Formula: C8H13NO
Synonym: MassBank: JP007765
Synonym: 2-ISOPROPYL-4,5-DIMETHYLOXAZOLE
Structure: 322D49534F50524F50594C2D342C352D44494D455448594C4F58415A4F4C452E6D6F6C0A20204368656D447261773031323231303030353932440A2031302031302020302020302020302020302020302020302020302020303939392056323030300A20202020302E313335322020202D302E3636373420202020302E30303030204F202020302020302020302020302020302020302020302020302020302020302020302020300A2020202D302E333439372020202D302E3030303020202020302E303030302043202020302020302020302020302020302020302020302020302020302020302020302020300A20202020302E3133353220202020302E3636373420202020302E30303030204E202020302020302020302020302020302020302020302020302020302020302020302020300A20202020302E3931393820202020302E3431323520202020302E303030302043202020302020302020302020302020302020302020302020302020302020302020302020300A20202020302E393139382020202D302E3431323520202020302E303030302043202020302020302020302020302020302020302020302020302020302020302020302020300A20202020312E353837322020202D302E3839373420202020302E303030302043202020302020302020302020302020302020302020302020302020302020302020302020300A20202020312E3538373220202020302E3839373420202020302E303030302043202020302020302020302020302020302020302020302020302020302020302020302020300A2020202D312E313734372020202D302E3030303020202020302E303030302043202020302020302020302020302020302020302020302020302020302020302020302020300A2020202D312E353837322020202D302E3731343520202020302E303030302043202020302020302020302020302020302020302020302020302020302020302020302020300A2020202D312E3538373220202020302E3731343520202020302E303030302043202020302020302020302020302020302020302020302020302020302020302020302020300A2020312020322020312020302020202020200A2020322020332020322020302020202020200A2020332020342020312020302020202020200A2020342020352020322020302020202020200A2020312020352020312020302020202020200A2020352020362020312020302020202020200A2020342020372020312020302020202020200A2020382020392020312020302020202020200A2020382031302020312020302020202020200A2020322020382020312020302020202020200A4D2020454E44
Contributor: HASHIMOTO K, KYOTO COLLEGE OF PHARMACY
InstType: EI
InstName: HITACHI M-80
IoniMethod: _ENERGY 20 eV
IonPolarity: pos
Date: 2010-10-09 19:48:36+02:00
Num Peaks: 35
27 34 29 76 39 37 40 65 41 213 42 837 43 761 53 39 54 64 55 999 
56 65 68 161 69 443 70 747 71 324 72 19 80 67 81 65 82 242 94 35 
95 11 96 913 97 241 110 97 111 158 122 42 123 87 124 913 125 444 126 85 
137 30 138 392 139 739 140 395 141 52 
