Name: N-BENZYL-3-HYDROXYMETHYLPYRROLIDINE
MW: 191
Formula: C12H17NO
Synonym: MassBank: JP002475
Synonym: N-BENZYL-3-HYDROXYMETHYLPYRROLIDINE
Structure: 4E2D42454E5A594C2D332D485944524F58594D455448594C505952524F4C4944494E452E6D6F6C0A20204368656D447261773038313231303031353032440A2031342031352020302020302020302020302020302020302020302020303939392056323030300A20202020302E3132333420202020302E3431323520202020302E30303030204E202020302020302020302020302020302020302020302020302020302020302020302020300A20202020302E3837373120202020302E3734383120202020302E303030302043202020302020302020302020302020302020302020302020302020302020302020302020300A20202020312E3432393120202020302E3133353020202020302E303030302043202020302020302020302020302020302020302020302020302020302020302020302020300A20202020312E303136362020202D302E3537393520202020302E303030302043202020302020302020302020302020302020302020302020302020302020302020302020300A20202020302E323039362020202D302E3430383020202020302E303030302043202020302020302020302020302020302020302020302020302020302020302020302020300A20202020322E3234393620202020302E3232313220202020302E303030302043202020302020302020302020302020302020302020302020302020302020302020302020300A20202020322E373334352020202D302E3434363220202020302E30303030204F202020302020302020302020302020302020302020302020302020302020302020302020300A2020202D302E3539313120202020302E3832353020202020302E303030302043202020302020302020302020302020302020302020302020302020302020302020302020300A2020202D312E3330353620202020302E3431323520202020302E303030302043202020302020302020302020302020302020302020302020302020302020302020302020300A2020202D312E333035362020202D302E3431323520202020302E303030302043202020302020302020302020302020302020302020302020302020302020302020302020300A2020202D322E303230302020202D302E3832353020202020302E303030302043202020302020302020302020302020302020302020302020302020302020302020302020300A2020202D322E373334352020202D302E3431323520202020302E303030302043202020302020302020302020302020302020302020302020302020302020302020302020300A2020202D322E3733343520202020302E3431323520202020302E303030302043202020302020302020302020302020302020302020302020302020302020302020302020300A2020202D322E3032303020202020302E3832353020202020302E303030302043202020302020302020302020302020302020302020302020302020302020302020302020300A2020312020322020312020302020202020200A2020322020332020312020302020202020200A2020332020342020312020302020202020200A2020342020352020312020302020202020200A2020312020352020312020302020202020200A2020362020372020312020302020202020200A2020332020362020312020302020202020200A2020382020392020312020302020202020200A2020392031302020312020302020202020200A2031302031312020322020302020202020200A2031312031322020312020302020202020200A2031322031332020322020302020202020200A2031332031342020312020302020202020200A2020392031342020322020302020202020200A2020312020382020312020302020202020200A4D2020454E44
Contributor: MASS SPECTROSCOPY SOC. OF JAPAN (MSSJ)
InstType: EI
InstName: JEOL JMS-D-3000
IoniMethod: _ENERGY 70 eV
IonPolarity: pos
Date: 2010-10-09 19:48:36+02:00
Num Peaks: 38
40 55 42 487 43 52 44 53 45 17 51 32 53 17 55 60 57 20 59 20 
63 25 65 143 68 22 70 15 71 45 72 17 77 27 82 40 89 29 90 18 
91 999 92 153 100 300 101 18 104 20 105 17 106 48 107 41 114 329 115 25 
118 28 120 39 132 70 133 50 134 16 190 338 191 303 192 39 
