Name: 3-METHYLGLUTARIC ACID BIS(TRIMETHYLSILYL)ESTER
MW: 290
Formula: C12H26O4Si2
Synonym: MassBank: JP007474
Synonym: 3-METHYLGLUTARIC ACID BIS(TRIMETHYLSILYL)ESTER
Structure: 332D4D455448594C474C555441524943204143494420424953285452494D455448594C53494C594C2945535445522E6D6F6C0A20204368656D447261773033323031303137313432440A2031382031372020302020302020302020302020302020302020302020303939392056323030300A20202020312E343238392020202D302E3035353320202020302E303030302043202020302020302020302020302020302020302020302020302020302020302020302020300A20202020302E373134352020202D302E3436373820202020302E303030302043202020302020302020302020302020302020302020302020302020302020302020302020300A2020202D302E303030302020202D302E3035353320202020302E303030302043202020302020302020302020302020302020302020302020302020302020302020302020300A2020202D302E373134352020202D302E3436373820202020302E303030302043202020302020302020302020302020302020302020302020302020302020302020302020300A2020202D312E343238392020202D302E3035353320202020302E303030302043202020302020302020302020302020302020302020302020302020302020302020302020300A20202020312E3432383920202020302E3736393720202020302E30303030204F202020302020302020302020302020302020302020302020302020302020302020302020300A20202020322E313433342020202D302E3436373820202020302E30303030204F202020302020302020302020302020302020302020302020302020302020302020302020300A2020202D312E3432383920202020302E3736393720202020302E30303030204F202020302020302020302020302020302020302020302020302020302020302020302020300A2020202D322E313433342020202D302E3436373820202020302E30303030204F202020302020302020302020302020302020302020302020302020302020302020302020300A2020202D302E3030303020202020302E3736393720202020302E303030302043202020302020302020302020302020302020302020302020302020302020302020302020300A20202020322E383537392020202D302E3035353320202020302E303030302053692020302020302020302020302020302020302020302020302020302020302020302020300A20202020332E323730342020202D302E3736393720202020302E303030302043202020302020302020302020302020302020302020302020302020302020302020302020300A20202020322E3434353420202020302E3635393220202020302E303030302043202020302020302020302020302020302020302020302020302020302020302020302020300A20202020332E3537323420202020302E3335373220202020302E303030302043202020302020302020302020302020302020302020302020302020302020302020302020300A2020202D322E383537392020202D302E3035353320202020302E303030302053692020302020302020302020302020302020302020302020302020302020302020302020300A2020202D332E323730342020202D302E3736393720202020302E303030302043202020302020302020302020302020302020302020302020302020302020302020302020300A2020202D332E3537323420202020302E3335373220202020302E303030302043202020302020302020302020302020302020302020302020302020302020302020302020300A2020202D322E3434353420202020302E3635393220202020302E303030302043202020302020302020302020302020302020302020302020302020302020302020302020300A2020312020322020312020302020202020200A2020322020332020312020302020202020200A2020332020342020312020302020202020200A2020342020352020312020302020202020200A2020312020362020322020302020202020200A2020312020372020312020302020202020200A2020352020382020322020302020202020200A2020352020392020312020302020202020200A2020332031302020312020302020202020200A2031312031322020312020312020202020200A2031312031332020312020312020202020200A2031312031342020312020302020202020200A2020372031312020312020302020202020200A2031352031362020312020302020202020200A2031352031372020312020302020202020200A2031352031382020312020302020202020200A2020392031352020312020302020202020200A4D2020454E44
Contributor: KOGA M, UNIV. OF OCCUPATIONAL AND ENVIRONMENTAL HEALTH
InstType: EI
InstName: JEOL JMS-01-SG
IoniMethod: _ENERGY 70 eV
IonPolarity: pos
Date: 2010-10-09 19:48:36+02:00
Num Peaks: 70
43 85 44 26 45 134 47 7 55 40 57 14 58 16 59 3 60 10 61 42 
67 10 69 999 70 48 71 10 72 71 73 97 74 93 75 405 76 24 77 4 
82 10 83 14 88 10 89 1 95 10 99 46 101 24 111 3 113 10 115 10 
116 65 117 12 118 10 128 20 129 14 130 7 131 20 132 12 133 44 141 5 
142 10 143 138 144 18 147 52 148 164 149 116 150 12 157 4 159 179 160 18 
161 10 162 1 172 240 173 59 174 12 185 3 189 16 200 89 201 44 202 1 
204 114 205 20 217 14 231 1 247 83 248 16 275 507 276 11 277 46 290 4 
