Name: 5-(4-HYDROXY PHENYL)HYDANTOIN
MW: 192
Formula: C9H8N2O3
Synonym: MassBank: JP002869
Synonym: 5-(4-HYDROXY PHENYL)HYDANTOIN
Structure: 352D28342D485944524F5859205048454E594C29485944414E544F494E2E6D6F6C0A20204368656D447261773034323331303033323432440A2031342031352020302020302020302020302020302020302020302020303939392056323030300A20202020302E363831352020202D302E3237373320202020302E303030302043202020302020302020302020302020302020302020302020302020302020302020302020300A20202020312E313636342020202D302E3934343820202020302E30303030204E202020302020302020302020302020302020302020302020302020302020302020302020300A20202020312E393531312020202D302E3638393820202020302E303030302043202020302020302020302020302020302020302020302020302020302020302020302020300A20202020322E363138352020202D312E3137343720202020302E30303030204F202020302020302020302020302020302020302020302020302020302020302020302020300A20202020312E3935313120202020302E3133353220202020302E30303030204E202020302020302020302020302020302020302020302020302020302020302020302020300A20202020312E3136363420202020302E3339303120202020302E303030302043202020302020302020302020302020302020302020302020302020302020302020302020300A20202020302E3931313520202020312E3137343720202020302E30303030204F202020302020302020302020302020302020302020302020302020302020302020302020300A2020202D302E313433352020202D302E3237373320202020302E303030302043202020302020302020302020302020302020302020302020302020302020302020302020300A2020202D302E353536302020202D302E3939313820202020302E303030302043202020302020302020302020302020302020302020302020302020302020302020302020300A2020202D312E333831302020202D302E3939313820202020302E303030302043202020302020302020302020302020302020302020302020302020302020302020302020300A2020202D312E373933352020202D302E3237373320202020302E303030302043202020302020302020302020302020302020302020302020302020302020302020302020300A2020202D312E3338313020202020302E3433373220202020302E303030302043202020302020302020302020302020302020302020302020302020302020302020302020300A2020202D302E3535363020202020302E3433373220202020302E303030302043202020302020302020302020302020302020302020302020302020302020302020302020300A2020202D322E363138352020202D302E3237373320202020302E30303030204F202020302020302020302020302020302020302020302020302020302020302020302020300A2020312020322020312020302020202020200A2020322020332020312020302020202020200A2020332020342020322020302020202020200A2020332020352020312020302020202020200A2020352020362020312020302020202020200A2020362020372020322020302020202020200A2020312020362020312020302020202020200A2020382020392020312020302020202020200A2020392031302020322020302020202020200A2031302031312020312020302020202020200A2031312031322020322020302020202020200A2031322031332020312020302020202020200A2020382031332020322020302020202020200A2031312031342020312020302020202020200A2020312020382020312020302020202020200A4D2020454E44
Contributor: MASS SPECTROSCOPY SOC. OF JAPAN (MSSJ)
InstType: EI
InstName: Unknown
IoniMethod: EI
IonPolarity: pos
Date: 2010-10-09 19:48:36+02:00
Num Peaks: 24
38 23 39 202 44 23 50 20 51 71 63 47 64 22 65 216 66 40 70 31 
77 41 92 32 93 74 94 95 119 35 120 999 121 776 122 54 148 37 149 49 
163 106 164 204 192 872 193 86 
