Name: ACENAPHTHYLENE
CAS: 208-96-8
MW: 152
Formula: C12H8
Synonym: MassBank: JP001587
Synonym: ACENAPHTHYLENE
Structure: 4143454E4150485448594C454E452E6D6F6C0A20204368656D447261773036323431303031353432440A2031322031342020302020302020302020302020302020302020302020303939392056323030300A20202020302E343131322020202D312E3230393120202020302E303030302043202020302020302020302020302020302020302020302020302020302020302020302020300A2020202D302E343133382020202D312E3230393120202020302E303030302043202020302020302020302020302020302020302020302020302020302020302020302020300A2020202D302E373134352020202D302E3434303920202020302E303030302043202020302020302020302020302020302020302020302020302020302020302020302020300A2020202D312E343238392020202D302E3032383420202020302E303030302043202020302020302020302020302020302020302020302020302020302020302020302020300A2020202D312E3432383920202020302E3739363620202020302E303030302043202020302020302020302020302020302020302020302020302020302020302020302020300A2020202D302E3731343520202020312E3230393120202020302E303030302043202020302020302020302020302020302020302020302020302020302020302020302020300A20202020302E3030303020202020302E3739363620202020302E303030302043202020302020302020302020302020302020302020302020302020302020302020302020300A20202020302E3731343520202020312E3230393120202020302E303030302043202020302020302020302020302020302020302020302020302020302020302020302020300A20202020312E3432383920202020302E3739363620202020302E303030302043202020302020302020302020302020302020302020302020302020302020302020302020300A20202020312E343238392020202D302E3032383420202020302E303030302043202020302020302020302020302020302020302020302020302020302020302020302020300A20202020302E373134352020202D302E3434303920202020302E303030302043202020302020302020302020302020302020302020302020302020302020302020302020300A2020202D302E303030302020202D302E3032383420202020302E303030302043202020302020302020302020302020302020302020302020302020302020302020302020300A2020312020322020322020302020202020200A2020322020332020312020302020202020200A2020332020342020322020302020202020200A2020342020352020312020302020202020200A2020352020362020322020302020202020200A2020362020372020312020302020202020200A2020372020382020312020302020202020200A2020382020392020322020302020202020200A2020392031302020312020302020202020200A2031302031312020322020302020202020200A2020312031312020312020302020202020200A2031312031322020312020302020202020200A2020332031322020312020302020202020200A2020372031322020322020302020202020200A4D2020454E44
Contributor: KOGA M, UNIV. OF OCCUPATIONAL AND ENVIRONMENTAL HEALTH
InstType: EI
InstName: VARIAN MAT-44
IoniMethod: _ENERGY 70 eV
IonPolarity: pos
Date: 2010-10-09 19:48:36+02:00
Num Peaks: 31
43 26 49 16 50 49 51 35 61 29 62 97 63 106 73 27 74 95 75 226 
76 209 77 18 85 11 86 23 87 19 97 12 98 32 99 24 100 15 101 13 
102 12 124 11 125 34 126 37 141 12 149 106 150 257 151 784 152 999 153 172 
154 34 
