Name: MassBank: JP002290
MW: 174
Formula: C8H22Si2
Synonym: MassBank: JP002290
Synonym: 1,2-DIETHYL-1,1,2,2-TETRAMETHYLDISILANE
Structure: 312C322D4449455448594C2D312C312C322C322D54455452414D455448594C444953494C414E452E6D6F6C0A20204368656D447261773131303330393233313532440A2031302020392020302020302020302020302020302020302020302020303939392056323030300A2020202D302E343132352020202D302E3030303020202020302E303030302053692020302020302020302020302020302020302020302020302020302020302020302020300A20202020302E343132352020202D302E3030303020202020302E303030302053692020302020302020302020302020302020302020302020302020302020302020302020300A20202020312E323337352020202D302E3030303020202020302E303030302043202020302020302020302020302020302020302020302020302020302020302020302020300A20202020302E343132352020202D302E3832353020202020302E303030302043202020302020302020302020302020302020302020302020302020302020302020302020300A2020202D312E323337352020202D302E3030303020202020302E303030302043202020302020302020302020302020302020302020302020302020302020302020302020300A2020202D302E3431323520202020302E3832353020202020302E303030302043202020302020302020302020302020302020302020302020302020302020302020302020300A20202020302E3431323520202020302E3832353020202020302E303030302043202020302020302020302020302020302020302020302020302020302020302020302020300A2020202D302E343132352020202D302E3832353020202020302E303030302043202020302020302020302020302020302020302020302020302020302020302020302020300A2020202D312E3635303020202020302E3731343520202020302E303030302043202020302020302020302020302020302020302020302020302020302020302020302020300A20202020312E363530302020202D302E3731343520202020302E303030302043202020302020302020302020302020302020302020302020302020302020302020302020300A2020312020322020312020302020202020200A2020322020332020312020302020202020200A2020322020342020312020302020202020200A2020312020352020312020302020202020200A2020312020362020312020302020202020200A2020322020372020312020302020202020200A2020312020382020312020302020202020200A2020352020392020312020302020202020200A2020332031302020312020302020202020200A4D2020454E44
Contributor: MASS SPECTROSCOPY SOC. OF JAPAN (MSSJ)
InstType: EI
InstName: JEOL JMS-D-3000
IoniMethod: _ENERGY 70 eV
IonPolarity: pos
Date: 2010-10-09 19:48:36+02:00
Num Peaks: 42
43 101 44 25 45 94 55 13 57 20 58 84 59 963 60 78 61 39 69 13 
71 39 72 23 73 327 74 29 75 17 85 84 86 121 87 999 88 103 89 42 
99 17 101 35 102 16 103 146 104 21 105 11 115 20 116 11 117 418 118 66 
119 33 129 12 131 86 132 13 145 159 146 29 147 13 159 61 160 12 174 216 
175 42 176 19 
