Name: RACEMETHORPHAN
MW: 271
Formula: C18H25NO
Synonym: MassBank: JP004099
Synonym: RACEMETHORPHAN
Structure: 332D4D4554484F58592D31372D4D455448594C2D4D4F525048494E414E2E6D6F6C0A20204368656D447261773038313131303134353232440A2032312032342020302020302020302020302020302020302020302020303939392056323030300A20202020302E3235323920202020312E3233373520202020302E303030302043202020302020302020302020302020302020302020302020302020302020302020302020300A2020202D302E3436313620202020312E3635303020202020302E303030302043202020302020302020302020302020302020302020302020302020302020302020302020300A2020202D312E3137363120202020312E3233373520202020302E303030302043202020302020302020302020302020302020302020302020302020302020302020302020300A2020202D312E3137363120202020302E3431323520202020302E303030302043202020302020302020302020302020302020302020302020302020302020302020302020300A2020202D302E343631362020202D302E3030303020202020302E303030302043202020302020302020302020302020302020302020302020302020302020302020302020300A2020202D302E343631362020202D302E3832353020202020302E303030302043202020302020302020302020302020302020302020302020302020302020302020302020300A2020202D312E313736312020202D312E3233373520202020302E303030302043202020302020302020302020302020302020302020302020302020302020302020302020300A2020202D312E313736312020202D322E3036323520202020302E303030302043202020302020302020302020302020302020302020302020302020302020302020302020300A2020202D302E343631362020202D322E3437353020202020302E303030302043202020302020302020302020302020302020302020302020302020302020302020302020300A20202020302E323532392020202D322E3036323520202020302E303030302043202020302020302020302020302020302020302020302020302020302020302020302020300A20202020302E323532392020202D312E3233373520202020302E303030302043202020302020302020302020302020302020302020302020302020302020302020302020300A20202020302E363635342020202D312E3935323020202020302E303030302048202020302020302020302020302020302020302020302020302020302020302020302020300A20202020302E393637342020202D302E3832353020202020302E303030302043202020302020302020302020302020302020302020302020302020302020302020302020300A20202020312E313336302020202D312E3836333320202020302E30303030204E202020302020302020302020302020302020302020302020302020302020302020302020300A20202020302E323534362020202D322E3433373320202020302E303030302043202020302020302020302020302020302020302020302020302020302020302020302020300A2020202D302E363236392020202D312E3836333320202020302E303030302043202020302020302020302020302020302020302020302020302020302020302020302020300A20202020302E393637342020202D302E3030303020202020302E303030302043202020302020302020302020302020302020302020302020302020302020302020302020300A20202020302E3235323920202020302E3431323520202020302E303030302043202020302020302020302020302020302020302020302020302020302020302020302020300A20202020312E383930352020202D322E3139363920202020302E303030302043202020302020302020302020302020302020302020302020302020302020302020302020300A2020202D312E3839303520202020312E3635303020202020302E30303030204F202020302020302020302020302020302020302020302020302020302020302020302020300A2020202D312E3839303520202020322E3437353020202020302E303030302043202020302020302020302020302020302020302020302020302020302020302020302020300A2020312020322020322020302020202020200A2020322020332020312020302020202020200A2020332020342020322020302020202020200A2020342020352020312020302020202020200A2020352020362020312020302020202020200A2020362020372020312020302020202020200A2020372020382020312020302020202020200A2020382020392020312020302020202020200A2020392031302020312020302020202020200A2031302031312020312020302020202020200A2020362031312020312020302020202020200A2031312031322020312020312020202020200A2031312031332020312020302020202020200A2031332031342020312020302020202020200A2031342031352020312020302020202020200A2031352031362020312020302020202020200A2020362031362020312020312020202020200A2031332031372020312020312020202020200A2031372031382020312020302020202020200A2020352031382020322020302020202020200A2020312031382020312020302020202020200A2031342031392020312020302020202020200A2032302032312020312020302020202020200A2020332032302020312020302020202020200A4D2020454E44
Contributor: YAMAMOTO M, DEP. CHEMISTRY, FAC. SCIENCE, NARA WOMEN'S UNIV.
InstType: EI
InstName: HITACHI RMU-6E
IoniMethod: _ENERGY 70 eV
IonPolarity: pos
Date: 2010-10-09 19:48:36+02:00
Num Peaks: 86
30 134 31 197 41 32 42 117 43 16 44 103 55 23 57 2 58 77 59 999 
60 66 67 2 70 34 77 30 79 19 81 1 82 48 83 15 91 38 94 2 
107 14 108 15 115 63 116 2 117 12 121 32 122 22 123 2 127 22 128 66 
129 41 130 1 131 13 135 26 135.5 27 136 2 141 51 142 19 143 15 144 2 
145 19 146 25 147 24 148 3 150 344 151 39 152 17 153 2 154 14 155 27 
156 12 157 2 158 23 159 34 160 24 161 3 162 36 165 14 169 11 170 2 
171 142 172 68 173 20 174 5 175 31 183 13 184 28 185 3 186 15 197 14 
198 19 199 2 200 11 202 12 203 75 204 1 212 87 213 99 214 203 215 4 
228 29 242 38 256 33 270 21 271 380 272 78 
