Name: ALLYLHYDRAZONE ACETONE
MW: 112
Formula: C6H12N2
Synonym: MassBank: JP000860
Synonym: ALLYLHYDRAZONE ACETONE
Synonym: ACETONE ALLYLHYDRAZONE
Structure: 310A32300A414C4C594C48594452415A4F4E4520414345544F4E452E6D6F6C0A20204368656D447261773036323431303137353632440A2020382020372020302020302020302020302020302020302020302020303939392056323030300A20202020312E383536332020202D302E3030303020202020302E303030302043202020302020302020302020302020302020302020302020302020302020302020302020300A20202020312E303331332020202D302E3030303020202020302E303030302043202020302020302020302020302020302020302020302020302020302020302020302020300A20202020302E3631383720202020302E3731343520202020302E303030302043202020302020302020302020302020302020302020302020302020302020302020302020300A20202020302E363138372020202D302E3731343520202020302E30303030204E202020302020302020302020302020302020302020302020302020302020302020302020300A2020202D302E323036322020202D302E3731343520202020302E30303030204E202020302020302020302020302020302020302020302020302020302020302020302020300A2020202D302E3631383820202020302E3030303020202020302E303030302043202020302020302020302020302020302020302020302020302020302020302020302020300A2020202D312E3434333720202020302E3030303020202020302E303030302043202020302020302020302020302020302020302020302020302020302020302020302020300A2020202D312E3835363320202020302E3731343520202020302E303030302043202020302020302020302020302020302020302020302020302020302020302020302020300A2020312020322020312020302020202020200A2020322020332020312020302020202020200A2020342020352020312020302020202020200A2020362020372020312020302020202020200A2020372020382020322020302020202020200A2020352020362020312020302020202020200A2020322020342020322020302020202020200A4D2020454E44
Contributor: SASAKI S, TOYOHASHI UNIV. OF TECH.
InstType: EI
InstName: SHIMADZU LKB-2091
IoniMethod: _ENERGY 70 eV
IonPolarity: pos
Date: 2010-10-09 19:48:36+02:00
Num Peaks: 32
27 227 28 600 29 200 30 53 31 53 39 360 40 87 41 51 42 460 43 120 
44 87 54 11 55 134 56 999 58 60 57 11 68 67 69 80 70 134 71 87 
72 67 80 17 81 15 82 2 83 374 84 67 85 307 96 3 97 134 111 107 
112 800 113 93 
