Name: (CHLOROMETHYL)TRIMETHYLSILANE
MW: 122
Formula: C4H11ClSi
Synonym: MassBank: JP001362
Synonym: (CHLOROMETHYL)TRIMETHYLSILANE
Structure: 310A33340A2843484C4F524F4D455448594C295452494D455448594C53494C414E452E6D6F6C0A20204368656D447261773130323230393035313032440A2020362020352020302020302020302020302020302020302020302020303939392056323030300A2020202D302E3230363220202020302E3030303020202020302E303030302053692020302020302020302020302020302020302020302020302020302020302020302020300A20202020302E3631383820202020302E3030303020202020302E303030302043202020302020302020302020302020302020302020302020302020302020302020302020300A20202020312E303331332020202D302E3731343520202020302E3030303020436C2020302020302020302020302020302020302020302020302020302020302020302020300A2020202D312E3033313320202020302E3030303020202020302E303030302043202020302020302020302020302020302020302020302020302020302020302020302020300A2020202D302E3230363220202020302E3832353020202020302E303030302043202020302020302020302020302020302020302020302020302020302020302020302020300A2020202D302E323036322020202D302E3832353020202020302E303030302043202020302020302020302020302020302020302020302020302020302020302020302020300A2020312020322020312020302020202020200A2020322020332020312020302020202020200A2020312020342020312020302020202020200A2020312020352020312020312020202020200A2020312020362020312020312020202020200A4D202053545920203120202031205355500A4D2020534C4220203120202031202020310A4D202053414C20202031202031202020340A4D202053424C20202031202031202020330A4D2020534D5420202031204D650A4D2020534256202020312020332020202D362E3638323520202020382E353539340A4D202053545920203120202032205355500A4D2020534C4220203120202032202020320A4D202053414C20202032202031202020350A4D202053424C20202032202031202020340A4D2020534D5420202032204D650A4D2020534256202020322020342020202D352E3835373520202020392E333834340A4D202053545920203120202033205355500A4D2020534C4220203120202033202020330A4D202053414C20202033202031202020360A4D202053424C20202033202031202020350A4D2020534D5420202033204D650A4D2020534256202020332020352020202D352E3835373520202020372E373334340A4D2020454E44
Contributor: MASS SPECTROSCOPY SOC. OF JAPAN (MSSJ)
InstType: EI
InstName: JEOL JMS-D-3000
IoniMethod: _ENERGY 70 eV
IonPolarity: pos
Date: 2010-10-09 19:48:36+02:00
Num Peaks: 20
41 19 43 52 44 20 45 123 55 10 59 21 63 36 65 31 72 11 73 999 
74 87 75 36 78 11 79 347 80 26 81 120 93 13 107 67 109 24 122 9 
