Name: MassBank: JP004473
MW: 213
Formula: C11H7N3O2
Synonym: MassBank: JP004473
Synonym: 5-PHENYL-2H-PYRIMIDO(1,2-B)(1,2,4)OXADIAZOL-2-ONE
Structure: 352D5048454E594C2D32482D505952494D49444F28312C322D422928312C322C34294F58414449415A4F4C2D322D4F4E452E6D6F6C0A20204368656D447261773034323331303037333432440A2031362031382020302020302020302020302020302020302020302020303939392056323030300A2020202D322E303635362020202D302E3137333520202020302E30303030204F202020302020302020302020302020302020302020302020302020302020302020302020300A2020202D312E323538372020202D302E3334353020202020302E30303030204E202020302020302020302020302020302020302020302020302020302020302020302020300A2020202D302E3834363220202020302E3336393520202020302E303030302043202020302020302020302020302020302020302020302020302020302020302020302020300A2020202D312E3339383220202020302E3938323520202020302E30303030204E202020302020302020302020302020302020302020302020302020302020302020302020300A2020202D322E3135313920202020302E3634373020202020302E303030302043202020302020302020302020302020302020302020302020302020302020302020302020300A2020202D302E3032313220202020302E3336393520202020302E30303030204E202020302020302020302020302020302020302020302020302020302020302020302020300A20202020302E333931332020202D302E3334353020202020302E303030302043202020302020302020302020302020302020302020302020302020302020302020302020300A2020202D302E303231322020202D312E3035393520202020302E303030302043202020302020302020302020302020302020302020302020302020302020302020302020300A2020202D302E383436322020202D312E3035393520202020302E303030302043202020302020302020302020302020302020302020302020302020302020302020302020300A2020202D322E3836363320202020312E3035393520202020302E30303030204F202020302020302020302020302020302020302020302020302020302020302020302020300A20202020312E323136332020202D302E3334353020202020302E303030302043202020302020302020302020302020302020302020302020302020302020302020302020300A20202020312E3632383820202020302E3336393520202020302E303030302043202020302020302020302020302020302020302020302020302020302020302020302020300A20202020322E3435333820202020302E3336393520202020302E303030302043202020302020302020302020302020302020302020302020302020302020302020302020300A20202020322E383636332020202D302E3334353020202020302E303030302043202020302020302020302020302020302020302020302020302020302020302020302020300A20202020322E343533382020202D312E3035393520202020302E303030302043202020302020302020302020302020302020302020302020302020302020302020302020300A20202020312E363238382020202D312E3035393520202020302E303030302043202020302020302020302020302020302020302020302020302020302020302020302020300A2020312020322020312020302020202020200A2020322020332020312020302020202020200A2020332020342020322020302020202020200A2020342020352020312020302020202020200A2020312020352020312020302020202020200A2020362020372020322020302020202020200A2020372020382020312020302020202020200A2020382020392020322020302020202020200A2020322020392020312020302020202020200A2020332020362020312020302020202020200A2020352031302020322020302020202020200A2031312031322020312020302020202020200A2031322031332020322020302020202020200A2031332031342020312020302020202020200A2031342031352020322020302020202020200A2031352031362020312020302020202020200A2031312031362020322020302020202020200A2020372031312020312020302020202020200A4D2020454E44
Contributor: SASAKI S, TOYOHASHI UNIV. OF TECH.
InstType: EI
InstName: MS-902
IoniMethod: _ENERGY 70 eV
IonPolarity: pos
Date: 2010-10-09 19:48:36+02:00
Num Peaks: 117
36 12 37 8 38 19 39 6 40 19 41 37 42 12 43 1 44 324 45 16 
46 7 47 0 49 6 50 90 51 262 52 4 53 33 54 5 55 5 56 1 
56.5 4 57 17 57.5 34 58 0 58.5 2 61 10 62 29 63 7 64 33 65 32 
66 34 67 1 68 4 69 3 69.5 2 70 1 70.5 5 73 4 74 37 75 5 
76 81 77 586 78 53 79 0 81 3 83 18 85 12 85.5 1 86 5 87 12 
88 28 89 6 90 34 91 26 92 14 93 17 94 13 95 3 98 5 99 1 
100 10 101 44 102 87 103 12 104 34 105 38 106 3 106.5 1 109 2 113 28 
114 205 115 23 116 62 117 26 118 20 119 3 120 4 121 3 126 3 127 2 
128 77 129 103 130 15 131 0 139 4 140 328 141 71 142 48 143 74 144 17 
145 5 146 0 149 2 153 4 154 3 155 9 156 15 157 3 158 6 159 0 
168 58 169 81 170 257 171 26 172 28 173 2 183 7 186 1 187 19 188 2 
196 2 197 1 198 3 212 14 213 999 214 15 215 13 
