Name: MassBank: JP005095
MW: 173
Formula: C12H15N
Synonym: MassBank: JP005095
Synonym: 2,4,4-TRIMETHYL-3,4-DIHYDROQUINOLINE
Structure: 322C342C342D5452494D455448594C2D332C342D4449485944524F5155494E4F4C494E452E6D6F6C0A20204368656D447261773132323030393132323832440A2031332031342020302020302020302020302020302020302020302020303939392056323030300A2020202D302E333537322020202D312E3134313020202020302E30303030204E202020302020302020302020302020302020302020302020302020302020302020302020300A2020202D312E303731372020202D302E3732383520202020302E303030302043202020302020302020302020302020302020302020302020302020302020302020302020300A2020202D312E3037313720202020302E3039363520202020302E303030302043202020302020302020302020302020302020302020302020302020302020302020302020300A2020202D302E3335373220202020302E3530393020202020302E303030302043202020302020302020302020302020302020302020302020302020302020302020302020300A20202020302E3335373220202020302E3039363520202020302E303030302043202020302020302020302020302020302020302020302020302020302020302020302020300A20202020312E3037313720202020302E3530393020202020302E303030302043202020302020302020302020302020302020302020302020302020302020302020302020300A20202020312E3738363220202020302E3039363520202020302E303030302043202020302020302020302020302020302020302020302020302020302020302020302020300A20202020312E373836322020202D302E3732383520202020302E303030302043202020302020302020302020302020302020302020302020302020302020302020302020300A20202020312E303731372020202D312E3134313020202020302E303030302043202020302020302020302020302020302020302020302020302020302020302020302020300A20202020302E333537322020202D302E3732383520202020302E303030302043202020302020302020302020302020302020302020302020302020302020302020302020300A2020202D302E3838373520202020312E3134313020202020302E303030302043202020302020302020302020302020302020302020302020302020302020302020302020300A20202020302E3137333120202020312E3134313020202020302E303030302043202020302020302020302020302020302020302020302020302020302020302020302020300A2020202D312E373836322020202D312E3134313020202020302E303030302043202020302020302020302020302020302020302020302020302020302020302020302020300A2020312020322020322020302020202020200A2020322020332020312020302020202020200A2020332020342020312020302020202020200A2020342020352020312020302020202020200A2020352020362020312020302020202020200A2020362020372020322020302020202020200A2020372020382020312020302020202020200A2020382020392020322020302020202020200A2020392031302020312020302020202020200A2020312031302020312020302020202020200A2020352031302020322020302020202020200A2020342031312020312020362020202020200A2020342031322020312020312020202020200A2020322031332020312020302020202020200A4D2020454E44
Contributor: SASAKI S, TOYOHASHI UNIV. OF TECH.
InstType: EI
InstName: MX-1303
IoniMethod: _ENERGY 50 eV
IonPolarity: pos
Date: 2010-10-09 19:48:36+02:00
Num Peaks: 67
25 17 26 23 27 39 29 4 37 38 38 55 39 137 40 3 41 40 50 23 
51 42 52 2 53 14 57 24 57.5 20 58 72 59 31 62.5 12 63 15 64 2 
64.5 10 65 48 65.5 19 66 2 71.5 22 74 11 75 25 76 2 77 19 77.5 22 
78 19 78.5 3 79 42 85.5 14 90 31 93 2 101 17 102 17 103 16 113 1 
114 15 115 143 116 63 117 3 118 23 127 26 128 53 129 5 130 51 131 13 
140 28 149 2 142 74 143 59 144 16 154 3 155 18 156 132 157 666 158 999 
159 121 160 29 170 10 171 1 172 14 173 65 174 17 
