Name: DIMETHYL GLUTARATE
MW: 160
Formula: C7H12O4
Synonym: MassBank: JP008307
Synonym: DIMETHYL GLUTARATE
Structure: 50454E54414E4544494F494320414349442044494D455448594C2045535445522E6D6F6C0A20204368656D447261773038313231303034353632440A2031312031302020302020302020302020302020302020302020302020303939392056323030300A2020202D302E383235302020202D302E3335373220202020302E303030302043202020302020302020302020302020302020302020302020302020302020302020302020300A2020202D302E343132352020202D312E3037313720202020302E303030302043202020302020302020302020302020302020302020302020302020302020302020302020300A20202020302E343132352020202D312E3037313720202020302E303030302043202020302020302020302020302020302020302020302020302020302020302020302020300A20202020302E383235302020202D302E3335373220202020302E303030302043202020302020302020302020302020302020302020302020302020302020302020302020300A20202020312E363530302020202D302E3335373220202020302E303030302043202020302020302020302020302020302020302020302020302020302020302020302020300A2020202D302E3431323520202020302E3335373220202020302E30303030204F202020302020302020302020302020302020302020302020302020302020302020302020300A2020202D312E363530302020202D302E3335373220202020302E30303030204F202020302020302020302020302020302020302020302020302020302020302020302020300A20202020322E303632352020202D312E3037313720202020302E30303030204F202020302020302020302020302020302020302020302020302020302020302020302020300A20202020322E3036323520202020302E3335373220202020302E30303030204F202020302020302020302020302020302020302020302020302020302020302020302020300A2020202D322E303632352020202D312E3037313720202020302E303030302043202020302020302020302020302020302020302020302020302020302020302020302020300A20202020312E3635303020202020312E3037313720202020302E303030302043202020302020302020302020302020302020302020302020302020302020302020302020300A2020312020322020312020302020202020200A2020322020332020312020302020202020200A2020332020342020312020302020202020200A2020342020352020312020302020202020200A2020312020362020322020302020202020200A2020312020372020312020302020202020200A2020352020382020322020302020202020200A2020352020392020312020302020202020200A2020372031302020312020302020202020200A2020392031312020312020302020202020200A4D2020454E44
Contributor: UBE SCIENTIFIC ANALYSIS LABORATORY
InstType: EI
InstName: HITACHI M-60
IoniMethod: _ENERGY 70 eV
IonPolarity: pos
Date: 2010-10-09 19:48:36+02:00
Num Peaks: 70
14 10 15 489 16 4 18 3 26 9 27 78 28 39 29 118 30 9 31 34 
32 2 34 3 35 15 38 6 39 87 40 21 41 219 42 242 43 186 44 14 
45 36 47 2 49 21 53 3 54 2 55 411 56 35 57 8 58 81 59 999 
60 32 61 4 68 18 69 47 70 22 71 7 72 44 73 13 74 98 75 6 
79 21 83 6 84 1 85 35 86 1 87 164 88 17 89 2 95 5 96 5 
97 81 98 10 99 15 100 540 101 352 102 25 103 2 112 1 113 2 114 6 
115 5 116 1 126 3 127 5 128 306 129 532 130 39 131 5 142 2 143 3 
