Name: DL-PARA-ALPHA-BIS(TRIMETHYLSILYL)OXY-PHENYLACETIC ACID TRIMETHYLSILYL ESTER
MW: 384
Formula: C17H32O4Si3
Synonym: MassBank: JP001064
Synonym: DL-PARA-ALPHA-BIS(TRIMETHYLSILYL)OXY-PHENYLACETIC ACID TRIMETHYLSILYL ESTER
Synonym: TRIMETHYLSILYL ALPHA-TRIMETHYLSILOXY-ALPHA-(4-TRIMETHYLSILOXYPHENYL)ACETATE
Structure: 5452494D455448594C53494C594C20414C5048412D5452494D455448594C53494C4F58592D414C5048412D28342D5452494D455448594C53494C4F58595048454E594C29414345544154452E6D6F6C0A20204368656D447261773038313231303038353832440A2032342032342020302020302020302020302020302020302020302020303939392056323030300A2020202D312E373836322020202D302E3230363320202020302E303030302043202020302020302020302020302020302020302020302020302020302020302020302020300A2020202D312E3037313720202020302E3230363320202020302E303030302043202020302020302020302020302020302020302020302020302020302020302020302020300A2020202D322E3530303620202020302E3230363320202020302E30303030204F202020302020302020302020302020302020302020302020302020302020302020302020300A2020202D312E373836322020202D312E3033313220202020302E30303030204F202020302020302020302020302020302020302020302020302020302020302020302020300A2020202D302E333537322020202D302E3230363220202020302E303030302043202020302020302020302020302020302020302020302020302020302020302020302020300A20202020302E3335373220202020302E3230363320202020302E303030302043202020302020302020302020302020302020302020302020302020302020302020302020300A20202020312E303731372020202D302E3230363220202020302E303030302043202020302020302020302020302020302020302020302020302020302020302020302020300A20202020312E303731372020202D312E3033313220202020302E303030302043202020302020302020302020302020302020302020302020302020302020302020302020300A20202020302E333537322020202D312E3434333820202020302E303030302043202020302020302020302020302020302020302020302020302020302020302020302020300A2020202D302E333537322020202D312E3033313320202020302E303030302043202020302020302020302020302020302020302020302020302020302020302020302020300A20202020312E373836322020202D312E3434333720202020302E30303030204F202020302020302020302020302020302020302020302020302020302020302020302020300A20202020322E353030362020202D312E3033313220202020302E303030302053692020302020302020302020302020302020302020302020302020302020302020302020300A20202020322E303838312020202D302E3331363820202020302E303030302043202020302020302020302020302020302020302020302020302020302020302020302020300A20202020332E323135312020202D302E3631383720202020302E303030302043202020302020302020302020302020302020302020302020302020302020302020302020300A20202020322E393133312020202D312E3734353720202020302E303030302043202020302020302020302020302020302020302020302020302020302020302020302020300A2020202D312E3037313720202020312E3033313320202020302E30303030204F202020302020302020302020302020302020302020302020302020302020302020302020300A2020202D312E3738363220202020312E3434333820202020302E303030302053692020302020302020302020302020302020302020302020302020302020302020302020300A2020202D312E3337333720202020322E3135383220202020302E303030302043202020302020302020302020302020302020302020302020302020302020302020302020300A2020202D322E3139383720202020302E3732393320202020302E303030302043202020302020302020302020302020302020302020302020302020302020302020302020300A2020202D322E3530303620202020312E3835363320202020302E303030302043202020302020302020302020302020302020302020302020302020302020302020302020300A2020202D322E353030362020202D312E3434333820202020302E303030302053692020302020302020302020302020302020302020302020302020302020302020302020300A2020202D322E303838312020202D322E3135383220202020302E303030302043202020302020302020302020302020302020302020302020302020302020302020302020300A2020202D332E323135312020202D312E3835363320202020302E303030302043202020302020302020302020302020302020302020302020302020302020302020302020300A2020202D322E393133312020202D302E3732393320202020302E303030302043202020302020302020302020302020302020302020302020302020302020302020302020300A2020312020322020312020302020202020200A2020312020332020322020302020202020200A2020312020342020312020302020202020200A2020352020362020312020302020202020200A2020362020372020322020302020202020200A2020372020382020312020302020202020200A2020382020392020322020302020202020200A2020392031302020312020302020202020200A2020352031302020322020302020202020200A2031312031322020312020302020202020200A2031322031332020312020302020202020200A2031322031342020312020302020202020200A2031322031352020312020302020202020200A2020382031312020312020302020202020200A2020322020352020312020302020202020200A2031362031372020312020302020202020200A2031372031382020312020302020202020200A2031372031392020312020302020202020200A2031372032302020312020302020202020200A2020322031362020312020302020202020200A2032312032322020312020302020202020200A2032312032332020312020302020202020200A2032312032342020312020302020202020200A2020342032312020312020302020202020200A4D2020454E44
Contributor: KOGA M, UNIV. OF OCCUPATIONAL AND ENVIRONMENTAL HEALTH
InstType: EI
InstName: JEOL JMS-01-SG
IoniMethod: _ENERGY 70 eV
IonPolarity: pos
Date: 2010-10-09 19:48:36+02:00
Num Peaks: 10
45 94 73 739 74 60 75 10 148 131 193 64 267 999 268 23 269 85 341 50 
