Name: MassBank: JP007385
MW: 140
Formula: C10H20
Synonym: MassBank: JP007385
Synonym: CIS-PARA-MENTHANE(3,3-D2)
Synonym: CIS-1-METHYL-4-(1-METHYLETHYL)CYCLOHEXANE(3,3-D2)
Structure: 4349532D504152412D4D454E5448414E4528332C332D4432292E6D6F6C0A20204368656D447261773039303831303039333932440A2031342031342020302020302020302020302020302020302020302020303939392056323030300A2020202D302E3639303420202020302E3236353120202020302E303030302043202020302020302020302020302020302020302020302020302020302020302020302020300A2020202D302E323737392020202D302E3434393320202020302E303030302043202020302020302020302020302020302020302020302020302020302020302020302020300A20202020302E353437312020202D302E3434393320202020302E303030302043202020302020302020302020302020302020302020302020302020302020302020302020300A20202020302E3935393620202020302E3236353120202020302E303030302043202020302020302020302020302020302020302020302020302020302020302020302020300A20202020302E3534373120202020302E3937393620202020302E303030302043202020302020302020302020302020302020302020302020302020302020302020302020300A2020202D302E3237373920202020302E3937393620202020302E303030302043202020302020302020302020302020302020302020302020302020302020302020302020300A20202020302E3430333920202020312E3739323120202020302E303030302043202020302020302020302020302020302020302020302020302020302020302020302020300A2020202D302E313334362020202D312E3236313820202020302E303030302043202020302020302020302020302020302020302020302020302020302020302020302020300A2020202D302E373636362020202D312E3739323120202020302E303030302043202020302020302020302020302020302020302020302020302020302020302020302020300A20202020302E363430362020202D312E3534343020202020302E303030302043202020302020302020302020302020302020302020302020302020302020302020302020300A2020202D312E3332323420202020302E3739353420202020302E303030302048202020312020302020302020302020302020302020302020302020302020302020302020300A2020202D312E333232342020202D302E3236353220202020302E303030302048202020312020302020302020302020302020302020302020302020302020302020302020300A2020202D312E303533312020202D302E3733313520202020302E303030302048202020302020302020302020302020302020302020302020302020302020302020302020300A20202020312E3332323420202020312E3236313820202020302E303030302048202020302020302020302020302020302020302020302020302020302020302020302020300A2020312020322020312020302020202020200A2020322020332020312020302020202020200A2020332020342020312020302020202020200A2020342020352020312020302020202020200A2020352020362020312020302020202020200A2020312020362020312020302020202020200A2020352020372020312020312020202020200A2020382020392020312020302020202020200A2020382031302020312020302020202020200A2020322020382020312020312020202020200A2020312031312020312020362020202020200A2020312031322020312020312020202020200A2020322031332020312020362020202020200A2020352031342020312020362020202020200A4D202049534F202032202031312020203220203132202020320A4D2020454E44
Contributor: YAMAMOTO M, DEP. CHEMISTRY, FAC. SCIENCE, NARA WOMEN'S UNIV.
InstType: EI
InstName: HITACHI M-80
IoniMethod: _ENERGY 20 eV
IonPolarity: pos
Date: 2010-10-09 19:48:36+02:00
Num Peaks: 23
44 14 55 167 56 391 57 233 58 23 68 22 69 58 70 81 71 65 72 10 
81 19 82 73 83 149 84 38 85 48 96 11 97 207 98 563 99 999 100 103 
127 13 142 225 143 27 
