Name: METHYL PHENYLACETATE
MW: 150
Formula: C9H10O2
Synonym: MassBank: JP006145
Synonym: METHYL PHENYLACETATE
Synonym: PHENYLACETIC ACID METHYL ESTER
Structure: 5048454E594C4143455449432041434944204D455448594C2045535445522E6D6F6C0A20204368656D447261773038313231303035323632440A2031312031312020302020302020302020302020302020302020302020303939392056323030300A2020202D302E3832353020202020302E3335373220202020302E303030302043202020302020302020302020302020302020302020302020302020302020302020302020300A2020202D302E343132352020202D302E3335373220202020302E303030302043202020302020302020302020302020302020302020302020302020302020302020302020300A2020202D302E3431323520202020312E3037313720202020302E30303030204F202020302020302020302020302020302020302020302020302020302020302020302020300A2020202D312E3635303020202020302E3335373220202020302E30303030204F202020302020302020302020302020302020302020302020302020302020302020302020300A20202020302E343132352020202D302E3335373220202020302E303030302043202020302020302020302020302020302020302020302020302020302020302020302020300A20202020302E3832353020202020302E3335373220202020302E303030302043202020302020302020302020302020302020302020302020302020302020302020302020300A20202020312E3635303020202020302E3335373220202020302E303030302043202020302020302020302020302020302020302020302020302020302020302020302020300A20202020322E303632352020202D302E3335373220202020302E303030302043202020302020302020302020302020302020302020302020302020302020302020302020300A20202020312E363530302020202D312E3037313720202020302E303030302043202020302020302020302020302020302020302020302020302020302020302020302020300A20202020302E383235302020202D312E3037313720202020302E303030302043202020302020302020302020302020302020302020302020302020302020302020302020300A2020202D322E303632352020202D302E3335373220202020302E303030302043202020302020302020302020302020302020302020302020302020302020302020302020300A2020312020322020312020302020202020200A2020312020332020322020302020202020200A2020312020342020312020302020202020200A2020352020362020312020302020202020200A2020362020372020322020302020202020200A2020372020382020312020302020202020200A2020382020392020322020302020202020200A2020392031302020312020302020202020200A2020352031302020322020302020202020200A2020322020352020312020302020202020200A2020342031312020312020302020202020200A4D2020454E44
Contributor: HASHIMOTO K, KYOTO COLLEGE OF PHARMACY
InstType: EI
InstName: HITACHI M-80
IoniMethod: _ENERGY 20 eV
IonPolarity: pos
Date: 2010-10-09 19:48:36+02:00
Num Peaks: 13
15 40 39 13 41 13 59 92 65 125 89 10 90 17 91 999 92 79 105 12 
119 14 150 147 151 14 
