Name: MassBank: JP009973
MW: 326
Formula: C16H14N4O2S
Synonym: MassBank: JP009973
Synonym: 2-(2-BENZOTHIAZOLYL)AZO-4-(N,N-DIMETHYL)AMINOBENZOIC ACID
Structure: 322D28322D42454E5A4F544849415A4F4C594C29415A4F2D342D284E2C4E2D44494D455448594C29414D494E4F42454E5A4F494320414349442E6D6F6C0A20204368656D447261773132323130393133333032440A2032332032352020302020302020302020302020302020302020302020303939392056323030300A20202020312E313433302020202D312E3432383920202020302E303030302043202020302020302020302020302020302020302020302020302020302020302020302020300A20202020312E353535352020202D302E3731343520202020302E303030302043202020302020302020302020302020302020302020302020302020302020302020302020300A20202020312E3134333020202020302E3030303020202020302E303030302043202020302020302020302020302020302020302020302020302020302020302020302020300A20202020312E3535353520202020302E3731343520202020302E303030302043202020302020302020302020302020302020302020302020302020302020302020302020300A20202020322E3338303520202020302E3731343520202020302E303030302043202020302020302020302020302020302020302020302020302020302020302020302020300A20202020322E373933302020202D302E3030303020202020302E303030302043202020302020302020302020302020302020302020302020302020302020302020302020300A20202020322E333830352020202D302E3731343520202020302E303030302043202020302020302020302020302020302020302020302020302020302020302020302020300A20202020312E353535352020202D322E3134333420202020302E30303030204F202020302020302020302020302020302020302020302020302020302020302020302020300A20202020302E333138302020202D312E3432383920202020302E30303030204F202020302020302020302020302020302020302020302020302020302020302020302020300A20202020322E3739333020202020312E3432383920202020302E30303030204E202020302020302020302020302020302020302020302020302020302020302020302020300A20202020332E3631383020202020312E3432383920202020302E303030302043202020302020302020302020302020302020302020302020302020302020302020302020300A20202020322E3338303520202020322E3134333420202020302E303030302043202020302020302020302020302020302020302020302020302020302020302020302020300A20202020302E3331383020202020302E3030303020202020302E30303030204E202020302020302020302020302020302020302020302020302020302020302020302020300A2020202D302E303934352020202D302E3731343520202020302E30303030204E202020302020302020302020302020302020302020302020302020302020302020302020300A2020202D312E343034342020202D302E3034373020202020302E303030302053202020302020302020302020302020302020302020302020302020302020302020302020300A2020202D302E393139352020202D302E3731343520202020302E303030302043202020302020302020302020302020302020302020302020302020302020302020302020300A2020202D312E343034342020202D312E3338313920202020302E30303030204E202020302020302020302020302020302020302020302020302020302020302020302020300A2020202D322E313839312020202D312E3132373020202020302E303030302043202020302020302020302020302020302020302020302020302020302020302020302020300A2020202D322E313839312020202D302E3330323020202020302E303030302043202020302020302020302020302020302020302020302020302020302020302020302020300A2020202D322E393033352020202D312E3533393520202020302E303030302043202020302020302020302020302020302020302020302020302020302020302020302020300A2020202D332E363138302020202D312E3132373020202020302E303030302043202020302020302020302020302020302020302020302020302020302020302020302020300A2020202D332E363138302020202D302E3330323020202020302E303030302043202020302020302020302020302020302020302020302020302020302020302020302020300A2020202D322E3930333520202020302E3131303520202020302E303030302043202020302020302020302020302020302020302020302020302020302020302020302020300A2020312020322020312020302020202020200A2020322020332020312020302020202020200A2020332020342020322020302020202020200A2020342020352020312020302020202020200A2020352020362020322020302020202020200A2020362020372020312020302020202020200A2020322020372020322020302020202020200A2020312020382020322020302020202020200A2020312020392020312020302020202020200A2031302031312020312020302020202020200A2031302031322020312020302020202020200A2020352031302020312020302020202020200A2031332031342020322020302020202020200A2031352031362020312020302020202020200A2031362031372020322020302020202020200A2031372031382020312020302020202020200A2031382031392020312020302020202020200A2031352031392020312020302020202020200A2032302032312020312020302020202020200A2032312032322020322020302020202020200A2032322032332020312020302020202020200A2031392032332020322020302020202020200A2031382032302020322020302020202020200A2031342031362020312020302020202020200A2020332031332020312020302020202020200A4D2020454E44
Contributor: KURARAY CO., LTD.
InstType: EI
InstName: JEOL JMS-D-300
IoniMethod: _ENERGY 70 eV
IonPolarity: pos
Date: 2010-10-09 19:48:36+02:00
Num Peaks: 99
27 8 38 4 39 35 41 1 42 212 50 24 51 31 52 2 53 11 54 5 
58 4 62 0 63 58 64 23 65 43 66 2 67 8 68 15 69 27 70 1 
74 1 75 8 76 28 77 19 78 103 79 132 80 22 81 1 82 11 89 4 
90 78 91 10 92 66 93 50 94 16 95 1 96 9 102 3 103 20 104 17 
105 232 106 23 107 16 108 2 109 8 117 11 118 73 119 10 120 999 121 92 
122 12 123 1 126 5 127 150 128 19 131 2 132 3 133 23 134 34 135 2 
136 8 141 14 145 5 148 10 149 12 150 53 151 8 152 1 159 19 163 4 
176 23 177 6 178 12 209 3 210 22 211 2 212 5 223 5 224 8 228 0 
237 18 238 27 239 23 240 1 251 7 253 247 254 553 255 11 256 31 257 5 
268 3 281 3 282 786 283 158 284 54 285 1 325 9 326 21 327 5 
