Name: 5-METHYL-2-FURFURYL ACETATE
MW: 154
Formula: C8H10O3
Synonym: MassBank: JP008541
Synonym: 5-METHYL-2-FURFURYL ACETATE
Structure: 352D4D455448594C2D322D465552465552594C20414345544154452E6D6F6C0A20204368656D447261773034323331303037303932440A2031312031312020302020302020302020302020302020302020302020303939392056323030300A20202020312E3737373620202020302E3238393820202020302E303030302043202020302020302020302020302020302020302020302020302020302020302020302020300A20202020312E303633312020202D302E3132323720202020302E30303030204F202020302020302020302020302020302020302020302020302020302020302020302020300A20202020312E3737373620202020312E3131343820202020302E30303030204F202020302020302020302020302020302020302020302020302020302020302020302020300A20202020322E343932302020202D302E3132323720202020302E303030302043202020302020302020302020302020302020302020302020302020302020302020302020300A20202020302E3334383620202020302E3238393820202020302E303030302043202020302020302020302020302020302020302020302020302020302020302020302020300A2020202D302E333635382020202D302E3132323720202020302E303030302043202020302020302020302020302020302020302020302020302020302020302020302020300A2020202D302E343532312020202D302E3934333220202020302E303030302043202020302020302020302020302020302020302020302020302020302020302020302020300A2020202D312E323539312020202D312E3131343820202020302E303030302043202020302020302020302020302020302020302020302020302020302020302020302020300A2020202D312E363731362020202D302E3430303320202020302E303030302043202020302020302020302020302020302020302020302020302020302020302020302020300A2020202D312E3131393520202020302E3231323820202020302E30303030204F202020302020302020302020302020302020302020302020302020302020302020302020300A2020202D322E343932302020202D302E3331343020202020302E303030302043202020302020302020302020302020302020302020302020302020302020302020302020300A2020312020322020312020302020202020200A2020312020332020322020302020202020200A2020312020342020312020302020202020200A2020352020362020312020302020202020200A2020362020372020322020302020202020200A2020372020382020312020302020202020200A2020382020392020322020302020202020200A2020392031302020312020302020202020200A2020362031302020312020302020202020200A2020322020352020312020302020202020200A2020392031312020312020302020202020200A4D2020454E44
Contributor: SODA AROMATIC CO., LTD.
InstType: EI
InstName: HITACHI M-80B
IoniMethod: _ENERGY 70 eV
IonPolarity: pos
Date: 2010-10-09 19:48:36+02:00
Num Peaks: 32
15 71 26 13 27 65 29 32 38 10 39 67 40 14 41 74 42 38 43 469 
50 44 51 77 52 68 53 65 55 43 65 31 66 18 67 38 69 11 79 239 
80 28 83 18 84 10 94 204 95 999 96 64 97 35 109 24 111 44 112 138 
154 216 155 16 
