Name: 2-HEXYLFURAN
MW: 152
Formula: C10H16O
Synonym: MassBank: JP007732
Synonym: 2-HEXYLFURAN
Structure: 322D484558594C465552414E2E6D6F6C0A20204368656D447261773031323131303134323032440A2031312031312020302020302020302020302020302020302020302020303939392056323030300A2020202D322E3138303720202020302E3230393420202020302E30303030204F202020302020302020302020302020302020302020302020302020302020302020302020300A2020202D312E3336303220202020302E3239353620202020302E303030302043202020302020302020302020302020302020302020302020302020302020302020302020300A2020202D312E303234372020202D302E3435383120202020302E303030302043202020302020302020302020302020302020302020302020302020302020302020302020300A2020202D312E363337382020202D312E3031303120202020302E303030302043202020302020302020302020302020302020302020302020302020302020302020302020300A2020202D322E333532332020202D302E3539373620202020302E303030302043202020302020302020302020302020302020302020302020302020302020302020302020300A2020202D302E3934373720202020312E3031303120202020302E303030302043202020302020302020302020302020302020302020302020302020302020302020302020300A2020202D302E3132323720202020312E3031303120202020302E303030302043202020302020302020302020302020302020302020302020302020302020302020302020300A20202020302E3238393820202020302E3239353620202020302E303030302043202020302020302020302020302020302020302020302020302020302020302020302020300A20202020312E3131343820202020302E3239353620202020302E303030302043202020302020302020302020302020302020302020302020302020302020302020302020300A20202020312E353237332020202D302E3431383920202020302E303030302043202020302020302020302020302020302020302020302020302020302020302020302020300A20202020322E333532332020202D302E3431383920202020302E303030302043202020302020302020302020302020302020302020302020302020302020302020302020300A2020312020322020312020302020202020200A2020322020332020322020302020202020200A2020332020342020312020302020202020200A2020342020352020322020302020202020200A2020312020352020312020302020202020200A2020362020372020312020302020202020200A2020372020382020312020302020202020200A2020382020392020312020302020202020200A2020392031302020312020302020202020200A2031302031312020312020302020202020200A2020322020362020312020302020202020200A4D2020454E44
Contributor: HASHIMOTO K, KYOTO COLLEGE OF PHARMACY
InstType: EI
InstName: HITACHI M-80
IoniMethod: _ENERGY 20 eV
IonPolarity: pos
Date: 2010-10-09 19:48:36+02:00
Num Peaks: 33
29 20 39 10 41 20 42 10 43 190 53 122 54 58 55 52 66 20 67 180 
68 212 69 60 70 30 71 20 78 10 79 61 80 50 81 999 82 679 83 120 
84 10 93 29 94 59 95 488 96 287 97 18 108 163 109 105 110 18 123 226 
124 25 152 417 153 78 
