Name: 1-CHLORO-2-(ORTHO-CHLOROPHENYL)-ETHANE
MW: 174
Formula: C8H8Cl2
Synonym: MassBank: JP001384
Synonym: 1-CHLORO-2-(ORTHO-CHLOROPHENYL)-ETHANE
Synonym: 1-CHLORO-2-(2-CHLOROETHYL)BENZENE
Structure: 312D43484C4F524F2D322D284F5254484F2D43484C4F524F5048454E594C292D455448414E452E6D6F6C0A20204368656D447261773131313830393030343232440A2031302031302020302020302020302020302020302020302020302020303939392056323030300A2020202D312E303331332020202D312E3037313720202020302E303030302043202020302020302020302020302020302020302020302020302020302020302020302020300A2020202D302E363138382020202D302E3335373220202020302E303030302043202020302020302020302020302020302020302020302020302020302020302020302020300A20202020302E323036322020202D302E3335373220202020302E303030302043202020302020302020302020302020302020302020302020302020302020302020302020300A20202020302E3631383720202020302E3335373220202020302E303030302043202020302020302020302020302020302020302020302020302020302020302020302020300A20202020312E3434333720202020302E3335373220202020302E303030302043202020302020302020302020302020302020302020302020302020302020302020302020300A20202020312E383536332020202D302E3335373220202020302E303030302043202020302020302020302020302020302020302020302020302020302020302020302020300A20202020312E343433372020202D312E3037313720202020302E303030302043202020302020302020302020302020302020302020302020302020302020302020302020300A20202020302E363138372020202D312E3037313720202020302E303030302043202020302020302020302020302020302020302020302020302020302020302020302020300A20202020302E3230363220202020312E3037313720202020302E3030303020436C2020302020302020302020302020302020302020302020302020302020302020302020300A2020202D312E383536332020202D312E3037313720202020302E3030303020436C2020302020302020302020302020302020302020302020302020302020302020302020300A2020312020322020312020302020202020200A2020332020342020312020302020202020200A2020342020352020322020302020202020200A2020352020362020312020302020202020200A2020362020372020322020302020202020200A2020372020382020312020302020202020200A2020332020382020322020302020202020200A2020342020392020312020302020202020200A2020322020332020312020302020202020200A2020312031302020312020302020202020200A4D2020454E44
Contributor: MASS SPECTROSCOPY SOC. OF JAPAN (MSSJ)
InstType: EI
InstName: JEOL JMS-D-3000
IoniMethod: _ENERGY 70 eV
IonPolarity: pos
Date: 2010-10-09 19:48:36+02:00
Num Peaks: 20
50 20 51 37 63 21 75 31 77 48 89 44 90 14 99 19 101 26 102 21 
103 52 125 999 126 85 127 340 128 25 138 12 139 25 174 244 175 23 176 164 
