Name: 4-(1-PYRROLIDINYL)-2(5H)-FURANONE
MW: 153
Formula: C8H11NO2
Synonym: MassBank: JP005119
Synonym: 4-(1-PYRROLIDINYL)-2(5H)-FURANONE
Structure: 342D28312D505952524F4C4944494E594C292D32283548292D465552414E4F4E452E6D6F6C0A20204368656D447261773130313831303136353532440A2031312031322020302020302020302020302020302020302020302020303939392056323030300A20202020312E3037393920202020302E3931323120202020302E30303030204F202020302020302020302020302020302020302020302020302020302020302020302020300A20202020312E3333343920202020302E3132373520202020302E303030302043202020302020302020302020302020302020302020302020302020302020302020302020300A20202020302E363637342020202D302E3335373520202020302E303030302043202020302020302020302020302020302020302020302020302020302020302020302020300A2020202D302E3030303020202020302E3132373520202020302E303030302043202020302020302020302020302020302020302020302020302020302020302020302020300A20202020302E3235343920202020302E3931323120202020302E303030302043202020302020302020302020302020302020302020302020302020302020302020302020300A20202020322E313139352020202D302E3132373520202020302E30303030204F202020302020302020302020302020302020302020302020302020302020302020302020300A2020202D302E373834362020202D302E3132373520202020302E30303030204E202020302020302020302020302020302020302020302020302020302020302020302020300A2020202D312E303339362020202D302E3931323120202020302E303030302043202020302020302020302020302020302020302020302020302020302020302020302020300A2020202D312E383634362020202D302E3931323120202020302E303030302043202020302020302020302020302020302020302020302020302020302020302020302020300A2020202D322E313139352020202D302E3132373520202020302E303030302043202020302020302020302020302020302020302020302020302020302020302020302020300A2020202D312E3435323120202020302E3335373520202020302E303030302043202020302020302020302020302020302020302020302020302020302020302020302020300A2020312020322020312020302020202020200A2020322020332020312020302020202020200A2020332020342020322020302020202020200A2020342020352020312020302020202020200A2020312020352020312020302020202020200A2020322020362020322020302020202020200A2020372020382020312020302020202020200A2020382020392020312020302020202020200A2020392031302020312020302020202020200A2031302031312020312020302020202020200A2020372031312020312020302020202020200A2020342020372020312020302020202020200A4D2020454E44
Contributor: HAYASHI A, FAC. OF SCIENCE AND TECHNOLOGY, KINKI UNIV.
InstType: EI
InstName: JEOL JMS-HX-100
IoniMethod: _ENERGY 23 eV
IonPolarity: pos
Date: 2010-10-09 19:48:36+02:00
Num Peaks: 50
41 8 42 9 43 12 44 2 54 10 55 14 56 10 57 5 67 20 68 37 
69 33 70 58 71 6 79 5 80 5 81 13 82 13 83 18 84 13 85 3 
94 51 95 173 96 105 97 52 98 6 106 9 107 3 108 61 109 39 110 20 
111 6 112 3 113 2 118 2 122 7 123 5 124 82 125 88 126 9 127 2 
136 5 137 2 138 4 139 2 149 3 151 4 152 179 153 999 154 108 155 11 
