Name: MassBank: JP004672
MW: 166
Formula: C7H12Cl2
Synonym: MassBank: JP004672
Synonym: 1,1-DICHLORO-1-HEPTENE
Structure: 310A32320A312C312D444943484C4F524F2D312D48455054454E452E6D6F6C0A20204368656D447261773130323330393033343332440A2020392020382020302020302020302020302020302020302020302020303939392056323030300A2020202D312E3434333820202020302E3030303020202020302E303030302043202020302020302020302020302020302020302020302020302020302020302020302020300A2020202D312E3033313220202020302E3731343520202020302E303030302043202020302020302020302020302020302020302020302020302020302020302020302020300A2020202D302E3230363220202020302E3731343520202020302E303030302043202020302020302020302020302020302020302020302020302020302020302020302020300A20202020302E3230363320202020302E3030303020202020302E303030302043202020302020302020302020302020302020302020302020302020302020302020302020300A20202020312E3033313320202020302E3030303020202020302E303030302043202020302020302020302020302020302020302020302020302020302020302020302020300A20202020312E343433382020202D302E3731343520202020302E303030302043202020302020302020302020302020302020302020302020302020302020302020302020300A20202020322E323638372020202D302E3731343520202020302E303030302043202020302020302020302020302020302020302020302020302020302020302020302020300A2020202D322E3236383720202020302E3030303020202020302E3030303020436C2020302020302020302020302020302020302020302020302020302020302020302020300A2020202D312E303331332020202D302E3731343520202020302E3030303020436C2020302020302020302020302020302020302020302020302020302020302020302020300A2020312020322020322020302020202020200A2020322020332020312020302020202020200A2020332020342020312020302020202020200A2020342020352020312020302020202020200A2020352020362020312020302020202020200A2020362020372020312020302020202020200A2020312020382020312020302020202020200A2020312020392020312020302020202020200A4D2020454E44
Contributor: MASS SPECTROSCOPY SOC. OF JAPAN (MSSJ)
InstType: EI
InstName: JEOL JMS-D-3000
IoniMethod: _ENERGY 70 eV
IonPolarity: pos
Date: 2010-10-09 19:48:36+02:00
Num Peaks: 39
42 886 43 92 49 40 50 18 51 74 53 43 54 20 55 676 56 106 57 625 
58 29 61 20 63 17 65 34 67 24 68 142 69 142 70 999 71 58 73 43 
75 56 77 18 83 114 85 35 87 47 88 37 89 31 90 16 95 116 96 23 
98 15 104 21 109 160 110 20 111 102 113 17 166 139 168 86 170 15 
