Name: BETA-PINENE
CAS: 18172-67-3
MW: 136
Formula: C10H16
Synonym: MassBank: JP007118
Synonym: BETA-PINENE
Synonym: 6,6-DIMETHYL-2-METHYLENEBICYCLO(3.1.1)HEPTANE
Structure: 424554412D50494E454E452E6D6F6C0A20204368656D447261773031323231303037353432440A2031302031312020302020302020302020302020302020302020302020303939392056323030300A2020202D302E3330323020202020302E3139323220202020302E303030302043202020302020302020302020302020302020302020302020302020302020302020302020300A2020202D302E333032302020202D302E3633323820202020302E303030302043202020302020302020302020302020302020302020302020302020302020302020302020300A20202020302E343132352020202D312E3034353320202020302E303030302043202020302020302020302020302020302020302020302020302020302020302020302020300A20202020312E313237302020202D302E3633323820202020302E303030302043202020302020302020302020302020302020302020302020302020302020302020302020300A20202020312E3132373020202020302E3139323220202020302E303030302043202020302020302020302020302020302020302020302020302020302020302020302020300A20202020302E3431323520202020302E3630343720202020302E303030302043202020302020302020302020302020302020302020302020302020302020302020302020300A20202020302E343132352020202D302E3232303320202020302E303030302043202020302020302020302020302020302020302020302020302020302020302020302020300A20202020302E3431323520202020312E3432393720202020302E303030302043202020302020302020302020302020302020302020302020302020302020302020302020300A2020202D312E313237302020202D302E3633323820202020302E303030302043202020302020302020302020302020302020302020302020302020302020302020302020300A2020202D302E353135352020202D312E3432393720202020302E303030302043202020302020302020302020302020302020302020302020302020302020302020302020300A2020312020322020312020302020202020200A2020322020332020312020302020202020200A2020332020342020312020302020202020200A2020342020352020312020302020202020200A2020352020362020312020302020202020200A2020362020312020312020302020202020200A2020312020372020312020302020202020200A2020372020332020312020302020202020200A2020362020382020322020302020202020200A2020322020392020312020312020202020200A2020322031302020312020362020202020200A4D2020454E44
Contributor: SODA AROMATIC CO., LTD.
InstType: EI
InstName: HITACHI M-80B
IoniMethod: _ENERGY 70 eV
IonPolarity: pos
Date: 2010-10-09 19:48:36+02:00
Num Peaks: 36
27 140 29 60 39 216 40 38 41 454 42 20 43 43 50 14 51 56 52 31 
53 112 54 13 55 66 63 15 65 58 66 20 67 100 68 28 69 358 70 15 
77 202 78 41 79 219 80 107 81 30 82 12 91 177 92 94 93 999 94 133 
95 25 105 26 107 45 108 13 121 108 136 94 
