Name: N-METHYLFORMAMIDE
CAS: 123-39-7
MW: 59
Formula: C2H5NO
Synonym: MassBank: JP006295
Synonym: N-METHYLFORMAMIDE
Synonym: N-FORMYLMETHYLAMINE
Structure: 310A31320A4E2D464F524D594C4D455448594C414D494E452E6D6F6C0A20204368656D447261773038313231303032303632440A2020342020332020302020302020302020302020302020302020302020303939392056323030300A2020202D302E333537322020202D302E3230363220202020302E30303030204E202020302020302020302020302020302020302020302020302020302020302020302020300A2020202D312E3037313720202020302E3230363220202020302E303030302043202020302020302020302020302020302020302020302020302020302020302020302020300A20202020302E3335373220202020302E3230363220202020302E303030302043202020302020302020302020302020302020302020302020302020302020302020302020300A20202020312E303731372020202D302E3230363220202020302E30303030204F202020302020302020302020302020302020302020302020302020302020302020302020300A2020312020322020312020302020202020200A2020332020342020322020302020202020200A2020312020332020312020302020202020200A4D2020454E44
Contributor: MASS SPECTROSCOPY SOC. OF JAPAN (MSSJ)
InstType: EI
InstName: HITACHI M-80
IoniMethod: _ENERGY 70 eV
IonPolarity: pos
Date: 2010-10-09 19:48:36+02:00
Num Peaks: 23
12 10 13 21 14 38 15 137 16 15 18 9 26 12 27 117 28 857 29 365 
30 999 31 39 32 13 38 12 39 13 40 17 41 26 42 16 43 23 44 13 
58 74 59 807 60 67 
