Name: MassBank: JP008020
MW: 198
Formula: C11H18O3
Synonym: MassBank: JP008020
Synonym: 1,4-CYCLOHEXANDIONE MONO-2,2-DIMETHYLTRIMETHYLENE ACETAL
Structure: 312C342D4359434C4F484558414E44494F4E45204D4F4E4F2D322C322D44494D455448594C5452494D455448594C454E452041434554414C2E6D6F6C0A20204368656D447261773131313430393232353032440A2031342031352020302020302020302020302020302020302020302020303939392056323030300A2020202D302E303936352020202D302E3030303020202020302E303030302043202020302020302020302020302020302020302020302020302020302020302020302020300A20202020302E3331363020202020302E3731343520202020302E303030302043202020302020302020302020302020302020302020302020302020302020302020302020300A20202020312E3134313020202020302E3731343520202020302E303030302043202020302020302020302020302020302020302020302020302020302020302020302020300A20202020312E353533352020202D302E3030303020202020302E303030302043202020302020302020302020302020302020302020302020302020302020302020302020300A20202020312E313431302020202D302E3731343520202020302E303030302043202020302020302020302020302020302020302020302020302020302020302020302020300A20202020302E333136302020202D302E3731343520202020302E303030302043202020302020302020302020302020302020302020302020302020302020302020302020300A20202020322E333738352020202D302E3030303020202020302E30303030204F202020302020302020302020302020302020302020302020302020302020302020302020300A2020202D302E353039302020202D302E3731343520202020302E30303030204F202020302020302020302020302020302020302020302020302020302020302020302020300A2020202D302E3530393020202020302E3731343520202020302E30303030204F202020302020302020302020302020302020302020302020302020302020302020302020300A2020202D312E333334302020202D302E3731343520202020302E303030302043202020302020302020302020302020302020302020302020302020302020302020302020300A2020202D312E3734363520202020302E3030303020202020302E303030302043202020302020302020302020302020302020302020302020302020302020302020302020300A2020202D312E3333343020202020302E3731343520202020302E303030302043202020302020302020302020302020302020302020302020302020302020302020302020300A2020202D322E333738352020202D302E3533303320202020302E303030302043202020302020302020302020302020302020302020302020302020302020302020302020300A2020202D322E3337383520202020302E3533303320202020302E303030302043202020302020302020302020302020302020302020302020302020302020302020302020300A2020312020322020312020302020202020200A2020322020332020312020302020202020200A2020332020342020312020302020202020200A2020342020352020312020302020202020200A2020352020362020312020302020202020200A2020312020362020312020302020202020200A2020342020372020322020302020202020200A2031302031312020312020302020202020200A2031312031322020312020302020202020200A2031312031332020312020362020202020200A2031312031342020312020312020202020200A2020382031302020312020302020202020200A2020392031322020312020302020202020200A2020312020382020312020302020202020200A2020312020392020312020302020202020200A4D2020454E44
Contributor: HISAHIRO HAGIWARA, CHEMICAL RESEARCH INSTITUTE OF NON-AQUEOUSSOLUTIONS TOHOKU UNIV.
InstType: EI
InstName: JEOL JMS-DX-300
IoniMethod: _ENERGY 70 eV
IonPolarity: pos
Date: 2010-10-09 19:48:36+02:00
Num Peaks: 29
39 83 40 20 41 345 42 47 43 71 45 30 53 31 55 553 56 908 57 236 
58 21 67 43 68 22 69 779 70 77 71 94 74 41 83 30 84 23 85 3 
111 33 112 44 113 121 128 34 141 999 142 274 143 224 144 20 198 22 
