Name: N-ACETYLMETHIONINE METHYL ESTER
MW: 205
Formula: C8H15NO3S
Synonym: MassBank: JP007627
Synonym: N-ACETYLMETHIONINE METHYL ESTER
Structure: 313031375F4E2D41434554594C4D455448494F4E494E45204D455448594C2045535445522E6D6F6C0A20204368656D447261773039303631303231353832440A2031342031332020302020302020302020302020302020302020302020303939392056323030300A20202020302E3335373220202020302E3431323520202020302E303030302043202020302020302020302020302020302020302020302020302020302020302020302020300A20202020312E303731372020202D302E3832353020202020302E30303030204E202020302020302020302020302020302020302020302020302020302020302020302020300A20202020302E333537322020202D302E3431323520202020302E303030302043202020302020302020302020302020302020302020302020302020302020302020302020300A2020202D302E333537322020202D302E3832353020202020302E303030302043202020302020302020302020302020302020302020302020302020302020302020302020300A2020202D312E303731372020202D302E3431323520202020302E303030302043202020302020302020302020302020302020302020302020302020302020302020302020300A2020202D312E373836312020202D302E3832353020202020302E303030302053202020302020302020302020302020302020302020302020302020302020302020302020300A2020202D322E353030352020202D302E3431323520202020302E303030302043202020302020302020302020302020302020302020302020302020302020302020302020300A20202020312E3037313720202020302E3832353020202020302E30303030204F202020302020302020302020302020302020302020302020302020302020302020302020300A2020202D302E3335373220202020302E3832353020202020302E30303030204F202020302020302020302020302020302020302020302020302020302020302020302020300A20202020312E373836312020202D302E3431323520202020302E303030302043202020302020302020302020302020302020302020302020302020302020302020302020300A20202020312E3738363120202020302E3431323520202020302E30303030204F202020302020302020302020302020302020302020302020302020302020302020302020300A20202020322E353030352020202D302E3832353020202020302E303030302043202020302020302020302020302020302020302020302020302020302020302020302020300A2020202D312E3037313720202020302E3431323520202020302E303030302043202020302020302020302020302020302020302020302020302020302020302020302020300A2020202D302E333537332020202D302E3030303020202020302E303030302048202020302020302020302020302020302020302020302020302020302020302020302020300A2020332020322020312020312020202020200A2020312020332020312020302020202020200A2020332020342020312020302020202020200A2020342020352020312020302020202020200A2020352020362020312020302020202020200A2020362020372020312020302020202020200A2020312020382020322020302020202020200A2020312020392020312020302020202020200A2031302031312020322020302020202020200A2031302031322020312020302020202020200A2020322031302020312020302020202020200A2020392031332020312020302020202020200A2020332031342020312020312020202020200A4D2020454E44
Contributor: YAMAMOTO M, DEP. CHEMISTRY, FAC. SCIENCE, NARA WOMEN'S UNIV.
InstType: EI
InstName: HITACHI RMU-6M
IoniMethod: _ENERGY 15 eV
IonPolarity: pos
Date: 2010-10-09 19:48:36+02:00
Num Peaks: 37
28 13 43 37 47 12 48 19 56 81 57 27 60 18 61 56 71 17 74 19 
75 48 83 12 88 64 89 196 98 54 99 494 100 29 102 110 104 115 112 106 
113 10 114 49 115 16 116 42 125 27 126 18 131 999 132 60 144 180 145 14 
146 52 158 55 162 52 163 12 173 17 205 73 206 16 
