Name: MassBank: JP005079
MW: 392
Formula: C26H20N2O2
Synonym: MassBank: JP005079
Synonym: 1,3-DI(2-METHOXYPHENYL)BENZO(F)QUINAZOLINE
Structure: 312C332D444928322D4D4554484F58595048454E594C2942454E5A4F2846295155494E415A4F4C494E452E6D6F6C0A20204368656D447261773131313130393230353332440A2033302033342020302020302020302020302020302020302020302020303939392056323030300A20202020302E303030302020202D312E3033313220202020302E30303030204E202020302020302020302020302020302020302020302020302020302020302020302020300A2020202D302E373134352020202D302E3631383720202020302E303030302043202020302020302020302020302020302020302020302020302020302020302020302020300A2020202D302E3731343520202020302E3230363320202020302E30303030204E202020302020302020302020302020302020302020302020302020302020302020302020300A20202020302E3030303020202020302E3631383820202020302E303030302043202020302020302020302020302020302020302020302020302020302020302020302020300A20202020302E3731343520202020302E3230363320202020302E303030302043202020302020302020302020302020302020302020302020302020302020302020302020300A20202020312E3432383920202020302E3631383820202020302E303030302043202020302020302020302020302020302020302020302020302020302020302020302020300A20202020322E3134333420202020302E3230363320202020302E303030302043202020302020302020302020302020302020302020302020302020302020302020302020300A20202020322E313433342020202D302E3631383720202020302E303030302043202020302020302020302020302020302020302020302020302020302020302020302020300A20202020312E343238392020202D312E3033313220202020302E303030302043202020302020302020302020302020302020302020302020302020302020302020302020300A20202020302E373134352020202D302E3631383720202020302E303030302043202020302020302020302020302020302020302020302020302020302020302020302020300A20202020322E3835373920202020302E3631383820202020302E303030302043202020302020302020302020302020302020302020302020302020302020302020302020300A20202020322E3835373920202020312E3434333820202020302E303030302043202020302020302020302020302020302020302020302020302020302020302020302020300A20202020322E3134333420202020312E3835363320202020302E303030302043202020302020302020302020302020302020302020302020302020302020302020302020300A20202020312E3432383920202020312E3434333820202020302E303030302043202020302020302020302020302020302020302020302020302020302020302020302020300A2020202D312E343238392020202D312E3033313320202020302E303030302043202020302020302020302020302020302020302020302020302020302020302020302020300A2020202D312E343238392020202D312E3835363320202020302E303030302043202020302020302020302020302020302020302020302020302020302020302020302020300A2020202D322E313433342020202D322E3236383820202020302E303030302043202020302020302020302020302020302020302020302020302020302020302020302020300A2020202D322E383537392020202D312E3835363320202020302E303030302043202020302020302020302020302020302020302020302020302020302020302020302020300A2020202D322E383537392020202D312E3033313320202020302E303030302043202020302020302020302020302020302020302020302020302020302020302020302020300A2020202D322E313433342020202D302E3631383820202020302E303030302043202020302020302020302020302020302020302020302020302020302020302020302020300A2020202D302E373134352020202D322E3236383820202020302E30303030204F202020302020302020302020302020302020302020302020302020302020302020302020300A2020202D302E373134352020202D332E3039333820202020302E303030302043202020302020302020302020302020302020302020302020302020302020302020302020300A20202020302E3030303020202020312E3434333820202020302E303030302043202020302020302020302020302020302020302020302020302020302020302020302020300A2020202D302E3731343520202020312E3835363320202020302E303030302043202020302020302020302020302020302020302020302020302020302020302020302020300A2020202D302E3731343520202020322E3638313320202020302E303030302043202020302020302020302020302020302020302020302020302020302020302020302020300A2020202D302E3030303020202020332E3039333820202020302E303030302043202020302020302020302020302020302020302020302020302020302020302020302020300A20202020302E3731343520202020322E3638313320202020302E303030302043202020302020302020302020302020302020302020302020302020302020302020302020300A20202020302E3731343520202020312E3835363320202020302E303030302043202020302020302020302020302020302020302020302020302020302020302020302020300A2020202D312E3432383920202020312E3434333820202020302E30303030204F202020302020302020302020302020302020302020302020302020302020302020302020300A2020202D322E3134333420202020312E3835363320202020302E303030302043202020302020302020302020302020302020302020302020302020302020302020302020300A2020312020322020312020302020202020200A2020322020332020322020302020202020200A2020332020342020312020302020202020200A2020342020352020322020302020202020200A2020352020362020312020302020202020200A2020362020372020312020302020202020200A2020372020382020312020302020202020200A2020382020392020322020302020202020200A2020392031302020312020302020202020200A2020312031302020322020302020202020200A2020352031302020312020302020202020200A2031312031322020312020302020202020200A2031322031332020322020302020202020200A2031332031342020312020302020202020200A2020362031342020322020302020202020200A2020372031312020322020302020202020200A2031352031362020312020302020202020200A2031362031372020322020302020202020200A2031372031382020312020302020202020200A2031382031392020322020302020202020200A2031392032302020312020302020202020200A2031352032302020322020302020202020200A2032312032322020312020302020202020200A2031362032312020312020302020202020200A2020322031352020312020302020202020200A2032332032342020312020302020202020200A2032342032352020322020302020202020200A2032352032362020312020302020202020200A2032362032372020322020302020202020200A2032372032382020312020302020202020200A2032332032382020322020302020202020200A2032392033302020312020302020202020200A2032342032392020312020302020202020200A2020342032332020312020302020202020200A4D2020454E44
Contributor: SASAKI S, TOYOHASHI UNIV. OF TECH.
InstType: EI
InstName: MS-902
IoniMethod: _ENERGY 70 eV
IonPolarity: pos
Date: 2010-10-09 19:48:36+02:00
Num Peaks: 132
50 49 51 151 52 72 53 3 56 16 57 26 62 19 63 6 64 16 65 83 
71 13 74 2 75 19 76 39 77 226 78 9 79 101 89 23 90 12 91 999 
92 83 93 10 101 12 102 2 103 84 104 145 105 248 106 58 107 63 120 125 
121 12 125 1 126 91 127 34 128 11 139 1 140 14 145.5 10 146 15 146.5 1 
150 14 151 16 151.5 18 152 5 152.5 13 153 24 158 35 158.5 3 159 32 159.5 25 
160 16 164 2 164.5 17 165 47 165.5 26 166 3 166.5 13 167 18 173.5 20 174 4 
174.5 13 180 22 180.5 11 181 1 188 27 188.5 23 189 26 196 4 196.5 11 201 10 
202 14 215 2 216 17 223 10 226 20 227 7 228 14 229 10 230 124 231 4 
240 11 241 11 242 12 243 1 244 22 245 11 246 11 253 5 254 14 255 21 
256 28 257 8 258 66 259 33 260 27 269 1 272 10 273 13 284 11 285 8 
286 20 287 31 292 12 317 1 318 21 319 16 331 67 332 2 333 19 345 17 
346 27 347 8 348 27 349 36 350 11 359 2 360 11 361 60 362 22 363 6 
364 20 373 33 374 20 375 4 376 14 377 180 378 144 379 3 391 144 392 460 
393 136 394 23 
