Name: MassBank: JP003995
MW: 74
Formula: C3H10N2
Synonym: MassBank: JP003995
Synonym: 1,2-PROPANEDIAMINE
Structure: 310A31340A312C322D50524F50414E454449414D494E452E6D6F6C0A20204368656D447261773131313030393135343532440A2020352020342020302020302020302020302020302020302020302020303939392056323030300A20202020302E333537322020202D302E3631383820202020302E303030302043202020302020302020302020302020302020302020302020302020302020302020302020300A2020202D302E333537322020202D302E3230363220202020302E303030302043202020302020302020302020302020302020302020302020302020302020302020302020300A2020202D302E3335373220202020302E3631383820202020302E303030302043202020302020302020302020302020302020302020302020302020302020302020302020300A20202020312E303731372020202D302E3230363220202020302E30303030204E202020302020302020302020302020302020302020302020302020302020302020302020300A2020202D312E303731372020202D302E3631383820202020302E30303030204E202020302020302020302020302020302020302020302020302020302020302020302020300A2020312020322020312020302020202020200A2020322020332020312020302020202020200A2020312020342020312020302020202020200A2020322020352020312020302020202020200A4D2020454E44
Contributor: MASS SPECTROSCOPY SOC. OF JAPAN (MSSJ)
InstType: EI
InstName: HITACHI RMU-6L
IoniMethod: _ENERGY 70 eV
IonPolarity: pos
Date: 2010-10-09 19:48:36+02:00
Num Peaks: 19
14 20 15 59 16 12 17 1 18 240 26 17 27 40 28 17 29 34 30 314 
39 13 40 1 41 30 42 80 43 31 44 999 45 28 51 23 59 15 
