Name: 4-(4-DIMETHYLAMINOPHENYL)PYRIDINE
MW: 198
Formula: C13H14N2
Synonym: MassBank: JP005018
Synonym: 4-(4-DIMETHYLAMINOPHENYL)PYRIDINE
Synonym: N,N-DIMETHYL-4-(4-PYRIDYL)ANILINE
Structure: 342D28342D44494D455448594C414D494E4F5048454E594C295059524944494E452E6D6F6C0A20204368656D447261773033323431303037353732440A2031352031362020302020302020302020302020302020302020302020303939392056323030300A2020202D322E3236383720202020302E3731343520202020302E303030302043202020302020302020302020302020302020302020302020302020302020302020302020300A2020202D312E3434333820202020302E3731343520202020302E303030302043202020302020302020302020302020302020302020302020302020302020302020302020300A2020202D312E303331322020202D302E3030303020202020302E303030302043202020302020302020302020302020302020302020302020302020302020302020302020300A2020202D312E343433382020202D302E3731343520202020302E303030302043202020302020302020302020302020302020302020302020302020302020302020302020300A2020202D322E323638372020202D302E3731343520202020302E303030302043202020302020302020302020302020302020302020302020302020302020302020302020300A2020202D322E3638313320202020302E3030303020202020302E30303030204E202020302020302020302020302020302020302020302020302020302020302020302020300A2020202D302E323036322020202D302E3030303020202020302E303030302043202020302020302020302020302020302020302020302020302020302020302020302020300A20202020302E3230363320202020302E3731343520202020302E303030302043202020302020302020302020302020302020302020302020302020302020302020302020300A20202020312E3033313320202020302E3731343520202020302E303030302043202020302020302020302020302020302020302020302020302020302020302020302020300A20202020312E343433382020202D302E3030303020202020302E303030302043202020302020302020302020302020302020302020302020302020302020302020302020300A20202020312E303331332020202D302E3731343520202020302E303030302043202020302020302020302020302020302020302020302020302020302020302020302020300A20202020302E323036322020202D302E3731343520202020302E303030302043202020302020302020302020302020302020302020302020302020302020302020302020300A20202020322E323638372020202D302E3030303020202020302E30303030204E202020302020302020302020302020302020302020302020302020302020302020302020300A20202020322E3638313320202020302E3731343520202020302E303030302043202020302020302020302020302020302020302020302020302020302020302020302020300A20202020322E363831322020202D302E3731343520202020302E303030302043202020302020302020302020302020302020302020302020302020302020302020302020300A2020312020322020322020302020202020200A2020322020332020312020302020202020200A2020332020342020322020302020202020200A2020342020352020312020302020202020200A2020352020362020322020302020202020200A2020312020362020312020302020202020200A2020372020382020312020302020202020200A2020382020392020322020302020202020200A2020392031302020312020302020202020200A2031302031312020322020302020202020200A2031312031322020312020302020202020200A2020372031322020322020302020202020200A2031332031342020312020302020202020200A2031332031352020312020302020202020200A2031302031332020312020302020202020200A2020332020372020312020302020202020200A4D2020454E44
Contributor: SASAKI S, TOYOHASHI UNIV. OF TECH.
InstType: EI
InstName: MX-1303
IoniMethod: _ENERGY 50 eV
IonPolarity: pos
Date: 2010-10-09 19:48:36+02:00
Num Peaks: 63
26 12 27 31 29 28 30 1 39 20 40 13 41 27 42 5 43 177 45 10 
51 16 55 2 56 10 57 10 58 43 67 1 73 14 75 17 76 13 77 5 
78 23 79 11 85 11 89 2 91 16 99 36 101 26 102 1 103 10 104 13 
115 31 116 1 117 10 118 10 119 10 120 1 126 39 127 149 128 56 129 2 
140 17 141 15 142 14 152 2 153 28 154 163 155 56 156 4 167 17 168 131 
169 25 170 3 180 21 181 140 182 186 183 7 184 43 195 28 196 17 197 91 
198 999 199 169 200 35 
