Name: LINALYL METHYL-ETHYL-ACETATE
MW: 238
Formula: C15H26O2
Synonym: MassBank: JP008367
Synonym: LINALYL METHYL-ETHYL-ACETATE
Synonym: LINALYL 2-METHYLBUTYRATE
Structure: 4C494E414C594C204D455448594C2D455448594C2D414345544154452E6D6F6C0A20204368656D447261773038313131303232313932440A2031372031362020302020302020302020302020302020302020302020303939392056323030300A20202020302E333937372020202D302E3731343520202020302E303030302043202020302020302020302020302020302020302020302020302020302020302020302020300A20202020312E323232372020202D302E3731343520202020302E303030302043202020302020302020302020302020302020302020302020302020302020302020302020300A2020202D302E303134382020202D312E3432383920202020302E30303030204F202020302020302020302020302020302020302020302020302020302020302020302020300A2020202D302E3031343820202020302E3030303020202020302E30303030204F202020302020302020302020302020302020302020302020302020302020302020302020300A20202020312E3633353220202020302E3030303020202020302E303030302043202020302020302020302020302020302020302020302020302020302020302020302020300A20202020322E3436303220202020302E3030303020202020302E303030302043202020302020302020302020302020302020302020302020302020302020302020302020300A20202020312E363335322020202D312E3432383920202020302E303030302043202020302020302020302020302020302020302020302020302020302020302020302020300A20202020302E3339373720202020302E3731343520202020302E303030302043202020302020302020302020302020302020302020302020302020302020302020302020300A2020202D302E3331363820202020312E3132373020202020302E303030302043202020302020302020302020302020302020302020302020302020302020302020302020300A2020202D312E3033313320202020302E3731343520202020302E303030302043202020302020302020302020302020302020302020302020302020302020302020302020300A2020202D312E303331332020202D302E3131303520202020302E303030302043202020302020302020302020302020302020302020302020302020302020302020302020300A2020202D312E373435372020202D302E3532333020202020302E303030302043202020302020302020302020302020302020302020302020302020302020302020302020300A2020202D312E373435372020202D312E3334383020202020302E303030302043202020302020302020302020302020302020302020302020302020302020302020302020300A2020202D322E343630322020202D302E3131303520202020302E303030302043202020302020302020302020302020302020302020302020302020302020302020302020300A20202020302E3831303220202020312E3432383920202020302E303030302043202020302020302020302020302020302020302020302020302020302020302020302020300A20202020312E3633353220202020312E3432383920202020302E303030302043202020302020302020302020302020302020302020302020302020302020302020302020300A20202020312E3131323220202020302E3330323020202020302E303030302043202020302020302020302020302020302020302020302020302020302020302020302020300A2020312020322020312020302020202020200A2020312020332020322020302020202020200A2020312020342020312020302020202020200A2020352020362020312020302020202020200A2020322020352020312020302020202020200A2020322020372020312020302020202020200A2020382020392020312020302020202020200A2020392031302020312020302020202020200A2031302031312020312020302020202020200A2031312031322020322020302020202020200A2031322031332020312020302020202020200A2031322031342020312020302020202020200A2020382031352020312020302020202020200A2031352031362020322020302020202020200A2020382031372020312020302020202020200A2020342020382020312020302020202020200A4D2020454E44
Contributor: SODA AROMATIC CO., LTD.
InstType: EI
InstName: HITACHI M-80B
IoniMethod: _ENERGY 70 eV
IonPolarity: pos
Date: 2010-10-09 19:48:36+02:00
Num Peaks: 40
27 67 29 146 39 75 40 24 41 418 42 27 43 90 53 83 55 113 56 16 
57 513 58 24 65 12 67 107 68 121 69 422 70 27 71 42 77 32 79 62 
80 446 81 243 82 29 83 38 85 178 91 39 92 174 93 999 94 127 95 46 
105 28 107 77 108 22 109 12 121 337 122 35 136 135 137 75 154 11 238 12 
