Name: MassBank: JP006626
MW: 382
Formula: C19H18N4O5
Synonym: MassBank: JP006626
Synonym: N-(3-(3-METHYL-1-INDOLYL)PROPYL)-3,5-DINITROBENZAMIDE
Synonym: 1-(3-(3,5-DINITROBENZAMIDO)PROPYL)-3-METHYLINDOLE
Structure: 4E2D28332D28332D4D455448594C2D312D494E444F4C594C2950524F50594C292D332C352D44494E4954524F42454E5A414D4944452E6D6F6C0A20204368656D447261773131313730393137323632440A2032392033312020302020302020302020302020302020302020302020303939392056323030300A20202020312E343831342020202D312E3430303420202020302E303030302043202020302020302020302020302020302020302020302020302020302020302020302020300A20202020312E363934392020202D302E3630333520202020302E303030302043202020302020302020302020302020302020302020302020302020302020302020302020300A20202020312E313131362020202D302E3032303220202020302E303030302043202020302020302020302020302020302020302020302020302020302020302020302020300A20202020312E3332353120202020302E3737363720202020302E303030302043202020302020302020302020302020302020302020302020302020302020302020302020300A20202020322E3132323020202020302E3939303220202020302E303030302043202020302020302020302020302020302020302020302020302020302020302020302020300A20202020322E3730353420202020302E3430363920202020302E303030302043202020302020302020302020302020302020302020302020302020302020302020302020300A20202020322E343931382020202D302E3339303020202020302E303030302043202020302020302020302020302020302020302020302020302020302020302020302020300A20202020322E303333342020202D322E3031333520202020302E30303030204F202020302020302020302020302020302020302020302020302020302020302020302020300A20202020302E363734342020202D312E3537323020202020302E30303030204E202020302020302020302020302020302020302020302020302020302020302020302020300A20202020332E3530323220202020302E3632303420202020302E30303030204E202020302020332020302020302020302020302020302020302020302020302020302020300A20202020332E3731353820202020312E3431373320202020302E30303030204F202020302020302020302020302020302020302020302020302020302020302020302020300A20202020342E3038353620202020302E3033373020202020302E30303030204F202020302020352020302020302020302020302020302020302020302020302020302020300A20202020302E3734313720202020312E3336303120202020302E30303030204E202020302020332020302020302020302020302020302020302020302020302020302020300A2020202D302E3035353220202020312E3134363620202020302E30303030204F202020302020302020302020302020302020302020302020302020302020302020302020300A20202020302E3935353320202020322E3135373020202020302E30303030204F202020302020352020302020302020302020302020302020302020302020302020302020300A20202020302E313232342020202D302E3935383920202020302E303030302043202020302020302020302020302020302020302020302020302020302020302020302020300A2020202D302E363834362020202D312E3133303420202020302E303030302043202020302020302020302020302020302020302020302020302020302020302020302020300A2020202D312E323336362020202D302E3531373320202020302E303030302043202020302020302020302020302020302020302020302020302020302020302020302020300A2020202D322E303433362020202D302E3638383820202020302E30303030204E202020302020302020302020302020302020302020302020302020302020302020302020300A2020202D322E333739312020202D312E3434323520202020302E303030302043202020302020302020302020302020302020302020302020302020302020302020302020300A2020202D332E313939362020202D312E3335363320202020302E303030302043202020302020302020302020302020302020302020302020302020302020302020302020300A2020202D332E333731312020202D302E3534393320202020302E303030302043202020302020302020302020302020302020302020302020302020302020302020302020300A2020202D342E303835362020202D302E3133363820202020302E303030302043202020302020302020302020302020302020302020302020302020302020302020302020300A2020202D342E3038353620202020302E3638383220202020302E303030302043202020302020302020302020302020302020302020302020302020302020302020302020300A2020202D332E3337313120202020312E3130303720202020302E303030302043202020302020302020302020302020302020302020302020302020302020302020302020300A2020202D322E3635363720202020302E3638383220202020302E303030302043202020302020302020302020302020302020302020302020302020302020302020302020300A2020202D322E363536372020202D302E3133363820202020302E303030302043202020302020302020302020302020302020302020302020302020302020302020302020300A2020202D332E373531362020202D312E3936393420202020302E303030302043202020302020302020302020302020302020302020302020302020302020302020302020300A2020202D312E393636362020202D322E3135373020202020302E303030302048202020302020302020302020302020302020302020302020302020302020302020302020300A2020312020322020312020302020202020200A2020322020332020312020302020202020200A2020332020342020322020302020202020200A2020342020352020312020302020202020200A2020352020362020322020302020202020200A2020362020372020312020302020202020200A2020322020372020322020302020202020200A2020312020382020322020302020202020200A2020312020392020312020302020202020200A2031302031312020322020302020202020200A2031302031322020312020302020202020200A2020362031302020312020302020202020200A2031332031342020322020302020202020200A2031332031352020312020302020202020200A2020342031332020312020302020202020200A2031362031372020312020302020202020200A2031372031382020312020302020202020200A2031392032302020312020302020202020200A2032302032312020322020302020202020200A2032312032322020312020302020202020200A2032322032332020312020302020202020200A2032332032342020322020302020202020200A2032342032352020312020302020202020200A2032352032362020322020302020202020200A2032362032372020312020302020202020200A2031392032372020312020302020202020200A2032322032372020322020302020202020200A2032312032382020312020302020202020200A2031382031392020312020302020202020200A2020392031362020312020302020202020200A2032302032392020312020302020202020200A4D202043484720203420203130202020312020313220202D3120203133202020312020313520202D310A4D2020454E44
Contributor: SASAKI S, TOYOHASHI UNIV. OF TECH.
InstType: EI
InstName: JEOL JMS-01-SG-2
IoniMethod: _ENERGY 75 eV
IonPolarity: pos
Date: 2010-10-09 19:48:36+02:00
Num Peaks: 15
75 110 77 69 78 147 130 21 131 113 143 66 144 725 145 37 158 105 171 95 
195 78 212 8 352 12 365 12 382 999 
