Name: 2-(3-TRIMETHYLSILYLOXYBUTOXY)-N-(2-(ETHYLAMINO)ETHYL)-3-PYRIDINECARBOXAMIDE
MW: 353
Formula: C17H31N3O3Si
Synonym: MassBank: JP003470
Synonym: 2-(3-TRIMETHYLSILYLOXYBUTOXY)-N-(2-(ETHYLAMINO)ETHYL)-3-PYRIDINECARBOXAMIDE
Structure: 322D28332D5452494D455448594C53494C594C4F58594255544F5859292D4E2D28322D28455448594C414D494E4F29455448594C292D332D5059524944494E45434152424F58414D4944452E6D6F6C0A20204368656D447261773132323130393139323332440A2032342032342020302020302020302020302020302020302020302020303939392056323030300A2020202D302E333537322020202D302E3230363220202020302E303030302043202020302020302020302020302020302020302020302020302020302020302020302020300A20202020302E333537322020202D302E3631383720202020302E303030302043202020302020302020302020302020302020302020302020302020302020302020302020300A20202020302E333537322020202D312E3434333720202020302E303030302043202020302020302020302020302020302020302020302020302020302020302020302020300A2020202D302E333537322020202D312E3835363320202020302E303030302043202020302020302020302020302020302020302020302020302020302020302020302020300A2020202D312E303731372020202D312E3434333720202020302E303030302043202020302020302020302020302020302020302020302020302020302020302020302020300A2020202D312E303731372020202D302E3631383720202020302E30303030204E202020302020302020302020302020302020302020302020302020302020302020302020300A20202020312E303731372020202D302E3230363220202020302E303030302043202020302020302020302020302020302020302020302020302020302020302020302020300A20202020312E373836322020202D302E3631383720202020302E30303030204F202020302020302020302020302020302020302020302020302020302020302020302020300A20202020312E3037313720202020302E3631383820202020302E30303030204E202020302020302020302020302020302020302020302020302020302020302020302020300A20202020312E3738363220202020312E3033313320202020302E303030302043202020302020302020302020302020302020302020302020302020302020302020302020300A20202020322E3530303620202020302E3631383820202020302E303030302043202020302020302020302020302020302020302020302020302020302020302020302020300A20202020332E3231353120202020312E3033313320202020302E30303030204E202020302020302020302020302020302020302020302020302020302020302020302020300A20202020332E3932393620202020302E3631383820202020302E303030302043202020302020302020302020302020302020302020302020302020302020302020302020300A20202020342E3634343120202020312E3033313320202020302E303030302043202020302020302020302020302020302020302020302020302020302020302020302020300A2020202D302E3335373220202020302E3631383820202020302E30303030204F202020302020302020302020302020302020302020302020302020302020302020302020300A2020202D312E3037313720202020312E3033313320202020302E303030302043202020302020302020302020302020302020302020302020302020302020302020302020300A2020202D312E3738363220202020302E3631383820202020302E303030302043202020302020302020302020302020302020302020302020302020302020302020302020300A2020202D322E3530303620202020312E3033313320202020302E303030302043202020302020302020302020302020302020302020302020302020302020302020302020300A2020202D322E3530303620202020312E3835363320202020302E303030302043202020302020302020302020302020302020302020302020302020302020302020302020300A2020202D332E3231353120202020302E3631383820202020302E30303030204F202020302020302020302020302020302020302020302020302020302020302020302020300A2020202D332E3932393620202020312E3033313220202020302E303030302053692020302020302020302020302020302020302020302020302020302020302020302020300A2020202D342E3334323120202020302E3331363820202020302E303030302043202020302020302020302020302020302020302020302020302020302020302020302020300A2020202D342E3634343120202020312E3434333720202020302E303030302043202020302020302020302020302020302020302020302020302020302020302020302020300A2020202D332E3531373120202020312E3734353720202020302E303030302043202020302020302020302020302020302020302020302020302020302020302020302020300A2020312020322020312020302020202020200A2020322020332020322020302020202020200A2020332020342020312020302020202020200A2020342020352020322020302020202020200A2020352020362020312020302020202020200A2020312020362020322020302020202020200A2020372020382020322020302020202020200A2020372020392020312020302020202020200A2020322020372020312020302020202020200A2031302031312020312020302020202020200A2031332031342020312020302020202020200A2031322031332020312020302020202020200A2031312031322020312020302020202020200A2020392031302020312020302020202020200A2031362031372020312020302020202020200A2031372031382020312020302020202020200A2031382031392020312020302020202020200A2031352031362020312020302020202020200A2032312032322020312020302020202020200A2032312032332020312020302020202020200A2032312032342020312020302020202020200A2032302032312020312020302020202020200A2031382032302020312020302020202020200A2020312031352020312020302020202020200A4D2020454E44
Contributor: MASS SPECTROSCOPY SOC. OF JAPAN (MSSJ)
InstType: EI
InstName: HITACHI M-60
IoniMethod: _ENERGY 20 eV
IonPolarity: pos
Date: 2010-10-09 19:48:36+02:00
Num Peaks: 127
42 1 43 1 44 16 55 14 56 48 57 4 58 999 59 40 69 4 70 5 
71 918 72 251 73 119 74 8 75 13 84 2 85 3 86 1 87 3 91 2 
93 20 94 1 95 383 96 144 97 10 103 145 104 15 105 6 106 2 107 1 
108 5 109 5 110 2 117 46 118 5 119 8 120 5 121 9 122 102 123 17 
124 1 129 42 130 6 131 2 132 1 134 5 135 10 136 7 139 48 140 3 
143 13 144 144 145 62 146 12 147 5 148 7 149 51 150 9 151 22 152 31 
153 9 154 1 162 2 163 3 165 19 166 10 167 11 168 149 169 23 170 7 
175 1 176 61 177 12 178 4 179 2 180 2 181 2 182 2 190 4 191 3 
192 33 193 46 194 25 195 27 196 10 205 3 206 2 207 4 208 6 209 14 
210 5 211 99 212 17 213 5 218 5 219 3 221 7 222 2 223 8 224 13 
225 24 226 4 235 2 236 2 237 4 238 2 239 6 241 2 246 2 248 4 
253 10 254 1 264 2 266 16 267 74 268 19 269 4 281 3 282 12 283 169 
284 33 285 10 296 23 297 5 338 80 339 17 340 5 
