Name: 2-(4-METHYLBENZOYL)INDOLE
MW: 235
Formula: C16H13NO
Synonym: MassBank: JP005045
Synonym: 2-(4-METHYLBENZOYL)INDOLE
Synonym: 2-INDOLYL P-TOLYL KETONE
Structure: 322D28342D4D455448594C42454E5A4F594C29494E444F4C452E6D6F6C0A20204368656D447261773132323130393230333632440A2031382032302020302020302020302020302020302020302020302020303939392056323030300A2020202D302E3630303820202020302E3538363020202020302E30303030204E202020302020302020302020302020302020302020302020302020302020302020302020300A2020202D302E353134362020202D302E3233343520202020302E303030302043202020302020302020302020302020302020302020302020302020302020302020302020300A2020202D312E323638322020202D302E3537303020202020302E303030302043202020302020302020302020302020302020302020302020302020302020302020302020300A2020202D312E3832303320202020302E3034333020202020302E303030302043202020302020302020302020302020302020302020302020302020302020302020302020300A2020202D322E3634353320202020302E3034333020202020302E303030302043202020302020302020302020302020302020302020302020302020302020302020302020300A2020202D332E3035373820202020302E3735373520202020302E303030302043202020302020302020302020302020302020302020302020302020302020302020302020300A2020202D322E3634353320202020312E3437323020202020302E303030302043202020302020302020302020302020302020302020302020302020302020302020302020300A2020202D312E3832303320202020312E3437323020202020302E303030302043202020302020302020302020302020302020302020302020302020302020302020302020300A2020202D312E3430373820202020302E3735373520202020302E303030302043202020302020302020302020302020302020302020302020302020302020302020302020300A20202020302E313939392020202D302E3634373020202020302E303030302043202020302020302020302020302020302020302020302020302020302020302020302020300A20202020302E393134342020202D302E3233343520202020302E303030302043202020302020302020302020302020302020302020302020302020302020302020302020300A20202020302E3931343420202020302E3539303520202020302E303030302043202020302020302020302020302020302020302020302020302020302020302020302020300A20202020312E3632383820202020312E3030333020202020302E303030302043202020302020302020302020302020302020302020302020302020302020302020302020300A20202020322E3334333320202020302E3539303520202020302E303030302043202020302020302020302020302020302020302020302020302020302020302020302020300A20202020322E333433332020202D302E3233343520202020302E303030302043202020302020302020302020302020302020302020302020302020302020302020302020300A20202020312E363238382020202D302E3634373020202020302E303030302043202020302020302020302020302020302020302020302020302020302020302020302020300A20202020302E313939392020202D312E3437323020202020302E30303030204F202020302020302020302020302020302020302020302020302020302020302020302020300A20202020332E3035373820202020312E3030333020202020302E303030302043202020302020302020302020302020302020302020302020302020302020302020302020300A2020312020322020312020302020202020200A2020322020332020322020302020202020200A2020332020342020312020302020202020200A2020342020352020312020302020202020200A2020352020362020322020302020202020200A2020362020372020312020302020202020200A2020372020382020322020302020202020200A2020382020392020312020302020202020200A2020312020392020312020302020202020200A2020342020392020322020302020202020200A2031302031312020312020302020202020200A2031312031322020312020302020202020200A2031322031332020322020302020202020200A2031332031342020312020302020202020200A2031342031352020322020302020202020200A2031352031362020312020302020202020200A2031312031362020322020302020202020200A2031302031372020322020302020202020200A2031342031382020312020302020202020200A2020322031302020312020302020202020200A4D2020454E44
Contributor: SASAKI S, TOYOHASHI UNIV. OF TECH.
InstType: EI
InstName: MX-1303
IoniMethod: _ENERGY 50 eV
IonPolarity: pos
Date: 2010-10-09 19:48:36+02:00
Num Peaks: 29
39 40 41 12 63 50 65 17 88 12 89 400 90 66 91 43 92 19 103.5 44 
115 96 116 9 116.5 12 117 14 119 293 143 31 144 347 145 13 191 12 204 2 
206 33 207 59 218 81 219 6 220 480 221 71 234 147 235 999 236 187 
