Name: MassBank: JP008803
MW: 337
Formula: C16H20F5NO
Synonym: MassBank: JP008803
Synonym: NONANAL O-2,3,4,5,6-PENTAFLUOROBENZYLOXIME
Structure: 303539315F4E4F4E414E414C204F2D322C332C342C352C362D50454E5441464C554F524F42454E5A594C4F58494D452E6D6F6C0A20204368656D447261773130313931303232303532440A2032332032332020302020302020302020302020302020302020302020303939392056323030300A2020202D322E383538342020202D312E3635303020202020302E303030302043202020302020302020302020302020302020302020302020302020302020302020302020300A2020202D322E383538342020202D322E3437353020202020302E303030302043202020302020302020302020302020302020302020302020302020302020302020302020300A2020202D322E313433392020202D322E3838373520202020302E303030302043202020302020302020302020302020302020302020302020302020302020302020302020300A2020202D312E343239352020202D322E3437353020202020302E303030302043202020302020302020302020302020302020302020302020302020302020302020302020300A2020202D312E343239352020202D312E3635303020202020302E303030302043202020302020302020302020302020302020302020302020302020302020302020302020300A2020202D322E313433392020202D312E3233373520202020302E303030302043202020302020302020302020302020302020302020302020302020302020302020302020300A2020202D332E353731382020202D312E3233373520202020302E303030302046202020302020302020302020302020302020302020302020302020302020302020302020300A2020202D332E353731382020202D322E3838373520202020302E303030302046202020302020302020302020302020302020302020302020302020302020302020302020300A2020202D322E313433392020202D332E3731323520202020302E303030302046202020302020302020302020302020302020302020302020302020302020302020302020300A2020202D302E373134372020202D322E3838373520202020302E303030302046202020302020302020302020302020302020302020302020302020302020302020302020300A2020202D302E373134372020202D312E3233383920202020302E303030302046202020302020302020302020302020302020302020302020302020302020302020302020300A2020202D322E313433392020202D302E3431323520202020302E303030302043202020302020302020302020302020302020302020302020302020302020302020302020300A2020202D312E343238362020202D302E3030303020202020302E30303030204F202020302020302020302020302020302020302020302020302020302020302020302020300A2020202D312E3432383620202020302E3832353020202020302E30303030204E202020302020302020302020302020302020302020302020302020302020302020302020300A2020202D302E3731353020202020312E3233373520202020302E303030302043202020302020302020302020302020302020302020302020302020302020302020302020300A20202020322E3134323920202020312E3233373520202020302E303030302043202020302020302020302020302020302020302020302020302020302020302020302020300A20202020312E3432383420202020302E3832353020202020302E303030302043202020302020302020302020302020302020302020302020302020302020302020302020300A20202020302E3731333920202020312E3233373520202020302E303030302043202020302020302020302020302020302020302020302020302020302020302020302020300A2020202D302E3030303520202020302E3832353020202020302E303030302043202020302020302020302020302020302020302020302020302020302020302020302020300A20202020322E3134323920202020322E3036323520202020302E303030302043202020302020302020302020302020302020302020302020302020302020302020302020300A20202020322E3835373420202020322E3437353020202020302E303030302043202020302020302020302020302020302020302020302020302020302020302020302020300A20202020322E3835373420202020332E3330303020202020302E303030302043202020302020302020302020302020302020302020302020302020302020302020302020300A20202020332E3537313820202020332E3731323520202020302E303030302043202020302020302020302020302020302020302020302020302020302020302020302020300A2020312020322020322020302020202020200A2020322020332020312020302020202020200A2020332020342020322020302020202020200A2020342020352020312020302020202020200A2020352020362020322020302020202020200A2020362020312020312020302020202020200A2020312020372020312020302020202020200A2020322020382020312020302020202020200A2020332020392020312020302020202020200A2020342031302020312020302020202020200A2020352031312020312020302020202020200A2020362031322020312020302020202020200A2031322031332020312020302020202020200A2031332031342020312020302020202020200A2031342031352020322020302020202020200A2031352031392020312020302020202020200A2031362031372020312020302020202020200A2031372031382020312020302020202020200A2031382031392020312020302020202020200A2031362032302020312020302020202020200A2032302032312020312020302020202020200A2032312032322020312020302020202020200A2032322032332020312020302020202020200A4D2020454E44
Contributor: UOEH
InstType: EI
InstName: HP 5970
IoniMethod: _ENERGY 70 eV
IonPolarity: pos
Date: 2010-10-09 19:48:36+02:00
Num Peaks: 76
41 273 42 49 43 221 44 17 46 6 51 4 53 16 54 42 55 126 56 42 
57 80 58 25 59 3 67 28 68 19 69 95 70 21 71 30 72 10 79 15 
80 7 81 34 82 51 83 49 84 16 85 11 86 13 93 16 95 19 96 43 
97 27 98 21 99 29 100 8 110 25 111 8 112 7 117 23 119 19 124 9 
131 7 137 4 143 3 149 8 150 19 154 4 155 3 161 35 162 4 167 15 
168 12 169 4 170 58 171 3 176 10 177 38 178 15 179 3 181 999 182 7 
189 4 194 9 195 33 196 10 197 19 198 33 202 13 207 6 208 4 219 8 
222 48 223 3 226 3 239 382 240 39 252 17 
