Name: CAULOPHYLLINE
MW: 204
Formula: C12H16N2O
Synonym: MassBank: JP008036
Synonym: CAULOPHYLLINE
Synonym: 1,2,3,4,5,6-HEXAHYDRO-3-METHYL-1,5-METHANO-8H-PYRIDO(1,2-A)(1,5)DIAZOCIN-8-ONE
Structure: 4341554C4F5048594C4C494E452E6D6F6C0A20204368656D447261773130323330393132303932440A2032302032322020302020302020302020302020302020302020302020303939392056323030300A2020202D312E3733343220202020302E3431323520202020302E303030302043202020302020302020302020302020302020302020302020302020302020302020302020300A2020202D312E373334322020202D302E3431323520202020302E303030302043202020302020302020302020302020302020302020302020302020302020302020302020300A2020202D312E303139372020202D302E3832353020202020302E303030302043202020302020302020302020302020302020302020302020302020302020302020302020300A2020202D302E333035332020202D302E3431323520202020302E30303030204E202020302020302020302020302020302020302020302020302020302020302020302020300A2020202D302E3330353320202020302E3431323520202020302E303030302043202020302020302020302020302020302020302020302020302020302020302020302020300A2020202D312E3031393720202020302E3832353020202020302E303030302043202020302020302020302020302020302020302020302020302020302020302020302020300A20202020302E323738312020202D302E3939353920202020302E303030302043202020302020302020302020302020302020302020302020302020302020302020302020300A20202020312E313033312020202D302E3939353920202020302E303030302043202020302020302020302020302020302020302020302020302020302020302020302020300A20202020312E363836352020202D302E3431323520202020302E303030302043202020302020302020302020302020302020302020302020302020302020302020302020300A20202020312E3638363520202020302E3431323520202020302E30303030204E202020302020302020302020302020302020302020302020302020302020302020302020300A20202020312E3130333120202020302E3939353920202020302E303030302043202020302020302020302020302020302020302020302020302020302020302020302020300A20202020302E3237383120202020302E3939353920202020302E303030302043202020302020302020302020302020302020302020302020302020302020302020302020300A20202020302E3439313620202020302E3139393020202020302E303030302043202020302020302020302020302020302020302020302020302020302020302020302020300A2020202D302E3033373620202020312E3735383120202020302E303030302048202020302020302020302020302020302020302020302020302020302020302020302020300A20202020312E343138382020202D312E3735383120202020302E303030302048202020302020302020302020302020302020302020302020302020302020302020302020300A2020202D322E343438372020202D302E3832353020202020302E303030302048202020302020302020302020302020302020302020302020302020302020302020302020300A2020202D322E3434383720202020302E3832353020202020302E303030302048202020302020302020302020302020302020302020302020302020302020302020302020300A2020202D312E3031393720202020312E3635303020202020302E303030302048202020302020302020302020302020302020302020302020302020302020302020302020300A2020202D312E303139372020202D312E3635303020202020302E30303030204F202020302020302020302020302020302020302020302020302020302020302020302020300A20202020322E3434383720202020302E3732383220202020302E303030302043202020302020302020302020302020302020302020302020302020302020302020302020300A2020312020322020322020302020202020200A2020322020332020312020302020202020200A2020332020342020312020302020202020200A2020342020352020312020302020202020200A2020352020362020322020302020202020200A2020362020312020312020302020202020200A2020342020372020312020302020202020200A2020372020382020312020302020202020200A2020382020392020312020302020202020200A2020392031302020312020302020202020200A2031302031312020312020302020202020200A2031312031322020312020302020202020200A2031322020352020312020302020202020200A2031322031332020312020362020202020200A2020382031332020312020362020202020200A2031322031342020312020312020202020200A2020382031352020312020312020202020200A2020322031362020312020302020202020200A2020312031372020312020302020202020200A2020362031382020312020302020202020200A2020332031392020322020302020202020200A2031302032302020312020302020202020200A4D2020454E44
Contributor: HAYASHI A, FAC. OF SCIENCE AND TECHNOLOGY, KINKI UNIV.
InstType: EI
InstName: JEOL JMS-HX-100
IoniMethod: _ENERGY 70 eV
IonPolarity: pos
Date: 2010-10-09 19:48:36+02:00
Num Peaks: 160
37 3 38 9 39 64 41 85 42 110 43 100 45 1 50 7 51 20 52 15 
53 24 54 11 55 28 56 14 57 68 58 999 59 44 60 4 61 10 62 5 
63 10 64 7 65 33 66 18 67 25 68 16 69 23 70 19 71 19 73 4 
74 2 75 2 76 5 77 44 78 27 79 24 80 17 81 21 82 48 83 24 
84 17 85 17 86 4 87 3 88 18 89 13 90 11 91 25 92 14 93 20 
94 33 95 18 96 36 97 18 98 7 99 5 101 6 102 11 103 10 104 32 
105 23 106 18 107 10 108 18 109 24 110 7 111 11 112 4 113 5 114 3 
115 14 116 7 117 70 118 40 119 12 120 7 121 10 122 14 123 10 124 3 
125 6 126 2 127 5 128 6 129 5 130 31 131 21 132 32 133 24 134 28 
135 7 136 3 137 4 138 4 139 4 140 2 141 4 142 11 143 6 144 11 
145 29 146 132 147 37 148 11 149 37 150 6 151 3 152 4 153 3 154 3 
155 5 156 3 157 3 158 10 159 24 160 96 161 28 162 13 163 5 164 2 
165 2 166 2 167 8 168 4 169 3 170 7 171 6 172 7 173 8 174 6 
175 4 176 10 177 5 178 3 179 4 180 3 183 3 184 4 185 5 186 5 
187 8 188 7 189 9 190 8 191 2 193 3 195 3 197 2 198 3 199 4 
200 4 201 6 202 12 203 10 204 395 205 62 206 7 207 0 208 3 209 3 
