Name: 3-BROMO-1-PROPYNE
CAS: 106-96-7
MW: 117
Formula: C3H3Br
Synonym: MassBank: JP004271
Synonym: 3-BROMO-1-PROPYNE
Synonym: PROPARGYL BROMIDE
Structure: 310A31320A332D42524F4D4F2D312D50524F50594E452E6D6F6C0A20204368656D447261773032323231303134313732440A2020342020332020302020302020302020302020302020302020302020303939392056323030300A2020202D312E303331332020202D302E3335373220202020302E303030302043202020302020302020302020302020302020302020302020302020302020302020302020300A2020202D302E323036322020202D302E3335373220202020302E303030302043202020302020302020302020302020302020302020302020302020302020302020302020300A20202020302E363138382020202D302E3335373220202020302E303030302043202020302020302020302020302020302020302020302020302020302020302020302020300A20202020312E3033313320202020302E3335373220202020302E303030302042722020302020302020302020302020302020302020302020302020302020302020302020300A2020312020322020332020302020202020200A2020322020332020312020302020202020200A2020332020342020312020302020202020200A4D2020454E44
Contributor: TAJIMA S, GUNMA COLLEGE OF TECHNOLOGY
InstType: EI
InstName: HITACHI RMU-7M
IoniMethod: _ENERGY 70 eV
IonPolarity: pos
Date: 2010-10-09 19:48:36+02:00
Num Peaks: 12
25 14 36 29 37 163 38 233 39 999 40 32 79 33 81 34 118 145 119 11 
120 136 121 10 
