Name: PROPYL NONANOATE
MW: 200
Formula: C12H24O2
Synonym: MassBank: JP007009
Synonym: PROPYL NONANOATE
Structure: 50524F50594C204E4F4E414E4F4154452E6D6F6C0A20204368656D447261773038313231303036313532440A2031342031332020302020302020302020302020302020302020302020303939392056323030300A2020202D312E343238392020202D302E3230363220202020302E303030302043202020302020302020302020302020302020302020302020302020302020302020302020300A2020202D302E373134352020202D302E3631383820202020302E303030302043202020302020302020302020302020302020302020302020302020302020302020302020300A20202020302E303030302020202D302E3230363220202020302E303030302043202020302020302020302020302020302020302020302020302020302020302020302020300A20202020302E373134352020202D302E3631383820202020302E303030302043202020302020302020302020302020302020302020302020302020302020302020302020300A20202020312E343238392020202D302E3230363220202020302E303030302043202020302020302020302020302020302020302020302020302020302020302020302020300A20202020322E313433342020202D302E3631383820202020302E303030302043202020302020302020302020302020302020302020302020302020302020302020302020300A20202020322E383537392020202D302E3230363220202020302E303030302043202020302020302020302020302020302020302020302020302020302020302020302020300A20202020332E353732342020202D302E3631383720202020302E303030302043202020302020302020302020302020302020302020302020302020302020302020302020300A20202020342E323836382020202D302E3230363220202020302E303030302043202020302020302020302020302020302020302020302020302020302020302020302020300A2020202D312E3432383920202020302E3631383820202020302E30303030204F202020302020302020302020302020302020302020302020302020302020302020302020300A2020202D322E313433342020202D302E3631383820202020302E30303030204F202020302020302020302020302020302020302020302020302020302020302020302020300A2020202D322E383537392020202D302E3230363220202020302E303030302043202020302020302020302020302020302020302020302020302020302020302020302020300A2020202D332E353732342020202D302E3631383820202020302E303030302043202020302020302020302020302020302020302020302020302020302020302020302020300A2020202D342E323836382020202D302E3230363320202020302E303030302043202020302020302020302020302020302020302020302020302020302020302020302020300A2020312020322020312020302020202020200A2020322020332020312020302020202020200A2020332020342020312020302020202020200A2020342020352020312020302020202020200A2020352020362020312020302020202020200A2020362020372020312020302020202020200A2020372020382020312020302020202020200A2020382020392020312020302020202020200A2020312031302020322020302020202020200A2020312031312020312020302020202020200A2031322031332020312020302020202020200A2031332031342020312020302020202020200A2031312031322020312020302020202020200A4D2020454E44
Contributor: SODA AROMATIC CO., LTD.
InstType: EI
InstName: HITACHI M-80B
IoniMethod: _ENERGY 70 eV
IonPolarity: pos
Date: 2010-10-09 19:48:36+02:00
Num Peaks: 58
26 12 27 331 29 336 30 11 31 35 39 160 41 731 42 328 43 946 44 25 
45 28 53 27 54 28 55 394 56 109 57 447 58 25 59 76 60 698 61 999 
62 21 67 41 68 34 69 179 70 36 72 16 73 422 74 41 75 13 81 44 
83 75 84 71 85 12 87 130 89 40 95 12 96 23 97 69 98 36 101 36 
102 358 103 67 111 13 112 17 115 239 116 15 123 12 129 99 139 20 141 683 
142 61 143 10 157 32 158 43 159 729 160 69 171 24 200 17 
