Name: MassBank: JP001964
MW: 154
Formula: C10H18O
Synonym: MassBank: JP001964
Synonym: 2,4,4-TRIMETHYLHEPT-6-EN-3-ONE
Structure: 322C342C342D5452494D455448594C484550542D362D454E2D332D4F4E452E6D6F6C0A20204368656D447261773132323030393133323232440A2031312031302020302020302020302020302020302020302020302020303939392056323030300A2020202D312E363530302020202D302E3030303020202020302E303030302043202020302020302020302020302020302020302020302020302020302020302020302020300A2020202D312E3233373520202020302E3731343520202020302E303030302043202020302020302020302020302020302020302020302020302020302020302020302020300A2020202D302E3431323520202020302E3731343520202020302E303030302043202020302020302020302020302020302020302020302020302020302020302020302020300A20202020302E303030302020202D302E3030303020202020302E303030302043202020302020302020302020302020302020302020302020302020302020302020302020300A20202020302E343132352020202D302E3731343520202020302E303030302043202020302020302020302020302020302020302020302020302020302020302020302020300A20202020312E323337352020202D302E3731343520202020302E303030302043202020302020302020302020302020302020302020302020302020302020302020302020300A20202020312E363530302020202D312E3432383920202020302E303030302043202020302020302020302020302020302020302020302020302020302020302020302020300A2020202D302E3030303020202020312E3432383920202020302E30303030204F202020302020302020302020302020302020302020302020302020302020302020302020300A20202020302E3731343520202020302E3431323520202020302E303030302043202020302020302020302020302020302020302020302020302020302020302020302020300A2020202D302E373134352020202D302E3431323520202020302E303030302043202020302020302020302020302020302020302020302020302020302020302020302020300A2020202D312E3635303020202020312E3432383920202020302E303030302043202020302020302020302020302020302020302020302020302020302020302020302020300A2020312020322020312020302020202020200A2020322020332020312020302020202020200A2020332020342020312020302020202020200A2020342020352020312020302020202020200A2020352020362020312020302020202020200A2020362020372020322020302020202020200A2020332020382020322020302020202020200A2020342020392020312020312020202020200A2020342031302020312020312020202020200A2020322031312020312020302020202020200A4D2020454E44
Contributor: MASS SPECTROSCOPY SOC. OF JAPAN (MSSJ)
InstType: EI
InstName: JEOL JMS-D-3000
IoniMethod: _ENERGY 70 eV
IonPolarity: pos
Date: 2010-10-09 19:48:36+02:00
Num Peaks: 25
41 318 42 41 43 556 53 27 55 780 56 44 65 19 67 96 69 41 70 53 
71 528 72 30 73 37 75 20 82 223 83 999 84 73 111 329 112 26 117 18 
118 18 131 57 139 19 154 249 155 29 
