Name: 1-NITROANTHRAQUINONE
MW: 253
Formula: C14H7NO4
Synonym: MassBank: JP001625
Synonym: 1-NITROANTHRAQUINONE
Structure: 312D4E4954524F414E544852415155494E4F4E452E6D6F6C0A20204368656D447261773131323130393138353232440A2031392032312020302020302020302020302020302020302020302020303939392056323030300A2020202D312E323337352020202D302E3030303020202020302E303030302043202020302020302020302020302020302020302020302020302020302020302020302020300A2020202D312E3635303020202020302E3731343520202020302E303030302043202020302020302020302020302020302020302020302020302020302020302020302020300A2020202D312E3233373520202020312E3432383920202020302E303030302043202020302020302020302020302020302020302020302020302020302020302020302020300A2020202D302E3431323520202020312E3432383920202020302E303030302043202020302020302020302020302020302020302020302020302020302020302020302020300A2020202D302E3030303020202020302E3731343520202020302E303030302043202020302020302020302020302020302020302020302020302020302020302020302020300A20202020302E3832353020202020302E3731343520202020302E303030302043202020302020302020302020302020302020302020302020302020302020302020302020300A20202020312E3233373520202020312E3432383920202020302E30303030204F202020302020302020302020302020302020302020302020302020302020302020302020300A20202020312E3233373520202020302E3030303020202020302E303030302043202020302020302020302020302020302020302020302020302020302020302020302020300A20202020322E3036323520202020302E3030303020202020302E303030302043202020302020302020302020302020302020302020302020302020302020302020302020300A20202020322E343735302020202D302E3731343520202020302E303030302043202020302020302020302020302020302020302020302020302020302020302020302020300A20202020322E303632352020202D312E3432383920202020302E303030302043202020302020302020302020302020302020302020302020302020302020302020302020300A20202020312E323337352020202D312E3432383920202020302E303030302043202020302020302020302020302020302020302020302020302020302020302020302020300A20202020302E383235302020202D302E3731343520202020302E303030302043202020302020302020302020302020302020302020302020302020302020302020302020300A20202020302E303030302020202D302E3731343520202020302E303030302043202020302020302020302020302020302020302020302020302020302020302020302020300A2020202D302E343132352020202D312E3432383920202020302E30303030204F202020302020302020302020302020302020302020302020302020302020302020302020300A2020202D302E3431323520202020302E3030303020202020302E303030302043202020302020302020302020302020302020302020302020302020302020302020302020300A2020202D312E363530302020202D302E3731343520202020302E30303030204E202020302020332020302020302020302020302020302020302020302020302020302020300A2020202D312E323337352020202D312E3432383920202020302E30303030204F202020302020302020302020302020302020302020302020302020302020302020302020300A2020202D322E343735302020202D302E3731343520202020302E30303030204F202020302020352020302020302020302020302020302020302020302020302020302020300A2020312020322020312020302020202020200A2020322020332020322020302020202020200A2020332020342020312020302020202020200A2020342020352020322020302020202020200A2020352020362020312020302020202020200A2020362020372020322020302020202020200A2020362020382020312020302020202020200A2020382020392020312020302020202020200A2020392031302020322020302020202020200A2031302031312020312020302020202020200A2031312031322020322020302020202020200A2031322031332020312020302020202020200A2020382031332020322020302020202020200A2031332031342020312020302020202020200A2031342031352020322020302020202020200A2031342031362020312020302020202020200A2020352031362020312020302020202020200A2020312031362020322020302020202020200A2031372031382020322020302020202020200A2031372031392020312020302020202020200A2020312031372020312020302020202020200A4D202043484720203220203137202020312020313920202D310A4D2020454E44
Contributor: KOGA M, UNIV. OF OCCUPATIONAL AND ENVIRONMENTAL HEALTH
InstType: EI
InstName: VARIAN MAT-44
IoniMethod: _ENERGY 70 eV
IonPolarity: pos
Date: 2010-10-09 19:48:36+02:00
Num Peaks: 50
41 16 43 22 49 13 50 238 51 51 53 22 55 13 57 12 61 12 62 39 
63 133 69 31 73 27 74 120 75 237 76 438 77 73 81 11 86 20 87 24 
90 70 98 28 99 30 100 12 101 13 102 15 104 18 125 37 126 56 139 49 
149 24 150 246 151 497 152 460 167 30 179 121 180 881 181 134 182 11 195 61 
196 11 206 26 207 249 208 999 209 152 210 14 236 13 244 45 253 184 254 28 
