Name: O-CHLORODIAZEPAM
MW: 318
Formula: C16H12Cl2N2O
Synonym: MassBank: JP003515
Synonym: O-CHLORODIAZEPAM
Structure: 303636355F4F2D43484C4F524F4449415A4550414D2E6D6F6C0A20204368656D447261773039303631303139343132440A2032312032332020302020302020302020302020302020302020302020303939392056323030300A20202020312E363636392020202D322E3531353220202020302E30303030204F202020302020302020302020302020302020302020302020302020302020302020302020300A20202020312E333130392020202D312E3737303020202020302E303030302043202020302020302020302020302020302020302020302020302020302020302020302020300A20202020302E343835392020202D312E3737303020202020302E30303030204E202020302020302020302020302020302020302020302020302020302020302020302020300A2020202D302E303236382020202D312E3132323720202020302E303030302043202020302020302020302020302020302020302020302020302020302020302020302020300A2020202D302E383235372020202D312E3337343320202020302E303030302043202020302020302020302020302020302020302020302020302020302020302020302020300A2020202D312E343039312020202D302E3739303920202020302E303030302043202020302020302020302020302020302020302020302020302020302020302020302020300A2020202D312E323433352020202D302E3030373920202020302E303030302043202020302020302020302020302020302020302020302020302020302020302020302020300A2020202D312E3832363820202020302E3537353520202020302E3030303020436C2020302020302020302020302020302020302020302020302020302020302020302020300A2020202D302E3433343520202020302E3235343020202020302E303030302043202020302020302020302020302020302020302020302020302020302020302020302020300A20202020302E313438372020202D302E3332393320202020302E303030302043202020302020302020302020302020302020302020302020302020302020302020302020300A20202020302E3930333920202020302E3033373120202020302E303030302043202020302020302020302020302020302020302020302020302020302020302020302020300A20202020302E3930333920202020302E3836323020202020302E303030302043202020302020302020302020302020302020302020302020302020302020302020302020300A20202020302E3139303220202020312E3237343120202020302E303030302043202020302020302020302020302020302020302020302020302020302020302020302020300A20202020302E3139303220202020322E3130313320202020302E303030302043202020302020302020302020302020302020302020302020302020302020302020302020300A20202020302E3930373220202020322E3531353220202020302E303030302043202020302020302020302020302020302020302020302020302020302020302020302020300A20202020312E3632343420202020322E3130313120202020302E303030302043202020302020302020302020302020302020302020302020302020302020302020302020300A20202020312E3632343420202020312E3237323720202020302E303030302043202020302020302020302020302020302020302020302020302020302020302020302020300A20202020312E363435322020202D302E3332323720202020302E30303030204E202020302020302020302020302020302020302020302020302020302020302020302020300A20202020312E383236382020202D312E3132373320202020302E303030302043202020302020302020302020302020302020302020302020302020302020302020302020300A2020202D302E3532343220202020302E3836313620202020302E3030303020436C2020302020302020302020302020302020302020302020302020302020302020302020300A20202020302E313236382020202D322E3531323720202020302E303030302043202020302020302020302020302020302020302020302020302020302020302020302020300A2020312020322020322020302020202020200A2020322020332020312020302020202020200A2020332020342020312020302020202020200A2020342020352020312020302020202020200A2020352020362020322020302020202020200A2020362020372020312020302020202020200A2020372020382020312020302020202020200A2020372020392020322020302020202020200A2020392031302020312020302020202020200A2020342031302020322020302020202020200A2031302031312020312020302020202020200A2031312031322020312020302020202020200A2031322031332020312020302020202020200A2031332031342020322020302020202020200A2031342031352020312020302020202020200A2031352031362020322020302020202020200A2031362031372020312020302020202020200A2031322031372020322020302020202020200A2031312031382020322020302020202020200A2031382031392020312020302020202020200A2020322031392020312020302020202020200A2031332032302020312020302020202020200A2020332032312020312020302020202020200A4D2020454E44
Contributor: YAMAMOTO M, DEP. CHEMISTRY, FAC. SCIENCE, NARA WOMEN'S UNIV.
InstType: EI
InstName: HITACHI RMU-6E
IoniMethod: _ENERGY 70 eV
IonPolarity: pos
Date: 2010-10-09 19:48:36+02:00
Num Peaks: 203
15 17 18 18 27 21 28 29 31 25 36 20 38 15 39 6 41 25 42 64 
43 18 45 2 50 50 51 75 52 19 55 2 57 18 58 21 62 46 63 10 
64 21 65 25 68 20 69 2 69.5 16 71 15 73 36 74 5 75 218 75.5 28 
76 72 77 7 80 18 81 71 81.5 121 82 11 82.5 74 83 14 83.5 31 86 2 
87 42 88 48 88.5 47 89 18 89.5 18 90 52 91 23 92.5 1 93 36 94 24 
94.5 31 95 3 95.5 212 96 91 96.5 63 97 2 98 26 99 80 99.5 37 100 5 
100.5 35 101 32 101.5 22 102 12 102.5 38 103 29 106 25 106.5 2 108 14 108.5 21 
109 203 109.5 22 110 183 110.5 27 111 131 112 4 112.5 29 113 62 113.5 58 114 5 
114.5 20 115 22 116 50 117 9 118 17 119.5 27 120 39 120.5 2 121 17 123 44 
124 57 125 19 126 60 126.5 33 127 289 127.5 13 128 104 128.5 42 130.5 17 134 4 
135 17 136 31 137 44 138 5 139 27 140 20 141 28 141.5 4 142 15 145 32 
146 24 149 4 150 87 151 80 152 72 153 2 154 16 159 38 160 31 161 2 
162 25 163 110 164 74 165 119 166 30 175 23 176 48 177 16 178 61 179 39 
181 15 186 3 188 20 190 46 191 47 192 4 193 23 198 18 199 53 200 2 
201 23 203 25 204 25 205 5 206 19 211 21 212 25 213 3 214 17 218 19 
219 60 220 2 221 15 226 29 227 38 228 2 233 18 238 40 239 76 240 4 
241 36 242 15 247 20 248 7 249 19 253 60 254 26 255 39 256 103 257 131 
258 31 262 2 264 14 267 17 268 55 269 2 270 21 273 27 274 13 275 10 
276 28 277 58 278 17 279 1 282 130 283 878 284 221 285 31 286 54 289 333 
290 645 291 39 292 426 293 149 294 74 295 2 317 582 318 999 319 528 320 65 
321 177 322 112 323 19 
