Name: DI-ISOBUTYLAMINE
MW: 129
Formula: C8H19N
Synonym: MassBank: JP002566
Synonym: DI-ISOBUTYLAMINE
Structure: 310A32320A44492D49534F425554594C414D494E452E6D6F6C0A20204368656D447261773039323131303134303532440A2020392020382020302020302020302020302020302020302020302020303939392056323030300A2020202D302E303030302020202D302E3230363220202020302E30303030204E202020302020302020302020302020302020302020302020302020302020302020302020300A20202020302E373134352020202D302E3631383820202020302E303030302043202020302020302020302020302020302020302020302020302020302020302020302020300A20202020312E343238392020202D302E3230363220202020302E303030302043202020302020302020302020302020302020302020302020302020302020302020302020300A20202020312E3432383920202020302E3631383820202020302E303030302043202020302020302020302020302020302020302020302020302020302020302020302020300A20202020322E313433342020202D302E3631383720202020302E303030302043202020302020302020302020302020302020302020302020302020302020302020302020300A2020202D302E373134352020202D302E3631383720202020302E303030302043202020302020302020302020302020302020302020302020302020302020302020302020300A2020202D312E343238392020202D302E3230363320202020302E303030302043202020302020302020302020302020302020302020302020302020302020302020302020300A2020202D322E313433342020202D302E3631383820202020302E303030302043202020302020302020302020302020302020302020302020302020302020302020302020300A2020202D312E3432383920202020302E3631383720202020302E303030302043202020302020302020302020302020302020302020302020302020302020302020302020300A2020322020332020312020302020202020200A2020332020342020312020302020202020200A2020332020352020312020302020202020200A2020312020322020312020302020202020200A2020362020372020312020302020202020200A2020372020382020312020302020202020200A2020372020392020312020302020202020200A2020312020362020312020302020202020200A4D2020454E44
Contributor: YAMAMOTO M, DEP. CHEMISTRY, FAC. SCIENCE, NARA WOMEN'S UNIV.
InstType: EI
InstName: HITACHI RMU-6M
IoniMethod: _ENERGY 70 eV
IonPolarity: pos
Date: 2010-10-09 19:48:36+02:00
Num Peaks: 23
15 10 27 54 28 42 29 128 30 686 31 10 39 48 41 147 42 46 43 48 
44 30 55 40 56 18 57 271 58 50 70 21 72 30 84 11 86 999 87 61 
114 17 128 11 129 70 
