Name: MassBank: JP007993
MW: 372
Formula: C25H40O2
Synonym: MassBank: JP007993
Synonym: (4'AS,5'S,8'AS)-E-(+)-3-METHYL-5-((5'ALPHA-(4'-METHYL-3'-PENTENYL)-2',5'BETA,8'ABETA,TRIMETHYL-3',4',4'A,5',6',7',8',8'A-OCTAHYDRONAPHTHALENYL))-2-PENTENOIC ACID
Synonym: DYSIDEAPALAUNIC ACID
Structure: 28342741532C3527532C38274153292D452D282B292D332D4D455448594C2D352D28283527414C5048412D2834272D4D455448594C2D33272D50454E54454E594C292D32272C3527424554412C382741424554412C5452494D455448594C2D33272C34272C3427412C35272C36272C37272C38272C3827412D4F435441485944524F4E4150485448414C454E594C29292D322D50454E54454E4F494320414349442E6D6F6C0A20204368656D447261773130323130393132313732440A2032392033302020302020302020302020302020302020302020302020303939392056323030300A2020202D302E3431313920202020302E3237363320202020302E303030302043202020302020302020302020302020302020302020302020302020302020302020302020300A2020202D302E343131392020202D302E3534383720202020302E303030302043202020302020302020302020302020302020302020302020302020302020302020302020300A20202020302E333032362020202D302E3936313220202020302E303030302043202020302020302020302020302020302020302020302020302020302020302020302020300A20202020312E303137302020202D302E3534383720202020302E303030302043202020302020302020302020302020302020302020302020302020302020302020302020300A20202020312E3031373020202020302E3237363320202020302E303030302043202020302020302020302020302020302020302020302020302020302020302020302020300A20202020302E3330323620202020302E3638383820202020302E303030302043202020302020302020302020302020302020302020302020302020302020302020302020300A20202020312E373331352020202D302E3936313220202020302E303030302043202020302020302020302020302020302020302020302020302020302020302020302020300A20202020322E343436302020202D302E3534383720202020302E303030302043202020302020302020302020302020302020302020302020302020302020302020302020300A20202020322E3434363020202020302E3237363320202020302E303030302043202020302020302020302020302020302020302020302020302020302020302020302020300A20202020312E3733313520202020302E3638383820202020302E303030302043202020302020302020302020302020302020302020302020302020302020302020302020300A20202020302E3837333820202020312E3038383820202020302E303030302048202020302020302020302020302020302020302020302020302020302020302020302020300A20202020312E3331393020202020312E3430333320202020302E303030302043202020302020302020302020302020302020302020302020302020302020302020302020300A20202020312E3733313520202020322E3131373820202020302E303030302043202020302020302020302020302020302020302020302020302020302020302020302020300A20202020312E3331393020202020322E3833323220202020302E303030302043202020302020302020302020302020302020302020302020302020302020302020302020300A20202020312E3733313520202020332E3534363720202020302E303030302043202020302020302020302020302020302020302020302020302020302020302020302020300A20202020312E3331393020202020342E3236313220202020302E303030302043202020302020302020302020302020302020302020302020302020302020302020302020300A20202020322E3535363520202020332E3534363720202020302E303030302043202020302020302020302020302020302020302020302020302020302020302020302020300A20202020302E333032362020202D312E3738363220202020302E303030302043202020302020302020302020302020302020302020302020302020302020302020302020300A2020202D302E343131392020202D322E3139383720202020302E303030302043202020302020302020302020302020302020302020302020302020302020302020302020300A2020202D302E343131392020202D332E3032333720202020302E303030302043202020302020302020302020302020302020302020302020302020302020302020302020300A2020202D312E313236342020202D332E3433363220202020302E303030302043202020302020302020302020302020302020302020302020302020302020302020302020300A20202020302E333032362020202D332E3433363220202020302E303030302043202020302020302020302020302020302020302020302020302020302020302020302020300A2020202D312E313236342020202D342E3236313220202020302E303030302048202020302020302020302020302020302020302020302020302020302020302020302020300A2020202D312E313237342020202D302E3936313220202020302E303030302043202020302020302020302020302020302020302020302020302020302020302020302020300A20202020312E303136322020202D312E3337333720202020302E303030302043202020302020302020302020302020302020302020302020302020302020302020302020300A20202020322E3331343520202020312E3237333220202020302E303030302043202020302020302020302020302020302020302020302020302020302020302020302020300A2020202D312E383432302020202D332E3032333720202020302E303030302043202020302020302020302020302020302020302020302020302020302020302020302020300A2020202D312E383432302020202D322E3139383720202020302E30303030204F202020302020302020302020302020302020302020302020302020302020302020302020300A2020202D322E353536352020202D332E3433363220202020302E30303030204F202020302020302020302020302020302020302020302020302020302020302020302020300A2020312020322020312020302020202020200A2020322020332020322020302020202020200A2020332020342020312020302020202020200A2020342020352020312020302020202020200A2020352020362020312020302020202020200A2020362020312020312020302020202020200A2020342020372020312020302020202020200A2020372020382020312020302020202020200A2020382020392020312020302020202020200A2020392031302020312020302020202020200A2031302020352020312020302020202020200A2020352031312020312020362020202020200A2031302031322020312020362020202020200A2031322031332020312020302020202020200A2031332031342020312020302020202020200A2031342031352020322020302020202020200A2031352031362020312020302020202020200A2031352031372020312020302020202020200A2020332031382020312020302020202020200A2031382031392020312020302020202020200A2031392032302020312020302020202020200A2032302032312020322020302020202020200A2032302032322020312020302020202020200A2032312032332020312020302020202020200A2020322032342020312020302020202020200A2020342032352020312020312020202020200A2031302032362020312020312020202020200A2032312032372020312020302020202020200A2032372032382020322020302020202020200A2032372032392020312020302020202020200A4D202053545920203120202031205355500A4D2020534C4220203120202031202020310A4D202053414C20202031202031202032340A4D202053424C20202031202031202032350A4D2020534D5420202031204D650A4D2020534256202020312032352020202D372E3231393220202020352E383033380A4D202053545920203120202032205355500A4D2020534C4220203120202032202020320A4D202053414C20202032202031202032350A4D202053424C20202032202031202032360A4D2020534D5420202032204D650A4D2020534256202020322032362020202D362E3530343520202020352E333931330A4D202053545920203120202033205355500A4D2020534C4220203120202033202020330A4D202053414C20202033202031202032360A4D202053424C20202033202031202032370A4D2020534D5420202033204D650A4D2020534256202020332032372020202D352E3932303720202020362E383030370A4D202053545920203120202034205355500A4D2020534C4220203120202034202020340A4D202053414C202020342020332020323720203238202032390A4D202053424C20202034202031202032380A4D2020534D542020203420434F4F480A4D2020534256202020342032382020202D372E3231393320202020362E363238380A4D2020454E44
Contributor: HISAHIRO HAGIWARA, CHEMICAL RESEARCH INSTITUTE OF NON-AQUEOUSSOLUTIONS TOHOKU UNIV.
InstType: EI
InstName: JEOL JMS-DX-300
IoniMethod: _ENERGY 70 eV
IonPolarity: pos
Date: 2010-10-09 19:48:36+02:00
Num Peaks: 50
41 386 55 260 67 122 69 999 77 51 79 119 81 316 83 19 91 124 93 214 
95 376 97 113 100 77 105 164 107 269 108 67 109 398 111 60 119 703 120 101 
121 277 122 99 123 158 133 561 134 99 135 252 137 112 145 65 147 221 148 60 
149 146 150 61 159 58 161 208 162 50 163 154 173 109 175 146 177 83 189 209 
191 115 217 55 219 83 257 118 259 148 260 61 273 367 274 80 289 67 372 81 
