Name: 2-METHYL-2-BUTANOL
MW: 88
Formula: C5H12O
Synonym: MassBank: JP001279
Synonym: 2-METHYL-2-BUTANOL
Synonym: TERT-PENTYL ALCOHOL
Structure: 310A31360A322D4D455448594C2D322D425554414E4F4C2E6D6F6C0A20204368656D447261773130323330393131303032440A2020362020352020302020302020302020302020302020302020302020303939392056323030300A2020202D302E323036332020202D302E3832353020202020302E303030302043202020302020302020302020302020302020302020302020302020302020302020302020300A2020202D302E3230363320202020302E3030303020202020302E303030302043202020302020302020302020302020302020302020302020302020302020302020302020300A20202020302E3631383820202020302E3030303020202020302E303030302043202020302020302020302020302020302020302020302020302020302020302020302020300A20202020312E303331332020202D302E3731343520202020302E303030302043202020302020302020302020302020302020302020302020302020302020302020302020300A2020202D312E3033313320202020302E3030303020202020302E30303030204F202020302020302020302020302020302020302020302020302020302020302020302020300A2020202D302E3230363320202020302E3832353020202020302E303030302043202020302020302020302020302020302020302020302020302020302020302020302020300A2020312020322020312020302020202020200A2020322020332020312020302020202020200A2020332020342020312020302020202020200A2020322020352020312020302020202020200A2020322020362020312020302020202020200A4D2020454E44
Contributor: TAJIMA S, GUNMA COLLEGE OF TECHNOLOGY
InstType: EI
InstName: HITACHI RMU-7M
IoniMethod: _ENERGY 70 eV
IonPolarity: pos
Date: 2010-10-09 19:48:36+02:00
Num Peaks: 23
15 46 26 14 27 112 28 20 29 119 31 293 39 72 41 167 42 38 43 294 
44 14 45 80 53 17 55 418 56 21 57 20 58 14 59 999 60 33 70 20 
71 52 73 552 74 25 
