Name: 5-ACETOXY-3-(DIETHOXYPHOSPHORYL)METHYL-2-ISOXAZOLINE
MW: 279
Formula: C10H18NO6P
Synonym: MassBank: JP009351
Synonym: 5-ACETOXY-3-(DIETHOXYPHOSPHORYL)METHYL-2-ISOXAZOLINE
Structure: 352D414345544F58592D332D2844494554484F585950484F5350484F52594C294D455448594C2D322D49534F58415A4F4C494E452E6D6F6C0A20204368656D447261773034323331303033343432440A2031382031382020302020302020302020302020302020302020302020303939392056323030300A2020202D302E3630353320202020302E3237373420202020302E30303030204F202020302020302020302020302020302020302020302020302020302020302020302020300A20202020302E3230313820202020302E3130353620202020302E30303030204E202020302020302020302020302020302020302020302020302020302020302020302020300A20202020302E323836352020202D302E3731343520202020302E303030302043202020302020302020302020302020302020302020302020302020302020302020302020300A2020202D302E343636392020202D312E3034393520202020302E303030302043202020302020302020302020302020302020302020302020302020302020302020302020300A2020202D312E303138392020202D302E3433363420202020302E303030302043202020302020302020302020302020302020302020302020302020302020302020302020300A20202020312E373135352020202D302E3731343520202020302E303030302050202020302020302020302020302020302020302020302020302020302020302020302020300A20202020322E313238302020202D312E3432383920202020302E30303030204F202020302020302020302020302020302020302020302020302020302020302020302020300A20202020322E343239392020202D302E3330323020202020302E30303030204F202020302020302020302020302020302020302020302020302020302020302020302020300A20202020312E3330333020202020302E3030303020202020302E30303030204F202020302020302020302020302020302020302020302020302020302020302020302020300A20202020322E3432393920202020302E3532333020202020302E303030302043202020302020302020302020302020302020302020302020302020302020302020302020300A20202020332E3134343420202020302E3933353520202020302E303030302043202020302020302020302020302020302020302020302020302020302020302020302020300A20202020312E3731353520202020302E3731343520202020302E303030302043202020302020302020302020302020302020302020302020302020302020302020302020300A20202020312E3330333020202020312E3432383920202020302E303030302043202020302020302020302020302020302020302020302020302020302020302020302020300A2020202D312E383339342020202D302E3532323120202020302E30303030204F202020302020302020302020302020302020302020302020302020302020302020302020300A2020202D322E3332333920202020302E3134353720202020302E303030302043202020302020302020302020302020302020302020302020302020302020302020302020300A2020202D312E3938373720202020302E3839393220202020302E30303030204F202020302020302020302020302020302020302020302020302020302020302020302020300A2020202D332E3134343420202020302E3036303120202020302E303030302043202020302020302020302020302020302020302020302020302020302020302020302020300A20202020312E303031302020202D312E3132373020202020302E303030302043202020302020302020302020302020302020302020302020302020302020302020302020300A2020312020322020312020302020202020200A2020322020332020322020302020202020200A2020332020342020312020302020202020200A2020342020352020312020302020202020200A2020312020352020312020302020202020200A2020362020372020322020302020202020200A2020362020382020312020302020202020200A2020362020392020312020302020202020200A2031302031312020312020302020202020200A2020382031302020312020302020202020200A2031322031332020312020302020202020200A2020392031322020312020302020202020200A2031352031362020322020302020202020200A2031352031372020312020302020202020200A2031342031352020312020302020202020200A2020352031342020312020302020202020200A2020332031382020312020302020202020200A2031382020362020312020302020202020200A4D2020454E44
Contributor: KANEMASA S, INST. OF ADVANCED MATERIAL STUDY KYUSHU UNIV.
InstType: EI
InstName: JEOL JMS-01-SG-2
IoniMethod: _ENERGY 75 eV
IonPolarity: pos
Date: 2010-10-09 19:48:36+02:00
Num Peaks: 53
40 65 42 103 43 58 44 755 46 56 47 66 53 43 54 236 55 95 57 40 
64 200 78 62 81 285 83 209 91 59 95 53 96 81 97 67 104 36 109 146 
110 36 111 46 121 42 122 68 125 43 129 35 135 59 136 169 137 24 138 20 
146 243 148 50 149 51 150 35 153 123 163 56 165 41 174 40 176 28 181 93 
192 399 193 30 194 18 204 19 209 389 210 38 219 33 220 999 221 88 222 30 
237 48 82 138 164 779 
