Name: MassBank: JP007727
MW: 96
Formula: C6H8O
Synonym: MassBank: JP007727
Synonym: 2,5-DIMETYLFURAN
Structure: 310A31390A322C352D44494D4554594C465552414E2E6D6F6C0A20204368656D447261773132323130393031353132440A2020372020372020302020302020302020302020302020302020302020303939392056323030300A20202020302E343636332020202D302E3630313520202020302E303030302043202020302020302020302020302020302020302020302020302020302020302020302020300A20202020302E3637393920202020302E3139353420202020302E303030302043202020302020302020302020302020302020302020302020302020302020302020302020300A2020202D302E3031323020202020302E3634343720202020302E30303030204F202020302020302020302020302020302020302020302020302020302020302020302020300A2020202D302E3635333220202020302E3132353520202020302E303030302043202020302020302020302020302020302020302020302020302020302020302020302020300A2020202D302E333537352020202D302E3634343720202020302E303030302043202020302020302020302020302020302020302020302020302020302020302020302020300A20202020312E3435303120202020302E3439313020202020302E303030302043202020302020302020302020302020302020302020302020302020302020302020302020300A2020202D312E3435303120202020302E3333393020202020302E303030302043202020302020302020302020302020302020302020302020302020302020302020302020300A2020312020322020322020302020202020200A2020322020332020312020302020202020200A2020332020342020312020302020202020200A2020342020352020322020302020202020200A2020352020312020312020302020202020200A2020322020362020312020302020202020200A2020342020372020312020302020202020200A4D2020454E44
Contributor: HASHIMOTO K, KYOTO COLLEGE OF PHARMACY
InstType: EI
InstName: HITACHI M-80
IoniMethod: _ENERGY 20 eV
IonPolarity: pos
Date: 2010-10-09 19:48:36+02:00
Num Peaks: 29
26 11 27 259 28 10 39 99 40 31 41 200 42 31 43 999 44 31 47 31 
50 12 51 79 52 160 53 850 54 79 55 22 63 11 65 52 66 32 67 180 
68 32 79 40 80 22 81 451 82 35 94 60 95 612 96 780 97 80 
