Name: MassBank: JP005465
MW: 259
Formula: C13H25NO4
Synonym: MassBank: JP005465
Synonym: N-TERT-BUTOXYCARBONYL-2-(1,4-DIHYDROXYBUTYL)PYRROLIDINE
Structure: 4E2D544552542D4255544F5859434152424F4E594C2D322D28312C342D4449485944524F5859425554594C29505952524F4C4944494E452E6D6F6C0A20204368656D447261773038313231303032323632440A2031382031382020302020302020302020302020302020302020302020303939392056323030300A20202020302E383039302020202D302E3936363720202020302E30303030204E202020302020302020302020302020302020302020302020302020302020302020302020300A20202020312E323933392020202D302E3239393320202020302E303030302043202020302020302020302020302020302020302020302020302020302020302020302020300A20202020322E303738352020202D302E3535343220202020302E303030302043202020302020302020302020302020302020302020302020302020302020302020302020300A20202020322E303738352020202D312E3337393220202020302E303030302043202020302020302020302020302020302020302020302020302020302020302020302020300A20202020312E323933392020202D312E3633343120202020302E303030302043202020302020302020302020302020302020302020302020302020302020302020302020300A20202020312E3033393020202020302E3438353420202020302E303030302043202020302020302020302020302020302020302020302020302020302020302020302020300A20202020302E3234323120202020302E3639383920202020302E303030302043202020302020302020302020302020302020302020302020302020302020302020302020300A20202020302E3032383520202020312E3439353820202020302E303030302043202020302020302020302020302020302020302020302020302020302020302020302020300A2020202D302E3736383320202020312E3730393320202020302E303030302043202020302020302020302020302020302020302020302020302020302020302020302020300A2020202D302E3938313920202020322E3530363220202020302E30303030204F202020302020302020302020302020302020302020302020302020302020302020302020300A20202020312E3632323320202020312E3036383720202020302E30303030204F202020302020302020302020302020302020302020302020302020302020302020302020300A2020202D302E303136302020202D302E3936363720202020302E303030302043202020302020302020302020302020302020302020302020302020302020302020302020300A2020202D302E343238352020202D302E3235323220202020302E30303030204F202020302020302020302020302020302020302020302020302020302020302020302020300A2020202D302E343238352020202D312E3638313220202020302E30303030204F202020302020302020302020302020302020302020302020302020302020302020302020300A2020202D312E323533352020202D312E3638313220202020302E303030302043202020302020302020302020302020302020302020302020302020302020302020302020300A2020202D312E323533352020202D322E3530363220202020302E303030302043202020302020302020302020302020302020302020302020302020302020302020302020300A2020202D322E303738352020202D312E3638313220202020302E303030302043202020302020302020302020302020302020302020302020302020302020302020302020300A2020202D312E323533352020202D302E3835363220202020302E303030302043202020302020302020302020302020302020302020302020302020302020302020302020300A2020312020322020312020302020202020200A2020322020332020312020302020202020200A2020332020342020312020302020202020200A2020342020352020312020302020202020200A2020312020352020312020302020202020200A2020362020372020312020302020202020200A2020372020382020312020302020202020200A2020382020392020312020302020202020200A2020392031302020312020302020202020200A2020362031312020312020302020202020200A2020322020362020312020302020202020200A2031322031332020322020302020202020200A2031352031362020312020302020202020200A2031352031382020312020302020202020200A2031352031372020312020302020202020200A2031342031352020312020302020202020200A2031322031342020312020302020202020200A2020312031322020312020302020202020200A4D2020454E44
Contributor: HIRAMA M, TOHOKU UNIV. FACULTY OF SCIENCE DEPT. OF CHEMISTRY YUKIBUNSEKI
InstType: EI
InstName: HITACHI M-52
IoniMethod: _ENERGY 14 eV
IonPolarity: pos
Date: 2010-10-09 19:48:36+02:00
Num Peaks: 38
42 11 56 114 57 69 69 3 70 276 71 15 83 12 97 2 98 10 100 10 
111 10 113 14 114 999 115 94 116 17 117 1 121 273 123 27 124 10 139 2 
140 11 141 14 142 49 144 3 160 45 169 18 170 407 171 35 172 46 173 25 
184 10 185 3 197 17 204 69 205 10 241 2 259 59 260 10 
