Name: MassBank: JP004317
MW: 186
Formula: C12H14N2
Synonym: MassBank: JP004317
Synonym: 4-BENZYL-3,5-DIMETHYLPYRAZOLE
Structure: 342D42454E5A594C2D332C352D44494D455448594C505952415A4F4C452E6D6F6C0A20204368656D447261773033323531303035343532440A2031342031352020302020302020302020302020302020302020302020303939392056323030300A20202020312E3636393320202020302E3837373020202020302E30303030204E202020302020302020302020302020302020302020302020302020302020302020302020300A20202020322E3038313820202020302E3136323520202020302E30303030204E202020302020302020302020302020302020302020302020302020302020302020302020300A20202020312E353239382020202D302E3435303520202020302E303030302043202020302020302020302020302020302020302020302020302020302020302020302020300A20202020302E373736312020202D302E3131353020202020302E303030302043202020302020302020302020302020302020302020302020302020302020302020302020300A20202020302E3836323320202020302E3730353520202020302E303030302043202020302020302020302020302020302020302020302020302020302020302020302020300A20202020302E3234393220202020312E3235373520202020302E303030302043202020302020302020302020302020302020302020302020302020302020302020302020300A20202020312E373031332020202D312E3235373520202020302E303030302043202020302020302020302020302020302020302020302020302020302020302020302020300A20202020302E303631362020202D302E3532373520202020302E303030302043202020302020302020302020302020302020302020302020302020302020302020302020300A2020202D302E363532392020202D302E3131353020202020302E303030302043202020302020302020302020302020302020302020302020302020302020302020302020300A2020202D312E333637332020202D302E3532373520202020302E303030302043202020302020302020302020302020302020302020302020302020302020302020302020300A2020202D322E303831382020202D302E3131353020202020302E303030302043202020302020302020302020302020302020302020302020302020302020302020302020300A2020202D322E3038313820202020302E3731303020202020302E303030302043202020302020302020302020302020302020302020302020302020302020302020302020300A2020202D312E3336373320202020312E3132323520202020302E303030302043202020302020302020302020302020302020302020302020302020302020302020302020300A2020202D302E3635323920202020302E3731303020202020302E303030302043202020302020302020302020302020302020302020302020302020302020302020302020300A2020312020322020312020302020202020200A2020322020332020322020302020202020200A2020332020342020312020302020202020200A2020342020352020322020302020202020200A2020312020352020312020302020202020200A2020352020362020312020302020202020200A2020332020372020312020302020202020200A2020382020392020312020302020202020200A2020392031302020312020302020202020200A2031302031312020322020302020202020200A2031312031322020312020302020202020200A2031322031332020322020302020202020200A2031332031342020312020302020202020200A2020392031342020322020302020202020200A2020342020382020312020302020202020200A4D2020454E44
Contributor: SASAKI S, TOYOHASHI UNIV. OF TECH.
InstType: EI
InstName: MX-1303
IoniMethod: _ENERGY 50 eV
IonPolarity: pos
Date: 2010-10-09 19:48:36+02:00
Num Peaks: 74
26 24 27 83 28 230 29 2 30 14 38 23 39 171 40 5 41 110 42 434 
43 20 50 6 51 167 52 113 53 41 54 1 62 23 63 79 64 27 65 13 
66 42 67 28 68 115 69 1 73 14 74 23 75 33 76 4 77 158 78 53 
79 19 80 2 85 16 89 45 90 16 91 16 92 42 93 33 95 32 101 2 
102 64 103 95 104 22 107 2 108 119 109 999 110 79 115 12 116 33 117 24 
127 37 128 7 129 37 130 61 131 11 140 1 141 39 142 31 143 31 144 22 
145 54 154 12 155 15 156 1 168 17 169 23 170 14 171 62 172 85 183 16 
184 10 185 34 186 901 187 126 
