Name: MassBank: JP003227
MW: 170
Formula: C10H6N2O
Synonym: MassBank: JP003227
Synonym: 3,1-BENZOXAZEPINE-2-CARBONITRILE
Structure: 332C312D42454E5A4F58415A4550494E452D322D434152424F4E495452494C452E6D6F6C0A20204368656D447261773032323131303137343432440A2031332031342020302020302020302020302020302020302020302020303939392056323030300A20202020302E3137333220202020302E3633393620202020302E30303030204E202020302020302020302020302020302020302020302020302020302020302020302020300A20202020302E3735363620202020302E3035363320202020302E303030302043202020302020302020302020302020302020302020302020302020302020302020302020300A20202020302E373035372020202D302E3735353320202020302E30303030204F202020302020302020302020302020302020302020302020302020302020302020302020300A20202020302E303234302020202D312E3232303020202020302E303030302043202020302020302020302020302020302020302020302020302020302020302020302020300A2020202D302E373634332020202D302E3937363920202020302E303030302043202020302020302020302020302020302020302020302020302020302020302020302020300A2020202D312E303635372020202D302E3230383920202020302E303030302043202020302020302020302020302020302020302020302020302020302020302020302020300A2020202D302E3635333220202020302E3530353620202020302E303030302043202020302020302020302020302020302020302020302020302020302020302020302020300A2020202D312E383930372020202D302E3230383920202020302E303030302043202020302020302020302020302020302020302020302020302020302020302020302020300A2020202D322E3330333220202020302E3530353620202020302E303030302043202020302020302020302020302020302020302020302020302020302020302020302020300A2020202D312E3839303720202020312E3232303020202020302E303030302043202020302020302020302020302020302020302020302020302020302020302020302020300A2020202D312E3036353720202020312E3232303020202020302E303030302043202020302020302020302020302020302020302020302020302020302020302020302020300A20202020312E3533353320202020302E3336383820202020302E303030302043202020302020302020302020302020302020302020302020302020302020302020302020300A20202020322E3330333220202020302E3637303220202020302E30303030204E202020302020302020302020302020302020302020302020302020302020302020302020300A2020312020322020322020302020202020200A2020322020332020312020302020202020200A2020332020342020312020302020202020200A2020342020352020322020302020202020200A2020352020362020312020302020202020200A2020362020372020312020302020202020200A2020312020372020312020302020202020200A2020382020392020312020302020202020200A2020392031302020322020302020202020200A2031302031312020312020302020202020200A2020372031312020322020302020202020200A2020362020382020322020302020202020200A2031322031332020332020302020202020200A2020322031322020312020302020202020200A4D2020454E44
Contributor: MASS SPECTROSCOPY SOC. OF JAPAN (MSSJ)
InstType: EI
InstName: HITACHI RMU-6E
IoniMethod: _ENERGY 70 eV
IonPolarity: pos
Date: 2010-10-09 19:48:36+02:00
Num Peaks: 12
170 370 143 100 142 999 116 80 115 690 114 120 90 350 89 680 88 150 64 270 
63 630 62 300 
