Name: P-MENTHAN-4-OL
MW: 156
Formula: C10H20O
Synonym: MassBank: JP006934
Synonym: P-MENTHAN-4-OL
Synonym: 4-METHYL-1-(1-METHYLETHYL)CYCLOHEXAN-1-OL
Structure: 502D4D454E5448414E2D342D4F4C2E6D6F6C0A20204368656D447261773034323131303031303032440A2031312031312020302020302020302020302020302020302020302020303939392056323030300A2020202D302E343030332020202D302E3539333920202020302E303030302043202020302020302020302020302020302020302020302020302020302020302020302020300A2020202D302E3430303320202020302E3233313120202020302E303030302043202020302020302020302020302020302020302020302020302020302020302020302020300A20202020302E3331343120202020302E3634333620202020302E303030302043202020302020302020302020302020302020302020302020302020302020302020302020300A20202020312E3032383620202020302E3233313120202020302E303030302043202020302020302020302020302020302020302020302020302020302020302020302020300A20202020312E303238362020202D302E3539333920202020302E303030302043202020302020302020302020302020302020302020302020302020302020302020302020300A20202020302E333134312020202D312E3030363420202020302E303030302043202020302020302020302020302020302020302020302020302020302020302020302020300A20202020312E373433312020202D312E3030363420202020302E303030302043202020302020302020302020302020302020302020302020302020302020302020302020300A2020202D312E3231323820202020302E3038373920202020302E303030302043202020302020302020302020302020302020302020302020302020302020302020302020300A2020202D312E3734333120202020302E3731393920202020302E303030302043202020302020302020302020302020302020302020302020302020302020302020302020300A2020202D312E343935302020202D302E3638373420202020302E303030302043202020302020302020302020302020302020302020302020302020302020302020302020300A2020202D302E3638323520202020312E3030363420202020302E30303030204F202020302020302020302020302020302020302020302020302020302020302020302020300A2020312020322020312020302020202020200A2020322020332020312020302020202020200A2020332020342020312020302020202020200A2020342020352020312020302020202020200A2020352020362020312020302020202020200A2020312020362020312020302020202020200A2020352020372020312020302020202020200A2020382020392020312020302020202020200A2020382031302020312020302020202020200A2020322020382020312020302020202020200A2020322031312020312020302020202020200A4D2020454E44
Contributor: TAJIMA S, GUNMA COLLEGE OF TECHNOLOGY
InstType: EI
InstName: HITACHI M-80B
IoniMethod: _ENERGY 70 eV
IonPolarity: pos
Date: 2010-10-09 19:48:36+02:00
Num Peaks: 39
27 112 28 26 29 78 31 17 39 82 40 13 41 249 42 45 43 630 44 16 
45 18 53 66 54 11 55 142 56 23 57 70 59 10 67 96 68 12 69 82 
70 45 71 90 77 13 79 12 81 37 83 23 85 12 86 48 87 13 93 15 
95 608 96 50 97 16 99 322 100 22 112 30 113 999 114 78 123 11 
