Name: 2-METHYLTHIOETHANOL
MW: 92
Formula: C3H8OS
Synonym: MassBank: JP002225
Synonym: 2-METHYLTHIOETHANOL
Structure: 310A31340A322D4D455448594C5448494F455448414E4F4C2E6D6F6C0A20204368656D447261773032323131303036313032440A2020352020342020302020302020302020302020302020302020302020303939392056323030300A2020202D302E3731343520202020302E3230363320202020302E303030302043202020302020302020302020302020302020302020302020302020302020302020302020300A20202020302E303030302020202D302E3230363320202020302E303030302043202020302020302020302020302020302020302020302020302020302020302020302020300A20202020302E3731343520202020302E3230363320202020302E303030302053202020302020302020302020302020302020302020302020302020302020302020302020300A20202020312E343238392020202D302E3230363220202020302E303030302043202020302020302020302020302020302020302020302020302020302020302020302020300A2020202D312E343238392020202D302E3230363320202020302E30303030204F202020302020302020302020302020302020302020302020302020302020302020302020300A2020312020322020312020302020202020200A2020332020342020312020302020202020200A2020322020332020312020302020202020200A2020312020352020312020302020202020200A4D2020454E44
Contributor: KOGA M, UNIV. OF OCCUPATIONAL AND ENVIRONMENTAL HEALTH
InstType: EI
InstName: JEOL JMS-01-SG
IoniMethod: _ENERGY 70 eV
IonPolarity: pos
Date: 2010-10-09 19:48:36+02:00
Num Peaks: 16
45 294 46 142 47 324 48 19 49 111 53 25 59 40 61 999 62 213 63 40 
66 15 68 2 74 30 76 25 92 639 94 45 
