Name: EXO-7-METHYL-ENDO-7-(3-(TERT-BUTHYLDIMETHYLSILOXY)PROPYL)BICYCLO(4.1.0)HEPT-2-ENE
MW: 280
Formula: C17H32OSi
Synonym: MassBank: JP004634
Synonym: EXO-7-METHYL-ENDO-7-(3-(TERT-BUTHYLDIMETHYLSILOXY)PROPYL)BICYCLO(4.1.0)HEPT-2-ENE
Structure: 303839305F45584F2D372D4D455448594C2D454E444F2D372D28332D28544552542D42555448594C44494D455448594C53494C4F58592950524F50594C2942494359434C4F28342E312E3029484550542D322D454E452E6D6F6C0A20204368656D447261773039303631303230343332440A2032312032322020302020302020302020302020302020302020302020303939392056323030300A2020202D332E333135322020202D302E3330373620202020302E303030302043202020302020302020302020302020302020302020302020302020302020302020302020300A2020202D332E333135322020202D312E3133323620202020302E303030302043202020302020302020302020302020302020302020302020302020302020302020302020300A2020202D322E363030372020202D312E3534353120202020302E303030302043202020302020302020302020302020302020302020302020302020302020302020302020300A2020202D312E383836332020202D312E3133323620202020302E303030302043202020302020302020302020302020302020302020302020302020302020302020302020300A2020202D312E383836332020202D302E3330373620202020302E303030302043202020302020302020302020302020302020302020302020302020302020302020302020300A2020202D322E3630303720202020302E3130343920202020302E303030302043202020302020302020302020302020302020302020302020302020302020302020302020300A2020202D312E313731382020202D302E3732303120202020302E303030302043202020302020302020302020302020302020302020302020302020302020302020302020300A2020202D312E343732332020202D312E3834383520202020302E303030302048202020302020302020302020302020302020302020302020302020302020302020302020300A2020202D312E3437323320202020302E3430343220202020302E303030302048202020302020302020302020302020302020302020302020302020302020302020302020300A2020202D302E363737362020202D312E3338303720202020302E303030302043202020302020302020302020302020302020302020302020302020302020302020302020300A20202020312E3536343820202020302E3039383120202020302E30303030204F202020302020302020302020302020302020302020302020302020302020302020302020300A20202020302E3736373520202020302E3331343320202020302E303030302043202020302020302020302020302020302020302020302020302020302020302020302020300A20202020302E313834312020202D302E3236393020202020302E303030302043202020302020302020302020302020302020302020302020302020302020302020302020300A2020202D302E363234312020202D302E3130333120202020302E303030302043202020302020302020302020302020302020302020302020302020302020302020302020300A20202020322E3134383520202020302E3638313820202020302E303030302053692020302020302020302020302020302020302020302020302020302020302020302020300A20202020312E3536343520202020312E3236363220202020302E303030302043202020302020302020302020302020302020302020302020302020302020302020302020300A20202020322E3733313320202020302E3039393420202020302E303030302043202020302020302020302020302020302020302020302020302020302020302020302020300A20202020322E3733313820202020312E3236353220202020302E303030302043202020302020302020302020302020302020302020302020302020302020302020302020300A20202020322E3134383520202020312E3834383520202020302E303030302043202020302020302020302020302020302020302020302020302020302020302020302020300A20202020332E3331353220202020312E3834383520202020302E303030302043202020302020302020302020302020302020302020302020302020302020302020302020300A20202020332E3331353220202020302E3638313820202020302E303030302043202020302020302020302020302020302020302020302020302020302020302020302020300A2020312020322020312020302020202020200A2020322020332020322020302020202020200A2020332020342020312020302020202020200A2020342020352020312020302020202020200A2020352020362020312020302020202020200A2020362020312020312020302020202020200A2020342020372020312020302020202020200A2020372020352020312020302020202020200A2020342020382020312020312020202020200A2020352020392020312020312020202020200A2020372031302020312020312020202020200A2020372031342020312020362020202020200A2031312031322020312020302020202020200A2031322031332020312020302020202020200A2031332031342020312020302020202020200A2031312031352020312020302020202020200A2031352031362020312020312020202020200A2031352031382020312020302020202020200A2031352031372020312020312020202020200A2031382031392020312020302020202020200A2031382032302020312020302020202020200A2031382032312020312020302020202020200A4D2020454E44
Contributor: KATO T, DEPT. OF CHEM., FAC. OF SCI., TOHOKU UNIV.
InstType: EI
InstName: HITACHI M-52
IoniMethod: _ENERGY 14 eV
IonPolarity: pos
Date: 2010-10-09 19:48:36+02:00
Num Peaks: 26
75 163 91 154 92 180 100 4 105 75 106 156 107 90 108 6 118 59 119 97 
120 139 131 20 132 42 133 150 147 697 148 17 149 45 189 40 221 122 222 4 
223 999 224 141 225 58 263 16 264 40 265 36 
