Name: MassBank: JP008424
MW: 178
Formula: C11H14O2
Synonym: MassBank: JP008424
Synonym: 1,2-DIMETHOXY-4-(2-PROPENYL)BENZENE
Synonym: METHYL EUGENOL
Structure: 312C322D44494D4554484F58592D342D28322D50524F50454E594C2942454E5A454E452E6D6F6C0A20204368656D447261773131303530393133303132440A2031332031332020302020302020302020302020302020302020302020303939392056323030300A2020202D302E3335373220202020312E3233373520202020302E303030302043202020302020302020302020302020302020302020302020302020302020302020302020300A20202020302E3335373220202020302E3832353020202020302E303030302043202020302020302020302020302020302020302020302020302020302020302020302020300A20202020302E3335373220202020302E3030303020202020302E303030302043202020302020302020302020302020302020302020302020302020302020302020302020300A2020202D302E333537322020202D302E3431323520202020302E303030302043202020302020302020302020302020302020302020302020302020302020302020302020300A2020202D312E303731372020202D302E3030303020202020302E303030302043202020302020302020302020302020302020302020302020302020302020302020302020300A2020202D312E3037313720202020302E3832353020202020302E303030302043202020302020302020302020302020302020302020302020302020302020302020302020300A2020202D302E333537322020202D312E3233373520202020302E303030302043202020302020302020302020302020302020302020302020302020302020302020302020300A2020202D312E303731372020202D312E3635303020202020302E303030302043202020302020302020302020302020302020302020302020302020302020302020302020300A2020202D312E303731372020202D322E3437353020202020302E303030302043202020302020302020302020302020302020302020302020302020302020302020302020300A20202020312E3037313720202020312E3233373520202020302E30303030204F202020302020302020302020302020302020302020302020302020302020302020302020300A20202020312E3037313720202020322E3036323520202020302E303030302043202020302020302020302020302020302020302020302020302020302020302020302020300A2020202D302E3335373220202020322E3036323520202020302E30303030204F202020302020302020302020302020302020302020302020302020302020302020302020300A2020202D312E3037313720202020322E3437353020202020302E303030302043202020302020302020302020302020302020302020302020302020302020302020302020300A2020312020322020312020302020202020200A2020322020332020322020302020202020200A2020332020342020312020302020202020200A2020342020352020322020302020202020200A2020352020362020312020302020202020200A2020312020362020322020302020202020200A2020372020382020312020302020202020200A2020382020392020322020302020202020200A2020342020372020312020302020202020200A2031302031312020312020302020202020200A2020322031302020312020302020202020200A2031322031332020312020302020202020200A2020312031322020312020302020202020200A4D2020454E44
Contributor: SODA AROMATIC CO., LTD.
InstType: EI
InstName: HITACHI M-80B
IoniMethod: _ENERGY 70 eV
IonPolarity: pos
Date: 2010-10-09 19:48:36+02:00
Num Peaks: 64
14 15 15 104 26 26 27 60 29 21 38 21 39 141 40 20 41 123 42 19 
43 37 45 59 50 57 51 143 52 36 53 45 55 81 57 40 58 18 62 19 
63 79 64 35 65 121 66 27 69 19 75 21 76 27 77 155 78 84 79 129 
89 57 90 25 91 321 92 68 94 15 95 24 102 23 103 270 104 66 105 77 
106 28 107 218 108 34 115 115 116 30 117 56 118 16 119 47 120 50 121 21 
131 54 132 25 133 17 135 123 136 17 146 28 147 267 148 53 151 109 152 20 
163 264 177 21 178 999 179 119 
