Name: MassBank: JP009567
MW: 211
Formula: C10H6Cl2O
Synonym: MassBank: JP009567
Synonym: 2,4-DICHLORO-1-NAPHTOL
Structure: 322C342D444943484C4F524F2D312D4E415048544F4C2E6D6F6C0A20204368656D447261773132323030393133353932440A2031332031342020302020302020302020302020302020302020302020303939392056323030300A2020202D312E3037313720202020302E3431323520202020302E303030302043202020302020302020302020302020302020302020302020302020302020302020302020300A2020202D312E303731372020202D302E3431323520202020302E303030302043202020302020302020302020302020302020302020302020302020302020302020302020300A2020202D302E333537322020202D302E3832353020202020302E303030302043202020302020302020302020302020302020302020302020302020302020302020302020300A20202020302E333537322020202D302E3431323520202020302E303030302043202020302020302020302020302020302020302020302020302020302020302020302020300A20202020302E3335373220202020302E3431323520202020302E303030302043202020302020302020302020302020302020302020302020302020302020302020302020300A2020202D302E3335373220202020302E3832353020202020302E303030302043202020302020302020302020302020302020302020302020302020302020302020302020300A20202020312E303731372020202D302E3832353020202020302E303030302043202020302020302020302020302020302020302020302020302020302020302020302020300A20202020312E373836322020202D302E3431323520202020302E303030302043202020302020302020302020302020302020302020302020302020302020302020302020300A20202020312E3738363220202020302E3431323520202020302E303030302043202020302020302020302020302020302020302020302020302020302020302020302020300A20202020312E3037313720202020302E3832353020202020302E303030302043202020302020302020302020302020302020302020302020302020302020302020302020300A2020202D302E3335373220202020312E3635303020202020302E3030303020436C2020302020302020302020302020302020302020302020302020302020302020302020300A2020202D312E373836322020202D302E3832353020202020302E3030303020436C2020302020302020302020302020302020302020302020302020302020302020302020300A2020202D302E333537322020202D312E3635303020202020302E30303030204F202020302020302020302020302020302020302020302020302020302020302020302020300A2020312020322020322020302020202020200A2020322020332020312020302020202020200A2020332020342020322020302020202020200A2020342020352020312020302020202020200A2020352020362020322020302020202020200A2020362020312020312020302020202020200A2020342020372020312020302020202020200A2020372020382020322020302020202020200A2020382020392020312020302020202020200A2020392031302020322020302020202020200A2031302020352020312020302020202020200A2020362031312020312020302020202020200A2020322031322020312020302020202020200A2020332031332020312020302020202020200A4D2020454E44
Contributor: HAMAMATSU UNIV. SCHOOL OF MEDICINE
InstType: EI
InstName: JEOL JMS-AX-505-H
IoniMethod: _ENERGY 70 eV
IonPolarity: pos
Date: 2010-10-09 19:48:36+02:00
Num Peaks: 67
28 25 29 10 31 13 36 29 37 12 38 14 39 43 43 18 50 36 51 25 
53 18 55 38 56 186 57 28 61 44 62 68 63 133 64 14 71 14 73 46 
74 298 75 125 76 16 85 29 86 76 87 86 88 54 89 19 92 34 93 20 
97 31 98 17 99 22 101 13 106 81 107 54 108 15 109 14 110 19 111 19 
112 11 113 359 114 108 115 13 121 20 123 20 129 17 147 32 148 335 149 543 
150 166 151 189 152 20 157 12 177 44 178 11 179 15 183 77 185 50 192 19 
211 18 212 999 213 143 214 685 215 90 216 130 217 15 
