Name: 2-ACETYLTHIOPHENE
MW: 126
Formula: C6H6OS
Synonym: MassBank: JP009169
Synonym: 2-ACETYLTHIOPHENE
Structure: 310A32310A322D41434554594C5448494F5048454E452E6D6F6C0A20204368656D447261773132323130393232303432440A2020382020382020302020302020302020302020302020302020302020303939392056323030300A20202020302E3031363020202020302E3030303020202020302E303030302043202020302020302020302020302020302020302020302020302020302020302020302020300A2020202D302E343638392020202D302E3636373420202020302E303030302043202020302020302020302020302020302020302020302020302020302020302020302020300A2020202D312E323533352020202D302E3431323520202020302E303030302043202020302020302020302020302020302020302020302020302020302020302020302020300A2020202D312E3235333520202020302E3431323520202020302E303030302043202020302020302020302020302020302020302020302020302020302020302020302020300A2020202D302E3436383920202020302E3636373420202020302E303030302053202020302020302020302020302020302020302020302020302020302020302020302020300A20202020302E3834313020202020302E3030303020202020302E303030302043202020302020302020302020302020302020302020302020302020302020302020302020300A20202020312E3235333520202020302E3731343520202020302E30303030204F202020302020302020302020302020302020302020302020302020302020302020302020300A20202020312E323533352020202D302E3731343520202020302E303030302043202020302020302020302020302020302020302020302020302020302020302020302020300A2020312020322020322020302020202020200A2020322020332020312020302020202020200A2020332020342020322020302020202020200A2020342020352020312020302020202020200A2020312020352020312020302020202020200A2020362020372020322020302020202020200A2020362020382020312020302020202020200A2020312020362020312020302020202020200A4D2020454E44
Contributor: SODA AROMATIC CO., LTD.
InstType: EI
InstName: HITACHI M-80B
IoniMethod: _ENERGY 70 eV
IonPolarity: pos
Date: 2010-10-09 19:48:36+02:00
Num Peaks: 27
15 36 26 12 27 13 37 25 38 38 39 325 42 20 43 181 45 114 49 14 
50 28 51 17 53 19 57 97 58 37 69 29 81 26 82 30 83 128 84 21 
97 11 111 999 112 67 113 36 126 420 127 25 128 15 
