Name: MassBank: JP001837
MW: 76
Formula: C3H8O2
Synonym: MassBank: JP001837
Synonym: 1,3-PROPANEDIOL
Structure: 310A31340A312C332D50524F50414E4544494F4C2E6D6F6C0A20204368656D447261773131313230393132303732440A2020352020342020302020302020302020302020302020302020302020303939392056323030300A2020202D302E3731343520202020302E3230363220202020302E303030302043202020302020302020302020302020302020302020302020302020302020302020302020300A20202020302E303030302020202D302E3230363220202020302E303030302043202020302020302020302020302020302020302020302020302020302020302020302020300A20202020302E3731343520202020302E3230363220202020302E303030302043202020302020302020302020302020302020302020302020302020302020302020302020300A2020202D312E343238392020202D302E3230363220202020302E30303030204F202020302020302020302020302020302020302020302020302020302020302020302020300A20202020312E343238392020202D302E3230363220202020302E30303030204F202020302020302020302020302020302020302020302020302020302020302020302020300A2020312020322020312020302020202020200A2020322020332020312020302020202020200A2020312020342020312020302020202020200A2020332020352020312020302020202020200A4D2020454E44
Contributor: TAJIMA S, GUNMA COLLEGE OF TECHNOLOGY
InstType: EI
InstName: HITACHI RMU-7M
IoniMethod: _ENERGY 70 eV
IonPolarity: pos
Date: 2010-10-09 19:48:36+02:00
Num Peaks: 24
14 27 15 93 19 195 26 85 27 358 28 999 29 480 30 165 31 901 39 67 
40 40 41 117 42 57 43 187 44 55 45 191 46 94 47 36 53 31 55 50 
56 42 57 573 58 515 59 40 
