Name: MassBank: JP000466
MW: 96
Formula: C5H8N2
Synonym: MassBank: JP000466
Synonym: 3,5-DIMETHYLPYRAZOLE
Structure: 310A31390A332C352D44494D455448594C505952415A4F4C452E6D6F6C0A20204368656D447261773032323231303031343032440A2020372020372020302020302020302020302020302020302020302020303939392056323030300A2020202D302E3037313120202020302E3738323420202020302E30303030204E202020302020302020302020302020302020302020302020302020302020302020302020300A20202020302E3731333620202020302E3532373520202020302E30303030204E202020302020302020302020302020302020302020302020302020302020302020302020300A20202020302E373133362020202D302E3239373520202020302E303030302043202020302020302020302020302020302020302020302020302020302020302020302020300A2020202D302E303731312020202D302E3535323420202020302E303030302043202020302020302020302020302020302020302020302020302020302020302020302020300A2020202D302E3535363020202020302E3131353020202020302E303030302043202020302020302020302020302020302020302020302020302020302020302020302020300A2020202D312E3338313020202020302E3131353020202020302E303030302043202020302020302020302020302020302020302020302020302020302020302020302020300A20202020312E333831302020202D302E3738323420202020302E303030302043202020302020302020302020302020302020302020302020302020302020302020302020300A2020312020322020312020302020202020200A2020322020332020322020302020202020200A2020332020342020312020302020202020200A2020342020352020322020302020202020200A2020312020352020312020302020202020200A2020352020362020312020302020202020200A2020332020372020312020302020202020200A4D2020454E44
Contributor: SASAKI S, TOYOHASHI UNIV. OF TECH.
InstType: EI
InstName: MX-1303
IoniMethod: _ENERGY 50 eV
IonPolarity: pos
Date: 2010-10-09 19:48:36+02:00
Num Peaks: 42
26 40 27 114 28 163 29 5 30 29 37 12 38 36 39 22 40 70 41 212 
42 167 43 7 50 16 51 34 52 42 53 4 54 216 55 99 56 43 57 4 
62 14 63 27 64 7 65 6 66 29 67 54 68 69 69 4 70 11 71 19 
73 12 78 1 79 16 81 173 82 18 83 2 93 8 94 19 95 720 96 999 
97 64 98 4 
