Name: MassBank: JP001971
MW: 344
Formula: C15H28OSn
Synonym: MassBank: JP001971
Synonym: 2,2,7,7-TETRAMETHYL-4-(TRIMETHYLSTANNYLMETHYL)CYCLOHEPT-4-ENONE
Structure: 322C322C372C372D54455452414D455448594C2D342D285452494D455448594C5354414E4E594C4D455448594C294359434C4F484550542D342D454E4F4E452E6D6F6C0A20204368656D447261773132323030393036323832440A2031372031372020302020302020302020302020302020302020302020303939392056323030300A20202020312E353434342020202D302E3030303020202020302E303030302043202020302020302020302020302020302020302020302020302020302020302020302020300A20202020312E313836352020202D302E3734333320202020302E303030302043202020302020302020302020302020302020302020302020302020302020302020302020300A20202020302E333832322020202D302E3932363920202020302E303030302043202020302020302020302020302020302020302020302020302020302020302020302020300A2020202D302E323632382020202D302E3431323520202020302E303030302043202020302020302020302020302020302020302020302020302020302020302020302020300A2020202D302E3236323820202020302E3431323520202020302E303030302043202020302020302020302020302020302020302020302020302020302020302020302020300A20202020302E3338323220202020302E3932363920202020302E303030302043202020302020302020302020302020302020302020302020302020302020302020302020300A20202020312E3138363520202020302E3734333320202020302E303030302043202020302020302020302020302020302020302020302020302020302020302020302020300A2020202D312E303036312020202D302E3737303520202020302E303030302043202020302020302020302020302020302020302020302020302020302020302020302020300A2020202D312E363837382020202D302E3330353720202020302E3030303020536E2020302020302020302020302020302020302020302020302020302020302020302020300A2020202D322E3336393420202020302E3135393020202020302E303030302043202020302020302020302020302020302020302020302020302020302020302020302020300A2020202D312E3232333120202020302E3337353920202020302E303030302043202020302020302020302020302020302020302020302020302020302020302020302020300A2020202D322E313532352020202D302E3938373420202020302E303030302043202020302020302020302020302020302020302020302020302020302020302020302020300A20202020312E3138363520202020312E3536383320202020302E303030302043202020302020302020302020302020302020302020302020302020302020302020302020300A20202020312E3939303820202020302E3932363920202020302E303030302043202020302020302020302020302020302020302020302020302020302020302020302020300A20202020312E393930382020202D302E3932363920202020302E303030302043202020302020302020302020302020302020302020302020302020302020302020302020300A20202020312E313836352020202D312E3536383320202020302E303030302043202020302020302020302020302020302020302020302020302020302020302020302020300A20202020322E333639342020202D302E3030303020202020302E30303030204F202020302020302020302020302020302020302020302020302020302020302020302020300A2020312020322020312020302020202020200A2020322020332020312020302020202020200A2020332020342020312020302020202020200A2020342020352020322020302020202020200A2020352020362020312020302020202020200A2020362020372020312020302020202020200A2020312020372020312020302020202020200A2020392031302020312020302020202020200A2020392031312020312020312020202020200A2020392031322020312020312020202020200A2020382020392020312020302020202020200A2020342020382020312020302020202020200A2020372031332020312020362020202020200A2020372031342020312020312020202020200A2020322031352020312020362020202020200A2020322031362020312020312020202020200A2020312031372020322020302020202020200A4D2020454E44
Contributor: MASS SPECTROSCOPY SOC. OF JAPAN (MSSJ)
InstType: EI
InstName: JEOL JMS-D-3000
IoniMethod: _ENERGY 70 eV
IonPolarity: pos
Date: 2010-10-09 19:48:36+02:00
Num Peaks: 27
41 114 55 60 67 69 79 98 93 60 95 46 107 81 133 50 135 84 150 52 
161 455 162 256 163 671 164 279 165 999 167 138 169 182 325 67 326 42 327 111 
328 59 329 163 340 97 341 65 342 165 343 87 344 219 
