Name: TETRACHLOROETHYLENE
MW: 163
Formula: C2Cl4
Synonym: MassBank: JP009413
Synonym: TETRACHLOROETHYLENE
Structure: 310A31360A544554524143484C4F524F455448594C454E452E6D6F6C0A20204368656D447261773038313231303037313532440A2020362020352020302020302020302020302020302020302020302020303939392056323030300A20202020302E3230363320202020302E3335373220202020302E303030302043202020302020302020302020302020302020302020302020302020302020302020302020300A2020202D302E323036332020202D302E3335373220202020302E303030302043202020302020302020302020302020302020302020302020302020302020302020302020300A2020202D302E3230363320202020312E3037313720202020302E3030303020436C2020302020302020302020302020302020302020302020302020302020302020302020300A20202020312E3033313220202020302E3335373220202020302E3030303020436C2020302020302020302020302020302020302020302020302020302020302020302020300A20202020302E323036332020202D312E3037313720202020302E3030303020436C2020302020302020302020302020302020302020302020302020302020302020302020300A2020202D312E303331322020202D302E3335373220202020302E3030303020436C2020302020302020302020302020302020302020302020302020302020302020302020300A2020312020322020322020302020202020200A2020312020332020312020302020202020200A2020312020342020312020302020202020200A2020322020352020312020302020202020200A2020322020362020312020302020202020200A4D2020454E44
Contributor: GUNMA COLLEGE OF TECHNOLOGY
InstType: EI
InstName: HITACHI M-80A
IoniMethod: _ENERGY 70 eV
IonPolarity: pos
Date: 2010-10-09 19:48:36+02:00
Num Peaks: 37
12 117 24 199 35 874 36 17 37 266 47 999 48 12 49 326 59 504 60 13 
61 163 70 15 72 10 82 309 83 29 84 195 86 30 94 803 95 19 96 516 
97 11 98 83 117 17 119 16 129 979 130 21 131 907 132 20 133 291 135 30 
164 800 165 17 166 974 167 23 168 466 169 10 170 97 
