Name: NOREPINEPHIRINE
MW: 169
Formula: C8H11NO3
Synonym: MassBank: JP001410
Synonym: NOREPINEPHIRINE
Synonym: 4-(2-AMINO-1-HYDROXYETHYL)-1,2-BENZENEDIOL
Structure: 4E4F524550494E4550484952494E452E6D6F6C0A20204368656D447261773033323331303137353032440A2031332031332020302020302020302020302020302020302020302020303939392056323030300A2020202D312E303136342020202D302E3230363220202020302E303030302043202020302020302020302020302020302020302020302020302020302020302020302020300A2020202D312E303136342020202D312E3033313320202020302E303030302043202020302020302020302020302020302020302020302020302020302020302020302020300A2020202D302E333032302020202D312E3434333820202020302E303030302043202020302020302020302020302020302020302020302020302020302020302020302020300A20202020302E343132352020202D312E3033313320202020302E303030302043202020302020302020302020302020302020302020302020302020302020302020302020300A20202020302E343132352020202D302E3230363220202020302E303030302043202020302020302020302020302020302020302020302020302020302020302020302020300A2020202D302E3330323020202020302E3230363220202020302E303030302043202020302020302020302020302020302020302020302020302020302020302020302020300A2020202D302E3330323020202020312E3033313320202020302E303030302043202020302020302020302020302020302020302020302020302020302020302020302020300A2020202D302E333032302020202D322E3236383720202020302E30303030204F202020302020302020302020302020302020302020302020302020302020302020302020300A20202020312E313237302020202D312E3434333820202020302E30303030204F202020302020302020302020302020302020302020302020302020302020302020302020300A2020202D302E3330323020202020312E3835363320202020302E303030302043202020302020302020302020302020302020302020302020302020302020302020302020300A20202020302E3532333020202020312E3033313320202020302E30303030204F202020302020302020302020302020302020302020302020302020302020302020302020300A2020202D312E3132373020202020312E3033313320202020302E303030302048202020302020302020302020302020302020302020302020302020302020302020302020300A2020202D312E3031363420202020322E3236383720202020302E30303030204E202020302020302020302020302020302020302020302020302020302020302020302020300A2020312020322020322020302020202020200A2020322020332020312020302020202020200A2020332020342020322020302020202020200A2020342020352020312020302020202020200A2020352020362020322020302020202020200A2020362020312020312020302020202020200A2020362020372020312020302020202020200A2020332020382020312020302020202020200A2020342020392020312020302020202020200A2020372031302020312020302020202020200A2020372031312020312020312020202020200A2020372031322020312020312020202020200A2031302031332020312020302020202020200A4D2020454E44
Contributor: HASHIMOTO K, KYOTO COLLEGE OF PHARMACY
InstType: EI
InstName: HITACHI M-80
IoniMethod: _ENERGY 20 eV
IonPolarity: pos
Date: 2010-10-09 19:48:36+02:00
Num Peaks: 23
30 346 31 27 65 99 83 1 93 397 94 37 95 13 111 23 112 17 122 31 
123 33 124 2 129 10 134 15 137 44 138 13 139 999 140 279 141 25 151 7 
152 35 169 124 170 21 
