Name: PARA IODOTOLUENE
MW: 217
Formula: C7H7I
Synonym: MassBank: JP000085
Synonym: PARA IODOTOLUENE
Structure: 310A32310A5041524120494F444F544F4C55454E452E6D6F6C0A20204368656D447261773038313231303034343232440A2020382020382020302020302020302020302020302020302020302020303939392056323030300A2020202D302E383235302020202D302E3030303020202020302E303030302043202020302020302020302020302020302020302020302020302020302020302020302020300A2020202D302E3431323520202020302E3731343520202020302E303030302043202020302020302020302020302020302020302020302020302020302020302020302020300A20202020302E383235302020202D302E3030303020202020302E303030302043202020302020302020302020302020302020302020302020302020302020302020302020300A2020202D302E343132352020202D302E3731343520202020302E303030302043202020302020302020302020302020302020302020302020302020302020302020302020300A20202020302E3431323520202020302E3731343520202020302E303030302043202020302020302020302020302020302020302020302020302020302020302020302020300A20202020302E343132352020202D302E3731343520202020302E303030302043202020302020302020302020302020302020302020302020302020302020302020302020300A2020202D312E363530302020202D302E3030303020202020302E303030302043202020302020302020302020302020302020302020302020302020302020302020302020300A20202020312E363530302020202D302E3030303020202020302E303030302049202020302020302020302020302020302020302020302020302020302020302020302020300A2020312020322020312020302020202020200A2020312020342020322020302020202020200A2020322020352020322020302020202020200A2020332020352020312020302020202020200A2020332020362020322020302020202020200A2020342020362020312020302020202020200A2020312020372020312020302020202020200A2020332020382020312020302020202020200A4D2020454E44
Contributor: TAJIMA S, GUNMA COLLEGE OF TECHNOLOGY
InstType: EI
InstName: HITACHI RMU-7M
IoniMethod: _ENERGY 70 eV
IonPolarity: pos
Date: 2010-10-09 19:48:36+02:00
Num Peaks: 20
38 16 39 82 41 15 50 44 51 34 61 10 62 29 63 78 64 22 65 244 
74 11 89 73 90 49 91 556 92 40 127 8 128 5 217 24 218 999 219 73 
