Name: MassBank: JP008796
MW: 239
Formula: C9H6F5NO
Synonym: MassBank: JP008796
Synonym: ACETALDEHYDE O-2,3,4,5,6-PENTAFLUOROBENZYLOXIME
Structure: 41434554414C444548594445204F2D322C332C342C352C362D50454E5441464C554F524F42454E5A594C4F58494D452E6D6F6C0A20204368656D447261773036323431303035343432440A2031362031362020302020302020302020302020302020302020302020303939392056323030300A2020202D302E373134352020202D302E3832353020202020302E303030302043202020302020302020302020302020302020302020302020302020302020302020302020300A2020202D302E373134352020202D312E3635303020202020302E303030302043202020302020302020302020302020302020302020302020302020302020302020302020300A20202020302E303030302020202D322E3036323520202020302E303030302043202020302020302020302020302020302020302020302020302020302020302020302020300A20202020302E373134352020202D312E3635303020202020302E303030302043202020302020302020302020302020302020302020302020302020302020302020302020300A20202020302E373134352020202D302E3832353020202020302E303030302043202020302020302020302020302020302020302020302020302020302020302020302020300A20202020302E303030302020202D302E3431323520202020302E303030302043202020302020302020302020302020302020302020302020302020302020302020302020300A2020202D312E343238392020202D302E3431323520202020302E303030302046202020302020302020302020302020302020302020302020302020302020302020302020300A2020202D312E343238392020202D322E3036323520202020302E303030302046202020302020302020302020302020302020302020302020302020302020302020302020300A20202020302E303030302020202D322E3838373520202020302E303030302046202020302020302020302020302020302020302020302020302020302020302020302020300A20202020312E343238392020202D322E3036323520202020302E303030302046202020302020302020302020302020302020302020302020302020302020302020302020300A20202020312E343238392020202D302E3431323520202020302E303030302046202020302020302020302020302020302020302020302020302020302020302020302020300A20202020302E3030303020202020302E3431323520202020302E303030302043202020302020302020302020302020302020302020302020302020302020302020302020300A2020202D302E3731343520202020302E3832353020202020302E30303030204F202020302020302020302020302020302020302020302020302020302020302020302020300A2020202D302E3731343520202020312E3635303020202020302E30303030204E202020302020302020302020302020302020302020302020302020302020302020302020300A2020202D312E3432383920202020322E3036323520202020302E303030302043202020302020302020302020302020302020302020302020302020302020302020302020300A2020202D312E3432383920202020322E3838373520202020302E303030302043202020302020302020302020302020302020302020302020302020302020302020302020300A2020312020322020322020302020202020200A2020322020332020312020302020202020200A2020332020342020322020302020202020200A2020342020352020312020302020202020200A2020352020362020322020302020202020200A2020362020312020312020302020202020200A2020312020372020312020302020202020200A2020322020382020312020302020202020200A2020332020392020312020302020202020200A2020342031302020312020302020202020200A2020352031312020312020302020202020200A2020362031322020312020302020202020200A2031322031332020312020302020202020200A2031332031342020312020302020202020200A2031342031352020322020302020202020200A2031352031362020312020302020202020200A4D2020454E44
Contributor: UOEH
InstType: EI
InstName: HP 5970
IoniMethod: _ENERGY 70 eV
IonPolarity: pos
Date: 2010-10-09 19:48:36+02:00
Num Peaks: 59
41 24 42 23 44 3 49 1 51 9 56 2 57 4 58 15 61 2 62 3 
68 3 69 21 74 4 75 13 79 7 80 5 81 15 86 2 92 2 93 21 
98 11 99 30 100 1 105 1 111 5 112 10 113 2 117 37 118 4 119 17 
129 2 130 4 131 18 137 7 143 8 148 5 149 5 150 11 155 14 161 50 
162 11 163 1 167 29 168 13 169 4 177 6 178 4 179 5 181 999 182 73 
183 2 192 4 195 31 196 8 197 4 198 5 209 12 210 11 239 11 
