Name: ETHYL 2-FLUORENYLCARBOXYLATE
MW: 238
Formula: C16H14O2
Synonym: MassBank: JP009662
Synonym: ETHYL 2-FLUORENYLCARBOXYLATE
Structure: 455448594C20322D464C554F52454E594C434152424F58594C4154452E6D6F6C0A20204368656D447261773038313131303138303632440A2031382032302020302020302020302020302020302020302020302020303939392056323030300A20202020312E303434392020202D302E3937303320202020302E303030302043202020302020302020302020302020302020302020302020302020302020302020302020300A20202020302E343932382020202D302E3335373220202020302E303030302043202020302020302020302020302020302020302020302020302020302020302020302020300A2020202D302E333332322020202D302E3335373220202020302E303030302043202020302020302020302020302020302020302020302020302020302020302020302020300A2020202D302E3734343720202020302E3335373220202020302E303030302043202020302020302020302020302020302020302020302020302020302020302020302020300A2020202D302E3333323220202020312E3037313720202020302E303030302043202020302020302020302020302020302020302020302020302020302020302020302020300A20202020302E3439323820202020312E3037313720202020302E303030302043202020302020302020302020302020302020302020302020302020302020302020302020300A20202020302E3930353320202020302E3335373220202020302E303030302043202020302020302020302020302020302020302020302020302020302020302020302020300A20202020312E3731323320202020302E3138353720202020302E303030302043202020302020302020302020302020302020302020302020302020302020302020302020300A20202020322E3337393720202020302E3637303620202020302E303030302043202020302020302020302020302020302020302020302020302020302020302020302020300A20202020332E3133333420202020302E3333353120202020302E303030302043202020302020302020302020302020302020302020302020302020302020302020302020300A20202020332E323139372020202D302E3438353420202020302E303030302043202020302020302020302020302020302020302020302020302020302020302020302020300A20202020322E353532322020202D302E3937303320202020302E303030302043202020302020302020302020302020302020302020302020302020302020302020302020300A20202020312E373938352020202D302E3633343820202020302E303030302043202020302020302020302020302020302020302020302020302020302020302020302020300A2020202D312E3536393720202020302E3335373220202020302E303030302043202020302020302020302020302020302020302020302020302020302020302020302020300A2020202D312E3938323220202020312E3037313720202020302E30303030204F202020302020302020302020302020302020302020302020302020302020302020302020300A2020202D312E393832322020202D302E3335373220202020302E30303030204F202020302020302020302020302020302020302020302020302020302020302020302020300A2020202D322E383037322020202D302E3335373220202020302E303030302043202020302020302020302020302020302020302020302020302020302020302020302020300A2020202D332E323139372020202D312E3037313720202020302E303030302043202020302020302020302020302020302020302020302020302020302020302020302020300A2020312020322020312020302020202020200A2020322020332020312020302020202020200A2020332020342020322020302020202020200A2020342020352020312020302020202020200A2020352020362020322020302020202020200A2020362020372020312020302020202020200A2020322020372020322020302020202020200A2020372020382020312020302020202020200A2020382020392020312020302020202020200A2020392031302020322020302020202020200A2031302031312020312020302020202020200A2031312031322020322020302020202020200A2031322031332020312020302020202020200A2020382031332020322020302020202020200A2020312031332020312020302020202020200A2031342031352020322020302020202020200A2031342031362020312020302020202020200A2020342031342020312020302020202020200A2031372031382020312020302020202020200A2031362031372020312020302020202020200A4D2020454E44
Contributor: THE INSTITUTE OF SCIENTIFIC AND INDUSTRIALRESEARCH
InstType: EI
InstName: JEOL JMS-DX-300
IoniMethod: _ENERGY 70 eV
IonPolarity: pos
Date: 2010-10-09 19:48:36+02:00
Num Peaks: 32
27 16 29 87 40 12 44 6 63 16 70 28 81 12 82 4 83 73 89 10 
91 38 96 4 97 58 115 28 139 35 152 1 162 14 163 116 164 129 165 999 
166 233 167 25 179 19 192 2 193 303 194 54 209 76 210 8 211 10 238 628 
239 114 240 11 
