Name: ALPHA-IONONE
MW: 192
Formula: C13H20O
Synonym: MassBank: JP002591
Synonym: ALPHA-IONONE
Synonym: 4-(2,6,6-TRIMETHYL-2-CYCLOHEXEN-1-YL)-3-BUTEN-2-ONE
Structure: 28522D284529292D342D28322C362C362D5452494D455448594C2D322D4359434C4F484558454E2D312D594C292D332D425554454E2D322D4F4E452E6D6F6C0A20204368656D447261773130323230393231303532440A2031382031382020302020302020302020302020302020302020302020303939392056323030300A20202020302E3136353820202020302E3139323220202020302E303030302043202020302020302020302020302020302020302020302020302020302020302020302020300A20202020302E313635382020202D302E3633323820202020302E303030302043202020302020302020302020302020302020302020302020302020302020302020302020300A20202020302E383830332020202D312E3034353320202020302E303030302043202020302020302020302020302020302020302020302020302020302020302020302020300A20202020312E353934372020202D302E3633323820202020302E303030302043202020302020302020302020302020302020302020302020302020302020302020302020300A20202020312E3539343720202020302E3139323220202020302E303030302043202020302020302020302020302020302020302020302020302020302020302020302020300A20202020302E3838303320202020302E3630343720202020302E303030302043202020302020302020302020302020302020302020302020302020302020302020302020300A20202020302E3838303320202020312E3432393720202020302E303030302043202020302020302020302020302020302020302020302020302020302020302020302020300A20202020322E3330393220202020302E3630343720202020302E303030302048202020302020302020302020302020302020302020302020302020302020302020302020300A2020202D302E363539322020202D302E3633323820202020302E303030302043202020302020302020302020302020302020302020302020302020302020302020302020300A2020202D302E3635393220202020302E3139323220202020302E303030302043202020302020302020302020302020302020302020302020302020302020302020302020300A2020202D302E3034373720202020302E3938393120202020302E303030302048202020302020302020302020302020302020302020302020302020302020302020302020300A2020202D302E303437372020202D312E3432393720202020302E303030302043202020302020302020302020302020302020302020302020302020302020302020302020300A2020202D312E303731372020202D302E3532323320202020302E303030302043202020302020302020302020302020302020302020302020302020302020302020302020300A2020202D312E3037313720202020302E3930363720202020302E303030302048202020302020302020302020302020302020302020302020302020302020302020302020300A2020202D302E363539322020202D312E3233363720202020302E303030302048202020302020302020302020302020302020302020302020302020302020302020302020300A2020202D312E383936372020202D302E3532323320202020302E303030302043202020302020302020302020302020302020302020302020302020302020302020302020300A2020202D322E3330393220202020302E3139323220202020302E30303030204F202020302020302020302020302020302020302020302020302020302020302020302020300A2020202D322E333039322020202D312E3233363720202020302E303030302043202020302020302020302020302020302020302020302020302020302020302020302020300A2020312020322020312020302020202020200A2020322020332020312020302020202020200A2020332020342020312020302020202020200A2020342020352020312020302020202020200A2020352020362020322020302020202020200A2020362020312020312020302020202020200A2020362020372020312020302020202020200A2020352020382020312020302020202020200A2020322020392020312020312020202020200A2020312031302020312020312020202020200A2020312031312020312020362020202020200A2020322031322020312020362020202020200A2031302031332020322020302020202020200A2031302031342020312020302020202020200A2031332031352020312020302020202020200A2031332031362020312020302020202020200A2031362031372020322020302020202020200A2031362031382020312020302020202020200A4D2020454E44
Contributor: YAMAMOTO M, DEP. CHEMISTRY, FAC. SCIENCE, NARA WOMEN'S UNIV.
InstType: EI
InstName: HITACHI RMU-6M
IoniMethod: _ENERGY 70 eV
IonPolarity: pos
Date: 2010-10-09 19:48:36+02:00
Num Peaks: 68
15 33 27 104 28 51 29 71 39 152 40 27 41 272 42 12 43 715 44 14 
45 19 51 50 52 21 53 99 54 12 55 78 56 13 57 13 63 17 65 73 
66 18 67 62 68 11 69 54 71 23 77 232 78 232 79 99 80 22 81 74 
82 16 83 12 91 242 92 148 93 868 94 98 95 46 96 14 103 19 105 50 
106 25 107 95 108 39 110 23 111 12 112 25 115 17 117 20 119 63 120 11 
121 999 122 107 123 21 124 11 131 15 133 21 134 41 135 65 136 745 137 132 
138 12 149 64 150 12 159 26 177 117 178 16 192 263 193 38 
