Name: 2-BUTOXY-N-(2-(ETHYLAMINO)ETHYL)-3-PYRIDINECARBOXAMIDE
MW: 265
Formula: C14H23N3O2
Synonym: MassBank: JP003467
Synonym: 2-BUTOXY-N-(2-(ETHYLAMINO)ETHYL)-3-PYRIDINECARBOXAMIDE
Structure: 322D4255544F58592D4E2D28322D28455448594C414D494E4F29455448594C292D332D5059524944494E45434152424F58414D4944452E6D6F6C0A20204368656D447261773132323130393233323932440A2031392031392020302020302020302020302020302020302020302020303939392056323030300A20202020312E383536332020202D312E3037313720202020302E303030302043202020302020302020302020302020302020302020302020302020302020302020302020300A20202020312E343433372020202D312E3738363220202020302E303030302043202020302020302020302020302020302020302020302020302020302020302020302020300A20202020312E383536332020202D322E3530303620202020302E303030302043202020302020302020302020302020302020302020302020302020302020302020302020300A20202020322E363831322020202D322E3530303620202020302E303030302043202020302020302020302020302020302020302020302020302020302020302020302020300A20202020332E303933382020202D312E3738363220202020302E303030302043202020302020302020302020302020302020302020302020302020302020302020302020300A20202020322E363831322020202D312E3037313720202020302E30303030204E202020302020302020302020302020302020302020302020302020302020302020302020300A20202020302E363138382020202D312E3738363220202020302E303030302043202020302020302020302020302020302020302020302020302020302020302020302020300A20202020302E323036322020202D322E3530303620202020302E30303030204F202020302020302020302020302020302020302020302020302020302020302020302020300A20202020302E323036322020202D312E3037313720202020302E30303030204E202020302020302020302020302020302020302020302020302020302020302020302020300A2020202D302E363138382020202D312E3037313720202020302E303030302043202020302020302020302020302020302020302020302020302020302020302020302020300A2020202D312E303331332020202D312E3738363220202020302E303030302043202020302020302020302020302020302020302020302020302020302020302020302020300A2020202D312E383536332020202D312E3738363220202020302E30303030204E202020302020302020302020302020302020302020302020302020302020302020302020300A2020202D322E323638382020202D322E3530303620202020302E303030302043202020302020302020302020302020302020302020302020302020302020302020302020300A2020202D332E303933382020202D322E3530303620202020302E303030302043202020302020302020302020302020302020302020302020302020302020302020302020300A20202020312E343433382020202D302E3335373220202020302E30303030204F202020302020302020302020302020302020302020302020302020302020302020302020300A20202020312E3835363320202020302E3335373220202020302E303030302043202020302020302020302020302020302020302020302020302020302020302020302020300A20202020312E3434333820202020312E3037313720202020302E303030302043202020302020302020302020302020302020302020302020302020302020302020302020300A20202020312E3835363320202020312E3738363220202020302E303030302043202020302020302020302020302020302020302020302020302020302020302020302020300A20202020312E3434333820202020322E3530303620202020302E303030302043202020302020302020302020302020302020302020302020302020302020302020302020300A2020312020322020312020302020202020200A2020322020332020322020302020202020200A2020332020342020312020302020202020200A2020342020352020322020302020202020200A2020352020362020312020302020202020200A2020312020362020322020302020202020200A2020372020382020322020302020202020200A2020372020392020312020302020202020200A2020322020372020312020302020202020200A2031302031312020312020302020202020200A2031332031342020312020302020202020200A2031322031332020312020302020202020200A2031312031322020312020302020202020200A2020392031302020312020302020202020200A2031362031372020312020302020202020200A2031372031382020312020302020202020200A2031382031392020312020302020202020200A2031352031362020312020302020202020200A2020312031352020312020302020202020200A4D2020454E44
Contributor: MASS SPECTROSCOPY SOC. OF JAPAN (MSSJ)
InstType: EI
InstName: HITACHI M-60
IoniMethod: _ENERGY 20 eV
IonPolarity: pos
Date: 2010-10-09 19:48:36+02:00
Num Peaks: 30
44 31 56 66 57 25 58 999 59 33 71 849 72 62 86 9 95 218 96 18 
121 67 122 187 123 56 124 5 135 14 139 48 149 6 151 53 152 59 153 10 
165 10 178 61 179 68 180 9 195 112 196 12 207 35 208 75 209 9 221 6 
