Name: 2-TRIMETHYLSILYLTHIOPROPIONIC ACID TRIMETHYLSILYL ESTER
MW: 250
Formula: C9H22O2SSi2
Synonym: MassBank: JP007480
Synonym: 2-TRIMETHYLSILYLTHIOPROPIONIC ACID TRIMETHYLSILYL ESTER
Structure: 322D5452494D455448594C53494C594C5448494F50524F50494F4E49432041434944205452494D455448594C53494C594C2045535445522E6D6F6C0A20204368656D447261773032323131303136353932440A2031342031332020302020302020302020302020302020302020302020303939392056323030300A2020202D302E3431323520202020302E3431323520202020302E303030302043202020302020302020302020302020302020302020302020302020302020302020302020300A20202020302E3431323520202020302E3431323520202020302E303030302043202020302020302020302020302020302020302020302020302020302020302020302020300A20202020302E3832353020202020312E3132373020202020302E303030302043202020302020302020302020302020302020302020302020302020302020302020302020300A2020202D302E383235302020202D302E3330323020202020302E30303030204F202020302020302020302020302020302020302020302020302020302020302020302020300A2020202D302E3832353020202020312E3132373020202020302E30303030204F202020302020302020302020302020302020302020302020302020302020302020302020300A2020202D312E363530302020202D302E3330323020202020302E303030302053692020302020302020302020302020302020302020302020302020302020302020302020300A2020202D312E363530302020202D312E3132373020202020302E303030302043202020302020302020302020302020302020302020302020302020302020302020302020300A2020202D322E343735302020202D302E3330323020202020302E303030302043202020302020302020302020302020302020302020302020302020302020302020302020300A2020202D312E3635303020202020302E3532333020202020302E303030302043202020302020302020302020302020302020302020302020302020302020302020302020300A20202020302E383235302020202D302E3330323020202020302E303030302053202020302020302020302020302020302020302020302020302020302020302020302020300A20202020312E363530302020202D302E3330323020202020302E303030302053692020302020302020302020302020302020302020302020302020302020302020302020300A20202020322E343735302020202D302E3330323020202020302E303030302043202020302020302020302020302020302020302020302020302020302020302020302020300A20202020312E3635303020202020302E3532333020202020302E303030302043202020302020302020302020302020302020302020302020302020302020302020302020300A20202020312E363530302020202D312E3132373020202020302E303030302043202020302020302020302020302020302020302020302020302020302020302020302020300A2020312020322020312020302020202020200A2020322020332020312020302020202020200A2020312020342020312020302020202020200A2020312020352020322020302020202020200A2020362020372020312020302020202020200A2020362020382020312020302020202020200A2020362020392020312020302020202020200A2020342020362020312020302020202020200A2020322031302020312020302020202020200A2031302031312020312020302020202020200A2031312031322020312020302020202020200A2031312031332020312020312020202020200A2031312031342020312020312020202020200A4D2020454E44
Contributor: KOGA M, UNIV. OF OCCUPATIONAL AND ENVIRONMENTAL HEALTH
InstType: EI
InstName: JEOL JMS-01-SG
IoniMethod: _ENERGY 70 eV
IonPolarity: pos
Date: 2010-10-09 19:48:36+02:00
Num Peaks: 61
43 167 44 75 45 508 46 3 47 140 55 167 56 37 58 3 59 151 60 27 
61 64 66 11 69 16 70 21 72 59 73 8 74 324 75 583 76 54 77 4 
85 21 86 37 88 108 90 15 91 54 92 16 93 27 96 3 103 54 105 16 
116 21 118 7 119 21 129 32 131 32 132 8 133 421 134 37 135 21 144 3 
147 286 148 497 149 297 150 3 160 102 163 248 164 27 165 2 180 16 190 59 
207 718 208 14 209 81 218 16 221 32 235 999 236 194 237 124 250 264 251 5 
252 27 
