Name: PARA AMINO ISOPROPYLBENZOATE
MW: 179
Formula: C10H13NO2
Synonym: MassBank: JP000180
Synonym: PARA AMINO ISOPROPYLBENZOATE
Structure: 303031345F5041524120414D494E4F2049534F50524F50594C42454E5A4F4154452E6D6F6C0A20204368656D447261773130303131303230333232440A2031332031332020302020302020302020302020302020302020302020303939392056323030300A2020202D302E3230363720202020302E3731353320202020302E303030302043202020302020302020302020302020302020302020302020302020302020302020302020300A2020202D302E3631393320202020302E3030303820202020302E303030302043202020302020302020302020302020302020302020302020302020302020302020302020300A2020202D302E323036372020202D302E3731333620202020302E303030302043202020302020302020302020302020302020302020302020302020302020302020302020300A2020202D302E363139322020202D312E3432383120202020302E303030302043202020302020302020302020302020302020302020302020302020302020302020302020300A2020202D312E343434322020202D312E3432383120202020302E303030302043202020302020302020302020302020302020302020302020302020302020302020302020300A2020202D312E383536382020202D302E3731333620202020302E303030302043202020302020302020302020302020302020302020302020302020302020302020302020300A2020202D312E3434343320202020302E3030303820202020302E303030302043202020302020302020302020302020302020302020302020302020302020302020302020300A2020202D302E3631383620202020312E3432393820202020302E30303030204F202020302020302020302020302020302020302020302020302020302020302020302020300A20202020302E3631393320202020302E3731343320202020302E30303030204F202020302020302020302020302020302020302020302020302020302020302020302020300A2020202D312E383536362020202D322E3134333220202020302E30303030204E202020302020302020302020302020302020302020302020302020302020302020302020300A20202020312E3033313820202020312E3432383720202020302E303030302043202020302020302020302020302020302020302020302020302020302020302020302020300A20202020302E3631393320202020322E3134333220202020302E303030302043202020302020302020302020302020302020302020302020302020302020302020302020300A20202020312E3835363820202020312E3432383720202020302E303030302043202020302020302020302020302020302020302020302020302020302020302020302020300A2020312020322020312020302020202020200A2020322020332020312020302020202020200A2020332020342020322020302020202020200A2020342020352020312020302020202020200A2020352020362020322020302020202020200A2020362020372020312020302020202020200A2020322020372020322020302020202020200A2020312020382020322020302020202020200A2020312020392020312020302020202020200A2020352031302020312020302020202020200A2020392031312020312020302020202020200A2031312031322020312020302020202020200A2031312031332020312020302020202020200A4D2020454E44
Contributor: TAJIMA S, GUNMA COLLEGE OF TECHNOLOGY
InstType: EI
InstName: HITACHI RMU-7M
IoniMethod: _ENERGY 70 eV
IonPolarity: pos
Date: 2010-10-09 19:48:36+02:00
Num Peaks: 25
27 56 29 17 38 12 39 113 40 18 41 86 42 14 43 57 45 123 63 31 
64 31 65 245 66 30 90 12 91 39 92 216 93 37 119 13 120 999 121 135 
136 12 137 551 138 45 179 232 180 24 
