Name: 2-(1-METHOXYPENTYL)CYCLOPENTANONE
MW: 184
Formula: C11H20O2
Synonym: MassBank: JP002330
Synonym: 2-(1-METHOXYPENTYL)CYCLOPENTANONE
Structure: 322D28312D4D4554484F585950454E54594C294359434C4F50454E54414E4F4E452E6D6F6C0A20204368656D447261773132323130393035353232440A2031332031332020302020302020302020302020302020302020302020303939392056323030300A20202020312E3530303220202020302E3239383620202020302E303030302043202020302020302020302020302020302020302020302020302020302020302020302020300A20202020312E303135322020202D302E3336383820202020302E303030302043202020302020302020302020302020302020302020302020302020302020302020302020300A20202020312E353030322020202D312E3033363220202020302E303030302043202020302020302020302020302020302020302020302020302020302020302020302020300A20202020322E323834382020202D302E3738313320202020302E303030302043202020302020302020302020302020302020302020302020302020302020302020302020300A20202020322E3238343820202020302E3034333720202020302E303030302043202020302020302020302020302020302020302020302020302020302020302020302020300A20202020302E313930322020202D302E3336383820202020302E303030302043202020302020302020302020302020302020302020302020302020302020302020302020300A2020202D302E3232323320202020302E3334353720202020302E303030302043202020302020302020302020302020302020302020302020302020302020302020302020300A2020202D312E3034373320202020302E3334353720202020302E303030302043202020302020302020302020302020302020302020302020302020302020302020302020300A2020202D312E3435393820202020312E3036303120202020302E303030302043202020302020302020302020302020302020302020302020302020302020302020302020300A2020202D322E3238343820202020312E3036303120202020302E303030302043202020302020302020302020302020302020302020302020302020302020302020302020300A2020202D302E323232332020202D312E3038333320202020302E30303030204F202020302020302020302020302020302020302020302020302020302020302020302020300A2020202D312E303437332020202D312E3038333320202020302E303030302043202020302020302020302020302020302020302020302020302020302020302020302020300A20202020312E3234353220202020312E3038333320202020302E30303030204F202020302020302020302020302020302020302020302020302020302020302020302020300A2020312020322020312020302020202020200A2020322020332020312020302020202020200A2020332020342020312020302020202020200A2020342020352020312020302020202020200A2020312020352020312020302020202020200A2020362020372020312020302020202020200A2020372020382020312020302020202020200A2020382020392020312020302020202020200A2020392031302020312020302020202020200A2031312031322020312020302020202020200A2020362031312020312020302020202020200A2020322020362020312020302020202020200A2020312031332020322020302020202020200A4D2020454E44
Contributor: MASS SPECTROSCOPY SOC. OF JAPAN (MSSJ)
InstType: EI
InstName: JEOL JMS-D-3000
IoniMethod: _ENERGY 70 eV
IonPolarity: pos
Date: 2010-10-09 19:48:36+02:00
Num Peaks: 45
41 558 42 42 43 126 44 42 45 459 53 128 54 239 55 263 56 42 57 38 
59 91 65 49 66 32 67 960 68 179 69 821 70 52 71 175 74 92 77 47 
79 113 80 35 81 243 82 87 83 76 84 305 85 64 93 34 95 539 96 153 
97 367 98 49 100 97 101 999 102 74 109 59 110 117 111 37 123 538 124 73 
127 525 128 45 152 510 153 64 184 31 
