Name: MassBank: JP000505
MW: 116
Formula: C6H16N2
Synonym: MassBank: JP000505
Synonym: 2-BUTYL-1,1-DIMETHYLHYDRAZINE
Structure: 310A32300A322D425554594C2D312C312D44494D455448594C48594452415A494E452E6D6F6C0A20204368656D447261773031303331303130313032440A2020382020372020302020302020302020302020302020302020302020303939392056323030300A20202020312E3033313320202020302E3030303020202020302E30303030204E202020302020302020302020302020302020302020302020302020302020302020302020300A20202020302E363138372020202D302E3731343520202020302E30303030204E202020302020302020302020302020302020302020302020302020302020302020302020300A20202020302E3631383720202020302E3731343520202020302E303030302043202020302020302020302020302020302020302020302020302020302020302020302020300A20202020312E3835363320202020302E3030303020202020302E303030302043202020302020302020302020302020302020302020302020302020302020302020302020300A2020202D302E323036322020202D302E3731343520202020302E303030302043202020302020302020302020302020302020302020302020302020302020302020302020300A2020202D302E3631383820202020302E3030303020202020302E303030302043202020302020302020302020302020302020302020302020302020302020302020302020300A2020202D312E3434333720202020302E3030303020202020302E303030302043202020302020302020302020302020302020302020302020302020302020302020302020300A2020202D312E3835363320202020302E3731343520202020302E303030302043202020302020302020302020302020302020302020302020302020302020302020302020300A2020312020322020312020302020202020200A2020312020332020312020302020202020200A2020312020342020312020302020202020200A2020352020362020312020302020202020200A2020362020372020312020302020202020200A2020372020382020312020302020202020200A2020322020352020312020302020202020200A4D2020454E44
Contributor: SASAKI S, TOYOHASHI UNIV. OF TECH.
InstType: EI
InstName: SHIMADZU LKB-2091
IoniMethod: _ENERGY 70 eV
IonPolarity: pos
Date: 2010-10-09 19:48:36+02:00
Num Peaks: 25
28 44 29 40 30 65 32 2 39 12 40 3 41 35 42 7 43 47 44 81 
45 65 46 3 55 3 56 4 57 21 58 1 59 999 60 29 71 7 72 1 
73 180 74 9 101 10 116 18 117 19 
