Name: MassBank: JP004403
MW: 200
Formula: C13H16N2
Synonym: MassBank: JP004403
Synonym: 2,5-DIMETHYL-1,2,3,4-TETRAHYDROPYRIMIDO(1,6-A)INDOLE
Structure: 322C352D44494D455448594C2D312C322C332C342D5445545241485944524F505952494D49444F28312C362D4129494E444F4C452E6D6F6C0A20204368656D447261773132323130393031333032440A2031352031372020302020302020302020302020302020302020302020303939392056323030300A20202020302E3138343220202020302E3533383520202020302E30303030204E202020302020302020302020302020302020302020302020302020302020302020302020300A20202020302E323730342020202D302E3238323020202020302E303030302043202020302020302020302020302020302020302020302020302020302020302020302020300A2020202D302E343833322020202D302E3631373520202020302E303030302043202020302020302020302020302020302020302020302020302020302020302020302020300A2020202D312E303335332020202D302E3030343420202020302E303030302043202020302020302020302020302020302020302020302020302020302020302020302020300A2020202D312E383630332020202D302E3030343420202020302E303030302043202020302020302020302020302020302020302020302020302020302020302020302020300A2020202D322E3237323820202020302E3731303020202020302E303030302043202020302020302020302020302020302020302020302020302020302020302020302020300A2020202D312E3836303320202020312E3432343520202020302E303030302043202020302020302020302020302020302020302020302020302020302020302020302020300A2020202D312E3033353320202020312E3432343520202020302E303030302043202020302020302020302020302020302020302020302020302020302020302020302020300A2020202D302E3632323820202020302E3731303020202020302E303030302043202020302020302020302020302020302020302020302020302020302020302020302020300A20202020302E3835313620202020312E3032333420202020302E303030302043202020302020302020302020302020302020302020302020302020302020302020302020300A20202020312E3630353320202020302E3638373920202020302E30303030204E202020302020302020302020302020302020302020302020302020302020302020302020300A20202020312E363931362020202D302E3133323620202020302E303030302043202020302020302020302020302020302020302020302020302020302020302020302020300A20202020312E303234312020202D302E3631373520202020302E303030302043202020302020302020302020302020302020302020302020302020302020302020302020300A2020202D302E363534382020202D312E3432343520202020302E303030302043202020302020302020302020302020302020302020302020302020302020302020302020300A20202020322E3237323820202020312E3137323820202020302E303030302043202020302020302020302020302020302020302020302020302020302020302020302020300A2020312020322020312020302020202020200A2020322020332020322020302020202020200A2020332020342020312020302020202020200A2020342020352020312020302020202020200A2020352020362020322020302020202020200A2020362020372020312020302020202020200A2020372020382020322020302020202020200A2020382020392020312020302020202020200A2020312020392020312020302020202020200A2020342020392020322020302020202020200A2031302031312020312020302020202020200A2031312031322020312020302020202020200A2031322031332020312020302020202020200A2020312031302020312020302020202020200A2020322031332020312020302020202020200A2020332031342020312020302020202020200A2031312031352020312020302020202020200A4D2020454E44
Contributor: SASAKI S, TOYOHASHI UNIV. OF TECH.
InstType: EI
InstName: JEOL JMS-01-SG-2
IoniMethod: _ENERGY 75 eV
IonPolarity: pos
Date: 2010-10-09 19:48:36+02:00
Num Peaks: 12
55 12 77 14 115 22 128 3 130 38 142 24 144 30 156 21 157 999 158 95 
199 14 200 372 
