Name: MassBank: JP004858
MW: 188
Formula: C13H16O
Synonym: MassBank: JP004858
Synonym: 1-BUTYLBICYCLO(3.2.2)NONA-3,6,8-TRIEN-2-ONE
Structure: 312D425554594C42494359434C4F28332E322E32294E4F4E412D332C362C382D545249454E2D322D4F4E452E6D6F6C0A20204368656D447261773131313830393030333432440A2032302032312020302020302020302020302020302020302020302020303939392056323030300A20202020302E3036343720202020302E3437303920202020302E303030302043202020302020302020302020302020302020302020302020302020302020302020302020300A20202020302E3936323120202020302E3730363220202020302E303030302043202020302020302020302020302020302020302020302020302020302020302020302020300A20202020312E3631383420202020302E3034393920202020302E303030302043202020302020302020302020302020302020302020302020302020302020302020302020300A20202020312E333934352020202D302E3834393120202020302E303030302043202020302020302020302020302020302020302020302020302020302020302020302020300A20202020302E353032332020202D312E3131323220202020302E303030302043202020302020302020302020302020302020302020302020302020302020302020302020300A20202020312E303835372020202D302E3532383920202020302E303030302043202020302020302020302020302020302020302020302020302020302020302020302020300A20202020302E3836303820202020302E3236383820202020302E303030302043202020302020302020302020302020302020302020302020302020302020302020302020300A2020202D302E353138362020202D302E3131323420202020302E303030302043202020302020302020302020302020302020302020302020302020302020302020302020300A2020202D302E323933372020202D302E3931303120202020302E303030302043202020302020302020302020302020302020302020302020302020302020302020302020300A20202020312E3137363720202020312E3530313020202020302E30303030204F202020302020302020302020302020302020302020302020302020302020302020302020300A2020202D302E3334393820202020312E3138393020202020302E303030302043202020302020302020302020302020302020302020302020302020302020302020302020300A2020202D312E3137353820202020312E3138393020202020302E303030302043202020302020302020302020302020302020302020302020302020302020302020302020300A2020202D312E3538383620202020302E3437343120202020302E303030302043202020302020302020302020302020302020302020302020302020302020302020302020300A2020202D322E3431333320202020302E3437343120202020302E303030302043202020302020302020302020302020302020302020302020302020302020302020302020300A20202020312E3433363520202020302E3835393720202020302E303030302048202020302020302020302020302020302020302020302020302020302020302020302020300A20202020312E383833392020202D302E3733373220202020302E303030302048202020302020302020302020302020302020302020302020302020302020302020302020300A20202020322E3431333320202020302E3237303520202020302E303030302048202020302020302020302020302020302020302020302020302020302020302020302020300A20202020312E393930322020202D312E3431393820202020302E303030302048202020302020302020302020302020302020302020302020302020302020302020302020300A2020202D312E3331363920202020302E3039353920202020302E303030302048202020302020302020302020302020302020302020302020302020302020302020302020300A2020202D302E383639342020202D312E3530313020202020302E303030302048202020302020302020302020302020302020302020302020302020302020302020302020300A2020312020322020312020302020202020200A2020322020332020312020302020202020200A2020332020342020322020302020202020200A2020342020352020312020302020202020200A2020352020362020312020302020202020200A2020362020372020322020302020202020200A2020382020392020322020302020202020200A2020312020372020312020302020202020200A2020312020382020312020302020202020200A2020352020392020312020302020202020200A2020322031302020322020302020202020200A2031312031322020312020302020202020200A2031322031332020312020302020202020200A2031332031342020312020302020202020200A2020312031312020312020302020202020200A2020372031352020312020302020202020200A2020362031362020312020302020202020200A2020332031372020312020302020202020200A2020342031382020312020302020202020200A2020382031392020312020302020202020200A2020392032302020312020302020202020200A4D2020454E44
Contributor: KATO T, DEPT. OF CHEM., FAC. OF SCI., TOHOKU UNIV.
InstType: EI
InstName: Unknown
IoniMethod: _ENERGY 14 eV
IonPolarity: pos
Date: 2010-10-09 19:48:36+02:00
Num Peaks: 5
131 999 146 253 160 105 172 5 188 177 
