Name: MassBank: JP009907
CAS: 950-99-2
MW: 220
Formula: C14H20O2
Synonym: MassBank: JP009907
Synonym: 2,2,5,7,8-PENTAMETHYLCHROMAN-6-OL
Synonym: 2,4-DIHYDRO-2,2,5,7,8-PENTAMETHYL-6-HYDROXY-2H-1-BENZOPYRANE
Structure: 322C322C352C372C382D50454E54414D455448594C4348524F4D414E2D362D4F4C2E6D6F6C0A20204368656D447261773132313930393134353332440A2031362031372020302020302020302020302020302020302020302020303939392056323030300A2020202D312E353430332020202D302E3731343520202020302E303030302043202020302020302020302020302020302020302020302020302020302020302020302020300A2020202D312E313237382020202D312E3432383920202020302E303030302043202020302020302020302020302020302020302020302020302020302020302020302020300A2020202D302E333032382020202D312E3432383920202020302E303030302043202020302020302020302020302020302020302020302020302020302020302020302020300A20202020302E313039372020202D302E3731343520202020302E303030302043202020302020302020302020302020302020302020302020302020302020302020302020300A20202020302E393334372020202D302E3731343520202020302E303030302043202020302020302020302020302020302020302020302020302020302020302020302020300A20202020312E3334373220202020302E3030303020202020302E303030302043202020302020302020302020302020302020302020302020302020302020302020302020300A20202020302E3933343720202020302E3731343520202020302E303030302043202020302020302020302020302020302020302020302020302020302020302020302020300A20202020302E3130393720202020302E3731343520202020302E303030302043202020302020302020302020302020302020302020302020302020302020302020302020300A2020202D302E333032382020202D302E3030303020202020302E303030302043202020302020302020302020302020302020302020302020302020302020302020302020300A2020202D312E313237382020202D302E3030303020202020302E30303030204F202020302020302020302020302020302020302020302020302020302020302020302020300A20202020322E3137323220202020302E3030303020202020302E30303030204F202020302020302020302020302020302020302020302020302020302020302020302020300A2020202D302E3330323820202020312E3432383920202020302E303030302043202020302020302020302020302020302020302020302020302020302020302020302020300A20202020312E3334373220202020312E3432383920202020302E303030302043202020302020302020302020302020302020302020302020302020302020302020302020300A20202020312E333437322020202D312E3432383920202020302E303030302043202020302020302020302020302020302020302020302020302020302020302020302020300A2020202D322E313732322020202D302E3138343220202020302E303030302043202020302020302020302020302020302020302020302020302020302020302020302020300A2020202D322E313732322020202D312E3234343820202020302E303030302043202020302020302020302020302020302020302020302020302020302020302020302020300A2020312020322020312020302020202020200A2020322020332020312020302020202020200A2020332020342020312020302020202020200A2020342020352020312020302020202020200A2020352020362020322020302020202020200A2020362020372020312020302020202020200A2020372020382020322020302020202020200A2020382020392020312020302020202020200A2020342020392020322020302020202020200A2020392031302020312020302020202020200A2020312031302020312020302020202020200A2020362031312020312020302020202020200A2020382031322020312020302020202020200A2020372031332020312020302020202020200A2020352031342020312020302020202020200A2020312031352020312020312020202020200A2020312031362020312020362020202020200A4D2020454E44
Contributor: KURARAY CO., LTD.
InstType: EI
InstName: JEOL JMS-D-300
IoniMethod: _ENERGY 70 eV
IonPolarity: pos
Date: 2010-10-09 19:48:36+02:00
Num Peaks: 51
27 53 28 373 29 33 32 103 39 67 40 16 41 76 43 72 44 13 51 30 
53 84 55 48 57 28 65 40 67 52 69 38 77 70 79 67 81 30 83 30 
91 85 93 33 105 41 107 47 115 30 119 34 121 106 133 28 135 63 136 120 
137 62 147 43 149 36 161 42 162 18 163 49 164 980 165 999 166 178 175 103 
176 73 177 57 188 27 189 40 191 16 203 69 204 36 205 65 218 83 219 60 
220 800 
