Name: MassBank: JP000958
CAS: 79-00-5
MW: 131
Formula: C2H3Cl3
Synonym: MassBank: JP000958
Synonym: 1,1,2-TRICHLOROETHANE
Structure: 310A31340A312C312C322D54524943484C4F524F455448414E452E6D6F6C0A20204368656D447261773130323330393031333832440A2020352020342020302020302020302020302020302020302020302020303939392056323030300A2020202D302E3431323520202020302E3030303520202020302E303030302043202020302020302020302020302020302020302020302020302020302020302020302020300A20202020302E3431323520202020302E3030313620202020302E303030302043202020302020302020302020302020302020302020302020302020302020302020302020300A20202020302E383235392020202D302E3731323420202020302E3030303020436C2020302020302020302020302020302020302020302020302020302020302020302020300A2020202D302E3832353920202020302E3731343520202020302E3030303020436C2020302020302020302020302020302020302020302020302020302020302020302020300A2020202D302E383234312020202D302E3731343520202020302E3030303020436C2020302020302020302020302020302020302020302020302020302020302020302020300A2020312020322020312020302020202020200A2020322020332020312020302020202020200A2020312020342020312020302020202020200A2020312020352020312020302020202020200A4D2020454E44
Contributor: KOGA M, UNIV. OF OCCUPATIONAL AND ENVIRONMENTAL HEALTH
InstType: EI
InstName: JEOL JMS-01-SG
IoniMethod: _ENERGY 70 eV
IonPolarity: pos
Date: 2010-10-09 19:48:36+02:00
Num Peaks: 26
25 29 26 102 27 78 35 8 36 23 37 26 47 41 48 3 49 78 60 93 
61 547 62 10 63 177 83 760 85 530 87 8 95 50 96 283 97 999 98 21 
99 617 100 44 101 98 132 16 134 158 136 49 
