Name: ISOBUTYLENE
CAS: 115-11-7
MW: 56
Formula: C4H8
Synonym: MassBank: JP001579
Synonym: ISOBUTYLENE
Synonym: 2-METHYLE-1-PROPENE
Structure: 310A31320A49534F425554594C454E452E6D6F6C0A20204368656D447261773031323231303037353332440A2020342020332020302020302020302020302020302020302020302020303939392056323030300A20202020302E3631383820202020302E3731343520202020302E303030302043202020302020302020302020302020302020302020302020302020302020302020302020300A20202020302E323036322020202D302E3030303020202020302E303030302043202020302020302020302020302020302020302020302020302020302020302020302020300A20202020302E363138382020202D302E3731343520202020302E303030302043202020302020302020302020302020302020302020302020302020302020302020302020300A2020202D302E363138382020202D302E3030303020202020302E303030302043202020302020302020302020302020302020302020302020302020302020302020302020300A2020312020322020322020302020202020200A2020322020332020312020302020202020200A2020322020342020312020302020202020200A4D2020454E44
Contributor: MASS SPECTROSCOPY SOC. OF JAPAN (MSSJ)
InstType: EI
InstName: HITACHI RMU-5B
IoniMethod: _ENERGY 80 eV
IonPolarity: pos
Date: 2010-10-09 19:48:36+02:00
Num Peaks: 22
14 20 15 56 26 58 27 199 28 201 29 97 30 12 37 63 38 89 39 521 
40 127 41 999 42 39 49 24 50 70 51 55 52 14 53 56 54 29 55 183 
56 451 57 21 
