Name: MassBank: JP009440
MW: 206
Formula: C11H10S2
Synonym: MassBank: JP009440
Synonym: 2,3-DIMETHYLTHIOCHROMOTHIONE
Structure: 322C332D44494D455448594C5448494F4348524F4D4F5448494F4E452E6D6F6C0A20204368656D447261773132323030393132303832440A2031332031342020302020302020302020302020302020302020302020303939392056323030300A2020202D312E3738363220202020302E3832353020202020302E303030302043202020302020302020302020302020302020302020302020302020302020302020302020300A2020202D312E3738363220202020302E3030303020202020302E303030302043202020302020302020302020302020302020302020302020302020302020302020302020300A2020202D312E303731372020202D302E3431323520202020302E303030302043202020302020302020302020302020302020302020302020302020302020302020302020300A2020202D302E3335373220202020302E3030303020202020302E303030302043202020302020302020302020302020302020302020302020302020302020302020302020300A2020202D302E3335373220202020302E3832353020202020302E303030302043202020302020302020302020302020302020302020302020302020302020302020302020300A2020202D312E3037313720202020312E3233373520202020302E303030302043202020302020302020302020302020302020302020302020302020302020302020302020300A20202020302E333537322020202D302E3431323520202020302E303030302043202020302020302020302020302020302020302020302020302020302020302020302020300A20202020312E3037313720202020302E3030303020202020302E303030302043202020302020302020302020302020302020302020302020302020302020302020302020300A20202020312E3037313720202020302E3832353020202020302E303030302043202020302020302020302020302020302020302020302020302020302020302020302020300A20202020302E3335373220202020312E3233373520202020302E303030302053202020302020302020302020302020302020302020302020302020302020302020302020300A20202020312E3738363220202020312E3233373520202020302E303030302043202020302020302020302020302020302020302020302020302020302020302020302020300A20202020312E373836322020202D302E3431323520202020302E303030302043202020302020302020302020302020302020302020302020302020302020302020302020300A20202020302E333537322020202D312E3233373520202020302E303030302053202020302020302020302020302020302020302020302020302020302020302020302020300A2020312020322020322020302020202020200A2020322020332020312020302020202020200A2020332020342020322020302020202020200A2020342020352020312020302020202020200A2020352020362020322020302020202020200A2020362020312020312020302020202020200A2020342020372020312020302020202020200A2020372020382020312020302020202020200A2020382020392020322020302020202020200A2020392031302020312020302020202020200A2031302020352020312020302020202020200A2020392031312020312020302020202020200A2020382031322020312020302020202020200A2020372031332020322020302020202020200A4D2020454E44
Contributor: EGUCHI S, FAC. OF SCIENCE, HIROSHIMA UNIV.
InstType: EI
InstName: HITACHI RMU-7L
IoniMethod: _ENERGY 70 eV
IonPolarity: pos
Date: 2010-10-09 19:48:36+02:00
Num Peaks: 136
41 20 42 10 43 15 44 10 45 125 46 10 47 15 50 30 51 60 52 10 
53 25 54 10 55 10 56 10 57 15 58 20 59 60 60 10 61 15 62 25 
63 30 64 10 65 15 66 10 67 10 68 10 69 80 70 10 71 15 72 10 
73 10 74 20 75 25 76 20 77 70 78 10 79 10 80 10 81 15 82 25 
83 10 84 10 85 15 86 20 87 20 88 15 89 30 90 10 91 10 92 15 
93 35 94 10 95 20 96 10 97 15 99 10 100 15 101 15 102 25 103 20 
104 10 105 15 106 10 107 10 108 80 109 15 110 10 111 10 112 10 113 15 
114 25 115 60 116 10 117 10 118 10 119 10 121 25 122 10 123 10 125 10 
126 15 127 35 128 75 129 95 130 10 131 10 132 15 133 10 134 20 135 10 
136 10 137 10 139 25 140 10 141 20 142 10 143 10 145 25 146 20 147 140 
148 30 149 10 151 10 152 15 153 25 154 10 157 10 158 30 159 15 160 90 
161 80 162 40 163 15 164 10 165 10 169 10 170 15 171 90 172 45 173 380 
174 60 175 25 176 10 178 10 179 15 190 65 191 125 192 55 193 20 194 10 
204 10 205 230 206 999 207 150 208 115 209 10 
