Name: S-METHYL-L-CYSTEINE
CAS: 1187-84-4
MW: 135
Formula: C4H9NO2S
Synonym: MassBank: JP006302
Synonym: S-METHYL-L-CYSTEINE
Structure: 310A32300A532D4D455448594C2D4C2D4359535445494E452E6D6F6C0A20204368656D447261773038313231303036333632440A2020382020372020302020302020302020302020302020302020302020303939392056323030300A20202020312E303731372020202D302E3230363220202020302E303030302043202020302020302020302020302020302020302020302020302020302020302020302020300A20202020302E3335373220202020312E3033313320202020302E30303030204E202020302020302020302020302020302020302020302020302020302020302020302020300A20202020302E3335373220202020302E3230363220202020302E303030302043202020302020302020302020302020302020302020302020302020302020302020302020300A2020202D302E333537322020202D302E3230363220202020302E303030302043202020302020302020302020302020302020302020302020302020302020302020302020300A2020202D312E3037313720202020302E3230363220202020302E303030302053202020302020302020302020302020302020302020302020302020302020302020302020300A20202020312E303731372020202D312E3033313320202020302E30303030204F202020302020302020302020302020302020302020302020302020302020302020302020300A20202020312E3738363220202020302E3230363220202020302E30303030204F202020302020302020302020302020302020302020302020302020302020302020302020300A2020202D312E373836322020202D302E3230363220202020302E303030302043202020302020302020302020302020302020302020302020302020302020302020302020300A2020332020322020312020362020202020200A2020312020332020312020302020202020200A2020332020342020312020302020202020200A2020342020352020312020302020202020200A2020312020362020322020302020202020200A2020312020372020312020302020202020200A2020352020382020312020302020202020200A4D2020454E44
Contributor: MASS SPECTROSCOPY SOC. OF JAPAN (MSSJ)
InstType: EI
InstName: HITACHI M-80
IoniMethod: _ENERGY 70 eV
IonPolarity: pos
Date: 2010-10-09 19:48:36+02:00
Num Peaks: 65
12 13 13 16 14 71 15 308 16 172 17 235 18 165 19 28 26 43 27 270 
28 964 29 143 30 285 31 13 32 32 33 14 34 10 35 180 36 16 37 10 
38 11 39 25 40 73 41 217 42 670 43 752 44 209 45 744 46 409 47 297 
48 67 49 24 53 8 54 6 55 18 56 20 57 33 58 57 59 44 60 19 
61 999 62 574 63 71 64 29 69 5 70 15 71 7 72 11 73 39 74 527 
75 134 76 14 77 7 87 64 88 15 89 12 90 290 91 19 92 14 103 9 
118 18 119 26 135 112 136 18 137 6 
