Name: MassBank: JP004392
MW: 234
Formula: C12H14N2O3
Synonym: MassBank: JP004392
Synonym: 7-METHOXY-1,2,3-TRIMETHYL-6-NITROINDOLE
Structure: 372D4D4554484F58592D312C322C332D5452494D455448594C2D362D4E4954524F494E444F4C452E6D6F6C0A20204368656D447261773035323131303035353232440A2031372031382020302020302020302020302020302020302020302020303939392056323030300A2020202D302E3737393420202020302E3631373520202020302E30303030204E202020302020302020302020302020302020302020302020302020302020302020302020300A2020202D312E3533333120202020302E3238323020202020302E303030302043202020302020302020302020302020302020302020302020302020302020302020302020300A2020202D312E343436392020202D302E3533383520202020302E303030302043202020302020302020302020302020302020302020302020302020302020302020302020300A2020202D302E363339392020202D302E3731303020202020302E303030302043202020302020302020302020302020302020302020302020302020302020302020302020300A2020202D302E323237342020202D312E3432343520202020302E303030302043202020302020302020302020302020302020302020302020302020302020302020302020300A20202020302E353937362020202D312E3432343520202020302E303030302043202020302020302020302020302020302020302020302020302020302020302020302020300A20202020312E303130312020202D302E3731303020202020302E303030302043202020302020302020302020302020302020302020302020302020302020302020302020300A20202020302E3539373620202020302E3030343420202020302E303030302043202020302020302020302020302020302020302020302020302020302020302020302020300A2020202D302E3232373420202020302E3030343420202020302E303030302043202020302020302020302020302020302020302020302020302020302020302020302020300A20202020312E383335312020202D302E3731303020202020302E30303030204E202020302020332020302020302020302020302020302020302020302020302020302020300A20202020322E323437362020202D312E3432343520202020302E30303030204F202020302020302020302020302020302020302020302020302020302020302020302020300A20202020322E3234373620202020302E3030343420202020302E30303030204F202020302020352020302020302020302020302020302020302020302020302020302020300A2020202D322E303630302020202D312E3039303520202020302E303030302043202020302020302020302020302020302020302020302020302020302020302020302020300A2020202D322E3234373620202020302E3639343520202020302E303030302043202020302020302020302020302020302020302020302020302020302020302020302020300A2020202D302E3630373920202020312E3432343520202020302E303030302043202020302020302020302020302020302020302020302020302020302020302020302020300A20202020312E3031303120202020302E3731383920202020302E30303030204F202020302020302020302020302020302020302020302020302020302020302020302020300A20202020312E3833353120202020302E3731383920202020302E303030302043202020302020302020302020302020302020302020302020302020302020302020302020300A2020312020322020312020302020202020200A2020322020332020322020302020202020200A2020332020342020312020302020202020200A2020342020352020312020302020202020200A2020352020362020322020302020202020200A2020362020372020312020302020202020200A2020372020382020322020302020202020200A2020382020392020312020302020202020200A2020312020392020312020302020202020200A2020342020392020322020302020202020200A2031302031312020322020302020202020200A2031302031322020312020302020202020200A2020372031302020312020302020202020200A2020332031332020312020302020202020200A2020322031342020312020302020202020200A2020312031352020312020302020202020200A2031362031372020312020302020202020200A2020382031362020312020302020202020200A4D202043484720203220203130202020312020313220202D310A4D2020454E44
Contributor: SASAKI S, TOYOHASHI UNIV. OF TECH.
InstType: EI
InstName: MX-1303
IoniMethod: _ENERGY 50 eV
IonPolarity: pos
Date: 2010-10-09 19:48:36+02:00
Num Peaks: 63
43 26 44 13 45 160 55 1 56 18 57 31 60 31 69 16 70 13 71 23 
73 32 81 5 82 15 83 23 84 16 85 2 86 13 95 18 97 21 98 1 
109 11 111 11 115 10 117 1 121 23 123 14 127 10 129 2 130 21 136 18 
137 27 143 2 144 36 145 42 146 11 149 1 157 16 158 50 159 20 160 2 
161 47 171 14 172 78 173 12 174 105 175 18 185 24 186 3 187 999 188 200 
189 105 190 2 191 30 202 25 203 62 204 3 205 13 216 21 217 970 218 13 
219 13 234 864 235 96 
