Name: MassBank: JP008010
MW: 394
Formula: C23H38O5
Synonym: MassBank: JP008010
Synonym: METHYL (2XI,4AS,5S,8AS)-2,5BETA-DIMETHYL-8ABETA-METHOXYMETHOXYMETHYL-5ALPHA-(4-METHYL-3-PENTENYL)-3,4,4A,5,6,7,8,8A-OCTAHYDRONAPHTHALEN-1-OXO-2-CARBOXYLATE
Structure: 303436365F4D455448594C20283258492C3441532C35532C384153292D322C35424554412D44494D455448594C2D3841424554412D4D4554484F58594D4554484F58594D455448594C2D35414C5048412D28342D4D455448594C2D332D50454E54454E594C292D332C342C34412C352C362C372C382C38412D4F435441485944524F4E4150485448414C454E2D312D4F584F2D322D434152424F58594C4154452E6D6F6C0A20204368656D447261773130313931303231323232440A2032392033302020302020302020302020302020302020302020302020303939392056323030300A2020202D302E3731343520202020302E3130303520202020302E303030302043202020302020302020302020302020302020302020302020302020302020302020302020300A2020202D302E373134352020202D302E3732343520202020302E303030302043202020302020302020302020302020302020302020302020302020302020302020302020300A20202020302E303030302020202D312E3133373020202020302E303030302043202020302020302020302020302020302020302020302020302020302020302020302020300A20202020302E373134352020202D302E3732343520202020302E303030302043202020302020302020302020302020302020302020302020302020302020302020302020300A20202020302E3731343520202020302E3130303520202020302E303030302043202020302020302020302020302020302020302020302020302020302020302020302020300A20202020302E3030303020202020302E3531333020202020302E303030302043202020302020302020302020302020302020302020302020302020302020302020302020300A20202020312E343238392020202D312E3133373020202020302E303030302043202020302020302020302020302020302020302020302020302020302020302020302020300A20202020322E313433342020202D302E3732343520202020302E303030302043202020302020302020302020302020302020302020302020302020302020302020302020300A20202020322E3134333420202020302E3130303520202020302E303030302043202020302020302020302020302020302020302020302020302020302020302020302020300A20202020312E3432383920202020302E3531333020202020302E303030302043202020302020302020302020302020302020302020302020302020302020302020302020300A20202020302E303030302020202D312E3936323020202020302E30303030204F202020302020302020302020302020302020302020302020302020302020302020302020300A2020202D312E343238392020202D312E3133373020202020302E303030302043202020302020302020302020302020302020302020302020302020302020302020302020300A20202020322E3034343620202020312E3036323220202020302E303030302043202020302020302020302020302020302020302020302020302020302020302020302020300A20202020302E373134352020202D312E3534393520202020302E303030302043202020302020302020302020302020302020302020302020302020302020302020302020300A20202020302E3934353620202020312E3138313620202020302E303030302043202020302020302020302020302020302020302020302020302020302020302020302020300A20202020302E3635303220202020302E3932333020202020302E303030302048202020302020302020302020302020302020302020302020302020302020302020302020300A20202020312E3238323920202020312E3933343520202020302E303030302043202020302020302020302020302020302020302020302020302020302020302020302020300A20202020302E3739393520202020322E3630333020202020302E303030302043202020302020302020302020302020302020302020302020302020302020302020302020300A20202020312E3133363820202020332E3335353920202020302E303030302043202020302020302020302020302020302020302020302020302020302020302020302020300A20202020302E3635333420202020342E3032343520202020302E303030302043202020302020302020302020302020302020302020302020302020302020302020302020300A20202020312E3935373420202020332E3434303320202020302E303030302043202020302020302020302020302020302020302020302020302020302020302020302020300A20202020312E343238392020202D312E3936323020202020302E30303030204F202020302020302020302020302020302020302020302020302020302020302020302020300A20202020312E343238392020202D322E3738373020202020302E303030302043202020302020302020302020302020302020302020302020302020302020302020302020300A20202020322E313433342020202D332E3139393520202020302E30303030204F202020302020302020302020302020302020302020302020302020302020302020302020300A20202020322E313433342020202D342E3032343520202020302E303030302043202020302020302020302020302020302020302020302020302020302020302020302020300A2020202D322E313433342020202D302E3732343520202020302E30303030204F202020302020302020302020302020302020302020302020302020302020302020302020300A2020202D312E343238392020202D312E3936323020202020302E30303030204F202020302020302020302020302020302020302020302020302020302020302020302020300A2020202D322E313433342020202D322E3337343520202020302E303030302043202020302020302020302020302020302020302020302020302020302020302020302020300A2020202D312E323735392020202D302E3132303020202020302E303030302043202020302020302020302020302020302020302020302020302020302020302020302020300A2020312020322020312020302020202020200A2020322020332020312020302020202020200A2020332020342020312020302020202020200A2020342020352020312020302020202020200A2020352020362020312020302020202020200A2020362020312020312020302020202020200A2020342020372020312020302020202020200A2020372020382020312020302020202020200A2020382020392020312020302020202020200A2020392031302020312020302020202020200A2031302020352020312020302020202020200A2020332031312020322020302020202020200A2020322031322020312020302020202020200A2031302031332020312020312020202020200A2020342031342020312020312020202020200A2031302031352020312020362020202020200A2020352031362020312020362020202020200A2031352031372020312020302020202020200A2031372031382020312020302020202020200A2031382031392020322020302020202020200A2031392032302020312020302020202020200A2031392032312020312020302020202020200A2031342032322020312020302020202020200A2032322032332020312020302020202020200A2032332032342020312020302020202020200A2032342032352020312020302020202020200A2031322032362020322020302020202020200A2031322032372020312020302020202020200A2032372032382020312020302020202020200A2020322032392020312020302020202020200A4D2020454E44
Contributor: HISAHIRO HAGIWARA, CHEMICAL RESEARCH INSTITUTE OF NON-AQUEOUSSOLUTIONS TOHOKU UNIV.
InstType: EI
InstName: JEOL JMS-DX-300
IoniMethod: _ENERGY 70 eV
IonPolarity: pos
Date: 2010-10-09 19:48:36+02:00
Num Peaks: 51
41 732 43 222 44 218 45 999 55 453 67 272 69 918 79 25 81 426 82 390 
83 390 93 430 94 287 95 403 96 323 97 207 105 247 107 381 108 295 109 443 
119 219 120 215 121 503 122 446 123 345 134 329 135 466 136 363 137 266 149 464 
151 245 161 513 163 366 173 258 175 516 177 39 189 353 191 275 192 223 203 216 
219 240 221 257 232 258 236 853 250 451 259 671 262 308 303 204 319 671 363 398 
394 311 
