Name: MassBank: JP004305
CAS: 21296-92-4
MW: 159
Formula: C11H13N
Synonym: MassBank: JP004305
Synonym: 2,3,5-TRIMETHYLINDOLE
Structure: 322C332C352D5452494D455448594C494E444F4C452E6D6F6C0A20204368656D447261773132323030393038333232440A2031322031332020302020302020302020302020302020302020302020303939392056323030300A2020202D302E383039312020202D302E3938313020202020302E30303030204E202020302020302020302020302020302020302020302020302020302020302020302020300A2020202D312E323934302020202D302E3331333520202020302E303030302043202020302020302020302020302020302020302020302020302020302020302020302020300A2020202D302E3830393120202020302E3335333920202020302E303030302043202020302020302020302020302020302020302020302020302020302020302020302020300A2020202D302E3032343420202020302E3039393020202020302E303030302043202020302020302020302020302020302020302020302020302020302020302020302020300A20202020302E3639303020202020302E3531313520202020302E303030302043202020302020302020302020302020302020302020302020302020302020302020302020300A20202020312E3430343520202020302E3039393020202020302E303030302043202020302020302020302020302020302020302020302020302020302020302020302020300A20202020312E343034352020202D302E3732363020202020302E303030302043202020302020302020302020302020302020302020302020302020302020302020302020300A20202020302E363930302020202D312E3133383520202020302E303030302043202020302020302020302020302020302020302020302020302020302020302020302020300A2020202D302E303234342020202D302E3732363020202020302E303030302043202020302020302020302020302020302020302020302020302020302020302020302020300A20202020322E3131393020202020302E3531313520202020302E303030302043202020302020302020302020302020302020302020302020302020302020302020302020300A2020202D312E3036343020202020312E3133383520202020302E303030302043202020302020302020302020302020302020302020302020302020302020302020302020300A2020202D322E313139302020202D302E3331333520202020302E303030302043202020302020302020302020302020302020302020302020302020302020302020302020300A2020312020322020312020302020202020200A2020322020332020322020302020202020200A2020332020342020312020302020202020200A2020342020352020312020302020202020200A2020352020362020322020302020202020200A2020362020372020312020302020202020200A2020372020382020322020302020202020200A2020382020392020312020302020202020200A2020312020392020312020302020202020200A2020342020392020322020302020202020200A2020362031302020312020302020202020200A2020332031312020312020302020202020200A2020322031322020312020302020202020200A4D2020454E44
Contributor: SASAKI S, TOYOHASHI UNIV. OF TECH.
InstType: EI
InstName: MX-1303
IoniMethod: _ENERGY 50 eV
IonPolarity: pos
Date: 2010-10-09 19:48:36+02:00
Num Peaks: 41
27 11 39 24 42 10 51 3 52 13 58.5 15 63 26 64 1 65 38 65.5 12 
71.5 63 72 1 75 10 77 38 77.5 14 78 2 78.5 80 79 19 79.5 39 89 2 
91 44 102 16 103 13 115 10 116 37 117 25 127 14 128 3 129 17 130 21 
141 14 142 5 143 98 144 426 145 54 154 2 156 94 157 97 158 999 159 85 
160 102 
