Name: DIETHYLENE GLYCOL MONOMETHYL ETHER
CAS: 111-77-3
MW: 120
Formula: C5H12O3
Synonym: MassBank: JP009059
Synonym: DIETHYLENE GLYCOL MONOMETHYL ETHER
Synonym: 2-(2-METHOXYETHOXY)ETHNOL
Structure: 310A32300A4449455448594C454E4520474C59434F4C204D4F4E4F4D455448594C2045544845522E6D6F6C0A20204368656D447261773132323130393133353832440A2020382020372020302020302020302020302020302020302020302020303939392056323030300A20202020312E3037313720202020302E3230363320202020302E303030302043202020302020302020302020302020302020302020302020302020302020302020302020300A20202020302E333537322020202D302E3230363320202020302E303030302043202020302020302020302020302020302020302020302020302020302020302020302020300A20202020312E373836322020202D302E3230363320202020302E30303030204F202020302020302020302020302020302020302020302020302020302020302020302020300A2020202D302E3335373220202020302E3230363220202020302E30303030204F202020302020302020302020302020302020302020302020302020302020302020302020300A2020202D312E303731372020202D302E3230363320202020302E303030302043202020302020302020302020302020302020302020302020302020302020302020302020300A2020202D312E3738363220202020302E3230363220202020302E303030302043202020302020302020302020302020302020302020302020302020302020302020302020300A2020202D322E353030362020202D302E3230363320202020302E30303030204F202020302020302020302020302020302020302020302020302020302020302020302020300A20202020322E3530303620202020302E3230363320202020302E303030302043202020302020302020302020302020302020302020302020302020302020302020302020300A2020312020322020312020302020202020200A2020312020332020312020302020202020200A2020322020342020312020302020202020200A2020352020362020312020302020202020200A2020362020372020312020302020202020200A2020342020352020312020302020202020200A2020332020382020312020302020202020200A4D2020454E44
Contributor: SODA AROMATIC CO., LTD.
InstType: EI
InstName: HITACHI M-80B
IoniMethod: _ENERGY 70 eV
IonPolarity: pos
Date: 2010-10-09 19:48:36+02:00
Num Peaks: 21
15 101 19 24 26 13 27 84 28 23 29 203 30 11 31 237 33 14 42 15 
43 130 44 41 45 999 46 17 58 231 59 423 60 48 75 97 87 14 89 108 
90 125 
