Name: ALLYL FORMATE
MW: 86
Formula: C4H6O2
Synonym: MassBank: JP006459
Synonym: ALLYL FORMATE
Synonym: 2-PROPENYL FORMATE
Structure: 310A31360A414C4C594C20464F524D4154452E6D6F6C0A20204368656D447261773032323131303134353332440A2020362020352020302020302020302020302020302020302020302020303939392056323030300A2020202D312E303731372020202D302E3230363320202020302E303030302043202020302020302020302020302020302020302020302020302020302020302020302020300A2020202D312E3738363220202020302E3230363320202020302E30303030204F202020302020302020302020302020302020302020302020302020302020302020302020300A2020202D302E3335373220202020302E3230363320202020302E30303030204F202020302020302020302020302020302020302020302020302020302020302020302020300A20202020302E333537322020202D302E3230363220202020302E303030302043202020302020302020302020302020302020302020302020302020302020302020302020300A20202020312E3037313720202020302E3230363320202020302E303030302043202020302020302020302020302020302020302020302020302020302020302020302020300A20202020312E373836322020202D302E3230363220202020302E303030302043202020302020302020302020302020302020302020302020302020302020302020302020300A2020312020322020322020302020202020200A2020312020332020312020302020202020200A2020342020352020312020302020202020200A2020352020362020322020302020202020200A2020332020342020312020302020202020200A4D2020454E44
Contributor: HISAHIRO HAGIWARA, CHEMICAL RESEARCH INSTITUTE OF NON-AQUEOUSSOLUTIONS TOHOKU UNIV.
InstType: EI
InstName: HITACHI M-80B
IoniMethod: _ENERGY 70 eV
IonPolarity: pos
Date: 2010-10-09 19:48:36+02:00
Num Peaks: 20
15 13 26 57 27 154 28 75 29 325 30 78 31 188 37 33 38 80 39 509 
40 175 41 229 42 13 43 32 44 12 47 25 55 28 57 999 58 261 59 11 
