Name: PIPERIC ACID
MW: 218
Formula: C12H10O4
Synonym: MassBank: JP001406
Synonym: PIPERIC ACID
Synonym: 5-(3,4-METHYLENEDIOXYPHENYL)-2,4-PENTADIENOIC ACID
Structure: 5049504552494320414349442E6D6F6C0A20204368656D447261773034323331303033303832440A2032302032312020302020302020302020302020302020302020302020303939392056323030300A20202020322E3731353420202020312E3032313020202020302E303030302043202020302020302020302020302020302020302020302020302020302020302020302020300A20202020312E3839303420202020312E3032313020202020302E303030302043202020302020302020302020302020302020302020302020302020302020302020302020300A20202020312E3437373920202020302E3330363520202020302E303030302043202020302020302020302020302020302020302020302020302020302020302020302020300A20202020302E3635323920202020302E3330363520202020302E303030302043202020302020302020302020302020302020302020302020302020302020302020302020300A20202020302E323430342020202D302E3430373920202020302E303030302043202020302020302020302020302020302020302020302020302020302020302020302020300A20202020332E3132373920202020312E3733353520202020302E30303030204F202020302020302020302020302020302020302020302020302020302020302020302020300A20202020332E3132373920202020302E3330363520202020302E30303030204F202020302020302020302020302020302020302020302020302020302020302020302020300A2020202D302E353834362020202D302E3430373920202020302E303030302043202020302020302020302020302020302020302020302020302020302020302020302020300A2020202D302E393937312020202D312E3132323420202020302E303030302043202020302020302020302020302020302020302020302020302020302020302020302020300A2020202D312E383232312020202D312E3132323420202020302E303030302043202020302020302020302020302020302020302020302020302020302020302020302020300A2020202D322E323334362020202D302E3430373920202020302E303030302043202020302020302020302020302020302020302020302020302020302020302020302020300A2020202D312E3832323120202020302E3330363520202020302E303030302043202020302020302020302020302020302020302020302020302020302020302020302020300A2020202D302E3939373120202020302E3330363520202020302E303030302043202020302020302020302020302020302020302020302020302020302020302020302020300A2020202D332E313237392020202D312E3339393920202020302E303030302043202020302020302020302020302020302020302020302020302020302020302020302020300A2020202D322E333734322020202D312E3733353520202020302E30303030204F202020302020302020302020302020302020302020302020302020302020302020302020300A2020202D332E303431362020202D302E3537393520202020302E30303030204F202020302020302020302020302020302020302020302020302020302020302020302020300A20202020302E363532392020202D312E3132323420202020302E303030302048202020302020302020302020302020302020302020302020302020302020302020302020300A20202020302E3234303420202020312E3032313020202020302E303030302048202020302020302020302020302020302020302020302020302020302020302020302020300A20202020312E383930342020202D302E3430373920202020302E303030302048202020302020302020302020302020302020302020302020302020302020302020302020300A20202020312E3437373920202020312E3733353520202020302E303030302048202020302020302020302020302020302020302020302020302020302020302020302020300A2020312020322020312020302020202020200A2020322020332020322020302020202020200A2020332020342020312020302020202020200A2020342020352020322020302020202020200A2020312020362020322020302020202020200A2020312020372020312020302020202020200A2020382020392020312020302020202020200A2020392031302020322020302020202020200A2031302031312020312020302020202020200A2031312031322020322020302020202020200A2031322031332020312020302020202020200A2020382031332020322020302020202020200A2031342031352020312020302020202020200A2031342031362020312020302020202020200A2031302031352020312020302020202020200A2031312031362020312020302020202020200A2020352020382020312020302020202020200A2020352031372020312020302020202020200A2020342031382020312020302020202020200A2020332031392020312020302020202020200A2020322032302020312020302020202020200A4D2020454E44
Contributor: HASHIMOTO K, KYOTO COLLEGE OF PHARMACY
InstType: EI
InstName: HITACHI M-80
IoniMethod: _ENERGY 20 eV
IonPolarity: pos
Date: 2010-10-09 19:48:36+02:00
Num Peaks: 17
103 33 114 31 115 666 116 14 117 61 130 37 131 40 143 42 144 69 145 25 
171 91 172 25 173 999 174 115 175 29 218 66 219 94 
