Name: TUBOCURARINE CHLORIDE
MW: 694
Formula: C38H44Cl2N2O6
Synonym: MassBank: JP002793
Synonym: TUBOCURARINE CHLORIDE
Structure: 303035375F5455424F4355524152494E452043484C4F524944452E6D6F6C0A20204368656D447261773038313931303233303432440A2034372035312020302020302020302020302020302020302020302020303939392056323030300A2020202D322E383439312020202D312E3534323420202020302E30303030204E202020302020302020302020302020302020302020302020302020302020302020302020300A2020202D322E383439312020202D322E3336373420202020302E303030302043202020302020302020302020302020302020302020302020302020302020302020302020300A2020202D322E313334362020202D322E3737393920202020302E303030302043202020302020302020302020302020302020302020302020302020302020302020302020300A2020202D312E343230322020202D322E3336373420202020302E303030302043202020302020302020302020302020302020302020302020302020302020302020302020300A2020202D312E343230322020202D312E3534323420202020302E303030302043202020302020302020302020302020302020302020302020302020302020302020302020300A2020202D322E313334362020202D312E3132393920202020302E303030302043202020302020302020302020302020302020302020302020302020302020302020302020300A2020202D302E373035372020202D322E3737393920202020302E303030302043202020302020302020302020302020302020302020302020302020302020302020302020300A20202020302E303038382020202D322E3336373420202020302E303030302043202020302020302020302020302020302020302020302020302020302020302020302020300A20202020302E303038382020202D312E3534323420202020302E303030302043202020302020302020302020302020302020302020302020302020302020302020302020300A2020202D302E373035372020202D312E3132393920202020302E303030302043202020302020302020302020302020302020302020302020302020302020302020302020300A2020202D322E313334362020202D302E3330343920202020302E303030302043202020302020302020302020302020302020302020302020302020302020302020302020300A2020202D312E3432303220202020302E3130373620202020302E303030302043202020302020302020302020302020302020302020302020302020302020302020302020300A2020202D302E373035372020202D302E3330343920202020302E303030302043202020302020302020302020302020302020302020302020302020302020302020302020300A20202020302E3030383820202020302E3130373620202020302E303030302043202020302020302020302020302020302020302020302020302020302020302020302020300A20202020302E3030383820202020302E3933323620202020302E303030302043202020302020302020302020302020302020302020302020302020302020302020302020300A2020202D302E3730353720202020312E3334353120202020302E303030302043202020302020302020302020302020302020302020302020302020302020302020302020300A2020202D312E3432303220202020302E3933323620202020302E303030302043202020302020302020302020302020302020302020302020302020302020302020302020300A20202020302E383333382020202D312E3534323420202020302E30303030204F202020302020302020302020302020302020302020302020302020302020302020302020300A20202020302E373233322020202D322E3737393920202020302E30303030204F202020302020302020302020302020302020302020302020302020302020302020302020300A20202020302E393336382020202D332E3537363820202020302E303030302043202020302020302020302020302020302020302020302020302020302020302020302020300A2020202D332E353633362020202D312E3132393920202020302E303030302043202020302020302020302020302020302020302020302020302020302020302020302020300A20202020312E343137312020202D302E3935393020202020302E303030302043202020302020302020302020302020302020302020302020302020302020302020302020300A20202020322E323432312020202D302E3935393020202020302E303030302043202020302020302020302020302020302020302020302020302020302020302020302020300A20202020322E363534362020202D302E3234343520202020302E303030302043202020302020302020302020302020302020302020302020302020302020302020302020300A20202020322E3234323120202020302E3436393920202020302E303030302043202020302020302020302020302020302020302020302020302020302020302020302020300A20202020312E3431373120202020302E3436393920202020302E303030302043202020302020302020302020302020302020302020302020302020302020302020302020300A20202020312E303034362020202D302E3234343520202020302E303030302043202020302020302020302020302020302020302020302020302020302020302020302020300A20202020322E363534362020202D312E3637333520202020302E30303030204F202020302020302020302020302020302020302020302020302020302020302020302020300A20202020312E3431373120202020312E3239343920202020302E303030302043202020302020302020302020302020302020302020302020302020302020302020302020300A20202020322E3035323220202020312E3836303820202020302E303030302043202020302020302020302020302020302020302020302020302020302020302020302020300A20202020322E3736363720202020322E3237333320202020302E30303030204E202020302020332020302020302020302020302020302020302020302020302020302020300A20202020322E3736363720202020332E3039383320202020302E303030302043202020302020302020302020302020302020302020302020302020302020302020302020300A20202020322E3035323220202020332E3531303820202020302E303030302043202020302020302020302020302020302020302020302020302020302020302020302020300A20202020312E3333373820202020332E3039383320202020302E303030302043202020302020302020302020302020302020302020302020302020302020302020302020300A20202020312E3333373820202020322E3237333320202020302E303030302043202020302020302020302020302020302020302020302020302020302020302020302020300A20202020302E3632333320202020332E3531303820202020302E303030302043202020302020302020302020302020302020302020302020302020302020302020302020300A2020202D302E3039313220202020332E3039383320202020302E303030302043202020302020302020302020302020302020302020302020302020302020302020302020300A2020202D302E3039313220202020322E3237333320202020302E303030302043202020302020302020302020302020302020302020302020302020302020302020302020300A20202020302E3632333320202020312E3836303820202020302E303030302043202020302020302020302020302020302020302020302020302020302020302020302020300A20202020302E3732333220202020312E3334353120202020302E30303030204F202020302020302020302020302020302020302020302020302020302020302020302020300A2020202D302E3838383120202020322E3035393720202020302E30303030204F202020302020302020302020302020302020302020302020302020302020302020302020300A2020202D302E3830353720202020332E3531303820202020302E30303030204F202020302020302020302020302020302020302020302020302020302020302020302020300A2020202D312E3532303120202020332E3039383320202020302E303030302043202020302020302020302020302020302020302020302020302020302020302020302020300A20202020322E3938303220202020312E3437363420202020302E303030302043202020302020302020302020302020302020302020302020302020302020302020302020300A20202020332E3536333620202020322E3438363820202020302E303030302043202020302020302020302020302020302020302020302020302020302020302020302020300A20202020332E3433393320202020332E3537363820202020302E3030303020436C2020302020352020302020302020302020302020302020302020302020302020302020300A20202020332E353532372020202D302E3231383220202020302E3030303020436C2020302020302020302020302020302020302020302020302020302020302020302020300A2020312020322020312020302020202020200A2020322020332020312020302020202020200A2020332020342020312020302020202020200A2020342020352020322020302020202020200A2020352020362020312020302020202020200A2020362020312020312020302020202020200A2020342020372020312020302020202020200A2020372020382020322020302020202020200A2020382020392020312020302020202020200A2020392031302020322020302020202020200A2031302020352020312020302020202020200A2020362031312020312020312020202020200A2031312031322020312020302020202020200A2031322031332020322020302020202020200A2031332031342020312020302020202020200A2031342031352020322020302020202020200A2031352031362020312020302020202020200A2031362031372020322020302020202020200A2031372031322020312020302020202020200A2020392031382020312020302020202020200A2020382031392020312020302020202020200A2031392032302020312020302020202020200A2020312032312020312020302020202020200A2031382032322020312020302020202020200A2032322032332020322020302020202020200A2032332032342020312020302020202020200A2032342032352020322020302020202020200A2032352032362020312020302020202020200A2032362032372020322020302020202020200A2032372032322020312020302020202020200A2032332032382020312020302020202020200A2032362032392020312020302020202020200A2033302032392020312020362020202020200A2033302033312020312020302020202020200A2033312033322020312020302020202020200A2033322033332020312020302020202020200A2033332033342020312020302020202020200A2033342033352020322020302020202020200A2033352033302020312020302020202020200A2033342033362020312020302020202020200A2033362033372020322020302020202020200A2033372033382020312020302020202020200A2033382033392020322020302020202020200A2033392033352020312020302020202020200A2031352034302020312020302020202020200A2033392034302020312020302020202020200A2033382034312020312020302020202020200A2033372034322020312020302020202020200A2034322034332020312020302020202020200A2033312034342020312020302020202020200A2033312034352020312020302020202020200A4D202043484720203220203331202020312020343620202D310A4D2020454E44
Contributor: SASAKI S, TOYOHASHI UNIV. OF TECH.
InstType: EI
InstName: Unknown
IoniMethod: EI
IonPolarity: pos
Date: 2010-10-09 19:48:36+02:00
Num Peaks: 241
35 7 36 24 37 1 38 1 39 9 40 7 41 29 42 4 43 34 44 24 
45 9 46 0 49 1 50 19 51 9 52 1 53 9 54 9 55 19 56 2 
57 49 58 269 59 59 60 1 61 1 64 9 65 1 66 1 67 7 68 7 
69 14 70 1 71 24 72 3 73 1 102 0 103 6 104 3 105 19 106 1 
107 9 108 3 109 3 110 0 129 3 130 9 131 13 132 3 133 19 134 14 
135 14 136 1 137 4 138 3 139 1 140 0 141 23 142 9 143 15 144 2 
145 33 146 24 147 14 148 3 149 19 150 3 153 1 154 0 155 3 156 29 
157 3 158 0 159 9 160 27 161 39 162 6 163 11 164 13 165 9 166 1 
167 3 171 1 172 9 173 0 174 54 175 29 176 39 177 3 178 24 179 9 
180 3 181 0 186 1 187 3 188 9 189 2 190 69 191 79 192 49 193 1 
194 9 195 9 196 9 197 1 198 9 199 9 200 3 259 0 260 1 261 1 
262 4 263 1 264 19 265 19 266 59 267 2 268 9 269 9 270 3 271 0 
272 1 278 3 279 4 280 2 281 31 282 39 283 29 284 3 285 9 286 3 
287 1 298 999 299 179 300 39 301 9 302 0 308 3 309 4 310 9 311 1 
312 39 313 9 314 4 383 0 384 4 385 19 386 9 387 1 388 9 389 7 
471 15 472 1 473 23 474 9 475 8 476 1 477 3 515 5 516 6 517 1 
518 14 519 9 520 13 521 1 522 3 523 4 531 4 532 2 533 14 534 29 
535 14 536 2 537 9 538 4 539 4 540 0 541 1 543 3 544 7 545 1 
546 14 547 29 548 39 549 4 550 59 551 24 552 13 553 1 554 3 560 4 
561 19 562 6 563 79 564 89 565 59 566 2 567 13 568 3 573 3 574 0 
575 19 576 24 577 29 578 2 579 39 580 29 581 14 582 0 583 2 589 4 
590 9 591 2 592 59 593 219 594 379 595 16 596 49 597 19 598 9 599 0 
603 1 604 3 605 9 606 2 607 39 608 84 609 169 610 8 611 29 612 14 
613 3 621 0 622 9 623 17 624 25 625 1 626 4 627 2 638 1 639 0 
640 3 
