Name: MassBank: JP004888
MW: 206
Formula: C14H22O
Synonym: MassBank: JP004888
Synonym: 3-(4-BUTYL-5,5-DIMETHYL-1,3-CYCLOPENTADIENYL)PROPANAL
Structure: 332D28342D425554594C2D352C352D44494D455448594C2D312C332D4359434C4F50454E54414449454E594C2950524F50414E414C2E6D6F6C0A20204368656D447261773032323231303130303832440A2031352031352020302020302020302020302020302020302020302020303939392056323030300A20202020302E3731303620202020322E3539303320202020302E303030302043202020302020302020302020302020302020302020302020302020302020302020302020300A20202020302E3731303620202020312E3736353320202020302E303030302043202020302020302020302020302020302020302020302020302020302020302020302020300A2020202D302E3030333920202020312E3335323820202020302E303030302043202020302020302020302020302020302020302020302020302020302020302020302020300A20202020312E3432353020202020332E3030323820202020302E30303030204F202020302020302020302020302020302020302020302020302020302020302020302020300A2020202D302E3030333920202020302E3532373820202020302E303030302043202020302020302020302020302020302020302020302020302020302020302020302020300A20202020302E3636333520202020302E3034323920202020302E303030302043202020302020302020302020302020302020302020302020302020302020302020302020300A20202020302E343038362020202D302E3734313820202020302E303030302043202020302020302020302020302020302020302020302020302020302020302020302020300A2020202D302E343136342020202D302E3734313820202020302E303030302043202020302020302020302020302020302020302020302020302020302020302020302020300A2020202D302E3637313420202020302E3034323920202020302E303030302043202020302020302020302020302020302020302020302020302020302020302020302020300A2020202D312E3038333920202020302E3735373320202020302E303030302043202020302020302020302020302020302020302020302020302020302020302020302020300A2020202D312E343235302020202D302E3239323720202020302E303030302043202020302020302020302020302020302020302020302020302020302020302020302020300A2020202D302E393031332020202D312E3430393220202020302E303030302043202020302020302020302020302020302020302020302020302020302020302020302020300A2020202D302E353635382020202D322E3136323920202020302E303030302043202020302020302020302020302020302020302020302020302020302020302020302020300A20202020302E323534372020202D322E3234393120202020302E303030302043202020302020302020302020302020302020302020302020302020302020302020302020300A20202020302E353930332020202D332E3030323820202020302E303030302043202020302020302020302020302020302020302020302020302020302020302020302020300A2020312020322020312020302020202020200A2020322020332020312020302020202020200A2020312020342020322020302020202020200A2020352020362020322020302020202020200A2020362020372020312020302020202020200A2020372020382020322020302020202020200A2020382020392020312020302020202020200A2020352020392020312020302020202020200A2020392031302020312020312020202020200A2020392031312020312020362020202020200A2031322031332020312020302020202020200A2031332031342020312020302020202020200A2031342031352020312020302020202020200A2020382031322020312020302020202020200A2020332020352020312020302020202020200A4D2020454E44
Contributor: KATO T, DEPT. OF CHEM., FAC. OF SCI., TOHOKU UNIV.
InstType: EI
InstName: Unknown
IoniMethod: _ENERGY 25 eV
IonPolarity: pos
Date: 2010-10-09 19:48:36+02:00
Num Peaks: 37
41 48 43 58 55 125 57 13 67 38 69 48 79 67 81 4 91 144 93 154 
94 106 95 7 105 212 106 58 107 683 108 999 109 67 110 96 117 38 119 14 
120 163 121 346 122 48 131 5 133 67 135 106 136 29 145 11 147 38 149 173 
150 221 162 5 163 111 164 63 177 58 206 33 207 58 
