Name: CHLORMEZANONE TRANCOPAL
MW: 273
Formula: C11H12ClNO3S
Synonym: MassBank: JP003103
Synonym: CHLORMEZANONE TRANCOPAL
Structure: 43484C4F524D455A414E4F4E45205452414E434F50414C2E6D6F6C0A20204368656D447261773039303731303033353432440A2031372031382020302020302020302020302020302020302020302020303939392056323030300A2020202D322E3134333420202020302E3230363220202020302E303030302043202020302020302020302020302020302020302020302020302020302020302020302020300A2020202D322E313433342020202D302E3631383820202020302E303030302043202020302020302020302020302020302020302020302020302020302020302020302020300A2020202D312E343238392020202D312E3033313320202020302E303030302043202020302020302020302020302020302020302020302020302020302020302020302020300A2020202D302E373134352020202D302E3631383820202020302E30303030204E202020302020302020302020302020302020302020302020302020302020302020302020300A2020202D302E3731343520202020302E3230363220202020302E303030302043202020302020302020302020302020302020302020302020302020302020302020302020300A2020202D312E3432383920202020302E3631383720202020302E303030302053202020302020322020302020302020302020302020302020302020302020302020302020300A2020202D312E343238392020202D312E3835363320202020302E30303030204F202020302020302020302020302020302020302020302020302020302020302020302020300A20202020302E303030302020202D312E3033313320202020302E303030302043202020302020302020302020302020302020302020302020302020302020302020302020300A20202020302E3030303020202020302E3631383720202020302E303030302043202020302020302020302020302020302020302020302020302020302020302020302020300A2020202D312E3834313420202020312E3333333220202020302E30303030204F202020302020352020302020302020302020302020302020302020302020302020302020300A2020202D312E3031363420202020312E3333333220202020302E30303030204F202020302020352020302020302020302020302020302020302020302020302020302020300A20202020302E3731343520202020302E3230363320202020302E303030302043202020302020302020302020302020302020302020302020302020302020302020302020300A20202020312E3432383920202020302E3631383720202020302E303030302043202020302020302020302020302020302020302020302020302020302020302020302020300A20202020312E3432383920202020312E3434333720202020302E303030302043202020302020302020302020302020302020302020302020302020302020302020302020300A20202020302E3731343520202020312E3835363220202020302E303030302043202020302020302020302020302020302020302020302020302020302020302020302020300A20202020302E3030303020202020312E3434333720202020302E303030302043202020302020302020302020302020302020302020302020302020302020302020302020300A20202020322E3134333420202020312E3835363320202020302E3030303020436C2020302020302020302020302020302020302020302020302020302020302020302020300A2020312020322020312020302020202020200A2020322020332020312020302020202020200A2020332020342020312020302020202020200A2020342020352020312020302020202020200A2020352020362020312020302020202020200A2020362020312020312020302020202020200A2020332020372020322020302020202020200A2020342020382020312020302020202020200A2020352020392020312020302020202020200A2020362031302020312020362020202020200A2020362031312020312020312020202020200A2020392031322020322020302020202020200A2031322031332020312020302020202020200A2031332031342020322020302020202020200A2031342031352020312020302020202020200A2031352031362020322020302020202020200A2031362020392020312020302020202020200A2031342031372020312020302020202020200A4D202043484720203320202036202020322020313020202D312020313120202D310A4D2020454E44
Contributor: SASAKI S, TOYOHASHI UNIV. OF TECH.
InstType: EI
InstName: Unknown
IoniMethod: EI
IonPolarity: pos
Date: 2010-10-09 19:48:36+02:00
Num Peaks: 127
25 9 26 40 27 81 28 31 29 13 30 10 32 38 34 1 35 3 36 26 
37 5 38 1 39 44 40 11 41 65 42 62 43 23 44 41 45 10 46 1 
47 18 48 40 49 8 50 6 51 54 52 9 53 2 54 0 55 74 56 201 
57 32 58 2 59 13 60 3 61 14 62 3 63 69 64 29 65 12 66 0 
67 2 68 14 69 240 70 2 71 10 72 11 73 23 74 0 75 122 76 45 
77 70 78 1 79 1 82 1 83 2 84 1 85 16 86 14 87 14 88 0 
89 115 90 34 91 52 92 0 97 150 98 580 99 45 100 1 101 11 102 51 
103 15 104 0 105 2 110 4 111 200 112 7 113 60 114 22 115 13 116 0 
117 153 118 95 119 15 120 0 121 1 123 13 124 11 125 17 126 20 127 61 
128 9 137 6 138 29 139 31 140 15 141 0 142 3 143 1 144 2 145 0 
146 11 149 3 150 5 151 2 152 999 153 319 154 421 155 2 156 95 157 9 
166 7 167 0 168 4 174 277 175 33 176 0 178 1 180 16 181 8 182 1 
194 3 208 137 209 69 210 6 211 22 212 2 274 4 
