Name: MassBank: JP001878
MW: 846
Formula: C33H37F15O8
Synonym: MassBank: JP001878
Synonym: HEXAFLUOROISOPROPYL 3ALPHA,6BETA,7BETA-TRIS(TRIFLUOROACETOXY)-5BETA-CHOLAN-24-OATE
Synonym: HEXAFLUOROISOPROPYL 3,6,7-TRIS(O-TRIFLUOROACETYL) BETA-MURICHOLATE
Structure: 303335315F48455841464C554F524F49534F50524F50594C2033414C5048412C36424554412C37424554412D5452495328545249464C554F524F414345544F5859292D35424554412D43484F4C414E2D32342D4F4154452E6D6F6C0A20204368656D447261773039303631303136313932440A2036322036352020302020302020302020302020302020302020302020303939392056323030300A2020202D322E313739312020202D322E3030303020202020302E303030302043202020302020302020302020302020302020302020302020302020302020302020302020300A2020202D322E313739312020202D312E3137353020202020302E303030302043202020302020302020302020302020302020302020302020302020302020302020302020300A2020202D312E343634362020202D302E3736323520202020302E303030302043202020302020302020302020302020302020302020302020302020302020302020302020300A2020202D312E343634362020202D322E3431323520202020302E303030302043202020302020302020302020302020302020302020302020302020302020302020302020300A2020202D302E373530322020202D322E3030303020202020302E303030302043202020302020302020302020302020302020302020302020302020302020302020302020300A2020202D302E303335372020202D322E3431323520202020302E303030302043202020302020302020302020302020302020302020302020302020302020302020302020300A20202020302E363738382020202D322E3030303020202020302E303030302043202020302020302020302020302020302020302020302020302020302020302020302020300A20202020302E363738382020202D312E3137353020202020302E303030302043202020302020302020302020302020302020302020302020302020302020302020302020300A20202020312E333933322020202D302E3736323520202020302E303030302043202020302020302020302020302020302020302020302020302020302020302020302020300A20202020322E313737392020202D312E3031373520202020302E303030302043202020302020302020302020302020302020302020302020302020302020302020302020300A20202020322E363632382020202D302E3335303020202020302E303030302043202020302020302020302020302020302020302020302020302020302020302020302020300A20202020322E3137373920202020302E3331373420202020302E303030302043202020302020302020302020302020302020302020302020302020302020302020302020300A20202020322E3433323820202020312E3130323020202020302E303030302043202020302020302020302020302020302020302020302020302020302020302020302020300A20202020312E3834393420202020312E3638353420202020302E303030302043202020302020302020302020302020302020302020302020302020302020302020302020300A20202020322E3036333020202020322E3438323320202020302E303030302043202020302020302020302020302020302020302020302020302020302020302020302020300A20202020322E3835393920202020322E3639353820202020302E303030302043202020302020302020302020302020302020302020302020302020302020302020302020300A20202020332E3233393820202020312E3237333620202020302E303030302048202020302020302020302020302020302020302020302020302020302020302020302020300A20202020312E3339333220202020302E3036323520202020302E303030302043202020302020302020302020302020302020302020302020302020302020302020302020300A20202020312E3339333220202020302E3838373520202020302E303030302043202020302020302020302020302020302020302020302020302020302020302020302020300A20202020302E3637383820202020302E3437353020202020302E303030302043202020302020302020302020302020302020302020302020302020302020302020302020300A2020202D302E3033353720202020302E3036323520202020302E303030302043202020302020302020302020302020302020302020302020302020302020302020302020300A2020202D302E303335372020202D302E3736323520202020302E303030302043202020302020302020302020302020302020302020302020302020302020302020302020300A2020202D302E373530322020202D312E3137353020202020302E303030302043202020302020302020302020302020302020302020302020302020302020302020302020300A2020202D302E373530322020202D302E3335303020202020302E303030302043202020302020302020302020302020302020302020302020302020302020302020302020300A20202020332E3434333220202020322E3131323520202020302E30303030204F202020302020302020302020302020302020302020302020302020302020302020302020300A20202020332E3037333420202020332E3439323720202020302E30303030204F202020302020302020302020302020302020302020302020302020302020302020302020300A20202020312E353030342020202D322E3638393420202020302E30303030204F202020302020302020302020302020302020302020302020302020302020302020302020300A20202020322E333132382020202D322E3534363120202020302E303030302043202020302020302020302020302020302020302020302020302020302020302020302020300A20202020322E383433312020202D332E3137383120202020302E30303030204F202020302020302020302020302020302020302020302020302020302020302020302020300A20202020322E353935302020202D312E3737303920202020302E303030302043202020302020302020302020302020302020302020302020302020302020302020302020300A20202020312E383139372020202D312E3438383720202020302E303030302046202020302020302020302020302020302020302020302020302020302020302020302020300A20202020322E383737322020202D302E3939353720202020302E303030302046202020302020302020302020302020302020302020302020302020302020302020302020300A20202020332E333730322020202D322E3035333120202020302E303030302046202020302020302020302020302020302020302020302020302020302020302020302020300A2020202D302E303335372020202D332E3233373520202020302E30303030204F202020302020302020302020302020302020302020302020302020302020302020302020300A2020202D302E373530322020202D332E3635303020202020302E303030302043202020302020302020302020302020302020302020302020302020302020302020302020300A2020202D312E343634362020202D332E3233373520202020302E30303030204F202020302020302020302020302020302020302020302020302020302020302020302020300A2020202D302E373530322020202D342E3437353020202020302E303030302043202020302020302020302020302020302020302020302020302020302020302020302020300A20202020302E303734382020202D342E3437353020202020302E303030302046202020302020302020302020302020302020302020302020302020302020302020302020300A2020202D302E373530322020202D352E3330303020202020302E303030302046202020302020302020302020302020302020302020302020302020302020302020302020300A2020202D312E353735322020202D342E3437353020202020302E303030302046202020302020302020302020302020302020302020302020302020302020302020302020300A2020202D322E383933362020202D322E3431323520202020302E30303030204F202020302020302020302020302020302020302020302020302020302020302020302020300A2020202D332E363038312020202D322E3030303020202020302E303030302043202020302020302020302020302020302020302020302020302020302020302020302020300A2020202D332E363038312020202D312E3137353020202020302E30303030204F202020302020302020302020302020302020302020302020302020302020302020302020300A2020202D342E333232352020202D322E3431323520202020302E303030302043202020302020302020302020302020302020302020302020302020302020302020302020300A2020202D342E373335302020202D312E3639383020202020302E303030302046202020302020302020302020302020302020302020302020302020302020302020302020300A2020202D332E393130302020202D332E3132373020202020302E303030302046202020302020302020302020302020302020302020302020302020302020302020302020300A2020202D352E303337302020202D322E3832353020202020302E303030302046202020302020302020302020302020302020302020302020302020302020302020302020300A20202020332E3837303320202020332E3730363220202020302E303030302043202020302020302020302020302020302020302020302020302020302020302020302020300A20202020342E3435333620202020332E3132323920202020302E303030302043202020302020302020302020302020302020302020302020302020302020302020302020300A20202020352E3033373020202020322E3533393520202020302E303030302046202020302020302020302020302020302020302020302020302020302020302020302020300A20202020332E3837303320202020322E3533393520202020302E303030302046202020302020302020302020302020302020302020302020302020302020302020302020300A20202020352E3033373020202020332E3730363220202020302E303030302046202020302020302020302020302020302020302020302020302020302020302020302020300A20202020342E3038333820202020342E3530333120202020302E303030302043202020302020302020302020302020302020302020302020302020302020302020302020300A20202020332E3238363920202020342E3731363720202020302E303030302046202020302020302020302020302020302020302020302020302020302020302020302020300A20202020342E3239373320202020352E3330303020202020302E303030302046202020302020302020302020302020302020302020302020302020302020302020302020300A20202020342E3838303720202020342E3238393620202020302E303030302046202020302020302020302020302020302020302020302020302020302020302020302020300A2020202D302E373530322020202D322E3832353020202020302E303030302048202020302020302020302020302020302020302020302020302020302020302020302020300A2020202D302E303335372020202D312E3538373520202020302E303030302048202020302020302020302020302020302020302020302020302020302020302020302020300A20202020302E363738382020202D302E3335303020202020302E303030302048202020302020302020302020302020302020302020302020302020302020302020302020300A20202020312E333933322020202D312E3538373520202020302E303030302048202020302020302020302020302020302020302020302020302020302020302020302020300A20202020312E3632373120202020312E3237393420202020302E303030302043202020302020302020302020302020302020302020302020302020302020302020302020300A20202020322E3939323720202020302E3434363520202020302E303030302048202020302020302020302020302020302020302020302020302020302020302020302020300A2020312020322020312020302020202020200A2020322020332020312020302020202020200A2020312020342020312020302020202020200A2020342020352020312020302020202020200A2020352020362020312020302020202020200A2020362020372020312020302020202020200A2020372020382020312020302020202020200A2020382020392020312020302020202020200A2020392031302020312020302020202020200A2031302031312020312020302020202020200A2031322031312020312020302020202020200A2031322031332020312020302020202020200A2031332031342020312020302020202020200A2031342031352020312020302020202020200A2031352031362020312020302020202020200A2031332031372020312020312020202020200A2031322031382020312020302020202020200A2020392031382020312020302020202020200A2031382031392020312020312020202020200A2031382032302020312020302020202020200A2032302032312020312020302020202020200A2032312032322020312020302020202020200A2020382032322020312020302020202020200A2032322032332020312020302020202020200A2020332032332020312020302020202020200A2020352032332020312020302020202020200A2032332032342020312020312020202020200A2031362032352020322020302020202020200A2031362032362020312020302020202020200A2032382032392020322020302020202020200A2032382033302020312020302020202020200A2032372032382020312020302020202020200A2033302033312020312020302020202020200A2033302033322020312020302020202020200A2033302033332020312020302020202020200A2020372032372020312020312020202020200A2033352033362020322020302020202020200A2033352033372020312020302020202020200A2033342033352020312020302020202020200A2033372033382020312020302020202020200A2033372033392020312020302020202020200A2033372034302020312020302020202020200A2020362033342020312020312020202020200A2034322034332020322020302020202020200A2034322034342020312020302020202020200A2034312034322020312020302020202020200A2034342034352020312020302020202020200A2034342034362020312020302020202020200A2034342034372020312020302020202020200A2020312034312020312020362020202020200A2034382034392020312020302020202020200A2034392035302020312020302020202020200A2034392035312020312020302020202020200A2034392035322020312020302020202020200A2034382035332020312020302020202020200A2035332035342020312020302020202020200A2035332035352020312020302020202020200A2035332035362020312020302020202020200A2032362034382020312020302020202020200A2020352035372020312020312020202020200A2032322035382020312020362020202020200A2020382035392020312020312020202020200A2020392036302020312020362020202020200A2031332036312020312020302020202020200A2031322036322020312020362020202020200A4D2020454E44
Contributor: SEYAMA Y, DEPT. OF PHYSIOL. CHEMISTRY AND NUTRITION, FAC. OF MEDICINE, UNIV. OF TOKYO
InstType: EI
InstName: SHIMADZU LKB-9000B
IoniMethod: _ENERGY 70 eV
IonPolarity: pos
Date: 2010-10-09 19:48:36+02:00
Num Peaks: 239
38 14 39 154 40 77 41 358 42 38 43 199 44 138 45 69 47 94 49 11 
50 34 51 64 53 85 54 49 55 999 56 77 57 120 59 160 60 12 63 10 
64 12 65 76 66 30 67 388 68 418 69 527 70 48 71 24 73 71 75 22 
76 10 77 206 78 158 79 304 80 85 81 668 82 219 83 272 84 22 85 122 
89 13 91 246 92 63 93 387 94 142 95 542 96 101 97 81 98 17 99 24 
103 21 104 20 105 265 106 65 107 306 108 103 109 181 110 53 111 32 112 10 
113 27 115 29 116 14 117 104 118 53 119 177 120 46 121 125 122 32 123 75 
124 16 125 23 126 25 127 16 128 30 129 73 130 27 131 128 132 50 133 141 
134 34 135 92 136 17 137 217 138 56 139 27 141 41 142 27 143 108 144 37 
145 155 146 51 147 97 148 19 149 45 151 25 153 23 154 13 155 68 156 26 
157 147 158 47 159 188 160 40 161 38 163 14 165 13 167 15 168 11 169 64 
170 21 171 81 172 24 173 45 174 10 175 18 177 12 179 11 181 27 183 50 
184 20 185 64 186 14 187 28 189 10 191 13 195 33 196 12 197 71 198 26 
199 61 200 17 201 24 202 11 203 17 205 11 207 101 208 20 209 64 210 60 
211 114 212 102 213 183 214 49 215 140 216 22 217 32 219 35 221 30 223 19 
225 35 226 58 227 69 228 14 229 17 231 15 232 47 233 45 235 46 237 88 
238 14 239 36 240 12 241 11 243 12 246 17 247 22 249 11 251 51 252 11 
253 109 254 25 255 11 257 19 264 34 271 31 273 10 276 15 277 39 278 18 
281 26 283 19 285 16 290 358 291 68 292 12 293 25 297 23 304 21 311 98 
312 21 313 25 314 12 315 16 318 15 325 68 326 165 327 189 328 70 329 24 
331 18 337 12 339 15 340 99 341 69 342 15 343 14 344 29 345 22 346 21 
353 26 354 42 355 20 367 206 368 46 385 15 395 75 396 22 410 19 439 89 
440 464 441 105 442 11 454 32 481 58 485 18 489 33 503 20 504 99 505 128 
506 33 547 13 603 38 604 11 618 279 619 162 620 45 661 54 662 15 
