Name: MassBank: JP009364
MW: 380
Formula: C17H21N2O6P
Synonym: MassBank: JP009364
Synonym: 3-(DIETHOXYPHOSPHORYL)METHYL-5-(PARA-TOLYL)PYRROLO(3,4-D)-2-ISOXAZOLINE-4,6-DIONE
Structure: 332D2844494554484F585950484F5350484F52594C294D455448594C2D352D28504152412D544F4C594C29505952524F4C4F28332C342D44292D322D49534F58415A4F4C494E452D342C362D44494F4E452E6D6F6C0A20204368656D447261773032323231303130333332440A2032362032382020302020302020302020302020302020302020302020303939392056323030300A2020202D302E3735393420202020312E3834353920202020302E30303030204F202020302020302020302020302020302020302020302020302020302020302020302020300A2020202D312E3337333220202020312E3239353020202020302E30303030204E202020302020302020302020302020302020302020302020302020302020302020302020300A2020202D312E3033383020202020302E3534313520202020302E303030302043202020302020302020302020302020302020302020302020302020302020302020302020300A2020202D302E3231373420202020302E3632373720202020302E303030302043202020302020302020302020302020302020302020302020302020302020302020302020300A2020202D302E3034353820202020312E3433343620202020302E303030302043202020302020302020302020302020302020302020302020302020302020302020302020300A20202020312E3131303420202020302E3736363220202020302E30303030204E202020302020302020302020302020302020302020302020302020302020302020302020300A20202020302E3439373120202020302E3231353220202020302E303030302043202020302020302020302020302020302020302020302020302020302020302020302020300A20202020302E3737343720202020312E3532303920202020302E303030302043202020302020302020302020302020302020302020302020302020302020302020302020300A20202020302E353832392020202D302E3630353420202020302E30303030204F202020302020302020302020302020302020302020302020302020302020302020302020300A20202020312E3138373220202020322E3233353320202020302E30303030204F202020302020302020302020302020302020302020302020302020302020302020302020300A20202020312E3931373320202020302E3539343220202020302E303030302043202020302020302020302020302020302020302020302020302020302020302020302020300A20202020322E3436393720202020312E3230363920202020302E303030302043202020302020302020302020302020302020302020302020302020302020302020302020300A20202020332E3533313020202020302E3235303020202020302E303030302043202020302020302020302020302020302020302020302020302020302020302020302020300A20202020322E313731372020202D302E3139303620202020302E303030302043202020302020302020302020302020302020302020302020302020302020302020302020300A20202020332E3237363620202020312E3033343820202020302E303030302043202020302020302020302020302020302020302020302020302020302020302020302020300A20202020322E393738352020202D302E3336323720202020302E303030302043202020302020302020302020302020302020302020302020302020302020302020302020300A20202020342E3333373820202020302E3037383020202020302E303030302043202020302020302020302020302020302020302020302020302020302020302020302020300A2020202D322E323735342020202D302E3137323920202020302E303030302050202020302020302020302020302020302020302020302020302020302020302020302020300A2020202D322E3237353420202020302E3635323120202020302E30303030204F202020302020302020302020302020302020302020302020302020302020302020302020300A2020202D332E313030342020202D302E3137323920202020302E30303030204F202020302020302020302020302020302020302020302020302020302020302020302020300A2020202D322E323735342020202D302E3939373920202020302E30303030204F202020302020302020302020302020302020302020302020302020302020302020302020300A2020202D332E3531333020202020302E3534313620202020302E303030302043202020302020302020302020302020302020302020302020302020302020302020302020300A2020202D342E3333373820202020302E3534313620202020302E303030302043202020302020302020302020302020302020302020302020302020302020302020302020300A2020202D322E393839392020202D312E3431303520202020302E303030302043202020302020302020302020302020302020302020302020302020302020302020302020300A2020202D322E393839392020202D322E3233353320202020302E303030302043202020302020302020302020302020302020302020302020302020302020302020302020300A2020202D312E343530342020202D302E3137323920202020302E303030302043202020302020302020302020302020302020302020302020302020302020302020302020300A2020312020322020312020302020202020200A2020322020332020322020302020202020200A2020332020342020312020302020202020200A2020342020352020322020302020202020200A2020312020352020312020302020202020200A2020362020372020312020302020202020200A2020362020382020312020302020202020200A2020342020372020312020302020202020200A2020352020382020312020302020202020200A2020372020392020322020302020202020200A2020382031302020322020302020202020200A2031312031322020312020302020202020200A2031312031342020322020302020202020200A2031322031352020322020302020202020200A2031332031352020312020302020202020200A2031332031362020322020302020202020200A2031342031362020312020302020202020200A2031332031372020312020302020202020200A2020362031312020312020302020202020200A2031382031392020322020302020202020200A2031382032302020312020302020202020200A2031382032312020312020302020202020200A2032322032332020312020302020202020200A2032302032322020312020302020202020200A2032342032352020312020302020202020200A2032312032342020312020302020202020200A2020332032362020312020302020202020200A2031382032362020312020302020202020200A4D2020454E44
Contributor: KANEMASA S, INST. OF ADVANCED MATERIAL STUDY KYUSHU UNIV.
InstType: EI
InstName: JEOL JMS-01-SG-2
IoniMethod: _ENERGY 75 eV
IonPolarity: pos
Date: 2010-10-09 19:48:36+02:00
Num Peaks: 48
40 104 46 109 51 201 52 347 53 117 54 121 65 179 77 261 78 236 79 95 
80 145 81 681 82 164 91 338 104 395 105 222 106 114 107 285 109 600 117 122 
122 95 130 131 132 458 133 713 134 93 137 109 146 157 187 159 190 666 191 37 
192 24 198 18 216 13 218 459 219 34 245 58 246 999 247 105 248 16 278 15 
324 21 335 23 352 903 353 178 354 21 380 34 381 61 382 16 
