Name: MassBank: JP001967
MW: 226
Formula: C13H26OSi
Synonym: MassBank: JP001967
Synonym: 2,4,4-TRIMETHYL-3-TRIMETHYLSILOXYHEPTA-2,6-DIENE
Structure: 322C342C342D5452494D455448594C2D332D5452494D455448594C53494C4F585948455054412D322C362D4449454E452E6D6F6C0A20204368656D447261773132323030393132323932440A2031352031342020302020302020302020302020302020302020302020303939392056323030300A2020202D312E303731372020202D312E3138323220202020302E303030302043202020302020302020302020302020302020302020302020302020302020302020302020300A2020202D302E333537322020202D302E3736393720202020302E303030302043202020302020302020302020302020302020302020302020302020302020302020302020300A2020202D302E3335373220202020302E3035353320202020302E303030302043202020302020302020302020302020302020302020302020302020302020302020302020300A20202020302E3335373220202020302E3436373820202020302E303030302043202020302020302020302020302020302020302020302020302020302020302020302020300A20202020312E3037313720202020302E3838303320202020302E303030302043202020302020302020302020302020302020302020302020302020302020302020302020300A20202020312E3738363220202020302E3436373820202020302E303030302043202020302020302020302020302020302020302020302020302020302020302020302020300A20202020322E3530303620202020302E3838303320202020302E303030302043202020302020302020302020302020302020302020302020302020302020302020302020300A2020202D312E3037313720202020302E3436373820202020302E30303030204F202020302020302020302020302020302020302020302020302020302020302020302020300A2020202D312E3738363220202020302E3035353320202020302E303030302053692020302020302020302020302020302020302020302020302020302020302020302020300A2020202D322E353030362020202D302E3335373220202020302E303030302043202020302020302020302020302020302020302020302020302020302020302020302020300A2020202D322E3139383720202020302E3736393720202020302E303030302043202020302020302020302020302020302020302020302020302020302020302020302020300A2020202D312E333733372020202D302E3635393220202020302E303030302043202020302020302020302020302020302020302020302020302020302020302020302020300A20202020302E373639372020202D302E3234363720202020302E303030302043202020302020302020302020302020302020302020302020302020302020302020302020300A2020202D302E3035353320202020312E3138323220202020302E303030302043202020302020302020302020302020302020302020302020302020302020302020302020300A20202020302E333537322020202D312E3138323220202020302E303030302043202020302020302020302020302020302020302020302020302020302020302020302020300A2020312020322020312020302020202020200A2020322020332020322020302020202020200A2020332020342020312020302020202020200A2020342020352020312020302020202020200A2020352020362020312020302020202020200A2020362020372020322020302020202020200A2020382020392020312020302020202020200A2020392031302020312020302020202020200A2020392031312020312020312020202020200A2020392031322020312020312020202020200A2020332020382020312020302020202020200A2020342031332020312020312020202020200A2020342031342020312020312020202020200A2020322031352020312020302020202020200A4D2020454E44
Contributor: MASS SPECTROSCOPY SOC. OF JAPAN (MSSJ)
InstType: EI
InstName: JEOL JMS-D-3000
IoniMethod: _ENERGY 70 eV
IonPolarity: pos
Date: 2010-10-09 19:48:36+02:00
Num Peaks: 20
41 71 45 67 55 67 67 99 73 592 74 52 75 212 83 30 93 34 95 999 
96 80 156 157 157 31 170 51 185 571 186 99 187 28 211 96 226 120 227 25 
