Name: N-METHYL CAPROLACTAM
MW: 127
Formula: C7H13NO
Synonym: MassBank: JP003883
Synonym: N-METHYL CAPROLACTAM
Structure: 310A32330A4E2D4D455448594C20434150524F4C414354414D2E6D6F6C0A20204368656D447261773038313231303032313332440A2020392020392020302020302020302020302020302020302020302020303939392056323030300A20202020302E343931312020202D302E3233303720202020302E303030302043202020302020302020302020302020302020302020302020302020302020302020302020300A20202020302E313333322020202D302E3937343020202020302E303030302043202020302020302020302020302020302020302020302020302020302020302020302020300A2020202D302E363731312020202D312E3135373620202020302E303030302043202020302020302020302020302020302020302020302020302020302020302020302020300A2020202D312E333136312020202D302E3634333220202020302E303030302043202020302020302020302020302020302020302020302020302020302020302020302020300A2020202D312E3331363120202020302E3138313820202020302E303030302043202020302020302020302020302020302020302020302020302020302020302020302020300A2020202D302E3637313120202020302E3639363220202020302E303030302043202020302020302020302020302020302020302020302020302020302020302020302020300A20202020312E333136312020202D302E3233303720202020302E30303030204F202020302020302020302020302020302020302020302020302020302020302020302020300A20202020302E3133333220202020302E3531323620202020302E30303030204E202020302020302020302020302020302020302020302020302020302020302020302020300A20202020302E3634373620202020312E3135373620202020302E303030302043202020302020302020302020302020302020302020302020302020302020302020302020300A2020312020322020312020302020202020200A2020322020332020312020302020202020200A2020332020342020312020302020202020200A2020342020352020312020302020202020200A2020352020362020312020302020202020200A2020312020372020322020302020202020200A2020312020382020312020302020202020200A2020362020382020312020302020202020200A2020382020392020312020302020202020200A4D2020454E44
Contributor: MASS SPECTROSCOPY SOC. OF JAPAN (MSSJ)
InstType: EI
InstName: Unknown
IoniMethod: EI
IonPolarity: pos
Date: 2010-10-09 19:48:36+02:00
Num Peaks: 8
27 100 42 245 43 235 44 999 55 290 56 145 70 190 127 440 
