Name: MassBank: JP005791
MW: 208
Formula: C13H20O2
Synonym: MassBank: JP005791
Synonym: (E)-4-(1,2-EPOXY-2,6,6-TRIMETHYLCYCLOHEXAN-1-YL)-3-BUTEN-2-ONE
Structure: 2845292D342D28312C322D45504F58592D322C362C362D5452494D455448594C4359434C4F484558414E2D312D594C292D332D425554454E2D322D4F4E452E6D6F6C0A20204368656D447261773130323230393136343232440A2031372031382020302020302020302020302020302020302020302020303939392056323030300A2020202D322E3031333820202020312E3233343220202020302E303030302043202020302020302020302020302020302020302020302020302020302020302020302020300A2020202D322E3031333820202020302E3430393220202020302E303030302043202020302020302020302020302020302020302020302020302020302020302020302020300A2020202D312E323939332020202D302E3030333320202020302E303030302043202020302020302020302020302020302020302020302020302020302020302020302020300A2020202D302E3538343920202020302E3430393120202020302E303030302043202020302020302020302020302020302020302020302020302020302020302020302020300A2020202D302E3538343920202020312E3233343220202020302E303030302043202020302020302020302020302020302020302020302020302020302020302020302020300A2020202D312E3239393320202020312E3634363720202020302E303030302043202020302020302020302020302020302020302020302020302020302020302020302020300A20202020302E3132393920202020302E3832313720202020302E30303030204F202020302020302020302020302020302020302020302020302020302020302020302020300A2020202D302E3137323420202020312E3934383620202020302E303030302043202020302020302020302020302020302020302020302020302020302020302020302020300A2020202D302E303438372020202D302E3531393720202020302E303030302043202020302020302020302020302020302020302020302020302020302020302020302020300A20202020302E373736332020202D302E3531393720202020302E303030302043202020302020302020302020302020302020302020302020302020302020302020302020300A2020202D302E343631322020202D312E3233343220202020302E303030302048202020302020302020302020302020302020302020302020302020302020302020302020300A20202020312E313838382020202D312E3233343220202020302E303030302043202020302020302020302020302020302020302020302020302020302020302020302020300A20202020312E3138383820202020302E3139343820202020302E303030302048202020302020302020302020302020302020302020302020302020302020302020302020300A20202020322E303133382020202D312E3233343220202020302E303030302043202020302020302020302020302020302020302020302020302020302020302020302020300A20202020302E373736332020202D312E3934383620202020302E30303030204F202020302020302020302020302020302020302020302020302020302020302020302020300A2020202D302E373639302020202D302E3633343520202020302E303030302043202020302020302020302020302020302020302020302020302020302020302020302020300A2020202D312E383239362020202D302E3633343520202020302E303030302043202020302020302020302020302020302020302020302020302020302020302020302020300A2020312020322020312020302020202020200A2020322020332020312020302020202020200A2020332020342020312020302020202020200A2020342020352020312020302020202020200A2020352020362020312020302020202020200A2020362020312020312020302020202020200A2020352020372020312020302020202020200A2020342020372020312020302020202020200A2020352020382020312020302020202020200A2020342020392020312020302020202020200A2020392031302020322020302020202020200A2020392031312020312020302020202020200A2031302031322020312020302020202020200A2031302031332020312020302020202020200A2031322031342020312020302020202020200A2031322031352020322020302020202020200A2020332031362020312020312020202020200A2020332031372020312020362020202020200A4D202053545920203120202031205355500A4D2020534C4220203120202031202020310A4D202053414C20202031202031202031360A4D202053424C20202031202031202031370A4D2020534D5420202031204D650A4D2020534256202020312031372020202D372E3531333420202020342E393936310A4D202053545920203120202032205355500A4D2020534C4220203120202032202020320A4D202053414C20202032202031202031370A4D202053424C20202032202031202031380A4D2020534D5420202032204D650A4D2020534256202020322031382020202D382E3537343020202020342E393936310A4D2020454E44
Contributor: FUJISE Y, HAMAMATSU UNIV. SCHOOL OF MEDICINE
InstType: EI
InstName: JEOL JMS-D-300
IoniMethod: _ENERGY 70 eV
IonPolarity: pos
Date: 2010-10-09 19:48:36+02:00
Num Peaks: 56
51 14 53 27 55 66 65 14 67 25 69 92 70 15 75 12 77 32 79 46 
80 12 81 49 82 13 83 12 91 49 93 31 95 61 96 110 97 40 98 70 
105 40 107 61 108 18 109 60 111 38 115 18 117 11 119 20 121 16 122 22 
123 999 124 94 125 25 131 26 132 13 133 22 135 90 136 12 137 10 140 11 
142 13 147 49 148 17 150 10 157 23 159 10 165 60 166 11 173 20 175 99 
176 15 177 29 190 47 191 11 193 18 208 12 
