Name: HEPTYLALDEHYDE
MW: 114
Formula: C7H14O
Synonym: MassBank: JP001482
Synonym: HEPTYLALDEHYDE
Synonym: HEPTANAL
Structure: 310A32300A48455054594C414C4445485944452E6D6F6C0A20204368656D447261773038313131303230313432440A2020382020372020302020302020302020302020302020302020302020303939392056323030300A20202020312E373836322020202D302E3230363320202020302E303030302043202020302020302020302020302020302020302020302020302020302020302020302020300A20202020312E3037313720202020302E3230363320202020302E303030302043202020302020302020302020302020302020302020302020302020302020302020302020300A20202020302E333537322020202D302E3230363320202020302E303030302043202020302020302020302020302020302020302020302020302020302020302020302020300A2020202D302E3335373220202020302E3230363220202020302E303030302043202020302020302020302020302020302020302020302020302020302020302020302020300A2020202D312E303731372020202D302E3230363320202020302E303030302043202020302020302020302020302020302020302020302020302020302020302020302020300A2020202D312E3738363220202020302E3230363220202020302E303030302043202020302020302020302020302020302020302020302020302020302020302020302020300A2020202D322E353030362020202D302E3230363320202020302E303030302043202020302020302020302020302020302020302020302020302020302020302020302020300A20202020322E3530303620202020302E3230363320202020302E30303030204F202020302020302020302020302020302020302020302020302020302020302020302020300A2020312020322020312020302020202020200A2020322020332020312020302020202020200A2020332020342020312020302020202020200A2020342020352020312020302020202020200A2020352020362020312020302020202020200A2020362020372020312020302020202020200A2020312020382020322020302020202020200A4D2020454E44
Contributor: YAMAMOTO M, DEP. CHEMISTRY, FAC. SCIENCE, NARA WOMEN'S UNIV.
InstType: EI
InstName: HITACHI RMU-6M
IoniMethod: _ENERGY 70 eV
IonPolarity: pos
Date: 2010-10-09 19:48:36+02:00
Num Peaks: 41
15 45 26 40 27 546 28 132 29 573 30 21 31 30 38 20 39 324 40 51 
41 846 42 560 43 882 44 999 45 238 50 14 51 23 53 57 54 75 55 569 
56 79 57 434 58 68 65 11 66 12 67 84 68 159 69 56 70 852 71 193 
72 95 81 178 82 17 83 14 85 34 86 143 87 11 95 20 96 141 97 19 
114 21 
