Name: MassBank: JP000790
MW: 183
Formula: C11H9N3
Synonym: MassBank: JP000790
Synonym: 2-AMINO-9H-PYRIDO(2,3-B)INDOLE
Structure: 322D414D494E4F2D39482D50595249444F28322C332D4229494E444F4C452E6D6F6C0A20204368656D447261773132323130393232323632440A2031342031362020302020302020302020302020302020302020302020303939392056323030300A2020202D302E353639352020202D312E3032313020202020302E30303030204E202020302020302020302020302020302020302020302020302020302020302020302020300A20202020302E313834322020202D302E3638353520202020302E303030302043202020302020302020302020302020302020302020302020302020302020302020302020300A20202020302E3039383020202020302E3133353020202020302E303030302043202020302020302020302020302020302020302020302020302020302020302020302020300A2020202D302E3730393020202020302E3330363520202020302E303030302043202020302020302020302020302020302020302020302020302020302020302020302020300A2020202D312E3132313520202020312E3032313020202020302E303030302043202020302020302020302020302020302020302020302020302020302020302020302020300A2020202D312E3934363520202020312E3032313020202020302E303030302043202020302020302020302020302020302020302020302020302020302020302020302020300A2020202D322E3335393020202020302E3330363520202020302E303030302043202020302020302020302020302020302020302020302020302020302020302020302020300A2020202D312E393436352020202D302E3430373920202020302E303030302043202020302020302020302020302020302020302020302020302020302020302020302020300A2020202D312E313231352020202D302E3430373920202020302E303030302043202020302020302020302020302020302020302020302020302020302020302020302020300A20202020302E3736353420202020302E3631393920202020302E303030302043202020302020302020302020302020302020302020302020302020302020302020302020300A20202020312E3531393120202020302E3238343420202020302E303030302043202020302020302020302020302020302020302020302020302020302020302020302020300A20202020312E363035332020202D302E3533363120202020302E303030302043202020302020302020302020302020302020302020302020302020302020302020302020300A20202020302E393337392020202D312E3032313020202020302E30303030204E202020302020302020302020302020302020302020302020302020302020302020302020300A20202020322E333539302020202D302E3837313720202020302E30303030204E202020302020302020302020302020302020302020302020302020302020302020302020300A2020312020322020312020302020202020200A2020322020332020312020302020202020200A2020332020342020312020302020202020200A2020342020352020312020302020202020200A2020352020362020322020302020202020200A2020362020372020312020302020202020200A2020372020382020322020302020202020200A2020382020392020312020302020202020200A2020312020392020312020302020202020200A2020342020392020322020302020202020200A2031302031312020312020302020202020200A2031312031322020322020302020202020200A2031322031332020312020302020202020200A2020322031332020322020302020202020200A2020332031302020322020302020202020200A2031322031342020312020302020202020200A4D2020454E44
Contributor: MASS SPECTROSCOPY SOC. OF JAPAN (MSSJ)
InstType: EI
InstName: VARIAN MAT-44S
IoniMethod: _ENERGY 75 eV
IonPolarity: pos
Date: 2010-10-09 19:48:36+02:00
Num Peaks: 73
40 30 41 37 42 33 43 118 44 35 45 189 46 68 50 48 51 88 52 51 
53 18 54 14 55 18 56 10 57 25 60 43 61 18 62 37 63 71 64 68 
65 44 69 16 71 10 74 0 75 58 76 53 77 79 78 133 79 10 85 10 
86 17 87 23 88 31 89 23 90 14 91 91 92 125 99 16 100 26 101 68 
102 54 103 25 104 13 113 3 114 28 115 25 116 37 117 11 126 13 127 42 
128 103 129 108 130 28 131 10 138 13 139 29 140 27 141 23 142 24 143 33 
153 14 154 25 155 190 156 255 157 37 165 18 166 24 168 18 180 10 181 27 
182 123 183 999 184 138 
