Name: 2-ETHOXYETHYL ACETAE
MW: 132
Formula: C6H12O3
Synonym: MassBank: JP006172
Synonym: 2-ETHOXYETHYL ACETAE
Synonym: CELLOSOLVE ACETATE
Structure: 310A32320A322D4554484F5859455448594C204143455441452E6D6F6C0A20204368656D447261773031303331303132333832440A2020392020382020302020302020302020302020302020302020302020303939392056323030300A20202020302E3335373220202020302E3631383820202020302E303030302043202020302020302020302020302020302020302020302020302020302020302020302020300A2020202D302E3335373220202020302E3230363220202020302E303030302043202020302020302020302020302020302020302020302020302020302020302020302020300A20202020312E3037313720202020302E3230363220202020302E30303030204F202020302020302020302020302020302020302020302020302020302020302020302020300A2020202D312E3738363220202020302E3230363220202020302E303030302043202020302020302020302020302020302020302020302020302020302020302020302020300A2020202D322E3530303620202020302E3631383820202020302E303030302043202020302020302020302020302020302020302020302020302020302020302020302020300A2020202D312E373836322020202D302E3631383820202020302E30303030204F202020302020302020302020302020302020302020302020302020302020302020302020300A2020202D312E3037313720202020302E3631383820202020302E30303030204F202020302020302020302020302020302020302020302020302020302020302020302020300A20202020312E3738363220202020302E3631383820202020302E303030302043202020302020302020302020302020302020302020302020302020302020302020302020300A20202020322E3530303620202020302E3230363220202020302E303030302043202020302020302020302020302020302020302020302020302020302020302020302020300A2020312020322020312020302020202020200A2020312020332020312020302020202020200A2020342020352020312020302020202020200A2020342020362020322020302020202020200A2020342020372020312020302020202020200A2020322020372020312020302020202020200A2020332020382020312020302020202020200A2020382020392020312020302020202020200A4D2020454E44
Contributor: HASHIMOTO K, KYOTO COLLEGE OF PHARMACY
InstType: EI
InstName: HITACHI M-80
IoniMethod: _ENERGY 20 eV
IonPolarity: pos
Date: 2010-10-09 19:48:36+02:00
Num Peaks: 21
15 15 27 24 28 26 29 200 31 477 41 45 42 14 43 999 44 441 45 160 
58 47 59 796 60 29 61 68 72 671 73 70 74 35 87 146 88 123 89 24 
132 2 
