Name: 3-PICOLINE
CAS: 108-99-6
MW: 93
Formula: C6H7N
Synonym: MassBank: JP009523
Synonym: 3-PICOLINE
Synonym: 3-METHYLPYRIDINE
Structure: 310A31390A332D5049434F4C494E452E6D6F6C0A20204368656D447261773033323031303137323832440A2020372020372020302020302020302020302020302020302020302020303939392056323030300A2020202D302E3030303020202020302E3731343520202020302E303030302043202020302020302020302020302020302020302020302020302020302020302020302020300A2020202D302E343132352020202D302E3030303020202020302E303030302043202020302020302020302020302020302020302020302020302020302020302020302020300A2020202D302E303030302020202D302E3731343520202020302E303030302043202020302020302020302020302020302020302020302020302020302020302020302020300A20202020302E383235302020202D302E3731343520202020302E303030302043202020302020302020302020302020302020302020302020302020302020302020302020300A20202020312E3233373520202020302E3030303020202020302E303030302043202020302020302020302020302020302020302020302020302020302020302020302020300A20202020302E3832353020202020302E3731343520202020302E30303030204E202020302020302020302020302020302020302020302020302020302020302020302020300A2020202D312E323337352020202D302E3030303020202020302E303030302043202020302020302020302020302020302020302020302020302020302020302020302020300A2020312020322020312020302020202020200A2020322020332020322020302020202020200A2020332020342020312020302020202020200A2020342020352020322020302020202020200A2020352020362020312020302020202020200A2020312020362020322020302020202020200A2020322020372020312020302020202020200A4D2020454E44
Contributor: NARA WOMEN'S UNIVERSITY
InstType: EI
InstName: HITACHI M-80
IoniMethod: _ENERGY 70 eV
IonPolarity: pos
Date: 2010-10-09 19:48:36+02:00
Num Peaks: 25
25 13 26 17 27 24 37 21 38 52 39 203 40 65 41 18 50 25 51 40 
52 18 53 16 54 18 61 19 62 44 63 91 64 40 65 238 66 351 67 95 
78 26 91 14 92 285 93 999 94 146 
