Name: MassBank: JP009691
MW: 228
Formula: C13H12N2O2
Synonym: MassBank: JP009691
Synonym: TRANS-(4'-METHOXY-N,N,O)-AZOXYBENZENE
Structure: 303338305F5452414E532D2834272D4D4554484F58592D4E2C4E2C4F292D415A4F585942454E5A454E452E6D6F6C0A20204368656D447261773038323031303032323432440A2031372031382020302020302020302020302020302020302020302020303939392056323030300A2020202D332E333030312020202D302E3335373320202020302E303030302043202020302020302020302020302020302020302020302020302020302020302020302020300A2020202D322E3838373620202020302E3335373220202020302E303030302043202020302020302020302020302020302020302020302020302020302020302020302020300A2020202D322E3036323620202020302E3335373220202020302E303030302043202020302020302020302020302020302020302020302020302020302020302020302020300A2020202D312E363530302020202D302E3335373320202020302E303030302043202020302020302020302020302020302020302020302020302020302020302020302020300A2020202D322E303632362020202D312E3037313720202020302E303030302043202020302020302020302020302020302020302020302020302020302020302020302020300A2020202D322E383837362020202D312E3037313720202020302E303030302043202020302020302020302020302020302020302020302020302020302020302020302020300A2020202D302E383235302020202D302E3335373320202020302E30303030204E202020302020332020302020302020302020302020302020302020302020302020302020300A2020202D302E343132352020202D312E3037313720202020302E30303030204F202020302020352020302020302020302020302020302020302020302020302020302020300A2020202D302E3431323520202020302E3335373220202020302E30303030204E202020302020352020302020302020302020302020302020302020302020302020302020300A20202020302E3431323520202020302E3335373220202020302E303030302043202020302020302020302020302020302020302020302020302020302020302020302020300A20202020302E383234392020202D302E3335373220202020302E303030302043202020302020302020302020302020302020302020302020302020302020302020302020300A20202020312E363530302020202D302E3335373220202020302E303030302043202020302020302020302020302020302020302020302020302020302020302020302020300A20202020322E3036323520202020302E3335373220202020302E303030302043202020302020302020302020302020302020302020302020302020302020302020302020300A20202020312E3635303020202020312E3037313720202020302E303030302043202020302020302020302020302020302020302020302020302020302020302020302020300A20202020302E3832343920202020312E3037313720202020302E303030302043202020302020302020302020302020302020302020302020302020302020302020302020300A20202020322E3838373520202020302E3335373220202020302E30303030204F202020302020302020302020302020302020302020302020302020302020302020302020300A20202020332E3330303120202020312E3037313620202020302E303030302043202020302020302020302020302020302020302020302020302020302020302020302020300A2020312020322020312020302020202020200A2020322020332020322020302020202020200A2020332020342020312020302020202020200A2020342020352020322020302020202020200A2020352020362020312020302020202020200A2020312020362020322020302020202020200A2020372020382020342020302020202020200A2020372020392020342020302020202020200A2020342020372020312020302020202020200A2020392031302020312020302020202020200A2031302031312020322020302020202020200A2031312031322020312020302020202020200A2031322031332020322020302020202020200A2031332031342020312020302020202020200A2031342031352020322020302020202020200A2031352031302020312020302020202020200A2031332031362020312020302020202020200A2031362031372020312020302020202020200A4D202043484720203320202037202020312020203820202D312020203920202D310A4D2020454E44
Contributor: THE INSTITUTE OF SCIENTIFIC AND INDUSTRIALRESEARCH
InstType: EI
InstName: JEOL JMS-DX-300
IoniMethod: _ENERGY 70 eV
IonPolarity: pos
Date: 2010-10-09 19:48:36+02:00
Num Peaks: 59
26 12 27 38 29 17 38 2 39 56 41 48 44 28 50 6 51 317 52 128 
53 28 55 3 62 14 63 90 64 171 65 7 66 57 67 20 69 10 74 1 
75 15 76 36 77 999 78 32 79 42 80 196 81 13 90 1 91 133 92 139 
93 56 95 25 96 18 105 42 106 252 107 23 108 36 115 24 120 30 121 61 
122 57 123 53 124 14 128 2 129 20 135 47 141 14 151 2 157 17 168 14 
169 11 185 1 199 25 212 72 213 15 227 5 228 867 229 136 230 13 
