Name: 2-METHYL-6-ETHYLPYRIDINE
MW: 121
Formula: C8H11N
Synonym: MassBank: JP003942
Synonym: 2-METHYL-6-ETHYLPYRIDINE
Structure: 310A32330A322D4D455448594C2D362D455448594C5059524944494E452E6D6F6C0A20204368656D447261773031323231303037323332440A2020392020392020302020302020302020302020302020302020302020303939392056323030300A20202020312E3037313720202020302E3431323520202020302E303030302043202020302020302020302020302020302020302020302020302020302020302020302020300A20202020312E303731372020202D302E3431323520202020302E303030302043202020302020302020302020302020302020302020302020302020302020302020302020300A20202020302E333537322020202D302E3832353020202020302E303030302043202020302020302020302020302020302020302020302020302020302020302020302020300A2020202D302E333537322020202D302E3431323520202020302E303030302043202020302020302020302020302020302020302020302020302020302020302020302020300A2020202D302E3335373220202020302E3431323520202020302E303030302043202020302020302020302020302020302020302020302020302020302020302020302020300A20202020302E3335373220202020302E3832353020202020302E30303030204E202020302020302020302020302020302020302020302020302020302020302020302020300A2020202D312E3037313720202020302E3832353020202020302E303030302043202020302020302020302020302020302020302020302020302020302020302020302020300A2020202D312E3738363220202020302E3431323520202020302E303030302043202020302020302020302020302020302020302020302020302020302020302020302020300A20202020312E3738363220202020302E3832353020202020302E303030302043202020302020302020302020302020302020302020302020302020302020302020302020300A2020312020322020312020302020202020200A2020322020332020322020302020202020200A2020332020342020312020302020202020200A2020342020352020322020302020202020200A2020352020362020312020302020202020200A2020312020362020322020302020202020200A2020372020382020312020302020202020200A2020352020372020312020302020202020200A2020312020392020312020302020202020200A4D2020454E44
Contributor: MASS SPECTROSCOPY SOC. OF JAPAN (MSSJ)
InstType: EI
InstName: Unknown
IoniMethod: EI
IonPolarity: pos
Date: 2010-10-09 19:48:36+02:00
Num Peaks: 38
26 39 27 145 28 62 29 4 31 92 37 32 38 52 39 24 40 46 41 52 
42 40 45 4 50 34 51 69 52 53 53 4 54 28 60 37 62 31 63 4 
64 38 65 100 66 80 67 2 77 61 78 32 79 40 80 3 91 34 92 73 
93 300 94 7 104 27 106 26 118 30 119 3 120 999 121 525 
