Name: MassBank: JP009811
MW: 182
Formula: C11H18O2
Synonym: MassBank: JP009811
Synonym: 2,6,6-TRIMETHYL-3-ETHYLCARBONYL-5,6-DIHYDRO-4H-PYRAN
Synonym: 5-PROPIONYL-2,2,6-TRIMETHYL-3,4-DIHYDRO-2H-PYRAN
Structure: 322C362C362D5452494D455448594C2D332D455448594C434152424F4E594C2D352C362D4449485944524F2D34482D505952414E2E6D6F6C0A20204368656D447261773132323130393032333832440A2031332031332020302020302020302020302020302020302020302020303939392056323030300A20202020302E3430363220202020302E3634333620202020302E303030302043202020302020302020302020302020302020302020302020302020302020302020302020300A20202020302E343036322020202D302E3138313420202020302E303030302043202020302020302020302020302020302020302020302020302020302020302020302020300A2020202D302E333038322020202D302E3539333920202020302E303030302043202020302020302020302020302020302020302020302020302020302020302020302020300A2020202D312E303232372020202D302E3138313420202020302E303030302043202020302020302020302020302020302020302020302020302020302020302020302020300A2020202D312E3032323720202020302E3634333620202020302E303030302043202020302020302020302020302020302020302020302020302020302020302020302020300A2020202D302E3330383220202020312E3035363120202020302E30303030204F202020302020302020302020302020302020302020302020302020302020302020302020300A20202020312E313230372020202D302E3539333920202020302E303030302043202020302020302020302020302020302020302020302020302020302020302020302020300A20202020312E313230372020202D312E3431383920202020302E30303030204F202020302020302020302020302020302020302020302020302020302020302020302020300A20202020312E383335322020202D302E3138313420202020302E303030302043202020302020302020302020302020302020302020302020302020302020302020302020300A20202020312E3833353220202020302E3634333620202020302E303030302043202020302020302020302020302020302020302020302020302020302020302020302020300A2020202D312E3833353220202020302E3530303420202020302E303030302043202020302020302020302020302020302020302020302020302020302020302020302020300A2020202D312E3330343920202020312E3431383920202020302E303030302043202020302020302020302020302020302020302020302020302020302020302020302020300A20202020312E3132303720202020312E3035363120202020302E303030302043202020302020302020302020302020302020302020302020302020302020302020302020300A2020312020322020322020302020202020200A2020322020332020312020302020202020200A2020332020342020312020302020202020200A2020342020352020312020302020202020200A2020352020362020312020302020202020200A2020312020362020312020302020202020200A2020372020382020322020302020202020200A2020392031302020312020302020202020200A2020372020392020312020302020202020200A2020322020372020312020302020202020200A2020352031312020312020362020202020200A2020352031322020312020312020202020200A2020312031332020312020302020202020200A4D2020454E44
Contributor: KURARAY CO., LTD.
InstType: EI
InstName: JEOL JMS-D-300
IoniMethod: _ENERGY 70 eV
IonPolarity: pos
Date: 2010-10-09 19:48:36+02:00
Num Peaks: 43
27 97 29 254 39 84 40 2 41 186 43 727 44 23 53 4 55 340 56 253 
57 493 58 2 67 51 69 45 71 25 79 3 81 30 83 44 85 45 91 2 
93 32 95 31 97 599 98 4 107 58 108 22 109 57 111 15 121 32 125 73 
126 32 127 26 128 25 135 156 136 18 139 9 140 21 149 82 153 999 154 11 
167 38 182 357 183 66 
