Name: MassBank: JP009770
MW: 164
Formula: C7H13ClO2
Synonym: MassBank: JP009770
Synonym: 3-CHLORO-4,4-DIMETHOXY-2-METHYL-1-BUTENE
Synonym: 2-CHLORO-3-METHYL-3-BUTENAL DIMETHYL ACETAL
Structure: 332D43484C4F524F2D342C342D44494D4554484F58592D322D4D455448594C2D312D425554454E452E6D6F6C0A20204368656D447261773031303331303130333232440A2031302020392020302020302020302020302020302020302020302020303939392056323030300A20202020302E3431323520202020312E3432383920202020302E303030302043202020302020302020302020302020302020302020302020302020302020302020302020300A2020202D302E3030303020202020302E3731343520202020302E303030302043202020302020302020302020302020302020302020302020302020302020302020302020300A20202020302E343132352020202D302E3030303020202020302E303030302043202020302020302020302020302020302020302020302020302020302020302020302020300A20202020302E303030302020202D302E3731343520202020302E303030302043202020302020302020302020302020302020302020302020302020302020302020302020300A2020202D302E3832353020202020302E3731343520202020302E303030302043202020302020302020302020302020302020302020302020302020302020302020302020300A20202020302E343132352020202D312E3432383920202020302E30303030204F202020302020302020302020302020302020302020302020302020302020302020302020300A20202020312E323337352020202D312E3432383920202020302E303030302043202020302020302020302020302020302020302020302020302020302020302020302020300A2020202D302E383235302020202D302E3731343520202020302E30303030204F202020302020302020302020302020302020302020302020302020302020302020302020300A2020202D312E323337352020202D312E3432383920202020302E303030302043202020302020302020302020302020302020302020302020302020302020302020302020300A20202020312E323337352020202D302E3030303020202020302E3030303020436C2020302020302020302020302020302020302020302020302020302020302020302020300A2020312020322020322020302020202020200A2020322020332020312020302020202020200A2020332020342020312020302020202020200A2020322020352020312020302020202020200A2020362020372020312020302020202020200A2020342020362020312020302020202020200A2020382020392020312020302020202020200A2020342020382020312020302020202020200A2020332031302020312020302020202020200A4D2020454E44
Contributor: KURARAY CO., LTD.
InstType: EI
InstName: JEOL JMS-D-300
IoniMethod: _ENERGY 70 eV
IonPolarity: pos
Date: 2010-10-09 19:48:36+02:00
Num Peaks: 29
27 44 29 44 31 54 39 6 41 56 43 74 45 17 47 15 51 14 53 45 
55 55 57 2 58 20 59 12 65 32 67 3 69 10 73 10 75 999 76 4 
83 35 92 12 97 17 98 2 101 17 103 12 129 21 133 10 135 32 
