Name: MassBank: JP004316
MW: 186
Formula: C12H14N2
Synonym: MassBank: JP004316
Synonym: 1-BENZYL-3,5-DIMETHYLPYRAZOLE
Structure: 312D42454E5A594C2D332C352D44494D455448594C505952415A4F4C452E6D6F6C0A20204368656D447261773131313730393233323232440A2031352031362020302020302020302020302020302020302020302020303939392056323030300A20202020302E323639302020202D302E3632333020202020302E30303030204E202020302020302020302020302020302020302020302020302020302020302020302020300A20202020302E373533392020202D312E3239303420202020302E30303030204E202020302020302020302020302020302020302020302020302020302020302020302020300A20202020312E353338362020202D312E3033353520202020302E303030302043202020302020302020302020302020302020302020302020302020302020302020302020300A20202020312E353338362020202D302E3231303520202020302E303030302043202020302020302020302020302020302020302020302020302020302020302020302020300A20202020302E3735333920202020302E3034343420202020302E303030302043202020302020302020302020302020302020302020302020302020302020302020302020300A20202020302E3439393020202020302E3832393120202020302E303030302043202020302020302020302020302020302020302020302020302020302020302020302020300A20202020322E323036302020202D312E3532303420202020302E303030302043202020302020302020302020302020302020302020302020302020302020302020302020300A2020202D302E353536302020202D302E3632333020202020302E303030302043202020302020302020302020302020302020302020302020302020302020302020302020300A2020202D302E3936383520202020302E3039313520202020302E303030302043202020302020302020302020302020302020302020302020302020302020302020302020300A2020202D312E3739333520202020302E3039313520202020302E303030302043202020302020302020302020302020302020302020302020302020302020302020302020300A2020202D322E3230363020202020302E3830353920202020302E303030302043202020302020302020302020302020302020302020302020302020302020302020302020300A2020202D312E3739333520202020312E3532303420202020302E303030302043202020302020302020302020302020302020302020302020302020302020302020302020300A2020202D302E3936383520202020312E3532303420202020302E303030302043202020302020302020302020302020302020302020302020302020302020302020302020300A2020202D302E3535363020202020302E3830353920202020302E303030302043202020302020302020302020302020302020302020302020302020302020302020302020300A20202020322E3230363020202020302E3237343420202020302E303030302048202020302020302020302020302020302020302020302020302020302020302020302020300A2020312020322020312020302020202020200A2020322020332020322020302020202020200A2020332020342020312020302020202020200A2020342020352020322020302020202020200A2020312020352020312020302020202020200A2020352020362020312020302020202020200A2020332020372020312020302020202020200A2020382020392020312020302020202020200A2020392031302020312020302020202020200A2031302031312020322020302020202020200A2031312031322020312020302020202020200A2031322031332020322020302020202020200A2031332031342020312020302020202020200A2020392031342020322020302020202020200A2020312020382020312020302020202020200A2020342031352020312020302020202020200A4D2020454E44
Contributor: SASAKI S, TOYOHASHI UNIV. OF TECH.
InstType: EI
InstName: MX-1303
IoniMethod: _ENERGY 50 eV
IonPolarity: pos
Date: 2010-10-09 19:48:36+02:00
Num Peaks: 72
26 20 27 71 28 83 29 1 38 24 39 248 40 57 41 13 42 111 43 18 
50 32 51 10 52 38 53 20 54 20 55 2 62 14 63 71 64 26 65 32 
66 51 67 18 68 31 69 1 70 10 76 14 77 68 78 3 79 13 80 14 
81 11 82 2 83 13 89 70 90 29 91 999 92 110 93 29 94 14 95 35 
96 36 102 10 103 26 104 4 105 10 108 25 109 268 110 2 115 27 116 13 
117 17 118 1 128 15 129 13 130 54 131 1 142 11 143 19 144 56 145 1 
154 11 156 12 158 22 167 1 168 21 169 13 170 15 172 6 174 20 185 814 
186 640 187 91 
