Name: 3-FORMYLINDOLE
MW: 145
Formula: C9H7NO
Synonym: MassBank: JP000428
Synonym: 3-FORMYLINDOLE
Structure: 332D464F524D594C494E444F4C452E6D6F6C0A20204368656D447261773032323231303138303432440A2031312031322020302020302020302020302020302020302020302020303939392056323030300A2020202D302E3133373820202020312E3032313020202020302E30303030204E202020302020302020302020302020302020302020302020302020302020302020302020300A20202020302E3631353920202020302E3638353520202020302E303030302043202020302020302020302020302020302020302020302020302020302020302020302020300A20202020302E353239362020202D302E3133353020202020302E303030302043202020302020302020302020302020302020302020302020302020302020302020302020300A2020202D302E323737332020202D302E3330363520202020302E303030302043202020302020302020302020302020302020302020302020302020302020302020302020300A2020202D302E363839382020202D312E3032313020202020302E303030302043202020302020302020302020302020302020302020302020302020302020302020302020300A2020202D312E353134382020202D312E3032313020202020302E303030302043202020302020302020302020302020302020302020302020302020302020302020302020300A2020202D312E393237332020202D302E3330363520202020302E303030302043202020302020302020302020302020302020302020302020302020302020302020302020300A2020202D312E3531343820202020302E3430373920202020302E303030302043202020302020302020302020302020302020302020302020302020302020302020302020300A2020202D302E3638393820202020302E3430373920202020302E303030302043202020302020302020302020302020302020302020302020302020302020302020302020300A20202020312E313432372020202D302E3638373120202020302E303030302043202020302020302020302020302020302020302020302020302020302020302020302020300A20202020312E393237332020202D302E3433323120202020302E30303030204F202020302020302020302020302020302020302020302020302020302020302020302020300A2020312020322020312020302020202020200A2020322020332020322020302020202020200A2020332020342020312020302020202020200A2020342020352020312020302020202020200A2020352020362020322020302020202020200A2020362020372020312020302020202020200A2020372020382020322020302020202020200A2020382020392020312020302020202020200A2020312020392020312020302020202020200A2020342020392020322020302020202020200A2031302031312020322020302020202020200A2020332031302020312020302020202020200A4D2020454E44
Contributor: SASAKI S, TOYOHASHI UNIV. OF TECH.
InstType: EI
InstName: MX-1303
IoniMethod: _ENERGY 50 eV
IonPolarity: pos
Date: 2010-10-09 19:48:36+02:00
Num Peaks: 52
39 181 40 11 41 98 42 1 43 110 44 11 45 43 50 3 51 99 52 19 
55 72 56 2 57 72 58 19 58.5 98 60 4 61 21 62 110 63 270 64 4 
65 15 67 18 68 18 69 10 70 18 71 27 72 23 73 5 74 13 75 11 
81 58 82 1 83 28 84 11 85 15 86 1 87 31 88 39 89 500 90 8 
93 10 95 14 97 15 114 1 115 390 116 350 117 38 137 1 143 27 144 999 
145 860 146 61 
