Name: N-(3-CHLOROPROPYL)MORPHOLINE
MW: 163
Formula: C7H14ClNO
Synonym: MassBank: JP003961
Synonym: N-(3-CHLOROPROPYL)MORPHOLINE
Structure: 4E2D28332D43484C4F524F50524F50594C294D4F5250484F4C494E452E6D6F6C0A20204368656D447261773038313231303031313332440A2031302031302020302020302020302020302020302020302020302020303939392056323030300A20202020322E313433342020202D302E3431323520202020302E303030302043202020302020302020302020302020302020302020302020302020302020302020302020300A20202020312E343238392020202D302E3832353020202020302E303030302043202020302020302020302020302020302020302020302020302020302020302020302020300A20202020302E373134352020202D302E3431323520202020302E30303030204E202020302020302020302020302020302020302020302020302020302020302020302020300A20202020302E3731343520202020302E3431323520202020302E303030302043202020302020302020302020302020302020302020302020302020302020302020302020300A20202020312E3432383920202020302E3832353020202020302E303030302043202020302020302020302020302020302020302020302020302020302020302020302020300A20202020322E3134333420202020302E3431323520202020302E30303030204F202020302020302020302020302020302020302020302020302020302020302020302020300A2020202D302E303030302020202D302E3832353020202020302E303030302043202020302020302020302020302020302020302020302020302020302020302020302020300A2020202D302E373134352020202D302E3431323520202020302E303030302043202020302020302020302020302020302020302020302020302020302020302020302020300A2020202D312E343238392020202D302E3832353020202020302E303030302043202020302020302020302020302020302020302020302020302020302020302020302020300A2020202D322E313433342020202D302E3431323520202020302E3030303020436C2020302020302020302020302020302020302020302020302020302020302020302020300A2020312020322020312020302020202020200A2020322020332020312020302020202020200A2020332020342020312020302020202020200A2020342020352020312020302020202020200A2020352020362020312020302020202020200A2020312020362020312020302020202020200A2020372020382020312020302020202020200A2020382020392020312020302020202020200A2020392031302020312020302020202020200A2020332020372020312020302020202020200A4D2020454E44
Contributor: MASS SPECTROSCOPY SOC. OF JAPAN (MSSJ)
InstType: EI
InstName: HITACHI M-60
IoniMethod: _ENERGY 20 eV
IonPolarity: pos
Date: 2010-10-09 19:48:36+02:00
Num Peaks: 65
39 4 41 120 42 694 43 637 44 53 45 12 48 6 49 1 50 2 54 14 
55 25 56 345 57 33 58 28 59 7 61 37 63 1 67 1 68 15 69 13 
70 368 71 57 72 37 73 3 75 5 76 2 77 15 78 1 79 4 82 12 
83 3 84 46 85 10 86 76 96 6 97 3 98 338 99 32 100 999 101 213 
102 14 103 1 104 19 105 6 106 10 107 2 108 2 111 1 112 3 113 1 
114 5 118 48 119 2 120 18 126 8 127 1 128 14 132 20 133 1 134 8 
162 45 163 200 164 60 165 73 166 13 
