Name: MassBank: JP000511
MW: 130
Formula: C7H18N2
Synonym: MassBank: JP000511
Synonym: 1,1-DIETHYL-2-ISOPROPYLHYDRAZINE
Structure: 310A32320A312C312D4449455448594C2D322D49534F50524F50594C48594452415A494E452E6D6F6C0A20204368656D447261773130323330393130313832440A2020392020382020302020302020302020302020302020302020302020303939392056323030300A20202020302E373134352020202D302E3030303020202020302E30303030204E202020302020302020302020302020302020302020302020302020302020302020302020300A2020202D302E3030303020202020302E3431323520202020302E30303030204E202020302020302020302020302020302020302020302020302020302020302020302020300A2020202D302E373134352020202D302E3030303020202020302E303030302043202020302020302020302020302020302020302020302020302020302020302020302020300A2020202D302E373134352020202D302E3832353020202020302E303030302043202020302020302020302020302020302020302020302020302020302020302020302020300A2020202D312E3432383920202020302E3431323520202020302E303030302043202020302020302020302020302020302020302020302020302020302020302020302020300A20202020312E3432383920202020302E3431323520202020302E303030302043202020302020302020302020302020302020302020302020302020302020302020302020300A20202020312E3432383920202020312E3233373520202020302E303030302043202020302020302020302020302020302020302020302020302020302020302020302020300A20202020302E373134352020202D302E3832353020202020302E303030302043202020302020302020302020302020302020302020302020302020302020302020302020300A20202020312E343238392020202D312E3233373520202020302E303030302043202020302020302020302020302020302020302020302020302020302020302020302020300A2020312020322020312020302020202020200A2020332020342020312020302020202020200A2020332020352020312020302020202020200A2020322020332020312020302020202020200A2020362020372020312020302020202020200A2020312020362020312020302020202020200A2020382020392020312020302020202020200A2020312020382020312020302020202020200A4D2020454E44
Contributor: SASAKI S, TOYOHASHI UNIV. OF TECH.
InstType: EI
InstName: SHIMADZU LKB-2091
IoniMethod: _ENERGY 70 eV
IonPolarity: pos
Date: 2010-10-09 19:48:36+02:00
Num Peaks: 34
27 83 28 72 29 124 30 7 31 93 39 13 40 9 41 5 42 124 43 81 
44 103 45 2 56 42 57 18 58 93 59 54 60 21 70 9 71 22 72 6 
73 46 85 11 86 8 87 999 88 60 99 24 101 49 113 1 114 9 115 74 
116 6 129 0 130 371 131 44 
