Name: MassBank: JP001151
MW: 194
Formula: C11H14O3
Synonym: MassBank: JP001151
Synonym: METHYL 4-OXOTRICYCLO(4.3.0.0(1,5))NONANE-5-CARBOXYLATE
Structure: 303231335F4D455448594C20342D4F584F5452494359434C4F28342E332E302E3028312C3529294E4F4E414E452D352D434152424F58594C4154452E6D6F6C0A20204368656D447261773039303631303135323532440A2031342031362020302020302020302020302020302020302020302020303939392056323030300A2020202D302E353634362020202D302E3430363920202020302E303030302043202020302020302020302020302020302020302020302020302020302020302020302020300A2020202D312E333439322020202D302E3135323020202020302E303030302043202020302020302020302020302020302020302020302020302020302020302020302020300A2020202D312E3334393220202020302E3637333020202020302E303030302043202020302020302020302020302020302020302020302020302020302020302020302020300A2020202D302E3536343620202020302E3932383020202020302E303030302043202020302020302020302020302020302020302020302020302020302020302020302020300A2020202D302E3037393720202020302E3236303520202020302E303030302043202020302020302020302020302020302020302020302020302020302020302020302020300A20202020302E323535392020202D302E3439333120202020302E303030302043202020302020302020302020302020302020302020302020302020302020302020302020300A20202020302E343237342020202D312E3330303120202020302E303030302043202020302020302020302020302020302020302020302020302020302020302020302020300A2020202D302E323837312020202D312E3731323620202020302E303030302043202020302020302020302020302020302020302020302020302020302020302020302020300A2020202D302E393030322020202D312E3136303620202020302E303030302043202020302020302020302020302020302020302020302020302020302020302020302020300A20202020302E3633343820202020302E3637333020202020302E303030302043202020302020302020302020302020302020302020302020302020302020302020302020300A20202020302E3633343820202020312E3439383020202020302E30303030204F202020302020302020302020302020302020302020302020302020302020302020302020300A20202020312E3334393220202020302E3236303520202020302E30303030204F202020302020302020302020302020302020302020302020302020302020302020302020300A2020202D302E3330393720202020312E3731323620202020302E30303030204F202020302020302020302020302020302020302020302020302020302020302020302020300A20202020312E333439322020202D302E3536343520202020302E303030302043202020302020302020302020302020302020302020302020302020302020302020302020300A2020312020322020312020302020202020200A2020322020332020312020302020202020200A2020332020342020312020302020202020200A2020342020352020312020302020202020200A2020352020362020312020302020202020200A2020362020372020312020302020202020200A2020372020382020312020302020202020200A2020382020392020312020302020202020200A2020312020392020312020302020202020200A2020312020362020312020302020202020200A2020312020352020312020302020202020200A2031302031312020322020302020202020200A2031302031322020312020302020202020200A2020352031302020312020302020202020200A2020342031332020322020302020202020200A2031322031342020312020302020202020200A4D2020454E44
Contributor: NAKAYAMA M, MASS SPECTROSCOPY SOC. OF JAPAN (MSSJ)
InstType: EI
InstName: HITACHI RMU-6L
IoniMethod: _ENERGY 70 eV
IonPolarity: pos
Date: 2010-10-09 19:48:36+02:00
Num Peaks: 56
40 50 41 210 42 50 43 90 44 50 50 70 51 160 52 110 53 160 54 40 
55 210 56 30 59 120 60 30 65 130 66 100 67 120 68 40 77 320 78 170 
79 370 80 70 91 470 92 230 93 780 94 120 95 80 105 140 106 200 107 210 
108 80 109 40 119 80 120 90 121 80 122 40 133 100 134 250 135 280 136 40 
137 80 138 70 139 30 151 70 152 480 153 80 154 40 161 40 162 999 163 430 
164 40 165 30 166 360 167 40 194 100 195 30 
