Name: 4-TERT-BUTYLMERCAPTOPYRIDINECAPTOPYRIDINE
MW: 167
Formula: C9H13NS
Synonym: MassBank: JP002996
Synonym: 4-TERT-BUTYLMERCAPTOPYRIDINECAPTOPYRIDINE
Structure: 342D544552542D425554594C4D4552434150544F5059524944494E45434150544F5059524944494E452E6D6F6C0A20204368656D447261773034323231303231323432440A2031312031312020302020302020302020302020302020302020302020303939392056323030300A2020202D312E3037313720202020312E3338383520202020302E303030302043202020302020302020302020302020302020302020302020302020302020302020302020300A2020202D312E3037313720202020302E3536333520202020302E303030302043202020302020302020302020302020302020302020302020302020302020302020302020300A2020202D302E3335373220202020302E3135313020202020302E303030302043202020302020302020302020302020302020302020302020302020302020302020302020300A20202020302E3335373220202020302E3536333520202020302E303030302043202020302020302020302020302020302020302020302020302020302020302020302020300A20202020302E3335373220202020312E3338383520202020302E303030302043202020302020302020302020302020302020302020302020302020302020302020302020300A2020202D302E3335373220202020312E3830313020202020302E30303030204E202020302020302020302020302020302020302020302020302020302020302020302020300A2020202D302E333537322020202D302E3637343020202020302E303030302053202020302020302020302020302020302020302020302020302020302020302020302020300A20202020302E333537322020202D312E3038363520202020302E303030302043202020302020302020302020302020302020302020302020302020302020302020302020300A20202020312E303731372020202D312E3439393020202020302E303030302043202020302020302020302020302020302020302020302020302020302020302020302020300A20202020302E373639372020202D302E3337323020202020302E303030302043202020302020302020302020302020302020302020302020302020302020302020302020300A2020202D302E303535332020202D312E3830313020202020302E303030302043202020302020302020302020302020302020302020302020302020302020302020302020300A2020312020322020322020302020202020200A2020322020332020312020302020202020200A2020332020342020322020302020202020200A2020342020352020312020302020202020200A2020352020362020322020302020202020200A2020362020312020312020302020202020200A2020332020372020312020302020202020200A2020372020382020312020302020202020200A2020382020392020312020302020202020200A2020382031302020312020302020202020200A2020382031312020312020302020202020200A4D2020454E44
Contributor: SASAKI S, TOYOHASHI UNIV. OF TECH.
InstType: EI
InstName: Unknown
IoniMethod: EI
IonPolarity: pos
Date: 2010-10-09 19:48:36+02:00
Num Peaks: 21
29 310 32 90 39 240 41 50 51 10 55 60 56 50 57 999 58 60 59 70 
67 120 83 1 84 30 110 40 111 840 112 2 113 50 152 40 167 220 168 0 
169 15 
