Name: MassBank: JP000600
MW: 426
Formula: C18H30O6Si3
Synonym: MassBank: JP000600
Synonym: 1,3,5-BENZENETRICARBOXYLIC ACID TRI(TRIMETHYLSILYL) ESTER
Structure: 312C332C352D42454E5A454E45545249434152424F58594C4943204143494420545249285452494D455448594C53494C594C292045535445522E6D6F6C0A20204368656D447261773131313130393137353632440A2032372032372020302020302020302020302020302020302020302020303939392056323030300A2020202D312E303731372020202D302E3838303320202020302E303030302043202020302020302020302020302020302020302020302020302020302020302020302020300A2020202D312E303731372020202D302E3035353320202020302E303030302043202020302020302020302020302020302020302020302020302020302020302020302020300A2020202D302E3335373220202020302E3335373220202020302E303030302043202020302020302020302020302020302020302020302020302020302020302020302020300A20202020302E333537322020202D302E3035353320202020302E303030302043202020302020302020302020302020302020302020302020302020302020302020302020300A20202020302E333537322020202D302E3838303320202020302E303030302043202020302020302020302020302020302020302020302020302020302020302020302020300A2020202D302E333537322020202D312E3239323820202020302E303030302043202020302020302020302020302020302020302020302020302020302020302020302020300A2020202D312E373836322020202D312E3239323820202020302E303030302043202020302020302020302020302020302020302020302020302020302020302020302020300A2020202D322E353030362020202D302E3838303320202020302E30303030204F202020302020302020302020302020302020302020302020302020302020302020302020300A2020202D312E373836322020202D322E3131373820202020302E30303030204F202020302020302020302020302020302020302020302020302020302020302020302020300A2020202D302E3335373220202020312E3138323220202020302E303030302043202020302020302020302020302020302020302020302020302020302020302020302020300A2020202D312E3037313720202020312E3539343720202020302E30303030204F202020302020302020302020302020302020302020302020302020302020302020302020300A20202020302E3335373220202020312E3539343720202020302E30303030204F202020302020302020302020302020302020302020302020302020302020302020302020300A20202020312E303731372020202D312E3239323820202020302E303030302043202020302020302020302020302020302020302020302020302020302020302020302020300A20202020312E303731372020202D322E3131373820202020302E30303030204F202020302020302020302020302020302020302020302020302020302020302020302020300A20202020312E373836322020202D302E3838303320202020302E30303030204F202020302020302020302020302020302020302020302020302020302020302020302020300A2020202D322E353030362020202D322E3533303320202020302E303030302053692020302020302020302020302020302020302020302020302020302020302020302020300A2020202D332E323135312020202D322E3934323820202020302E303030302043202020302020302020302020302020302020302020302020302020302020302020302020300A2020202D322E393133312020202D312E3831353820202020302E303030302043202020302020302020302020302020302020302020302020302020302020302020302020300A2020202D322E303838312020202D332E3234343720202020302E303030302043202020302020302020302020302020302020302020302020302020302020302020302020300A20202020302E3335373220202020322E3431393720202020302E303030302053692020302020302020302020302020302020302020302020302020302020302020302020300A20202020312E3138323220202020322E3431393720202020302E303030302043202020302020302020302020302020302020302020302020302020302020302020302020300A20202020302E3335373220202020332E3234343720202020302E303030302043202020302020302020302020302020302020302020302020302020302020302020302020300A2020202D302E3436373820202020322E3431393720202020302E303030302043202020302020302020302020302020302020302020302020302020302020302020302020300A20202020322E353030362020202D312E3239323820202020302E303030302053692020302020302020302020302020302020302020302020302020302020302020302020300A20202020322E393133312020202D302E3537383320202020302E303030302043202020302020302020302020302020302020302020302020302020302020302020302020300A20202020332E323135312020202D312E3730353320202020302E303030302043202020302020302020302020302020302020302020302020302020302020302020302020300A20202020322E303838312020202D322E3030373220202020302E303030302043202020302020302020302020302020302020302020302020302020302020302020302020300A2020312020322020312020302020202020200A2020322020332020322020302020202020200A2020332020342020312020302020202020200A2020342020352020322020302020202020200A2020352020362020312020302020202020200A2020312020362020322020302020202020200A2020372020382020322020302020202020200A2020372020392020312020302020202020200A2020312020372020312020302020202020200A2031302031312020322020302020202020200A2031302031322020312020302020202020200A2020332031302020312020302020202020200A2031332031342020322020302020202020200A2031332031352020312020302020202020200A2020352031332020312020302020202020200A2031362031372020312020302020202020200A2031362031382020312020312020202020200A2031362031392020312020312020202020200A2020392031362020312020302020202020200A2032302032312020312020302020202020200A2032302032322020312020302020202020200A2032302032332020312020302020202020200A2031322032302020312020302020202020200A2032342032352020312020312020202020200A2032342032362020312020302020202020200A2032342032372020312020312020202020200A2031352032342020312020302020202020200A4D2020454E44
Contributor: KOGA M, UNIV. OF OCCUPATIONAL AND ENVIRONMENTAL HEALTH
InstType: EI
InstName: JEOL JMS-01-SG
IoniMethod: _ENERGY 70 eV
IonPolarity: pos
Date: 2010-10-09 19:48:36+02:00
Num Peaks: 19
43 172 45 141 47 215 49 12 59 51 61 51 63 55 65 6 73 284 74 53 
75 719 76 6 77 999 78 63 81 63 93 33 95 120 100 55 147 24 
