Name: METHYL 4-METHYLPHENYL KETONE
MW: 134
Formula: C9H10O
Synonym: MassBank: JP009649
Synonym: METHYL 4-METHYLPHENYL KETONE
Synonym: 4-METHYLACETOPHENONE
Structure: 4D455448594C20342D4D455448594C5048454E594C204B45544F4E452E6D6F6C0A20204368656D447261773034323131303032353232440A2031302031302020302020302020302020302020302020302020302020303939392056323030300A20202020302E3030303020202020312E3434333720202020302E303030302043202020302020302020302020302020302020302020302020302020302020302020302020300A2020202D302E3731343520202020312E3835363320202020302E30303030204F202020302020302020302020302020302020302020302020302020302020302020302020300A20202020302E3030303020202020302E3631383820202020302E303030302043202020302020302020302020302020302020302020302020302020302020302020302020300A20202020302E3731343520202020302E3230363220202020302E303030302043202020302020302020302020302020302020302020302020302020302020302020302020300A20202020302E373134352020202D302E3631383820202020302E303030302043202020302020302020302020302020302020302020302020302020302020302020302020300A2020202D302E303030302020202D312E3033313320202020302E303030302043202020302020302020302020302020302020302020302020302020302020302020302020300A2020202D302E373134352020202D302E3631383820202020302E303030302043202020302020302020302020302020302020302020302020302020302020302020302020300A2020202D302E3731343520202020302E3230363220202020302E303030302043202020302020302020302020302020302020302020302020302020302020302020302020300A2020202D302E303030302020202D312E3835363320202020302E303030302043202020302020302020302020302020302020302020302020302020302020302020302020300A20202020302E3731343520202020312E3835363320202020302E303030302043202020302020302020302020302020302020302020302020302020302020302020302020300A2020312020322020322020302020202020200A2020332020342020312020302020202020200A2020342020352020322020302020202020200A2020352020362020312020302020202020200A2020362020372020322020302020202020200A2020372020382020312020302020202020200A2020332020382020322020302020202020200A2020362020392020312020302020202020200A2020312020332020312020302020202020200A2020312031302020312020302020202020200A4D2020454E44
Contributor: THE INSTITUTE OF SCIENTIFIC AND INDUSTRIALRESEARCH
InstType: EI
InstName: JEOL JMS-DX-300
IoniMethod: _ENERGY 70 eV
IonPolarity: pos
Date: 2010-10-09 19:48:36+02:00
Num Peaks: 30
27 20 28 50 32 11 38 2 39 110 41 20 42 10 43 10 50 37 51 60 
52 13 62 4 63 90 64 25 65 204 66 1 74 13 75 10 77 32 79 1 
89 80 90 40 91 606 92 5 103 10 105 17 119 999 120 8 134 562 135 58 
