Name: TRANS-STILBENE
CAS: 103-30-0
MW: 180
Formula: C14H12
Synonym: MassBank: JP006299
Synonym: TRANS-STILBENE
Synonym: SYN-DIPHENYLETHYLENE
Structure: 5452414E532D312C322D44495048454E594C455448594C454E452E6D6F6C0A20204368656D447261773038313231303037343532440A2031342031352020302020302020302020302020302020302020302020303939392056323030300A20202020302E323036332020202D302E3335373220202020302E303030302043202020302020302020302020302020302020302020302020302020302020302020302020300A2020202D302E3230363220202020302E3335373220202020302E303030302043202020302020302020302020302020302020302020302020302020302020302020302020300A2020202D312E3033313220202020302E3335373220202020302E303030302043202020302020302020302020302020302020302020302020302020302020302020302020300A2020202D312E343433382020202D302E3335373220202020302E303030302043202020302020302020302020302020302020302020302020302020302020302020302020300A2020202D322E323638372020202D302E3335373220202020302E303030302043202020302020302020302020302020302020302020302020302020302020302020302020300A2020202D322E3638313320202020302E3335373220202020302E303030302043202020302020302020302020302020302020302020302020302020302020302020302020300A2020202D322E3236383820202020312E3037313720202020302E303030302043202020302020302020302020302020302020302020302020302020302020302020302020300A2020202D312E3434333720202020312E3037313720202020302E303030302043202020302020302020302020302020302020302020302020302020302020302020302020300A20202020312E303331332020202D302E3335373220202020302E303030302043202020302020302020302020302020302020302020302020302020302020302020302020300A20202020312E3434333820202020302E3335373220202020302E303030302043202020302020302020302020302020302020302020302020302020302020302020302020300A20202020322E3236383720202020302E3335373220202020302E303030302043202020302020302020302020302020302020302020302020302020302020302020302020300A20202020322E363831332020202D302E3335373220202020302E303030302043202020302020302020302020302020302020302020302020302020302020302020302020300A20202020322E323638382020202D312E3037313720202020302E303030302043202020302020302020302020302020302020302020302020302020302020302020302020300A20202020312E343433382020202D312E3037313720202020302E303030302043202020302020302020302020302020302020302020302020302020302020302020302020300A2020312020322020322020302020202020200A2020332020342020312020302020202020200A2020342020352020322020302020202020200A2020352020362020312020302020202020200A2020362020372020322020302020202020200A2020372020382020312020302020202020200A2020332020382020322020302020202020200A2020322020332020312020302020202020200A2020392031302020312020302020202020200A2031302031312020322020302020202020200A2031312031322020312020302020202020200A2031322031332020322020302020202020200A2031332031342020312020302020202020200A2020392031342020322020302020202020200A2020312020392020312020302020202020200A4D2020454E44
Contributor: MASS SPECTROSCOPY SOC. OF JAPAN (MSSJ)
InstType: EI
InstName: HITACHI M-80
IoniMethod: _ENERGY 70 eV
IonPolarity: pos
Date: 2010-10-09 19:48:36+02:00
Num Peaks: 76
14 12 15 61 32 15 37 25 38 110 39 429 40 30 41 19 49 14 50 341 
51 575 52 172 53 23 61 31 62 132 63 330 64 54 65 96 66 6 73 12 
74 161 75 150 76 258 77 259 78 132 79 10 82 36 85 14 86 50 87 75 
88 55 89 222 90 50 91 84 92 7 98 39 99 25 100 12 101 27 102 237 
103 46 104 5 110 11 111 11 113 25 114 13 115 110 116 11 122 7 125 7 
126 54 127 45 128 44 129 6 137 6 138 7 139 74 140 11 141 10 150 36 
151 78 152 188 153 59 154 8 163 15 164 18 165 416 166 62 175 8 176 75 
177 70 178 472 179 740 180 999 181 145 182 16 
