Name: MassBank: JP000489
MW: 133
Formula: C9H11N
Synonym: MassBank: JP000489
Synonym: 5,6,7,8-TETRAHYDROISOQUINOLINE
Structure: 352C362C372C382D5445545241485944524F49534F5155494E4F4C494E452E6D6F6C0A20204368656D447261773034323331303032323232440A2031302031312020302020302020302020302020302020302020302020303939392056323030300A20202020302E3731343520202020302E3832353020202020302E303030302043202020302020302020302020302020302020302020302020302020302020302020302020300A20202020312E3432383920202020302E3431323520202020302E30303030204E202020302020302020302020302020302020302020302020302020302020302020302020300A20202020312E343238392020202D302E3431323520202020302E303030302043202020302020302020302020302020302020302020302020302020302020302020302020300A20202020302E373134352020202D302E3832353020202020302E303030302043202020302020302020302020302020302020302020302020302020302020302020302020300A2020202D302E303030302020202D302E3431323520202020302E303030302043202020302020302020302020302020302020302020302020302020302020302020302020300A2020202D302E373134352020202D302E3832353020202020302E303030302043202020302020302020302020302020302020302020302020302020302020302020302020300A2020202D312E343238392020202D302E3431323520202020302E303030302043202020302020302020302020302020302020302020302020302020302020302020302020300A2020202D312E3432383920202020302E3431323520202020302E303030302043202020302020302020302020302020302020302020302020302020302020302020302020300A2020202D302E3731343520202020302E3832353020202020302E303030302043202020302020302020302020302020302020302020302020302020302020302020302020300A20202020302E3030303020202020302E3431323520202020302E303030302043202020302020302020302020302020302020302020302020302020302020302020302020300A2020312020322020322020302020202020200A2020322020332020312020302020202020200A2020332020342020322020302020202020200A2020342020352020312020302020202020200A2020352020362020312020302020202020200A2020362020372020312020302020202020200A2020372020382020312020302020202020200A2020382020392020312020302020202020200A2020392031302020312020302020202020200A2020312031302020312020302020202020200A2020352031302020322020302020202020200A4D2020454E44
Contributor: SASAKI S, TOYOHASHI UNIV. OF TECH.
InstType: EI
InstName: MX-1303
IoniMethod: _ENERGY 50 eV
IonPolarity: pos
Date: 2010-10-09 19:48:36+02:00
Num Peaks: 66
15 15 16 11 17 55 18 18 26 48 27 123 29 37 37 2 38 57 39 314 
40 36 41 7 42 21 43 19 50 139 51 26 52 156 53 60 54 29 55 2 
56 19 57 11 58.5 19 59 2 61 10 62 12 63 118 64 6 64.5 26 65 145 
65.5 28 66 3 67 25 69 12 73 10 74 4 75 38 76 58 77 215 78 41 
79 156 80 24 81 11 89 3 90 36 91 84 92 69 93 3 102 33 103 58 
104 199 105 47 106 69 107 23 115 21 116 2 117 255 118 255 119 74 128 2 
129 36 130 177 131 69 132 999 133 933 134 81 
