Name: PROPYLENE OXIDE
MW: 58
Formula: C3H6O
Synonym: MassBank: JP003535
Synonym: PROPYLENE OXIDE
Structure: 310A31330A50524F50594C454E45204F584944452E6D6F6C0A20204368656D447261773038313231303036323032440A2020342020342020302020302020302020302020302020302020302020303939392056323030300A20202020302E373639372020202D302E3431323520202020302E303030302043202020302020302020302020302020302020302020302020302020302020302020302020300A20202020302E3035353320202020302E3030303020202020302E303030302043202020302020302020302020302020302020302020302020302020302020302020302020300A2020202D302E3736393720202020302E3030303020202020302E303030302043202020302020302020302020302020302020302020302020302020302020302020302020300A20202020302E3736393720202020302E3431323520202020302E30303030204F202020302020302020302020302020302020302020302020302020302020302020302020300A2020312020322020312020302020202020200A2020322020332020312020302020202020200A2020312020342020312020302020202020200A2020322020342020312020302020202020200A4D2020454E44
Contributor: YAMAMOTO M, DEP. CHEMISTRY, FAC. SCIENCE, NARA WOMEN'S UNIV.
InstType: EI
InstName: HITACHI M-68
IoniMethod: _ENERGY 70 eV
IonPolarity: pos
Date: 2010-10-09 19:48:36+02:00
Num Peaks: 19
14 106 15 217 16 26 18 16 26 52 27 101 28 495 29 4 32 134 37 27 
38 31 39 5 40 15 41 28 42 83 43 999 44 31 58 220 59 12 
