Name: MassBank: JP005143
MW: 325
Formula: C19H19NO4
Synonym: MassBank: JP005143
Synonym: METHYL 2-CYANO-2-(3,4-DIMETHOXYPHENYL)-3-PHENYLPROPIONATE
Structure: 4D455448594C20322D4359414E4F2D322D28332C342D44494D4554484F58595048454E594C292D332D5048454E594C50524F50494F4E4154452E6D6F6C0A20204368656D447261773038313131303233333032440A2032342032352020302020302020302020302020302020302020302020303939392056323030300A20202020312E373836322020202D312E3334313320202020302E303030302043202020302020302020302020302020302020302020302020302020302020302020302020300A20202020312E303731372020202D302E3932383820202020302E303030302043202020302020302020302020302020302020302020302020302020302020302020302020300A20202020312E3630383020202020302E3030303020202020302E303030302043202020302020302020302020302020302020302020302020302020302020302020302020300A20202020312E373836322020202D322E3136363320202020302E30303030204F202020302020302020302020302020302020302020302020302020302020302020302020300A20202020322E353030362020202D302E3932383820202020302E30303030204F202020302020302020302020302020302020302020302020302020302020302020302020300A20202020312E3037313720202020302E3932383820202020302E303030302043202020302020302020302020302020302020302020302020302020302020302020302020300A20202020312E3438343220202020312E3634333320202020302E303030302043202020302020302020302020302020302020302020302020302020302020302020302020300A20202020312E3037313720202020322E3335373820202020302E303030302043202020302020302020302020302020302020302020302020302020302020302020302020300A20202020302E3234363720202020322E3335373820202020302E303030302043202020302020302020302020302020302020302020302020302020302020302020302020300A2020202D302E3136353820202020312E3634333320202020302E303030302043202020302020302020302020302020302020302020302020302020302020302020302020300A20202020302E3234363720202020302E3932383820202020302E303030302043202020302020302020302020302020302020302020302020302020302020302020302020300A20202020302E333537322020202D302E3531363320202020302E303030302043202020302020302020302020302020302020302020302020302020302020302020302020300A2020202D302E333537322020202D302E3932383820202020302E303030302043202020302020302020302020302020302020302020302020302020302020302020302020300A2020202D312E303731372020202D302E3531363320202020302E303030302043202020302020302020302020302020302020302020302020302020302020302020302020300A2020202D312E3037313720202020302E3330383720202020302E303030302043202020302020302020302020302020302020302020302020302020302020302020302020300A2020202D302E3335373220202020302E3732313220202020302E303030302043202020302020302020302020302020302020302020302020302020302020302020302020300A20202020302E3335373220202020302E3330383720202020302E303030302043202020302020302020302020302020302020302020302020302020302020302020302020300A2020202D312E3738363220202020302E3732313220202020302E30303030204F202020302020302020302020302020302020302020302020302020302020302020302020300A2020202D312E3738363220202020312E3534363220202020302E303030302043202020302020302020302020302020302020302020302020302020302020302020302020300A2020202D312E373836322020202D302E3932383820202020302E30303030204F202020302020302020302020302020302020302020302020302020302020302020302020300A2020202D322E353030362020202D302E3531363320202020302E303030302043202020302020302020302020302020302020302020302020302020302020302020302020300A20202020302E363539322020202D312E3634333320202020302E303030302043202020302020302020302020302020302020302020302020302020302020302020302020300A20202020302E323436372020202D322E3335373820202020302E30303030204E202020302020302020302020302020302020302020302020302020302020302020302020300A20202020322E353030362020202D302E3130333820202020302E303030302043202020302020302020302020302020302020302020302020302020302020302020302020300A2020312020322020312020302020202020200A2020322020332020312020302020202020200A2020312020342020322020302020202020200A2020312020352020312020302020202020200A2020362020372020312020302020202020200A2020372020382020322020302020202020200A2020382020392020312020302020202020200A2020392031302020322020302020202020200A2031302031312020312020302020202020200A2020362031312020322020302020202020200A2020332020362020312020302020202020200A2031322031332020312020302020202020200A2031332031342020322020302020202020200A2031342031352020312020302020202020200A2031352031362020322020302020202020200A2031362031372020312020302020202020200A2031322031372020322020302020202020200A2031382031392020312020302020202020200A2031352031382020312020302020202020200A2032302032312020312020302020202020200A2031342032302020312020302020202020200A2020322031322020312020302020202020200A2032322032332020332020302020202020200A2020322032322020312020302020202020200A2020352032342020312020302020202020200A4D2020454E44
Contributor: HAYASHI A, FAC. OF SCIENCE AND TECHNOLOGY, KINKI UNIV.
InstType: EI
InstName: JEOL JMS-HX-100
IoniMethod: _ENERGY 70 eV
IonPolarity: pos
Date: 2010-10-09 19:48:36+02:00
Num Peaks: 63
39 8 45 11 50 6 51 13 59 7 63 10 65 27 75 7 76 7 77 14 
79 6 89 11 90 7 91 363 92 31 101 5 102 8 103 7 115 7 117 11 
119 6 127 6 128 5 130 6 146 6 151 6 152 15 153 15 160 12 165 17 
166 5 174 9 175 14 176 22 177 11 178 10 179 5 180 4 181 7 188 37 
189 9 190 16 191 21 203 57 204 16 206 11 208 7 218 6 219 10 220 5 
224 5 234 999 235 149 236 20 239 8 250 9 251 9 265 4 266 45 267 12 
325 338 326 71 327 10 
