Name: MassBank: JP004798
MW: 160
Formula: C7H20Si2
Synonym: MassBank: JP004798
Synonym: 1,1-DIETHYL-1,2,2-TRIMETHYLDISILANE
Structure: 310A32320A312C312D4449455448594C2D312C322C322D5452494D455448594C444953494C414E452E6D6F6C0A20204368656D447261773130323330393039353032440A2020392020382020302020302020302020302020302020302020302020303939392056323030300A2020202D302E303030302020202D302E3230363320202020302E303030302053692020302020302020302020302020302020302020302020302020302020302020302020300A2020202D302E383235302020202D302E3230363320202020302E303030302053692020302020302020302020302020302020302020302020302020302020302020302020300A2020202D312E3233373520202020302E3530383220202020302E303030302043202020302020302020302020302020302020302020302020302020302020302020302020300A2020202D312E323337352020202D302E3932303720202020302E303030302043202020302020302020302020302020302020302020302020302020302020302020302020300A2020202D302E303030302020202D312E3033313320202020302E303030302043202020302020302020302020302020302020302020302020302020302020302020302020300A2020202D302E3030303020202020302E3631383720202020302E303030302043202020302020302020302020302020302020302020302020302020302020302020302020300A2020202D302E3731343520202020312E3033313320202020302E303030302043202020302020302020302020302020302020302020302020302020302020302020302020300A20202020302E383235302020202D302E3230363320202020302E303030302043202020302020302020302020302020302020302020302020302020302020302020302020300A20202020312E323337352020202D302E3932303720202020302E303030302043202020302020302020302020302020302020302020302020302020302020302020302020300A2020312020322020312020302020202020200A2020322020332020312020302020202020200A2020322020342020312020302020202020200A2020312020352020312020302020202020200A2020362020372020312020302020202020200A2020312020362020312020302020202020200A2020382020392020312020302020202020200A2020312020382020312020302020202020200A4D2020454E44
Contributor: MASS SPECTROSCOPY SOC. OF JAPAN (MSSJ)
InstType: EI
InstName: JEOL JMS-D-3000
IoniMethod: _ENERGY 70 eV
IonPolarity: pos
Date: 2010-10-09 19:48:36+02:00
Num Peaks: 37
43 75 44 21 45 151 55 13 57 17 58 17 59 170 60 13 69 13 71 58 
72 53 73 992 74 90 75 38 85 29 86 17 87 36 88 30 89 81 90 11 
100 37 101 999 102 120 103 418 104 57 105 29 115 11 116 19 117 81 118 12 
131 91 132 15 144 22 145 46 160 195 161 35 162 16 
