Name: 1-ACETYL-3-(4-PYRIDYL)-2-PYRAZOLINE
MW: 189
Formula: C10H11N3O
Synonym: MassBank: JP000444
Synonym: 1-ACETYL-3-(4-PYRIDYL)-2-PYRAZOLINE
Structure: 312D41434554594C2D332D28342D5059524944594C292D322D505952415A4F4C494E452E6D6F6C0A20204368656D447261773131313730393231303432440A2031342031352020302020302020302020302020302020302020302020303939392056323030300A2020202D302E303839322020202D312E3136313720202020302E30303030204E202020302020302020302020302020302020302020302020302020302020302020302020300A20202020302E313635372020202D302E3337373120202020302E30303030204E202020302020302020302020302020302020302020302020302020302020302020302020300A2020202D302E3530313720202020302E3130373820202020302E303030302043202020302020302020302020302020302020302020302020302020302020302020302020300A2020202D312E313639322020202D302E3337373120202020302E303030302043202020302020302020302020302020302020302020302020302020302020302020302020300A2020202D302E393134322020202D312E3136313720202020302E303030302043202020302020302020302020302020302020302020302020302020302020302020302020300A2020202D312E3231363220202020322E3137303320202020302E303030302043202020302020302020302020302020302020302020302020302020302020302020302020300A2020202D312E3231363220202020312E3334353320202020302E303030302043202020302020302020302020302020302020302020302020302020302020302020302020300A2020202D302E3530313720202020302E3933323820202020302E303030302043202020302020302020302020302020302020302020302020302020302020302020302020300A20202020302E3231323820202020312E3334353320202020302E303030302043202020302020302020302020302020302020302020302020302020302020302020302020300A20202020302E3231323820202020322E3137303320202020302E303030302043202020302020302020302020302020302020302020302020302020302020302020302020300A2020202D302E3530313720202020322E3538323820202020302E30303030204E202020302020302020302020302020302020302020302020302020302020302020302020300A20202020302E333935372020202D312E3832393220202020302E303030302043202020302020302020302020302020302020302020302020302020302020302020302020300A20202020302E303630312020202D322E3538323820202020302E30303030204F202020302020302020302020302020302020302020302020302020302020302020302020300A20202020312E323136322020202D312E3734323920202020302E303030302043202020302020302020302020302020302020302020302020302020302020302020302020300A2020312020322020312020302020202020200A2020322020332020322020302020202020200A2020332020342020312020302020202020200A2020342020352020312020302020202020200A2020312020352020312020302020202020200A2020362020372020322020302020202020200A2020372020382020312020302020202020200A2020382020392020322020302020202020200A2020392031302020312020302020202020200A2031302031312020322020302020202020200A2020362031312020312020302020202020200A2020332020382020312020302020202020200A2031322031332020322020302020202020200A2031322031342020312020302020202020200A2020312031322020312020302020202020200A4D2020454E44
Contributor: SASAKI S, TOYOHASHI UNIV. OF TECH.
InstType: EI
InstName: MX-1303
IoniMethod: _ENERGY 50 eV
IonPolarity: pos
Date: 2010-10-09 19:48:36+02:00
Num Peaks: 10
77 40 91 43 105 21 117 2 118 43 119 23 146 492 147 999 148 65 189 207 
