Name: MassBank: JP001407
MW: 212
Formula: C14H16N2
Synonym: MassBank: JP001407
Synonym: 4,4,-DIAMINO-1,2-DIPHENYLETHANE
Synonym: 4,4,-DIAMINOBIBENZYL
Structure: 342C342C2D4449414D494E4F2D312C322D44495048454E594C455448414E452E6D6F6C0A20204368656D447261773130313831303136333632440A2031362031372020302020302020302020302020302020302020302020303939392056323030300A20202020302E3736333520202020302E3032343920202020302E303030302043202020302020302020302020302020302020302020302020302020302020302020302020300A20202020302E303439302020202D302E3338373620202020302E303030302043202020302020302020302020302020302020302020302020302020302020302020302020300A2020202D302E3636353520202020302E3032343920202020302E303030302043202020302020302020302020302020302020302020302020302020302020302020302020300A2020202D312E333739392020202D302E3338373620202020302E303030302043202020302020302020302020302020302020302020302020302020302020302020302020300A2020202D322E3039343420202020302E3032343920202020302E303030302043202020302020302020302020302020302020302020302020302020302020302020302020300A2020202D322E3039343420202020302E3834393920202020302E303030302043202020302020302020302020302020302020302020302020302020302020302020302020300A2020202D312E3337393920202020312E3236323420202020302E303030302043202020302020302020302020302020302020302020302020302020302020302020302020300A2020202D302E3636353520202020302E3834393920202020302E303030302043202020302020302020302020302020302020302020302020302020302020302020302020300A20202020312E343737392020202D302E3338373620202020302E303030302043202020302020302020302020302020302020302020302020302020302020302020302020300A20202020322E3139323420202020302E3032343920202020302E303030302043202020302020302020302020302020302020302020302020302020302020302020302020300A20202020322E393036392020202D302E3338373620202020302E303030302043202020302020302020302020302020302020302020302020302020302020302020302020300A20202020322E393036392020202D312E3231323620202020302E303030302043202020302020302020302020302020302020302020302020302020302020302020302020300A20202020322E313932342020202D312E3632353120202020302E303030302043202020302020302020302020302020302020302020302020302020302020302020302020300A20202020312E343737392020202D312E3231323620202020302E303030302043202020302020302020302020302020302020302020302020302020302020302020302020300A2020202D322E3930363920202020302E3730363620202020302E30303030204E202020302020302020302020302020302020302020302020302020302020302020302020300A2020202D322E3337363620202020312E3632353120202020302E30303030204E202020302020302020302020302020302020302020302020302020302020302020302020300A2020312020322020312020302020202020200A2020332020342020312020302020202020200A2020342020352020322020302020202020200A2020352020362020312020302020202020200A2020362020372020312020302020202020200A2020372020382020312020302020202020200A2020332020382020322020302020202020200A2020322020332020312020302020202020200A2020392031302020312020302020202020200A2031302031312020322020302020202020200A2031312031322020312020302020202020200A2031322031332020322020302020202020200A2031332031342020312020302020202020200A2020392031342020322020302020202020200A2020312020392020312020302020202020200A2020362031352020312020302020202020200A2020362031362020312020302020202020200A4D2020454E44
Contributor: HASHIMOTO K, KYOTO COLLEGE OF PHARMACY
InstType: EI
InstName: HITACHI M-80
IoniMethod: _ENERGY 20 eV
IonPolarity: pos
Date: 2010-10-09 19:48:36+02:00
Num Peaks: 5
106 999 107 85 134 61 212 41 213 67 
