Name: 9-METHYL-9-PHENYL-9-SILAFLUORENE
MW: 272
Formula: C19H16Si
Synonym: MassBank: JP001462
Synonym: 9-METHYL-9-PHENYL-9-SILAFLUORENE
Structure: 392D4D455448594C2D392D5048454E594C2D392D53494C41464C554F52454E452E6D6F6C0A20204368656D447261773036323131303231353032440A2032302032332020302020302020302020302020302020302020302020303939392056323030300A2020202D302E3738373720202020302E3030393020202020302E303030302053692020302020302020302020302020302020302020302020302020302020302020302020300A2020202D302E3935393220202020302E3831363020202020302E303030302043202020302020302020302020302020302020302020302020302020302020302020302020300A2020202D312E3637333720202020312E3232383520202020302E303030302043202020302020302020302020302020302020302020302020302020302020302020302020300A2020202D312E3637333720202020322E3035333520202020302E303030302043202020302020302020302020302020302020302020302020302020302020302020302020300A2020202D302E3935393220202020322E3436363020202020302E303030302043202020302020302020302020302020302020302020302020302020302020302020302020300A2020202D302E3234343820202020322E3035333520202020302E303030302043202020302020302020302020302020302020302020302020302020302020302020302020300A2020202D302E3234343820202020312E3232383520202020302E303030302043202020302020302020302020302020302020302020302020302020302020302020302020300A20202020302E3336383320202020302E3637363520202020302E303030302043202020302020302020302020302020302020302020302020302020302020302020302020300A20202020312E3138383820202020302E3736323720202020302E303030302043202020302020302020302020302020302020302020302020302020302020302020302020300A20202020312E3637333720202020302E3039353320202020302E303030302043202020302020302020302020302020302020302020302020302020302020302020302020300A20202020312E333338322020202D302E3635383420202020302E303030302043202020302020302020302020302020302020302020302020302020302020302020302020300A20202020302E353137372020202D302E3734343720202020302E303030302043202020302020302020302020302020302020302020302020302020302020302020302020300A20202020302E303332382020202D302E3037373220202020302E303030302043202020302020302020302020302020302020302020302020302020302020302020302020300A2020202D302E373837372020202D302E3831363020202020302E303030302043202020302020302020302020302020302020302020302020302020302020302020302020300A2020202D302E303733332020202D312E3232383520202020302E303030302043202020302020302020302020302020302020302020302020302020302020302020302020300A2020202D302E303733332020202D322E3035333520202020302E303030302043202020302020302020302020302020302020302020302020302020302020302020302020300A2020202D302E373837372020202D322E3436363020202020302E303030302043202020302020302020302020302020302020302020302020302020302020302020302020300A2020202D312E353032322020202D322E3035333520202020302E303030302043202020302020302020302020302020302020302020302020302020302020302020302020300A2020202D312E353032322020202D312E3232383520202020302E303030302043202020302020302020302020302020302020302020302020302020302020302020302020300A2020202D312E363038322020202D302E3037373220202020302E303030302043202020302020302020302020302020302020302020302020302020302020302020302020300A2020312020322020312020302020202020200A2020322020332020312020302020202020200A2020332020342020322020302020202020200A2020342020352020312020302020202020200A2020352020362020322020302020202020200A2020362020372020312020302020202020200A2020322020372020322020302020202020200A2020372020382020312020302020202020200A2020382020392020312020302020202020200A2020392031302020322020302020202020200A2031302031312020312020302020202020200A2031312031322020322020302020202020200A2031322031332020312020302020202020200A2020382031332020322020302020202020200A2020312031332020312020302020202020200A2031342031352020312020302020202020200A2031352031362020322020302020202020200A2031362031372020312020302020202020200A2031372031382020322020302020202020200A2031382031392020312020302020202020200A2031342031392020322020302020202020200A2020312031342020312020302020202020200A2020312032302020312020302020202020200A4D2020454E44
Contributor: MASS SPECTROSCOPY SOC. OF JAPAN (MSSJ)
InstType: EI
InstName: JEOL JMS-D-3000
IoniMethod: _ENERGY 70 eV
IonPolarity: pos
Date: 2010-10-09 19:48:36+02:00
Num Peaks: 41
44 14 53 37 77 16 78 11 91 12 103 13 105 26 127 14 128 20 129 85 
135 11 136 70 153 22 154 15 155 15 165 74 166 16 167 12 179 35 180 37 
181 26 193 15 195 68 196 13 202 13 205 30 226 13 227 11 228 29 229 32 
230 12 231 13 254 28 255 75 257 999 258 283 259 64 260 10 272 466 273 119 
274 32 
