Name: BORNEOL
CAS: 507-70-0
MW: 154
Formula: C10H18O
Synonym: MassBank: JP007649
Synonym: BORNEOL
Synonym: ENDO-1,7,7-TRIMETHYLBICYCLO(2.2.1)HEPTAN-2-OL
Structure: 303134395F424F524E454F4C2E6D6F6C0A20204368656D447261773039303331303138323232440A2031312031322020302020302020302020302020302020302020302020303939392056323030300A2020202D302E3632353620202020302E3030303020202020302E303030302043202020302020302020302020302020302020302020302020302020302020302020302020300A2020202D302E363235362020202D302E3832353020202020302E303030302043202020302020302020302020302020302020302020302020302020302020302020302020300A20202020302E303838392020202D312E3233373520202020302E303030302043202020302020302020302020302020302020302020302020302020302020302020302020300A20202020302E383033342020202D302E3832353020202020302E303030302043202020302020302020302020302020302020302020302020302020302020302020302020300A20202020302E3830333420202020302E3030303020202020302E303030302043202020302020302020302020302020302020302020302020302020302020302020302020300A20202020302E3038383920202020302E3431323520202020302E303030302043202020302020302020302020302020302020302020302020302020302020302020302020300A2020202D312E3334303020202020302E3431323520202020302E30303030204F202020302020302020302020302020302020302020302020302020302020302020302020300A20202020302E3038383920202020312E3233373520202020302E303030302043202020302020302020302020302020302020302020302020302020302020302020302020300A20202020302E353136352020202D302E3239333020202020302E303030302043202020302020302020302020302020302020302020302020302020302020302020302020300A20202020312E333430302020202D302E3234333720202020302E303030302043202020302020302020302020302020302020302020302020302020302020302020302020300A20202020312E313838382020202D302E3737313220202020302E303030302043202020302020302020302020302020302020302020302020302020302020302020302020300A2020312020322020312020302020202020200A2020322020332020312020302020202020200A2020332020342020312020302020202020200A2020352020362020312020302020202020200A2020362020312020312020302020202020200A2020312020372020312020312020202020200A2020362020382020312020302020202020200A2020362020392020312020362020202020200A2020332020392020312020362020202020200A2020392031302020312020302020202020200A2020392031312020312020302020202020200A2020352020342020312020302020202020200A4D2020454E44
Contributor: YAMAMOTO M, DEP. CHEMISTRY, FAC. SCIENCE, NARA WOMEN'S UNIV.
InstType: EI
InstName: HITACHI RMU-6M
IoniMethod: _ENERGY 15 eV
IonPolarity: pos
Date: 2010-10-09 19:48:36+02:00
Num Peaks: 34
43 15 57 11 59 10 67 10 69 26 70 14 71 42 72 35 81 15 82 62 
83 36 84 57 85 12 92 48 93 64 94 12 95 999 96 96 97 15 99 11 
107 15 108 39 109 32 110 531 111 70 112 10 113 14 121 68 123 14 136 166 
137 21 139 203 140 25 154 36 
