Name: CIS-P-MENTHANE
CAS: 6069-98-3
MW: 140
Formula: C10H20
Synonym: MassBank: JP007123
Synonym: CIS-P-MENTHANE
Structure: 4349532D502D4D454E5448414E452E6D6F6C0A20204368656D447261773039313431303130303032440A2031322031322020302020302020302020302020302020302020302020303939392056323030300A2020202D302E3430303320202020302E3032343920202020302E303030302043202020302020302020302020302020302020302020302020302020302020302020302020300A20202020302E3331343120202020302E3433373420202020302E303030302043202020302020302020302020302020302020302020302020302020302020302020302020300A20202020312E3032383620202020302E3032343920202020302E303030302043202020302020302020302020302020302020302020302020302020302020302020302020300A20202020312E303238362020202D302E3830303120202020302E303030302043202020302020302020302020302020302020302020302020302020302020302020302020300A20202020302E333134312020202D312E3231323620202020302E303030302043202020302020302020302020302020302020302020302020302020302020302020302020300A2020202D302E343030332020202D302E3830303120202020302E303030302043202020302020302020302020302020302020302020302020302020302020302020302020300A2020202D302E323136322020202D312E3834343620202020302E303030302043202020302020302020302020302020302020302020302020302020302020302020302020300A2020202D302E3231363220202020312E3036393420202020302E303030302043202020302020302020302020302020302020302020302020302020302020302020302020300A2020202D312E3032383620202020302E3932363120202020302E303030302043202020302020302020302020302020302020302020302020302020302020302020302020300A20202020302E3036363020202020312E3834343620202020302E303030302043202020302020302020302020302020302020302020302020302020302020302020302020300A20202020302E3834343420202020312E3036393420202020302E303030302048202020302020302020302020302020302020302020302020302020302020302020302020300A20202020302E383434342020202D312E3834343620202020302E303030302048202020302020302020302020302020302020302020302020302020302020302020302020300A2020312020322020312020302020202020200A2020322020332020312020302020202020200A2020332020342020312020302020202020200A2020342020352020312020302020202020200A2020352020362020312020302020202020200A2020312020362020312020302020202020200A2020352020372020312020312020202020200A2020382020392020312020302020202020200A2020382031302020312020302020202020200A2020322020382020312020312020202020200A2020322031312020312020362020202020200A2020352031322020312020362020202020200A4D2020454E44
Contributor: SODA AROMATIC CO., LTD.
InstType: EI
InstName: HITACHI M-80B
IoniMethod: _ENERGY 70 eV
IonPolarity: pos
Date: 2010-10-09 19:48:36+02:00
Num Peaks: 29
27 111 29 83 39 132 40 20 41 317 42 40 43 178 51 11 53 55 54 57 
55 999 56 70 57 26 65 12 67 66 68 38 69 177 70 20 77 16 79 16 
81 233 82 22 83 47 95 15 96 553 97 879 98 65 140 110 141 11 
