Name: 5-OXOHEXANOIC ACID TRIMETHYLSILYL ESTER
MW: 202
Formula: C9H18O3Si
Synonym: MassBank: JP007472
Synonym: 5-OXOHEXANOIC ACID TRIMETHYLSILYL ESTER
Structure: 352D4F584F484558414E4F49432041434944205452494D455448594C53494C594C2045535445522E6D6F6C0A20204368656D447261773034323331303037333332440A2031332031322020302020302020302020302020302020302020302020303939392056323030300A2020202D302E3731343520202020302E3035353320202020302E303030302043202020302020302020302020302020302020302020302020302020302020302020302020300A20202020302E3030303020202020302E3436373820202020302E303030302043202020302020302020302020302020302020302020302020302020302020302020302020300A20202020302E3731343520202020302E3035353320202020302E303030302043202020302020302020302020302020302020302020302020302020302020302020302020300A20202020312E3432383920202020302E3436373820202020302E303030302043202020302020302020302020302020302020302020302020302020302020302020302020300A20202020322E3134333420202020302E3035353320202020302E303030302043202020302020302020302020302020302020302020302020302020302020302020302020300A20202020322E3835373920202020302E3436373820202020302E303030302043202020302020302020302020302020302020302020302020302020302020302020302020300A2020202D302E373134352020202D302E3736393720202020302E30303030204F202020302020302020302020302020302020302020302020302020302020302020302020300A2020202D312E3432383920202020302E3436373820202020302E30303030204F202020302020302020302020302020302020302020302020302020302020302020302020300A20202020322E313433342020202D302E3736393720202020302E30303030204F202020302020302020302020302020302020302020302020302020302020302020302020300A2020202D322E3134333420202020302E3035353320202020302E303030302053692020302020302020302020302020302020302020302020302020302020302020302020300A2020202D312E373330392020202D302E3635393220202020302E303030302043202020302020302020302020302020302020302020302020302020302020302020302020300A2020202D322E383537392020202D302E3335373220202020302E303030302043202020302020302020302020302020302020302020302020302020302020302020302020300A2020202D322E3535353920202020302E3736393720202020302E303030302043202020302020302020302020302020302020302020302020302020302020302020302020300A2020312020322020312020302020202020200A2020322020332020312020302020202020200A2020332020342020312020302020202020200A2020342020352020312020302020202020200A2020352020362020312020302020202020200A2020312020372020322020302020202020200A2020312020382020312020302020202020200A2020352020392020322020302020202020200A2031302031312020312020302020202020200A2031302031322020312020302020202020200A2031302031332020312020302020202020200A2020382031302020312020302020202020200A4D2020454E44
Contributor: KOGA M, UNIV. OF OCCUPATIONAL AND ENVIRONMENTAL HEALTH
InstType: EI
InstName: JEOL JMS-01-SG
IoniMethod: _ENERGY 70 eV
IonPolarity: pos
Date: 2010-10-09 19:48:36+02:00
Num Peaks: 49
42 13 43 630 44 29 45 11 47 118 55 502 56 12 57 3 58 45 59 27 
61 77 67 2 69 52 71 25 72 77 73 53 74 52 75 999 76 75 77 5 
84 171 85 54 97 27 99 2 101 25 112 513 113 63 115 13 116 61 117 408 
118 41 119 2 129 229 130 57 131 22 132 9 133 15 143 31 145 949 146 11 
147 50 159 82 160 34 169 4 186 22 187 383 188 38 189 2 202 38 
