Name: AZODICARBONAMIDE
MW: 116
Formula: C2H4N4O2
Synonym: MassBank: JP003552
Synonym: AZODICARBONAMIDE
Structure: 310A32300A415A4F4449434152424F4E414D4944452E6D6F6C0A20204368656D447261773038313331303133303632440A2020382020372020302020302020302020302020302020302020302020303939392056323030300A20202020302E333537322020202D302E3230363220202020302E30303030204E202020302020302020302020302020302020302020302020302020302020302020302020300A2020202D302E3335373220202020302E3230363320202020302E30303030204E202020302020302020302020302020302020302020302020302020302020302020302020300A20202020312E3037313720202020302E3230363320202020302E303030302043202020302020302020302020302020302020302020302020302020302020302020302020300A20202020312E3037313720202020312E3033313320202020302E30303030204F202020302020302020302020302020302020302020302020302020302020302020302020300A20202020312E373836322020202D302E3230363220202020302E30303030204E202020302020302020302020302020302020302020302020302020302020302020302020300A2020202D312E303731372020202D302E3230363220202020302E303030302043202020302020302020302020302020302020302020302020302020302020302020302020300A2020202D312E303731372020202D312E3033313320202020302E30303030204F202020302020302020302020302020302020302020302020302020302020302020302020300A2020202D312E3738363220202020302E3230363220202020302E30303030204E202020302020302020302020302020302020302020302020302020302020302020302020300A2020312020322020322020302020202020200A2020332020342020322020302020202020200A2020332020352020312020302020202020200A2020312020332020312020302020202020200A2020362020372020322020302020202020200A2020362020382020312020302020202020200A2020322020362020312020302020202020200A4D2020454E44
Contributor: MASS SPECTROSCOPY SOC. OF JAPAN (MSSJ)
InstType: EI
InstName: Unknown
IoniMethod: EI
IonPolarity: pos
Date: 2010-10-09 19:48:36+02:00
Num Peaks: 16
15 44 16 140 17 36 27 28 28 227 29 178 30 22 31 79 32 205 42 163 
43 527 44 999 45 45 60 28 75 58 101 31 
