Name: TARTARIC ACID-TETRA-TMS
MW: 438
Formula: C16H38O6Si4
Synonym: MassBank: JP002758
Synonym: TARTARIC ACID-TETRA-TMS
Structure: 303531355F544152544152494320414349442D54455452412D544D532E6D6F6C0A20204368656D447261773038323031303034303832440A2032362032352020302020302020302020302020302020302020302020303939392056323030300A20202020302E3932383120202020312E3831383720202020302E303030302053692020302020302020302020302020302020302020302020302020302020302020302020300A20202020312E3134313720202020312E3032313920202020302E303030302043202020302020302020302020302020302020302020302020302020302020302020302020300A20202020312E3134313720202020322E3631353620202020302E303030302043202020302020302020302020302020302020302020302020302020302020302020302020300A20202020302E3130333120202020312E3831383720202020302E30303030204F202020302020302020302020302020302020302020302020302020302020302020302020300A20202020312E3735333120202020312E3831383720202020302E303030302043202020302020302020302020302020302020302020302020302020302020302020302020300A2020202D322E313435302020202D302E3134303620202020302E303030302053692020302020302020302020302020302020302020302020302020302020302020302020300A2020202D322E3335383520202020302E3635363320202020302E303030302043202020302020302020302020302020302020302020302020302020302020302020302020300A2020202D322E333538352020202D302E3933373520202020302E303030302043202020302020302020302020302020302020302020302020302020302020302020302020300A2020202D312E333230302020202D302E3134303620202020302E30303030204F202020302020302020302020302020302020302020302020302020302020302020302020300A2020202D322E393730302020202D302E3134303620202020302E303030302043202020302020302020302020302020302020302020302020302020302020302020302020300A20202020322E313435302020202D302E3733383820202020302E303030302053692020302020302020302020302020302020302020302020302020302020302020302020300A20202020322E333538352020202D312E3533353620202020302E303030302043202020302020302020302020302020302020302020302020302020302020302020302020300A20202020322E3335383520202020302E3035383120202020302E303030302043202020302020302020302020302020302020302020302020302020302020302020302020300A20202020312E333230302020202D302E3733383820202020302E30303030204F202020302020302020302020302020302020302020302020302020302020302020302020300A20202020322E393730302020202D302E3733383820202020302E303030302043202020302020302020302020302020302020302020302020302020302020302020302020300A2020202D302E323236392020202D312E3739303620202020302E303030302053692020302020302020302020302020302020302020302020302020302020302020302020300A2020202D312E303233382020202D322E3030343220202020302E303030302043202020302020302020302020302020302020302020302020302020302020302020302020300A20202020302E353730302020202D322E3030343220202020302E303030302043202020302020302020302020302020302020302020302020302020302020302020302020300A2020202D302E323236392020202D302E3936353620202020302E30303030204F202020302020302020302020302020302020302020302020302020302020302020302020300A2020202D302E323236392020202D322E3631353620202020302E303030302043202020302020302020302020302020302020302020302020302020302020302020302020300A2020202D302E3537373520202020312E3233333820202020302E303030302043202020302020302020302020302020302020302020302020302020302020302020302020300A2020202D312E3136303920202020312E3831373220202020302E30303030204F202020302020302020302020302020302020302020302020302020302020302020302020300A2020202D302E3537373520202020302E3435373520202020302E303030302043202020302020302020302020302020302020302020302020302020302020302020302020300A20202020302E313233382020202D302E3138313920202020302E303030302043202020302020302020302020302020302020302020302020302020302020302020302020300A20202020302E373031332020202D302E3230323520202020302E303030302043202020302020302020302020302020302020302020302020302020302020302020302020300A20202020312E3238343620202020302E3338303920202020302E30303030204F202020302020302020302020302020302020302020302020302020302020302020302020300A2020312020322020312020302020202020200A2020312020332020312020302020202020200A2020312020342020312020302020202020200A2020312020352020312020302020202020200A2020362020372020312020302020202020200A2020362020382020312020302020202020200A2020362020392020312020302020202020200A2020362031302020312020302020202020200A2031312031322020312020302020202020200A2031312031332020312020302020202020200A2031312031342020312020302020202020200A2031312031352020312020302020202020200A2031362031372020312020302020202020200A2031362031382020312020302020202020200A2031362031392020312020302020202020200A2031362032302020312020302020202020200A2032312032322020322020302020202020200A2020342032312020312020302020202020200A2020392032332020312020302020202020200A2032332032312020312020302020202020200A2032332032342020312020302020202020200A2031392032342020312020302020202020200A2032342032352020312020302020202020200A2032352032362020322020302020202020200A2031342032352020312020302020202020200A4D2020454E44
Contributor: HAYASHI A, DEPT. OF CHEMISTRY, FAC. OF SCI. AND TECHNOLOGY, KINKI UNIV.
InstType: EI
InstName: SHIMADZU LKB-9000B
IoniMethod: _ENERGY 70 eV
IonPolarity: pos
Date: 2010-10-09 19:48:36+02:00
Num Peaks: 118
40 999 41 43 42 36 43 8 44 311 45 62 46 6 47 3 48 3 50 3 
51 4 52 1 53 3 54 3 55 16 56 1 57 8 58 7 59 87 60 1 
61 9 65 3 66 7 67 1 69 4 70 6 71 4 72 1 73 251 74 21 
75 254 76 2 77 24 78 8 79 5 81 1 82 3 83 6 84 4 85 0 
87 3 89 5 91 6 93 1 94 3 95 5 97 3 101 1 102 5 103 7 
104 3 105 1 107 8 108 9 109 5 115 1 116 4 117 8 118 3 119 0 
121 3 122 3 128 3 129 0 130 4 131 6 132 3 133 1 134 3 135 7 
141 3 143 1 145 4 147 93 148 6 149 1 151 3 156 3 165 4 171 0 
175 3 177 3 178 3 189 2 190 4 191 6 204 7 205 0 207 4 217 6 
218 5 219 3 220 7 221 10 222 3 231 0 233 5 235 3 257 3 263 0 
277 5 279 5 292 37 293 1 294 9 305 9 306 4 307 1 309 19 327 6 
333 5 404 1 405 9 406 4 407 3 422 0 423 9 424 3 
