Name: MassBank: JP006621
MW: 300
Formula: C18H24N2O2
Synonym: MassBank: JP006621
Synonym: 1,1,3,3-TETRAMETHYL-1,2,3,4-TETRAHYDRO-GAMMA-CARBOLINE-5-PROPIONIC ACID
Structure: 312C312C332C332D54455452414D455448594C2D312C322C332C342D5445545241485944524F2D47414D4D412D434152424F4C494E452D352D50524F50494F4E494320414349442E6D6F6C0A20204368656D447261773130323330393031353132440A2032322032342020302020302020302020302020302020302020302020303939392056323030300A2020202D312E3737303320202020312E3131323220202020302E30303030204E202020302020302020302020302020302020302020302020302020302020302020302020300A2020202D312E3737303320202020302E3238373220202020302E303030302043202020302020302020302020302020302020302020302020302020302020302020302020300A2020202D312E303535382020202D302E3132353320202020302E303030302043202020302020302020302020302020302020302020302020302020302020302020302020300A2020202D302E3334313420202020302E3238373220202020302E303030302043202020302020302020302020302020302020302020302020302020302020302020302020300A2020202D302E3334313420202020312E3131323220202020302E303030302043202020302020302020302020302020302020302020302020302020302020302020302020300A2020202D312E3035353820202020312E3532343720202020302E303030302043202020302020302020302020302020302020302020302020302020302020302020302020300A20202020302E3434333220202020302E3033323220202020302E30303030204E202020302020302020302020302020302020302020302020302020302020302020302020300A20202020302E3932383220202020302E3639393720202020302E303030302043202020302020302020302020302020302020302020302020302020302020302020302020300A20202020302E3434333220202020312E3336373120202020302E303030302043202020302020302020302020302020302020302020302020302020302020302020302020300A20202020312E3734383620202020302E3738353920202020302E303030302043202020302020302020302020302020302020302020302020302020302020302020302020300A20202020322E3038343220202020312E3533393620202020302E303030302043202020302020302020302020302020302020302020302020302020302020302020302020300A20202020312E3539393320202020322E3230373020202020302E303030302043202020302020302020302020302020302020302020302020302020302020302020302020300A20202020302E3737383820202020322E3132303820202020302E303030302043202020302020302020302020302020302020302020302020302020302020302020302020300A2020202D302E3834323320202020322E3332313620202020302E303030302043202020302020302020302020302020302020302020302020302020302020302020302020300A2020202D322E3536373220202020302E3037333720202020302E303030302043202020302020302020302020302020302020302020302020302020302020302020302020300A2020202D312E3731303420202020322E3032363920202020302E303030302043202020302020302020302020302020302020302020302020302020302020302020302020300A2020202D312E383738302020202D302E3533303820202020302E303030302043202020302020302020302020302020302020302020302020302020302020302020302020300A20202020302E363938322020202D302E3735323420202020302E303030302043202020302020302020302020302020302020302020302020302020302020302020302020300A20202020312E353035322020202D302E3932333920202020302E303030302043202020302020302020302020302020302020302020302020302020302020302020302020300A20202020312E373630322020202D312E3730383520202020302E303030302043202020302020302020302020302020302020302020302020302020302020302020302020300A20202020322E353637322020202D312E3837393920202020302E30303030204F202020302020302020302020302020302020302020302020302020302020302020302020300A20202020312E323038322020202D322E3332313620202020302E30303030204F202020302020302020302020302020302020302020302020302020302020302020302020300A2020312020322020312020302020202020200A2020322020332020312020302020202020200A2020332020342020312020302020202020200A2020342020352020322020302020202020200A2020352020362020312020302020202020200A2020362020312020312020302020202020200A2020342020372020312020302020202020200A2020372020382020312020302020202020200A2020382020392020322020302020202020200A2020392020352020312020302020202020200A2020382031302020312020302020202020200A2031302031312020322020302020202020200A2031312031322020312020302020202020200A2031322031332020322020302020202020200A2031332020392020312020302020202020200A2020362031342020312020312020202020200A2020322031352020312020312020202020200A2020362031362020312020362020202020200A2020322031372020312020362020202020200A2020372031382020312020302020202020200A2031382031392020312020302020202020200A2031392032302020312020302020202020200A2032302032312020322020302020202020200A2032302032322020312020302020202020200A4D2020454E44
Contributor: SASAKI S, TOYOHASHI UNIV. OF TECH.
InstType: EI
InstName: JEOL JMS-01-SG-2
IoniMethod: _ENERGY 75 eV
IonPolarity: pos
Date: 2010-10-09 19:48:36+02:00
Num Peaks: 14
42 44 43 18 82 26 105 14 128 16 168 31 162 19 184 5 243 93 244 19 
285 999 286 16 299 11 300 54 
