Name: 1-PHENOXYMETHYL-5-FLUOROURACIL
MW: 236
Formula: C11H9FN2O3
Synonym: MassBank: JP005586
Synonym: 1-PHENOXYMETHYL-5-FLUOROURACIL
Structure: 312D5048454E4F58594D455448594C2D352D464C554F524F55524143494C2E6D6F6C0A20204368656D447261773131323230393232303532440A2031372031382020302020302020302020302020302020302020302020303939392056323030300A2020202D302E303030302020202D302E3631383820202020302E30303030204E202020302020302020302020302020302020302020302020302020302020302020302020300A20202020302E373134352020202D312E3033313320202020302E303030302043202020302020302020302020302020302020302020302020302020302020302020302020300A20202020312E343238392020202D302E3631383820202020302E30303030204F202020302020302020302020302020302020302020302020302020302020302020302020300A20202020302E373134352020202D312E3835363320202020302E30303030204E202020302020302020302020302020302020302020302020302020302020302020302020300A2020202D302E303030302020202D322E3236383820202020302E303030302043202020302020302020302020302020302020302020302020302020302020302020302020300A2020202D302E303030302020202D332E3039333820202020302E30303030204F202020302020302020302020302020302020302020302020302020302020302020302020300A2020202D302E373134352020202D312E3835363320202020302E303030302043202020302020302020302020302020302020302020302020302020302020302020302020300A2020202D302E373134352020202D312E3033313320202020302E303030302043202020302020302020302020302020302020302020302020302020302020302020302020300A2020202D312E343238392020202D322E3236383820202020302E303030302046202020302020302020302020302020302020302020302020302020302020302020302020300A2020202D302E3030303020202020302E3230363220202020302E303030302043202020302020302020302020302020302020302020302020302020302020302020302020300A20202020302E3731343520202020302E3631383820202020302E30303030204F202020302020302020302020302020302020302020302020302020302020302020302020300A20202020302E3731343520202020312E3434333820202020302E303030302043202020302020302020302020302020302020302020302020302020302020302020302020300A2020202D302E3030303020202020312E3835363320202020302E303030302043202020302020302020302020302020302020302020302020302020302020302020302020300A2020202D302E3030303020202020322E3638313220202020302E303030302043202020302020302020302020302020302020302020302020302020302020302020302020300A20202020302E3731343520202020332E3039333820202020302E303030302043202020302020302020302020302020302020302020302020302020302020302020302020300A20202020312E3432383920202020322E3638313220202020302E303030302043202020302020302020302020302020302020302020302020302020302020302020302020300A20202020312E3432383920202020312E3835363320202020302E303030302043202020302020302020302020302020302020302020302020302020302020302020302020300A2020312020322020312020302020202020200A2020322020332020322020302020202020200A2020322020342020312020302020202020200A2020342020352020312020302020202020200A2020352020362020322020302020202020200A2020352020372020312020302020202020200A2020372020382020322020302020202020200A2020312020382020312020302020202020200A2020372020392020312020302020202020200A2031322031332020312020302020202020200A2031332031342020322020302020202020200A2031342031352020312020302020202020200A2031352031362020322020302020202020200A2031362031372020312020302020202020200A2031322031372020322020302020202020200A2031312031322020312020302020202020200A2031302031312020312020302020202020200A2020312031302020312020302020202020200A4D2020454E44
Contributor: MASS SPECTROSCOPY SOC. OF JAPAN (MSSJ)
InstType: EI
InstName: JEOL JMS-01-SG-2
IoniMethod: _ENERGY 75 eV
IonPolarity: pos
Date: 2010-10-09 19:48:36+02:00
Num Peaks: 33
38 40 39 120 40 30 41 0 44 50 45 130 50 40 51 1 52 100 62 20 
63 50 64 0 65 130 66 70 70 40 71 1 72 120 77 200 78 40 79 1 
87 30 93 50 94 620 95 1 100 760 101 90 107 110 114 1 141 30 142 120 
143 999 236 5 237 140 
