Name: MassBank: JP008802
MW: 323
Formula: C15H18F5NO
Synonym: MassBank: JP008802
Synonym: OCTANAL O-2,3,4,5,6-PENTAFLUOROBENZYLOXIME
Structure: 303539305F4F4354414E414C204F2D322C332C342C352C362D50454E5441464C554F524F42454E5A594C4F58494D452E6D6F6C0A20204368656D447261773130313931303232303432440A2032322032322020302020302020302020302020302020302020302020303939392056323030300A2020202D322E313433392020202D312E3033313320202020302E303030302043202020302020302020302020302020302020302020302020302020302020302020302020300A2020202D322E313433392020202D312E3835363320202020302E303030302043202020302020302020302020302020302020302020302020302020302020302020302020300A2020202D312E343239352020202D322E3236383820202020302E303030302043202020302020302020302020302020302020302020302020302020302020302020302020300A2020202D302E373135302020202D312E3835363320202020302E303030302043202020302020302020302020302020302020302020302020302020302020302020302020300A2020202D302E373135302020202D312E3033313320202020302E303030302043202020302020302020302020302020302020302020302020302020302020302020302020300A2020202D312E343239352020202D302E3631383820202020302E303030302043202020302020302020302020302020302020302020302020302020302020302020302020300A2020202D322E383537342020202D302E3631383820202020302E303030302046202020302020302020302020302020302020302020302020302020302020302020302020300A2020202D322E383537342020202D322E3236383820202020302E303030302046202020302020302020302020302020302020302020302020302020302020302020302020300A2020202D312E343239352020202D332E3039333820202020302E303030302046202020302020302020302020302020302020302020302020302020302020302020302020300A2020202D302E303030322020202D322E3236383820202020302E303030302046202020302020302020302020302020302020302020302020302020302020302020302020300A2020202D302E303030322020202D302E3632303120202020302E303030302046202020302020302020302020302020302020302020302020302020302020302020302020300A2020202D312E3432393520202020302E3230363220202020302E303030302043202020302020302020302020302020302020302020302020302020302020302020302020300A2020202D302E3731343220202020302E3631383720202020302E30303030204F202020302020302020302020302020302020302020302020302020302020302020302020300A2020202D302E3731343220202020312E3434333720202020302E30303030204E202020302020302020302020302020302020302020302020302020302020302020302020300A2020202D302E3030303520202020312E3835363320202020302E303030302043202020302020302020302020302020302020302020302020302020302020302020302020300A20202020322E3835373420202020312E3835363320202020302E303030302043202020302020302020302020302020302020302020302020302020302020302020302020300A20202020322E3134323920202020312E3434333820202020302E303030302043202020302020302020302020302020302020302020302020302020302020302020302020300A20202020312E3432383420202020312E3835363320202020302E303030302043202020302020302020302020302020302020302020302020302020302020302020302020300A20202020302E3731333920202020312E3434333820202020302E303030302043202020302020302020302020302020302020302020302020302020302020302020302020300A20202020322E3835373420202020322E3638313320202020302E303030302043202020302020302020302020302020302020302020302020302020302020302020302020300A20202020322E3134323920202020332E3039333820202020302E303030302043202020302020302020302020302020302020302020302020302020302020302020302020300A20202020312E3432383420202020322E3638313220202020302E303030302043202020302020302020302020302020302020302020302020302020302020302020302020300A2020312020322020322020302020202020200A2020322020332020312020302020202020200A2020332020342020322020302020202020200A2020342020352020312020302020202020200A2020352020362020322020302020202020200A2020362020312020312020302020202020200A2020312020372020312020302020202020200A2020322020382020312020302020202020200A2020332020392020312020302020202020200A2020342031302020312020302020202020200A2020352031312020312020302020202020200A2020362031322020312020302020202020200A2031322031332020312020302020202020200A2031332031342020312020302020202020200A2031342031352020322020302020202020200A2031352031392020312020302020202020200A2031362031372020312020302020202020200A2031372031382020312020302020202020200A2031382031392020312020302020202020200A2031362032302020312020302020202020200A2032302032312020312020302020202020200A2032312032322020312020302020202020200A4D2020454E44
Contributor: UOEH
InstType: EI
InstName: HP 5970
IoniMethod: _ENERGY 70 eV
IonPolarity: pos
Date: 2010-10-09 19:48:36+02:00
Num Peaks: 67
41 227 42 38 43 145 44 8 46 6 51 5 53 10 54 36 55 109 56 31 
57 67 58 22 67 22 68 10 69 67 70 9 71 5 72 7 75 7 79 10 
80 3 81 20 82 57 83 27 84 3 86 7 93 13 96 25 97 8 98 10 
99 32 109 9 110 6 111 8 112 3 114 3 117 26 119 15 131 9 142 29 
143 6 149 6 150 18 155 3 161 36 162 3 167 21 168 8 169 3 176 9 
177 34 178 13 179 6 181 999 182 72 194 10 195 34 196 12 197 11 198 30 
202 9 207 60 219 3 222 42 239 320 240 26 252 14 
