Name: ALLYLHYDRAZONE ISOBUTYRALDEHYDE
MW: 126
Formula: C7H14N2
Synonym: MassBank: JP000862
Synonym: ALLYLHYDRAZONE ISOBUTYRALDEHYDE
Synonym: ISOBUTYRALDEHYDE ALLYLHYDRAZONE
Structure: 310A32320A414C4C594C48594452415A4F4E452049534F4255545952414C4445485944452E6D6F6C0A20204368656D447261773038303631303034343432440A2020392020382020302020302020302020302020302020302020302020303939392056323030300A20202020322E3036323520202020302E3731343520202020302E303030302043202020302020302020302020302020302020302020302020302020302020302020302020300A20202020312E3635303020202020302E3030303020202020302E303030302043202020302020302020302020302020302020302020302020302020302020302020302020300A20202020302E3832353020202020302E3030303020202020302E303030302043202020302020302020302020302020302020302020302020302020302020302020302020300A20202020322E303632352020202D302E3731343520202020302E303030302043202020302020302020302020302020302020302020302020302020302020302020302020300A20202020302E343132352020202D302E3731343520202020302E30303030204E202020302020302020302020302020302020302020302020302020302020302020302020300A2020202D302E343132352020202D302E3731343520202020302E30303030204E202020302020302020302020302020302020302020302020302020302020302020302020300A2020202D302E3832353020202020302E3030303020202020302E303030302043202020302020302020302020302020302020302020302020302020302020302020302020300A2020202D312E3635303020202020302E3030303020202020302E303030302043202020302020302020302020302020302020302020302020302020302020302020302020300A2020202D322E3036323520202020302E3731343520202020302E303030302043202020302020302020302020302020302020302020302020302020302020302020302020300A2020312020322020312020302020202020200A2020322020332020312020302020202020200A2020322020342020312020302020202020200A2020352020362020312020302020202020200A2020372020382020312020302020202020200A2020382020392020322020302020202020200A2020362020372020312020302020202020200A2020332020352020322020302020202020200A4D2020454E44
Contributor: SASAKI S, TOYOHASHI UNIV. OF TECH.
InstType: EI
InstName: SHIMADZU LKB-2091
IoniMethod: _ENERGY 70 eV
IonPolarity: pos
Date: 2010-10-09 19:48:36+02:00
Num Peaks: 35
28 579 29 533 30 306 39 34 40 67 41 999 42 213 43 36 44 89 52 18 
53 40 54 9 55 533 56 490 57 236 58 8 66 22 67 21 68 98 69 9 
70 62 81 53 82 28 83 13 84 49 85 400 86 24 97 30 98 36 99 107 
111 191 112 2 125 28 126 400 127 53 
