Name: N-(2-CHLOROETHYL)-2-PYRROLIDONE
MW: 147
Formula: C6H10ClNO
Synonym: MassBank: JP004168
Synonym: N-(2-CHLOROETHYL)-2-PYRROLIDONE
Structure: 310A32330A4E2D28322D43484C4F524F455448594C292D322D505952524F4C49444F4E452E6D6F6C0A20204368656D447261773038313231303031303632440A2020392020392020302020302020302020302020302020302020302020303939392056323030300A20202020302E343138392020202D302E3037353320202020302E30303030204E202020302020302020302020302020302020302020302020302020302020302020302020300A20202020312E3137323520202020302E3236303320202020302E303030302043202020302020302020302020302020302020302020302020302020302020302020302020300A20202020312E373234362020202D302E3335323820202020302E303030302043202020302020302020302020302020302020302020302020302020302020302020302020300A20202020312E333132312020202D312E3036373320202020302E303030302043202020302020302020302020302020302020302020302020302020302020302020302020300A20202020302E353035312020202D302E3839353720202020302E303030302043202020302020302020302020302020302020302020302020302020302020302020302020300A20202020312E3334343120202020312E3036373320202020302E30303030204F202020302020302020302020302020302020302020302020302020302020302020302020300A2020202D302E3239353620202020302E3333373220202020302E303030302043202020302020302020302020302020302020302020302020302020302020302020302020300A2020202D312E303130312020202D302E3037353320202020302E303030302043202020302020302020302020302020302020302020302020302020302020302020302020300A2020202D312E3732343620202020302E3333373220202020302E3030303020436C2020302020302020302020302020302020302020302020302020302020302020302020300A2020312020322020312020302020202020200A2020322020332020312020302020202020200A2020332020342020312020302020202020200A2020342020352020312020302020202020200A2020312020352020312020302020202020200A2020322020362020322020302020202020200A2020372020382020312020302020202020200A2020382020392020312020302020202020200A2020312020372020312020302020202020200A4D2020454E44
Contributor: MASS SPECTROSCOPY SOC. OF JAPAN (MSSJ)
InstType: EI
InstName: HITACHI RMU-6E
IoniMethod: _ENERGY 70 eV
IonPolarity: pos
Date: 2010-10-09 19:48:36+02:00
Num Peaks: 73
26 32 27 156 28 220 29 2 30 35 31 2 32 3 36 1 37 3 38 8 
39 72 40 3 41 260 42 174 43 82 44 2 45 1 47 1 48 2 49 2 
50 3 51 8 52 9 53 1 54 24 55 31 56 80 57 3 58 7 61 5 
62 6 63 4 64 4 65 13 66 3 67 1 68 52 69 190 70 410 71 2 
79 1 80 7 81 1 82 1 83 7 84 40 85 14 86 1 88 2 89 1 
90 7 91 0 92 27 93 1 94 9 95 0 96 2 97 1 98 999 99 7 
100 4 110 1 111 3 112 5 113 4 118 4 120 1 146 1 147 230 148 27 
149 82 150 1 151 1 
