Name: META TOLUIC ACID
MW: 136
Formula: C8H8O2
Synonym: MassBank: JP000044
Synonym: META TOLUIC ACID
Structure: 4D45544120544F4C55494320414349442E6D6F6C0A20204368656D447261773038313131303232353532440A2031302031302020302020302020302020302020302020302020302020303939392056323030300A2020202D302E323036322020202D302E3335373220202020302E303030302043202020302020302020302020302020302020302020302020302020302020302020302020300A20202020302E3230363220202020302E3335373220202020302E303030302043202020302020302020302020302020302020302020302020302020302020302020302020300A20202020312E343433382020202D302E3335373220202020302E303030302043202020302020302020302020302020302020302020302020302020302020302020302020300A20202020302E323036322020202D312E3037313720202020302E303030302043202020302020302020302020302020302020302020302020302020302020302020302020300A20202020312E3033313320202020302E3335373220202020302E303030302043202020302020302020302020302020302020302020302020302020302020302020302020300A20202020312E303331332020202D312E3037313720202020302E303030302043202020302020302020302020302020302020302020302020302020302020302020302020300A20202020312E3434333820202020312E3037313720202020302E303030302043202020302020302020302020302020302020302020302020302020302020302020302020300A2020202D312E303331332020202D302E3335373220202020302E303030302043202020302020302020302020302020302020302020302020302020302020302020302020300A2020202D312E343433382020202D312E3037313720202020302E30303030204F202020302020302020302020302020302020302020302020302020302020302020302020300A2020202D312E3434333820202020302E3335373220202020302E30303030204F202020302020302020302020302020302020302020302020302020302020302020302020300A2020312020322020312020302020202020200A2020312020342020322020302020202020200A2020322020352020322020302020202020200A2020332020352020312020302020202020200A2020332020362020322020302020202020200A2020342020362020312020302020202020200A2020352020372020312020302020202020200A2020312020382020312020302020202020200A2020382020392020322020302020202020200A2020382031302020312020302020202020200A4D2020454E44
Contributor: TAJIMA S, GUNMA COLLEGE OF TECHNOLOGY
InstType: EI
InstName: HITACHI RMU-7M
IoniMethod: _ENERGY 70 eV
IonPolarity: pos
Date: 2010-10-09 19:48:36+02:00
Num Peaks: 23
27 20 38 18 39 140 41 42 43 27 45 18 50 36 51 54 62 30 63 86 
65 204 77 45 79 18 89 63 90 59 91 999 92 168 118 10 119 279 120 18 
135 21 136 436 137 34 
