Name: 2-ETHYL-4-METHYLTHIAZOLE
MW: 127
Formula: C6H9NS
Synonym: MassBank: JP007794
Synonym: 2-ETHYL-4-METHYLTHIAZOLE
Structure: 310A32310A322D455448594C2D342D4D455448594C544849415A4F4C452E6D6F6C0A20204368656D447261773031303331303132353532440A2020382020382020302020302020302020302020302020302020302020303939392056323030300A20202020302E3333363720202020302E3532373520202020302E303030302053202020302020302020302020302020302020302020302020302020302020302020302020300A20202020302E333336372020202D302E3239373520202020302E303030302043202020302020302020302020302020302020302020302020302020302020302020302020300A2020202D302E343437392020202D302E3535323420202020302E30303030204E202020302020302020302020302020302020302020302020302020302020302020302020300A2020202D302E3933323820202020302E3131353020202020302E303030302043202020302020302020302020302020302020302020302020302020302020302020302020300A2020202D302E3434373920202020302E3738323420202020302E303030302043202020302020302020302020302020302020302020302020302020302020302020302020300A2020202D312E3735373820202020302E3131353020202020302E303030302043202020302020302020302020302020302020302020302020302020302020302020302020300A20202020312E303034322020202D302E3738323420202020302E303030302043202020302020302020302020302020302020302020302020302020302020302020302020300A20202020312E373537382020202D302E3434363920202020302E303030302043202020302020302020302020302020302020302020302020302020302020302020302020300A2020312020322020312020302020202020200A2020322020332020322020302020202020200A2020332020342020312020302020202020200A2020342020352020322020302020202020200A2020312020352020312020302020202020200A2020342020362020312020302020202020200A2020372020382020312020302020202020200A2020322020372020312020302020202020200A4D2020454E44
Contributor: HASHIMOTO K, KYOTO COLLEGE OF PHARMACY
InstType: EI
InstName: HITACHI M-80
IoniMethod: _ENERGY 20 eV
IonPolarity: pos
Date: 2010-10-09 19:48:36+02:00
Num Peaks: 28
29 10 39 340 41 49 42 219 45 196 46 16 54 37 56 140 59 16 68 56 
70 46 71 758 72 999 73 318 74 136 82 285 85 38 99 210 100 80 112 391 
113 21 114 18 125 109 126 758 127 800 128 300 129 188 130 10 
