Name: MassBank: JP003107
MW: 314
Formula: C18H22N2OS
Synonym: MassBank: JP003107
Synonym: METHOXYPROMAZINE TENTONE,METHOPROMAZINE
Structure: 303536385F4D4554484F585950524F4D415A494E452054454E544F4E452C4D4554484F50524F4D415A494E452E6D6F6C0A20204368656D447261773039303631303138343732440A2032322032342020302020302020302020302020302020302020302020303939392056323030300A2020202D322E3134333620202020312E3434333820202020302E303030302043202020302020302020302020302020302020302020302020302020302020302020302020300A2020202D322E3134333620202020302E3631383820202020302E303030302043202020302020302020302020302020302020302020302020302020302020302020302020300A2020202D312E3432393220202020302E3230363320202020302E303030302043202020302020302020302020302020302020302020302020302020302020302020302020300A2020202D302E3731343720202020302E3631383820202020302E303030302043202020302020302020302020302020302020302020302020302020302020302020302020300A2020202D302E3731343720202020312E3434333820202020302E303030302043202020302020302020302020302020302020302020302020302020302020302020302020300A2020202D312E3432393220202020312E3835363320202020302E303030302043202020302020302020302020302020302020302020302020302020302020302020302020300A20202020302E3030303220202020302E3230363320202020302E30303030204E202020302020302020302020302020302020302020302020302020302020302020302020300A20202020302E3731343220202020302E3631383820202020302E303030302043202020302020302020302020302020302020302020302020302020302020302020302020300A20202020302E3731343220202020312E3434333820202020302E303030302043202020302020302020302020302020302020302020302020302020302020302020302020300A20202020302E3030303120202020312E3835363320202020302E303030302053202020302020302020302020302020302020302020302020302020302020302020302020300A20202020312E3432383720202020302E3230363320202020302E303030302043202020302020302020302020302020302020302020302020302020302020302020302020300A20202020322E3134333220202020302E3631383820202020302E303030302043202020302020302020302020302020302020302020302020302020302020302020302020300A20202020322E3134333220202020312E3434333820202020302E303030302043202020302020302020302020302020302020302020302020302020302020302020302020300A20202020312E3432383720202020312E3835363320202020302E303030302043202020302020302020302020302020302020302020302020302020302020302020302020300A2020202D322E3835373120202020302E3230363320202020302E30303030204F202020302020302020302020302020302020302020302020302020302020302020302020300A2020202D322E383538312020202D302E3631383720202020302E303030302043202020302020302020302020302020302020302020302020302020302020302020302020300A20202020322E313433362020202D312E3033313320202020302E30303030204E202020302020302020302020302020302020302020302020302020302020302020302020300A20202020312E343239322020202D302E3631383820202020302E303030302043202020302020302020302020302020302020302020302020302020302020302020302020300A20202020302E373134372020202D312E3033313320202020302E303030302043202020302020302020302020302020302020302020302020302020302020302020302020300A20202020302E303030322020202D302E3631383720202020302E303030302043202020302020302020302020302020302020302020302020302020302020302020302020300A20202020322E313433362020202D312E3835363320202020302E303030302043202020302020302020302020302020302020302020302020302020302020302020302020300A20202020322E383538312020202D302E3631383820202020302E303030302043202020302020302020302020302020302020302020302020302020302020302020302020300A2020312020322020322020302020202020200A2020322020332020312020302020202020200A2020332020342020322020302020202020200A2020342020352020312020302020202020200A2020352020362020322020302020202020200A2020362020312020312020302020202020200A2020342020372020312020302020202020200A2020372020382020312020302020202020200A2020382020392020322020302020202020200A2020392031302020312020302020202020200A2031302020352020312020302020202020200A2020382031312020312020302020202020200A2031312031322020322020302020202020200A2031322031332020312020302020202020200A2031332031342020322020302020202020200A2031342020392020312020302020202020200A2020322031352020312020302020202020200A2031352031362020312020302020202020200A2020372032302020312020302020202020200A2031372031382020312020302020202020200A2031382031392020312020302020202020200A2031392032302020312020302020202020200A2031372032312020312020302020202020200A2031372032322020312020302020202020200A4D2020454E44
Contributor: SASAKI S, TOYOHASHI UNIV. OF TECH.
InstType: EI
InstName: Unknown
IoniMethod: EI
IonPolarity: pos
Date: 2010-10-09 19:48:36+02:00
Num Peaks: 224
26 8 27 20 28 61 29 2 30 67 31 1 32 11 34 1 36 5 37 1 
38 3 39 2 40 6 41 28 42 93 43 4 44 52 45 17 47 1 50 1 
51 14 52 5 53 2 54 0 55 13 56 27 57 27 58 999 59 45 60 1 
62 3 63 2 64 5 65 13 66 3 67 0 68 5 69 16 70 45 71 0 
72 28 73 3 74 3 75 1 76 8 77 20 78 7 79 1 80 1 81 1 
82 9 83 0 84 40 85 74 86 380 87 2 88 2 89 6 90 3 91 1 
92 3 93 5 94 3 95 1 96 7 97 3 98 1 100 2 101 3 102 5 
103 5 104 0 105 3 106 1 107 2 108 1 109 11 110 1 111 3 112 0 
113 5 114 4 115 13 116 0 117 1 118 2 119 1 120 0 121 3 122 4 
123 4 124 0 125 3 126 9 127 11 128 0 129 3 130 3 132 1 133 0 
134 4 135 4 136 4 138 0 139 10 140 19 141 23 142 0 145 3 146 4 
147 3 148 1 149 7 151 4 152 9 153 2 154 17 155 3 156 1 157 1 
158 9 159 9 160 5 164 0 165 4 166 15 167 39 168 2 169 13 170 3 
171 14 172 0 173 4 177 1 178 6 179 1 180 13 181 4 182 5 183 1 
184 18 185 112 186 45 187 1 188 3 189 1 190 1 191 0 192 4 193 6 
194 7 195 1 196 10 197 9 198 24 199 2 200 13 201 3 202 3 203 0 
204 3 205 5 206 7 207 1 208 8 209 9 210 39 211 1 212 19 213 11 
214 25 215 1 216 2 217 1 218 3 219 0 220 2 221 4 222 4 223 1 
224 9 225 7 226 15 227 2 228 101 229 161 230 29 231 1 232 1 235 1 
236 8 237 1 238 8 239 7 240 11 241 1 242 31 243 39 244 9 245 0 
246 3 247 14 248 3 249 1 250 1 252 1 253 5 254 4 255 22 256 18 
257 8 258 0 260 7 261 4 262 1 267 0 268 71 269 48 270 12 271 0 
314 307 315 67 316 23 317 4 
