Name: 4-TERT-BUTYLPYROCATECHOL
MW: 166
Formula: C10H14O2
Synonym: MassBank: JP004053
Synonym: 4-TERT-BUTYLPYROCATECHOL
Structure: 342D544552542D425554594C5059524F4341544543484F4C2E6D6F6C0A20204368656D447261773034323231303231323532440A2031322031322020302020302020302020302020302020302020302020303939392056323030300A2020202D322E303632352020202D302E3330323020202020302E30303030204F202020302020302020302020302020302020302020302020302020302020302020302020300A2020202D312E323337352020202D302E3330323020202020302E303030302043202020302020302020302020302020302020302020302020302020302020302020302020300A2020202D302E3832353020202020302E3431323520202020302E303030302043202020302020302020302020302020302020302020302020302020302020302020302020300A2020202D312E3233373520202020312E3132373020202020302E30303030204F202020302020302020302020302020302020302020302020302020302020302020302020300A20202020302E3030303020202020302E3431323520202020302E303030302043202020302020302020302020302020302020302020302020302020302020302020302020300A20202020302E343132352020202D302E3330323020202020302E303030302043202020302020302020302020302020302020302020302020302020302020302020302020300A20202020302E303030302020202D312E3031363420202020302E303030302043202020302020302020302020302020302020302020302020302020302020302020302020300A2020202D302E383235302020202D312E3031363420202020302E303030302043202020302020302020302020302020302020302020302020302020302020302020302020300A20202020312E323337352020202D302E3330323020202020302E303030302043202020302020302020302020302020302020302020302020302020302020302020302020300A20202020312E3233373520202020302E3532333020202020302E303030302043202020302020302020302020302020302020302020302020302020302020302020302020300A20202020322E303632352020202D302E3330323020202020302E303030302043202020302020302020302020302020302020302020302020302020302020302020302020300A20202020312E323337352020202D312E3132373020202020302E303030302043202020302020302020302020302020302020302020302020302020302020302020302020300A2020312020322020312020302020202020200A2020322020332020312020302020202020200A2020332020342020312020302020202020200A2020332020352020322020302020202020200A2020352020362020312020302020202020200A2020362020372020322020302020202020200A2020372020382020312020302020202020200A2020322020382020322020302020202020200A2020392031302020312020302020202020200A2020392031322020312020302020202020200A2020392031312020312020302020202020200A2020362020392020312020302020202020200A4D2020454E44
Contributor: MASS SPECTROSCOPY SOC. OF JAPAN (MSSJ)
InstType: EI
InstName: HITACHI RMU-6L
IoniMethod: _ENERGY 70 eV
IonPolarity: pos
Date: 2010-10-09 19:48:36+02:00
Num Peaks: 57
18 18 27 31 28 20 29 2 39 57 41 75 43 34 50 1 51 45 52 20 
53 35 55 3 57 15 58 11 62 15 63 2 64 18 65 39 66 20 67 2 
74.5 15 75 15 75.5 10 77 7 78 17 79 31 80 28 81 1 89 20 91 18 
93 38 94 2 95 10 99 27 103 20 104 1 105 72 106 12 107 37 108 6 
109 40 110 32 111 65 117 1 119 13 123 170 124 18 133 3 135 82 136 15 
137 55 150 3 151 999 152 108 153 13 166 29 167 39 
