Name: TETRACHLOROETHYLENE
MW: 163
Formula: C2Cl4
Synonym: MassBank: JP008792
Synonym: TETRACHLOROETHYLENE
Structure: 310A31360A544554524143484C4F524F455448594C454E452E6D6F6C0A20204368656D447261773038313231303037313532440A2020362020352020302020302020302020302020302020302020302020303939392056323030300A20202020302E3230363320202020302E3335373220202020302E303030302043202020302020302020302020302020302020302020302020302020302020302020302020300A2020202D302E323036332020202D302E3335373220202020302E303030302043202020302020302020302020302020302020302020302020302020302020302020302020300A2020202D302E3230363320202020312E3037313720202020302E3030303020436C2020302020302020302020302020302020302020302020302020302020302020302020300A20202020312E3033313220202020302E3335373220202020302E3030303020436C2020302020302020302020302020302020302020302020302020302020302020302020300A20202020302E323036332020202D312E3037313720202020302E3030303020436C2020302020302020302020302020302020302020302020302020302020302020302020300A2020202D312E303331322020202D302E3335373220202020302E3030303020436C2020302020302020302020302020302020302020302020302020302020302020302020300A2020312020322020322020302020202020200A2020312020332020312020302020202020200A2020312020342020312020302020202020200A2020322020352020312020302020202020200A2020322020362020312020302020202020200A4D2020454E44
Contributor: UOEH
InstType: EI
InstName: HP 5970
IoniMethod: _ENERGY 70 eV
IonPolarity: pos
Date: 2010-10-09 19:48:36+02:00
Num Peaks: 33
34 2 35 210 36 24 37 69 44 7 47 321 49 106 59 185 60 2 61 66 
64 2 70 2 82 105 83 16 84 63 86 2 94 391 95 3 96 251 98 45 
119 2 129 700 130 4 131 674 132 17 133 226 135 25 164 795 166 999 167 22 
168 501 169 4 170 109 
