Name: MassBank: JP004786
MW: 245
Formula: C17H27N
Synonym: MassBank: JP004786
Synonym: 1-CYCLOHEXYL-2-METHYL-4,5,6,7,8,9-HEXAHYDROCYCLOOCTA(B)PYRROLE
Structure: 312D4359434C4F484558594C2D322D4D455448594C2D342C352C362C372C382C392D48455841485944524F4359434C4F4F435441284229505952524F4C452E6D6F6C0A20204368656D447261773131313830393031313532440A2031392032312020302020302020302020302020302020302020302020303939392056323030300A20202020302E343636382020202D302E3032363020202020302E30303030204E202020302020302020302020302020302020302020302020302020302020302020302020300A2020202D302E333430322020202D302E3139373520202020302E303030302043202020302020302020302020302020302020302020302020302020302020302020302020300A2020202D302E3735323720202020302E3531373020202020302E303030302043202020302020302020302020302020302020302020302020302020302020302020302020300A2020202D302E3230303720202020312E3133303120202020302E303030302043202020302020302020302020302020302020302020302020302020302020302020302020300A20202020302E3535333020202020302E3739343520202020302E303030302043202020302020302020302020302020302020302020302020302020302020302020302020300A2020202D312E3534393620202020302E3733303520202020302E303030302043202020302020302020302020302020302020302020302020302020302020302020302020300A2020202D322E3236343120202020302E3331383020202020302E303030302043202020302020302020302020302020302020302020302020302020302020302020302020300A2020202D322E343737362020202D302E3437383920202020302E303030302043202020302020302020302020302020302020302020302020302020302020302020302020300A2020202D322E303635312020202D312E3139333420202020302E303030302043202020302020302020302020302020302020302020302020302020302020302020302020300A2020202D312E323638322020202D312E3430363920202020302E303030302043202020302020302020302020302020302020302020302020302020302020302020302020300A2020202D302E353533372020202D302E3939343420202020302E303030302043202020302020302020302020302020302020302020302020302020302020302020302020300A20202020312E3236373520202020312E3230373020202020302E303030302043202020302020302020302020302020302020302020302020302020302020302020302020300A20202020312E303739392020202D302E3537383020202020302E303030302043202020302020302020302020302020302020302020302020302020302020302020302020300A20202020302E393038332020202D312E3338353020202020302E303030302043202020302020302020302020302020302020302020302020302020302020302020302020300A20202020312E353231342020202D312E3933373020202020302E303030302043202020302020302020302020302020302020302020302020302020302020302020302020300A20202020322E333036312020202D312E3638323120202020302E303030302043202020302020302020302020302020302020302020302020302020302020302020302020300A20202020322E343737362020202D302E3837353120202020302E303030302043202020302020302020302020302020302020302020302020302020302020302020302020300A20202020312E383634352020202D302E3332333120202020302E303030302043202020302020302020302020302020302020302020302020302020302020302020302020300A2020202D302E3337323220202020312E3933373020202020302E303030302048202020302020302020302020302020302020302020302020302020302020302020302020300A2020312020322020312020302020202020200A2020322020332020322020302020202020200A2020332020342020312020302020202020200A2020342020352020322020302020202020200A2020312020352020312020302020202020200A2020362020372020312020302020202020200A2020372020382020312020302020202020200A2020382020392020312020302020202020200A2020392031302020312020302020202020200A2031302031312020312020302020202020200A2020322031312020312020302020202020200A2020332020362020312020302020202020200A2020352031322020312020302020202020200A2031332031342020312020302020202020200A2031342031352020312020302020202020200A2031352031362020312020302020202020200A2031362031372020312020302020202020200A2031372031382020312020302020202020200A2031332031382020312020302020202020200A2020312031332020312020302020202020200A2020342031392020312020302020202020200A4D2020454E44
Contributor: MASS SPECTROSCOPY SOC. OF JAPAN (MSSJ)
InstType: EI
InstName: JEOL JMS-D-3000
IoniMethod: _ENERGY 70 eV
IonPolarity: pos
Date: 2010-10-09 19:48:36+02:00
Num Peaks: 58
41 415 42 102 53 84 55 391 65 83 66 56 67 82 77 106 79 118 81 80 
83 103 91 93 93 86 94 295 95 101 96 66 106 92 107 407 108 409 109 89 
117 65 118 71 120 448 121 294 122 126 131 58 132 251 133 113 134 295 135 103 
144 57 146 166 148 111 160 111 161 69 162 247 163 194 164 120 174 54 176 199 
177 172 188 64 189 211 190 333 191 116 202 668 203 135 214 67 216 549 217 767 
218 127 228 72 230 111 242 54 243 285 244 188 245 999 246 193 
