Name: TRANS-3-DECENOIC ACID
MW: 170
Formula: C10H18O2
Synonym: MassBank: JP009199
Synonym: TRANS-3-DECENOIC ACID
Structure: 5452414E532D332D444543454E4F494320414349442E6D6F6C0A20204368656D447261773038313231303037353832440A2031322031312020302020302020302020302020302020302020302020303939392056323030300A20202020322E3530303620202020302E3431323520202020302E303030302043202020302020302020302020302020302020302020302020302020302020302020302020300A20202020322E353030362020202D302E3431323520202020302E303030302043202020302020302020302020302020302020302020302020302020302020302020302020300A20202020312E373836322020202D302E3832353020202020302E303030302043202020302020302020302020302020302020302020302020302020302020302020302020300A20202020312E303731372020202D302E3431323520202020302E303030302043202020302020302020302020302020302020302020302020302020302020302020302020300A20202020302E333537322020202D302E3832353020202020302E303030302043202020302020302020302020302020302020302020302020302020302020302020302020300A2020202D302E333537322020202D302E3431323520202020302E303030302043202020302020302020302020302020302020302020302020302020302020302020302020300A2020202D312E303731372020202D302E3832353020202020302E303030302043202020302020302020302020302020302020302020302020302020302020302020302020300A2020202D312E373836322020202D302E3431323520202020302E303030302043202020302020302020302020302020302020302020302020302020302020302020302020300A2020202D322E353030362020202D302E3832353020202020302E303030302043202020302020302020302020302020302020302020302020302020302020302020302020300A2020202D332E323135312020202D302E3431323520202020302E303030302043202020302020302020302020302020302020302020302020302020302020302020302020300A20202020312E3738363220202020302E3832353020202020302E30303030204F202020302020302020302020302020302020302020302020302020302020302020302020300A20202020332E3231353120202020302E3832353020202020302E30303030204F202020302020302020302020302020302020302020302020302020302020302020302020300A2020312020322020312020302020202020200A2020322020332020312020302020202020200A2020332020342020322020302020202020200A2020342020352020312020302020202020200A2020352020362020312020302020202020200A2020362020372020312020302020202020200A2020372020382020312020302020202020200A2020382020392020312020302020202020200A2020392031302020312020302020202020200A2020312031312020322020302020202020200A2020312031322020312020302020202020200A4D2020454E44
Contributor: SODA AROMATIC CO., LTD.
InstType: EI
InstName: HITACHI M-80B
IoniMethod: _ENERGY 70 eV
IonPolarity: pos
Date: 2010-10-09 19:48:36+02:00
Num Peaks: 70
14 12 15 20 26 25 27 320 28 31 29 471 30 13 31 27 39 280 40 56 
41 862 42 307 43 999 44 39 45 176 50 17 51 27 52 18 53 142 54 348 
55 895 56 387 57 227 58 79 59 42 60 126 61 20 65 29 66 33 67 240 
68 242 69 448 70 199 71 163 73 124 74 15 77 24 79 44 80 16 81 216 
82 141 83 138 84 291 85 54 86 26 87 105 88 13 94 19 95 100 96 139 
97 94 98 52 99 58 100 163 101 98 108 68 109 54 110 274 111 87 112 10 
113 37 114 78 115 24 123 94 124 36 127 33 134 29 152 127 153 19 170 26 
