Name: MassBank: JP007841
MW: 160
Formula: C12H16
Synonym: MassBank: JP007841
Synonym: 1,5,7-TRIMETHYLINDAN
Structure: 312C352C372D5452494D455448594C494E44414E2E6D6F6C0A20204368656D447261773131313630393132313432440A2031322031332020302020302020302020302020302020302020302020303939392056323030300A2020202D312E3232313620202020302E3235343920202020302E303030302043202020302020302020302020302020302020302020302020302020302020302020302020300A2020202D312E373036352020202D302E3431323520202020302E303030302043202020302020302020302020302020302020302020302020302020302020302020302020300A2020202D312E323231362020202D312E3037393920202020302E303030302043202020302020302020302020302020302020302020302020302020302020302020302020300A2020202D302E343336392020202D302E3832353020202020302E303030302043202020302020302020302020302020302020302020302020302020302020302020302020300A20202020302E323737352020202D312E3233373520202020302E303030302043202020302020302020302020302020302020302020302020302020302020302020302020300A20202020302E393932302020202D302E3832353020202020302E303030302043202020302020302020302020302020302020302020302020302020302020302020302020300A20202020302E393932302020202D302E3030303020202020302E303030302043202020302020302020302020302020302020302020302020302020302020302020302020300A20202020302E3237373520202020302E3431323520202020302E303030302043202020302020302020302020302020302020302020302020302020302020302020302020300A2020202D302E3433363920202020302E3030303020202020302E303030302043202020302020302020302020302020302020302020302020302020302020302020302020300A20202020302E3237373520202020312E3233373520202020302E303030302043202020302020302020302020302020302020302020302020302020302020302020302020300A20202020312E373036352020202D312E3233373520202020302E303030302043202020302020302020302020302020302020302020302020302020302020302020302020300A2020202D312E3437363520202020312E3033393620202020302E303030302043202020302020302020302020302020302020302020302020302020302020302020302020300A2020312020322020312020302020202020200A2020322020332020312020302020202020200A2020332020342020312020302020202020200A2020342020352020312020302020202020200A2020352020362020322020302020202020200A2020362020372020312020302020202020200A2020372020382020322020302020202020200A2020382020392020312020302020202020200A2020312020392020312020302020202020200A2020342020392020322020302020202020200A2020382031302020312020302020202020200A2020362031312020312020302020202020200A2020312031322020312020302020202020200A4D2020454E44
Contributor: HASHIMOTO K, KYOTO COLLEGE OF PHARMACY
InstType: EI
InstName: HITACHI M-80
IoniMethod: _ENERGY 20 eV
IonPolarity: pos
Date: 2010-10-09 19:48:36+02:00
Num Peaks: 21
15 30 27 75 28 19 39 74 41 26 51 48 53 23 63 34 65 31 77 43 
79 15 91 44 103 15 105 36 115 91 128 105 129 90 145 999 159 18 160 192 
161 25 
