Name: ACETYL VANILLIN
MW: 194
Formula: C10H10O4
Synonym: MassBank: JP006384
Synonym: ACETYL VANILLIN
Synonym: 4-FORMYL-2-METHOXYPHENYL ACETATE
Structure: 41434554594C2056414E494C4C494E2E6D6F6C0A20204368656D447261773033323531303232313532440A2031342031342020302020302020302020302020302020302020302020303939392056323030300A20202020312E323337352020202D302E3335373220202020302E30303030204F202020302020302020302020302020302020302020302020302020302020302020302020300A2020202D322E343735302020202D312E3037313720202020302E30303030204F202020302020302020302020302020302020302020302020302020302020302020302020300A2020202D322E303632352020202D302E3335373220202020302E303030302043202020302020302020302020302020302020302020302020302020302020302020302020300A2020202D312E323337352020202D302E3335373220202020302E303030302043202020302020302020302020302020302020302020302020302020302020302020302020300A2020202D302E3832353020202020302E3335373220202020302E303030302043202020302020302020302020302020302020302020302020302020302020302020302020300A20202020302E3030303020202020302E3335373220202020302E303030302043202020302020302020302020302020302020302020302020302020302020302020302020300A20202020302E3431323520202020312E3037313720202020302E30303030204F202020302020302020302020302020302020302020302020302020302020302020302020300A20202020302E3030303020202020312E3738363220202020302E303030302043202020302020302020302020302020302020302020302020302020302020302020302020300A20202020302E343132352020202D302E3335373220202020302E303030302043202020302020302020302020302020302020302020302020302020302020302020302020300A20202020302E303030302020202D312E3037313720202020302E303030302043202020302020302020302020302020302020302020302020302020302020302020302020300A2020202D302E383235302020202D312E3037313720202020302E303030302043202020302020302020302020302020302020302020302020302020302020302020302020300A20202020312E363530302020202D312E3037313720202020302E303030302043202020302020302020302020302020302020302020302020302020302020302020302020300A20202020322E343735302020202D312E3037313720202020302E30303030204F202020302020302020302020302020302020302020302020302020302020302020302020300A20202020312E323337352020202D312E3738363220202020302E303030302043202020302020302020302020302020302020302020302020302020302020302020302020300A2020322020332020322020302020202020200A2020332020342020312020302020202020200A2020342020352020312020302020202020200A2020352020362020322020302020202020200A2020362020372020312020302020202020200A2020372020382020312020302020202020200A2020362020392020312020302020202020200A2020312020392020312020302020202020200A2020392031302020322020302020202020200A2031302031312020312020302020202020200A2020342031312020322020302020202020200A2031322031332020322020302020202020200A2031322031342020312020302020202020200A2020312031322020312020302020202020200A4D2020454E44
Contributor: HISAHIRO HAGIWARA, CHEMICAL RESEARCH INSTITUTE OF NON-AQUEOUSSOLUTIONS TOHOKU UNIV.
InstType: EI
InstName: HITACHI M-80B
IoniMethod: _ENERGY 70 eV
IonPolarity: pos
Date: 2010-10-09 19:48:36+02:00
Num Peaks: 54
14 26 15 138 17 42 18 116 26 20 27 26 28 33 29 44 37 14 38 26 
39 71 41 47 42 40 43 847 44 19 49 12 50 76 51 187 52 133 53 89 
54 12 55 23 61 13 62 49 63 80 64 21 65 91 66 18 67 24 77 51 
79 133 80 55 81 119 91 16 92 20 93 15 95 56 105 16 107 12 108 31 
109 133 110 12 119 19 120 10 121 16 122 16 123 70 124 21 137 37 150 19 
151 811 152 999 153 72 194 48 
