Name: PROPYL ALCOHOL
CAS: 71-23-8
MW: 60
Formula: C3H8O
Synonym: MassBank: JP007107
Synonym: PROPYL ALCOHOL
Synonym: 1-PROPANOL
Structure: 310A31320A50524F50594C20414C434F484F4C2E6D6F6C0A20204368656D447261773131323230393232333532440A2020342020332020302020302020302020302020302020302020302020303939392056323030300A2020202D302E333537322020202D302E3230363220202020302E303030302043202020302020302020302020302020302020302020302020302020302020302020302020300A20202020302E3335373220202020302E3230363220202020302E303030302043202020302020302020302020302020302020302020302020302020302020302020302020300A20202020312E303731372020202D302E3230363220202020302E303030302043202020302020302020302020302020302020302020302020302020302020302020302020300A2020202D312E3037313720202020302E3230363220202020302E30303030204F202020302020302020302020302020302020302020302020302020302020302020302020300A2020312020322020312020302020202020200A2020322020332020312020302020202020200A2020312020342020312020302020202020200A4D2020454E44
Contributor: SODA AROMATIC CO., LTD.
InstType: EI
InstName: HITACHI M-80B
IoniMethod: _ENERGY 70 eV
IonPolarity: pos
Date: 2010-10-09 19:48:36+02:00
Num Peaks: 19
15 16 17 17 18 74 26 38 27 142 28 34 29 106 30 17 31 999 32 11 
38 12 39 49 41 70 42 106 43 35 45 16 57 11 59 147 60 88 
