Name: TETRAETHYLAMMONIUM BROMIDE
CAS: 71-91-0
MW: 209
Formula: C8H20BrN
Synonym: MassBank: JP004194
Synonym: TETRAETHYLAMMONIUM BROMIDE
Synonym: N,N,N-TRIETHYLETHANAMINIUM BROMIDE
Structure: 4E2C4E2C4E2D545249455448594C455448414E414D494E49554D2042524F4D4944452E6D6F6C0A20204368656D447261773038313231303032343332440A2031302020382020302020302020302020302020302020302020302020303939392056323030300A20202020302E3030303020202020302E3030303020202020302E30303030204E202020302020332020302020302020302020302020302020302020302020302020302020300A2020202D302E303030302020202D302E3832353020202020302E303030302043202020302020302020302020302020302020302020302020302020302020302020302020300A20202020302E373134352020202D312E3233373520202020302E303030302043202020302020302020302020302020302020302020302020302020302020302020302020300A2020202D302E383235302020202D302E3030303020202020302E303030302043202020302020302020302020302020302020302020302020302020302020302020302020300A2020202D312E323337352020202D302E3731343520202020302E303030302043202020302020302020302020302020302020302020302020302020302020302020302020300A2020202D302E3030303020202020302E3832353020202020302E303030302043202020302020302020302020302020302020302020302020302020302020302020302020300A2020202D302E3731343520202020312E3233373520202020302E303030302043202020302020302020302020302020302020302020302020302020302020302020302020300A20202020302E383235302020202D302E3030303020202020302E303030302043202020302020302020302020302020302020302020302020302020302020302020302020300A20202020312E323337352020202D302E3731343520202020302E303030302043202020302020302020302020302020302020302020302020302020302020302020302020300A2020202D302E353833342020202D302E3538333420202020302E303030302042722020302020352020302020302020302020302020302020302020302020302020302020300A2020322020332020312020302020202020200A2020312020322020312020302020202020200A2020342020352020312020302020202020200A2020312020342020312020302020202020200A2020362020372020312020302020202020200A2020312020362020312020302020202020200A2020382020392020312020302020202020200A2020312020382020312020302020202020200A4D202043484720203220202031202020312020313020202D310A4D2020454E44
Contributor: ISA K, DEPT. OF CHEM., FAC. OF EDUC., FUKUI UNIV.
InstType: EI
InstName: JEOL JMS-01-SG
IoniMethod: _ENERGY 15 eV
IonPolarity: pos
Date: 2010-10-09 19:48:36+02:00
Num Peaks: 14
29 280 42 320 44 280 56 4 58 280 70 140 72 140 79 6 80 34 86 999 
100 26 101 0 108 28 130 14 
