Name: ORTHO-CRESOL ACETATE
MW: 150
Formula: C9H10O2
Synonym: MassBank: JP002530
Synonym: ORTHO-CRESOL ACETATE
Synonym: ORTHO-TOLYL ACETATE
Structure: 4143455449432041434944204F5254484F2D544F4C594C2045535445522E6D6F6C0A20204368656D447261773038313131303135343632440A2031312031312020302020302020302020302020302020302020302020303939392056323030300A2020202D312E303331332020202D302E3731343520202020302E303030302043202020302020302020302020302020302020302020302020302020302020302020302020300A2020202D302E363138382020202D312E3432383920202020302E303030302043202020302020302020302020302020302020302020302020302020302020302020302020300A2020202D312E383536332020202D302E3731343520202020302E30303030204F202020302020302020302020302020302020302020302020302020302020302020302020300A2020202D302E3631383820202020302E3030303020202020302E30303030204F202020302020302020302020302020302020302020302020302020302020302020302020300A20202020302E3230363220202020302E3030303020202020302E303030302043202020302020302020302020302020302020302020302020302020302020302020302020300A20202020302E3631383720202020302E3731343520202020302E303030302043202020302020302020302020302020302020302020302020302020302020302020302020300A20202020312E383536332020202D302E3030303020202020302E303030302043202020302020302020302020302020302020302020302020302020302020302020302020300A20202020302E363138382020202D302E3731343520202020302E303030302043202020302020302020302020302020302020302020302020302020302020302020302020300A20202020312E3434333720202020302E3731343520202020302E303030302043202020302020302020302020302020302020302020302020302020302020302020302020300A20202020312E343433372020202D302E3731343520202020302E303030302043202020302020302020302020302020302020302020302020302020302020302020302020300A20202020302E3230363220202020312E3432383920202020302E303030302043202020302020302020302020302020302020302020302020302020302020302020302020300A2020312020322020312020302020202020200A2020312020332020322020302020202020200A2020312020342020312020302020202020200A2020352020362020312020302020202020200A2020352020382020322020302020202020200A2020362020392020322020302020202020200A2020372020392020312020302020202020200A2020372031302020322020302020202020200A2020382031302020312020302020202020200A2020362031312020312020302020202020200A2020342020352020312020302020202020200A4D2020454E44
Contributor: YAMAMOTO M, DEP. CHEMISTRY, FAC. SCIENCE, NARA WOMEN'S UNIV.
InstType: EI
InstName: HITACHI RMU-6M
IoniMethod: _ENERGY 70 eV
IonPolarity: pos
Date: 2010-10-09 19:48:36+02:00
Num Peaks: 24
15 50 27 42 28 29 38 12 39 64 43 278 50 27 51 61 52 39 53 31 
63 21 65 18 77 111 78 40 79 79 80 51 89 16 90 87 91 35 107 276 
108 999 109 78 150 146 151 16 
