Name: 2-HEPTAFLUOROPROPYLBENZIMIDAZOL
MW: 286
Formula: C10H5F7N2
Synonym: MassBank: JP007922
Synonym: 2-HEPTAFLUOROPROPYLBENZIMIDAZOL
Structure: 322D4845505441464C554F524F50524F50594C42454E5A494D4944415A4F4C2E6D6F6C0A20204368656D447261773031303331303134303232440A2031392032302020302020302020302020302020302020302020302020303939392056323030300A2020202D322E3939393320202020302E3431323520202020302E303030302043202020302020302020302020302020302020302020302020302020302020302020302020300A2020202D322E393939332020202D302E3431323520202020302E303030302043202020302020302020302020302020302020302020302020302020302020302020302020300A2020202D322E323834382020202D302E3832353020202020302E303030302043202020302020302020302020302020302020302020302020302020302020302020302020300A2020202D312E353730322020202D302E3431323520202020302E303030302043202020302020302020302020302020302020302020302020302020302020302020302020300A2020202D312E3537303220202020302E3431323520202020302E303030302043202020302020302020302020302020302020302020302020302020302020302020302020300A2020202D322E3238343820202020302E3832353020202020302E303030302043202020302020302020302020302020302020302020302020302020302020302020302020300A2020202D302E373835362020202D302E3636373420202020302E30303030204E202020302020302020302020302020302020302020302020302020302020302020302020300A2020202D302E3330303720202020302E3030303020202020302E303030302043202020302020302020302020302020302020302020302020302020302020302020302020300A2020202D302E3738353620202020302E3636373520202020302E30303030204E202020302020302020302020302020302020302020302020302020302020302020302020300A20202020302E3532343320202020302E3030303020202020302E303030302043202020302020302020302020302020302020302020302020302020302020302020302020300A20202020312E3334393320202020302E3030303020202020302E303030302043202020302020302020302020302020302020302020302020302020302020302020302020300A20202020322E3137343320202020302E3030303020202020302E303030302043202020302020302020302020302020302020302020302020302020302020302020302020300A20202020322E3939393320202020302E3030303020202020302E303030302046202020302020302020302020302020302020302020302020302020302020302020302020300A20202020302E3532343320202020302E3832353020202020302E303030302046202020302020302020302020302020302020302020302020302020302020302020302020300A20202020302E353234332020202D302E3832353020202020302E303030302046202020302020302020302020302020302020302020302020302020302020302020302020300A20202020312E3334393320202020302E3832353020202020302E303030302046202020302020302020302020302020302020302020302020302020302020302020302020300A20202020312E333439332020202D302E3832353020202020302E303030302046202020302020302020302020302020302020302020302020302020302020302020302020300A20202020322E3137343320202020302E3832353020202020302E303030302046202020302020302020302020302020302020302020302020302020302020302020302020300A20202020322E313734332020202D302E3832353020202020302E303030302046202020302020302020302020302020302020302020302020302020302020302020302020300A2020312020322020322020302020202020200A2020322020332020312020302020202020200A2020332020342020322020302020202020200A2020342020352020312020302020202020200A2020352020362020322020302020202020200A2020362020312020312020302020202020200A2020342020372020312020302020202020200A2020372020382020322020302020202020200A2020382020392020312020302020202020200A2020392020352020312020302020202020200A2020382031302020312020302020202020200A2031302031312020312020302020202020200A2031312031322020312020302020202020200A2031322031332020312020302020202020200A2031302031342020312020312020202020200A2031302031352020312020312020202020200A2031312031362020312020312020202020200A2031312031372020312020312020202020200A2031322031382020312020312020202020200A2031322031392020312020312020202020200A4D2020454E44
Contributor: MAKI Y, GOVERMENT INDUSTRIAL RESEARCH INSTITUTE, NAGOYA
InstType: EI
InstName: HITACHI M-80
IoniMethod: _ENERGY 20 eV
IonPolarity: pos
Date: 2010-10-09 19:48:36+02:00
Num Peaks: 11
90 13 95 24 102 25 140 76 147 77 167 999 168 91 198 10 267 52 286 507 
287 60 
