Name: 2-BENZYL-2-METHYLCYCLOHEXANONE
MW: 202
Formula: C14H18O
Synonym: MassBank: JP002375
Synonym: 2-BENZYL-2-METHYLCYCLOHEXANONE
Structure: 322D42454E5A594C2D322D4D455448594C4359434C4F484558414E4F4E452E6D6F6C0A20204368656D447261773132323130393232343032440A2031352031362020302020302020302020302020302020302020302020303939392056323030300A2020202D312E313436382020202D302E3338373620202020302E303030302043202020302020302020302020302020302020302020302020302020302020302020302020300A2020202D302E3631363520202020302E3234343420202020302E303030302043202020302020302020302020302020302020302020302020302020302020302020302020300A2020202D302E3839383620202020312E3031393620202020302E303030302043202020302020302020302020302020302020302020302020302020302020302020302020300A2020202D312E3731313120202020312E3136323920202020302E303030302043202020302020302020302020302020302020302020302020302020302020302020302020300A2020202D322E3234313420202020302E3533303920202020302E303030302043202020302020302020302020302020302020302020302020302020302020302020302020300A2020202D312E393539322020202D302E3234343420202020302E303030302043202020302020302020302020302020302020302020302020302020302020302020302020300A2020202D302E303836322020202D302E3338373620202020302E303030302043202020302020302020302020302020302020302020302020302020302020302020302020300A20202020302E3039383020202020302E3635363920202020302E303030302043202020302020302020302020302020302020302020302020302020302020302020302020300A20202020302E3831323520202020302E3234343420202020302E303030302043202020302020302020302020302020302020302020302020302020302020302020302020300A20202020302E383132352020202D302E3538303620202020302E303030302043202020302020302020302020302020302020302020302020302020302020302020302020300A20202020312E353236392020202D302E3939333120202020302E303030302043202020302020302020302020302020302020302020302020302020302020302020302020300A20202020322E323431342020202D302E3538303620202020302E303030302043202020302020302020302020302020302020302020302020302020302020302020302020300A20202020322E3234313420202020302E3234343420202020302E303030302043202020302020302020302020302020302020302020302020302020302020302020302020300A20202020312E3532363920202020302E3635363920202020302E303030302043202020302020302020302020302020302020302020302020302020302020302020302020300A2020202D302E383634362020202D312E3136323920202020302E30303030204F202020302020302020302020302020302020302020302020302020302020302020302020300A2020312020322020312020302020202020200A2020322020332020312020302020202020200A2020332020342020312020302020202020200A2020342020352020312020302020202020200A2020352020362020312020302020202020200A2020312020362020312020302020202020200A2020322020372020312020302020202020200A2020382020392020312020302020202020200A2020392031302020312020302020202020200A2031302031312020322020302020202020200A2031312031322020312020302020202020200A2031322031332020322020302020202020200A2031332031342020312020302020202020200A2020392031342020322020302020202020200A2020322020382020312020302020202020200A2020312031352020322020302020202020200A4D2020454E44
Contributor: MASS SPECTROSCOPY SOC. OF JAPAN (MSSJ)
InstType: EI
InstName: JEOL JMS-D-3000
IoniMethod: _ENERGY 70 eV
IonPolarity: pos
Date: 2010-10-09 19:48:36+02:00
Num Peaks: 23
44 33 51 34 55 148 65 76 67 37 77 41 83 71 91 999 92 139 105 37 
111 33 115 38 117 86 118 30 129 40 131 46 143 65 145 37 158 45 159 98 
187 54 202 234 203 45 
