Name: MassBank: JP004963
MW: 215
Formula: C10H25NSi2
Synonym: MassBank: JP004963
Synonym: 1-BUTYL-2,2,5,5-TETRAMETHYL-2,5-DISILAPYRROLIDINE
Structure: 312D425554594C2D322C322C352C352D54455452414D455448594C2D322C352D444953494C41505952524F4C4944494E452E6D6F6C0A20204368656D447261773131313730393233343532440A2031332031332020302020302020302020302020302020302020302020303939392056323030300A2020202D302E343137302020202D302E3334313220202020302E30303030204E202020302020302020302020302020302020302020302020302020302020302020302020300A2020202D312E323337352020202D302E3235343920202020302E303030302053692020302020302020302020302020302020302020302020302020302020302020302020300A2020202D312E3430393020202020302E3535323020202020302E303030302043202020302020302020302020302020302020302020302020302020302020302020302020300A2020202D302E3639343620202020302E3936343520202020302E303030302043202020302020302020302020302020302020302020302020302020302020302020302020300A2020202D302E3038313520202020302E3431323520202020302E303030302053692020302020302020302020302020302020302020302020302020302020302020302020300A20202020302E363333302020202D302E3030303020202020302E303030302043202020302020302020302020302020302020302020302020302020302020302020302020300A20202020302E3430333520202020312E3037393920202020302E303030302043202020302020302020302020302020302020302020302020302020302020302020302020300A2020202D312E323337352020202D312E3037393920202020302E303030302043202020302020302020302020302020302020302020302020302020302020302020302020300A2020202D322E303538302020202D302E3334313220202020302E303030302043202020302020302020302020302020302020302020302020302020302020302020302020300A2020202D302E303034352020202D312E3035353620202020302E303030302043202020302020302020302020302020302020302020302020302020302020302020302020300A20202020302E383230352020202D312E3035353620202020302E303030302043202020302020302020302020302020302020302020302020302020302020302020302020300A20202020312E323333302020202D302E3334313220202020302E303030302043202020302020302020302020302020302020302020302020302020302020302020302020300A20202020322E303538302020202D302E3334313220202020302E303030302043202020302020302020302020302020302020302020302020302020302020302020302020300A2020312020322020312020302020202020200A2020322020332020312020302020202020200A2020332020342020312020302020202020200A2020342020352020312020302020202020200A2020312020352020312020302020202020200A2020352020362020312020312020202020200A2020352020372020312020362020202020200A2020322020382020312020362020202020200A2020322020392020312020312020202020200A2031302031312020312020302020202020200A2031312031322020312020302020202020200A2031322031332020312020302020202020200A2020312031302020312020302020202020200A4D2020454E44
Contributor: MASS SPECTROSCOPY SOC. OF JAPAN (MSSJ)
InstType: EI
InstName: JEOL JMS-D-3000
IoniMethod: _ENERGY 70 eV
IonPolarity: pos
Date: 2010-10-09 19:48:36+02:00
Num Peaks: 41
41 21 43 24 45 43 58 14 59 137 60 12 71 18 72 13 73 123 74 14 
79 19 85 34 86 21 100 28 101 16 102 12 103 18 114 10 115 11 116 23 
117 93 118 15 119 10 128 12 129 14 130 20 131 14 132 12 144 14 145 76 
146 13 158 26 160 13 172 999 173 191 174 84 175 11 198 11 200 109 201 22 
215 26 
