Name: ISOPROPYLAMINE
MW: 59
Formula: C3H9N
Synonym: MassBank: JP005401
Synonym: ISOPROPYLAMINE
Structure: 310A31320A49534F50524F50594C414D494E452E6D6F6C0A20204368656D447261773038313131303231343932440A2020342020332020302020302020302020302020302020302020302020303939392056323030300A20202020302E3631383820202020302E3731343520202020302E30303030204E202020302020302020302020302020302020302020302020302020302020302020302020300A20202020302E3230363220202020302E3030303020202020302E303030302043202020302020302020302020302020302020302020302020302020302020302020302020300A20202020302E363138382020202D302E3731343520202020302E303030302043202020302020302020302020302020302020302020302020302020302020302020302020300A2020202D302E3631383820202020302E3030303020202020302E303030302043202020302020302020302020302020302020302020302020302020302020302020302020300A2020322020332020312020302020202020200A2020322020342020312020302020202020200A2020312020322020312020302020202020200A4D2020454E44
Contributor: TAJIMA S, GUNMA COLLEGE OF TECHNOLOGY
InstType: EI
InstName: HITACHI RMU-7M
IoniMethod: _ENERGY 70 eV
IonPolarity: pos
Date: 2010-10-09 19:48:36+02:00
Num Peaks: 19
15 66 18 226 19 82 26 17 27 78 28 80 29 25 30 26 38 17 39 63 
40 34 41 124 42 145 43 104 44 999 45 361 46 38 58 74 59 46 
