Name: MassBank: JP007215
MW: 170
Formula: C11H22O
Synonym: MassBank: JP007215
Synonym: 3,3,5-TRIMETHYLCYCLOHEXYL ETHYL ETHER
Structure: 332C332C352D5452494D455448594C4359434C4F484558594C20455448594C2045544845522E6D6F6C0A20204368656D447261773032323131303139353532440A2031322031322020302020302020302020302020302020302020302020303939392056323030300A20202020302E3736333520202020312E3035363120202020302E30303030204F202020302020302020302020302020302020302020302020302020302020302020302020300A20202020312E3437373920202020302E3634333620202020302E303030302043202020302020302020302020302020302020302020302020302020302020302020302020300A20202020322E3139323420202020312E3035363120202020302E303030302043202020302020302020302020302020302020302020302020302020302020302020302020300A20202020302E3034393020202020302E3634333620202020302E303030302043202020302020302020302020302020302020302020302020302020302020302020302020300A2020202D302E3636353520202020312E3035363120202020302E303030302043202020302020302020302020302020302020302020302020302020302020302020302020300A2020202D312E3337393920202020302E3634333620202020302E303030302043202020302020302020302020302020302020302020302020302020302020302020302020300A2020202D312E333739392020202D302E3138313420202020302E303030302043202020302020302020302020302020302020302020302020302020302020302020302020300A2020202D302E363635352020202D302E3539333920202020302E303030302043202020302020302020302020302020302020302020302020302020302020302020302020300A20202020302E303439302020202D302E3138313420202020302E303030302043202020302020302020302020302020302020302020302020302020302020302020302020300A2020202D302E363635352020202D312E3431383920202020302E303030302043202020302020302020302020302020302020302020302020302020302020302020302020300A2020202D312E3636323120202020312E3431383920202020302E303030302043202020302020302020302020302020302020302020302020302020302020302020302020300A2020202D322E3139323420202020302E3530303420202020302E303030302043202020302020302020302020302020302020302020302020302020302020302020302020300A2020322020332020312020302020202020200A2020312020322020312020302020202020200A2020342020352020312020302020202020200A2020352020362020312020302020202020200A2020362020372020312020302020202020200A2020372020382020312020302020202020200A2020382020392020312020302020202020200A2020342020392020312020302020202020200A2020382031302020312020302020202020200A2020362031312020312020312020202020200A2020362031322020312020362020202020200A2020312020342020312020302020202020200A4D2020454E44
Contributor: SODA AROMATIC CO., LTD.
InstType: EI
InstName: HITACHI M-80B
IoniMethod: _ENERGY 70 eV
IonPolarity: pos
Date: 2010-10-09 19:48:36+02:00
Num Peaks: 45
15 21 27 206 29 345 31 41 39 110 41 502 42 44 43 222 44 100 45 35 
51 11 53 60 54 15 55 290 56 94 57 167 59 28 65 14 67 123 69 239 
70 27 71 390 72 80 77 19 79 19 80 13 81 76 82 67 83 223 84 13 
85 226 86 11 95 37 96 47 97 14 99 999 100 51 109 357 110 29 113 711 
115 50 124 148 125 29 157 22 170 33 
