Name: 2-METHYL-2-PROPYLAMINE
MW: 73
Formula: C4H11N
Synonym: MassBank: JP000233
Synonym: 2-METHYL-2-PROPYLAMINE
Synonym: TERT-BUTYLAMINE
Structure: 310A31340A322D4D455448594C2D322D50524F50594C414D494E452E6D6F6C0A20204368656D447261773031323231303033323032440A2020352020342020302020302020302020302020302020302020302020303939392056323030300A20202020302E3832353020202020302E3030303020202020302E30303030204E202020302020302020302020302020302020302020302020302020302020302020302020300A20202020302E3030303020202020302E3832353020202020302E303030302043202020302020302020302020302020302020302020302020302020302020302020302020300A20202020302E3030303020202020302E3030303020202020302E303030302043202020302020302020302020302020302020302020302020302020302020302020302020300A20202020302E303030302020202D302E3832353020202020302E303030302043202020302020302020302020302020302020302020302020302020302020302020302020300A2020202D302E3832353020202020302E3030303020202020302E303030302043202020302020302020302020302020302020302020302020302020302020302020302020300A2020322020332020312020302020202020200A2020332020342020312020302020202020200A2020312020332020312020302020202020200A2020332020352020312020302020202020200A4D2020454E44
Contributor: YAMAMOTO M, DEP. CHEMISTRY, FAC. SCIENCE, NARA WOMEN'S UNIV.
InstType: EI
InstName: HITACHI RMU-6M
IoniMethod: _ENERGY 70 eV
IonPolarity: pos
Date: 2010-10-09 19:48:36+02:00
Num Peaks: 16
15 53 18 98 27 42 28 6 29 90 39 56 40 15 41 6 42 186 43 126 
44 29 55 2 56 24 57 58 58 999 59 48 
