Name: MassBank: JP002500
MW: 164
Formula: C10H12O2
Synonym: MassBank: JP002500
Synonym: 3-FURYL 1,1-DIMETHYL-2-PROPENYL KETONE
Structure: 332D465552594C20312C312D44494D455448594C2D322D50524F50454E594C204B45544F4E452E6D6F6C0A20204368656D447261773032323231303138303432440A2031322031322020302020302020302020302020302020302020302020303939392056323030300A20202020302E343833382020202D302E3731343520202020302E303030302043202020302020302020302020302020302020302020302020302020302020302020302020300A20202020302E383936332020202D312E3432383920202020302E30303030204F202020302020302020302020302020302020302020302020302020302020302020302020300A20202020302E3839363320202020302E3030303020202020302E303030302043202020302020302020302020302020302020302020302020302020302020302020302020300A20202020312E3330383820202020302E3731343520202020302E303030302043202020302020302020302020302020302020302020302020302020302020302020302020300A20202020302E3839363320202020312E3432383920202020302E303030302043202020302020302020302020302020302020302020302020302020302020302020302020300A20202020312E363130382020202D302E3431323520202020302E303030302043202020302020302020302020302020302020302020302020302020302020302020302020300A20202020302E3138313820202020302E3431323520202020302E303030302043202020302020302020302020302020302020302020302020302020302020302020302020300A2020202D312E363130382020202D302E3330323020202020302E30303030204F202020302020302020302020302020302020302020302020302020302020302020302020300A2020202D302E383236312020202D302E3034373020202020302E303030302043202020302020302020302020302020302020302020302020302020302020302020302020300A2020202D302E333431322020202D302E3731343520202020302E303030302043202020302020302020302020302020302020302020302020302020302020302020302020300A2020202D302E383236312020202D312E3338313920202020302E303030302043202020302020302020302020302020302020302020302020302020302020302020302020300A2020202D312E363130382020202D312E3132373020202020302E303030302043202020302020302020302020302020302020302020302020302020302020302020302020300A2020312020322020322020302020202020200A2020332020342020312020302020202020200A2020342020352020322020302020202020200A2020332020362020312020312020202020200A2020332020372020312020312020202020200A2020312020332020312020302020202020200A2020382020392020312020302020202020200A2020392031302020322020302020202020200A2031302031312020312020302020202020200A2031312031322020322020302020202020200A2020382031322020312020302020202020200A2020312031302020312020302020202020200A4D2020454E44
Contributor: MASS SPECTROSCOPY SOC. OF JAPAN (MSSJ)
InstType: EI
InstName: JEOL JMS-D-3000
IoniMethod: _ENERGY 70 eV
IonPolarity: pos
Date: 2010-10-09 19:48:36+02:00
Num Peaks: 8
32 37 41 33 69 34 95 999 96 58 135 13 164 95 165 11 
