Name: 4-PHENYLAZOBENZOIC ACID TRIMETHYLSILYL ESTER
MW: 298
Formula: C16H18N2O2Si
Synonym: MassBank: JP007463
Synonym: 4-PHENYLAZOBENZOIC ACID TRIMETHYLSILYL ESTER
Structure: 342D5048454E594C415A4F42454E5A4F49432041434944205452494D455448594C53494C594C2045535445522E6D6F6C0A20204368656D447261773034323231303230353532440A2032312032322020302020302020302020302020302020302020302020303939392056323030300A20202020322E303632352020202D302E3035353320202020302E303030302043202020302020302020302020302020302020302020302020302020302020302020302020300A20202020312E323337352020202D302E3035353320202020302E303030302043202020302020302020302020302020302020302020302020302020302020302020302020300A20202020302E383235302020202D302E3736393720202020302E303030302043202020302020302020302020302020302020302020302020302020302020302020302020300A20202020302E303030302020202D302E3736393720202020302E303030302043202020302020302020302020302020302020302020302020302020302020302020302020300A2020202D302E343132352020202D302E3035353320202020302E303030302043202020302020302020302020302020302020302020302020302020302020302020302020300A2020202D302E3030303020202020302E3635393220202020302E303030302043202020302020302020302020302020302020302020302020302020302020302020302020300A20202020302E3832353020202020302E3635393220202020302E303030302043202020302020302020302020302020302020302020302020302020302020302020302020300A20202020322E343735302020202D302E3736393720202020302E30303030204F202020302020302020302020302020302020302020302020302020302020302020302020300A20202020322E3437353020202020302E3635393220202020302E30303030204F202020302020302020302020302020302020302020302020302020302020302020302020300A2020202D312E323337352020202D302E3035353320202020302E30303030204E202020302020302020302020302020302020302020302020302020302020302020302020300A2020202D312E363530302020202D302E3736393720202020302E30303030204E202020302020302020302020302020302020302020302020302020302020302020302020300A2020202D322E343735302020202D302E3736393720202020302E303030302043202020302020302020302020302020302020302020302020302020302020302020302020300A2020202D322E383837352020202D312E3438343220202020302E303030302043202020302020302020302020302020302020302020302020302020302020302020302020300A2020202D332E373132352020202D312E3438343220202020302E303030302043202020302020302020302020302020302020302020302020302020302020302020302020300A2020202D342E313235302020202D302E3736393720202020302E303030302043202020302020302020302020302020302020302020302020302020302020302020302020300A2020202D332E373132352020202D302E3035353320202020302E303030302043202020302020302020302020302020302020302020302020302020302020302020302020300A2020202D322E383837352020202D302E3035353320202020302E303030302043202020302020302020302020302020302020302020302020302020302020302020302020300A20202020332E3330303020202020302E3635393220202020302E303030302053692020302020302020302020302020302020302020302020302020302020302020302020300A20202020332E3330303020202020312E3438343220202020302E303030302043202020302020302020302020302020302020302020302020302020302020302020302020300A20202020342E3132353020202020302E3635393220202020302E303030302043202020302020302020302020302020302020302020302020302020302020302020302020300A20202020332E333030302020202D302E3136353820202020302E303030302043202020302020302020302020302020302020302020302020302020302020302020302020300A2020312020322020312020302020202020200A2020322020332020312020302020202020200A2020332020342020322020302020202020200A2020342020352020312020302020202020200A2020352020362020322020302020202020200A2020362020372020312020302020202020200A2020322020372020322020302020202020200A2020312020382020322020302020202020200A2020312020392020312020302020202020200A2031302031312020322020302020202020200A2031322031332020312020302020202020200A2031332031342020322020302020202020200A2031342031352020312020302020202020200A2031352031362020322020302020202020200A2031362031372020312020302020202020200A2031322031372020322020302020202020200A2031312031322020312020302020202020200A2020352031302020312020302020202020200A2031382031392020312020302020202020200A2031382032302020312020302020202020200A2031382032312020312020302020202020200A2020392031382020312020302020202020200A4D2020454E44
Contributor: KOGA M, UNIV. OF OCCUPATIONAL AND ENVIRONMENTAL HEALTH
InstType: EI
InstName: JEOL JMS-01-SG
IoniMethod: _ENERGY 70 eV
IonPolarity: pos
Date: 2010-10-09 19:48:36+02:00
Num Peaks: 51
43 20 44 20 45 61 47 1 50 43 51 78 55 20 57 3 63 14 64 11 
65 17 73 30 74 29 75 87 76 209 77 999 78 87 89 11 91 14 92 2 
93 17 103 622 104 223 105 56 106 34 120 11 121 11 134 1 135 29 149 11 
150 14 151 1 152 34 153 23 178 23 180 1 181 34 187 40 193 465 194 8 
195 17 209 93 211 11 221 6 239 43 283 188 284 34 285 1 298 427 299 101 
300 40 
