Name: 5-MERCAPTOTETRAZOLE
MW: 102
Formula: CH2N4S
Synonym: MassBank: JP008284
Synonym: 5-MERCAPTOTETRAZOLE
Structure: 310A31370A352D4D4552434150544F54455452415A4F4C452E6D6F6C0A20204368656D447261773034323331303036313132440A2020362020362020302020302020302020302020302020302020302020303939392056323030300A20202020302E3236323720202020302E3636373420202020302E30303030204E202020302020302020302020302020302020302020302020302020302020302020302020300A20202020312E3034373320202020302E3431323520202020302E30303030204E202020302020302020302020302020302020302020302020302020302020302020302020300A20202020312E303437332020202D302E3431323520202020302E30303030204E202020302020302020302020302020302020302020302020302020302020302020302020300A20202020302E323632372020202D302E3636373420202020302E30303030204E202020302020302020302020302020302020302020302020302020302020302020302020300A2020202D302E3232323320202020302E3030303020202020302E303030302043202020302020302020302020302020302020302020302020302020302020302020302020300A2020202D312E3034373320202020302E3030303020202020302E303030302053202020302020302020302020302020302020302020302020302020302020302020302020300A2020312020322020312020302020202020200A2020322020332020322020302020202020200A2020332020342020312020302020202020200A2020342020352020322020302020202020200A2020312020352020312020302020202020200A2020352020362020312020302020202020200A4D2020454E44
Contributor: UBE SCIENTIFIC ANALYSIS LABORATORY
InstType: EI
InstName: HITACHI M-60
IoniMethod: _ENERGY 70 eV
IonPolarity: pos
Date: 2010-10-09 19:48:36+02:00
Num Peaks: 45
14 44 15 86 16 49 17 128 18 612 20 77 27 53 28 72 29 128 32 92 
33 34 34 92 36 177 38 52 39 12 41 58 42 149 43 540 44 999 45 207 
46 20 47 54 55 45 56 21 57 43 58 37 59 389 60 145 61 32 69 43 
70 8 71 31 73 74 74 111 81 10 82 10 83 20 84 15 85 12 87 9 
97 9 98 9 102 377 104 12 105 8 
