Name: CHLOROFORMIC ACID 2-METHOXYETHYL ESTER
MW: 138
Formula: C4H7ClO3
Synonym: MassBank: JP008875
Synonym: CHLOROFORMIC ACID 2-METHOXYETHYL ESTER
Synonym: 2-METHOXYETHYL CHLOROFORMATE
Structure: 310A32300A43484C4F524F464F524D4943204143494420322D4D4554484F5859455448594C2045535445522E6D6F6C0A20204368656D447261773031323231303032323332440A2020382020372020302020302020302020302020302020302020302020303939392056323030300A2020202D312E3033313320202020302E3030303020202020302E303030302043202020302020302020302020302020302020302020302020302020302020302020302020300A2020202D312E3835363320202020302E3030303020202020302E30303030204F202020302020302020302020302020302020302020302020302020302020302020302020300A2020202D302E3631383720202020302E3731343520202020302E30303030204F202020302020302020302020302020302020302020302020302020302020302020302020300A2020202D302E363138372020202D302E3731343520202020302E3030303020436C2020302020302020302020302020302020302020302020302020302020302020302020300A20202020302E3230363220202020302E3731343520202020302E303030302043202020302020302020302020302020302020302020302020302020302020302020302020300A20202020302E363138382020202D302E3030303020202020302E303030302043202020302020302020302020302020302020302020302020302020302020302020302020300A20202020312E343433372020202D302E3030303020202020302E30303030204F202020302020302020302020302020302020302020302020302020302020302020302020300A20202020312E383536332020202D302E3731343520202020302E303030302043202020302020302020302020302020302020302020302020302020302020302020302020300A2020312020322020322020302020202020200A2020312020332020312020302020202020200A2020312020342020312020302020202020200A2020352020362020312020302020202020200A2020372020382020312020302020202020200A2020362020372020312020302020202020200A2020332020352020312020302020202020200A4D2020454E44
Contributor: TAJIMA S, GUNMA COLLEGE OF TECHNOLOGY
InstType: EI
InstName: HITACHI RMU-7M
IoniMethod: _ENERGY 70 eV
IonPolarity: pos
Date: 2010-10-09 19:48:36+02:00
Num Peaks: 27
14 34 15 346 26 75 27 339 28 131 29 509 30 84 31 172 33 20 35 20 
42 51 43 239 44 55 45 999 46 25 49 76 50 22 51 29 58 313 59 396 
62 117 63 237 64 45 65 77 77 26 89 24 103 14 
