Name: MassBank: JP005098
MW: 175
Formula: C10H9NO2
Synonym: MassBank: JP005098
Synonym: 2,6-DIHYDROXY-4-METHYLQUINOLINE
Structure: 322C362D4449485944524F58592D342D4D455448594C5155494E4F4C494E452E6D6F6C0A20204368656D447261773132323130393034303132440A2031332031342020302020302020302020302020302020302020302020303939392056323030300A20202020302E3731343520202020312E3233373520202020302E30303030204E202020302020302020302020302020302020302020302020302020302020302020302020300A20202020312E3432383920202020302E3832353020202020302E303030302043202020302020302020302020302020302020302020302020302020302020302020302020300A20202020312E3432383920202020302E3030303020202020302E303030302043202020302020302020302020302020302020302020302020302020302020302020302020300A20202020302E373134352020202D302E3431323520202020302E303030302043202020302020302020302020302020302020302020302020302020302020302020302020300A2020202D302E303030302020202D302E3030303020202020302E303030302043202020302020302020302020302020302020302020302020302020302020302020302020300A2020202D302E373134352020202D302E3431323520202020302E303030302043202020302020302020302020302020302020302020302020302020302020302020302020300A2020202D312E343238392020202D302E3030303020202020302E303030302043202020302020302020302020302020302020302020302020302020302020302020302020300A2020202D312E3432383920202020302E3832353020202020302E303030302043202020302020302020302020302020302020302020302020302020302020302020302020300A2020202D302E3731343520202020312E3233373520202020302E303030302043202020302020302020302020302020302020302020302020302020302020302020302020300A20202020302E3030303020202020302E3832353020202020302E303030302043202020302020302020302020302020302020302020302020302020302020302020302020300A20202020302E373134352020202D312E3233373520202020302E303030302043202020302020302020302020302020302020302020302020302020302020302020302020300A2020202D322E313433342020202D302E3431323520202020302E30303030204F202020302020302020302020302020302020302020302020302020302020302020302020300A20202020322E3134333420202020312E3233373520202020302E30303030204F202020302020302020302020302020302020302020302020302020302020302020302020300A2020312020322020312020302020202020200A2020322020332020322020302020202020200A2020332020342020312020302020202020200A2020342020352020322020302020202020200A2020352020362020312020302020202020200A2020362020372020322020302020202020200A2020372020382020312020302020202020200A2020382020392020322020302020202020200A2020392031302020312020302020202020200A2020312031302020322020302020202020200A2020352031302020312020302020202020200A2020342031312020312020302020202020200A2020372031322020312020302020202020200A2020322031332020312020302020202020200A4D2020454E44
Contributor: SASAKI S, TOYOHASHI UNIV. OF TECH.
InstType: EI
InstName: MX-1303
IoniMethod: _ENERGY 50 eV
IonPolarity: pos
Date: 2010-10-09 19:48:36+02:00
Num Peaks: 52
39 66 40 12 41 16 43 2 50 18 51 54 52 43 53 3 55 15 57 10 
58.5 25 63 4 64 22 64.5 55 65 81 66 2 67 10 73 42 73.5 27 75 1 
76 18 77 39 78 24 79 1 80 21 87.5 31 89 33 90 3 91 93 92 16 
93 10 101 1 102 18 103 15 104 12 105 1 116 16 117 66 118 75 119 2 
120 12 128 16 130 59 131 2 145 42 146 82 147 179 148 2 174 28 175 999 
176 119 177 13 
