Name: ALPHA-PINENE
CAS: 80-56-8
MW: 136
Formula: C10H16
Synonym: MassBank: JP007117
Synonym: ALPHA-PINENE
Synonym: 2,6,6-TRIMETHYLBICYCLO(3.1.1)HEPT-2-ENE
Structure: 414C5048412D50494E454E452E6D6F6C0A20204368656D447261773132323130393032343132440A2031302031312020302020302020302020302020302020302020302020303939392056323030300A2020202D302E3330323020202020302E3135313020202020302E303030302043202020302020302020302020302020302020302020302020302020302020302020302020300A2020202D302E333032302020202D302E3637343020202020302E303030302043202020302020302020302020302020302020302020302020302020302020302020302020300A20202020302E343132352020202D312E3038363520202020302E303030302043202020302020302020302020302020302020302020302020302020302020302020302020300A20202020312E313237302020202D302E3637343020202020302E303030302043202020302020302020302020302020302020302020302020302020302020302020302020300A20202020312E3132373020202020302E3135313020202020302E303030302043202020302020302020302020302020302020302020302020302020302020302020302020300A20202020302E3431323520202020302E3536333520202020302E303030302043202020302020302020302020302020302020302020302020302020302020302020302020300A20202020302E343132352020202D302E3236313520202020302E303030302043202020302020302020302020302020302020302020302020302020302020302020302020300A20202020302E3431323520202020312E3338383520202020302E303030302043202020302020302020302020302020302020302020302020302020302020302020302020300A2020202D312E313237302020202D302E3637343020202020302E303030302043202020302020302020302020302020302020302020302020302020302020302020302020300A2020202D302E373134352020202D312E3338383520202020302E303030302043202020302020302020302020302020302020302020302020302020302020302020302020300A2020312020322020312020302020202020200A2020322020332020312020302020202020200A2020332020342020312020302020202020200A2020342020352020312020302020202020200A2020352020362020322020302020202020200A2020362020312020312020302020202020200A2020312020372020312020302020202020200A2020372020332020312020302020202020200A2020362020382020312020302020202020200A2020322020392020312020312020202020200A2020322031302020312020362020202020200A4D2020454E44
Contributor: SODA AROMATIC CO., LTD.
InstType: EI
InstName: HITACHI M-80B
IoniMethod: _ENERGY 70 eV
IonPolarity: pos
Date: 2010-10-09 19:48:36+02:00
Num Peaks: 38
27 75 29 35 39 124 40 12 41 113 42 17 43 47 50 15 51 43 52 22 
53 70 55 50 63 18 65 52 66 21 67 62 68 30 69 11 77 250 78 47 
79 201 80 79 81 31 91 285 92 329 93 999 94 86 95 19 103 17 105 87 
106 25 107 58 108 14 119 18 121 137 122 12 136 89 137 13 
