Name: MassBank: JP007994
MW: 400
Formula: C27H44O2
Synonym: MassBank: JP007994
Synonym: ETHYL (4'AS,5'S,8'AS)-E-(+)-3-METHYL-5-((5'ALPHA-(4'-METHYL-3'-PENTENYL)-2',5'BETA,8'ABETA-TRIMETHYL-3',4',4'A,5',6',7',8',8'A-OCTAHYDRONAPHTHALENYL)-2-PENTENOATE
Structure: 303436335F455448594C2028342741532C3527532C38274153292D452D282B292D332D4D455448594C2D352D28283527414C5048412D2834272D4D455448594C2D33272D50454E54454E594C292D32272C3527424554412C382741424554412D5452494D455448594C2D33272C34272C3427412C35272C36272C37272C38272C3827412D4F435441485944524F4E4150485448414C454E594C292D322D50454E54454E4F4154452E6D6F6C0A20204368656D447261773130313931303231323032440A2033302033312020302020302020302020302020302020302020302020303939392056323030300A2020202D302E3731343520202020312E3133313820202020302E303030302043202020302020302020302020302020302020302020302020302020302020302020302020300A2020202D302E3731343520202020302E3330363820202020302E303030302043202020302020302020302020302020302020302020302020302020302020302020302020300A20202020302E303030302020202D302E3130353720202020302E303030302043202020302020302020302020302020302020302020302020302020302020302020302020300A20202020302E3731343520202020302E3330363820202020302E303030302043202020302020302020302020302020302020302020302020302020302020302020302020300A20202020302E3731343520202020312E3133313820202020302E303030302043202020302020302020302020302020302020302020302020302020302020302020302020300A20202020302E3030303020202020312E3534343320202020302E303030302043202020302020302020302020302020302020302020302020302020302020302020302020300A20202020312E343238392020202D302E3130353720202020302E303030302043202020302020302020302020302020302020302020302020302020302020302020302020300A20202020322E3134333420202020302E3330363820202020302E303030302043202020302020302020302020302020302020302020302020302020302020302020302020300A20202020322E3134333420202020312E3133313820202020302E303030302043202020302020302020302020302020302020302020302020302020302020302020302020300A20202020312E3432383920202020312E3534343320202020302E303030302043202020302020302020302020302020302020302020302020302020302020302020302020300A20202020302E303030302020202D302E3933303720202020302E303030302043202020302020302020302020302020302020302020302020302020302020302020302020300A2020202D302E373134352020202D312E3334333220202020302E303030302043202020302020302020302020302020302020302020302020302020302020302020302020300A2020202D302E373134352020202D322E3136383220202020302E303030302043202020302020302020302020302020302020302020302020302020302020302020302020300A2020202D312E343238392020202D322E3538303720202020302E303030302043202020302020302020302020302020302020302020302020302020302020302020302020300A20202020302E303030302020202D322E3538303720202020302E303030302043202020302020302020302020302020302020302020302020302020302020302020302020300A2020202D312E343238392020202D332E3430353720202020302E303030302043202020302020302020302020302020302020302020302020302020302020302020302020300A2020202D302E373134352020202D332E3831383220202020302E30303030204F202020302020302020302020302020302020302020302020302020302020302020302020300A2020202D322E313433342020202D332E3831383220202020302E30303030204F202020302020302020302020302020302020302020302020302020302020302020302020300A2020202D302E373134352020202D342E3634333220202020302E303030302043202020302020302020302020302020302020302020302020302020302020302020302020300A2020202D312E343238392020202D352E3035353720202020302E303030302043202020302020302020302020302020302020302020302020302020302020302020302020300A2020202D312E343238392020202D302E3130353720202020302E303030302043202020302020302020302020302020302020302020302020302020302020302020302020300A20202020322E3034343620202020322E3039333520202020302E303030302043202020302020302020302020302020302020302020302020302020302020302020302020300A20202020302E373134352020202D302E3531383220202020302E303030302043202020302020302020302020302020302020302020302020302020302020302020302020300A20202020302E3934353620202020322E3231323820202020302E303030302043202020302020302020302020302020302020302020302020302020302020302020302020300A20202020302E3635303220202020312E3935343320202020302E303030302048202020302020302020302020302020302020302020302020302020302020302020302020300A20202020312E3238323920202020322E3936353720202020302E303030302043202020302020302020302020302020302020302020302020302020302020302020302020300A20202020302E3739393520202020332E3633343320202020302E303030302043202020302020302020302020302020302020302020302020302020302020302020302020300A20202020312E3133363820202020342E3338373220202020302E303030302043202020302020302020302020302020302020302020302020302020302020302020302020300A20202020302E3635333420202020352E3035353720202020302E303030302043202020302020302020302020302020302020302020302020302020302020302020302020300A20202020312E3935373420202020342E3437313520202020302E303030302043202020302020302020302020302020302020302020302020302020302020302020302020300A2020312020322020312020302020202020200A2020322020332020322020302020202020200A2020332020342020312020302020202020200A2020342020352020312020302020202020200A2020352020362020312020302020202020200A2020362020312020312020302020202020200A2020342020372020312020302020202020200A2020372020382020312020302020202020200A2020382020392020312020302020202020200A2020392031302020312020302020202020200A2031302020352020312020302020202020200A2020332031312020312020302020202020200A2031312031322020312020302020202020200A2031322031332020312020302020202020200A2031332031342020322020302020202020200A2031332031352020312020302020202020200A2031342031362020312020302020202020200A2031362031372020312020302020202020200A2031362031382020322020302020202020200A2031372031392020312020302020202020200A2031392032302020312020302020202020200A2020322032312020312020302020202020200A2031302032322020312020312020202020200A2020342032332020312020312020202020200A2031302032342020312020362020202020200A2020352032352020312020362020202020200A2032342032362020312020302020202020200A2032362032372020312020302020202020200A2032372032382020322020302020202020200A2032382032392020312020302020202020200A2032382033302020312020302020202020200A4D2020454E44
Contributor: HISAHIRO HAGIWARA, CHEMICAL RESEARCH INSTITUTE OF NON-AQUEOUSSOLUTIONS TOHOKU UNIV.
InstType: EI
InstName: JEOL JMS-DX-300
IoniMethod: _ENERGY 70 eV
IonPolarity: pos
Date: 2010-10-09 19:48:36+02:00
Num Peaks: 58
41 131 53 60 55 320 57 82 67 173 69 951 70 57 71 72 77 76 79 178 
81 311 82 10 83 220 91 191 93 275 95 422 97 116 100 98 105 227 107 318 
108 76 109 339 111 53 113 58 119 506 120 79 121 301 122 114 123 158 128 999 
129 97 131 62 133 574 134 101 135 249 137 9 145 82 147 244 149 188 159 87 
161 177 163 157 173 119 175 166 176 68 177 119 187 53 189 165 191 163 203 57 
217 68 257 61 259 64 273 637 274 111 317 59 318 66 400 80 
