Name: DIBENZOTHIOPHENE
MW: 184
Formula: C12H8S
Synonym: MassBank: JP009589
Synonym: DIBENZOTHIOPHENE
Structure: 444942454E5A4F5448494F5048454E452E6D6F6C0A20204368656D447261773039323131303136353732440A2031332031352020302020302020302020302020302020302020302020303939392056323030300A20202020302E3536313020202020302E3638353520202020302E303030302043202020302020302020302020302020302020302020302020302020302020302020302020300A20202020302E343734382020202D302E3133353020202020302E303030302043202020302020302020302020302020302020302020302020302020302020302020302020300A2020202D302E333332322020202D302E3330363520202020302E303030302043202020302020302020302020302020302020302020302020302020302020302020302020300A2020202D302E3734343720202020302E3430373920202020302E303030302043202020302020302020302020302020302020302020302020302020302020302020302020300A2020202D302E3139323620202020312E3032313020202020302E303030302053202020302020302020302020302020302020302020302020302020302020302020302020300A20202020312E313432332020202D302E3631393920202020302E303030302043202020302020302020302020302020302020302020302020302020302020302020302020300A20202020312E383935392020202D302E3238343420202020302E303030302043202020302020302020302020302020302020302020302020302020302020302020302020300A20202020312E3938323220202020302E3533363120202020302E303030302043202020302020302020302020302020302020302020302020302020302020302020302020300A20202020312E3331343720202020312E3032313020202020302E303030302043202020302020302020302020302020302020302020302020302020302020302020302020300A2020202D312E3536393720202020302E3430373920202020302E303030302043202020302020302020302020302020302020302020302020302020302020302020302020300A2020202D312E393832322020202D302E3330363520202020302E303030302043202020302020302020302020302020302020302020302020302020302020302020302020300A2020202D312E353639372020202D312E3032313020202020302E303030302043202020302020302020302020302020302020302020302020302020302020302020302020300A2020202D302E373434372020202D312E3032313020202020302E303030302043202020302020302020302020302020302020302020302020302020302020302020302020300A2020312020322020312020302020202020200A2020322020332020312020302020202020200A2020332020342020312020302020202020200A2020342020352020312020302020202020200A2020312020352020312020302020202020200A2020362020372020312020302020202020200A2020372020382020322020302020202020200A2020382020392020312020302020202020200A2020312020392020322020302020202020200A2020322020362020322020302020202020200A2031302031312020312020302020202020200A2031312031322020322020302020202020200A2031322031332020312020302020202020200A2020332031332020322020302020202020200A2020342031302020322020302020202020200A4D2020454E44
Contributor: HAMAMATSU UNIV. SCHOOL OF MEDICINE
InstType: EI
InstName: JEOL JMS-AX-505-H
IoniMethod: _ENERGY 70 eV
IonPolarity: pos
Date: 2010-10-09 19:48:36+02:00
Num Peaks: 25
63 18 69 20 74 14 75 14 79 52 87 12 89 12 91 22 92 87 113 17 
114 14 115 12 138 19 139 143 140 24 150 11 151 18 152 79 153 12 158 18 
182 22 183 48 184 999 185 161 186 62 
