Name: 2-BUTYN-1-OL
MW: 70
Formula: C4H6O
Synonym: MassBank: JP009974
Synonym: 2-BUTYN-1-OL
Structure: 310A31340A322D425554594E2D312D4F4C2E6D6F6C0A20204368656D447261773031303331303130323132440A2020352020342020302020302020302020302020302020302020302020303939392056323030300A20202020312E303331332020202D302E3335373220202020302E303030302043202020302020302020302020302020302020302020302020302020302020302020302020300A20202020302E323036322020202D302E3335373220202020302E303030302043202020302020302020302020302020302020302020302020302020302020302020302020300A2020202D302E363138382020202D302E3335373220202020302E303030302043202020302020302020302020302020302020302020302020302020302020302020302020300A2020202D312E343433382020202D302E3335373220202020302E303030302043202020302020302020302020302020302020302020302020302020302020302020302020300A20202020312E3434333820202020302E3335373220202020302E30303030204F202020302020302020302020302020302020302020302020302020302020302020302020300A2020312020322020312020302020202020200A2020322020332020332020302020202020200A2020332020342020312020302020202020200A2020312020352020312020302020202020200A4D2020454E44
Contributor: KURARAY CO., LTD.
InstType: EI
InstName: JEOL JMS-D-300
IoniMethod: _ENERGY 70 eV
IonPolarity: pos
Date: 2010-10-09 19:48:36+02:00
Num Peaks: 31
26 42 27 283 28 269 29 12 30 23 31 69 32 45 34 2 36 16 37 74 
38 98 39 41 40 64 41 228 42 389 43 9 44 35 49 34 50 122 51 15 
52 78 53 164 54 19 55 9 66 11 67 27 68 40 69 999 70 143 71 20 
75 12 
