Name: BETA-(P-PROPIONAMIDOPHENOXY)-ACROLEIN
MW: 219
Formula: C12H13NO3
Synonym: MassBank: JP003723
Synonym: BETA-(P-PROPIONAMIDOPHENOXY)-ACROLEIN
Structure: 424554412D28502D50524F50494F4E414D49444F5048454E4F5859292D4143524F4C45494E2E6D6F6C0A20204368656D447261773039303531303131343832440A2031362031362020302020302020302020302020302020302020302020303939392056323030300A2020202D322E383537392020202D302E3832353020202020302E303030302043202020302020302020302020302020302020302020302020302020302020302020302020300A2020202D332E353732342020202D312E3233373520202020302E30303030204F202020302020302020302020302020302020302020302020302020302020302020302020300A2020202D322E313433342020202D312E3233373520202020302E303030302043202020302020302020302020302020302020302020302020302020302020302020302020300A2020202D312E343238392020202D302E3832353020202020302E303030302043202020302020302020302020302020302020302020302020302020302020302020302020300A2020202D302E373134352020202D312E3233373520202020302E30303030204F202020302020302020302020302020302020302020302020302020302020302020302020300A20202020302E303030302020202D302E3832353020202020302E303030302043202020302020302020302020302020302020302020302020302020302020302020302020300A20202020302E3030303020202020302E3030303020202020302E303030302043202020302020302020302020302020302020302020302020302020302020302020302020300A20202020302E3731343520202020302E3431323520202020302E303030302043202020302020302020302020302020302020302020302020302020302020302020302020300A20202020312E3432383920202020302E3030303020202020302E303030302043202020302020302020302020302020302020302020302020302020302020302020302020300A20202020312E343238392020202D302E3832353020202020302E303030302043202020302020302020302020302020302020302020302020302020302020302020302020300A20202020302E373134352020202D312E3233373520202020302E303030302043202020302020302020302020302020302020302020302020302020302020302020302020300A20202020322E3835373920202020302E3030303020202020302E303030302043202020302020302020302020302020302020302020302020302020302020302020302020300A20202020332E3537323420202020302E3431323520202020302E303030302043202020302020302020302020302020302020302020302020302020302020302020302020300A20202020332E3537323420202020312E3233373520202020302E303030302043202020302020302020302020302020302020302020302020302020302020302020302020300A20202020322E383537392020202D302E3832353020202020302E30303030204F202020302020302020302020302020302020302020302020302020302020302020302020300A20202020322E3134333420202020302E3431323520202020302E30303030204E202020302020302020302020302020302020302020302020302020302020302020302020300A2020312020322020322020302020202020200A2020312020332020312020302020202020200A2020332020342020322020302020202020200A2020362020372020312020302020202020200A2020372020382020322020302020202020200A2020382020392020312020302020202020200A2020392031302020322020302020202020200A2031302031312020312020302020202020200A2020362031312020322020302020202020200A2020352020362020312020302020202020200A2031322031332020312020302020202020200A2031332031342020312020302020202020200A2031322031352020322020302020202020200A2031322031362020312020302020202020200A2020392031362020312020302020202020200A2020342020352020312020302020202020200A4D2020454E44
Contributor: SASAKI S, TOYOHASHI UNIV. OF TECH.
InstType: EI
InstName: Unknown
IoniMethod: EI
IonPolarity: pos
Date: 2010-10-09 19:48:36+02:00
Num Peaks: 53
39 56 40 9 41 21 42 3 43 88 44 21 45 21 46 2 50 14 51 27 
52 41 53 5 54 14 55 24 57 174 63 1 64 9 65 24 71 53 72 12 
77 12 78 7 79 10 80 4 81 59 82 9 93 76 94 1 105 12 106 7 
107 13 108 10 109 999 110 94 115 7 123 1 133 12 134 12 135 14 136 1 
137 7 144 26 151 21 161 1 162 56 163 74 164 12 165 27 166 29 180 6 
218 7 219 11 220 13 
