Name: MassBank: JP005367
MW: 182
Formula: C12H22O
Synonym: MassBank: JP005367
Synonym: (E,E)-8,10-DODECADIEN-1-OL
Structure: 28452C45292D382C31302D444F444543414449454E2D312D4F4C2E6D6F6C0A20204368656D447261773130323230393137303532440A2031372031362020302020302020302020302020302020302020302020303939392056323030300A2020202D342E323836382020202D302E3230363220202020302E30303030204F202020302020302020302020302020302020302020302020302020302020302020302020300A2020202D332E3537323420202020302E3230363220202020302E303030302043202020302020302020302020302020302020302020302020302020302020302020302020300A2020202D322E383537392020202D302E3230363220202020302E303030302043202020302020302020302020302020302020302020302020302020302020302020302020300A2020202D322E3134333420202020302E3230363220202020302E303030302043202020302020302020302020302020302020302020302020302020302020302020302020300A2020202D312E343238392020202D302E3230363220202020302E303030302043202020302020302020302020302020302020302020302020302020302020302020302020300A2020202D302E3731343520202020302E3230363220202020302E303030302043202020302020302020302020302020302020302020302020302020302020302020302020300A20202020302E303030302020202D302E3230363220202020302E303030302043202020302020302020302020302020302020302020302020302020302020302020302020300A20202020302E3731343520202020302E3230363220202020302E303030302043202020302020302020302020302020302020302020302020302020302020302020302020300A20202020312E343238392020202D302E3230363220202020302E303030302043202020302020302020302020302020302020302020302020302020302020302020302020300A20202020322E3134333420202020302E3230363220202020302E303030302043202020302020302020302020302020302020302020302020302020302020302020302020300A20202020312E343238392020202D312E3033313320202020302E303030302048202020302020302020302020302020302020302020302020302020302020302020302020300A20202020322E383537392020202D302E3230363220202020302E303030302043202020302020302020302020302020302020302020302020302020302020302020302020300A20202020322E3134333420202020312E3033313320202020302E303030302048202020302020302020302020302020302020302020302020302020302020302020302020300A20202020332E3537323420202020302E3230363220202020302E303030302043202020302020302020302020302020302020302020302020302020302020302020302020300A20202020322E383537392020202D312E3033313320202020302E303030302048202020302020302020302020302020302020302020302020302020302020302020302020300A20202020342E323836382020202D302E3230363220202020302E303030302043202020302020302020302020302020302020302020302020302020302020302020302020300A20202020332E3537323420202020312E3033313320202020302E303030302048202020302020302020302020302020302020302020302020302020302020302020302020300A2020312020322020312020302020202020200A2020322020332020312020302020202020200A2020332020342020312020302020202020200A2020342020352020312020302020202020200A2020352020362020312020302020202020200A2020362020372020312020302020202020200A2020372020382020312020302020202020200A2020382020392020312020302020202020200A2020392031302020322020302020202020200A2020392031312020312020302020202020200A2031302031322020312020302020202020200A2031302031332020312020302020202020200A2031322031342020322020302020202020200A2031322031352020312020302020202020200A2031342031362020312020302020202020200A2031342031372020312020302020202020200A4D2020454E44
Contributor: YAMAOKA R, KYOTO INSTITUTE OF TECHNOLOGY
InstType: EI
InstName: SHIMADZU QP-1000
IoniMethod: _ENERGY 20 eV
IonPolarity: pos
Date: 2010-10-09 19:48:36+02:00
Num Peaks: 82
43 56 44 89 45 142 56 2 57 43 58 86 59 107 60 1 66 38 67 419 
68 999 69 10 70 51 71 48 72 80 73 28 74 14 75 20 77 12 78 1 
79 264 80 119 81 620 82 27 83 51 84 24 85 19 86 3 87 140 88 65 
89 258 90 1 91 14 93 156 94 125 95 16 96 153 97 50 98 67 99 2 
100 21 101 48 102 37 103 10 105 13 106 22 107 107 108 6 109 72 110 29 
111 40 112 3 114 12 115 14 116 18 117 5 119 18 120 31 121 157 122 6 
123 26 125 12 130 13 131 6 132 38 133 166 134 26 135 11 136 25 138 17 
147 31 149 1 151 10 161 20 163 36 164 17 165 26 175 30 177 36 181 7 
182 398 183 52 
