Name: DIMETHYLHYDRAZONE ACETONE
MW: 100
Formula: C5H12N2
Synonym: MassBank: JP000848
Synonym: DIMETHYLHYDRAZONE ACETONE
Synonym: ACETONE DIMETHYLHYDRAZONE
Structure: 310A31380A44494D455448594C48594452415A4F4E4520414345544F4E452E6D6F6C0A20204368656D447261773036323431303138303632440A2020372020362020302020302020302020302020302020302020302020303939392056323030300A20202020312E343238392020202D302E3631383820202020302E303030302043202020302020302020302020302020302020302020302020302020302020302020302020300A20202020302E373134352020202D302E3230363220202020302E303030302043202020302020302020302020302020302020302020302020302020302020302020302020300A20202020302E3731343520202020302E3631383820202020302E303030302043202020302020302020302020302020302020302020302020302020302020302020302020300A2020202D302E303030302020202D302E3631383820202020302E30303030204E202020302020302020302020302020302020302020302020302020302020302020302020300A2020202D302E373134352020202D302E3230363220202020302E30303030204E202020302020302020302020302020302020302020302020302020302020302020302020300A2020202D312E343238392020202D302E3631383820202020302E303030302043202020302020302020302020302020302020302020302020302020302020302020302020300A2020202D302E3731343520202020302E3631383820202020302E303030302043202020302020302020302020302020302020302020302020302020302020302020302020300A2020312020322020312020302020202020200A2020322020332020312020302020202020200A2020342020352020312020302020202020200A2020352020362020312020302020202020200A2020352020372020312020302020202020200A2020322020342020322020302020202020200A4D2020454E44
Contributor: SASAKI S, TOYOHASHI UNIV. OF TECH.
InstType: EI
InstName: SHIMADZU LKB-2091
IoniMethod: _ENERGY 70 eV
IonPolarity: pos
Date: 2010-10-09 19:48:36+02:00
Num Peaks: 32
28 235 29 106 30 115 31 2 38 15 39 129 40 59 41 23 42 589 43 259 
44 999 45 71 46 25 54 34 55 26 56 71 57 188 58 88 59 58 60 3 
69 32 70 16 71 9 72 1 73 14 74 16 84 11 85 21 86 18 99 168 
100 824 101 59 
