Name: MassBank: JP004686
MW: 228
Formula: C8H18Cl2OSi
Synonym: MassBank: JP004686
Synonym: 1,1-DICHLORO-1-TRIMETHYLSILYL-2-PENTANOL
Structure: 312C312D444943484C4F524F2D312D5452494D455448594C53494C594C2D322D50454E54414E4F4C2E6D6F6C0A20204368656D447261773130323330393033343732440A2031322031312020302020302020302020302020302020302020302020303939392056323030300A2020202D302E3431323520202020302E3330323020202020302E303030302043202020302020302020302020302020302020302020302020302020302020302020302020300A20202020302E3431323520202020302E3330323020202020302E303030302043202020302020302020302020302020302020302020302020302020302020302020302020300A20202020302E383235302020202D302E3431323520202020302E303030302043202020302020302020302020302020302020302020302020302020302020302020302020300A20202020312E363530302020202D302E3431323520202020302E303030302043202020302020302020302020302020302020302020302020302020302020302020302020300A20202020322E303632352020202D312E3132373020202020302E303030302043202020302020302020302020302020302020302020302020302020302020302020302020300A20202020302E3832353020202020312E3031363420202020302E30303030204F202020302020302020302020302020302020302020302020302020302020302020302020300A2020202D312E3233373520202020302E3330323020202020302E303030302053692020302020302020302020302020302020302020302020302020302020302020302020300A2020202D322E3036323520202020302E3330323020202020302E303030302043202020302020302020302020302020302020302020302020302020302020302020302020300A2020202D312E3233373520202020312E3132373020202020302E303030302043202020302020302020302020302020302020302020302020302020302020302020302020300A2020202D312E323337352020202D302E3532333020202020302E303030302043202020302020302020302020302020302020302020302020302020302020302020302020300A2020202D302E3431323520202020312E3132373020202020302E3030303020436C2020302020302020302020302020302020302020302020302020302020302020302020300A2020202D302E343132352020202D302E3532333020202020302E3030303020436C2020302020302020302020302020302020302020302020302020302020302020302020300A2020312020322020312020302020202020200A2020322020332020312020302020202020200A2020332020342020312020302020202020200A2020342020352020312020302020202020200A2020322020362020312020302020202020200A2020372020382020312020302020202020200A2020372020392020312020312020202020200A2020372031302020312020312020202020200A2020312020372020312020302020202020200A2020312031312020312020312020202020200A2020312031322020312020312020202020200A4D2020454E44
Contributor: MASS SPECTROSCOPY SOC. OF JAPAN (MSSJ)
InstType: EI
InstName: JEOL JMS-D-3000
IoniMethod: _ENERGY 70 eV
IonPolarity: pos
Date: 2010-10-09 19:48:36+02:00
Num Peaks: 32
42 468 45 223 55 373 65 114 67 292 73 999 74 180 75 645 76 177 77 93 
89 98 91 294 93 384 95 195 96 120 97 93 102 130 103 205 109 205 110 116 
111 150 112 83 113 80 138 374 140 238 145 134 163 23 177 73 178 12 179 26 
185 11 193 2 
