Name: HEXANEDIOL DODECANEDIOATE
MW: 312
Formula: C18H32O4
Synonym: MassBank: JP008260
Synonym: HEXANEDIOL DODECANEDIOATE
Synonym: 2,9-DIOXACYCLOICOSAN-1,10-DIONE
Structure: 484558414E4544494F4C20444F444543414E4544494F4154452E6D6F6C0A20204368656D447261773132323130393035313832440A2032322032322020302020302020302020302020302020302020302020303939392056323030300A2020202D332E3238373420202020312E3030323020202020302E303030302043202020302020302020302020302020302020302020302020302020302020302020302020300A2020202D332E3238373420202020302E3137373020202020302E303030302043202020302020302020302020302020302020302020302020302020302020302020302020300A2020202D322E363432342020202D302E3333373420202020302E303030302043202020302020302020302020302020302020302020302020302020302020302020302020300A2020202D312E383338312020202D302E3135333820202020302E303030302043202020302020302020302020302020302020302020302020302020302020302020302020300A2020202D312E3438303120202020302E3538393520202020302E303030302043202020302020302020302020302020302020302020302020302020302020302020302020300A2020202D312E3833383120202020312E3333323820202020302E30303030204F202020302020302020302020302020302020302020302020302020302020302020302020300A2020202D322E3634323420202020312E3531363420202020302E303030302043202020302020302020302020302020302020302020302020302020302020302020302020300A2020202D312E333733332020202D302E3833353520202020302E303030302043202020302020302020302020302020302020302020302020302020302020302020302020300A2020202D302E353530362020202D302E3737333820202020302E303030302043202020302020302020302020302020302020302020302020302020302020302020302020300A2020202D302E313932372020202D302E3033303520202020302E303030302043202020302020302020302020302020302020302020302020302020302020302020302020300A2020202D302E3635373420202020302E3635313120202020302E303030302043202020302020302020302020302020302020302020302020302020302020302020302020300A2020202D302E303835392020202D312E3435353520202020302E303030302043202020302020302020302020302020302020302020302020302020302020302020302020300A20202020302E373336382020202D312E3339333820202020302E303030302043202020302020302020302020302020302020302020302020302020302020302020302020300A20202020312E303934382020202D302E3635303520202020302E303030302043202020302020302020302020302020302020302020302020302020302020302020302020300A20202020302E3633303020202020302E3033313120202020302E303030302043202020302020302020302020302020302020302020302020302020302020302020302020300A20202020312E303934382020202D322E3133373120202020302E303030302043202020302020302020302020302020302020302020302020302020302020302020302020300A20202020312E383939312020202D322E3332303720202020302E303030302043202020302020302020302020302020302020302020302020302020302020302020302020300A20202020322E353434312020202D312E3830363320202020302E303030302043202020302020302020302020302020302020302020302020302020302020302020302020300A20202020322E353434312020202D302E3938313320202020302E30303030204F202020302020302020302020302020302020302020302020302020302020302020302020300A20202020312E383939312020202D302E3436363920202020302E303030302043202020302020302020302020302020302020302020302020302020302020302020302020300A2020202D322E3832363020202020322E3332303720202020302E30303030204F202020302020302020302020302020302020302020302020302020302020302020302020300A20202020332E323837342020202D322E3136343320202020302E30303030204F202020302020302020302020302020302020302020302020302020302020302020302020300A2020312020322020312020302020202020200A2020322020332020312020302020202020200A2020332020342020312020302020202020200A2020352020362020312020302020202020200A2020362020372020312020302020202020200A2020372020312020312020302020202020200A2020342020382020312020302020202020200A2020382020392020312020302020202020200A2031302031312020312020302020202020200A2031312020352020312020302020202020200A2020392031322020312020302020202020200A2031322031332020312020302020202020200A2031342031352020312020302020202020200A2031352031302020312020302020202020200A2031332031362020312020302020202020200A2031362031372020312020302020202020200A2031372031382020312020302020202020200A2031382031392020312020302020202020200A2031392032302020312020302020202020200A2032302031342020312020302020202020200A2020372032312020322020302020202020200A2031382032322020322020302020202020200A4D2020454E44
Contributor: UBE SCIENTIFIC ANALYSIS LABORATORY
InstType: EI
InstName: HITACHI M-60
IoniMethod: _ENERGY 70 eV
IonPolarity: pos
Date: 2010-10-09 19:48:36+02:00
Num Peaks: 98
17 29 27 92 28 24 29 191 31 22 39 105 40 16 41 615 42 236 43 279 
44 14 45 41 53 63 54 257 55 999 56 142 57 108 58 50 59 28 60 39 
67 261 68 82 69 261 70 76 71 99 72 12 73 71 79 31 80 24 81 168 
82 658 83 517 84 277 85 87 86 13 87 16 91 16 93 37 94 33 95 53 
96 59 97 146 98 455 99 146 100 34 101 149 105 17 107 23 108 27 109 57 
110 33 111 93 112 187 113 35 114 28 115 74 119 22 121 15 123 45 124 33 
125 66 126 21 127 25 129 80 133 21 134 20 135 69 137 21 138 16 139 12 
141 11 142 38 143 21 147 16 148 14 149 52 150 12 151 16 152 196 153 55 
155 15 161 20 165 12 166 56 167 36 168 19 193 11 194 57 195 27 210 11 
213 364 214 53 215 43 229 85 230 11 265 73 266 12 312 19 
