Name: MassBank: JP000648
MW: 310
Formula: C18H14O5
Synonym: MassBank: JP000648
Synonym: 6,8-DIMETHYL-3',4'-METHYLENEDIOXYFLAVONOL
Synonym: 3-HYDROXY-6,8-DIMETHYL-2-(3,4-METHYLENEDIOXYPHENYL)-4H-CHROMEN-4-ONE
Structure: 362C382D44494D455448594C2D33272C34272D4D455448594C454E4544494F5859464C41564F4E4F4C2E6D6F6C0A20204368656D447261773032323231303231333232440A2032332032362020302020302020302020302020302020302020302020303939392056323030300A20202020302E343037392020202D302E3234303420202020302E303030302043202020302020302020302020302020302020302020302020302020302020302020302020300A20202020302E343037392020202D312E3036353420202020302E303030302043202020302020302020302020302020302020302020302020302020302020302020302020300A2020202D302E333036352020202D312E3437373920202020302E303030302043202020302020302020302020302020302020302020302020302020302020302020302020300A2020202D302E333036352020202D322E3330323920202020302E30303030204F202020302020302020302020302020302020302020302020302020302020302020302020300A2020202D312E303231302020202D312E3036353420202020302E303030302043202020302020302020302020302020302020302020302020302020302020302020302020300A2020202D312E373335352020202D312E3437373920202020302E303030302043202020302020302020302020302020302020302020302020302020302020302020302020300A2020202D322E343530302020202D312E3036353420202020302E303030302043202020302020302020302020302020302020302020302020302020302020302020302020300A2020202D322E343530302020202D302E3234303420202020302E303030302043202020302020302020302020302020302020302020302020302020302020302020302020300A2020202D312E3733353520202020302E3137323120202020302E303030302043202020302020302020302020302020302020302020302020302020302020302020302020300A2020202D312E303231302020202D302E3234303420202020302E303030302043202020302020302020302020302020302020302020302020302020302020302020302020300A2020202D302E3330363520202020302E3137323120202020302E30303030204F202020302020302020302020302020302020302020302020302020302020302020302020300A20202020312E3132323420202020302E3137323120202020302E303030302043202020302020302020302020302020302020302020302020302020302020302020302020300A20202020312E3132323420202020302E3939373120202020302E303030302043202020302020302020302020302020302020302020302020302020302020302020302020300A20202020312E3833363920202020312E3430393620202020302E303030302043202020302020302020302020302020302020302020302020302020302020302020302020300A20202020322E3535313320202020302E3939373120202020302E303030302043202020302020302020302020302020302020302020302020302020302020302020302020300A20202020322E3535313320202020302E3137323120202020302E303030302043202020302020302020302020302020302020302020302020302020302020302020302020300A20202020312E383336392020202D302E3234303420202020302E303030302043202020302020302020302020302020302020302020302020302020302020302020302020300A20202020322E3832383920202020322E3330323920202020302E303030302043202020302020302020302020302020302020302020302020302020302020302020302020300A20202020322E3030383420202020322E3231363620202020302E30303030204F202020302020302020302020302020302020302020302020302020302020302020302020300A20202020332E3136343420202020312E3534393220202020302E30303030204F202020302020302020302020302020302020302020302020302020302020302020302020300A2020202D312E3733353520202020302E3939373120202020302E303030302043202020302020302020302020302020302020302020302020302020302020302020302020300A2020202D332E313634342020202D312E3437373920202020302E303030302043202020302020302020302020302020302020302020302020302020302020302020302020300A20202020312E313232342020202D312E3437373920202020302E30303030204F202020302020302020302020302020302020302020302020302020302020302020302020300A2020312020322020322020302020202020200A2020322020332020312020302020202020200A2020332020342020322020302020202020200A2020332020352020312020302020202020200A2020352020362020312020302020202020200A2020362020372020322020302020202020200A2020372020382020312020302020202020200A2020382020392020322020302020202020200A2020392031302020312020302020202020200A2020352031302020322020302020202020200A2031302031312020312020302020202020200A2020312031312020312020302020202020200A2020312031322020312020302020202020200A2031322031332020312020302020202020200A2031332031342020322020302020202020200A2031342031352020312020302020202020200A2031352031362020322020302020202020200A2031362031372020312020302020202020200A2031322031372020322020302020202020200A2031382031392020312020302020202020200A2031382032302020312020302020202020200A2031342031392020312020302020202020200A2031352032302020312020302020202020200A2020392032312020312020302020202020200A2020372032322020312020302020202020200A2020322032332020312020302020202020200A4D2020454E44
Contributor: TAKATORI M, DEPT. OF CHEMISTRY, FAC. OF EDUC., FUKUSHIMA UNIV.
InstType: EI
InstName: JEOL JMS-06-H
IoniMethod: _ENERGY 75 eV
IonPolarity: pos
Date: 2010-10-09 19:48:36+02:00
Num Peaks: 20
63 23 65 47 76 29 77 5 91 81 119 38 120 38 126 5 133 21 140 111 
149 142 162 5 224 52 253 36 281 42 282 8 309 340 310 999 311 289 312 29 
