Name: MassBank: JP004734
MW: 198
Formula: C6H12Cl2OSi
Synonym: MassBank: JP004734
Synonym: 1,3-DICHLORO-2-TRIMETHYLSILOXYPROPENE
Structure: 312C332D444943484C4F524F2D322D5452494D455448594C53494C4F585950524F50454E452E6D6F6C0A20204368656D447261773131313130393231333432440A2031302020392020302020302020302020302020302020302020302020303939392056323030300A20202020302E3035353320202020312E3233373520202020302E303030302043202020302020302020302020302020302020302020302020302020302020302020302020300A20202020302E3035353320202020302E3431323520202020302E303030302043202020302020302020302020302020302020302020302020302020302020302020302020300A20202020302E373639372020202D302E3030303020202020302E303030302043202020302020302020302020302020302020302020302020302020302020302020302020300A2020202D302E363539322020202D302E3030303020202020302E30303030204F202020302020302020302020302020302020302020302020302020302020302020302020300A2020202D302E363539322020202D302E3832353020202020302E303030302053692020302020302020302020302020302020302020302020302020302020302020302020300A20202020302E313635382020202D302E3832353020202020302E303030302043202020302020302020302020302020302020302020302020302020302020302020302020300A2020202D302E363539322020202D312E3635303020202020302E303030302043202020302020302020302020302020302020302020302020302020302020302020302020300A2020202D312E343834322020202D302E3832353020202020302E303030302043202020302020302020302020302020302020302020302020302020302020302020302020300A20202020312E3438343220202020302E3431323520202020302E3030303020436C2020302020302020302020302020302020302020302020302020302020302020302020300A2020202D302E3635393220202020312E3635303020202020302E3030303020436C2020302020302020302020302020302020302020302020302020302020302020302020300A2020312020322020322020302020202020200A2020322020332020312020302020202020200A2020342020352020312020302020202020200A2020352020362020312020302020202020200A2020352020372020312020302020202020200A2020352020382020312020302020202020200A2020322020342020312020302020202020200A2020332020392020312020302020202020200A2020312031302020312020302020202020200A4D2020454E44
Contributor: MASS SPECTROSCOPY SOC. OF JAPAN (MSSJ)
InstType: EI
InstName: JEOL JMS-D-3000
IoniMethod: _ENERGY 70 eV
IonPolarity: pos
Date: 2010-10-09 19:48:36+02:00
Num Peaks: 30
27 109 36 51 39 42 43 107 45 165 47 36 53 163 55 105 63 46 65 69 
69 47 72 27 73 999 74 105 75 83 79 45 93 462 94 35 95 220 111 99 
113 431 114 28 115 294 117 56 147 35 183 215 185 148 187 27 198 93 200 62 
