Name: ALLYL GLYCIDYL ETHER
MW: 114
Formula: C6H10O2
Synonym: MassBank: JP006590
Synonym: ALLYL GLYCIDYL ETHER
Synonym: 2,3-EPOXYPROPYL ALLYL ETHER
Structure: 310A32310A414C4C594C20474C59434944594C2045544845522E6D6F6C0A20204368656D447261773132323030393132313132440A2020382020382020302020302020302020302020302020302020302020303939392056323030300A2020202D302E373639372020202D302E3135313020202020302E30303030204F202020302020302020302020302020302020302020302020302020302020302020302020300A2020202D302E3736393720202020302E3637343020202020302E303030302043202020302020302020302020302020302020302020302020302020302020302020302020300A2020202D302E3035353320202020312E3038363520202020302E303030302043202020302020302020302020302020302020302020302020302020302020302020302020300A20202020302E3736393720202020312E3038363520202020302E303030302043202020302020302020302020302020302020302020302020302020302020302020302020300A20202020302E3335373220202020312E3830313020202020302E30303030204F202020302020302020302020302020302020302020302020302020302020302020302020300A2020202D302E303535332020202D302E3536333520202020302E303030302043202020302020302020302020302020302020302020302020302020302020302020302020300A2020202D302E303535332020202D312E3338383520202020302E303030302043202020302020302020302020302020302020302020302020302020302020302020302020300A20202020302E363539322020202D312E3830313020202020302E303030302043202020302020302020302020302020302020302020302020302020302020302020302020300A2020322020332020312020302020202020200A2020332020342020312020302020202020200A2020342020352020312020302020202020200A2020332020352020312020302020202020200A2020312020322020312020302020202020200A2020362020372020312020302020202020200A2020372020382020322020302020202020200A2020312020362020312020302020202020200A4D2020454E44
Contributor: HISAHIRO HAGIWARA, CHEMICAL RESEARCH INSTITUTE OF NON-AQUEOUSSOLUTIONS TOHOKU UNIV.
InstType: EI
InstName: HITACHI M-80B
IoniMethod: _ENERGY 70 eV
IonPolarity: pos
Date: 2010-10-09 19:48:36+02:00
Num Peaks: 25
14 21 15 113 26 64 27 336 28 41 29 541 30 43 31 371 38 32 39 369 
40 49 41 999 42 68 43 137 44 16 45 49 55 80 56 26 57 826 58 248 
59 11 69 10 71 46 83 29 84 24 
