Name: TETRAHYDROQUINOLINE
CAS: 25448-04-8
MW: 133
Formula: C9H11N
Synonym: MassBank: JP007403
Synonym: TETRAHYDROQUINOLINE
Structure: 5445545241485944524F5155494E4F4C494E452E6D6F6C0A20204368656D447261773038313231303037323632440A2031302031312020302020302020302020302020302020302020302020303939392056323030300A20202020302E3731343520202020302E3832353020202020302E30303030204E202020302020302020302020302020302020302020302020302020302020302020302020300A20202020312E3432383920202020302E3431323520202020302E303030302043202020302020302020302020302020302020302020302020302020302020302020302020300A20202020312E343238392020202D302E3431323520202020302E303030302043202020302020302020302020302020302020302020302020302020302020302020302020300A20202020302E373134352020202D302E3832353020202020302E303030302043202020302020302020302020302020302020302020302020302020302020302020302020300A2020202D302E303030302020202D302E3431323520202020302E303030302043202020302020302020302020302020302020302020302020302020302020302020302020300A2020202D302E373134352020202D302E3832353020202020302E303030302043202020302020302020302020302020302020302020302020302020302020302020302020300A2020202D312E343238392020202D302E3431323520202020302E303030302043202020302020302020302020302020302020302020302020302020302020302020302020300A2020202D312E3432383920202020302E3431323520202020302E303030302043202020302020302020302020302020302020302020302020302020302020302020302020300A2020202D302E3731343520202020302E3832353020202020302E303030302043202020302020302020302020302020302020302020302020302020302020302020302020300A20202020302E3030303020202020302E3431323520202020302E303030302043202020302020302020302020302020302020302020302020302020302020302020302020300A2020312020322020312020302020202020200A2020322020332020312020302020202020200A2020332020342020312020302020202020200A2020342020352020312020302020202020200A2020352020362020312020302020202020200A2020362020372020322020302020202020200A2020372020382020312020302020202020200A2020382020392020322020302020202020200A2020392031302020312020302020202020200A2020312031302020312020302020202020200A2020352031302020322020302020202020200A4D2020454E44
Contributor: YAMAMOTO M, DEP. CHEMISTRY, FAC. SCIENCE, NARA WOMEN'S UNIV.
InstType: EI
InstName: HITACHI RMU-6M
IoniMethod: _ENERGY 70 eV
IonPolarity: pos
Date: 2010-10-09 19:48:36+02:00
Num Peaks: 51
18 323 27 49 28 45 29 4 39 21 40 76 41 11 42 2 50 56 51 131 
52 56 53 2 54 13 59 19 62 18 63 5 64 24 64.5 48 65 86 65.5 9 
66 32 66.5 48 67 10 74 2 75 24 76 31 77 167 78 10 79 43 89 27 
90 32 91 9 92 12 101 10 102 31 103 6 104 103 105 65 106 31 115 5 
116 16 117 192 118 251 119 2 128 14 129 17 130 140 131 6 132 999 133 94 
134 93 
