Name: HEXAMETHYLENEHYDRAZONE ACETALDEHYDE
MW: 140
Formula: C8H16N2
Synonym: MassBank: JP000837
Synonym: HEXAMETHYLENEHYDRAZONE ACETALDEHYDE
Synonym: ACETALDEHYDE HEXAMETHYLENEHYDRAZONE
Structure: 484558414D455448594C454E4548594452415A4F4E452041434554414C4445485944452E6D6F6C0A20204368656D447261773036323431303035343032440A2031302031302020302020302020302020302020302020302020302020303939392056323030300A2020202D312E323432392020202D302E3436353120202020302E303030302043202020302020302020302020302020302020302020302020302020302020302020302020300A2020202D312E393537342020202D302E3837373620202020302E303030302043202020302020302020302020302020302020302020302020302020302020302020302020300A2020202D302E353238352020202D302E3837373620202020302E30303030204E202020302020302020302020302020302020302020302020302020302020302020302020300A20202020302E313836302020202D302E3436353120202020302E30303030204E202020302020302020302020302020302020302020302020302020302020302020302020300A20202020302E3133353120202020302E3334363520202020302E303030302043202020302020302020302020302020302020302020302020302020302020302020302020300A20202020302E3731383420202020302E3932393820202020302E303030302043202020302020302020302020302020302020302020302020302020302020302020302020300A20202020312E3534343920202020302E3739353820202020302E303030302043202020302020302020302020302020302020302020302020302020302020302020302020300A20202020312E3935373420202020302E3038313320202020302E303030302043202020302020302020302020302020302020302020302020302020302020302020302020300A20202020312E363536302020202D302E3638363720202020302E303030302043202020302020302020302020302020302020302020302020302020302020302020302020300A20202020302E383637372020202D302E3932393820202020302E303030302043202020302020302020302020302020302020302020302020302020302020302020302020300A2020312020322020312020302020202020200A2020332020342020312020302020202020200A2020352020362020312020302020202020200A2020362020372020312020302020202020200A2020372020382020312020302020202020200A2020382020392020312020302020202020200A2020392031302020312020302020202020200A2020342020352020312020302020202020200A2020342031302020312020302020202020200A2020312020332020322020302020202020200A4D2020454E44
Contributor: SASAKI S, TOYOHASHI UNIV. OF TECH.
InstType: EI
InstName: SHIMADZU LKB-2091
IoniMethod: _ENERGY 70 eV
IonPolarity: pos
Date: 2010-10-09 19:48:36+02:00
Num Peaks: 35
28 262 29 142 30 196 39 13 40 46 41 423 42 999 43 19 44 208 53 27 
54 35 55 17 56 150 57 65 58 35 67 2 68 85 69 423 70 162 71 18 
72 42 82 73 83 58 84 7 85 135 96 96 97 192 98 23 99 23 111 131 
112 22 125 8 139 112 140 423 141 50 
