Name: MassBank: JP009864
CAS: 14074-92-1
MW: 206
Formula: C13H18O2
Synonym: MassBank: JP009864
Synonym: 2,2,5,7-TETRAMETHYLCHROMAN-6-OL
Synonym: 3,4-DIHYDRO-2,2,5,7-TETRAMETHYL-6-HYDROXY-2H-BENZOPYRAN
Structure: 322C322C352C372D54455452414D455448594C4348524F4D414E2D362D4F4C2E6D6F6C0A20204368656D447261773132313930393134353432440A2031352031362020302020302020302020302020302020302020302020303939392056323030300A2020202D312E3337393920202020302E3634333620202020302E303030302043202020302020302020302020302020302020302020302020302020302020302020302020300A2020202D312E333739392020202D302E3138313420202020302E303030302043202020302020302020302020302020302020302020302020302020302020302020302020300A2020202D302E363635352020202D302E3539333920202020302E303030302043202020302020302020302020302020302020302020302020302020302020302020302020300A20202020302E303439302020202D302E3138313420202020302E303030302043202020302020302020302020302020302020302020302020302020302020302020302020300A20202020302E373633352020202D302E3539333920202020302E303030302043202020302020302020302020302020302020302020302020302020302020302020302020300A20202020312E343737392020202D302E3138313420202020302E303030302043202020302020302020302020302020302020302020302020302020302020302020302020300A20202020312E3437373920202020302E3634333620202020302E303030302043202020302020302020302020302020302020302020302020302020302020302020302020300A20202020302E3736333520202020312E3035363120202020302E303030302043202020302020302020302020302020302020302020302020302020302020302020302020300A20202020302E3034393020202020302E3634333620202020302E303030302043202020302020302020302020302020302020302020302020302020302020302020302020300A2020202D302E3636353520202020312E3035363120202020302E30303030204F202020302020302020302020302020302020302020302020302020302020302020302020300A20202020322E313932342020202D302E3539333920202020302E30303030204F202020302020302020302020302020302020302020302020302020302020302020302020300A20202020322E3139323420202020312E3035363120202020302E303030302043202020302020302020302020302020302020302020302020302020302020302020302020300A20202020302E373633352020202D312E3431383920202020302E303030302043202020302020302020302020302020302020302020302020302020302020302020302020300A2020202D312E3636323120202020312E3431383920202020302E303030302043202020302020302020302020302020302020302020302020302020302020302020302020300A2020202D322E3139323420202020302E3530303420202020302E303030302043202020302020302020302020302020302020302020302020302020302020302020302020300A2020312020322020312020302020202020200A2020322020332020312020302020202020200A2020332020342020312020302020202020200A2020342020352020312020302020202020200A2020352020362020322020302020202020200A2020362020372020312020302020202020200A2020372020382020322020302020202020200A2020382020392020312020302020202020200A2020342020392020322020302020202020200A2020392031302020312020302020202020200A2020312031302020312020302020202020200A2020362031312020312020302020202020200A2020372031322020312020302020202020200A2020352031332020312020302020202020200A2020312031342020312020312020202020200A2020312031352020312020362020202020200A4D2020454E44
Contributor: KURARAY CO., LTD.
InstType: EI
InstName: JEOL JMS-D-300
IoniMethod: _ENERGY 70 eV
IonPolarity: pos
Date: 2010-10-09 19:48:36+02:00
Num Peaks: 46
39 112 41 130 43 118 53 153 55 102 57 94 65 97 67 143 68 85 69 110 
77 180 79 60 81 75 83 108 91 142 93 95 95 82 97 100 105 138 107 138 
108 102 109 105 119 117 121 177 122 180 123 118 133 142 135 108 136 52 138 152 
147 116 149 100 150 417 151 999 152 143 161 292 162 167 163 115 174 100 175 140 
176 92 189 285 191 100 204 170 206 497 207 108 
