Name: PROPIONALDEHYDE
MW: 58
Formula: C3H6O
Synonym: MassBank: JP005869
Synonym: PROPIONALDEHYDE
Structure: 310A31320A50524F50494F4E414C4445485944452E6D6F6C0A20204368656D447261773038313231303036303432440A2020342020332020302020302020302020302020302020302020302020303939392056323030300A2020202D302E333537322020202D302E3230363320202020302E303030302043202020302020302020302020302020302020302020302020302020302020302020302020300A20202020302E3335373220202020302E3230363320202020302E303030302043202020302020302020302020302020302020302020302020302020302020302020302020300A20202020312E303731372020202D302E3230363320202020302E303030302043202020302020302020302020302020302020302020302020302020302020302020302020300A2020202D312E3037313720202020302E3230363320202020302E30303030204F202020302020302020302020302020302020302020302020302020302020302020302020300A2020312020322020312020302020202020200A2020322020332020312020302020202020200A2020312020342020322020302020202020200A4D2020454E44
Contributor: YAMAMOTO M, DEP. CHEMISTRY, FAC. SCIENCE, NARA WOMEN'S UNIV.
InstType: EI
InstName: HITACHI RMU-6M
IoniMethod: _ENERGY 70 eV
IonPolarity: pos
Date: 2010-10-09 19:48:36+02:00
Num Peaks: 23
13 11 14 36 15 76 26 31 27 205 28 650 29 991 30 999 31 83 32 42 
33 10 37 28 38 20 39 52 40 14 41 38 42 27 43 11 53 16 55 27 
57 223 58 787 59 48 
