Name: 1-PHENYL-5-METHOXYBICYCLO(3.2.2)NON-6-EN-2-ONE
MW: 242
Formula: C16H18O2
Synonym: MassBank: JP004856
Synonym: 1-PHENYL-5-METHOXYBICYCLO(3.2.2)NON-6-EN-2-ONE
Structure: 312D5048454E594C2D352D4D4554484F585942494359434C4F28332E322E32294E4F4E2D362D454E2D322D4F4E452E6D6F6C0A20204368656D447261773131323230393232323032440A2031382032302020302020302020302020302020302020302020302020303939392056323030300A2020202D302E333034392020202D302E3039373120202020302E303030302043202020302020302020302020302020302020302020302020302020302020302020302020300A2020202D302E3330343920202020302E3833303820202020302E303030302043202020302020302020302020302020302020302020302020302020302020302020302020300A20202020302E3530363220202020312E3239393120202020302E303030302043202020302020302020302020302020302020302020302020302020302020302020302020300A20202020312E3331373920202020302E3833303520202020302E303030302043202020302020302020302020302020302020302020302020302020302020302020302020300A20202020312E333137392020202D302E3039373120202020302E303030302043202020302020302020302020302020302020302020302020302020302020302020302020300A20202020302E3930393720202020302E3630393920202020302E303030302043202020302020302020302020302020302020302020302020302020302020302020302020300A20202020302E3039373920202020302E3630393920202020302E303030302043202020302020302020302020302020302020302020302020302020302020302020302020300A20202020302E313035322020202D302E3830373520202020302E303030302043202020302020302020302020302020302020302020302020302020302020302020302020300A20202020302E393232392020202D302E3830373520202020302E303030302043202020302020302020302020302020302020302020302020302020302020302020302020300A2020202D312E3031323220202020312E3233393220202020302E30303030204F202020302020302020302020302020302020302020302020302020302020302020302020300A20202020322E313331352020202D302E3330303520202020302E30303030204F202020302020302020302020302020302020302020302020302020302020302020302020300A20202020322E3731343920202020302E3238323820202020302E303030302043202020302020302020302020302020302020302020302020302020302020302020302020300A2020202D312E313130362020202D302E3239393320202020302E303030302043202020302020302020302020302020302020302020302020302020302020302020302020300A2020202D312E333335352020202D312E3039363920202020302E303030302043202020302020302020302020302020302020302020302020302020302020302020302020300A2020202D322E313331352020202D312E3239393120202020302E303030302043202020302020302020302020302020302020302020302020302020302020302020302020300A2020202D322E373134392020202D302E3731353720202020302E303030302043202020302020302020302020302020302020302020302020302020302020302020302020300A2020202D322E3439303020202020302E3038313920202020302E303030302043202020302020302020302020302020302020302020302020302020302020302020302020300A2020202D312E3639343020202020302E3238343120202020302E303030302043202020302020302020302020302020302020302020302020302020302020302020302020300A2020312020322020312020302020202020200A2020322020332020312020302020202020200A2020332020342020312020302020202020200A2020342020352020312020302020202020200A2020352020362020312020302020202020200A2020362020372020322020302020202020200A2020382020392020312020302020202020200A2020312020372020312020302020202020200A2020312020382020312020302020202020200A2020352020392020312020302020202020200A2020322031302020322020302020202020200A2031312031322020312020302020202020200A2020352031312020312020302020202020200A2031332031342020312020302020202020200A2031342031352020322020302020202020200A2031352031362020312020302020202020200A2031362031372020322020302020202020200A2031372031382020312020302020202020200A2031332031382020322020302020202020200A2020312031332020312020302020202020200A4D2020454E44
Contributor: KATO T, DEPT. OF CHEM., FAC. OF SCI., TOHOKU UNIV.
InstType: EI
InstName: Unknown
IoniMethod: _ENERGY 14 eV
IonPolarity: pos
Date: 2010-10-09 19:48:36+02:00
Num Peaks: 56
32 32 56 32 57 46 88 28 91 70 94 35 107 54 109 10 110 32 121 59 
122 49 123 5 124 32 126 32 130 32 133 6 134 35 140 32 141 49 142 3 
149 49 150 73 151 32 153 5 154 243 155 319 156 378 157 5 164 59 167 222 
168 730 169 40 170 59 171 35 179 32 180 4 181 36 182 124 183 100 184 8 
185 95 186 43 187 32 192 12 193 76 196 32 209 197 210 999 211 262 214 70 
224 59 227 3 228 49 242 951 243 162 244 32 
