Name: 2-CHLORO-5-NITROBENZOIC ACID METHYL ESTER
MW: 214
Formula: C8H6ClNO4
Synonym: MassBank: JP002646
Synonym: 2-CHLORO-5-NITROBENZOIC ACID METHYL ESTER
Structure: 322D43484C4F524F2D352D4E4954524F42454E5A4F49432041434944204D455448594C2045535445522E6D6F6C0A20204368656D447261773031303331303130343332440A2031342031342020302020302020302020302020302020302020302020303939392056323030300A20202020312E343433382020202D302E3335373220202020302E303030302043202020302020302020302020302020302020302020302020302020302020302020302020300A20202020302E363138382020202D302E3335373220202020302E303030302043202020302020302020302020302020302020302020302020302020302020302020302020300A20202020302E323036322020202D312E3037313720202020302E303030302043202020302020302020302020302020302020302020302020302020302020302020302020300A2020202D302E363138382020202D312E3037313720202020302E303030302043202020302020302020302020302020302020302020302020302020302020302020302020300A2020202D312E303331332020202D302E3335373220202020302E303030302043202020302020302020302020302020302020302020302020302020302020302020302020300A2020202D302E3631383820202020302E3335373220202020302E303030302043202020302020302020302020302020302020302020302020302020302020302020302020300A20202020302E3230363220202020302E3335373220202020302E303030302043202020302020302020302020302020302020302020302020302020302020302020302020300A20202020312E383536332020202D312E3037313720202020302E30303030204F202020302020302020302020302020302020302020302020302020302020302020302020300A20202020312E3835363320202020302E3335373220202020302E30303030204F202020302020302020302020302020302020302020302020302020302020302020302020300A2020202D312E3033313320202020312E3037313720202020302E30303030204E202020302020332020302020302020302020302020302020302020302020302020302020300A2020202D302E3631383820202020312E3738363220202020302E30303030204F202020302020302020302020302020302020302020302020302020302020302020302020300A2020202D312E3835363320202020312E3037313720202020302E30303030204F202020302020352020302020302020302020302020302020302020302020302020302020300A20202020302E363138382020202D312E3738363220202020302E3030303020436C2020302020302020302020302020302020302020302020302020302020302020302020300A20202020312E3434333820202020312E3037313720202020302E303030302043202020302020302020302020302020302020302020302020302020302020302020302020300A2020312020322020312020302020202020200A2020322020332020312020302020202020200A2020332020342020322020302020202020200A2020342020352020312020302020202020200A2020352020362020322020302020202020200A2020362020372020312020302020202020200A2020322020372020322020302020202020200A2020312020382020322020302020202020200A2020312020392020312020302020202020200A2031302031312020322020302020202020200A2031302031322020312020302020202020200A2020362031302020312020302020202020200A2020332031332020312020302020202020200A2020392031342020312020302020202020200A4D202043484720203220203130202020312020313220202D310A4D2020454E44
Contributor: KOGA M, UNIV. OF OCCUPATIONAL AND ENVIRONMENTAL HEALTH
InstType: EI
InstName: JEOL JMS-01-SG
IoniMethod: _ENERGY 70 eV
IonPolarity: pos
Date: 2010-10-09 19:48:36+02:00
Num Peaks: 28
44 36 50 30 51 24 63 9 73 24 74 193 75 345 77 4 84 24 109 48 
110 187 111 2 112 48 126 90 137 24 138 30 139 24 140 90 153 48 154 12 
156 18 169 18 184 999 185 16 186 375 187 48 215 266 217 12 
