Name: ZIRAM
MW: 303
Formula: C6H12N2S4Zn
Synonym: MassBank: JP009503
Synonym: ZIRAM
Synonym: ZINC DIMETHYLDITHIOCARBAMATE
Structure: 303030325F5A494E432044494D455448594C44495448494F43415242414D4154452E6D6F6C0A20204368656D447261773038313931303231333632440A2031332031322020302020302020302020302020302020302020302020303939392056323030300A20202020302E3230363320202020302E3030303020202020302E30303030205A6E2020302020302020302020302020302020302020302020302020302020302020302020300A2020202D312E3033313220202020302E3731343520202020302E303030302043202020302020302020302020302020302020302020302020302020302020302020302020300A2020202D312E3434333820202020312E3432383920202020302E30303030204E202020302020302020302020302020302020302020302020302020302020302020302020300A2020202D302E3230363220202020302E3731343520202020302E303030302053202020302020302020302020302020302020302020302020302020302020302020302020300A2020202D312E3434333720202020302E3030303020202020302E303030302053202020302020302020302020302020302020302020302020302020302020302020302020300A2020202D322E3236383820202020312E3432383920202020302E303030302043202020302020302020302020302020302020302020302020302020302020302020302020300A2020202D312E3033313320202020322E3134333420202020302E303030302043202020302020302020302020302020302020302020302020302020302020302020302020300A20202020312E343433382020202D302E3731343520202020302E303030302043202020302020302020302020302020302020302020302020302020302020302020302020300A20202020312E303331332020202D312E3432383920202020302E30303030204E202020302020302020302020302020302020302020302020302020302020302020302020300A20202020312E3033313320202020302E3030303020202020302E303030302053202020302020302020302020302020302020302020302020302020302020302020302020300A20202020322E323638382020202D302E3731343520202020302E303030302053202020302020302020302020302020302020302020302020302020302020302020302020300A20202020312E343433382020202D322E3134333420202020302E303030302043202020302020302020302020302020302020302020302020302020302020302020302020300A20202020302E323036332020202D312E3432383920202020302E303030302043202020302020302020302020302020302020302020302020302020302020302020302020300A2020322020332020312020302020202020200A2020322020342020312020302020202020200A2020322020352020322020302020202020200A2020332020362020312020302020202020200A2020332020372020312020302020202020200A2020382020392020312020302020202020200A2020382031302020312020302020202020200A2020382031312020322020302020202020200A2020392031322020312020302020202020200A2020392031332020312020302020202020200A2020342020312020312020302020202020200A2020312031302020312020302020202020200A4D2020454E44
Contributor: NARA WOMEN'S UNIVERSITY
InstType: EI
InstName: HITACHI M-80
IoniMethod: _ENERGY 70 eV
IonPolarity: pos
Date: 2010-10-09 19:48:36+02:00
Num Peaks: 62
14 11 15 80 18 12 27 11 28 36 32 17 40 15 41 26 42 174 43 30 
44 116 45 41 47 22 56 33 61 10 64 28 72 87 73 129 74 16 76 52 
77 49 87 30 88 948 89 67 90 42 96 15 120 207 121 56 122 21 140 12 
152 18 172 12 184 132 185 25 186 86 187 27 188 58 189 11 208 15 216 91 
218 64 219 12 220 39 227 54 228 19 229 34 230 17 231 24 257 14 258 10 
260 11 289 33 291 28 293 19 304 999 305 107 306 740 307 157 308 479 309 68 
310 88 311 11 
