Name: 2-(TERT-BUTYLMERCAPTO)-METHYL-6-PICOLINE
MW: 195
Formula: C11H17NS
Synonym: MassBank: JP003024
Synonym: 2-(TERT-BUTYLMERCAPTO)-METHYL-6-PICOLINE
Structure: 322D28544552542D425554594C4D4552434150544F292D4D455448594C2D362D5049434F4C494E452E6D6F6C0A20204368656D447261773132323130393231323032440A2031332031332020302020302020302020302020302020302020302020303939392056323030300A20202020302E3335373220202020302E3035353320202020302E303030302043202020302020302020302020302020302020302020302020302020302020302020302020300A20202020302E333537322020202D302E3736393720202020302E303030302043202020302020302020302020302020302020302020302020302020302020302020302020300A20202020312E303731372020202D312E3138323220202020302E303030302043202020302020302020302020302020302020302020302020302020302020302020302020300A20202020312E373836322020202D302E3736393720202020302E303030302043202020302020302020302020302020302020302020302020302020302020302020302020300A20202020312E3738363220202020302E3035353320202020302E303030302043202020302020302020302020302020302020302020302020302020302020302020302020300A20202020312E3037313720202020302E3436373820202020302E30303030204E202020302020302020302020302020302020302020302020302020302020302020302020300A20202020322E3530303620202020302E3436373820202020302E303030302043202020302020302020302020302020302020302020302020302020302020302020302020300A2020202D302E3335373220202020302E3436373820202020302E303030302043202020302020302020302020302020302020302020302020302020302020302020302020300A2020202D312E3037313720202020302E3035353320202020302E303030302053202020302020302020302020302020302020302020302020302020302020302020302020300A2020202D312E3738363220202020302E3436373820202020302E303030302043202020302020302020302020302020302020302020302020302020302020302020302020300A2020202D322E3530303620202020302E3838303320202020302E303030302043202020302020302020302020302020302020302020302020302020302020302020302020300A2020202D322E313938372020202D302E3234363720202020302E303030302043202020302020302020302020302020302020302020302020302020302020302020302020300A2020202D312E3337333720202020312E3138323220202020302E303030302043202020302020302020302020302020302020302020302020302020302020302020302020300A2020312020322020312020302020202020200A2020322020332020322020302020202020200A2020332020342020312020302020202020200A2020342020352020322020302020202020200A2020352020362020312020302020202020200A2020312020362020322020302020202020200A2020352020372020312020302020202020200A2020312020382020312020302020202020200A2020382020392020312020302020202020200A2020392031302020312020302020202020200A2031302031312020312020302020202020200A2031302031322020312020302020202020200A2031302031332020312020302020202020200A4D2020454E44
Contributor: SASAKI S, TOYOHASHI UNIV. OF TECH.
InstType: EI
InstName: Unknown
IoniMethod: EI
IonPolarity: pos
Date: 2010-10-09 19:48:36+02:00
Num Peaks: 20
29 100 32 70 39 130 41 19 57 280 65 90 77 70 79 1 92 90 93 170 
94 86 106 1 107 130 138 540 139 999 140 1 141 50 180 20 195 40 196 7 
