Name: MassBank: JP009801
MW: 178
Formula: C12H18O
Synonym: MassBank: JP009801
Synonym: 5,9-DIMETHYLDEC-8-EN-1-YN-3-ONE
Structure: 352C392D44494D455448594C4445432D382D454E2D312D594E2D332D4F4E452E6D6F6C0A20204368656D447261773034323331303032343432440A2031332031322020302020302020302020302020302020302020302020303939392056323030300A20202020332E323135312020202D302E3832353020202020302E303030302043202020302020302020302020302020302020302020302020302020302020302020302020300A20202020322E353030362020202D302E3431323520202020302E303030302043202020302020302020302020302020302020302020302020302020302020302020302020300A20202020312E3738363220202020302E3030303020202020302E303030302043202020302020302020302020302020302020302020302020302020302020302020302020300A20202020312E303731372020202D302E3431323520202020302E303030302043202020302020302020302020302020302020302020302020302020302020302020302020300A20202020302E3335373220202020302E3030303020202020302E303030302043202020302020302020302020302020302020302020302020302020302020302020302020300A2020202D302E333537322020202D302E3431323520202020302E303030302043202020302020302020302020302020302020302020302020302020302020302020302020300A2020202D312E303731372020202D302E3030303020202020302E303030302043202020302020302020302020302020302020302020302020302020302020302020302020300A2020202D312E373836322020202D302E3431323520202020302E303030302043202020302020302020302020302020302020302020302020302020302020302020302020300A2020202D322E353030362020202D302E3030303020202020302E303030302043202020302020302020302020302020302020302020302020302020302020302020302020300A2020202D332E323135312020202D302E3431323520202020302E303030302043202020302020302020302020302020302020302020302020302020302020302020302020300A20202020312E3738363220202020302E3832353020202020302E30303030204F202020302020302020302020302020302020302020302020302020302020302020302020300A2020202D322E3530303620202020302E3832353020202020302E303030302043202020302020302020302020302020302020302020302020302020302020302020302020300A20202020302E3335373220202020302E3832353020202020302E303030302043202020302020302020302020302020302020302020302020302020302020302020302020300A2020312020322020332020302020202020200A2020322020332020312020302020202020200A2020332020342020312020302020202020200A2020342020352020312020302020202020200A2020352020362020312020302020202020200A2020362020372020312020302020202020200A2020372020382020312020302020202020200A2020382020392020322020302020202020200A2020392031302020312020302020202020200A2020332031312020322020302020202020200A2020392031322020312020302020202020200A2020352031332020312020302020202020200A4D2020454E44
Contributor: KURARAY CO., LTD.
InstType: EI
InstName: JEOL JMS-D-300
IoniMethod: _ENERGY 70 eV
IonPolarity: pos
Date: 2010-10-09 19:48:36+02:00
Num Peaks: 50
27 96 28 28 29 85 39 16 40 35 41 723 42 61 43 12 51 25 53 451 
54 39 55 39 56 109 57 25 65 36 67 21 68 148 69 871 70 95 77 7 
79 145 80 72 81 259 82 8 83 106 91 84 93 174 94 6 95 999 96 121 
105 62 107 20 108 124 109 158 110 248 111 3 117 39 119 50 121 172 122 5 
123 67 134 34 135 421 136 12 145 148 149 45 161 20 163 66 164 89 177 32 
