Name: MassBank: JP004388
MW: 231
Formula: C12H13N3O2
Synonym: MassBank: JP004388
Synonym: 3-METHYL-8-NITRO-1,2,3,4-TETRAHYDRO-GAMMA-CARBOLINE
Structure: 332D4D455448594C2D382D4E4954524F2D312C322C332C342D5445545241485944524F2D47414D4D412D434152424F4C494E452E6D6F6C0A20204368656D447261773033323031303031353432440A2031372031392020302020302020302020302020302020302020302020303939392056323030300A2020202D312E363233302020202D302E3030303020202020302E303030302043202020302020302020302020302020302020302020302020302020302020302020302020300A2020202D312E363233302020202D302E3832353020202020302E303030302043202020302020302020302020302020302020302020302020302020302020302020302020300A2020202D302E393038352020202D312E3233373520202020302E303030302043202020302020302020302020302020302020302020302020302020302020302020302020300A2020202D302E313934312020202D302E3832353020202020302E303030302043202020302020302020302020302020302020302020302020302020302020302020302020300A2020202D302E313934312020202D302E3030303020202020302E303030302043202020302020302020302020302020302020302020302020302020302020302020302020300A2020202D302E3930383520202020302E3431323520202020302E303030302043202020302020302020302020302020302020302020302020302020302020302020302020300A20202020302E353930362020202D312E3038303020202020302E30303030204E202020302020302020302020302020302020302020302020302020302020302020302020300A20202020312E303735352020202D302E3431323520202020302E303030302043202020302020302020302020302020302020302020302020302020302020302020302020300A20202020302E3539303620202020302E3235343920202020302E303030302043202020302020302020302020302020302020302020302020302020302020302020302020300A20202020312E383936302020202D302E3332363320202020302E303030302043202020302020302020302020302020302020302020302020302020302020302020302020300A20202020322E3233313520202020302E3432373420202020302E303030302043202020302020302020302020302020302020302020302020302020302020302020302020300A20202020312E3734363620202020312E3039343820202020302E30303030204E202020302020302020302020302020302020302020302020302020302020302020302020300A20202020302E3932363120202020312E3030383620202020302E303030302043202020302020302020302020302020302020302020302020302020302020302020302020300A20202020332E3035323020202020302E3531333620202020302E303030302043202020302020302020302020302020302020302020302020302020302020302020302020300A2020202D322E3333373520202020302E3431323520202020302E30303030204E202020302020332020302020302020302020302020302020302020302020302020302020300A2020202D332E3035323020202020302E3030303020202020302E30303030204F202020302020352020302020302020302020302020302020302020302020302020302020300A2020202D322E3333373520202020312E3233373520202020302E30303030204F202020302020302020302020302020302020302020302020302020302020302020302020300A2020312020322020322020302020202020200A2020322020332020312020302020202020200A2020332020342020322020302020202020200A2020342020352020312020302020202020200A2020352020362020322020302020202020200A2020362020312020312020302020202020200A2020342020372020312020302020202020200A2020372020382020312020302020202020200A2020382020392020322020302020202020200A2020392020352020312020302020202020200A2020382031302020312020302020202020200A2031302031312020312020302020202020200A2031312031322020312020302020202020200A2031322031332020312020302020202020200A2031332020392020312020302020202020200A2031312031342020312020302020202020200A2020312031352020312020302020202020200A2031352031362020312020302020202020200A2031352031372020322020302020202020200A4D202043484720203220203135202020312020313620202D310A4D2020454E44
Contributor: SASAKI S, TOYOHASHI UNIV. OF TECH.
InstType: EI
InstName: JEOL JMS-01-SG-2
IoniMethod: _ENERGY 75 eV
IonPolarity: pos
Date: 2010-10-09 19:48:36+02:00
Num Peaks: 27
42 63 43 65 44 33 77 4 89 49 91 22 92 13 102 2 103 41 115 84 
116 55 117 3 129 27 130 51 140 51 141 5 142 128 143 49 157 77 183 12 
184 999 185 82 188 306 214 90 215 79 230 163 231 133 
