Name: LIMONENE
MW: 136
Formula: C10H16
Synonym: MassBank: JP000247
Synonym: LIMONENE
Synonym: PARA-MENTHA-1,8-DIENE
Structure: 2852292D312D4D455448594C2D342D28312D4D455448594C455448454E594C294359434C4F484558454E452E6D6F6C0A20204368656D447261773130323230393137323432440A2031322031322020302020302020302020302020302020302020302020303939392056323030300A2020202D302E3338313620202020302E3332373120202020302E303030302043202020302020302020302020302020302020302020302020302020302020302020302020300A2020202D302E333831362020202D302E3439373920202020302E303030302043202020302020302020302020302020302020302020302020302020302020302020302020300A20202020302E333332392020202D302E3931303420202020302E303030302043202020302020302020302020302020302020302020302020302020302020302020302020300A20202020312E303437342020202D302E3439373920202020302E303030302043202020302020302020302020302020302020302020302020302020302020302020302020300A20202020312E3034373420202020302E3332373120202020302E303030302043202020302020302020302020302020302020302020302020302020302020302020302020300A20202020302E3333323920202020302E3733393620202020302E303030302043202020302020302020302020302020302020302020302020302020302020302020302020300A20202020312E3736313820202020302E3733393620202020302E303030302048202020302020302020302020302020302020302020302020302020302020302020302020300A2020202D302E3936343920202020302E3931303420202020302E303030302048202020302020302020302020302020302020302020302020302020302020302020302020300A2020202D312E3137383520202020302E3131333520202020302E303030302043202020302020302020302020302020302020302020302020302020302020302020302020300A2020202D312E333932302020202D302E3638333320202020302E303030302043202020302020302020302020302020302020302020302020302020302020302020302020300A2020202D312E3736313820202020302E3639363920202020302E303030302043202020302020302020302020302020302020302020302020302020302020302020302020300A20202020312E373631352020202D302E3931303420202020302E303030302043202020302020302020302020302020302020302020302020302020302020302020302020300A2020312020322020312020302020202020200A2020322020332020312020302020202020200A2020332020342020312020302020202020200A2020342020352020322020302020202020200A2020352020362020312020302020202020200A2020362020312020312020302020202020200A2020352020372020312020302020202020200A2020312020382020312020362020202020200A2020312020392020312020312020202020200A2020392031302020322020302020202020200A2020392031312020312020302020202020200A2020342031322020312020302020202020200A4D202053545920203120202031205355500A4D2020534C4220203120202031202020310A4D202053414C20202031202031202031320A4D202053424C20202031202031202031320A4D2020534D5420202031204D650A4D2020534256202020312031322020202D362E3732383620202020352E343432310A4D2020454E44
Contributor: YAMAMOTO M, DEP. CHEMISTRY, FAC. SCIENCE, NARA WOMEN'S UNIV.
InstType: EI
InstName: HITACHI RMU-6M
IoniMethod: _ENERGY 70 eV
IonPolarity: pos
Date: 2010-10-09 19:48:36+02:00
Num Peaks: 43
15 12 27 249 28 33 29 12 38 16 39 362 40 107 41 35 42 52 43 42 
50 27 51 9 52 44 53 267 54 26 55 9 63 32 65 34 66 42 67 56 
68 999 69 90 77 181 78 4 79 296 80 111 81 99 82 2 91 164 92 187 
93 571 94 22 96 71 103 12 105 49 106 2 107 159 108 47 119 11 121 16 
122 16 136 245 137 25 
