Name: PERICYAZINE
MW: 365
Formula: C21H23N3OS
Synonym: MassBank: JP002762
Synonym: PERICYAZINE
Structure: 504552494359415A494E452E6D6F6C0A20204368656D447261773131323230393233323332440A2032362032392020302020302020302020302020302020302020302020303939392056323030300A2020202D302E3635383620202020312E3033313220202020302E303030302043202020302020302020302020302020302020302020302020302020302020302020302020300A2020202D312E3337333020202020312E3434333720202020302E303030302043202020302020302020302020302020302020302020302020302020302020302020302020300A2020202D312E3337333020202020322E3236383720202020302E303030302043202020302020302020302020302020302020302020302020302020302020302020302020300A2020202D302E3635383620202020322E3638313220202020302E303030302043202020302020302020302020302020302020302020302020302020302020302020302020300A20202020302E3035353920202020322E3236383720202020302E303030302043202020302020302020302020302020302020302020302020302020302020302020302020300A20202020302E3737303420202020322E3638313320202020302E303030302053202020302020302020302020302020302020302020302020302020302020302020302020300A20202020312E3438343820202020322E3236383820202020302E303030302043202020302020302020302020302020302020302020302020302020302020302020302020300A20202020322E3139393320202020322E3638313320202020302E303030302043202020302020302020302020302020302020302020302020302020302020302020302020300A20202020322E3931333820202020322E3236383820202020302E303030302043202020302020302020302020302020302020302020302020302020302020302020302020300A20202020322E3931333820202020312E3434333720202020302E303030302043202020302020302020302020302020302020302020302020302020302020302020302020300A20202020322E3139393320202020312E3033313220202020302E303030302043202020302020302020302020302020302020302020302020302020302020302020302020300A20202020312E3438343820202020312E3434333720202020302E303030302043202020302020302020302020302020302020302020302020302020302020302020302020300A20202020302E3737303420202020312E3033313220202020302E30303030204E202020302020302020302020302020302020302020302020302020302020302020302020300A20202020302E3035353920202020312E3434333720202020302E303030302043202020302020302020302020302020302020302020302020302020302020302020302020300A20202020302E3737303420202020302E3230363220202020302E303030302043202020302020302020302020302020302020302020302020302020302020302020302020300A20202020302E303535392020202D302E3230363320202020302E303030302043202020302020302020302020302020302020302020302020302020302020302020302020300A20202020302E303535392020202D312E3033313320202020302E303030302043202020302020302020302020302020302020302020302020302020302020302020302020300A2020202D302E363538362020202D312E3434333820202020302E30303030204E202020302020302020302020302020302020302020302020302020302020302020302020300A2020202D302E363538362020202D322E3236383820202020302E303030302043202020302020302020302020302020302020302020302020302020302020302020302020300A2020202D312E333733302020202D322E3638313320202020302E303030302043202020302020302020302020302020302020302020302020302020302020302020302020300A2020202D322E303837352020202D322E3236383820202020302E303030302043202020302020302020302020302020302020302020302020302020302020302020302020300A2020202D322E303837352020202D312E3434333720202020302E303030302043202020302020302020302020302020302020302020302020302020302020302020302020300A2020202D312E333733302020202D312E3033313220202020302E303030302043202020302020302020302020302020302020302020302020302020302020302020302020300A2020202D322E383032302020202D322E3638313320202020302E30303030204F202020302020302020302020302020302020302020302020302020302020302020302020300A2020202D322E3038383820202020312E3033313520202020302E303030302043202020302020302020302020302020302020302020302020302020302020302020302020300A2020202D322E3931333820202020312E3033313520202020302E30303030204E202020302020302020302020302020302020302020302020302020302020302020302020300A2020312020322020322020302020202020200A2020322020332020312020302020202020200A2020332020342020322020302020202020200A2020342020352020312020302020202020200A2020352020362020312020302020202020200A2020362020372020312020302020202020200A2020372020382020312020302020202020200A2020382020392020322020302020202020200A2020392031302020312020302020202020200A2031302031312020322020302020202020200A2031312031322020312020302020202020200A2020372031322020322020302020202020200A2031322031332020312020302020202020200A2031332031342020312020302020202020200A2020352031342020322020302020202020200A2020312031342020312020302020202020200A2031352031362020312020302020202020200A2031362031372020312020302020202020200A2031382031392020312020302020202020200A2031392032302020312020302020202020200A2032302032312020312020302020202020200A2032312032322020312020302020202020200A2032322032332020312020302020202020200A2031382032332020312020302020202020200A2032312032342020312020302020202020200A2031372031382020312020302020202020200A2031332031352020312020302020202020200A2020322032352020312020302020202020200A2032352032362020332020302020202020200A4D202053545920203120202031205355500A4D2020534C4220203120202031202020310A4D202053414C2020203120203220203235202032360A4D202053424C20202031202031202032380A4D2020534D542020203120434E0A4D2020534256202020312032382020202D372E3939333820202020382E333630350A4D2020454E44
Contributor: SASAKI S, TOYOHASHI UNIV. OF TECH.
InstType: EI
InstName: Unknown
IoniMethod: EI
IonPolarity: pos
Date: 2010-10-09 19:48:36+02:00
Num Peaks: 49
41 229 42 469 43 259 44 91 53 69 55 139 56 229 57 15 58 49 69 79 
70 209 71 8 72 59 77 69 82 49 83 5 84 59 96 109 97 59 98 7 
100 239 105 109 112 119 113 11 114 999 115 429 126 79 127 4 128 349 140 69 
141 139 142 86 143 69 205 189 223 229 224 11 237 149 238 89 248 19 249 3 
250 29 251 19 263 359 264 24 293 9 347 9 365 789 366 1 367 30 
