Name: TETRAHYDROPYRAN
MW: 86
Formula: C5H10O
Synonym: MassBank: JP008897
Synonym: TETRAHYDROPYRAN
Structure: 310A31370A5445545241485944524F505952414E2E6D6F6C0A20204368656D447261773038313231303037323532440A2020362020362020302020302020302020302020302020302020302020303939392056323030300A20202020302E373134352020202D302E3431323520202020302E303030302043202020302020302020302020302020302020302020302020302020302020302020302020300A2020202D302E303030302020202D302E3832353020202020302E303030302043202020302020302020302020302020302020302020302020302020302020302020302020300A2020202D302E373134352020202D302E3431323520202020302E303030302043202020302020302020302020302020302020302020302020302020302020302020302020300A2020202D302E3731343520202020302E3431323520202020302E303030302043202020302020302020302020302020302020302020302020302020302020302020302020300A20202020302E3030303020202020302E3832353020202020302E303030302043202020302020302020302020302020302020302020302020302020302020302020302020300A20202020302E3731343520202020302E3431323520202020302E30303030204F202020302020302020302020302020302020302020302020302020302020302020302020300A2020312020322020312020302020202020200A2020322020332020312020302020202020200A2020332020342020312020302020202020200A2020342020352020312020302020202020200A2020352020362020312020302020202020200A2020312020362020312020302020202020200A4D2020454E44
Contributor: YAMAMOTO M, DEP. CHEMISTRY, FAC. SCIENCE, NARA WOMEN'S UNIV.
InstType: EI
InstName: HITACHI RMU-6M
IoniMethod: _ENERGY 70 eV
IonPolarity: pos
Date: 2010-10-09 19:48:36+02:00
Num Peaks: 33
14 10 15 36 26 70 27 32 28 484 29 266 30 31 31 5 37 11 38 23 
39 210 40 6 41 999 42 43 43 60 44 2 45 515 46 13 50 23 51 2 
52 10 53 37 54 29 55 20 56 572 57 63 58 17 67 4 68 11 71 26 
85 449 86 38 87 23 
