Name: ETHYLISOPROPYLHYDRAZONE ACETONE
MW: 142
Formula: C8H18N2
Synonym: MassBank: JP000851
Synonym: ETHYLISOPROPYLHYDRAZONE ACETONE
Synonym: ACETONE ETHYLISOPROPYLHYDRAZONE
Structure: 455448594C49534F50524F50594C48594452415A4F4E4520414345544F4E452E6D6F6C0A20204368656D447261773036323431303138303832440A2031302020392020302020302020302020302020302020302020302020303939392056323030300A20202020312E343433382020202D312E3432383920202020302E303030302043202020302020302020302020302020302020302020302020302020302020302020302020300A20202020312E303331332020202D302E3731343520202020302E303030302043202020302020302020302020302020302020302020302020302020302020302020302020300A20202020312E3434333820202020302E3030303020202020302E303030302043202020302020302020302020302020302020302020302020302020302020302020302020300A20202020302E323036332020202D302E3731343520202020302E30303030204E202020302020302020302020302020302020302020302020302020302020302020302020300A2020202D302E3230363220202020302E3030303020202020302E30303030204E202020302020302020302020302020302020302020302020302020302020302020302020300A20202020302E3230363320202020302E3731343520202020302E303030302043202020302020302020302020302020302020302020302020302020302020302020302020300A20202020312E3033313320202020302E3731343520202020302E303030302043202020302020302020302020302020302020302020302020302020302020302020302020300A2020202D302E3230363220202020312E3432383920202020302E303030302043202020302020302020302020302020302020302020302020302020302020302020302020300A2020202D312E3033313220202020302E3030303020202020302E303030302043202020302020302020302020302020302020302020302020302020302020302020302020300A2020202D312E343433382020202D302E3731343520202020302E303030302043202020302020302020302020302020302020302020302020302020302020302020302020300A2020312020322020312020302020202020200A2020322020332020312020302020202020200A2020342020352020312020302020202020200A2020362020372020312020302020202020200A2020362020382020312020302020202020200A2020352020362020312020302020202020200A2020392031302020312020302020202020200A2020352020392020312020302020202020200A2020322020342020322020302020202020200A4D2020454E44
Contributor: SASAKI S, TOYOHASHI UNIV. OF TECH.
InstType: EI
InstName: SHIMADZU LKB-2091
IoniMethod: _ENERGY 70 eV
IonPolarity: pos
Date: 2010-10-09 19:48:36+02:00
Num Peaks: 31
27 155 28 126 29 119 30 8 39 85 40 31 41 207 42 35 43 259 44 97 
54 15 55 2 56 535 57 41 58 108 59 1 70 164 71 71 72 85 82 4 
83 15 84 28 85 285 86 3 99 102 100 8 127 999 128 10 141 9 142 259 
143 33 
