Name: ALLYL METHYL SULFIDE
CAS: 10152-76-8
MW: 88
Formula: C4H8S
Synonym: MassBank: JP009100
Synonym: ALLYL METHYL SULFIDE
Structure: 310A31340A414C4C594C204D455448594C2053554C464944452E6D6F6C0A20204368656D447261773038303631303034323532440A2020352020342020302020302020302020302020302020302020302020303939392056323030300A2020202D302E3731343520202020302E3230363320202020302E303030302053202020302020302020302020302020302020302020302020302020302020302020302020300A2020202D312E343238392020202D302E3230363320202020302E303030302043202020302020302020302020302020302020302020302020302020302020302020302020300A20202020302E303030302020202D302E3230363220202020302E303030302043202020302020302020302020302020302020302020302020302020302020302020302020300A20202020302E3731343520202020302E3230363320202020302E303030302043202020302020302020302020302020302020302020302020302020302020302020302020300A20202020312E343238392020202D302E3230363220202020302E303030302043202020302020302020302020302020302020302020302020302020302020302020302020300A2020312020322020312020302020202020200A2020332020342020312020302020202020200A2020342020352020322020302020202020200A2020312020332020312020302020202020200A4D2020454E44
Contributor: SODA AROMATIC CO., LTD.
InstType: EI
InstName: HITACHI M-80B
IoniMethod: _ENERGY 70 eV
IonPolarity: pos
Date: 2010-10-09 19:48:36+02:00
Num Peaks: 36
14 12 15 47 26 28 27 133 35 49 37 43 38 101 39 645 40 49 41 570 
42 39 44 17 45 806 46 294 47 310 48 57 49 25 53 28 54 17 55 17 
57 13 58 22 59 37 60 25 61 213 69 39 71 59 72 53 73 799 74 30 
75 33 85 16 87 40 88 999 89 45 90 48 
