Name: MassBank: JP000890
MW: 98
Formula: C5H10N2
Synonym: MassBank: JP000890
Synonym: 1,5-DIMETHYL-2-PYRAZOLINE
Structure: 310A32310A312C352D44494D455448594C2D322D505952415A4F4C494E452E6D6F6C0A20204368656D447261773131313630393132353632440A2020382020382020302020302020302020302020302020302020302020303939392056323030300A20202020302E3730353920202020302E3438303020202020302E30303030204E202020302020302020302020302020302020302020302020302020302020302020302020300A2020202D302E3034373820202020302E3831353620202020302E30303030204E202020302020302020302020302020302020302020302020302020302020302020302020300A2020202D302E3539393820202020302E3230323520202020302E303030302043202020302020302020302020302020302020302020302020302020302020302020302020300A2020202D302E313837332020202D302E3531323020202020302E303030302043202020302020302020302020302020302020302020302020302020302020302020302020300A20202020302E363139362020202D302E3334303520202020302E303030302043202020302020302020302020302020302020302020302020302020302020302020302020300A20202020312E323332372020202D302E3839323520202020302E303030302043202020302020302020302020302020302020302020302020302020302020302020302020300A20202020312E3432303320202020302E3839323520202020302E303030302043202020302020302020302020302020302020302020302020302020302020302020302020300A2020202D312E3432303320202020302E3238383720202020302E303030302048202020302020302020302020302020302020302020302020302020302020302020302020300A2020312020322020312020302020202020200A2020322020332020322020302020202020200A2020332020342020312020302020202020200A2020342020352020312020302020202020200A2020312020352020312020302020202020200A2020352020362020312020302020202020200A2020312020372020312020302020202020200A2020332020382020312020302020202020200A4D2020454E44
Contributor: SASAKI S, TOYOHASHI UNIV. OF TECH.
InstType: EI
InstName: SHIMADZU LKB-2091
IoniMethod: _ENERGY 70 eV
IonPolarity: pos
Date: 2010-10-09 19:48:36+02:00
Num Peaks: 34
26 29 27 140 28 135 29 9 30 57 37 7 38 18 39 9 40 31 41 82 
42 725 43 6 44 6 45 9 50 7 51 1 52 13 53 22 54 35 55 6 
56 470 57 25 65 8 67 2 68 6 69 6 81 14 82 1 83 999 84 52 
95 5 97 4 98 353 99 22 
