Name: MassBank: JP000957
CAS: 71-55-6
MW: 131
Formula: C2H3Cl3
Synonym: MassBank: JP000957
Synonym: 1,1,1-TRICHLOROETHANE
Structure: 310A31340A312C312C312D54524943484C4F524F455448414E452E6D6F6C0A20204368656D447261773130323230393232353332440A2020352020342020302020302020302020302020302020302020302020303939392056323030300A20202020302E3030303020202020302E3030303020202020302E303030302043202020302020302020302020302020302020302020302020302020302020302020302020300A20202020302E303030302020202D302E3832353020202020302E303030302043202020302020302020302020302020302020302020302020302020302020302020302020300A2020202D302E3832353020202020302E3030303020202020302E3030303020436C2020302020302020302020302020302020302020302020302020302020302020302020300A20202020302E3030303020202020302E3832353020202020302E3030303020436C2020302020302020302020302020302020302020302020302020302020302020302020300A20202020302E3832353020202020302E3030303020202020302E3030303020436C2020302020302020302020302020302020302020302020302020302020302020302020300A2020312020322020312020302020202020200A2020312020332020312020312020202020200A2020312020342020312020302020202020200A2020312020352020312020312020202020200A4D2020454E44
Contributor: KOGA M, UNIV. OF OCCUPATIONAL AND ENVIRONMENTAL HEALTH
InstType: EI
InstName: JEOL JMS-01-SG
IoniMethod: _ENERGY 70 eV
IonPolarity: pos
Date: 2010-10-09 19:48:36+02:00
Num Peaks: 19
25 37 26 118 27 75 35 9 36 27 37 33 47 38 60 10 61 512 62 69 
63 163 82 2 97 999 98 32 99 609 101 10 117 107 119 102 121 33 
