Name: 2-PROPIONYLTHIOPHENE
MW: 140
Formula: C7H8OS
Synonym: MassBank: JP007780
Synonym: 2-PROPIONYLTHIOPHENE
Structure: 310A32330A322D50524F50494F4E594C5448494F5048454E452E6D6F6C0A20204368656D447261773032323131303134353732440A2020392020392020302020302020302020302020302020302020302020303939392056323030300A20202020302E303136302020202D302E3335373220202020302E303030302043202020302020302020302020302020302020302020302020302020302020302020302020300A2020202D302E343638392020202D312E3032343720202020302E303030302043202020302020302020302020302020302020302020302020302020302020302020302020300A2020202D312E323533352020202D302E3736393720202020302E303030302043202020302020302020302020302020302020302020302020302020302020302020302020300A2020202D312E3235333520202020302E3035353320202020302E303030302043202020302020302020302020302020302020302020302020302020302020302020302020300A2020202D302E3436383920202020302E3331303220202020302E303030302053202020302020302020302020302020302020302020302020302020302020302020302020300A20202020302E383431302020202D302E3335373220202020302E303030302043202020302020302020302020302020302020302020302020302020302020302020302020300A20202020312E323533352020202D312E3037313720202020302E30303030204F202020302020302020302020302020302020302020302020302020302020302020302020300A20202020312E3235333520202020302E3335373220202020302E303030302043202020302020302020302020302020302020302020302020302020302020302020302020300A20202020302E3834313020202020312E3037313720202020302E303030302043202020302020302020302020302020302020302020302020302020302020302020302020300A2020312020322020322020302020202020200A2020322020332020312020302020202020200A2020332020342020322020302020202020200A2020342020352020312020302020202020200A2020312020352020312020302020202020200A2020362020372020322020302020202020200A2020362020382020312020302020202020200A2020382020392020312020302020202020200A2020312020362020312020302020202020200A4D2020454E44
Contributor: HASHIMOTO K, KYOTO COLLEGE OF PHARMACY
InstType: EI
InstName: HITACHI M-80
IoniMethod: _ENERGY 20 eV
IonPolarity: pos
Date: 2010-10-09 19:48:36+02:00
Num Peaks: 20
27 36 28 22 29 227 39 575 40 17 45 43 57 104 58 29 83 267 84 30 
85 17 110 10 111 999 112 218 113 187 114 10 139 10 140 474 141 74 142 46 
