Name: MassBank: JP000758
MW: 212
Formula: C11H13FO3
Synonym: MassBank: JP000758
Synonym: 2-FLUORO-3,7-BIS(METHOXYMETHYL)CYCLOHEPTA-2,4,6-TRIEN-1-ONE
Structure: 322D464C554F524F2D332C372D424953284D4554484F58594D455448594C294359434C4F48455054412D322C342C362D545249454E2D312D4F4E452E6D6F6C0A20204368656D447261773031303331303133313532440A2031352031352020302020302020302020302020302020302020302020303939392056323030300A2020202D302E3630343320202020302E3333343420202020302E303030302043202020302020302020302020302020302020302020302020302020302020302020302020300A20202020302E3139383620202020302E3532343020202020302E303030302043202020302020302020302020302020302020302020302020302020302020302020302020300A20202020302E3835303620202020302E3031343520202020302E303030302043202020302020302020302020302020302020302020302020302020302020302020302020300A20202020302E383530362020202D302E3831303520202020302E303030302043202020302020302020302020302020302020302020302020302020302020302020302020300A20202020302E323132352020202D312E3332393720202020302E303030302043202020302020302020302020302020302020302020302020302020302020302020302020300A2020202D302E353933322020202D312E3135323120202020302E303030302043202020302020302020302020302020302020302020302020302020302020302020302020300A2020202D302E393536372020202D302E3431343620202020302E303030302043202020302020302020302020302020302020302020302020302020302020302020302020300A2020202D312E3132333520202020302E3937353620202020302E30303030204F202020302020302020302020302020302020302020302020302020302020302020302020300A2020202D312E373831372020202D302E3431343620202020302E303030302043202020302020302020302020302020302020302020302020302020302020302020302020300A2020202D322E313935352020202D312E3133313420202020302E30303030204F202020302020302020302020302020302020302020302020302020302020302020302020300A2020202D332E303133382020202D312E3133313420202020302E303030302043202020302020302020302020302020302020302020302020302020302020302020302020300A20202020312E3538383120202020302E3337383020202020302E303030302043202020302020302020302020302020302020302020302020302020302020302020302020300A20202020322E323733322020202D302E3038313620202020302E30303030204F202020302020302020302020302020302020302020302020302020302020302020302020300A20202020332E3031333820202020302E3238313920202020302E303030302043202020302020302020302020302020302020302020302020302020302020302020302020300A20202020302E3337363220202020312E3332393720202020302E303030302046202020302020302020302020302020302020302020302020302020302020302020302020300A2020312020322020312020302020202020200A2020322020332020322020302020202020200A2020332020342020312020302020202020200A2020342020352020322020302020202020200A2020352020362020312020302020202020200A2020362020372020322020302020202020200A2020312020372020312020302020202020200A2020312020382020322020302020202020200A2031302031312020312020302020202020200A2020392031302020312020302020202020200A2020372020392020312020302020202020200A2031332031342020312020302020202020200A2031322031332020312020302020202020200A2020332031322020312020302020202020200A2020322031352020312020302020202020200A4D2020454E44
Contributor: ITO S, DEPT. OF CHEM., TOHOKU UNIV.
InstType: EI
InstName: Unknown
IoniMethod: _ENERGY 25 eV
IonPolarity: pos
Date: 2010-10-09 19:48:36+02:00
Num Peaks: 50
45 300 51 40 63 60 65 4 77 150 78 45 79 30 83 9 89 85 90 30 
91 195 95 4 96 115 97 75 101 70 103 9 105 41 106 45 107 60 108 4 
109 57 110 80 117 45 119 9 120 35 121 150 122 70 123 20 124 36 125 50 
134 35 136 4 137 285 138 75 139 95 149 15 150 32 151 45 153 85 154 4 
165 78 166 62 167 65 181 6 182 140 183 45 197 999 198 10 212 49 213 115 
