Name: MassBank: JP009558
CAS: 719-22-2
MW: 220
Formula: C14H20O2
Synonym: MassBank: JP009558
Synonym: 2,6-DI-TERT-BUTYL-1,4-BENZOQUINONE
Structure: 322C362D44492D544552542D425554594C2D312C342D42454E5A4F5155494E4F4E452E6D6F6C0A20204368656D447261773132323130393033343632440A2031362031362020302020302020302020302020302020302020302020303939392056323030300A2020202D302E3035353320202020302E3335373220202020302E303030302043202020302020302020302020302020302020302020302020302020302020302020302020300A20202020302E333537322020202D302E3335373220202020302E303030302043202020302020302020302020302020302020302020302020302020302020302020302020300A2020202D302E303535332020202D312E3037313720202020302E303030302043202020302020302020302020302020302020302020302020302020302020302020302020300A2020202D302E383830332020202D312E3037313720202020302E303030302043202020302020302020302020302020302020302020302020302020302020302020302020300A2020202D312E323932382020202D302E3335373220202020302E303030302043202020302020302020302020302020302020302020302020302020302020302020302020300A2020202D302E3838303320202020302E3335373220202020302E303030302043202020302020302020302020302020302020302020302020302020302020302020302020300A2020202D312E323932382020202D312E3738363220202020302E30303030204F202020302020302020302020302020302020302020302020302020302020302020302020300A20202020302E3335373220202020312E3037313720202020302E30303030204F202020302020302020302020302020302020302020302020302020302020302020302020300A2020202D312E3239323820202020312E3037313720202020302E303030302043202020302020302020302020302020302020302020302020302020302020302020302020300A2020202D302E3537383320202020312E3438343220202020302E303030302043202020302020302020302020302020302020302020302020302020302020302020302020300A2020202D322E3030373220202020302E3635393220202020302E303030302043202020302020302020302020302020302020302020302020302020302020302020302020300A2020202D312E3730353320202020312E3738363220202020302E303030302043202020302020302020302020302020302020302020302020302020302020302020302020300A20202020312E313832322020202D302E3335373220202020302E303030302043202020302020302020302020302020302020302020302020302020302020302020302020300A20202020312E3138323220202020302E3436373820202020302E303030302043202020302020302020302020302020302020302020302020302020302020302020302020300A20202020322E303037322020202D302E3335373220202020302E303030302043202020302020302020302020302020302020302020302020302020302020302020302020300A20202020312E313832322020202D312E3138323220202020302E303030302043202020302020302020302020302020302020302020302020302020302020302020302020300A2020312020322020312020302020202020200A2020322020332020322020302020202020200A2020332020342020312020302020202020200A2020342020352020312020302020202020200A2020352020362020322020302020202020200A2020312020362020312020302020202020200A2020342020372020322020302020202020200A2020312020382020322020302020202020200A2020392031302020312020302020202020200A2020392031322020312020302020202020200A2020392031312020312020302020202020200A2020362020392020312020302020202020200A2031332031342020312020302020202020200A2031332031362020312020302020202020200A2031332031352020312020302020202020200A2020322031332020312020302020202020200A4D2020454E44
Contributor: NARA WOMEN'S UNIVERSITY
InstType: EI
InstName: HITACHI M-80
IoniMethod: _ENERGY 70 eV
IonPolarity: pos
Date: 2010-10-09 19:48:36+02:00
Num Peaks: 101
15 33 17 26 18 118 27 64 28 277 29 169 32 59 39 148 40 36 41 486 
42 33 43 170 50 11 51 54 52 32 53 115 54 28 55 100 56 26 57 269 
58 13 63 19 65 109 66 54 67 411 68 34 69 52 77 122 78 32 79 117 
80 24 81 93 82 30 83 25 91 218 92 35 93 85 94 27 95 167 96 20 
103 31 104 15 105 114 106 22 107 128 108 39 109 76 110 61 111 20 115 35 
116 14 117 49 118 16 119 119 120 24 121 143 122 42 123 62 124 14 128 17 
129 22 131 37 132 11 133 69 134 43 135 373 136 200 137 49 138 34 143 11 
144 33 145 27 146 16 147 52 148 18 149 270 150 75 151 19 159 97 160 16 
161 47 162 59 163 238 164 89 165 35 175 16 176 18 177 999 178 147 179 22 
187 32 190 11 191 36 192 133 193 22 205 264 206 41 207 31 220 647 221 107 
222 26 
