Name: 3-CHLORO-2-BUTEN-1-OL
MW: 106
Formula: C4H7ClO
Synonym: MassBank: JP009998
Synonym: 3-CHLORO-2-BUTEN-1-OL
Structure: 310A31360A332D43484C4F524F2D322D425554454E2D312D4F4C2E6D6F6C0A20204368656D447261773032323231303134353132440A2020362020352020302020302020302020302020302020302020302020303939392056323030300A20202020302E3731343520202020302E3230363220202020302E303030302043202020302020302020302020302020302020302020302020302020302020302020302020300A2020202D302E3030303020202020302E3631383820202020302E303030302043202020302020302020302020302020302020302020302020302020302020302020302020300A2020202D302E3731343520202020302E3230363220202020302E303030302043202020302020302020302020302020302020302020302020302020302020302020302020300A2020202D312E3432383920202020302E3631383820202020302E303030302043202020302020302020302020302020302020302020302020302020302020302020302020300A20202020312E3432383920202020302E3631383820202020302E30303030204F202020302020302020302020302020302020302020302020302020302020302020302020300A2020202D302E373134352020202D302E3631383820202020302E3030303020436C2020302020302020302020302020302020302020302020302020302020302020302020300A2020312020322020312020302020202020200A2020322020332020322020302020202020200A2020332020342020312020302020202020200A2020312020352020312020302020202020200A2020332020362020312020302020202020200A4D2020454E44
Contributor: KURARAY CO., LTD.
InstType: EI
InstName: JEOL JMS-D-300
IoniMethod: _ENERGY 70 eV
IonPolarity: pos
Date: 2010-10-09 19:48:36+02:00
Num Peaks: 35
26 20 27 152 28 160 29 8 31 137 32 38 36 10 37 2 38 30 39 202 
40 28 41 37 42 54 43 255 44 14 49 2 50 23 51 40 52 12 53 21 
54 12 55 23 61 13 63 2 65 13 69 74 70 18 71 999 72 75 89 14 
91 52 93 2 105 22 106 46 108 14 
