Name: GAMMA-HEPTALACTONE
MW: 128
Formula: C7H12O2
Synonym: MassBank: JP008727
Synonym: GAMMA-HEPTALACTONE
Structure: 310A32330A47414D4D412D48455054414C4143544F4E452E6D6F6C0A20204368656D447261773038313131303139343232440A2020392020392020302020302020302020302020302020302020302020303939392056323030300A2020202D312E333134332020202D302E3031323220202020302E303030302043202020302020302020302020302020302020302020302020302020302020302020302020300A2020202D302E3930313820202020302E3730323320202020302E303030302043202020302020302020302020302020302020302020302020302020302020302020302020300A2020202D302E3039343820202020302E3533303720202020302E303030302043202020302020302020302020302020302020302020302020302020302020302020302020300A2020202D302E303038362020202D302E3238393820202020302E303030302043202020302020302020302020302020302020302020302020302020302020302020302020300A20202020302E373035392020202D302E3730323320202020302E303030302043202020302020302020302020302020302020302020302020302020302020302020302020300A20202020312E343230332020202D302E3238393820202020302E303030302043202020302020302020302020302020302020302020302020302020302020302020302020300A20202020322E313334382020202D302E3730323320202020302E303030302043202020302020302020302020302020302020302020302020302020302020302020302020300A2020202D322E313334382020202D302E3039383520202020302E30303030204F202020302020302020302020302020302020302020302020302020302020302020302020300A2020202D302E373632332020202D302E3632353320202020302E30303030204F202020302020302020302020302020302020302020302020302020302020302020302020300A2020312020322020312020302020202020200A2020322020332020312020302020202020200A2020332020342020312020302020202020200A2020342020352020312020302020202020200A2020352020362020312020302020202020200A2020362020372020312020302020202020200A2020312020382020322020302020202020200A2020312020392020312020302020202020200A2020342020392020312020302020202020200A4D2020454E44
Contributor: SODA AROMATIC CO., LTD.
InstType: EI
InstName: HITACHI M-80B
IoniMethod: _ENERGY 70 eV
IonPolarity: pos
Date: 2010-10-09 19:48:36+02:00
Num Peaks: 25
15 15 26 28 27 200 28 92 29 282 39 79 40 12 41 109 42 62 43 76 
44 26 53 14 55 69 56 139 57 63 58 10 69 17 71 34 72 10 73 10 
84 19 85 999 86 41 100 31 110 21 
