Name: FLUORESCEIN
CAS: 2321-07-5
MW: 332
Formula: C20H12O5
Synonym: MassBank: JP009561
Synonym: FLUORESCEIN
Structure: 464C554F5245534345494E2E6D6F6C0A20204368656D447261773032323131303137333432440A2032352032392020302020302020302020302020302020302020302020303939392056323030300A20202020302E3530373220202020302E3136363420202020302E303030302043202020302020302020302020302020302020302020302020302020302020302020302020300A20202020302E3032323220202020302E3833333920202020302E30303030204F202020302020302020302020302020302020302020302020302020302020302020302020300A20202020302E3530373220202020312E3530313320202020302E303030302043202020302020302020302020302020302020302020302020302020302020302020302020300A20202020302E3235323220202020322E3238353920202020302E30303030204F202020302020302020302020302020302020302020302020302020302020302020302020300A20202020312E3239313820202020312E3234363420202020302E303030302043202020302020302020302020302020302020302020302020302020302020302020302020300A20202020322E3030363320202020312E3635383920202020302E303030302043202020302020302020302020302020302020302020302020302020302020302020302020300A20202020322E3732303720202020312E3234363420202020302E303030302043202020302020302020302020302020302020302020302020302020302020302020302020300A20202020322E3732303720202020302E3432313420202020302E303030302043202020302020302020302020302020302020302020302020302020302020302020302020300A20202020322E3030363320202020302E3030383920202020302E303030302043202020302020302020302020302020302020302020302020302020302020302020302020300A20202020312E3239313820202020302E3432313420202020302E303030302043202020302020302020302020302020302020302020302020302020302020302020302020300A20202020312E303539322020202D302E3434363720202020302E303030302043202020302020302020302020302020302020302020302020302020302020302020302020300A20202020312E383636322020202D302E3237353120202020302E303030302043202020302020302020302020302020302020302020302020302020302020302020302020300A20202020322E343138322020202D302E3838383220202020302E303030302043202020302020302020302020302020302020302020302020302020302020302020302020300A20202020322E313633332020202D312E3637323820202020302E303030302043202020302020302020302020302020302020302020302020302020302020302020302020300A20202020322E373135332020202D322E3238353920202020302E30303030204F202020302020302020302020302020302020302020302020302020302020302020302020300A20202020312E333536332020202D312E3834343420202020302E303030302043202020302020302020302020302020302020302020302020302020302020302020302020300A20202020302E383034332020202D312E3233313320202020302E303030302043202020302020302020302020302020302020302020302020302020302020302020302020300A2020202D302E303032372020202D312E3430323820202020302E30303030204F202020302020302020302020302020302020302020302020302020302020302020302020300A2020202D302E353534372020202D302E3738393720202020302E303030302043202020302020302020302020302020302020302020302020302020302020302020302020300A2020202D312E333631372020202D302E3936313220202020302E303030302043202020302020302020302020302020302020302020302020302020302020302020302020300A2020202D312E393133382020202D302E3334383120202020302E303030302043202020302020302020302020302020302020302020302020302020302020302020302020300A2020202D322E373230372020202D302E3531393720202020302E30303030204F202020302020302020302020302020302020302020302020302020302020302020302020300A2020202D312E3635383820202020302E3433363520202020302E303030302043202020302020302020302020302020302020302020302020302020302020302020302020300A2020202D302E3835313820202020302E3630383020202020302E303030302043202020302020302020302020302020302020302020302020302020302020302020302020300A2020202D302E323939382020202D302E3030353120202020302E303030302043202020302020302020302020302020302020302020302020302020302020302020302020300A2020312020322020312020302020202020200A2020322020332020312020302020202020200A2020332020342020322020302020202020200A2020332020352020312020302020202020200A2020352020362020312020302020202020200A2020362020372020322020302020202020200A2020372020382020312020302020202020200A2020382020392020322020302020202020200A2020392031302020312020302020202020200A2020352031302020322020302020202020200A2020312031302020312020302020202020200A2020312031312020312020302020202020200A2031312031322020312020302020202020200A2031322031332020322020302020202020200A2031332031342020312020302020202020200A2031342031352020312020302020202020200A2031342031362020322020302020202020200A2031362031372020312020302020202020200A2031312031372020322020302020202020200A2031372031382020312020302020202020200A2031382031392020312020302020202020200A2031392032302020312020302020202020200A2032302032312020322020302020202020200A2032312032322020312020302020202020200A2032312032332020312020302020202020200A2032332032342020322020302020202020200A2032342032352020312020302020202020200A2020312032352020312020302020202020200A2031392032352020322020302020202020200A4D2020454E44
Contributor: NARA WOMEN'S UNIVERSITY
InstType: EI
InstName: HITACHI M-80
IoniMethod: _ENERGY 30 eV
IonPolarity: pos
Date: 2010-10-09 19:48:36+02:00
Num Peaks: 45
43 15 44 12 55 11 69 14 71 13 76 26 81 14 93 14 104 22 107 14 
121 12 135 45 137 11 138 22 139 12 144 30 152 20 176 21 187 12 189 34 
200 31 201 39 202 138 203 28 205 13 213 41 214 11 229 27 230 11 231 24 
242 17 258 84 259 51 260 13 271 319 272 74 273 14 287 999 288 758 289 142 
290 18 303 25 331 15 332 34 333 12 
