Name: MassBank: JP006657
MW: 436
Formula: C23H24N4O5
Synonym: MassBank: JP006657
Synonym: 3,5-DINITRO-N-(1-METHYL-3-(1,2,3,4-TETRAHYDRO-9-CARBAZOLYL)PROPYL)BENZAMIDE
Synonym: 9-(3-(3,5-DINITROBENZAMIDO)BUTYL)-1,2,3,4-TETRAHYDROCARBAZOLE
Structure: 332C352D44494E4954524F2D4E2D28312D4D455448594C2D332D28312C322C332C342D5445545241485944524F2D392D43415242415A4F4C594C2950524F50594C2942454E5A414D4944452E6D6F6C0A20204368656D447261773032323231303031343432440A2033322033352020302020302020302020302020302020302020302020303939392056323030300A20202020302E393736302020202D312E3038333520202020302E303030302043202020302020302020302020302020302020302020302020302020302020302020302020300A20202020312E353539332020202D302E3530303220202020302E303030302043202020302020302020302020302020302020302020302020302020302020302020302020300A20202020312E3334353820202020302E3239363720202020302E303030302043202020302020302020302020302020302020302020302020302020302020302020302020300A20202020312E3932393220202020302E3838303120202020302E303030302043202020302020302020302020302020302020302020302020302020302020302020302020300A20202020322E3732363120202020302E3636363620202020302E303030302043202020302020302020302020302020302020302020302020302020302020302020302020300A20202020322E393339362020202D302E3133303320202020302E303030302043202020302020302020302020302020302020302020302020302020302020302020302020300A20202020322E333536322020202D302E3731333720202020302E303030302043202020302020302020302020302020302020302020302020302020302020302020302020300A20202020312E313839352020202D312E3838303420202020302E30303030204F202020302020302020302020302020302020302020302020302020302020302020302020300A20202020302E313739312020202D302E3837303020202020302E30303030204E202020302020302020302020302020302020302020302020302020302020302020302020300A2020202D302E343034332020202D312E3435333420202020302E303030302043202020302020302020302020302020302020302020302020302020302020302020302020300A2020202D312E313838392020202D312E3139383420202020302E303030302043202020302020302020302020302020302020302020302020302020302020302020302020300A2020202D312E333630342020202D302E3339313520202020302E303030302043202020302020302020302020302020302020302020302020302020302020302020302020300A2020202D322E313435312020202D302E3133363520202020302E30303030204E202020302020302020302020302020302020302020302020302020302020302020302020300A2020202D322E383132352020202D302E3632313420202020302E303030302043202020302020302020302020302020302020302020302020302020302020302020302020300A2020202D322E383938372020202D312E3434313920202020302E303030302043202020302020302020302020302020302020302020302020302020302020302020302020300A2020202D332E363532342020202D312E3737373520202020302E303030302043202020302020302020302020302020302020302020302020302020302020302020302020300A2020202D342E333139382020202D312E3239323620202020302E303030302043202020302020302020302020302020302020302020302020302020302020302020302020300A2020202D342E323333362020202D302E3437323120202020302E303030302043202020302020302020302020302020302020302020302020302020302020302020302020300A2020202D332E343739392020202D302E3133363520202020302E303030302043202020302020302020302020302020302020302020302020302020302020302020302020300A2020202D332E3232353020202020302E3634383120202020302E303030302043202020302020302020302020302020302020302020302020302020302020302020302020300A2020202D332E3633373520202020312E3336323620202020302E303030302043202020302020302020302020302020302020302020302020302020302020302020302020300A2020202D332E3232353020202020322E3037373020202020302E303030302043202020302020302020302020302020302020302020302020302020302020302020302020300A2020202D322E3430303020202020322E3037373020202020302E303030302043202020302020302020302020302020302020302020302020302020302020302020302020300A2020202D312E3938373520202020312E3336323620202020302E303030302043202020302020302020302020302020302020302020302020302020302020302020302020300A2020202D322E3430303020202020302E3634383120202020302E303030302043202020302020302020302020302020302020302020302020302020302020302020302020300A2020202D302E323332382020202D322E3236303320202020302E303030302043202020302020302020302020302020302020302020302020302020302020302020302020300A20202020332E373336352020202D302E3334333920202020302E30303030204E202020302020332020302020302020302020302020302020302020302020302020302020300A20202020332E393530302020202D312E3134303720202020302E30303030204F202020302020302020302020302020302020302020302020302020302020302020302020300A20202020342E3331393820202020302E3233393520202020302E30303030204F202020302020352020302020302020302020302020302020302020302020302020302020300A20202020312E3731353620202020312E3637373020202020302E30303030204E202020302020332020302020302020302020302020302020302020302020302020302020300A20202020302E3931383820202020312E3839303520202020302E30303030204F202020302020302020302020302020302020302020302020302020302020302020302020300A20202020322E3239393020202020322E3236303320202020302E30303030204F202020302020352020302020302020302020302020302020302020302020302020302020300A2020312020322020312020302020202020200A2020322020332020312020302020202020200A2020332020342020322020302020202020200A2020342020352020312020302020202020200A2020352020362020322020302020202020200A2020362020372020312020302020202020200A2020322020372020322020302020202020200A2020312020382020322020302020202020200A2020312020392020312020302020202020200A2031302031312020312020302020202020200A2031312031322020312020302020202020200A2031332031342020312020302020202020200A2031342031352020312020302020202020200A2031352031362020312020302020202020200A2031362031372020312020302020202020200A2031372031382020312020302020202020200A2031382031392020312020302020202020200A2031342031392020322020302020202020200A2031392032302020312020302020202020200A2032302032312020312020302020202020200A2032312032322020322020302020202020200A2032322032332020312020302020202020200A2032332032342020322020302020202020200A2032342032352020312020302020202020200A2032302032352020322020302020202020200A2031332032352020312020302020202020200A2031322031332020312020302020202020200A2031302032362020312020302020202020200A2020392031302020312020302020202020200A2032372032382020322020302020202020200A2032372032392020312020302020202020200A2020362032372020312020302020202020200A2033302033312020322020302020202020200A2033302033322020312020302020202020200A2020342033302020312020302020202020200A4D202043484720203420203237202020312020323920202D3120203330202020312020333220202D310A4D2020454E44
Contributor: SASAKI S, TOYOHASHI UNIV. OF TECH.
InstType: EI
InstName: JEOL JMS-01-SG-2
IoniMethod: _ENERGY 75 eV
IonPolarity: pos
Date: 2010-10-09 19:48:36+02:00
Num Peaks: 16
75 59 143 92 156 97 157 5 167 51 168 82 169 36 170 13 171 59 184 848 
185 216 195 5 212 22 218 56 419 53 436 999 
