Name: MassBank: JP009692
MW: 243
Formula: C12H9N3O3
Synonym: MassBank: JP009692
Synonym: TRANS-(4'-NITRO-N,N,O)-AZOXYBENZENE
Structure: 303337395F5452414E532D2834272D4E4954524F2D4E2C4E2C4F292D415A4F585942454E5A454E452E6D6F6C0A20204368656D447261773038323031303032323332440A2031382031392020302020302020302020302020302020302020302020303939392056323030300A2020202D332E333030312020202D302E3335373220202020302E303030302043202020302020302020302020302020302020302020302020302020302020302020302020300A2020202D322E3838373620202020302E3335373320202020302E303030302043202020302020302020302020302020302020302020302020302020302020302020302020300A2020202D322E3036323620202020302E3335373320202020302E303030302043202020302020302020302020302020302020302020302020302020302020302020302020300A2020202D312E363530302020202D302E3335373220202020302E303030302043202020302020302020302020302020302020302020302020302020302020302020302020300A2020202D322E303632362020202D312E3037313620202020302E303030302043202020302020302020302020302020302020302020302020302020302020302020302020300A2020202D322E383837362020202D312E3037313620202020302E303030302043202020302020302020302020302020302020302020302020302020302020302020302020300A2020202D302E383234382020202D302E3335383020202020302E30303030204E202020302020332020302020302020302020302020302020302020302020302020302020300A2020202D302E343132332020202D312E3037313820202020302E30303030204F202020302020352020302020302020302020302020302020302020302020302020302020300A2020202D302E3431323320202020302E3335373320202020302E30303030204E202020302020352020302020302020302020302020302020302020302020302020302020300A20202020302E3431323520202020302E3335373320202020302E303030302043202020302020302020302020302020302020302020302020302020302020302020302020300A20202020302E383234392020202D302E3335373120202020302E303030302043202020302020302020302020302020302020302020302020302020302020302020302020300A20202020312E363530302020202D302E3335373120202020302E303030302043202020302020302020302020302020302020302020302020302020302020302020302020300A20202020322E3036323520202020302E3335373320202020302E303030302043202020302020302020302020302020302020302020302020302020302020302020302020300A20202020312E3635303020202020312E3037313820202020302E303030302043202020302020302020302020302020302020302020302020302020302020302020302020300A20202020302E3832343920202020312E3037313820202020302E303030302043202020302020302020302020302020302020302020302020302020302020302020302020300A20202020322E3838373520202020302E3335373320202020302E30303030204E202020302020332020302020302020302020302020302020302020302020302020302020300A20202020332E3330303020202020312E3037313820202020302E30303030204F202020302020352020302020302020302020302020302020302020302020302020302020300A20202020332E333030312020202D302E3335373120202020302E30303030204F202020302020352020302020302020302020302020302020302020302020302020302020300A2020312020322020312020302020202020200A2020322020332020322020302020202020200A2020332020342020312020302020202020200A2020342020352020322020302020202020200A2020352020362020312020302020202020200A2020312020362020322020302020202020200A2020372020382020342020302020202020200A2020372020392020342020302020202020200A2020342020372020312020302020202020200A2020392031302020312020302020202020200A2031302031312020322020302020202020200A2031312031322020312020302020202020200A2031322031332020322020302020202020200A2031332031342020312020302020202020200A2031342031352020322020302020202020200A2031352031302020312020302020202020200A2031332031362020312020302020202020200A2031362031372020342020302020202020200A2031362031382020342020302020202020200A4D202043484720203620202037202020312020203820202D312020203920202D3120203136202020312020313720202D312020313820202D310A4D2020454E44
Contributor: THE INSTITUTE OF SCIENTIFIC AND INDUSTRIALRESEARCH
InstType: EI
InstName: JEOL JMS-DX-300
IoniMethod: _ENERGY 70 eV
IonPolarity: pos
Date: 2010-10-09 19:48:36+02:00
Num Peaks: 37
27 19 29 16 30 87 38 1 39 60 44 47 50 58 51 19 52 35 62 17 
63 80 64 7 65 55 74 13 75 45 76 6 77 999 78 99 79 20 80 5 
89 10 90 26 91 82 92 7 93 11 105 158 106 18 107 6 108 18 115 28 
122 16 139 1 168 14 227 17 242 17 243 31 244 42 
