Name: MassBank: JP006701
MW: 304
Formula: C13H20O6S
Synonym: MassBank: JP006701
Synonym: 3,4,5-TRIMETHOXY-2-METHYLSULFONYLMETHYLBENZYL METHYL ETHER
Structure: 332C342C352D5452494D4554484F58592D322D4D455448594C53554C464F4E594C4D455448594C42454E5A594C204D455448594C2045544845522E6D6F6C0A20204368656D447261773032323131303231343232440A2032302032302020302020302020302020302020302020302020302020303939392056323030300A2020202D312E3738363220202020302E3035353320202020302E30303030204F202020302020302020302020302020302020302020302020302020302020302020302020300A2020202D322E3530303620202020302E3436373820202020302E303030302043202020302020302020302020302020302020302020302020302020302020302020302020300A2020202D312E3037313720202020302E3436373820202020302E303030302043202020302020302020302020302020302020302020302020302020302020302020302020300A2020202D302E3335373220202020302E3035353320202020302E303030302043202020302020302020302020302020302020302020302020302020302020302020302020300A20202020302E3335373220202020302E3436373820202020302E303030302043202020302020302020302020302020302020302020302020302020302020302020302020300A20202020312E3037313720202020302E3035353320202020302E303030302043202020302020302020302020302020302020302020302020302020302020302020302020300A20202020312E303731372020202D302E3736393720202020302E303030302043202020302020302020302020302020302020302020302020302020302020302020302020300A20202020302E333537322020202D312E3138323220202020302E303030302043202020302020302020302020302020302020302020302020302020302020302020302020300A2020202D302E333537322020202D302E3736393720202020302E303030302043202020302020302020302020302020302020302020302020302020302020302020302020300A20202020302E3335373220202020312E3239323820202020302E303030302043202020302020302020302020302020302020302020302020302020302020302020302020300A20202020312E3037313720202020312E3730353320202020302E303030302053202020302020302020302020302020302020302020302020302020302020302020302020300A20202020302E3635393220202020322E3431393720202020302E30303030204F202020302020302020302020302020302020302020302020302020302020302020302020300A20202020312E3438343220202020302E3939303820202020302E30303030204F202020302020302020302020302020302020302020302020302020302020302020302020300A20202020312E3738363220202020322E3131373820202020302E303030302043202020302020302020302020302020302020302020302020302020302020302020302020300A20202020302E333537322020202D322E3030373220202020302E30303030204F202020302020302020302020302020302020302020302020302020302020302020302020300A2020202D302E333537322020202D322E3431393720202020302E303030302043202020302020302020302020302020302020302020302020302020302020302020302020300A20202020312E373836322020202D312E3138323220202020302E30303030204F202020302020302020302020302020302020302020302020302020302020302020302020300A20202020312E373836322020202D322E3030373220202020302E303030302043202020302020302020302020302020302020302020302020302020302020302020302020300A20202020312E3738363220202020302E3436373820202020302E30303030204F202020302020302020302020302020302020302020302020302020302020302020302020300A20202020322E3530303620202020302E3035353320202020302E303030302043202020302020302020302020302020302020302020302020302020302020302020302020300A2020312020322020312020302020202020200A2020332020342020312020302020202020200A2020342020352020312020302020202020200A2020352020362020322020302020202020200A2020362020372020312020302020202020200A2020372020382020322020302020202020200A2020382020392020312020302020202020200A2020342020392020322020302020202020200A2031312031322020322020302020202020200A2031312031332020322020302020202020200A2031312031342020312020302020202020200A2031302031312020312020302020202020200A2020352031302020312020302020202020200A2031352031362020312020302020202020200A2020382031352020312020302020202020200A2031372031382020312020302020202020200A2020372031372020312020302020202020200A2031392032302020312020302020202020200A2020362031392020312020302020202020200A2020312020332020312020302020202020200A4D2020454E44
Contributor: MASS SPECTROSCOPY SOC. OF JAPAN (MSSJ)
InstType: EI
InstName: JEOL JMS-D-300
IoniMethod: _ENERGY 70 eV
IonPolarity: pos
Date: 2010-10-09 19:48:36+02:00
Num Peaks: 39
39 18 45 55 51 18 57 2 65 28 77 34 78 17 79 3 90 20 91 39 
98 38 105 5 107 33 120 26 121 21 134 2 135 24 136 17 137 25 149 4 
150 57 151 50 152 19 165 3 166 15 167 26 179 67 180 14 181 37 194 38 
195 999 196 12 209 38 210 28 224 59 225 49 226 66 304 23 305 4 
