Name: MassBank: JP002817
MW: 339
Formula: C20H21NO4
Synonym: MassBank: JP002817
Synonym: 6,7-DIMETHOXY-1-(3.4-DIMETHOXYBENZYL)-ISOQUINOLINE
Structure: 362C372D44494D4554484F58592D312D28332E342D44494D4554484F585942454E5A594C292D49534F5155494E4F4C494E452E6D6F6C0A20204368656D447261773035313331303231303332440A2032352032372020302020302020302020302020302020302020302020303939392056323030300A20202020302E3230363220202020302E3335373220202020302E303030302043202020302020302020302020302020302020302020302020302020302020302020302020300A2020202D302E3230363320202020312E3037313720202020302E30303030204E202020302020302020302020302020302020302020302020302020302020302020302020300A20202020302E3230363220202020312E3738363220202020302E303030302043202020302020302020302020302020302020302020302020302020302020302020302020300A20202020312E3033313220202020312E3738363220202020302E303030302043202020302020302020302020302020302020302020302020302020302020302020302020300A20202020312E3434333720202020312E3037313720202020302E303030302043202020302020302020302020302020302020302020302020302020302020302020302020300A20202020322E3236383720202020312E3037313720202020302E303030302043202020302020302020302020302020302020302020302020302020302020302020302020300A20202020322E3638313220202020302E3335373220202020302E303030302043202020302020302020302020302020302020302020302020302020302020302020302020300A20202020322E323638372020202D302E3335373220202020302E303030302043202020302020302020302020302020302020302020302020302020302020302020302020300A20202020312E343433372020202D302E3335373220202020302E303030302043202020302020302020302020302020302020302020302020302020302020302020302020300A20202020312E3033313220202020302E3335373220202020302E303030302043202020302020302020302020302020302020302020302020302020302020302020302020300A2020202D302E323036332020202D302E3335373220202020302E303030302043202020302020302020302020302020302020302020302020302020302020302020302020300A2020202D312E303331322020202D302E3335373220202020302E303030302043202020302020302020302020302020302020302020302020302020302020302020302020300A2020202D312E343433372020202D312E3037313720202020302E303030302043202020302020302020302020302020302020302020302020302020302020302020302020300A2020202D322E323638372020202D312E3037313720202020302E303030302043202020302020302020302020302020302020302020302020302020302020302020302020300A2020202D322E363831332020202D302E3335373220202020302E303030302043202020302020302020302020302020302020302020302020302020302020302020302020300A2020202D322E3236383820202020302E3335373220202020302E303030302043202020302020302020302020302020302020302020302020302020302020302020302020300A2020202D312E3434333720202020302E3335373220202020302E303030302043202020302020302020302020302020302020302020302020302020302020302020302020300A2020202D332E353036322020202D302E3335373220202020302E30303030204F202020302020302020302020302020302020302020302020302020302020302020302020300A2020202D332E393138382020202D312E3037313720202020302E303030302043202020302020302020302020302020302020302020302020302020302020302020302020300A2020202D322E363831322020202D312E3738363220202020302E30303030204F202020302020302020302020302020302020302020302020302020302020302020302020300A2020202D332E353036322020202D312E3738363220202020302E303030302043202020302020302020302020302020302020302020302020302020302020302020302020300A20202020322E363831322020202D312E3037313720202020302E30303030204F202020302020302020302020302020302020302020302020302020302020302020302020300A20202020332E353036322020202D312E3037313720202020302E303030302043202020302020302020302020302020302020302020302020302020302020302020302020300A20202020332E3530363220202020302E3335373220202020302E30303030204F202020302020302020302020302020302020302020302020302020302020302020302020300A20202020332E3931383820202020312E3037313720202020302E303030302043202020302020302020302020302020302020302020302020302020302020302020302020300A2020312020322020312020302020202020200A2020322020332020322020302020202020200A2020332020342020312020302020202020200A2020342020352020322020302020202020200A2020352020362020312020302020202020200A2020362020372020322020302020202020200A2020372020382020312020302020202020200A2020382020392020322020302020202020200A2020392031302020312020302020202020200A2020312031302020322020302020202020200A2020352031302020312020302020202020200A2031312031322020312020302020202020200A2031322031332020312020302020202020200A2031332031342020322020302020202020200A2031342031352020312020302020202020200A2031352031362020322020302020202020200A2031362031372020312020302020202020200A2031322031372020322020302020202020200A2031382031392020312020302020202020200A2031352031382020312020302020202020200A2032302032312020312020302020202020200A2031342032302020312020302020202020200A2020312031312020312020302020202020200A2032322032332020312020302020202020200A2020382032322020312020302020202020200A2032342032352020312020302020202020200A2020372032342020312020302020202020200A4D2020454E44
Contributor: SASAKI S, TOYOHASHI UNIV. OF TECH.
InstType: EI
InstName: Unknown
IoniMethod: EI
IonPolarity: pos
Date: 2010-10-09 19:48:36+02:00
Num Peaks: 270
29 50 30 30 31 34 32 6 35 10 36 60 37 10 38 2 39 88 40 20 
41 102 42 4 43 84 44 62 45 30 46 0 50 46 51 84 52 30 53 3 
54 20 55 79 56 36 57 10 58 16 60 20 61 16 62 2 63 62 64 32 
65 60 66 0 67 42 68 22 69 52 70 0 71 52 72 10 73 16 74 0 
75 50 76 70 77 100 78 1 79 56 80 25 81 30 82 4 83 30 84 20 
85 40 86 2 87 20 88 25 89 86 90 5 91 54 92 26 93 24 94 0 
95 34 96 44 97 24 98 2 99 16 100 20 101 30 102 8 103 30 104 35 
105 50 106 0 107 65 108 30 109 20 110 4 111 34 112 14 113 20 114 3 
115 34 116 30 117 44 118 0 119 42 120 16 121 24 122 2 123 20 124 20 
125 53 126 0 127 40 128 25 129 20 130 0 131 27 132 36 133 34 134 1 
135 26 136 17 137 18 138 2 139 59 140 44 141 42 142 1 143 19 144 24 
145 20 146 3 147 39 148 20 149 28 150 3 151 72 152 42 153 26 154 2 
155 17 156 18 157 21 158 2 159 17 160 14 161 26 162 0 163 24 164 39 
165 56 166 5 167 17 168 19 169 52 170 2 171 20 172 19 173 10 174 0 
175 14 176 24 177 22 178 7 179 50 180 49 181 24 182 2 183 22 184 20 
185 12 186 1 187 10 188 20 189 24 190 4 191 71 192 50 193 22 194 5 
195 51 196 26 197 6 198 0 202 62 203 36 204 45 205 0 206 37 207 62 
208 60 209 5 210 70 211 24 212 19 213 0 214 2 215 10 216 17 217 2 
218 26 219 40 220 180 221 1 222 52 223 40 224 22 225 0 226 10 227 20 
228 10 229 0 230 10 231 17 232 24 233 3 234 50 235 49 236 60 237 0 
238 60 239 18 240 11 245 0 246 20 247 26 248 52 249 5 250 90 251 32 
252 40 253 6 254 19 255 2 259 4 260 1 261 20 262 46 263 60 264 10 
265 80 266 105 267 24 268 1 273 2 274 12 275 14 276 0 277 47 278 76 
279 42 280 11 281 89 282 22 283 4 289 0 290 12 291 27 292 142 293 2 
294 136 295 40 296 94 297 3 298 10 303 2 304 10 305 2 306 32 307 84 
308 276 309 13 310 34 311 10 312 4 320 0 321 5 322 140 323 92 324 999 
325 220 326 34 327 10 337 0 338 936 339 750 340 160 341 3 342 10 343 4 
