Name: PENTAERYTHRO-TRIMETHYL ETHER
MW: 178
Formula: C8H18O4
Synonym: MassBank: JP003687
Synonym: PENTAERYTHRO-TRIMETHYL ETHER
Structure: 303935325F50454E54414552595448524F2D5452494D455448594C2045544845522E6D6F6C0A20204368656D447261773038323031303131353932440A2031322031312020302020302020302020302020302020302020302020303939392056323030300A2020202D302E3331363720202020302E3030303020202020302E303030302043202020302020302020302020302020302020302020302020302020302020302020302020300A20202020302E3530383320202020302E3030303020202020302E303030302043202020302020302020302020302020302020302020302020302020302020302020302020300A2020202D302E3331363720202020302E3832353020202020302E303030302043202020302020302020302020302020302020302020302020302020302020302020302020300A2020202D312E3134313720202020302E3030303020202020302E303030302043202020302020302020302020302020302020302020302020302020302020302020302020300A2020202D302E333136372020202D302E3832353020202020302E303030302043202020302020302020302020302020302020302020302020302020302020302020302020300A20202020302E393230382020202D302E3731343520202020302E30303030204F202020302020302020302020302020302020302020302020302020302020302020302020300A20202020312E373435372020202D302E3730333520202020302E303030302043202020302020302020302020302020302020302020302020302020302020302020302020300A20202020302E3339373720202020312E3233373520202020302E30303030204F202020302020302020302020302020302020302020302020302020302020302020302020300A20202020312E3131323220202020302E3832353020202020302E303030302043202020302020302020302020302020302020302020302020302020302020302020302020300A2020202D312E3535343220202020302E3731343520202020302E30303030204F202020302020302020302020302020302020302020302020302020302020302020302020300A2020202D312E303331322020202D312E3233373520202020302E30303030204F202020302020302020302020302020302020302020302020302020302020302020302020300A2020202D312E373435372020202D302E3832353020202020302E303030302043202020302020302020302020302020302020302020302020302020302020302020302020300A2020312020322020312020302020202020200A2020312020332020312020302020202020200A2020312020342020312020302020202020200A2020312020352020312020302020202020200A2020322020362020312020302020202020200A2020362020372020312020302020202020200A2020332020382020312020302020202020200A2020382020392020312020302020202020200A2020342031302020312020302020202020200A2020352031312020312020302020202020200A2031312031322020312020302020202020200A4D2020454E44
Contributor: SASAKI S, TOYOHASHI UNIV. OF TECH.
InstType: EI
InstName: Unknown
IoniMethod: EI
IonPolarity: pos
Date: 2010-10-09 19:48:36+02:00
Num Peaks: 47
39 97 41 295 42 58 43 10 45 999 46 27 47 20 53 4 54 72 55 270 
56 56 57 7 58 89 59 58 60 12 61 8 67 9 68 15 69 123 70 5 
71 511 72 38 73 14 74 1 75 816 76 32 77 14 81 1 82 51 83 64 
84 173 85 25 86 110 87 49 88 18 97 2 98 22 99 39 100 9 101 2 
102 32 113 14 114 168 115 5 116 20 128 47 129 8 
