Name: MassBank: JP004574
MW: 202
Formula: C13H14O2
Synonym: MassBank: JP004574
Synonym: 1,5-DIHYDROXY-4,6,8-TRIMETHYLAZULENE
Structure: 312C352D4449485944524F58592D342C362C382D5452494D455448594C415A554C454E452E6D6F6C0A20204368656D447261773131313630393132333632440A2031352031362020302020302020302020302020302020302020302020303939392056323030300A2020202D312E3436363020202020302E3636373420202020302E303030302043202020302020302020302020302020302020302020302020302020302020302020302020300A2020202D312E3935303920202020302E3030303020202020302E303030302043202020302020302020302020302020302020302020302020302020302020302020302020300A2020202D312E343636302020202D302E3636373420202020302E303030302043202020302020302020302020302020302020302020302020302020302020302020302020300A2020202D302E363831342020202D302E3431323520202020302E303030302043202020302020302020302020302020302020302020302020302020302020302020302020300A2020202D302E303336342020202D302E3932363920202020302E303030302043202020302020302020302020302020302020302020302020302020302020302020302020300A20202020302E373638302020202D302E3734333320202020302E303030302043202020302020302020302020302020302020302020302020302020302020302020302020300A20202020312E313235392020202D302E3030303020202020302E303030302043202020302020302020302020302020302020302020302020302020302020302020302020300A20202020302E3736383020202020302E3734333320202020302E303030302043202020302020302020302020302020302020302020302020302020302020302020302020300A2020202D302E3033363420202020302E3932363920202020302E303030302043202020302020302020302020302020302020302020302020302020302020302020302020300A2020202D302E3638313420202020302E3431323520202020302E303030302043202020302020302020302020302020302020302020302020302020302020302020302020300A2020202D302E3231393920202020312E3733313220202020302E303030302043202020302020302020302020302020302020302020302020302020302020302020302020300A20202020312E393530392020202D302E3030303020202020302E303030302043202020302020302020302020302020302020302020302020302020302020302020302020300A2020202D302E323139392020202D312E3733313220202020302E303030302043202020302020302020302020302020302020302020302020302020302020302020302020300A20202020312E323832332020202D312E3338383320202020302E30303030204F202020302020302020302020302020302020302020302020302020302020302020302020300A2020202D312E3732303920202020312E3435323120202020302E30303030204F202020302020302020302020302020302020302020302020302020302020302020302020300A2020312020322020312020302020202020200A2020322020332020322020302020202020200A2020332020342020312020302020202020200A2020342020352020322020302020202020200A2020352020362020312020302020202020200A2020362020372020322020302020202020200A2020372020382020312020302020202020200A2020382020392020322020302020202020200A2020392031302020312020302020202020200A2020312031302020322020302020202020200A2020342031302020312020302020202020200A2020392031312020312020302020202020200A2020372031322020312020302020202020200A2020352031332020312020302020202020200A2020362031342020312020302020202020200A2020312031352020312020302020202020200A4D2020454E44
Contributor: HAYASHI A, DEPT. OF CHEMISTRY, FAC. OF SCI. AND TECHNOLOGY, KINKI UNIV.
InstType: EI
InstName: JEOL JMS-HX-100
IoniMethod: _ENERGY 70 eV
IonPolarity: pos
Date: 2010-10-09 19:48:36+02:00
Num Peaks: 65
38 21 39 249 40 41 41 104 42 26 43 65 50 65 51 205 52 78 53 121 
55 41 57.5 17 58 25 62 30 63 124 64 66 64.5 17 65 150 66 30 67 29 
71 25 72 17 73 19 74 35 75 48 76 42 77 218 78 84 79 64 86 18 
87 51 89 50 91 351 92 39 102 39 103 75 104 24 105 81 115 314 116 160 
117 146 118 60 119 40 127 69 128 171 129 156 130 91 131 999 132 438 133 56 
141 38 143 19 144 21 145 172 146 464 147 80 149 20 157 19 159 290 160 40 
173 121 174 636 175 87 202 816 203 129 
