Name: DIMETHYL(PHENYLETHYNYL)GERMANE
MW: 206
Formula: C10H12Ge
Synonym: MassBank: JP001342
Synonym: DIMETHYL(PHENYLETHYNYL)GERMANE
Structure: 44494D455448594C285048454E594C455448594E594C294745524D414E452E6D6F6C0A20204368656D447261773130313831303136333532440A2031312031312020302020302020302020302020302020302020302020303939392056323030300A2020202D312E3835363220202020302E3030303020202020302E303030302047652020302020302020302020302020302020302020302020302020302020302020302020300A2020202D312E3033313220202020302E3030303020202020302E303030302043202020302020302020302020302020302020302020302020302020302020302020302020300A2020202D302E3230363220202020302E3030303020202020302E303030302043202020302020302020302020302020302020302020302020302020302020302020302020300A20202020302E3631383820202020302E3030303020202020302E303030302043202020302020302020302020302020302020302020302020302020302020302020302020300A20202020312E3033313320202020302E3731343520202020302E303030302043202020302020302020302020302020302020302020302020302020302020302020302020300A20202020312E3835363220202020302E3731343520202020302E303030302043202020302020302020302020302020302020302020302020302020302020302020302020300A20202020322E323638382020202D302E3030303020202020302E303030302043202020302020302020302020302020302020302020302020302020302020302020302020300A20202020312E383536332020202D302E3731343520202020302E303030302043202020302020302020302020302020302020302020302020302020302020302020302020300A20202020312E303331332020202D302E3731343520202020302E303030302043202020302020302020302020302020302020302020302020302020302020302020302020300A2020202D322E323638382020202D302E3731343520202020302E303030302043202020302020302020302020302020302020302020302020302020302020302020302020300A2020202D322E3236383820202020302E3731343520202020302E303030302043202020302020302020302020302020302020302020302020302020302020302020302020300A2020322020332020332020302020202020200A2020342020352020312020302020202020200A2020352020362020322020302020202020200A2020362020372020312020302020202020200A2020372020382020322020302020202020200A2020382020392020312020302020202020200A2020342020392020322020302020202020200A2020332020342020312020302020202020200A2020312020322020312020302020202020200A2020312031302020312020302020202020200A2020312031312020312020302020202020200A4D2020454E44
Contributor: MASS SPECTROSCOPY SOC. OF JAPAN (MSSJ)
InstType: EI
InstName: JEOL JMS-D-3000
IoniMethod: _ENERGY 70 eV
IonPolarity: pos
Date: 2010-10-09 19:48:36+02:00
Num Peaks: 59
43 11 50 12 51 18 52 26 63 15 75 19 76 62 77 38 85 337 87 480 
88 126 89 622 91 122 95 15 97 36 99 48 100 575 101 34 102 761 103 228 
104 999 106 193 111 11 113 15 115 74 117 11 123 11 145 19 147 103 148 15 
149 146 150 60 151 167 153 41 171 187 172 22 173 268 175 313 176 25 177 71 
185 34 186 11 187 356 188 53 189 479 190 172 191 588 192 53 193 108 194 12 
201 64 202 339 203 94 204 443 205 238 206 584 207 82 208 114 209 14 
