Name: MassBank: JP003965
MW: 542
Formula: C34H54O5
Synonym: MassBank: JP003965
Synonym: METHYL-3,23-O-ISOPROPYLIDENE-ASIATATE
Structure: 303735325F4D455448594C2D332C32332D4F2D49534F50524F50594C4944454E452D41534941544154452E6D6F6C0A20204368656D447261773039303631303230303532440A2034342034392020302020302020302020302020302020302020302020303939392056323030300A2020202D332E3631383020202020312E3633333020202020302E303030302043202020302020302020302020302020302020302020302020302020302020302020302020300A2020202D332E3631383020202020302E3830383020202020302E303030302043202020302020302020302020302020302020302020302020302020302020302020302020300A2020202D322E3930333620202020302E3339353520202020302E303030302043202020302020302020302020302020302020302020302020302020302020302020302020300A2020202D322E3138393120202020302E3830383020202020302E303030302043202020302020302020302020302020302020302020302020302020302020302020302020300A2020202D322E3138393120202020312E3633333020202020302E303030302043202020302020302020302020302020302020302020302020302020302020302020302020300A2020202D322E3930333620202020322E3034353520202020302E303030302043202020302020302020302020302020302020302020302020302020302020302020302020300A2020202D312E3437343620202020302E3339353520202020302E303030302043202020302020302020302020302020302020302020302020302020302020302020302020300A2020202D302E3736303220202020302E3830383020202020302E303030302043202020302020302020302020302020302020302020302020302020302020302020302020300A2020202D302E3736303220202020312E3633333020202020302E303030302043202020302020302020302020302020302020302020302020302020302020302020302020300A2020202D312E3437343620202020322E3034353520202020302E303030302043202020302020302020302020302020302020302020302020302020302020302020302020300A2020202D312E343734362020202D302E3432393520202020302E303030302043202020302020302020302020302020302020302020302020302020302020302020302020300A2020202D302E373630322020202D302E3834323020202020302E303030302043202020302020302020302020302020302020302020302020302020302020302020302020300A2020202D302E303435372020202D302E3432393520202020302E303030302043202020302020302020302020302020302020302020302020302020302020302020302020300A2020202D302E3034353720202020302E3339353520202020302E303030302043202020302020302020302020302020302020302020302020302020302020302020302020300A20202020302E363638382020202D302E3834323020202020302E303030302043202020302020302020302020302020302020302020302020302020302020302020302020300A20202020312E333833332020202D302E3432393520202020302E303030302043202020302020302020302020302020302020302020302020302020302020302020302020300A20202020312E3338333320202020302E3339353520202020302E303030302043202020302020302020302020302020302020302020302020302020302020302020302020300A20202020302E3636383820202020302E3830383020202020302E303030302043202020302020302020302020302020302020302020302020302020302020302020302020300A20202020302E363638382020202D312E3636373020202020302E303030302043202020302020302020302020302020302020302020302020302020302020302020302020300A20202020312E333833332020202D322E3037393520202020302E303030302043202020302020302020302020302020302020302020302020302020302020302020302020300A20202020322E303937372020202D312E3636373020202020302E303030302043202020302020302020302020302020302020302020302020302020302020302020302020300A20202020322E303937372020202D302E3834323020202020302E303030302043202020302020302020302020302020302020302020302020302020302020302020302020300A20202020322E383132322020202D322E3037393520202020302E30303030204F202020302020302020302020302020302020302020302020302020302020302020302020300A20202020332E353236372020202D312E3636373020202020302E303030302043202020302020302020302020302020302020302020302020302020302020302020302020300A20202020332E353236372020202D302E3834323020202020302E30303030204F202020302020302020302020302020302020302020302020302020302020302020302020300A20202020322E383132322020202D302E3432393520202020302E303030302043202020302020302020302020302020302020302020302020302020302020302020302020300A2020202D322E3138393120202020322E3435383020202020302E303030302043202020302020302020302020302020302020302020302020302020302020302020302020300A2020202D312E3437343620202020322E3837303520202020302E30303030204F202020302020302020302020302020302020302020302020302020302020302020302020300A2020202D322E3930333620202020322E3837303520202020302E30303030204F202020302020302020302020302020302020302020302020302020302020302020302020300A2020202D332E3631383020202020322E3435383020202020302E303030302043202020302020302020302020302020302020302020302020302020302020302020302020300A2020202D342E3333323520202020302E3339353520202020302E303030302043202020302020302020302020302020302020302020302020302020302020302020302020300A2020202D322E393033362020202D302E3432393520202020302E303030302043202020302020302020302020302020302020302020302020302020302020302020302020300A2020202D322E323031372020202D302E3031363920202020302E303030302048202020302020302020302020302020302020302020302020302020302020302020302020300A2020202D302E3233353420202020312E3434343620202020302E303030302043202020302020302020302020302020302020302020302020302020302020302020302020300A2020202D302E303435372020202D312E3235343520202020302E303030302048202020302020302020302020302020302020302020302020302020302020302020302020300A20202020322E3032323420202020302E3039323120202020302E303030302048202020302020302020302020302020302020302020302020302020302020302020302020300A20202020342E333332352020202D312E3439303220202020302E303030302043202020302020302020302020302020302020302020302020302020302020302020302020300A20202020322E323232332020202D322E3438323620202020302E303030302048202020302020302020302020302020302020302020302020302020302020302020302020300A20202020312E363137392020202D322E3837303520202020302E30303030204F202020302020302020302020302020302020302020302020302020302020302020302020300A20202020302E323434322020202D312E3534393420202020302E303030302043202020302020302020302020302020302020302020302020302020302020302020302020300A2020202D302E3034353720202020312E3232303520202020302E303030302043202020302020302020302020302020302020302020302020302020302020302020302020300A20202020332E383234382020202D322E3433363320202020302E303030302043202020302020302020302020302020302020302020302020302020302020302020302020300A20202020322E343131352020202D302E3037393020202020302E303030302043202020302020302020302020302020302020302020302020302020302020302020302020300A20202020302E383239392020202D322E3639313420202020302E303030302048202020302020302020302020302020302020302020302020302020302020302020302020300A2020312020322020312020302020202020200A2020322020332020312020302020202020200A2020332020342020312020302020202020200A2020342020352020312020302020202020200A2020352020362020312020302020202020200A2020362020312020312020302020202020200A2020342020372020312020302020202020200A2020372020382020312020302020202020200A2020382020392020312020302020202020200A2020392031302020312020302020202020200A2031302020352020312020302020202020200A2020372031312020322020302020202020200A2031312031322020312020302020202020200A2031322031332020312020302020202020200A2031332031342020312020302020202020200A2031342020382020312020302020202020200A2031332031352020312020302020202020200A2031352031362020312020302020202020200A2031362031372020312020302020202020200A2031372031382020312020302020202020200A2031382031342020312020302020202020200A2031352031392020312020302020202020200A2031392032302020312020302020202020200A2032302032312020312020302020202020200A2032312032322020312020302020202020200A2032322031362020312020302020202020200A2032312032332020312020302020202020200A2032332032342020312020302020202020200A2032342032352020312020302020202020200A2032352032362020312020302020202020200A2032362032322020312020302020202020200A2020352032372020312020312020202020200A2032372032382020322020302020202020200A2032372032392020312020302020202020200A2032392033302020312020302020202020200A2020322033312020312020362020202020200A2020332033322020312020312020202020200A2020342033332020312020312020202020200A2020382033342020312020362020202020200A2031332033352020312020362020202020200A2031362033362020312020362020202020200A2032342033372020312020362020202020200A2032312033382020312020362020202020200A2032302033392020312020362020202020200A2031352034302020312020312020202020200A2031342034312020312020312020202020200A2032342034322020312020312020202020200A2032322034332020312020312020202020200A2032302034342020312020312020202020200A4D2020454E44
Contributor: SASAKI S, TOYOHASHI UNIV. OF TECH.
InstType: EI
InstName: Unknown
IoniMethod: EI
IonPolarity: pos
Date: 2010-10-09 19:48:36+02:00
Num Peaks: 43
41 340 43 820 45 1000 55 36 56 150 57 300 59 250 60 4 61 110 67 150 
69 350 71 2 73 120 81 210 82 120 83 2 84 110 93 120 95 190 97 2 
105 150 107 160 109 150 119 2 121 130 133 320 189 110 202 1 203 510 204 140 
249 120 262 999 263 240 466 30 467 20 482 1 483 40 484 40 527 90 528 1 
542 180 543 70 544 20 
