Name: DIBUTYLTIN DILAURATE
MW: 632
Formula: C32H64O4Sn
Synonym: MassBank: JP008353
Synonym: DIBUTYLTIN DILAURATE
Structure: 4449425554594C54494E2044494C4155524154452E6D6F6C0A20204368656D447261773039323131303138303932440A2033372033362020302020302020302020302020302020302020302020303939392056323030300A2020202D312E303035362020202D322E3838373520202020302E3030303020536E2020302020302020302020302020302020302020302020302020302020302020302020300A2020202D312E303035362020202D332E3731323520202020302E303030302043202020302020302020302020302020302020302020302020302020302020302020302020300A2020202D302E323931312020202D342E3132353020202020302E303030302043202020302020302020302020302020302020302020302020302020302020302020302020300A20202020302E343233332020202D332E3731323520202020302E303030302043202020302020302020302020302020302020302020302020302020302020302020302020300A20202020312E313337382020202D342E3132353020202020302E303030302043202020302020302020302020302020302020302020302020302020302020302020302020300A2020202D312E383330362020202D322E3838373520202020302E303030302043202020302020302020302020302020302020302020302020302020302020302020302020300A2020202D322E323433312020202D332E3630323020202020302E303030302043202020302020302020302020302020302020302020302020302020302020302020302020300A2020202D332E303638312020202D332E3630323020202020302E303030302043202020302020302020302020302020302020302020302020302020302020302020302020300A2020202D332E343830362020202D322E3838373520202020302E303030302043202020302020302020302020302020302020302020302020302020302020302020302020300A2020202D312E303035362020202D322E3036323520202020302E30303030204F202020302020302020302020302020302020302020302020302020302020302020302020300A2020202D312E373230312020202D312E3635303020202020302E303030302043202020302020302020302020302020302020302020302020302020302020302020302020300A2020202D322E343334352020202D322E3036323520202020302E303030302043202020302020302020302020302020302020302020302020302020302020302020302020300A2020202D332E313439302020202D312E3635303020202020302E303030302043202020302020302020302020302020302020302020302020302020302020302020302020300A2020202D332E313439302020202D302E3832353020202020302E303030302043202020302020302020302020302020302020302020302020302020302020302020302020300A2020202D332E383633352020202D302E3431323520202020302E303030302043202020302020302020302020302020302020302020302020302020302020302020302020300A2020202D332E3836333520202020302E3431323520202020302E303030302043202020302020302020302020302020302020302020302020302020302020302020302020300A2020202D342E3537383020202020302E3832353020202020302E303030302043202020302020302020302020302020302020302020302020302020302020302020302020300A2020202D342E3537383020202020312E3635303020202020302E303030302043202020302020302020302020302020302020302020302020302020302020302020302020300A2020202D352E3239323420202020322E3036323520202020302E303030302043202020302020302020302020302020302020302020302020302020302020302020302020300A2020202D352E3239323420202020322E3838373520202020302E303030302043202020302020302020302020302020302020302020302020302020302020302020302020300A2020202D362E3030363920202020332E3330303020202020302E303030302043202020302020302020302020302020302020302020302020302020302020302020302020300A2020202D362E3030363920202020342E3132353020202020302E303030302043202020302020302020302020302020302020302020302020302020302020302020302020300A2020202D312E373230312020202D302E3832353020202020302E30303030204F202020302020302020302020302020302020302020302020302020302020302020302020300A2020202D302E313830362020202D322E3838373520202020302E30303030204F202020302020302020302020302020302020302020302020302020302020302020302020300A20202020302E323331392020202D322E3137333020202020302E303030302043202020302020302020302020302020302020302020302020302020302020302020302020300A2020202D302E313830362020202D312E3435383620202020302E303030302043202020302020302020302020302020302020302020302020302020302020302020302020300A20202020302E323331392020202D302E3734343120202020302E303030302043202020302020302020302020302020302020302020302020302020302020302020302020300A20202020312E303536392020202D302E3734343120202020302E303030302043202020302020302020302020302020302020302020302020302020302020302020302020300A20202020312E343639342020202D302E3032393620202020302E303030302043202020302020302020302020302020302020302020302020302020302020302020302020300A20202020322E323934342020202D302E3032393620202020302E303030302043202020302020302020302020302020302020302020302020302020302020302020302020300A20202020322E3730363920202020302E3638343920202020302E303030302043202020302020302020302020302020302020302020302020302020302020302020302020300A20202020332E3533313920202020302E3638343920202020302E303030302043202020302020302020302020302020302020302020302020302020302020302020302020300A20202020332E3934343420202020312E3339393320202020302E303030302043202020302020302020302020302020302020302020302020302020302020302020302020300A20202020342E3736393420202020312E3339393320202020302E303030302043202020302020302020302020302020302020302020302020302020302020302020302020300A20202020352E3138313920202020322E3131333820202020302E303030302043202020302020302020302020302020302020302020302020302020302020302020302020300A20202020362E3030363920202020322E3131333820202020302E303030302043202020302020302020302020302020302020302020302020302020302020302020302020300A20202020312E303536392020202D322E3137333020202020302E30303030204F202020302020302020302020302020302020302020302020302020302020302020302020300A2020322020332020312020302020202020200A2020332020342020312020302020202020200A2020342020352020312020302020202020200A2020312020322020312020302020202020200A2020362020372020312020302020202020200A2020372020382020312020302020202020200A2020382020392020312020302020202020200A2020312020362020312020302020202020200A2031312031322020312020302020202020200A2031322031332020312020302020202020200A2031332031342020312020302020202020200A2031342031352020312020302020202020200A2031352031362020312020302020202020200A2031362031372020312020302020202020200A2031372031382020312020302020202020200A2031382031392020312020302020202020200A2031392032302020312020302020202020200A2032302032312020312020302020202020200A2032312032322020312020302020202020200A2031312032332020322020302020202020200A2031302031312020312020302020202020200A2020312031302020312020302020202020200A2032352032362020312020302020202020200A2032362032372020312020302020202020200A2032372032382020312020302020202020200A2032382032392020312020302020202020200A2032392033302020312020302020202020200A2033302033312020312020302020202020200A2033312033322020312020302020202020200A2033322033332020312020302020202020200A2033332033342020312020302020202020200A2033342033352020312020302020202020200A2033352033362020312020302020202020200A2032352033372020322020302020202020200A2032342032352020312020302020202020200A2020312032342020312020302020202020200A4D2020454E44
Contributor: UBE SCIENTIFIC ANALYSIS LABORATORY
InstType: EI
InstName: HITACHI M-60
IoniMethod: _ENERGY 70 eV
IonPolarity: pos
Date: 2010-10-09 19:48:36+02:00
Num Peaks: 146
27 328 28 38 29 751 39 196 40 24 41 775 42 242 43 999 44 22 45 117 
53 49 54 30 55 381 56 180 57 693 58 47 59 29 60 345 61 49 67 21 
69 100 70 50 71 119 73 235 74 18 81 19 83 25 84 36 85 94 87 37 
91 29 97 27 99 16 101 33 112 21 115 12 119 24 120 13 121 37 129 54 
130 15 133 168 134 88 135 284 136 88 137 336 139 57 141 29 143 11 155 15 
173 38 174 30 175 57 176 47 177 100 178 28 179 35 181 13 183 39 189 16 
191 30 201 35 229 24 231 38 232 13 233 55 235 19 247 18 259 23 261 45 
263 42 271 12 273 14 275 19 287 85 288 57 289 139 290 64 291 155 292 30 
293 21 295 25 303 16 305 16 313 41 314 24 315 248 316 157 317 406 318 171 
319 450 320 65 321 73 323 71 345 26 347 33 373 40 374 24 375 64 376 19 
377 50 401 91 402 67 403 160 404 79 405 206 406 31 407 34 409 36 427 11 
429 301 430 204 431 501 432 260 433 632 434 132 435 96 436 18 437 107 438 20 
457 10 459 32 460 13 461 42 489 13 491 18 515 24 516 22 517 46 518 23 
519 62 543 69 545 171 547 223 549 64 551 23 571 123 573 292 575 400 577 77 
578 58 579 43 580 11 601 20 602 11 603 24 
