Name: MassBank: JP004733
MW: 231
Formula: C6H11Cl3OSi
Synonym: MassBank: JP004733
Synonym: 3,3,3-TRICHLORO-2-TRIMETHYLSILOXYPROPENE
Structure: 332C332C332D54524943484C4F524F2D322D5452494D455448594C53494C4F585950524F50454E452E6D6F6C0A20204368656D447261773032323131303139343732440A2031312031302020302020302020302020302020302020302020302020303939392056323030300A2020202D302E3335373220202020302E3937363020202020302E303030302043202020302020302020302020302020302020302020302020302020302020302020302020300A2020202D302E3335373220202020302E3135313020202020302E303030302043202020302020302020302020302020302020302020302020302020302020302020302020300A2020202D312E303731372020202D302E3236313520202020302E303030302043202020302020302020302020302020302020302020302020302020302020302020302020300A20202020302E333537322020202D302E3236313520202020302E30303030204F202020302020302020302020302020302020302020302020302020302020302020302020300A20202020312E3037313720202020302E3135313020202020302E303030302053692020302020302020302020302020302020302020302020302020302020302020302020300A20202020312E343834322020202D302E3536333520202020302E303030302043202020302020302020302020302020302020302020302020302020302020302020302020300A20202020312E3738363220202020302E3536333520202020302E303030302043202020302020302020302020302020302020302020302020302020302020302020302020300A20202020302E3635393220202020302E3836353520202020302E303030302043202020302020302020302020302020302020302020302020302020302020302020302020300A2020202D312E3438343220202020302E3435333020202020302E3030303020436C2020302020302020302020302020302020302020302020302020302020302020302020300A2020202D312E373836322020202D302E3637343020202020302E3030303020436C2020302020302020302020302020302020302020302020302020302020302020302020300A2020202D302E363539322020202D302E3937363020202020302E3030303020436C2020302020302020302020302020302020302020302020302020302020302020302020300A2020312020322020322020302020202020200A2020322020332020312020302020202020200A2020342020352020312020302020202020200A2020352020362020312020312020202020200A2020352020372020312020302020202020200A2020352020382020312020312020202020200A2020322020342020312020302020202020200A2020332020392020312020312020202020200A2020332031302020312020302020202020200A2020332031312020312020312020202020200A4D2020454E44
Contributor: MASS SPECTROSCOPY SOC. OF JAPAN (MSSJ)
InstType: EI
InstName: JEOL JMS-D-3000
IoniMethod: _ENERGY 18 eV
IonPolarity: pos
Date: 2010-10-09 19:48:36+02:00
Num Peaks: 29
41 171 43 29 54 42 67 66 69 240 72 36 73 999 74 89 75 42 89 74 
93 469 94 36 95 174 96 80 98 46 113 264 115 182 117 33 124 27 197 105 
199 80 217 474 218 52 219 492 220 52 221 164 232 129 234 127 236 45 
