Name: N-CYCLOHEXYLCYCLOOCTANIMINE
MW: 207
Formula: C14H25N
Synonym: MassBank: JP004778
Synonym: N-CYCLOHEXYLCYCLOOCTANIMINE
Structure: 4E2D4359434C4F484558594C4359434C4F4F4354414E494D494E452E6D6F6C0A20204368656D447261773038313231303031353932440A2031352031362020302020302020302020302020302020302020302020303939392056323030300A2020202D302E343230392020202D302E3436313720202020302E303030302043202020302020302020302020302020302020302020302020302020302020302020302020300A2020202D312E303034322020202D312E3034353020202020302E303030302043202020302020302020302020302020302020302020302020302020302020302020302020300A2020202D312E383239322020202D312E3034353020202020302E303030302043202020302020302020302020302020302020302020302020302020302020302020302020300A2020202D322E343132362020202D302E3436313720202020302E303030302043202020302020302020302020302020302020302020302020302020302020302020302020300A2020202D322E3431323620202020302E3336333320202020302E303030302043202020302020302020302020302020302020302020302020302020302020302020302020300A2020202D312E3832393220202020302E3934363720202020302E303030302043202020302020302020302020302020302020302020302020302020302020302020302020300A2020202D312E3030343220202020302E3934363720202020302E303030302043202020302020302020302020302020302020302020302020302020302020302020302020300A2020202D302E3432303920202020302E3336333320202020302E303030302043202020302020302020302020302020302020302020302020302020302020302020302020300A20202020302E333431332020202D302E3737373420202020302E30303030204E202020302020302020302020302020302020302020302020302020302020302020302020300A20202020302E393935392020202D302E3237353120202020302E303030302043202020302020302020302020302020302020302020302020302020302020302020302020300A20202020302E3838383220202020302E3534323820202020302E303030302043202020302020302020302020302020302020302020302020302020302020302020302020300A20202020312E3534323720202020312E3034353020202020302E303030302043202020302020302020302020302020302020302020302020302020302020302020302020300A20202020322E3330343920202020302E3732393320202020302E303030302043202020302020302020302020302020302020302020302020302020302020302020302020300A20202020322E343132362020202D302E3038383620202020302E303030302043202020302020302020302020302020302020302020302020302020302020302020302020300A20202020312E373538312020202D302E3539303920202020302E303030302043202020302020302020302020302020302020302020302020302020302020302020302020300A2020312020322020312020302020202020200A2020322020332020312020302020202020200A2020332020342020312020302020202020200A2020342020352020312020302020202020200A2020352020362020312020302020202020200A2020362020372020312020302020202020200A2020372020382020312020302020202020200A2020312020382020312020302020202020200A2020312020392020322020302020202020200A2031302031312020312020302020202020200A2031312031322020312020302020202020200A2031322031332020312020302020202020200A2031332031342020312020302020202020200A2031342031352020312020302020202020200A2031302031352020312020302020202020200A2020392031302020312020302020202020200A4D2020454E44
Contributor: MASS SPECTROSCOPY SOC. OF JAPAN (MSSJ)
InstType: EI
InstName: JEOL JMS-D-3000
IoniMethod: _ENERGY 70 eV
IonPolarity: pos
Date: 2010-10-09 19:48:36+02:00
Num Peaks: 30
41 147 43 104 54 122 55 284 58 92 67 107 82 176 83 337 96 103 97 149 
98 175 110 125 123 140 124 180 126 500 136 264 139 202 150 135 152 642 153 112 
164 765 165 248 166 134 178 537 179 999 180 138 192 327 206 262 207 778 208 146 
