Name: MassBank: JP001624
CAS: 1528-74-1
MW: 244
Formula: C12H8N2O4
Synonym: MassBank: JP001624
Synonym: 4,4'-DINITRODIPHENYL
Structure: 310A350A342C34272D44494E4954524F44495048454E594C2E6D6F6C0A20204368656D447261773130313831303136333832440A2020302020302020302020302020302020302020302020302020302020303939392056323030300A4D2020454E44
Contributor: KOGA M, UNIV. OF OCCUPATIONAL AND ENVIRONMENTAL HEALTH
InstType: EI
InstName: VARIAN MAT-44
IoniMethod: _ENERGY 70 eV
IonPolarity: pos
Date: 2010-10-09 19:48:36+02:00
Num Peaks: 48
50 114 51 88 52 17 62 41 63 153 64 14 74 66 75 96 76 94 77 29 
78 11 86 17 87 31 88 15 89 19 98 20 99 21 100 15 101 18 102 41 
113 21 114 10 125 25 126 89 127 11 128 92 139 174 140 71 149 17 150 181 
151 537 152 537 153 59 156 140 157 17 168 29 181 91 182 12 184 50 186 25 
198 51 214 249 215 33 228 17 243 23 244 999 245 137 246 15 
