Name: MassBank: JP002978
MW: 346
Formula: C15H22O9
Synonym: MassBank: JP002978
Synonym: 1,4,5,7-TETRA-O-ACETYL-2,6-ANHYDRO-3-DEOXY-D-GLUCO-HEPTITOL
Structure: 312C342C352C372D54455452412D4F2D41434554594C2D322C362D414E485944524F2D332D44454F58592D442D474C55434F2D4845505449544F4C2E6D6F6C0A20204368656D447261773131313230393132323132440A2032382032382020302020302020302020302020302020302020302020303939392056323030300A2020202D302E3731343520202020302E3532383920202020302E303030302043202020302020302020302020302020302020302020302020302020302020302020302020300A2020202D302E373134352020202D302E3239363120202020302E303030302043202020302020302020302020302020302020302020302020302020302020302020302020300A20202020302E303030302020202D302E3730383620202020302E303030302043202020302020302020302020302020302020302020302020302020302020302020302020300A20202020302E373134352020202D302E3239363120202020302E303030302043202020302020302020302020302020302020302020302020302020302020302020302020300A20202020302E3731343520202020302E3532383920202020302E303030302043202020302020302020302020302020302020302020302020302020302020302020302020300A20202020302E3030303020202020302E3934313420202020302E30303030204F202020302020302020302020302020302020302020302020302020302020302020302020300A2020202D312E3239373820202020312E3131323220202020302E303030302048202020302020302020302020302020302020302020302020302020302020302020302020300A20202020312E3533393520202020302E3532383920202020302E303030302048202020302020302020302020302020302020302020302020302020302020302020302020300A20202020312E353339352020202D302E3239363120202020302E30303030204F202020302020302020302020302020302020302020302020302020302020302020302020300A2020202D302E343132352020202D312E3432333120202020302E303030302048202020302020302020302020302020302020302020302020302020302020302020302020300A20202020302E353833342020202D312E3239323020202020302E30303030204F202020302020302020302020302020302020302020302020302020302020302020302020300A20202020312E323937382020202D302E3837393520202020302E303030302048202020302020302020302020302020302020302020302020302020302020302020302020300A20202020312E3132373020202020312E3234333320202020302E303030302043202020302020302020302020302020302020302020302020302020302020302020302020300A2020202D312E3533393520202020302E3532383920202020302E303030302043202020302020302020302020302020302020302020302020302020302020302020302020300A20202020302E333639382020202D322E3038383920202020302E303030302043202020302020302020302020302020302020302020302020302020302020302020302020300A2020202D302E343237312020202D322E3330323420202020302E303030302043202020302020302020302020302020302020302020302020302020302020302020302020300A20202020302E393533322020202D322E3637323320202020302E30303030204F202020302020302020302020302020302020302020302020302020302020302020302020300A20202020312E393532302020202D312E3031303620202020302E303030302043202020302020302020302020302020302020302020302020302020302020302020302020300A20202020312E353339352020202D312E3732353120202020302E303030302043202020302020302020302020302020302020302020302020302020302020302020302020300A20202020322E373737302020202D312E3031303620202020302E30303030204F202020302020302020302020302020302020302020302020302020302020302020302020300A20202020312E3935323020202020312E3234333320202020302E30303030204F202020302020302020302020302020302020302020302020302020302020302020302020300A20202020322E3336343520202020312E3935373820202020302E303030302043202020302020302020302020302020302020302020302020302020302020302020302020300A20202020332E3138393520202020312E3935373820202020302E303030302043202020302020302020302020302020302020302020302020302020302020302020302020300A20202020312E3935323020202020322E3637323320202020302E30303030204F202020302020302020302020302020302020302020302020302020302020302020302020300A2020202D312E393532302020202D302E3138353620202020302E30303030204F202020302020302020302020302020302020302020302020302020302020302020302020300A2020202D322E373737302020202D302E3138353620202020302E303030302043202020302020302020302020302020302020302020302020302020302020302020302020300A2020202D332E313839352020202D302E3930303120202020302E303030302043202020302020302020302020302020302020302020302020302020302020302020302020300A2020202D332E3138393520202020302E3532383920202020302E30303030204F202020302020302020302020302020302020302020302020302020302020302020302020300A2020312020322020312020302020202020200A2020322020332020312020302020202020200A2020332020342020312020302020202020200A2020342020352020312020302020202020200A2020352020362020312020302020202020200A2020362020312020312020302020202020200A2020312020372020312020312020202020200A2020352020382020312020312020202020200A2020342020392020312020312020202020200A2020332031302020312020312020202020200A2020332031312020312020362020202020200A2020342031322020312020362020202020200A2020352031332020312020362020202020200A2020312031342020312020362020202020200A2031312031352020312020302020202020200A2031352031362020312020302020202020200A2031352031372020322020302020202020200A2020392031382020312020302020202020200A2031382031392020312020302020202020200A2031382032302020322020302020202020200A2031332032312020312020302020202020200A2032312032322020312020302020202020200A2032322032332020312020302020202020200A2032322032342020322020302020202020200A2031342032352020312020302020202020200A2032352032362020312020302020202020200A2032362032372020312020302020202020200A2032362032382020322020302020202020200A4D2020454E44
Contributor: SASAKI S, TOYOHASHI UNIV. OF TECH.
InstType: EI
InstName: Unknown
IoniMethod: EI
IonPolarity: pos
Date: 2010-10-09 19:48:36+02:00
Num Peaks: 37
51 22 54 178 62 22 67 7 69 556 70 133 80 22 81 31 83 533 84 111 
85 44 93 58 95 111 99 267 100 778 102 18 103 289 110 67 111 889 112 13 
122 22 124 667 142 289 144 7 145 133 153 333 155 44 166 22 171 133 184 999 
185 222 201 18 213 222 226 111 244 22 273 2 286 22 
