Name: MassBank: JP002882
MW: 182
Formula: C9H10O4
Synonym: MassBank: JP002882
Synonym: 2,3-DIMETHOXY-5-METHYL-1,4-BENZOQUINONE
Structure: 322C332D44494D4554484F58592D352D4D455448594C2D312C342D42454E5A4F5155494E4F4E452E6D6F6C0A20204368656D447261773132323030393131333132440A2031332031332020302020302020302020302020302020302020302020303939392056323030300A2020202D312E3033313220202020302E3335373220202020302E303030302043202020302020302020302020302020302020302020302020302020302020302020302020300A2020202D302E3230363220202020302E3335373220202020302E303030302043202020302020302020302020302020302020302020302020302020302020302020302020300A20202020302E323036332020202D302E3335373220202020302E303030302043202020302020302020302020302020302020302020302020302020302020302020302020300A2020202D302E323036322020202D312E3037313720202020302E303030302043202020302020302020302020302020302020302020302020302020302020302020302020300A2020202D312E303331322020202D312E3037313720202020302E303030302043202020302020302020302020302020302020302020302020302020302020302020302020300A2020202D312E343433382020202D302E3335373220202020302E303030302043202020302020302020302020302020302020302020302020302020302020302020302020300A20202020302E323036332020202D312E3738363220202020302E30303030204F202020302020302020302020302020302020302020302020302020302020302020302020300A2020202D312E3434333820202020312E3037313720202020302E30303030204F202020302020302020302020302020302020302020302020302020302020302020302020300A2020202D312E343433372020202D312E3738363220202020302E303030302043202020302020302020302020302020302020302020302020302020302020302020302020300A20202020312E303331332020202D302E3335373220202020302E30303030204F202020302020302020302020302020302020302020302020302020302020302020302020300A20202020312E3434333820202020302E3335373220202020302E303030302043202020302020302020302020302020302020302020302020302020302020302020302020300A20202020302E3230363320202020312E3037313720202020302E30303030204F202020302020302020302020302020302020302020302020302020302020302020302020300A2020202D302E3230363220202020312E3738363220202020302E303030302043202020302020302020302020302020302020302020302020302020302020302020302020300A2020312020322020312020302020202020200A2020322020332020322020302020202020200A2020332020342020312020302020202020200A2020342020352020312020302020202020200A2020352020362020322020302020202020200A2020312020362020312020302020202020200A2020342020372020322020302020202020200A2020312020382020322020302020202020200A2020352020392020312020302020202020200A2031302031312020312020302020202020200A2020332031302020312020302020202020200A2031322031332020312020302020202020200A2020322031322020312020302020202020200A4D2020454E44
Contributor: MASS SPECTROSCOPY SOC. OF JAPAN (MSSJ)
InstType: EI
InstName: Unknown
IoniMethod: EI
IonPolarity: pos
Date: 2010-10-09 19:48:36+02:00
Num Peaks: 58
14 51 15 710 26 30 27 146 29 119 37 32 38 104 39 553 40 505 41 99 
42 26 43 131 50 48 51 64 52 100 53 139 54 21 55 51 56 23 65 22 
66 26 67 122 68 385 69 312 79 28 80 63 81 93 83 605 84 34 86 25 
93 31 95 41 96 127 97 20 108 55 109 28 111 234 121 69 123 36 125 41 
126 49 135 22 136 198 137 999 138 96 139 205 140 26 151 37 152 27 153 148 
154 41 164 26 167 330 169 101 181 21 182 973 183 148 184 166 
