Name: MassBank: JP004034
MW: 122
Formula: C8H10O
Synonym: MassBank: JP004034
Synonym: 2,3-1DIMETHYLPHENOL
Structure: 310A32330A322C332D3144494D455448594C5048454E4F4C2E6D6F6C0A20204368656D447261773132323030393130353832440A2020392020392020302020302020302020302020302020302020302020303939392056323030300A2020202D302E3731343520202020302E3030303020202020302E303030302043202020302020302020302020302020302020302020302020302020302020302020302020300A2020202D302E373134352020202D302E3832353020202020302E303030302043202020302020302020302020302020302020302020302020302020302020302020302020300A2020202D302E303030302020202D312E3233373520202020302E303030302043202020302020302020302020302020302020302020302020302020302020302020302020300A20202020302E373134352020202D302E3832353020202020302E303030302043202020302020302020302020302020302020302020302020302020302020302020302020300A20202020302E3731343520202020302E3030303020202020302E303030302043202020302020302020302020302020302020302020302020302020302020302020302020300A2020202D302E3030303020202020302E3431323520202020302E303030302043202020302020302020302020302020302020302020302020302020302020302020302020300A2020202D302E3030303020202020312E3233373520202020302E303030302043202020302020302020302020302020302020302020302020302020302020302020302020300A2020202D312E3432383920202020302E3431323520202020302E303030302043202020302020302020302020302020302020302020302020302020302020302020302020300A20202020312E3432383920202020302E3431323520202020302E30303030204F202020302020302020302020302020302020302020302020302020302020302020302020300A2020312020322020322020302020202020200A2020322020332020312020302020202020200A2020332020342020322020302020202020200A2020342020352020312020302020202020200A2020352020362020322020302020202020200A2020362020312020312020302020202020200A2020362020372020312020302020202020200A2020312020382020312020302020202020200A2020352020392020312020302020202020200A4D2020454E44
Contributor: MASS SPECTROSCOPY SOC. OF JAPAN (MSSJ)
InstType: EI
InstName: HITACHI RMU-6L
IoniMethod: _ENERGY 70 eV
IonPolarity: pos
Date: 2010-10-09 19:48:36+02:00
Num Peaks: 52
26 46 27 193 28 27 29 4 37 20 38 80 39 286 40 4 41 69 42 20 
43 37 49 2 50 84 51 182 52 59 53 11 54 15 55 27 60 23 61 3 
62 41 63 71 64 20 65 10 66 25 67 18 74 18 75 2 76 18 77 312 
78 117 79 20 80 16 81 20 89 19 90 2 91 188 92 28 93 50 94 6 
95 23 102 22 103 72 104 6 105 26 106 20 107 999 108 8 120 20 121 315 
122 891 123 72 
