Name: MassBank: JP000469
MW: 110
Formula: C6H10N2
Synonym: MassBank: JP000469
Synonym: 1,3,5-TRIMETHYLPYRAZOLE
Structure: 310A32330A312C332C352D5452494D455448594C505952415A4F4C452E6D6F6C0A20204368656D447261773131313130393138313632440A2020392020392020302020302020302020302020302020302020302020303939392056323030300A20202020302E3638393820202020302E3731333620202020302E30303030204E202020302020302020302020302020302020302020302020302020302020302020302020300A20202020302E393434382020202D302E3037313120202020302E30303030204E202020302020302020302020302020302020302020302020302020302020302020302020300A20202020302E323737332020202D302E3535363020202020302E303030302043202020302020302020302020302020302020302020302020302020302020302020302020300A2020202D302E333930312020202D302E3037313120202020302E303030302043202020302020302020302020302020302020302020302020302020302020302020302020300A2020202D302E3133353220202020302E3731333620202020302E303030302043202020302020302020302020302020302020302020302020302020302020302020302020300A2020202D302E3632303120202020312E3338313020202020302E303030302043202020302020302020302020302020302020302020302020302020302020302020302020300A20202020302E323737332020202D312E3338313020202020302E303030302043202020302020302020302020302020302020302020302020302020302020302020302020300A20202020312E3137343720202020312E3338313020202020302E303030302043202020302020302020302020302020302020302020302020302020302020302020302020300A2020202D312E313734372020202D302E3332363020202020302E303030302048202020302020302020302020302020302020302020302020302020302020302020302020300A2020312020322020312020302020202020200A2020322020332020322020302020202020200A2020332020342020312020302020202020200A2020342020352020322020302020202020200A2020312020352020312020302020202020200A2020352020362020312020302020202020200A2020332020372020312020302020202020200A2020312020382020312020302020202020200A2020342020392020312020302020202020200A4D2020454E44
Contributor: SASAKI S, TOYOHASHI UNIV. OF TECH.
InstType: EI
InstName: MX-1303
IoniMethod: _ENERGY 50 eV
IonPolarity: pos
Date: 2010-10-09 19:48:36+02:00
Num Peaks: 44
26 19 27 67 28 92 29 2 30 16 31 18 38 27 39 19 40 61 41 164 
42 174 43 8 50 10 51 24 52 32 53 3 54 69 55 54 56 131 57 2 
63 20 64 10 65 67 66 5 67 68 68 130 69 40 70 1 71 11 79 18 
80 29 81 2 82 100 83 20 93 13 94 1 95 283 96 25 97 10 108 2 
109 771 110 999 111 75 112 3 
