Name: MassBank: JP006640
MW: 328
Formula: C20H28N2O2
Synonym: MassBank: JP006640
Synonym: ETHYL 1,1,3,3-TETRAMETHYL-1,2,3,4-TETRAHYDRO-GAMMA-CARBOLINE-5-PROPIONATE
Structure: 313137355F455448594C20312C312C332C332D54455452414D455448594C2D312C322C332C342D5445545241485944524F2D47414D4D412D434152424F4C494E452D352D50524F50494F4E4154452E6D6F6C0A20204368656D447261773039303731303131333032440A2032342032362020302020302020302020302020302020302020302020303939392056323030300A2020202D312E3737303220202020312E3336363820202020302E30303030204E202020302020302020302020302020302020302020302020302020302020302020302020300A2020202D312E3737303220202020302E3534313820202020302E303030302043202020302020302020302020302020302020302020302020302020302020302020302020300A2020202D312E3035353720202020302E3132393320202020302E303030302043202020302020302020302020302020302020302020302020302020302020302020302020300A2020202D302E3334313320202020302E3534313820202020302E303030302043202020302020302020302020302020302020302020302020302020302020302020302020300A2020202D302E3334313320202020312E3336363820202020302E303030302043202020302020302020302020302020302020302020302020302020302020302020302020300A2020202D312E3035353720202020312E3737393320202020302E303030302043202020302020302020302020302020302020302020302020302020302020302020302020300A20202020302E3434333720202020302E3238363320202020302E30303030204E202020302020302020302020302020302020302020302020302020302020302020302020300A20202020302E3932383320202020302E3935343320202020302E303030302043202020302020302020302020302020302020302020302020302020302020302020302020300A20202020302E3434333420202020312E3632313720202020302E303030302043202020302020302020302020302020302020302020302020302020302020302020302020300A20202020312E3734383820202020312E3034303520202020302E303030302043202020302020302020302020302020302020302020302020302020302020302020302020300A20202020322E3038343320202020312E3739343220202020302E303030302043202020302020302020302020302020302020302020302020302020302020302020302020300A20202020312E3539393420202020322E3436313620202020302E303030302043202020302020302020302020302020302020302020302020302020302020302020302020300A20202020302E3737383920202020322E3337353420202020302E303030302043202020302020302020302020302020302020302020302020302020302020302020302020300A20202020302E363938332020202D302E3439373820202020302E303030302043202020302020302020302020302020302020302020302020302020302020302020302020300A20202020302E313436332020202D312E3131303920202020302E303030302043202020302020302020302020302020302020302020302020302020302020302020302020300A20202020302E343031322020202D312E3839353520202020302E303030302043202020302020302020302020302020302020302020302020302020302020302020302020300A2020202D302E313832322020202D322E3437383920202020302E30303030204F202020302020302020302020302020302020302020302020302020302020302020302020300A20202020312E313938312020202D322E3130393020202020302E30303030204F202020302020302020302020302020302020302020302020302020302020302020302020300A20202020312E373831352020202D312E3532353720202020302E303030302043202020302020302020302020302020302020302020302020302020302020302020302020300A20202020322E353738342020202D312E3733393220202020302E303030302043202020302020302020302020302020302020302020302020302020302020302020302020300A2020202D322E3537383420202020302E3730373720202020302E303030302043202020302020302020302020302020302020302020302020302020302020302020302020300A2020202D322E303633322020202D302E3232393520202020302E303030302043202020302020302020302020302020302020302020302020302020302020302020302020300A2020202D302E3631383520202020322E3437383920202020302E303030302043202020302020302020302020302020302020302020302020302020302020302020302020300A2020202D312E3632383820202020322E3337323820202020302E303030302043202020302020302020302020302020302020302020302020302020302020302020302020300A2020312020322020312020302020202020200A2020322020332020312020302020202020200A2020332020342020312020302020202020200A2020342020352020322020302020202020200A2020352020362020312020302020202020200A2020362020312020312020302020202020200A2020342020372020312020302020202020200A2020372020382020312020302020202020200A2020382020392020322020302020202020200A2020392020352020312020302020202020200A2020382031302020312020302020202020200A2031302031312020322020302020202020200A2031312031322020312020302020202020200A2031322031332020322020302020202020200A2031332020392020312020302020202020200A2020372031342020312020302020202020200A2031342031352020312020302020202020200A2031352031362020312020302020202020200A2031362031372020322020302020202020200A2031362031382020312020302020202020200A2031382031392020312020302020202020200A2031392032302020312020302020202020200A2020322032312020312020302020202020200A2020322032322020312020302020202020200A2020362032332020312020302020202020200A2020362032342020312020302020202020200A4D2020454E44
Contributor: SASAKI S, TOYOHASHI UNIV. OF TECH.
InstType: EI
InstName: JEOL JMS-01-SG-2
IoniMethod: _ENERGY 75 eV
IonPolarity: pos
Date: 2010-10-09 19:48:36+02:00
Num Peaks: 19
42 35 43 51 105 40 115 2 154 22 167 25 168 34 170 2 171 18 182 31 
184 46 241 2 271 88 283 16 285 90 313 999 314 212 327 14 328 49 
