Name: ISOBUTYRALDEHYDE
MW: 72
Formula: C4H8O
Synonym: MassBank: JP001478
Synonym: ISOBUTYRALDEHYDE
Structure: 310A31340A49534F4255545952414C4445485944452E6D6F6C0A20204368656D447261773038313131303231313532440A2020352020342020302020302020302020302020302020302020302020303939392056323030300A2020202D302E333537322020202D302E3631383820202020302E303030302043202020302020302020302020302020302020302020302020302020302020302020302020300A20202020302E333537322020202D302E3230363220202020302E303030302043202020302020302020302020302020302020302020302020302020302020302020302020300A20202020302E3335373220202020302E3631383820202020302E303030302043202020302020302020302020302020302020302020302020302020302020302020302020300A20202020312E303731372020202D302E3631383720202020302E303030302043202020302020302020302020302020302020302020302020302020302020302020302020300A2020202D312E303731372020202D302E3230363220202020302E30303030204F202020302020302020302020302020302020302020302020302020302020302020302020300A2020312020322020312020302020202020200A2020322020332020312020302020202020200A2020322020342020312020302020202020200A2020312020352020322020302020202020200A4D2020454E44
Contributor: YAMAMOTO M, DEP. CHEMISTRY, FAC. SCIENCE, NARA WOMEN'S UNIV.
InstType: EI
InstName: HITACHI RMU-6M
IoniMethod: _ENERGY 70 eV
IonPolarity: pos
Date: 2010-10-09 19:48:36+02:00
Num Peaks: 19
14 12 15 46 26 65 27 577 28 126 29 223 31 15 37 30 38 51 39 242 
40 31 41 715 42 91 43 999 44 41 55 16 57 32 72 371 73 26 
