Name: MassBank: JP009906
MW: 220
Formula: C12H12O4
Synonym: MassBank: JP009906
Synonym: METHYL (3,4-METHYLENEDIOXY)-ALPHA-METHYLCINNAMATE
Structure: 4D455448594C2028332C342D4D455448594C454E4544494F5859292D414C5048412D4D455448594C43494E4E414D4154452E6D6F6C0A20204368656D447261773038313131303233313432440A2031362031372020302020302020302020302020302020302020302020303939392056323030300A20202020312E373036352020202D302E3431323520202020302E303030302043202020302020302020302020302020302020302020302020302020302020302020302020300A20202020302E393932302020202D302E3030303020202020302E303030302043202020302020302020302020302020302020302020302020302020302020302020302020300A20202020302E323737352020202D302E3431323520202020302E303030302043202020302020302020302020302020302020302020302020302020302020302020302020300A2020202D302E343336392020202D302E3030303020202020302E303030302043202020302020302020302020302020302020302020302020302020302020302020302020300A2020202D312E313531342020202D302E3431323520202020302E303030302043202020302020302020302020302020302020302020302020302020302020302020302020300A2020202D312E383635392020202D302E3030303020202020302E303030302043202020302020302020302020302020302020302020302020302020302020302020302020300A2020202D312E3836353920202020302E3832353020202020302E303030302043202020302020302020302020302020302020302020302020302020302020302020302020300A2020202D312E3135313420202020312E3233373520202020302E303030302043202020302020302020302020302020302020302020302020302020302020302020302020300A2020202D302E3433363920202020302E3832353020202020302E303030302043202020302020302020302020302020302020302020302020302020302020302020302020300A20202020312E373036352020202D312E3233373520202020302E30303030204F202020302020302020302020302020302020302020302020302020302020302020302020300A20202020322E343230392020202D302E3030303020202020302E30303030204F202020302020302020302020302020302020302020302020302020302020302020302020300A20202020302E3939323020202020302E3832353020202020302E303030302043202020302020302020302020302020302020302020302020302020302020302020302020300A2020202D332E3133353420202020302E3431323520202020302E303030302043202020302020302020302020302020302020302020302020302020302020302020302020300A2020202D322E363530352020202D302E3235343920202020302E30303030204F202020302020302020302020302020302020302020302020302020302020302020302020300A2020202D322E3635303520202020312E3037393920202020302E30303030204F202020302020302020302020302020302020302020302020302020302020302020302020300A20202020332E313335342020202D302E3431323520202020302E303030302043202020302020302020302020302020302020302020302020302020302020302020302020300A2020312020322020312020302020202020200A2020322020332020322020302020202020200A2020332020342020312020302020202020200A2020342020352020312020302020202020200A2020352020362020322020302020202020200A2020362020372020312020302020202020200A2020372020382020322020302020202020200A2020382020392020312020302020202020200A2020342020392020322020302020202020200A2020312031302020322020302020202020200A2020312031312020312020302020202020200A2020322031322020312020302020202020200A2031332031342020312020302020202020200A2031332031352020312020302020202020200A2020362031342020312020302020202020200A2020372031352020312020302020202020200A2031312031362020312020302020202020200A4D2020454E44
Contributor: KURARAY CO., LTD.
InstType: EI
InstName: JEOL JMS-D-300
IoniMethod: _ENERGY 70 eV
IonPolarity: pos
Date: 2010-10-09 19:48:36+02:00
Num Peaks: 38
39 55 50 56 51 110 53 37 62 63 63 140 65 118 74 42 75 65 76 76 
77 280 78 38 79 30 91 50 93 130 101 26 102 281 103 665 104 82 119 38 
121 37 130 60 131 315 132 42 135 63 145 40 147 60 151 305 159 242 160 935 
161 228 162 63 165 60 189 208 190 28 219 53 220 999 221 133 
