Name: ISOPENTYLAMINE
CAS: 107-85-7
MW: 87
Formula: C5H13N
Synonym: MassBank: JP009055
Synonym: ISOPENTYLAMINE
Synonym: ISOPENTYLAMINE
Structure: 310A31360A49534F50454E54594C414D494E452E6D6F6C0A20204368656D447261773038313131303231333232440A2020362020352020302020302020302020302020302020302020302020303939392056323030300A2020202D312E3037313720202020302E3631383820202020302E30303030204E202020302020302020302020302020302020302020302020302020302020302020302020300A2020202D312E303731372020202D302E3230363220202020302E303030302043202020302020302020302020302020302020302020302020302020302020302020302020300A2020202D302E333537322020202D302E3631383820202020302E303030302043202020302020302020302020302020302020302020302020302020302020302020302020300A20202020302E333537322020202D302E3230363220202020302E303030302043202020302020302020302020302020302020302020302020302020302020302020302020300A20202020302E3335373220202020302E3631383820202020302E303030302043202020302020302020302020302020302020302020302020302020302020302020302020300A20202020312E303731372020202D302E3631383820202020302E303030302043202020302020302020302020302020302020302020302020302020302020302020302020300A2020322020332020312020302020202020200A2020332020342020312020302020202020200A2020342020352020312020302020202020200A2020342020362020312020302020202020200A2020312020322020312020302020202020200A4D2020454E44
Contributor: SODA AROMATIC CO., LTD.
InstType: EI
InstName: HITACHI M-80B
IoniMethod: _ENERGY 70 eV
IonPolarity: pos
Date: 2010-10-09 19:48:36+02:00
Num Peaks: 12
30 999 31 22 39 58 41 66 42 42 43 35 44 45 45 20 55 34 58 12 
70 66 87 44 
