Name: STIGMASTEROL
MW: 412
Formula: C29H48O
Synonym: MassBank: JP008291
Synonym: STIGMASTEROL
Structure: 303534305F535449474D41535445524F4C2E6D6F6C0A20204368656D447261773038323031303035323532440A2033372034302020302020302020302020302020302020302020302020303939392056323030300A2020202D332E373635392020202D302E3834353020202020302E303030302043202020302020302020302020302020302020302020302020302020302020302020302020300A2020202D332E373635392020202D312E3637303020202020302E303030302043202020302020302020302020302020302020302020302020302020302020302020302020300A2020202D332E303531342020202D322E3038323520202020302E303030302043202020302020302020302020302020302020302020302020302020302020302020302020300A2020202D322E333336392020202D312E3637303020202020302E303030302043202020302020302020302020302020302020302020302020302020302020302020302020300A2020202D322E333336392020202D302E3834353020202020302E303030302043202020302020302020302020302020302020302020302020302020302020302020302020300A2020202D332E303531342020202D302E3433323520202020302E303030302043202020302020302020302020302020302020302020302020302020302020302020302020300A2020202D312E363232352020202D322E3038323520202020302E303030302043202020302020302020302020302020302020302020302020302020302020302020302020300A2020202D302E393038302020202D312E3637303020202020302E303030302043202020302020302020302020302020302020302020302020302020302020302020302020300A2020202D302E393038302020202D302E3834353020202020302E303030302043202020302020302020302020302020302020302020302020302020302020302020302020300A2020202D312E363232352020202D302E3433323520202020302E303030302043202020302020302020302020302020302020302020302020302020302020302020302020300A2020202D302E313933352020202D302E3433323520202020302E303030302043202020302020302020302020302020302020302020302020302020302020302020302020300A20202020302E353931312020202D302E3638373320202020302E303030302043202020302020302020302020302020302020302020302020302020302020302020302020300A20202020312E303736302020202D302E3032303020202020302E303030302043202020302020302020302020302020302020302020302020302020302020302020302020300A20202020302E3539313120202020302E3634373520202020302E303030302043202020302020302020302020302020302020302020302020302020302020302020302020300A20202020302E3834363020202020312E3433323220202020302E303030302043202020302020302020302020302020302020302020302020302020302020302020302020300A20202020302E3034393220202020312E3634353620202020302E303030302043202020302020302020302020302020302020302020302020302020302020302020302020300A20202020302E3834363020202020322E3235373220202020302E303030302048202020302020302020302020302020302020302020302020302020302020302020302020300A20202020312E3637313020202020312E3433323220202020302E303030302043202020302020302020302020302020302020302020302020302020302020302020302020300A20202020322E3235343420202020322E3031353520202020302E303030302043202020302020302020302020302020302020302020302020302020302020302020302020300A20202020332E3035313420202020312E3830323020202020302E303030302043202020302020302020302020302020302020302020302020302020302020302020302020300A20202020332E3633353620202020322E3338343320202020302E303030302048202020302020302020302020302020302020302020302020302020302020302020302020300A20202020332E3736353820202020312E3338393520202020302E303030302043202020302020302020302020302020302020302020302020302020302020302020302020300A20202020342E3438303220202020312E3830323020202020302E303030302043202020302020302020302020302020302020302020302020302020302020302020302020300A20202020332E3736353820202020302E3536343520202020302E303030302043202020302020302020302020302020302020302020302020302020302020302020302020300A20202020332E3233373820202020302E3338353320202020302E303030302043202020302020302020302020302020302020302020302020302020302020302020302020300A20202020322E3733353620202020312E3033393720202020302E303030302043202020302020302020302020302020302020302020302020302020302020302020302020300A20202020312E3431363120202020302E3634373520202020302E303030302048202020302020302020302020302020302020302020302020302020302020302020302020300A2020202D302E313933352020202D312E3235373520202020302E303030302048202020302020302020302020302020302020302020302020302020302020302020302020300A20202020302E333839382020202D312E3031353720202020302E303030302048202020302020302020302020302020302020302020302020302020302020302020302020300A2020202D302E3930383020202020302E3830353020202020302E303030302043202020302020302020302020302020302020302020302020302020302020302020302020300A2020202D312E3632323520202020302E3339323520202020302E303030302043202020302020302020302020302020302020302020302020302020302020302020302020300A2020202D302E3139333520202020302E3339323520202020302E303030302043202020302020302020302020302020302020302020302020302020302020302020302020300A2020202D302E3139333520202020312E3231373520202020302E303030302043202020302020302020302020302020302020302020302020302020302020302020302020300A2020202D342E343830322020202D312E3235373520202020302E303030302048202020302020302020302020302020302020302020302020302020302020302020302020300A2020202D342E313738342020202D322E3338343320202020302E30303030204F202020302020302020302020302020302020302020302020302020302020302020302020300A2020202D312E363232352020202D312E3235373520202020302E303030302043202020302020302020302020302020302020302020302020302020302020302020302020300A2020202D322E3230353820202020302E3135303920202020302E303030302048202020302020302020302020302020302020302020302020302020302020302020302020300A2020312020322020312020302020202020200A2020322020332020312020302020202020200A2020332020342020312020302020202020200A2020342020352020312020302020202020200A2020352020362020312020302020202020200A2020362020312020312020302020202020200A2020342020372020322020302020202020200A2020372020382020312020302020202020200A2020382020392020312020302020202020200A2020392031302020312020302020202020200A2031302020352020312020302020202020200A2020392031312020312020302020202020200A2031312033322020312020302020202020200A2033322033302020312020302020202020200A2033312031302020312020302020202020200A2031312031322020312020302020202020200A2031322031332020312020302020202020200A2031332031342020312020302020202020200A2031342033322020312020302020202020200A2031342031352020312020302020202020200A2031352031362020312020302020202020200A2031352031372020312020312020202020200A2031352031382020312020302020202020200A2031382031392020322020302020202020200A2031392032302020312020302020202020200A2032302032312020312020312020202020200A2032302032362020312020302020202020200A2032302032322020312020302020202020200A2032322032332020312020302020202020200A2032322032342020312020302020202020200A2032352032362020312020302020202020200A2031342032372020312020362020202020200A2020392032382020312020312020202020200A2031312032392020312020362020202020200A2033302033312020312020302020202020200A2033322033332020312020312020202020200A2020322033342020312020362020202020200A2020322033352020312020312020202020200A2020352033362020312020312020202020200A2031302033372020312020362020202020200A4D2020454E44
Contributor: UBE SCIENTIFIC ANALYSIS LABORATORY
InstType: EI
InstName: HITACHI M-60
IoniMethod: _ENERGY 70 eV
IonPolarity: pos
Date: 2010-10-09 19:48:36+02:00
Num Peaks: 162
29 81 41 327 43 387 53 31 55 999 57 206 67 239 68 28 69 518 70 46 
71 135 77 59 79 234 80 33 81 587 82 122 83 722 84 67 85 70 91 221 
92 42 93 275 94 75 95 325 96 80 97 423 98 29 105 257 106 42 107 303 
108 52 109 201 110 65 111 43 117 65 118 24 119 192 120 85 121 179 122 45 
123 233 124 56 125 23 129 41 130 18 131 112 132 30 133 276 134 51 135 154 
136 13 137 116 138 20 139 90 143 66 144 26 145 257 146 53 147 215 148 29 
149 90 151 123 157 70 158 62 159 282 160 64 161 145 162 29 163 114 164 15 
165 15 166 36 171 40 172 9 173 98 174 22 175 76 176 31 177 55 178 21 
185 56 186 9 187 62 188 9 189 34 191 24 197 12 199 75 200 7 201 34 
203 27 205 16 211 33 213 155 214 36 215 77 216 7 217 45 219 7 225 12 
227 37 228 27 229 68 230 24 231 60 232 10 233 6 239 26 240 10 241 38 
243 20 245 23 246 14 253 46 254 23 255 367 256 81 257 31 258 60 259 17 
267 31 268 1 269 18 270 47 271 244 272 110 273 109 274 14 281 32 282 25 
283 47 285 39 286 7 299 48 300 160 301 62 302 10 303 12 309 13 313 7 
314 50 315 15 327 10 329 7 351 115 352 56 353 3 367 9 369 117 370 21 
379 29 380 5 394 36 395 6 396 12 397 34 398 10 399 4 400 8 412 277 
413 90 414 36 
