Name: PARAMETHADIONE
MW: 157
Formula: C7H11NO3
Synonym: MassBank: JP007974
Synonym: PARAMETHADIONE
Synonym: 5-METHYL-3,5-DIMETHYL-2,4-OXAZOLIDINEDIONE
Structure: 504152414D4554484144494F4E452E6D6F6C0A20204368656D447261773034323331303035313332440A2031312031312020302020302020302020302020302020302020302020303939392056323030300A2020202D302E323836392020202D302E3935323420202020302E30303030204F202020302020302020302020302020302020302020302020302020302020302020302020300A2020202D312E303031342020202D302E3533393920202020302E303030302043202020302020302020302020302020302020302020302020302020302020302020302020300A2020202D302E3832393920202020302E3236373120202020302E30303030204E202020302020302020302020302020302020302020302020302020302020302020302020300A2020202D302E3030393420202020302E3335333320202020302E303030302043202020302020302020302020302020302020302020302020302020302020302020302020300A20202020302E333236312020202D302E3430303420202020302E303030302043202020302020302020302020302020302020302020302020302020302020302020302020300A2020202D312E373535312020202D302E3837353420202020302E30303030204F202020302020302020302020302020302020302020302020302020302020302020302020300A20202020302E3430333120202020312E3036373820202020302E30303030204F202020302020302020302020302020302020302020302020302020302020302020302020300A20202020302E383131312020202D312E3036373820202020302E303030302043202020302020302020302020302020302020302020302020302020302020302020302020300A2020202D312E3338313920202020302E3838303220202020302E303030302043202020302020302020302020302020302020302020302020302020302020302020302020300A20202020312E3034303620202020302E3031323120202020302E303030302043202020302020302020302020302020302020302020302020302020302020302020302020300A20202020312E373535312020202D302E3430303420202020302E303030302043202020302020302020302020302020302020302020302020302020302020302020302020300A2020312020322020312020302020202020200A2020322020332020312020302020202020200A2020332020342020312020302020202020200A2020342020352020312020302020202020200A2020312020352020312020302020202020200A2020322020362020322020302020202020200A2020342020372020322020302020202020200A2020352020382020312020302020202020200A2020332020392020312020302020202020200A2031302031312020312020302020202020200A2020352031302020312020302020202020200A4D2020454E44
Contributor: HAMAMATSU UNIV. SCHOOL OF MEDICINE
InstType: EI
InstName: JEOL JMS-D-300
IoniMethod: _ENERGY 70 eV
IonPolarity: pos
Date: 2010-10-09 19:48:36+02:00
Num Peaks: 20
51 14 53 19 54 12 55 92 56 85 57 352 58 115 69 17 70 14 71 15 
72 118 73 60 83 22 87 20 100 46 128 103 129 999 130 60 142 13 157 24 
