Name: MassBank: JP002791
MW: 252
Formula: C15H12N2O2
Synonym: MassBank: JP002791
Synonym: 5,5-DIPHENYL-IMIDAZOLIDINE-2,4-DIONE
Structure: 352C352D44495048454E594C2D494D4944415A4F4C4944494E452D322C342D44494F4E452E6D6F6C0A20204368656D447261773034323331303032323032440A2031392032312020302020302020302020302020302020302020302020303939392056323030300A2020202D312E343238302020202D312E3131303520202020302E303030302043202020302020302020302020302020302020302020302020302020302020302020302020300A2020202D312E363833302020202D302E3332353920202020302E30303030204E202020302020302020302020302020302020302020302020302020302020302020302020300A2020202D312E3031353520202020302E3135393020202020302E303030302043202020302020302020302020302020302020302020302020302020302020302020302020300A2020202D302E333438312020202D302E3332353920202020302E303030302043202020302020302020302020302020302020302020302020302020302020302020302020300A2020202D302E363033302020202D312E3131303520202020302E30303030204E202020302020302020302020302020302020302020302020302020302020302020302020300A2020202D312E393132392020202D312E3737383020202020302E30303030204F202020302020302020302020302020302020302020302020302020302020302020302020300A2020202D312E3031353520202020302E3938343020202020302E30303030204F202020302020302020302020302020302020302020302020302020302020302020302020300A20202020302E3036343420202020302E3338383620202020302E303030302043202020302020302020302020302020302020302020302020302020302020302020302020300A2020202D302E3334383120202020312E3130333020202020302E303030302043202020302020302020302020302020302020302020302020302020302020302020302020300A20202020302E3036343420202020312E3831373520202020302E303030302043202020302020302020302020302020302020302020302020302020302020302020302020300A20202020302E3838393420202020312E3831373520202020302E303030302043202020302020302020302020302020302020302020302020302020302020302020302020300A20202020312E3330313920202020312E3130333020202020302E303030302043202020302020302020302020302020302020302020302020302020302020302020302020300A20202020302E3838393420202020302E3338383620202020302E303030302043202020302020302020302020302020302020302020302020302020302020302020302020300A20202020302E343035362020202D302E3636313520202020302E303030302043202020302020302020302020302020302020302020302020302020302020302020302020300A20202020312E303733302020202D302E3137363520202020302E303030302043202020302020302020302020302020302020302020302020302020302020302020302020300A20202020312E383236372020202D302E3531323120202020302E303030302043202020302020302020302020302020302020302020302020302020302020302020302020300A20202020312E393132392020202D312E3333323620202020302E303030302043202020302020302020302020302020302020302020302020302020302020302020302020300A20202020312E323435352020202D312E3831373520202020302E303030302043202020302020302020302020302020302020302020302020302020302020302020302020300A20202020302E343931382020202D312E3438313920202020302E303030302043202020302020302020302020302020302020302020302020302020302020302020302020300A2020312020322020312020302020202020200A2020322020332020312020302020202020200A2020332020342020312020302020202020200A2020342020352020312020302020202020200A2020312020352020312020302020202020200A2020312020362020322020302020202020200A2020332020372020322020302020202020200A2020382020392020312020302020202020200A2020392031302020322020302020202020200A2031302031312020312020302020202020200A2031312031322020322020302020202020200A2031322031332020312020302020202020200A2020382031332020322020302020202020200A2020342020382020312020302020202020200A2031342031352020312020302020202020200A2031352031362020322020302020202020200A2031362031372020312020302020202020200A2031372031382020322020302020202020200A2031382031392020312020302020202020200A2031342031392020322020302020202020200A2020342031342020312020302020202020200A4D2020454E44
Contributor: SASAKI S, TOYOHASHI UNIV. OF TECH.
InstType: EI
InstName: Unknown
IoniMethod: EI
IonPolarity: pos
Date: 2010-10-09 19:48:36+02:00
Num Peaks: 165
26 13 27 49 28 189 29 3 30 3 31 9 32 38 36 0 37 9 38 3 
39 13 40 6 41 7 42 27 43 17 44 12 45 5 49 1 50 79 51 28 
52 53 53 9 54 3 55 2 56 7 57 13 58 3 59 0 60 79 61 7 
62 15 63 5 65 15 66 1 67 9 68 0 69 19 70 27 71 5 72 0 
73 3 74 28 75 39 76 10 77 569 78 159 79 18 80 2 81 27 82 25 
83 43 84 0 85 3 86 10 87 27 88 1 89 27 90 48 91 13 92 1 
93 11 94 3 95 7 96 0 97 1 98 6 99 5 100 1 101 8 102 19 
103 39 104 56 105 82 106 8 107 3 109 1 110 1 111 5 112 3 113 2 
114 7 115 27 116 4 117 1 118 3 119 4 120 1 121 0 122 2 123 1 
125 3 126 2 127 15 128 7 129 3 130 2 131 7 132 14 133 3 134 0 
135 3 137 6 138 5 139 4 140 10 141 1 145 19 146 1 147 87 148 9 
149 3 150 1 151 23 152 56 153 29 154 1 155 1 161 1 162 8 163 4 
164 53 165 248 166 53 167 1 168 2 169 1 175 37 176 1 177 7 178 12 
179 19 180 999 181 251 182 33 183 3 185 0 189 1 190 2 191 2 192 0 
193 5 194 4 195 4 205 2 206 8 207 6 208 161 209 56 210 89 211 9 
212 1 218 0 219 5 221 4 222 3 223 44 224 93 225 13 226 1 251 0 
252 338 253 62 254 10 255 0 64 13 
