Name: ETHYL 4-METHYLSULFONYLBENZOATE
MW: 228
Formula: C10H12O4S
Synonym: MassBank: JP009632
Synonym: ETHYL 4-METHYLSULFONYLBENZOATE
Structure: 455448594C20342D4D455448594C53554C464F4E594C42454E5A4F4154452E6D6F6C0A20204368656D447261773038313131303138313932440A2031352031352020302020302020302020302020302020302020302020303939392056323030300A20202020312E323337352020202D302E3330323020202020302E303030302043202020302020302020302020302020302020302020302020302020302020302020302020300A20202020302E343132352020202D302E3330323020202020302E303030302043202020302020302020302020302020302020302020302020302020302020302020302020300A2020202D302E303030302020202D312E3031363420202020302E303030302043202020302020302020302020302020302020302020302020302020302020302020302020300A2020202D302E383235302020202D312E3031363420202020302E303030302043202020302020302020302020302020302020302020302020302020302020302020302020300A2020202D312E323337352020202D302E3330323020202020302E303030302043202020302020302020302020302020302020302020302020302020302020302020302020300A2020202D302E3832353020202020302E3431323520202020302E303030302043202020302020302020302020302020302020302020302020302020302020302020302020300A2020202D302E3030303020202020302E3431323520202020302E303030302043202020302020302020302020302020302020302020302020302020302020302020302020300A20202020312E363530302020202D312E3031363420202020302E30303030204F202020302020302020302020302020302020302020302020302020302020302020302020300A20202020312E3635303020202020302E3431323520202020302E30303030204F202020302020302020302020302020302020302020302020302020302020302020302020300A2020202D322E303632352020202D302E3330323020202020302E303030302053202020302020302020302020302020302020302020302020302020302020302020302020300A2020202D322E303632352020202D312E3132373020202020302E30303030204F202020302020302020302020302020302020302020302020302020302020302020302020300A2020202D322E3036323520202020302E3532333020202020302E30303030204F202020302020302020302020302020302020302020302020302020302020302020302020300A2020202D322E383837352020202D302E3330323020202020302E303030302043202020302020302020302020302020302020302020302020302020302020302020302020300A20202020322E3437353020202020302E3431323520202020302E303030302043202020302020302020302020302020302020302020302020302020302020302020302020300A20202020322E3838373520202020312E3132373020202020302E303030302043202020302020302020302020302020302020302020302020302020302020302020302020300A2020312020322020312020302020202020200A2020322020332020312020302020202020200A2020332020342020322020302020202020200A2020342020352020312020302020202020200A2020352020362020322020302020202020200A2020362020372020312020302020202020200A2020322020372020322020302020202020200A2020312020382020322020302020202020200A2020312020392020312020302020202020200A2031302031312020322020302020202020200A2031302031322020322020302020202020200A2031302031332020312020302020202020200A2020352031302020312020302020202020200A2031342031352020312020302020202020200A2020392031342020312020302020202020200A4D2020454E44
Contributor: THE INSTITUTE OF SCIENTIFIC AND INDUSTRIALRESEARCH
InstType: EI
InstName: JEOL JMS-DX-300
IoniMethod: _ENERGY 70 eV
IonPolarity: pos
Date: 2010-10-09 19:48:36+02:00
Num Peaks: 74
26 17 27 59 29 118 30 1 31 14 39 29 40 17 43 2 44 76 45 94 
47 11 48 2 50 87 51 48 53 14 63 4 64 48 65 151 66 13 74 2 
75 85 76 217 77 95 78 3 79 34 80 10 81 19 90 1 91 17 92 28 
93 52 94 1 103 140 104 170 105 77 106 1 107 12 108 11 109 49 110 1 
120 37 121 373 122 56 123 1 124 13 137 38 138 390 139 3 141 10 148 140 
149 414 150 5 151 38 152 27 155 18 156 13 157 12 165 12 168 11 169 3 
183 999 184 209 185 159 186 2 196 24 197 34 200 306 201 5 202 19 213 71 
227 14 228 39 229 48 230 26 
