Name: N-PENTYLACETAMIDE
MW: 129
Formula: C7H15NO
Synonym: MassBank: JP000315
Synonym: N-PENTYLACETAMIDE
Structure: 310A32320A4E2D50454E54594C41434554414D4944452E6D6F6C0A20204368656D447261773036323431303138333332440A2020392020382020302020302020302020302020302020302020302020303939392056323030300A2020202D312E343433382020202D302E3030303020202020302E303030302043202020302020302020302020302020302020302020302020302020302020302020302020300A2020202D312E303331322020202D302E3731343520202020302E303030302043202020302020302020302020302020302020302020302020302020302020302020302020300A2020202D322E323638372020202D302E3030303020202020302E30303030204F202020302020302020302020302020302020302020302020302020302020302020302020300A2020202D312E3033313320202020302E3731343520202020302E30303030204E202020302020302020302020302020302020302020302020302020302020302020302020300A2020202D302E3230363220202020302E3731343520202020302E303030302043202020302020302020302020302020302020302020302020302020302020302020302020300A20202020302E323036332020202D302E3030303020202020302E303030302043202020302020302020302020302020302020302020302020302020302020302020302020300A20202020312E303331332020202D302E3030303020202020302E303030302043202020302020302020302020302020302020302020302020302020302020302020302020300A20202020312E343433382020202D302E3731343520202020302E303030302043202020302020302020302020302020302020302020302020302020302020302020302020300A20202020322E323638372020202D302E3731343520202020302E303030302043202020302020302020302020302020302020302020302020302020302020302020302020300A2020312020322020312020302020202020200A2020312020332020322020302020202020200A2020312020342020312020302020202020200A2020352020362020312020302020202020200A2020362020372020312020302020202020200A2020372020382020312020302020202020200A2020382020392020312020302020202020200A2020342020352020312020302020202020200A4D2020454E44
Contributor: YAMAMOTO M, DEP. CHEMISTRY, FAC. SCIENCE, NARA WOMEN'S UNIV.
InstType: EI
InstName: HITACHI RMU-6M
IoniMethod: _ENERGY 80 eV
IonPolarity: pos
Date: 2010-10-09 19:48:36+02:00
Num Peaks: 24
15 47 27 64 28 54 29 6 30 999 31 30 39 40 41 8 42 56 43 310 
44 161 45 3 55 27 56 15 58 52 60 9 72 266 73 195 86 80 87 3 
100 74 114 42 129 100 130 13 
