Name: CHLORZOXAZONE
MW: 168
Formula: C7H4ClNO2
Synonym: MassBank: JP003097
Synonym: CHLORZOXAZONE
Structure: 43484C4F525A4F58415A4F4E452E6D6F6C0A20204368656D447261773039303731303035303332440A2031312031322020302020302020302020302020302020302020302020303939392056323030300A2020202D302E3032343420202020302E3431323520202020302E303030302043202020302020302020302020302020302020302020302020302020302020302020302020300A2020202D302E303234342020202D302E3431323520202020302E303030302043202020302020302020302020302020302020302020302020302020302020302020302020300A20202020302E363930302020202D302E3832353020202020302E303030302043202020302020302020302020302020302020302020302020302020302020302020302020300A20202020312E343034352020202D302E3431323520202020302E303030302043202020302020302020302020302020302020302020302020302020302020302020302020300A20202020312E3430343520202020302E3431323520202020302E303030302043202020302020302020302020302020302020302020302020302020302020302020302020300A20202020302E3639303020202020302E3832353020202020302E303030302043202020302020302020302020302020302020302020302020302020302020302020302020300A2020202D302E3830393120202020302E3636373420202020302E30303030204E202020302020302020302020302020302020302020302020302020302020302020302020300A2020202D312E3239343020202020302E3030303020202020302E303030302043202020302020302020302020302020302020302020302020302020302020302020302020300A2020202D302E383039312020202D302E3636373420202020302E30303030204F202020302020302020302020302020302020302020302020302020302020302020302020300A20202020322E3131393020202020302E3832353020202020302E3030303020436C2020302020302020302020302020302020302020302020302020302020302020302020300A2020202D322E3131393020202020302E3030303020202020302E30303030204F202020302020302020302020302020302020302020302020302020302020302020302020300A2020312020322020322020302020202020200A2020322020332020312020302020202020200A2020332020342020322020302020202020200A2020342020352020312020302020202020200A2020352020362020322020302020202020200A2020362020312020312020302020202020200A2020312020372020312020302020202020200A2020372020382020312020302020202020200A2020382020392020312020302020202020200A2020392020322020312020302020202020200A2020352031302020312020302020202020200A2020382031312020322020302020202020200A4D2020454E44
Contributor: SASAKI S, TOYOHASHI UNIV. OF TECH.
InstType: EI
InstName: Unknown
IoniMethod: EI
IonPolarity: pos
Date: 2010-10-09 19:48:36+02:00
Num Peaks: 83
35 29 36 149 37 50 38 7 39 80 40 59 41 31 42 0 43 20 44 179 
45 9 46 0 47 9 48 9 49 49 50 17 51 204 52 109 53 28 54 1 
55 29 56 13 57 23 58 1 60 25 61 58 62 94 63 20 64 27 65 16 
66 3 70 0 71 13 72 16 73 19 74 2 75 46 76 129 77 59 78 58 
79 69 80 9 85 28 86 5 87 20 88 19 89 21 90 5 91 20 92 8 
95 12 96 1 97 14 98 44 99 9 100 2 101 2 105 9 106 23 107 1 
112 27 113 554 114 57 115 17 116 19 119 19 125 44 126 1 127 19 128 3 
140 29 141 2 142 11 143 17 144 2 166 0 167 9 168 12 169 999 170 8 
171 314 172 40 173 9 
