Name: 3-METHYL-2-BUTANONE
MW: 86
Formula: C5H10O
Synonym: MassBank: JP000258
Synonym: 3-METHYL-2-BUTANONE
Synonym: METHYL ISOPROPYL KETONE
Structure: 310A31360A332D4D455448594C2D322D425554414E4F4E452E6D6F6C0A20204368656D447261773033313931303233353732440A2020362020352020302020302020302020302020302020302020302020303939392056323030300A2020202D302E3230363320202020312E3037313720202020302E303030302043202020302020302020302020302020302020302020302020302020302020302020302020300A20202020302E3230363320202020302E3335373220202020302E303030302043202020302020302020302020302020302020302020302020302020302020302020302020300A2020202D302E323036332020202D302E3335373220202020302E303030302043202020302020302020302020302020302020302020302020302020302020302020302020300A20202020302E323036322020202D312E3037313720202020302E303030302043202020302020302020302020302020302020302020302020302020302020302020302020300A20202020312E3033313220202020302E3335373220202020302E30303030204F202020302020302020302020302020302020302020302020302020302020302020302020300A2020202D312E303331322020202D302E3335373220202020302E303030302043202020302020302020302020302020302020302020302020302020302020302020302020300A2020312020322020312020302020202020200A2020322020332020312020302020202020200A2020332020342020312020302020202020200A2020322020352020322020302020202020200A2020332020362020312020302020202020200A4D2020454E44
Contributor: YAMAMOTO M, DEP. CHEMISTRY, FAC. SCIENCE, NARA WOMEN'S UNIV.
InstType: EI
InstName: HITACHI RMU-6M
IoniMethod: _ENERGY 70 eV
IonPolarity: pos
Date: 2010-10-09 19:48:36+02:00
Num Peaks: 16
14 10 15 68 26 12 27 12 29 10 38 14 39 78 40 1 41 179 42 30 
43 999 44 2 45 12 71 39 86 170 87 12 
