Name: MassBank: JP002593
MW: 138
Formula: C10H18
Synonym: MassBank: JP002593
Synonym: FENCHANE (2,2-D2)
Synonym: 1,3,3-TRIMETHYLBICYCLO(2.2.1)(2,2-2H2)HEPTANE
Structure: 46454E4348414E452028322C322D4432292E6D6F6C0A20204368656D447261773131313030393135353232440A2031322031332020302020302020302020302020302020302020302020303939392056323030300A2020202D302E3637333320202020302E3831303920202020302E303030302043202020302020302020302020302020302020302020302020302020302020302020302020300A2020202D302E363733332020202D302E3031343120202020302E303030302043202020302020302020302020302020302020302020302020302020302020302020302020300A20202020302E303431322020202D302E3432363620202020302E303030302043202020302020302020302020302020302020302020302020302020302020302020302020300A20202020302E373535372020202D302E3031343120202020302E303030302043202020302020302020302020302020302020302020302020302020302020302020302020300A20202020302E3735353720202020302E3831303920202020302E303030302043202020302020302020302020302020302020302020302020302020302020302020302020300A20202020302E3034313220202020312E3232333420202020302E303030302043202020302020302020302020302020302020302020302020302020302020302020302020300A20202020302E3132333620202020302E3539373420202020302E303030302043202020302020302020302020302020302020302020302020302020302020302020302020300A20202020312E343730322020202D302E3432363620202020302E303030302043202020302020302020302020302020302020302020302020302020302020302020302020300A2020202D312E343730322020202D302E3232373620202020302E303030302043202020302020302020302020302020302020302020302020302020302020302020302020300A20202020302E323534372020202D312E3232333420202020302E303030302048202020312020302020302020302020302020302020302020302020302020302020302020300A2020202D302E333731332020202D312E3134313020202020302E303030302048202020312020302020302020302020302020302020302020302020302020302020302020300A2020202D312E303835382020202D302E3732383520202020302E303030302043202020302020302020302020302020302020302020302020302020302020302020302020300A2020312020322020312020302020202020200A2020322020332020312020302020202020200A2020332020342020312020302020202020200A2020342020352020312020302020202020200A2020352020362020312020302020202020200A2020362020312020312020302020202020200A2020312020372020312020302020202020200A2020342020372020312020302020202020200A2020342020382020312020302020202020200A2020322020392020312020312020202020200A2020332031302020312020312020202020200A2020332031312020312020362020202020200A2020322031322020312020362020202020200A4D202049534F202032202031302020203220203131202020320A4D2020454E44
Contributor: YAMAMOTO M, DEP. CHEMISTRY, FAC. SCIENCE, NARA WOMEN'S UNIV.
InstType: EI
InstName: HITACHI M-80
IoniMethod: _ENERGY 70 eV
IonPolarity: pos
Date: 2010-10-09 19:48:36+02:00
Num Peaks: 60
15 18 27 131 28 88 29 86 30 66 31 19 39 174 40 108 41 316 42 209 
43 100 44 40 51 32 52 36 53 95 54 95 55 229 56 225 57 197 58 19 
63 12 65 28 66 38 67 189 68 276 69 300 70 169 71 106 72 12 77 59 
78 72 79 88 80 113 81 148 82 654 83 385 84 107 85 105 86 24 91 31 
92 47 93 81 95 327 96 778 97 999 98 149 99 76 107 17 108 18 109 44 
110 468 111 74 112 16 124 20 125 175 126 19 138 11 139 26 140 163 141 20 
