Name: CARBON-DIOXIDE
CAS: 124-38-9
MW: 43
Formula: CO2
Synonym: MassBank: JP001576
Synonym: CARBON-DIOXIDE
Structure: 310A31300A434152424F4E2D44494F584944452E6D6F6C0A20204368656D447261773039303631303130323532440A2020332020322020302020302020302020302020302020302020302020303939392056323030300A20202020302E3030303020202020302E3030303020202020302E303030302043202020302020302020302020302020302020302020302020302020302020302020302020300A20202020302E3832353020202020302E3030303020202020302E30303030204F202020302020302020302020302020302020302020302020302020302020302020302020300A2020202D302E3832353020202020302E3030303020202020302E30303030204F202020302020302020302020302020302020302020302020302020302020302020302020300A2020312020322020322020302020202020200A2020312020332020322020302020202020200A4D2020454E44
Contributor: MASS SPECTROSCOPY SOC. OF JAPAN (MSSJ)
InstType: EI
InstName: HITACHI RMU-5B
IoniMethod: _ENERGY 80 eV
IonPolarity: pos
Date: 2010-10-09 19:48:36+02:00
Num Peaks: 6
12 54 16 93 22 18 28 127 44 999 45 13 
