Name: METHYL JASMONATE
MW: 224
Formula: C13H20O3
Synonym: MassBank: JP005998
Synonym: METHYL JASMONATE
Structure: 313036315F4D455448594C204A41534D4F4E4154452E6D6F6C0A20204368656D447261773039303631303232313132440A2031352031352020302020302020302020302020302020302020302020303939392056323030300A20202020302E393432352020202D302E3438353720202020302E303030302043202020302020302020302020302020302020302020302020302020302020302020302020300A20202020312E323738302020202D312E3233393420202020302E303030302043202020302020302020302020302020302020302020302020302020302020302020302020300A20202020302E363634392020202D312E3739313420202020302E303030302043202020302020302020302020302020302020302020302020302020302020302020302020300A2020202D302E303439352020202D312E3337383920202020302E303030302043202020302020302020302020302020302020302020302020302020302020302020302020300A2020202D302E383033322020202D312E3731343520202020302E30303030204F202020302020302020302020302020302020302020302020302020302020302020302020300A20202020302E313232302020202D302E3537323020202020302E303030302043202020302020302020302020302020302020302020302020302020302020302020302020300A2020202D302E3433303120202020302E3034313120202020302E303030302043202020302020302020302020302020302020302020302020302020302020302020302020300A2020202D312E323236392020202D302E3137323420202020302E303030302043202020302020302020302020302020302020302020302020302020302020302020302020300A2020202D312E3831303220202020302E3431313120202020302E303030302043202020302020302020302020302020302020302020302020302020302020302020302020300A2020202D312E3539363720202020312E3230383020202020302E303030302043202020302020302020302020302020302020302020302020302020302020302020302020300A20202020312E3335353020202020302E3232383820202020302E303030302043202020302020302020302020302020302020302020302020302020302020302020302020300A20202020322E3138303020202020302E3232383820202020302E30303030204F202020302020302020302020302020302020302020302020302020302020302020302020300A20202020302E3934323520202020302E3934333220202020302E30303030204F202020302020302020302020302020302020302020302020302020302020302020302020300A20202020302E3131373520202020302E3934333220202020302E303030302043202020302020302020302020302020302020302020302020302020302020302020302020300A2020202D322E3138303020202020312E3739313420202020302E303030302043202020302020302020302020302020302020302020302020302020302020302020302020300A2020312020322020312020302020202020200A2020322020332020312020302020202020200A2020332020342020312020302020202020200A2020342020352020322020302020202020200A2020342020362020312020302020202020200A2020312020362020312020302020202020200A2020362020372020312020362020202020200A2020372020382020312020302020202020200A2020382020392020322020302020202020200A2020392031302020312020302020202020200A2031312020312020312020312020202020200A2031312031322020322020302020202020200A2031312031332020312020302020202020200A2031332031342020312020302020202020200A2031302031352020312020302020202020200A4D2020454E44
Contributor: YAMAMOTO M, DEP. CHEMISTRY, FAC. SCIENCE, NARA WOMEN'S UNIV.
InstType: EI
InstName: HITACHI RMU-6M
IoniMethod: _ENERGY 70 eV
IonPolarity: pos
Date: 2010-10-09 19:48:36+02:00
Num Peaks: 119
15 164 27 181 28 61 29 148 31 1 32 11 38 6 39 216 40 4 41 539 
42 27 43 114 44 1 45 16 51 40 52 26 53 16 54 73 55 223 56 16 
57 3 58 7 59 117 60 5 61 1 63 10 65 59 66 39 67 27 68 76 
69 117 70 8 71 3 74 73 75 64 77 113 78 4 79 245 80 63 81 145 
82 27 83 999 84 82 85 38 91 12 93 194 92 25 94 69 95 28 96 106 
97 46 98 12 99 1 103 15 104 9 105 49 106 3 107 97 108 74 109 222 
110 3 111 22 113 14 117 67 118 1 119 16 120 12 121 103 122 3 124 56 
123 49 125 16 126 1 127 15 128 8 131 29 132 8 133 121 134 16 135 120 
136 3 137 21 138 15 139 10 140 1 141 14 145 10 146 32 147 4 148 11 
149 49 150 125 151 63 152 78 153 14 154 20 155 6 156 263 157 26 163 34 
164 3 165 27 167 52 168 27 169 2 177 60 178 13 181 16 182 1 191 14 
192 18 193 154 195 5 196 11 206 77 207 16 224 45 225 70 226 13 
