Name: 2-ACETYL-1-TRIDEUTEROMETHYLINDOLE
MW: 173
Formula: C11H11NO
Synonym: MassBank: JP000448
Synonym: 2-ACETYL-1-TRIDEUTEROMETHYLINDOLE
Structure: 322D41434554594C2D312D5452494445555445524F4D455448594C494E444F4C452E6D6F6C0A20204368656D447261773132323130393231353932440A2031362031372020302020302020302020302020302020302020302020303939392056323030300A2020202D302E323435362020202D302E3033383420202020302E30303030204E202020302020302020302020302020302020302020302020302020302020302020302020300A2020202D302E373330352020202D302E3730353820202020302E303030302043202020302020302020302020302020302020302020302020302020302020302020302020300A2020202D302E323435362020202D312E3337333320202020302E303030302043202020302020302020302020302020302020302020302020302020302020302020302020300A20202020302E353339312020202D312E3131383320202020302E303030302043202020302020302020302020302020302020302020302020302020302020302020302020300A20202020312E323533352020202D312E3533303820202020302E303030302043202020302020302020302020302020302020302020302020302020302020302020302020300A20202020312E393638302020202D312E3131383320202020302E303030302043202020302020302020302020302020302020302020302020302020302020302020302020300A20202020312E393638302020202D302E3239333320202020302E303030302043202020302020302020302020302020302020302020302020302020302020302020302020300A20202020312E3235333520202020302E3131393220202020302E303030302043202020302020302020302020302020302020302020302020302020302020302020302020300A20202020302E353339312020202D302E3239333320202020302E303030302043202020302020302020302020302020302020302020302020302020302020302020302020300A2020202D302E3530303520202020302E3734363220202020302E303030302043202020302020302020302020302020302020302020302020302020302020302020302020300A2020202D312E3238353120202020302E3439313320202020302E303030302048202020312020302020302020302020302020302020302020302020302020302020302020300A20202020302E3238343120202020312E3030313220202020302E303030302048202020312020302020302020302020302020302020302020302020302020302020302020300A2020202D302E3735353420202020312E3533303820202020302E303030302048202020312020302020302020302020302020302020302020302020302020302020302020300A2020202D312E353535352020202D302E3730353820202020302E303030302043202020302020302020302020302020302020302020302020302020302020302020302020300A2020202D312E3936383020202020302E3030383620202020302E30303030204F202020302020302020302020302020302020302020302020302020302020302020302020300A2020202D312E393638302020202D312E3432303320202020302E303030302043202020302020302020302020302020302020302020302020302020302020302020302020300A2020312020322020312020302020202020200A2020322020332020322020302020202020200A2020332020342020312020302020202020200A2020342020352020312020302020202020200A2020352020362020322020302020202020200A2020362020372020312020302020202020200A2020372020382020322020302020202020200A2020382020392020312020302020202020200A2020312020392020312020302020202020200A2020342020392020322020302020202020200A2031302031312020312020302020202020200A2031302031322020312020302020202020200A2031302031332020312020302020202020200A2020312031302020312020302020202020200A2031342031352020322020302020202020200A2031342031362020312020302020202020200A2020322031342020312020302020202020200A4D202049534F2020332020313120202032202031322020203220203133202020320A4D2020454E44
Contributor: SASAKI S, TOYOHASHI UNIV. OF TECH.
InstType: EI
InstName: MX-1303
IoniMethod: _ENERGY 50 eV
IonPolarity: pos
Date: 2010-10-09 19:48:36+02:00
Num Peaks: 26
39 27 43 85 51 12 62 2 63 61 77 11 78 18 79 1 88 31 89 999 
90 38 104 1 105 10 114 11 115 26 131 1 132 30 133 65 147 16 160 7 
161 999 162 46 174 177 175 11 176 865 177 46 
