Name: MassBank: JP003279
MW: 197
Formula: C7H7N3O4
Synonym: MassBank: JP003279
Synonym: N-METHYL-2,4-DINITROBENZENAMINE
Structure: 4E2D4D455448594C2D322C342D44494E4954524F42454E5A454E414D494E452E6D6F6C0A20204368656D447261773038313231303032313132440A2031342031342020302020302020302020302020302020302020302020303939392056323030300A20202020302E3230363220202020302E3731343520202020302E303030302043202020302020302020302020302020302020302020302020302020302020302020302020300A20202020302E363138382020202D302E3030303020202020302E303030302043202020302020302020302020302020302020302020302020302020302020302020302020300A20202020302E323036322020202D302E3731343520202020302E303030302043202020302020302020302020302020302020302020302020302020302020302020302020300A2020202D302E363138382020202D302E3731343520202020302E303030302043202020302020302020302020302020302020302020302020302020302020302020302020300A2020202D312E3033313320202020302E3030303020202020302E303030302043202020302020302020302020302020302020302020302020302020302020302020302020300A2020202D302E3631383820202020302E3731343520202020302E303030302043202020302020302020302020302020302020302020302020302020302020302020302020300A20202020302E3631383820202020312E3432383920202020302E30303030204E202020302020302020302020302020302020302020302020302020302020302020302020300A2020202D312E303331332020202D312E3432383920202020302E30303030204E202020302020332020302020302020302020302020302020302020302020302020302020300A2020202D312E383536332020202D312E3432383920202020302E30303030204F202020302020302020302020302020302020302020302020302020302020302020302020300A2020202D302E363138382020202D322E3134333420202020302E30303030204F202020302020352020302020302020302020302020302020302020302020302020302020300A20202020312E343433382020202D302E3030303020202020302E30303030204E202020302020332020302020302020302020302020302020302020302020302020302020300A20202020312E3835363320202020302E3731343520202020302E30303030204F202020302020302020302020302020302020302020302020302020302020302020302020300A20202020312E383536332020202D302E3731343520202020302E30303030204F202020302020352020302020302020302020302020302020302020302020302020302020300A20202020302E3230363220202020322E3134333420202020302E303030302043202020302020302020302020302020302020302020302020302020302020302020302020300A2020312020322020312020302020202020200A2020322020332020322020302020202020200A2020332020342020312020302020202020200A2020342020352020322020302020202020200A2020352020362020312020302020202020200A2020312020362020322020302020202020200A2020312020372020312020302020202020200A2020382020392020322020302020202020200A2020382031302020312020302020202020200A2020342020382020312020302020202020200A2031312031322020322020302020202020200A2031312031332020312020302020202020200A2020322031312020312020302020202020200A2020372031342020312020302020202020200A4D202043484720203420202038202020312020313020202D3120203131202020312020313320202D310A4D2020454E44
Contributor: KOGA M, UNIV. OF OCCUPATIONAL AND ENVIRONMENTAL HEALTH
InstType: EI
InstName: JEOL JMS-01-SG-2
IoniMethod: _ENERGY 75 eV
IonPolarity: pos
Date: 2010-10-09 19:48:36+02:00
Num Peaks: 62
41 50 42 55 43 36 44 145 45 29 46 25 50 164 51 242 52 168 53 61 
54 53 55 52 57 28 61 34 62 94 63 242 64 94 65 97 66 219 67 80 
74 89 75 126 76 332 77 235 78 597 79 165 80 74 81 28 88 28 89 23 
90 63 91 52 92 132 93 187 94 69 102 26 103 77 104 492 105 999 106 137 
107 26 118 63 119 29 120 64 121 129 122 29 133 121 134 88 135 26 137 26 
149 61 150 93 151 26 152 33 163 26 167 26 179 50 180 50 181 44 197 891 
198 100 199 26 
