Name: MassBank: JP004348
MW: 214
Formula: C14H18N2
Synonym: MassBank: JP004348
Synonym: 3-(2-AMINOETHYL)-2-METHYL-1,7-TRIMETHYLENEINDOLE
Structure: 332D28322D414D494E4F455448594C292D322D4D455448594C2D312C372D5452494D455448594C454E45494E444F4C452E6D6F6C0A20204368656D447261773032323231303039333932440A2031362031382020302020302020302020302020302020302020302020303939392056323030300A20202020302E363230332020202D302E3536313120202020302E30303030204E202020302020302020302020302020302020302020302020302020302020302020302020300A20202020302E3334313420202020302E3230373720202020302E303030302043202020302020302020302020302020302020302020302020302020302020302020302020300A2020202D302E3438383020202020302E3230373720202020302E303030302043202020302020302020302020302020302020302020302020302020302020302020302020300A2020202D302E373132392020202D302E3630333020202020302E303030302043202020302020302020302020302020302020302020302020302020302020302020302020300A2020202D312E343330392020202D312E3031373520202020302E303030302043202020302020302020302020302020302020302020302020302020302020302020302020300A2020202D312E343330392020202D312E3834323620202020302E303030302043202020302020302020302020302020302020302020302020302020302020302020302020300A2020202D302E373136312020202D322E3235353420202020302E303030302043202020302020302020302020302020302020302020302020302020302020302020302020300A2020202D302E303030392020202D312E3834323420202020302E303030302043202020302020302020302020302020302020302020302020302020302020302020302020300A2020202D302E303030392020202D312E3033363720202020302E303030302043202020302020302020302020302020302020302020302020302020302020302020302020300A20202020312E333730312020202D302E3931353720202020302E303030302043202020302020302020302020302020302020302020302020302020302020302020302020300A20202020312E343330392020202D312E3734333220202020302E303030302043202020302020302020302020302020302020302020302020302020302020302020302020300A20202020302E373434302020202D322E3230393320202020302E303030302043202020302020302020302020302020302020302020302020302020302020302020302020300A20202020302E3830353120202020302E3930343720202020302E303030302043202020302020302020302020302020302020302020302020302020302020302020302020300A2020202D302E3939383620202020302E3834313220202020302E303030302043202020302020302020302020302020302020302020302020302020302020302020302020300A2020202D302E3639323720202020312E3630373420202020302E303030302043202020302020302020302020302020302020302020302020302020302020302020302020300A2020202D312E3230333320202020322E3235353420202020302E30303030204E202020302020302020302020302020302020302020302020302020302020302020302020300A2020312020322020312020302020202020200A2020322020332020322020302020202020200A2020332020342020312020302020202020200A2020342020352020312020302020202020200A2020352020362020322020302020202020200A2020362020372020312020302020202020200A2020372020382020322020302020202020200A2020382020392020312020302020202020200A2020312020392020312020302020202020200A2020342020392020322020302020202020200A2031302031312020312020302020202020200A2031312031322020312020302020202020200A2020312031302020312020302020202020200A2020382031322020312020302020202020200A2020322031332020312020302020202020200A2031342031352020312020302020202020200A2031352031362020312020302020202020200A2020332031342020312020302020202020200A4D2020454E44
Contributor: SASAKI S, TOYOHASHI UNIV. OF TECH.
InstType: EI
InstName: MX-1303
IoniMethod: _ENERGY 50 eV
IonPolarity: pos
Date: 2010-10-09 19:48:36+02:00
Num Peaks: 40
39 14 41 17 51 14 63 1 77 21 89 10 91 12 102 1 103 10 115 34 
116 10 117 2 118 16 127 14 128 27 129 3 130 21 132 65 133 52 141 2 
142 11 143 13 154 29 155 1 156 127 157 20 167 25 168 4 169 14 170 37 
180 29 181 2 182 57 183 33 184 999 185 18 186 16 197 11 214 131 215 22 
