Name: 2-DIMETHYLAMINOPYRIMIDINE
MW: 123
Formula: C6H9N3
Synonym: MassBank: JP002034
Synonym: 2-DIMETHYLAMINOPYRIMIDINE
Structure: 310A32330A322D44494D455448594C414D494E4F505952494D4944494E452E6D6F6C0A20204368656D447261773031303331303132313832440A2020392020392020302020302020302020302020302020302020302020303939392056323030300A20202020302E3230363320202020302E3030303020202020302E303030302043202020302020302020302020302020302020302020302020302020302020302020302020300A2020202D302E323036332020202D302E3731343520202020302E30303030204E202020302020302020302020302020302020302020302020302020302020302020302020300A2020202D312E303331322020202D302E3731343520202020302E303030302043202020302020302020302020302020302020302020302020302020302020302020302020300A2020202D312E3434333820202020302E3030303020202020302E303030302043202020302020302020302020302020302020302020302020302020302020302020302020300A2020202D312E3033313320202020302E3731343520202020302E303030302043202020302020302020302020302020302020302020302020302020302020302020302020300A2020202D302E3230363320202020302E3731343520202020302E30303030204E202020302020302020302020302020302020302020302020302020302020302020302020300A20202020312E3033313220202020302E3030303020202020302E30303030204E202020302020302020302020302020302020302020302020302020302020302020302020300A20202020312E3434333820202020302E3731343520202020302E303030302043202020302020302020302020302020302020302020302020302020302020302020302020300A20202020312E343433382020202D302E3731343520202020302E303030302043202020302020302020302020302020302020302020302020302020302020302020302020300A2020312020322020312020302020202020200A2020322020332020322020302020202020200A2020332020342020312020302020202020200A2020342020352020322020302020202020200A2020352020362020312020302020202020200A2020312020362020322020302020202020200A2020372020382020312020302020202020200A2020372020392020312020302020202020200A2020312020372020312020302020202020200A4D2020454E44
Contributor: SASAKI S, TOYOHASHI UNIV. OF TECH.
InstType: EI
InstName: MS-902
IoniMethod: _ENERGY 70 eV
IonPolarity: pos
Date: 2010-10-09 19:48:36+02:00
Num Peaks: 33
39 22 40 52 41 56 42 30 43 52 44 548 45 12 51 3 52 112 53 260 
54 85 55 5 66 26 67 46 68 32 69 12 70 34 78 18 79 222 80 33 
81 348 82 21 93 17 94 999 95 192 96 30 106 16 108 60 109 47 120 10 
122 167 123 99 124 88 
