Name: MassBank: JP006750
MW: 204
Formula: C12H12O3
Synonym: MassBank: JP006750
Synonym: 6-METHYL-3,4-(5'-METHOXY)BENZO-2-OXABICYCLO(4.1.0)HEPT-3-EN-5-ONE
Synonym: 7-METHOXY-3-METHYL-2,3-METHANOCHROMAN-4-ONE
Structure: 362D4D455448594C2D332C342D2835272D4D4554484F58592942454E5A4F2D322D4F584142494359434C4F28342E312E3029484550542D332D454E2D352D4F4E452E6D6F6C0A20204368656D447261773035313731303139313532440A2031352031372020302020302020302020302020302020302020302020303939392056323030300A2020202D312E3432383920202020302E3431323520202020302E303030302043202020302020302020302020302020302020302020302020302020302020302020302020300A2020202D312E343238392020202D302E3431323520202020302E303030302043202020302020302020302020302020302020302020302020302020302020302020302020300A2020202D302E373134352020202D302E3832353020202020302E303030302043202020302020302020302020302020302020302020302020302020302020302020302020300A20202020302E303030302020202D302E3431323520202020302E303030302043202020302020302020302020302020302020302020302020302020302020302020302020300A20202020302E3030303020202020302E3431323520202020302E303030302043202020302020302020302020302020302020302020302020302020302020302020302020300A2020202D302E3731343520202020302E3832353020202020302E303030302043202020302020302020302020302020302020302020302020302020302020302020302020300A20202020302E373134352020202D302E3832353020202020302E303030302043202020302020302020302020302020302020302020302020302020302020302020302020300A20202020312E343238392020202D302E3431323520202020302E303030302043202020302020302020302020302020302020302020302020302020302020302020302020300A20202020312E3432383920202020302E3431323520202020302E303030302043202020302020302020302020302020302020302020302020302020302020302020302020300A20202020302E3731343520202020302E3832353020202020302E30303030204F202020302020302020302020302020302020302020302020302020302020302020302020300A20202020322E3134333420202020302E3030303020202020302E303030302043202020302020302020302020302020302020302020302020302020302020302020302020300A2020202D322E3134333420202020302E3832353020202020302E30303030204F202020302020302020302020302020302020302020302020302020302020302020302020300A2020202D322E3134333420202020312E3635303020202020302E303030302043202020302020302020302020302020302020302020302020302020302020302020302020300A20202020312E383431342020202D312E3132373020202020302E303030302043202020302020302020302020302020302020302020302020302020302020302020302020300A20202020302E373134352020202D312E3635303020202020302E30303030204F202020302020302020302020302020302020302020302020302020302020302020302020300A2020312020322020322020302020202020200A2020322020332020312020302020202020200A2020332020342020322020302020202020200A2020342020352020312020302020202020200A2020352020362020322020302020202020200A2020362020312020312020302020202020200A2020342020372020312020302020202020200A2020372020382020312020302020202020200A2020382020392020312020302020202020200A2020392031302020312020302020202020200A2031302020352020312020302020202020200A2020382031312020312020302020202020200A2031312020392020312020302020202020200A2020312031322020312020302020202020200A2031322031332020312020302020202020200A2020382031342020312020302020202020200A2020372031352020322020302020202020200A4D2020454E44
Contributor: MASS SPECTROSCOPY SOC. OF JAPAN (MSSJ)
InstType: EI
InstName: HITACHI RMS-4
IoniMethod: _ENERGY 70 eV
IonPolarity: pos
Date: 2010-10-09 19:48:36+02:00
Num Peaks: 49
39 350 41 310 43 120 50 2 51 330 52 140 53 280 55 1 62 140 63 770 
64 150 65 1 69 130 75 130 76 90 77 2 78 100 79 250 91 140 92 1 
103 90 105 90 106 730 107 2 108 90 115 110 118 80 122 1 132 90 133 110 
134 640 135 2 149 140 150 90 151 190 161 9 162 110 163 100 164 900 165 1 
175 460 176 110 177 50 189 3 190 30 203 70 204 999 205 2 206 5 
