Name: 4(8)-PARA-MENTHEN-3-YL ACETATE
MW: 196
Formula: C12H20O2
Synonym: MassBank: JP001222
Synonym: 4(8)-PARA-MENTHEN-3-YL ACETATE
Structure: 342838292D504152412D4D454E5448454E2D332D594C20414345544154452E6D6F6C0A20204368656D447261773130313831303136333532440A2031342031342020302020302020302020302020302020302020302020303939392056323030300A2020202D312E303331332020202D312E3037313720202020302E303030302043202020302020302020302020302020302020302020302020302020302020302020302020300A2020202D302E363138382020202D312E3738363220202020302E303030302043202020302020302020302020302020302020302020302020302020302020302020302020300A2020202D312E383536332020202D312E3037313720202020302E30303030204F202020302020302020302020302020302020302020302020302020302020302020302020300A2020202D302E363138382020202D302E3335373220202020302E30303030204F202020302020302020302020302020302020302020302020302020302020302020302020300A20202020302E323036322020202D302E3335373220202020302E303030302043202020302020302020302020302020302020302020302020302020302020302020302020300A20202020302E3631383720202020302E3335373220202020302E303030302043202020302020302020302020302020302020302020302020302020302020302020302020300A20202020312E3434333720202020302E3335373220202020302E303030302043202020302020302020302020302020302020302020302020302020302020302020302020300A20202020312E383536332020202D302E3335373220202020302E303030302043202020302020302020302020302020302020302020302020302020302020302020302020300A20202020312E343433372020202D312E3037313720202020302E303030302043202020302020302020302020302020302020302020302020302020302020302020302020300A20202020302E363138372020202D312E3037313720202020302E303030302043202020302020302020302020302020302020302020302020302020302020302020302020300A20202020312E383536322020202D312E3738363220202020302E303030302043202020302020302020302020302020302020302020302020302020302020302020302020300A20202020302E3230363220202020312E3037313720202020302E303030302043202020302020302020302020302020302020302020302020302020302020302020302020300A20202020302E3631383720202020312E3738363220202020302E303030302043202020302020302020302020302020302020302020302020302020302020302020302020300A2020202D302E3631383820202020312E3037313720202020302E303030302043202020302020302020302020302020302020302020302020302020302020302020302020300A2020312020322020312020302020202020200A2020312020332020322020302020202020200A2020312020342020312020302020202020200A2020352020362020312020302020202020200A2020362020372020312020302020202020200A2020372020382020312020302020202020200A2020382020392020312020302020202020200A2020392031302020312020302020202020200A2020352031302020312020302020202020200A2020392031312020312020302020202020200A2031322031332020312020302020202020200A2031322031342020312020302020202020200A2020362031322020322020302020202020200A2020342020352020312020302020202020200A4D2020454E44
Contributor: SASAKI S, TOYOHASHI UNIV. OF TECH.
InstType: EI
InstName: HITACHI RMU-6D
IoniMethod: _ENERGY 70 eV
IonPolarity: pos
Date: 2010-10-09 19:48:36+02:00
Num Peaks: 73
13 30 14 120 15 20 16 6 17 270 25 30 26 180 27 59 28 120 31 225 
35 10 36 2 37 290 38 40 39 280 40 3 41 520 42 200 43 85 50 2 
51 120 52 60 53 160 54 2 55 170 56 10 57 5 58 25 59 10 60 80 
63 5 64 3 65 10 66 120 67 50 68 14 69 155 70 20 71 5 72 1 
73 5 74 5 77 290 78 6 79 999 80 130 81 110 82 2 89 10 91 300 
92 80 93 70 94 240 95 70 96 10 104 2 105 25 106 130 107 30 108 59 
109 140 110 10 115 5 117 1 119 20 120 5 121 610 122 6 123 10 134 10 
135 600 137 2 138 20 
