Name: MassBank: JP008100
MW: 369
Formula: C24H35NO2
Synonym: MassBank: JP008100
Synonym: 3-PYRIDYLMETHYL OCTADECA-9,12,15-TRIENOATE
Synonym: LINOLENIC ACID PICOLINYL ESTER
Structure: 332D5059524944594C4D455448594C204F435441444543412D392C31322C31352D545249454E4F4154452E6D6F6C0A20204368656D447261773033323331303136343132440A2032372032372020302020302020302020302020302020302020302020303939392056323030300A20202020312E343238392020202D302E3832353020202020302E303030302043202020302020302020302020302020302020302020302020302020302020302020302020300A20202020312E343238392020202D312E3635303020202020302E303030302043202020302020302020302020302020302020302020302020302020302020302020302020300A20202020302E373134352020202D322E3036323520202020302E303030302043202020302020302020302020302020302020302020302020302020302020302020302020300A2020202D302E303030302020202D312E3635303020202020302E303030302043202020302020302020302020302020302020302020302020302020302020302020302020300A2020202D302E373134352020202D322E3036323520202020302E303030302043202020302020302020302020302020302020302020302020302020302020302020302020300A2020202D312E343238392020202D312E3635303020202020302E303030302043202020302020302020302020302020302020302020302020302020302020302020302020300A2020202D322E313433342020202D322E3036323520202020302E303030302043202020302020302020302020302020302020302020302020302020302020302020302020300A2020202D322E383537392020202D312E3635303020202020302E303030302043202020302020302020302020302020302020302020302020302020302020302020302020300A2020202D332E353732342020202D322E3036323520202020302E303030302043202020302020302020302020302020302020302020302020302020302020302020302020300A2020202D342E323836382020202D312E3635303020202020302E303030302043202020302020302020302020302020302020302020302020302020302020302020302020300A2020202D342E323836382020202D302E3832353020202020302E303030302043202020302020302020302020302020302020302020302020302020302020302020302020300A2020202D352E303031332020202D302E3431323520202020302E303030302043202020302020302020302020302020302020302020302020302020302020302020302020300A2020202D352E3030313320202020302E3431323520202020302E303030302043202020302020302020302020302020302020302020302020302020302020302020302020300A2020202D342E3238363820202020302E3832353020202020302E303030302043202020302020302020302020302020302020302020302020302020302020302020302020300A2020202D342E3238363820202020312E3635303020202020302E303030302043202020302020302020302020302020302020302020302020302020302020302020302020300A2020202D332E3537323420202020322E3036323520202020302E303030302043202020302020302020302020302020302020302020302020302020302020302020302020300A2020202D322E3835373920202020312E3635303020202020302E303030302043202020302020302020302020302020302020302020302020302020302020302020302020300A2020202D322E3134333420202020322E3036323520202020302E303030302043202020302020302020302020302020302020302020302020302020302020302020302020300A20202020302E373134352020202D302E3431323520202020302E30303030204F202020302020302020302020302020302020302020302020302020302020302020302020300A20202020322E313433342020202D302E3431323520202020302E30303030204F202020302020302020302020302020302020302020302020302020302020302020302020300A20202020322E383537392020202D302E3832353020202020302E303030302043202020302020302020302020302020302020302020302020302020302020302020302020300A20202020342E323836382020202D302E3832353020202020302E303030302043202020302020302020302020302020302020302020302020302020302020302020302020300A20202020332E353732342020202D302E3431323520202020302E303030302043202020302020302020302020302020302020302020302020302020302020302020302020300A20202020332E3537323420202020302E3431323520202020302E303030302043202020302020302020302020302020302020302020302020302020302020302020302020300A20202020342E3238363820202020302E3832353020202020302E303030302043202020302020302020302020302020302020302020302020302020302020302020302020300A20202020352E3030313320202020302E3431323520202020302E303030302043202020302020302020302020302020302020302020302020302020302020302020302020300A20202020352E303031332020202D302E3431323520202020302E30303030204E202020302020302020302020302020302020302020302020302020302020302020302020300A2020312020322020312020302020202020200A2020322020332020312020302020202020200A2020332020342020312020302020202020200A2020342020352020312020302020202020200A2020352020362020312020302020202020200A2020362020372020312020302020202020200A2020372020382020312020302020202020200A2020382020392020312020302020202020200A2020392031302020322020302020202020200A2031302031312020312020302020202020200A2031312031322020312020302020202020200A2031322031332020322020302020202020200A2031332031342020312020302020202020200A2031342031352020312020302020202020200A2031352031362020322020302020202020200A2031362031372020312020302020202020200A2031372031382020312020302020202020200A2020312031392020322020302020202020200A2020312032302020312020302020202020200A2032322032332020312020302020202020200A2032332032342020322020302020202020200A2032342032352020312020302020202020200A2032352032362020322020302020202020200A2032362032372020312020302020202020200A2032322032372020322020302020202020200A2032312032332020312020302020202020200A2032302032312020312020302020202020200A4D2020454E44
Contributor: YAMAMOTO M, DEP. CHEMISTRY, FAC. SCIENCE, NARA WOMEN'S UNIV.
InstType: EI
InstName: JEOL JMS-HX-100
IoniMethod: _ENERGY 70 eV
IonPolarity: pos
Date: 2010-10-09 19:48:36+02:00
Num Peaks: 302
40 13 41 303 42 24 43 71 44 10 45 3 50 6 51 21 52 15 53 77 
54 57 55 238 56 19 57 25 58 2 59 3 60 2 61 2 62 3 63 16 
64 25 65 208 66 60 67 369 68 50 69 111 70 9 71 11 72 2 73 12 
74 1 75 4 76 2 77 145 78 78 79 465 80 155 81 181 82 32 83 33 
84 4 85 8 87 4 89 3 90 3 91 219 92 999 93 573 94 116 95 243 
96 19 97 21 98 5 99 3 100 2 101 5 102 3 103 10 104 6 105 80 
106 37 107 118 108 497 109 201 110 89 111 11 112 3 113 6 114 1 115 9 
116 4 117 23 118 16 119 56 120 21 121 89 122 19 123 18 124 4 125 3 
126 1 127 6 128 4 129 8 130 10 131 22 132 11 133 48 134 23 135 72 
136 16 137 9 138 2 139 4 140 1 141 3 142 2 143 7 144 12 145 17 
146 12 147 39 148 17 149 41 150 12 151 167 152 22 153 6 154 3 155 3 
156 6 157 8 158 13 159 14 160 14 161 33 162 21 163 19 164 504 165 78 
166 10 167 5 168 4 169 3 170 11 171 9 172 16 173 11 174 10 175 17 
176 8 177 11 178 100 179 28 180 5 181 5 182 5 183 4 184 17 185 11 
186 12 187 10 188 9 189 8 190 20 191 9 192 40 193 21 194 5 195 6 
196 4 197 3 198 11 199 6 200 10 201 6 202 21 203 12 204 20 205 12 
206 91 207 48 208 11 209 5 210 3 211 2 212 7 213 5 214 8 215 4 
216 10 217 8 218 25 219 12 220 99 221 41 222 9 223 2 224 3 225 2 
226 6 227 4 228 9 229 3 230 9 231 7 232 21 233 20 234 45 235 12 
236 4 237 2 238 3 239 2 240 7 241 7 242 12 243 6 244 12 245 10 
246 24 247 41 248 32 249 4 250 1 251 2 252 2 253 1 254 8 255 3 
256 27 257 9 258 27 259 16 260 89 261 94 262 55 263 10 264 3 265 5 
266 2 267 4 268 5 269 2 270 13 271 6 272 28 273 17 274 63 275 62 
276 27 277 62 278 13 279 4 280 4 281 20 282 36 283 7 284 15 285 9 
286 43 287 40 288 42 289 18 290 10 291 3 294 5 295 1 296 14 297 5 
298 27 299 16 300 294 301 96 302 24 303 13 304 7 305 2 306 2 308 5 
309 2 310 6 311 3 312 59 313 47 314 91 315 44 316 11 317 3 322 9 
323 3 324 2 325 1 326 81 327 24 328 25 329 7 330 3 336 4 337 3 
339 1 340 85 341 26 342 6 343 1 350 7 351 3 352 1 353 1 354 55 
355 8 356 2 357 2 358 2 366 1 367 6 368 99 369 427 370 125 371 27 
372 5 373 3 
