Name: 5-ETHYL-5-ISOPENTYL-BARBITURIC ACID
MW: 226
Formula: C11H18N2O3
Synonym: MassBank: JP003837
Synonym: 5-ETHYL-5-ISOPENTYL-BARBITURIC ACID
Synonym: AMOBARBITAL
Structure: 352D455448594C2D352D49534F50454E54594C2D4241524249545552494320414349442E6D6F6C0A20204368656D447261773034323331303035323032440A2031362031362020302020302020302020302020302020302020302020303939392056323030300A20202020312E3730303020202020302E3030303020202020302E30303030204E202020302020302020302020302020302020302020302020302020302020302020302020300A20202020312E373030302020202D302E3832353020202020302E303030302043202020302020302020302020302020302020302020302020302020302020302020302020300A20202020322E343134352020202D312E3233373520202020302E30303030204F202020302020302020302020302020302020302020302020302020302020302020302020300A20202020302E393835352020202D312E3233373520202020302E30303030204E202020302020302020302020302020302020302020302020302020302020302020302020300A20202020302E323731312020202D302E3832353020202020302E303030302043202020302020302020302020302020302020302020302020302020302020302020302020300A2020202D302E343433342020202D312E3233373520202020302E30303030204F202020302020302020302020302020302020302020302020302020302020302020302020300A20202020302E3237313120202020302E3030303020202020302E303030302043202020302020302020302020302020302020302020302020302020302020302020302020300A20202020302E3938353520202020302E3431323520202020302E303030302043202020302020302020302020302020302020302020302020302020302020302020302020300A20202020302E3938353520202020312E3233373520202020302E30303030204F202020302020302020302020302020302020302020302020302020302020302020302020300A2020202D302E353431342020202D302E3134333320202020302E303030302043202020302020302020302020302020302020302020302020302020302020302020302020300A2020202D312E3037313720202020302E3438383720202020302E303030302043202020302020302020302020302020302020302020302020302020302020302020302020300A2020202D312E3838343220202020302E3334353520202020302E303030302043202020302020302020302020302020302020302020302020302020302020302020302020300A2020202D322E313636332020202D302E3432393820202020302E303030302043202020302020302020302020302020302020302020302020302020302020302020302020300A2020202D322E3431343520202020302E3937373520202020302E303030302043202020302020302020302020302020302020302020302020302020302020302020302020300A2020202D302E3031313120202020302E3737353220202020302E303030302043202020302020302020302020302020302020302020302020302020302020302020302020300A2020202D302E3832333620202020302E3931383520202020302E303030302043202020302020302020302020302020302020302020302020302020302020302020302020300A2020312020322020312020302020202020200A2020322020332020322020302020202020200A2020322020342020312020302020202020200A2020342020352020312020302020202020200A2020352020362020322020302020202020200A2020352020372020312020302020202020200A2020372020382020312020302020202020200A2020382020392020322020302020202020200A2020312020382020312020302020202020200A2031302031312020312020302020202020200A2031312031322020312020302020202020200A2031322031332020312020302020202020200A2031322031342020312020302020202020200A2020372031302020312020302020202020200A2031352031362020312020302020202020200A2020372031352020312020302020202020200A4D2020454E44
Contributor: SASAKI S, TOYOHASHI UNIV. OF TECH.
InstType: EI
InstName: Unknown
IoniMethod: _ENERGY 70 eV
IonPolarity: pos
Date: 2010-10-09 19:48:36+02:00
Num Peaks: 70
38 9 39 54 40 19 41 16 42 35 43 114 44 32 45 1 51 9 52 9 
53 29 54 2 55 94 56 37 57 39 65 1 66 9 67 21 68 14 69 7 
70 39 71 39 72 9 77 1 79 11 80 19 81 14 82 1 83 28 84 9 
85 19 86 1 93 9 94 12 95 10 96 0 97 31 98 67 99 9 111 1 
112 57 113 11 114 17 126 1 127 12 128 14 129 14 140 1 141 539 142 107 
143 16 154 1 155 54 156 999 157 195 158 3 159 9 169 9 181 12 183 7 
184 11 185 9 197 99 198 7 199 11 211 24 212 9 225 0 226 3 227 4 
