Name: 3-METHOXYBUTYL ACETATE
MW: 146
Formula: C7H14O3
Synonym: MassBank: JP002520
Synonym: 3-METHOXYBUTYL ACETATE
Structure: 332D4D4554484F5859425554594C20414345544154452E6D6F6C0A20204368656D447261773032323231303233313132440A2031302020392020302020302020302020302020302020302020302020303939392056323030300A20202020312E3432383920202020302E3230363320202020302E303030302043202020302020302020302020302020302020302020302020302020302020302020302020300A20202020322E313433342020202D302E3230363220202020302E303030302043202020302020302020302020302020302020302020302020302020302020302020302020300A20202020312E3432383920202020312E3033313320202020302E30303030204F202020302020302020302020302020302020302020302020302020302020302020302020300A20202020302E373134352020202D302E3230363220202020302E30303030204F202020302020302020302020302020302020302020302020302020302020302020302020300A2020202D302E3030303020202020302E3230363320202020302E303030302043202020302020302020302020302020302020302020302020302020302020302020302020300A2020202D302E373134352020202D302E3230363220202020302E303030302043202020302020302020302020302020302020302020302020302020302020302020302020300A2020202D312E3432383920202020302E3230363320202020302E303030302043202020302020302020302020302020302020302020302020302020302020302020302020300A2020202D312E3432383920202020312E3033313220202020302E303030302043202020302020302020302020302020302020302020302020302020302020302020302020300A2020202D322E313433342020202D302E3230363320202020302E30303030204F202020302020302020302020302020302020302020302020302020302020302020302020300A2020202D322E313433342020202D312E3033313320202020302E303030302043202020302020302020302020302020302020302020302020302020302020302020302020300A2020312020322020312020302020202020200A2020312020332020322020302020202020200A2020312020342020312020302020202020200A2020352020362020312020302020202020200A2020362020372020312020302020202020200A2020372020382020312020302020202020200A2020392031302020312020302020202020200A2020372020392020312020302020202020200A2020342020352020312020302020202020200A4D2020454E44
Contributor: YAMAMOTO M, DEP. CHEMISTRY, FAC. SCIENCE, NARA WOMEN'S UNIV.
InstType: EI
InstName: HITACHI RMU-6M
IoniMethod: _ENERGY 70 eV
IonPolarity: pos
Date: 2010-10-09 19:48:36+02:00
Num Peaks: 26
15 72 27 38 28 21 29 77 31 75 33 15 39 25 41 68 42 22 43 413 
44 12 45 29 55 87 56 31 57 11 58 36 59 999 60 34 61 23 71 223 
72 25 73 12 85 21 86 98 87 13 116 12 
