Name: DIHYDROISOJASMONE
MW: 166
Formula: C11H18O
Synonym: MassBank: JP007552
Synonym: DIHYDROISOJASMONE
Synonym: 3-METHYL-2-(3-METHYLBUTYL)-2-CYCLOPENTEN-1-ONE
Structure: 4449485944524F49534F4A41534D4F4E452E6D6F6C0A20204368656D447261773033313931303233333032440A2031332031332020302020302020302020302020302020302020302020303939392056323030300A2020202D312E353736382020202D302E3730353520202020302E303030302043202020302020302020302020302020302020302020302020302020302020302020302020300A2020202D312E3439303620202020302E3131353020202020302E303030302043202020302020302020302020302020302020302020302020302020302020302020302020300A2020202D322E3234343220202020302E3435303520202020302E303030302043202020302020302020302020302020302020302020302020302020302020302020302020300A2020202D322E373936332020202D302E3136323520202020302E303030302043202020302020302020302020302020302020302020302020302020302020302020302020300A2020202D322E333833382020202D302E3837373020202020302E303030302043202020302020302020302020302020302020302020302020302020302020302020302020300A2020202D302E393633372020202D312E3235373520202020302E30303030204F202020302020302020302020302020302020302020302020302020302020302020302020300A2020202D302E3737363120202020302E3532373520202020302E303030302043202020302020302020302020302020302020302020302020302020302020302020302020300A2020202D302E3036313620202020302E3131353020202020302E303030302043202020302020302020302020302020302020302020302020302020302020302020302020300A20202020302E3635323920202020302E3532373520202020302E303030302043202020302020302020302020302020302020302020302020302020302020302020302020300A20202020312E3336373320202020302E3131353020202020302E303030302043202020302020302020302020302020302020302020302020302020302020302020302020300A2020202D322E3431353820202020312E3235373520202020302E303030302048202020302020302020302020302020302020302020302020302020302020302020302020300A20202020322E3038313820202020302E3532373520202020302E303030302043202020302020302020302020302020302020302020302020302020302020302020302020300A20202020322E3739363320202020302E3131353020202020302E303030302043202020302020302020302020302020302020302020302020302020302020302020302020300A2020312020322020312020302020202020200A2020322020332020322020302020202020200A2020332020342020312020302020202020200A2020342020352020312020302020202020200A2020312020352020312020302020202020200A2020312020362020322020302020202020200A2020372020382020312020302020202020200A2020382020392020312020302020202020200A2020392031302020312020302020202020200A2020322020372020312020302020202020200A2020332031312020312020302020202020200A2031302031322020312020302020202020200A2031322031332020312020302020202020200A4D2020454E44
Contributor: TAKEUCHI T, DEP. CHEMISTRY, FAC. SCIENCE, NARA WOMEN'S UNIV.
InstType: EI
InstName: HITACHI M-80
IoniMethod: _ENERGY 20 eV
IonPolarity: pos
Date: 2010-10-09 19:48:36+02:00
Num Peaks: 22
28 52 29 41 41 100 43 188 54 47 55 132 67 269 68 231 81 176 84 104 
96 900 97 999 109 373 110 236 123 352 124 84 137 321 138 58 151 34 165 37 
166 219 167 27 
