Name: ACETOIN ACETATE
MW: 130
Formula: C6H10O3
Synonym: MassBank: JP008550
Synonym: ACETOIN ACETATE
Synonym: 1-ACETYLETHYL ACETATE
Structure: 310A32320A414345544F494E20414345544154452E6D6F6C0A20204368656D447261773131313730393231313232440A2020392020382020302020302020302020302020302020302020302020303939392056323030300A2020202D302E3335373220202020302E3230363220202020302E303030302043202020302020302020302020302020302020302020302020302020302020302020302020300A2020202D302E3335373220202020312E3033313220202020302E303030302043202020302020302020302020302020302020302020302020302020302020302020302020300A2020202D312E303731372020202D302E3230363320202020302E303030302043202020302020302020302020302020302020302020302020302020302020302020302020300A2020202D312E303731372020202D312E3033313220202020302E30303030204F202020302020302020302020302020302020302020302020302020302020302020302020300A2020202D312E3738363220202020302E3230363220202020302E303030302043202020302020302020302020302020302020302020302020302020302020302020302020300A20202020312E3037313720202020302E3230363220202020302E303030302043202020302020302020302020302020302020302020302020302020302020302020302020300A20202020312E373836322020202D302E3230363320202020302E303030302043202020302020302020302020302020302020302020302020302020302020302020302020300A20202020312E3037313720202020312E3033313220202020302E30303030204F202020302020302020302020302020302020302020302020302020302020302020302020300A20202020302E333537322020202D302E3230363320202020302E30303030204F202020302020302020302020302020302020302020302020302020302020302020302020300A2020312020322020312020302020202020200A2020332020342020322020302020202020200A2020332020352020312020302020202020200A2020312020332020312020302020202020200A2020362020372020312020302020202020200A2020362020382020322020302020202020200A2020362020392020312020302020202020200A2020312020392020312020302020202020200A4D2020454E44
Contributor: SODA AROMATIC CO., LTD.
InstType: EI
InstName: HITACHI M-80B
IoniMethod: _ENERGY 70 eV
IonPolarity: pos
Date: 2010-10-09 19:48:36+02:00
Num Peaks: 10
15 45 27 23 42 27 43 999 44 24 45 37 86 14 87 144 88 11 130 26 
