Name: ETHOXY DIMETHOXY PHENYLSILANE
MW: 212
Formula: C10H16O3Si
Synonym: MassBank: JP004956
Synonym: ETHOXY DIMETHOXY PHENYLSILANE
Structure: 4554484F58592044494D4554484F5859205048454E594C53494C414E452E6D6F6C0A20204368656D447261773038313131303138303032440A2031342031342020302020302020302020302020302020302020302020303939392056323030300A2020202D302E3234363720202020302E3131303520202020302E303030302053692020302020302020302020302020302020302020302020302020302020302020302020300A20202020302E343637382020202D302E3330323020202020302E303030302043202020302020302020302020302020302020302020302020302020302020302020302020300A20202020312E3138323220202020302E3131303520202020302E303030302043202020302020302020302020302020302020302020302020302020302020302020302020300A20202020312E383936372020202D302E3330323020202020302E303030302043202020302020302020302020302020302020302020302020302020302020302020302020300A20202020312E383936372020202D312E3132373020202020302E303030302043202020302020302020302020302020302020302020302020302020302020302020302020300A20202020312E313832322020202D312E3533393520202020302E303030302043202020302020302020302020302020302020302020302020302020302020302020302020300A20202020302E343637382020202D312E3132373020202020302E303030302043202020302020302020302020302020302020302020302020302020302020302020302020300A20202020302E3136353820202020302E3832353020202020302E30303030204F202020302020302020302020302020302020302020302020302020302020302020302020300A2020202D302E3234363720202020312E3533393520202020302E303030302043202020302020302020302020302020302020302020302020302020302020302020302020300A2020202D302E3936313220202020302E3532333020202020302E30303030204F202020302020302020302020302020302020302020302020302020302020302020302020300A2020202D312E3637353620202020302E3131303520202020302E303030302043202020302020302020302020302020302020302020302020302020302020302020302020300A2020202D302E363539322020202D302E3630333920202020302E30303030204F202020302020302020302020302020302020302020302020302020302020302020302020300A2020202D312E343834322020202D302E3630333920202020302E303030302043202020302020302020302020302020302020302020302020302020302020302020302020300A2020202D312E383936372020202D312E3331383420202020302E303030302043202020302020302020302020302020302020302020302020302020302020302020302020300A2020322020332020312020302020202020200A2020332020342020322020302020202020200A2020342020352020312020302020202020200A2020352020362020322020302020202020200A2020362020372020312020302020202020200A2020322020372020322020302020202020200A2020312020322020312020302020202020200A2020382020392020312020302020202020200A2020312020382020312020302020202020200A2031302031312020312020302020202020200A2020312031302020312020302020202020200A2031332031342020312020302020202020200A2031322031332020312020302020202020200A2020312031322020312020302020202020200A4D2020454E44
Contributor: MASS SPECTROSCOPY SOC. OF JAPAN (MSSJ)
InstType: EI
InstName: JEOL JMS-D-3000
IoniMethod: _ENERGY 70 eV
IonPolarity: pos
Date: 2010-10-09 19:48:36+02:00
Num Peaks: 19
59 151 77 188 84 93 90 230 91 404 104 249 105 111 107 611 119 777 120 114 
121 98 123 119 134 827 135 205 136 115 137 252 167 999 168 165 212 396 
