Name: DIETHYLENE GLYCOL DIBUTYL ETHER
MW: 218
Formula: C12H26O3
Synonym: MassBank: JP009317
Synonym: DIETHYLENE GLYCOL DIBUTYL ETHER
Structure: 4449455448594C454E4520474C59434F4C204449425554594C2045544845522E6D6F6C0A20204368656D447261773039323131303230313432440A2031352031342020302020302020302020302020302020302020302020303939392056323030300A2020202D312E3432383920202020302E3230363320202020302E303030302043202020302020302020302020302020302020302020302020302020302020302020302020300A2020202D302E373134352020202D302E3230363320202020302E303030302043202020302020302020302020302020302020302020302020302020302020302020302020300A2020202D322E313433342020202D302E3230363320202020302E30303030204F202020302020302020302020302020302020302020302020302020302020302020302020300A20202020302E3030303020202020302E3230363320202020302E30303030204F202020302020302020302020302020302020302020302020302020302020302020302020300A20202020302E373134352020202D302E3230363220202020302E303030302043202020302020302020302020302020302020302020302020302020302020302020302020300A20202020312E3432383920202020302E3230363320202020302E303030302043202020302020302020302020302020302020302020302020302020302020302020302020300A20202020322E313433342020202D302E3230363220202020302E30303030204F202020302020302020302020302020302020302020302020302020302020302020302020300A2020202D322E3835373920202020302E3230363220202020302E303030302043202020302020302020302020302020302020302020302020302020302020302020302020300A2020202D332E353732342020202D302E3230363320202020302E303030302043202020302020302020302020302020302020302020302020302020302020302020302020300A2020202D342E3238363820202020302E3230363220202020302E303030302043202020302020302020302020302020302020302020302020302020302020302020302020300A2020202D352E303031332020202D302E3230363320202020302E303030302043202020302020302020302020302020302020302020302020302020302020302020302020300A20202020322E3835373920202020302E3230363320202020302E303030302043202020302020302020302020302020302020302020302020302020302020302020302020300A20202020332E353732342020202D302E3230363220202020302E303030302043202020302020302020302020302020302020302020302020302020302020302020302020300A20202020342E3238363820202020302E3230363320202020302E303030302043202020302020302020302020302020302020302020302020302020302020302020302020300A20202020352E303031332020202D302E3230363220202020302E303030302043202020302020302020302020302020302020302020302020302020302020302020302020300A2020312020322020312020302020202020200A2020312020332020312020302020202020200A2020322020342020312020302020202020200A2020352020362020312020302020202020200A2020362020372020312020302020202020200A2020342020352020312020302020202020200A2020382020392020312020302020202020200A2020392031302020312020302020202020200A2031302031312020312020302020202020200A2020332020382020312020302020202020200A2031322031332020312020302020202020200A2031332031342020312020302020202020200A2031342031352020312020302020202020200A2020372031322020312020302020202020200A4D2020454E44
Contributor: YAMAMOTO M, DEP. CHEMISTRY, FAC. SCIENCE, NARA WOMEN'S UNIV.
InstType: EI
InstName: HITACHI RMU-6M
IoniMethod: _ENERGY 20 eV
IonPolarity: pos
Date: 2010-10-09 19:48:36+02:00
Num Peaks: 42
29 61 41 120 42 13 43 3 44 59 45 475 46 13 55 5 56 540 57 999 
58 46 59 21 60 13 61 15 63 20 69 3 71 83 72 142 73 61 74 1 
75 344 76 15 82 13 83 2 85 306 86 24 87 142 88 2 89 68 98 11 
99 18 100 33 101 221 102 18 103 44 116 3 117 59 118 24 131 81 132 1 
144 81 145 15 
