Name: MassBank: JP005359
MW: 292
Formula: C19H32O2
Synonym: MassBank: JP005359
Synonym: (Z,Z,Z)-6,9,15-OCTADECATRIENOIC ACID METHYL ESTER
Structure: 285A2C5A2C5A292D362C392C31352D4F43544144454341545249454E4F49432041434944204D455448594C2045535445522E6D6F6C0A20204368656D447261773130323230393232323232440A2032372032362020302020302020302020302020302020302020302020303939392056323030300A2020202D322E3530303620202020312E3635303020202020302E303030302043202020302020302020302020302020302020302020302020302020302020302020302020300A2020202D322E3530303620202020302E3832353020202020302E303030302043202020302020302020302020302020302020302020302020302020302020302020302020300A2020202D312E3738363220202020302E3431323520202020302E303030302043202020302020302020302020302020302020302020302020302020302020302020302020300A2020202D312E373836322020202D302E3431323520202020302E303030302043202020302020302020302020302020302020302020302020302020302020302020302020300A2020202D312E303731372020202D302E3832353020202020302E303030302043202020302020302020302020302020302020302020302020302020302020302020302020300A2020202D312E303731372020202D312E3635303020202020302E303030302043202020302020302020302020302020302020302020302020302020302020302020302020300A2020202D302E333537322020202D322E3036323520202020302E303030302043202020302020302020302020302020302020302020302020302020302020302020302020300A20202020302E333537322020202D312E3635303020202020302E303030302043202020302020302020302020302020302020302020302020302020302020302020302020300A20202020312E303731372020202D322E3036323520202020302E303030302043202020302020302020302020302020302020302020302020302020302020302020302020300A20202020312E373836322020202D312E3635303020202020302E303030302043202020302020302020302020302020302020302020302020302020302020302020302020300A20202020312E373836322020202D302E3832353020202020302E303030302043202020302020302020302020302020302020302020302020302020302020302020302020300A20202020322E353030362020202D302E3431323520202020302E303030302043202020302020302020302020302020302020302020302020302020302020302020302020300A20202020322E3530303620202020302E3431323520202020302E303030302043202020302020302020302020302020302020302020302020302020302020302020302020300A20202020332E3231353120202020302E3832353020202020302E303030302043202020302020302020302020302020302020302020302020302020302020302020302020300A20202020332E3231353120202020312E3635303020202020302E303030302043202020302020302020302020302020302020302020302020302020302020302020302020300A20202020322E3530303620202020322E3036323520202020302E303030302043202020302020302020302020302020302020302020302020302020302020302020302020300A20202020312E3738363220202020312E3635303020202020302E303030302043202020302020302020302020302020302020302020302020302020302020302020302020300A20202020312E3738363220202020302E3832353020202020302E303030302043202020302020302020302020302020302020302020302020302020302020302020302020300A2020202D312E3738353320202020322E3036323520202020302E30303030204F202020302020302020302020302020302020302020302020302020302020302020302020300A2020202D332E3231333920202020322E3036323520202020302E30303030204F202020302020302020302020302020302020302020302020302020302020302020302020300A2020202D332E3932393620202020312E3635303020202020302E303030302043202020302020302020302020302020302020302020302020302020302020302020302020300A2020202D312E373836322020202D322E3036323520202020302E303030302048202020302020302020302020302020302020302020302020302020302020302020302020300A2020202D302E333537322020202D322E3838373520202020302E303030302048202020302020302020302020302020302020302020302020302020302020302020302020300A20202020312E303731372020202D322E3838373520202020302E303030302048202020302020302020302020302020302020302020302020302020302020302020302020300A20202020322E353030362020202D322E3036323520202020302E303030302048202020302020302020302020302020302020302020302020302020302020302020302020300A20202020332E3932393620202020322E3036323520202020302E303030302048202020302020302020302020302020302020302020302020302020302020302020302020300A20202020322E3530303620202020322E3838373520202020302E303030302048202020302020302020302020302020302020302020302020302020302020302020302020300A2020312020322020312020302020202020200A2020322020332020312020302020202020200A2020332020342020312020302020202020200A2020342020352020312020302020202020200A2020352020362020312020302020202020200A2020362020372020322020302020202020200A2020372020382020312020302020202020200A2020382020392020312020302020202020200A2020392031302020322020302020202020200A2031302031312020312020302020202020200A2031312031322020312020302020202020200A2031322031332020312020302020202020200A2031332031342020312020302020202020200A2031342031352020312020302020202020200A2031352031362020322020302020202020200A2031362031372020312020302020202020200A2031372031382020312020302020202020200A2020312031392020322020302020202020200A2020312032302020312020302020202020200A2032302032312020312020302020202020200A2020362032322020312020302020202020200A2020372032332020312020302020202020200A2020392032342020312020302020202020200A2031302032352020312020302020202020200A2031352032362020312020302020202020200A2031362032372020312020302020202020200A4D2020454E44
Contributor: YAMAOKA R, KYOTO INSTITUTE OF TECHNOLOGY
InstType: EI
InstName: HITACHI M-80B
IoniMethod: _ENERGY 70 eV
IonPolarity: pos
Date: 2010-10-09 19:48:36+02:00
Num Peaks: 95
40 46 41 999 42 109 43 120 44 4 45 41 51 8 52 6 53 202 54 165 
55 516 56 41 57 64 59 219 65 54 66 85 67 822 68 156 69 206 71 19 
74 70 76 3 77 162 78 59 79 529 80 285 81 495 82 228 83 75 84 6 
85 43 87 89 88 12 90 3 91 160 92 62 93 284 94 213 95 300 96 92 
97 30 98 10 99 6 101 14 103 4 104 9 105 59 106 45 107 156 108 109 
109 102 110 75 111 20 115 4 117 5 118 4 119 55 120 38 121 210 122 94 
123 66 124 34 129 11 131 18 133 31 134 14 135 122 136 83 137 25 138 6 
140 6 145 4 147 22 148 8 149 107 150 66 151 12 154 11 155 3 161 15 
163 96 164 38 168 9 173 5 176 5 177 25 178 4 191 4 196 6 210 25 
249 22 250 4 263 38 264 6 292 7 
