Name: NERYL PROPIONATE
MW: 210
Formula: C13H22O2
Synonym: MassBank: JP006913
Synonym: NERYL PROPIONATE
Synonym: (Z)-3,7-DIMETHYL-2,6-OCTADIENYL PROPIONATE
Structure: 285A292D332C372D44494D455448594C2D322C362D4F4354414449454E594C2050524F50494F4E4154452E6D6F6C0A20204368656D447261773130323230393231313332440A2031362031352020302020302020302020302020302020302020302020303939392056323030300A2020202D322E3838373520202020302E3731343320202020302E303030302043202020302020302020302020302020302020302020302020302020302020302020302020300A2020202D322E3036323520202020302E3731343320202020302E303030302043202020302020302020302020302020302020302020302020302020302020302020302020300A2020202D332E3239393920202020312E3432383620202020302E303030302043202020302020302020302020302020302020302020302020302020302020302020302020300A2020202D332E333030302020202D302E3030303220202020302E303030302043202020302020302020302020302020302020302020302020302020302020302020302020300A2020202D312E363439392020202D302E3030303220202020302E303030302043202020302020302020302020302020302020302020302020302020302020302020302020300A2020202D302E383235302020202D302E3030303120202020302E303030302043202020302020302020302020302020302020302020302020302020302020302020302020300A2020202D302E343132352020202D302E3731343520202020302E303030302043202020302020302020302020302020302020302020302020302020302020302020302020300A20202020302E343132352020202D302E3731343520202020302E303030302043202020302020302020302020302020302020302020302020302020302020302020302020300A2020202D302E383235302020202D312E3432393020202020302E303030302043202020302020302020302020302020302020302020302020302020302020302020302020300A20202020302E383235302020202D312E3432383920202020302E303030302048202020302020302020302020302020302020302020302020302020302020302020302020300A20202020302E3832353020202020302E3030303020202020302E303030302043202020302020302020302020302020302020302020302020302020302020302020302020300A20202020312E3635303020202020302E3030303020202020302E30303030204F202020302020302020302020302020302020302020302020302020302020302020302020300A20202020322E3036323520202020302E3731343420202020302E303030302043202020302020302020302020302020302020302020302020302020302020302020302020300A20202020312E3635303120202020312E3432393020202020302E30303030204F202020302020302020302020302020302020302020302020302020302020302020302020300A20202020322E3838373520202020302E3731343520202020302E303030302043202020302020302020302020302020302020302020302020302020302020302020302020300A20202020332E3330303020202020312E3432383920202020302E303030302043202020302020302020302020302020302020302020302020302020302020302020302020300A2020312020322020322020302020202020200A2020312020332020312020302020202020200A2020312020342020312020302020202020200A2020322020352020312020302020202020200A2020352020362020312020302020202020200A2020362020372020312020302020202020200A2020372020382020322020302020202020200A2020372020392020312020302020202020200A2020382031302020312020302020202020200A2020382031312020312020302020202020200A2031312031322020312020302020202020200A2031322031332020312020302020202020200A2031332031342020322020302020202020200A2031332031352020312020302020202020200A2031352031362020312020302020202020200A4D2020454E44
Contributor: TAJIMA S, GUNMA COLLEGE OF TECHNOLOGY
InstType: EI
InstName: HITACHI M-80B
IoniMethod: _ENERGY 70 eV
IonPolarity: pos
Date: 2010-10-09 19:48:36+02:00
Num Peaks: 42
27 89 29 239 39 89 40 26 41 515 42 31 43 41 51 12 53 95 55 46 
57 502 58 13 65 17 66 11 67 127 68 492 69 999 70 56 77 29 79 49 
80 228 81 106 82 13 83 13 84 49 85 33 91 30 92 96 93 452 94 74 
95 28 97 12 105 15 107 57 108 14 109 10 121 185 122 18 123 19 136 181 
137 35 154 21 
