Name: 2-CYANOMETHYL-3-METHYLAMINO-2-BUTEN-4-OLIDE
MW: 152
Formula: C7H8N2O2
Synonym: MassBank: JP008125
Synonym: 2-CYANOMETHYL-3-METHYLAMINO-2-BUTEN-4-OLIDE
Structure: 322D4359414E4F4D455448594C2D332D4D455448594C414D494E4F2D322D425554454E2D342D4F4C4944452E6D6F6C0A20204368656D447261773031303331303132303632440A2031312031312020302020302020302020302020302020302020302020303939392056323030300A2020202D302E3637353220202020302E3935393120202020302E303030302043202020302020302020302020302020302020302020302020302020302020302020302020300A2020202D302E3139303220202020302E3239313720202020302E303030302043202020302020302020302020302020302020302020302020302020302020302020302020300A2020202D302E363735322020202D302E3337353820202020302E303030302043202020302020302020302020302020302020302020302020302020302020302020302020300A2020202D312E343539382020202D302E3132303820202020302E303030302043202020302020302020302020302020302020302020302020302020302020302020302020300A2020202D302E343230322020202D312E3136303420202020302E30303030204E202020302020302020302020302020302020302020302020302020302020302020302020300A2020202D312E303033362020202D312E3734333720202020302E303030302043202020302020302020302020302020302020302020302020302020302020302020302020300A20202020302E3633343820202020302E3239313720202020302E303030302043202020302020302020302020302020302020302020302020302020302020302020302020300A20202020312E303437332020202D302E3432323820202020302E303030302043202020302020302020302020302020302020302020302020302020302020302020302020300A20202020312E343539382020202D312E3133373320202020302E30303030204E202020302020302020302020302020302020302020302020302020302020302020302020300A2020202D302E3432303220202020312E3734333720202020302E30303030204F202020302020302020302020302020302020302020302020302020302020302020302020300A2020202D312E3435393820202020302E3730343220202020302E30303030204F202020302020302020302020302020302020302020302020302020302020302020302020300A2020312020322020312020302020202020200A2020322020332020322020302020202020200A2020332020342020312020302020202020200A2020352020362020312020302020202020200A2020332020352020312020302020202020200A2020382020392020332020302020202020200A2020372020382020312020302020202020200A2020322020372020312020302020202020200A2020312031302020322020302020202020200A2020312031312020312020302020202020200A2020342031312020312020302020202020200A4D2020454E44
Contributor: YAMAMOTO M, DEP. CHEMISTRY, FAC. SCIENCE, NARA WOMEN'S UNIV.
InstType: EI
InstName: JEOL JMS-HX-100
IoniMethod: _ENERGY 70 eV
IonPolarity: pos
Date: 2010-10-09 19:48:36+02:00
Num Peaks: 62
38 5 39 40 40 7 41 33 42 105 43 5 44 14 50 4 51 17 52 79 
53 42 54 37 55 58 56 22 58 23 64 10 65 21 66 115 67 125 68 133 
69 24 72 101 73 7 76 4 77 19 78 40 79 243 80 127 81 45 82 46 
83 13 84 7 91 12 92 15 93 79 94 99 95 47 96 75 97 29 98 5 
105 33 106 254 107 384 108 96 109 16 112 19 119 15 121 39 122 10 123 71 
124 76 125 34 126 19 133 37 134 84 135 15 136 3 137 12 151 71 152 999 
153 106 154 10 
