Name: 3-HEPTENYLTRIMETHYLSTANNANE
MW: 262
Formula: C10H22Sn
Synonym: MassBank: JP004961
Synonym: 3-HEPTENYLTRIMETHYLSTANNANE
Synonym: 1-TRIMETHYLSTANNYL-3-HEPTENE
Structure: 332D48455054454E594C5452494D455448594C5354414E4E414E452E6D6F6C0A20204368656D447261773131323230393232353832440A2031312031302020302020302020302020302020302020302020302020303939392056323030300A2020202D312E373330392020202D302E3631383720202020302E303030302043202020302020302020302020302020302020302020302020302020302020302020302020300A2020202D312E303136342020202D312E3033313320202020302E303030302043202020302020302020302020302020302020302020302020302020302020302020302020300A2020202D302E333032302020202D302E3631383720202020302E303030302043202020302020302020302020302020302020302020302020302020302020302020302020300A20202020302E343132352020202D312E3033313220202020302E303030302043202020302020302020302020302020302020302020302020302020302020302020302020300A20202020312E313237302020202D302E3631383820202020302E303030302043202020302020302020302020302020302020302020302020302020302020302020302020300A20202020312E383431342020202D312E3033313320202020302E303030302043202020302020302020302020302020302020302020302020302020302020302020302020300A20202020322E353535392020202D302E3631383820202020302E303030302043202020302020302020302020302020302020302020302020302020302020302020302020300A2020202D312E3733303920202020302E3230363320202020302E3030303020536E2020302020302020302020302020302020302020302020302020302020302020302020300A2020202D302E3930353920202020302E3230363320202020302E303030302043202020302020302020302020302020302020302020302020302020302020302020302020300A2020202D312E3733303920202020312E3033313320202020302E303030302043202020302020302020302020302020302020302020302020302020302020302020302020300A2020202D322E3535353920202020302E3230363320202020302E303030302043202020302020302020302020302020302020302020302020302020302020302020302020300A2020312020322020312020302020202020200A2020322020332020312020302020202020200A2020332020342020322020302020202020200A2020342020352020312020302020202020200A2020352020362020312020302020202020200A2020362020372020312020302020202020200A2020382020392020312020312020202020200A2020382031302020312020302020202020200A2020382031312020312020312020202020200A2020312020382020312020302020202020200A4D2020454E44
Contributor: MASS SPECTROSCOPY SOC. OF JAPAN (MSSJ)
InstType: EI
InstName: JEOL JMS-D-3000
IoniMethod: _ENERGY 70 eV
IonPolarity: pos
Date: 2010-10-09 19:48:36+02:00
Num Peaks: 38
41 55 55 69 118 75 120 51 131 108 132 104 133 182 134 79 135 240 137 54 
139 64 146 63 147 198 148 147 149 312 150 177 151 357 153 85 155 67 157 50 
161 452 162 251 163 751 164 289 165 999 166 53 167 152 169 186 243 158 244 96 
245 261 246 116 247 341 248 52 249 75 251 92 260 54 262 72 
