Name: 5-NITROACENAPHTHENE
MW: 199
Formula: C12H9NO2
Synonym: MassBank: JP001620
Synonym: 5-NITROACENAPHTHENE
Structure: 352D4E4954524F4143454E4150485448454E452E6D6F6C0A20204368656D447261773034323331303037333032440A2031352031372020302020302020302020302020302020302020302020303939392056323030300A2020202D302E3431313220202020312E3832373920202020302E303030302043202020302020302020302020302020302020302020302020302020302020302020302020300A20202020302E3431333820202020312E3832373920202020302E303030302043202020302020302020302020302020302020302020302020302020302020302020302020300A20202020302E3731343520202020312E3035393620202020302E303030302043202020302020302020302020302020302020302020302020302020302020302020302020300A20202020312E3432383920202020302E3634373120202020302E303030302043202020302020302020302020302020302020302020302020302020302020302020302020300A20202020312E343238392020202D302E3137373920202020302E303030302043202020302020302020302020302020302020302020302020302020302020302020302020300A20202020302E373134352020202D302E3539303420202020302E303030302043202020302020302020302020302020302020302020302020302020302020302020302020300A2020202D302E303030302020202D302E3137373920202020302E303030302043202020302020302020302020302020302020302020302020302020302020302020302020300A2020202D302E373134352020202D302E3539303420202020302E303030302043202020302020302020302020302020302020302020302020302020302020302020302020300A2020202D312E343238392020202D302E3137373920202020302E303030302043202020302020302020302020302020302020302020302020302020302020302020302020300A2020202D312E3432383920202020302E3634373120202020302E303030302043202020302020302020302020302020302020302020302020302020302020302020302020300A2020202D302E3731343520202020312E3035393620202020302E303030302043202020302020302020302020302020302020302020302020302020302020302020302020300A20202020302E3030303020202020302E3634373120202020302E303030302043202020302020302020302020302020302020302020302020302020302020302020302020300A20202020302E373134352020202D312E3431353420202020302E30303030204E202020302020332020302020302020302020302020302020302020302020302020302020300A20202020312E343238392020202D312E3832373920202020302E30303030204F202020302020302020302020302020302020302020302020302020302020302020302020300A2020202D302E303030302020202D312E3832373920202020302E30303030204F202020302020352020302020302020302020302020302020302020302020302020302020300A2020312020322020312020302020202020200A2020322020332020312020302020202020200A2020332020342020312020302020202020200A2020342020352020322020302020202020200A2020352020362020312020302020202020200A2020362020372020322020302020202020200A2020372020382020312020302020202020200A2020382020392020322020302020202020200A2020392031302020312020302020202020200A2031302031312020322020302020202020200A2020312031312020312020302020202020200A2031312031322020312020302020202020200A2020332031322020322020302020202020200A2020372031322020312020302020202020200A2031332031342020322020302020202020200A2031332031352020312020302020202020200A2020362031332020312020302020202020200A4D202043484720203220203133202020312020313520202D310A4D2020454E44
Contributor: KOGA M, UNIV. OF OCCUPATIONAL AND ENVIRONMENTAL HEALTH
InstType: EI
InstName: VARIAN MAT-44
IoniMethod: _ENERGY 70 eV
IonPolarity: pos
Date: 2010-10-09 19:48:36+02:00
Num Peaks: 65
40 12 43 11 46 103 49 13 50 155 51 185 52 41 53 11 61 37 62 120 
63 266 64 31 65 23 73 17 74 139 75 201 76 206 77 86 78 13 85 19 
86 58 87 78 88 26 89 37 91 11 98 50 99 45 100 26 101 34 102 38 
110 13 111 16 113 30 114 28 115 242 116 51 122 11 125 30 126 103 127 76 
128 23 129 15 138 12 139 100 140 58 141 316 142 77 143 42 144 20 149 24 
150 183 151 402 152 999 153 419 154 65 168 30 169 249 170 55 171 23 181 13 
182 132 183 40 198 107 199 495 200 89 
