Name: DIMETHYLHYDRAZONE METHYLISOBUTYLKETONE
MW: 142
Formula: C8H18N2
Synonym: MassBank: JP000853
Synonym: DIMETHYLHYDRAZONE METHYLISOBUTYLKETONE
Synonym: 4-METHYL-2-PENTANONE DIMETHYLHYDRAZONE
Structure: 44494D455448594C48594452415A4F4E45204D455448594C49534F425554594C4B45544F4E452E6D6F6C0A20204368656D447261773034323131303031353032440A2031302020392020302020302020302020302020302020302020302020303939392056323030300A20202020302E3631383720202020312E3037313720202020302E303030302043202020302020302020302020302020302020302020302020302020302020302020302020300A20202020302E3230363220202020302E3335373220202020302E303030302043202020302020302020302020302020302020302020302020302020302020302020302020300A20202020302E363138372020202D302E3335373220202020302E303030302043202020302020302020302020302020302020302020302020302020302020302020302020300A20202020312E343433372020202D302E3335373220202020302E303030302043202020302020302020302020302020302020302020302020302020302020302020302020300A20202020312E3835363320202020302E3335373220202020302E303030302043202020302020302020302020302020302020302020302020302020302020302020302020300A20202020312E383536322020202D312E3037313720202020302E303030302043202020302020302020302020302020302020302020302020302020302020302020302020300A2020202D302E3631383820202020302E3335373220202020302E30303030204E202020302020302020302020302020302020302020302020302020302020302020302020300A2020202D312E303331332020202D302E3335373220202020302E30303030204E202020302020302020302020302020302020302020302020302020302020302020302020300A2020202D302E363138382020202D312E3037313720202020302E303030302043202020302020302020302020302020302020302020302020302020302020302020302020300A2020202D312E383536332020202D302E3335373220202020302E303030302043202020302020302020302020302020302020302020302020302020302020302020302020300A2020312020322020312020302020202020200A2020322020332020312020302020202020200A2020332020342020312020302020202020200A2020342020352020312020302020202020200A2020342020362020312020302020202020200A2020372020382020312020302020202020200A2020382020392020312020302020202020200A2020382031302020312020302020202020200A2020322020372020322020302020202020200A4D2020454E44
Contributor: SASAKI S, TOYOHASHI UNIV. OF TECH.
InstType: EI
InstName: SHIMADZU LKB-2091
IoniMethod: _ENERGY 70 eV
IonPolarity: pos
Date: 2010-10-09 19:48:36+02:00
Num Peaks: 38
28 141 29 156 30 69 39 14 40 34 41 297 42 562 43 31 44 999 45 781 
46 94 53 2 54 20 55 53 56 595 57 15 58 469 59 94 69 18 70 3 
71 59 81 13 82 59 83 2 84 125 85 250 86 225 87 1 96 28 97 20 
98 63 99 27 100 297 101 22 127 94 141 1 142 500 143 69 
