Name: CYCLOPENTYLACETIC ACID METHYL ESTER
MW: 142
Formula: C8H14O2
Synonym: MassBank: JP002216
Synonym: CYCLOPENTYLACETIC ACID METHYL ESTER
Structure: 4359434C4F50454E54594C4143455449432041434944204D455448594C2045535445522E6D6F6C0A20204368656D447261773039323031303039303932440A2031302031302020302020302020302020302020302020302020302020303939392056323030300A20202020302E363334382020202D302E3333333720202020302E303030302043202020302020302020302020302020302020302020302020302020302020302020302020300A20202020302E3232323320202020302E3338303820202020302E303030302043202020302020302020302020302020302020302020302020302020302020302020302020300A20202020302E323232332020202D312E3034383220202020302E30303030204F202020302020302020302020302020302020302020302020302020302020302020302020300A20202020312E343539382020202D302E3333333720202020302E30303030204F202020302020302020302020302020302020302020302020302020302020302020302020300A2020202D302E3630323720202020302E3338303820202020302E303030302043202020302020302020302020302020302020302020302020302020302020302020302020300A2020202D312E303837372020202D302E3238363720202020302E303030302043202020302020302020302020302020302020302020302020302020302020302020302020300A2020202D312E383732332020202D302E3033313720202020302E303030302043202020302020302020302020302020302020302020302020302020302020302020302020300A2020202D312E3837323320202020302E3739333320202020302E303030302043202020302020302020302020302020302020302020302020302020302020302020302020300A2020202D312E3038373720202020312E3034383220202020302E303030302043202020302020302020302020302020302020302020302020302020302020302020302020300A20202020312E3837323320202020302E3338303820202020302E303030302043202020302020302020302020302020302020302020302020302020302020302020302020300A2020312020322020312020302020202020200A2020312020332020322020302020202020200A2020312020342020312020302020202020200A2020352020362020312020302020202020200A2020362020372020312020302020202020200A2020372020382020312020302020202020200A2020382020392020312020302020202020200A2020352020392020312020302020202020200A2020322020352020312020302020202020200A2020342031302020312020302020202020200A4D2020454E44
Contributor: KOGA M, UNIV. OF OCCUPATIONAL AND ENVIRONMENTAL HEALTH
InstType: EI
InstName: JEOL JMS-01-SG
IoniMethod: _ENERGY 70 eV
IonPolarity: pos
Date: 2010-10-09 19:48:36+02:00
Num Peaks: 51
38 20 39 326 41 718 42 13 43 829 50 25 51 10 52 3 53 135 54 160 
55 663 56 5 58 25 61 15 63 15 66 6 67 386 68 165 69 190 70 2 
71 15 72 55 74 768 75 999 76 50 78 15 79 50 80 2 81 100 82 160 
83 386 84 3 85 30 86 10 87 105 88 3 91 10 93 15 95 20 99 31 
100 50 101 30 109 35 110 5 111 396 112 30 113 291 114 5 127 35 142 60 
143 15 
