Name: HYDROXYCITRONELLAL
MW: 172
Formula: C10H20O2
Synonym: MassBank: JP008390
Synonym: HYDROXYCITRONELLAL
Synonym: 3,7-DIMETHYL-7-HYDROXYOCTANAL
Structure: 485944524F5859434954524F4E454C4C414C2E6D6F6C0A20204368656D447261773032323231303038333032440A2031322031312020302020302020302020302020302020302020302020303939392056323030300A20202020322E3030373220202020302E3335373220202020302E303030302043202020302020302020302020302020302020302020302020302020302020302020302020300A20202020312E3138323220202020302E3335373220202020302E303030302043202020302020302020302020302020302020302020302020302020302020302020302020300A20202020302E373639372020202D302E3335373220202020302E303030302043202020302020302020302020302020302020302020302020302020302020302020302020300A2020202D302E303535332020202D302E3335373220202020302E303030302043202020302020302020302020302020302020302020302020302020302020302020302020300A2020202D302E3436373820202020302E3335373220202020302E303030302043202020302020302020302020302020302020302020302020302020302020302020302020300A2020202D312E3239323820202020302E3335373220202020302E303030302043202020302020302020302020302020302020302020302020302020302020302020302020300A2020202D312E373035332020202D302E3335373220202020302E303030302043202020302020302020302020302020302020302020302020302020302020302020302020300A2020202D302E393930382020202D302E3736393720202020302E303030302043202020302020302020302020302020302020302020302020302020302020302020302020300A20202020322E3431393720202020312E3037313720202020302E30303030204F202020302020302020302020302020302020302020302020302020302020302020302020300A2020202D322E313137382020202D312E3037313720202020302E30303030204F202020302020302020302020302020302020302020302020302020302020302020302020300A2020202D322E3431393720202020302E3035353320202020302E303030302043202020302020302020302020302020302020302020302020302020302020302020302020300A20202020312E313832322020202D312E3037313720202020302E303030302043202020302020302020302020302020302020302020302020302020302020302020302020300A2020312020322020312020302020202020200A2020322020332020312020302020202020200A2020332020342020312020302020202020200A2020342020352020312020302020202020200A2020352020362020312020302020202020200A2020362020372020312020302020202020200A2020372020382020312020302020202020200A2020312020392020322020302020202020200A2020372031302020312020302020202020200A2020372031312020312020302020202020200A2020332031322020312020302020202020200A4D2020454E44
Contributor: SODA AROMATIC CO., LTD.
InstType: EI
InstName: HITACHI M-80B
IoniMethod: _ENERGY 70 eV
IonPolarity: pos
Date: 2010-10-09 19:48:36+02:00
Num Peaks: 36
15 13 27 72 29 82 31 81 39 71 41 205 42 31 43 482 44 28 45 18 
53 20 55 119 56 44 57 49 58 37 59 999 60 26 67 19 68 15 69 106 
70 22 71 345 72 15 81 87 83 13 85 15 93 10 95 76 96 97 97 19 
110 19 111 30 113 29 114 40 121 32 139 30 
