Name: MassBank: JP006803
MW: 128
Formula: C7H12O2
Synonym: MassBank: JP006803
Synonym: 3-ETHYL-2,4-PENTANEDIONE
Structure: 310A32320A332D455448594C2D322C342D50454E54414E4544494F4E452E6D6F6C0A20204368656D447261773032323231303137343532440A2020392020382020302020302020302020302020302020302020302020303939392056323030300A2020202D312E323337352020202D302E3731343520202020302E303030302043202020302020302020302020302020302020302020302020302020302020302020302020300A2020202D302E343132352020202D302E3731343520202020302E303030302043202020302020302020302020302020302020302020302020302020302020302020302020300A20202020302E3030303020202020302E3030303020202020302E303030302043202020302020302020302020302020302020302020302020302020302020302020302020300A2020202D302E3431323520202020302E3731343520202020302E303030302043202020302020302020302020302020302020302020302020302020302020302020302020300A2020202D312E3233373520202020302E3731343520202020302E303030302043202020302020302020302020302020302020302020302020302020302020302020302020300A20202020302E303030302020202D312E3432383920202020302E30303030204F202020302020302020302020302020302020302020302020302020302020302020302020300A2020202D302E3030303020202020312E3432383920202020302E30303030204F202020302020302020302020302020302020302020302020302020302020302020302020300A20202020302E3832353020202020302E3030303020202020302E303030302043202020302020302020302020302020302020302020302020302020302020302020302020300A20202020312E3233373520202020302E3731343520202020302E303030302043202020302020302020302020302020302020302020302020302020302020302020302020300A2020312020322020312020302020202020200A2020322020332020312020302020202020200A2020332020342020312020302020202020200A2020342020352020312020302020202020200A2020322020362020322020302020202020200A2020342020372020322020302020202020200A2020382020392020312020302020202020200A2020332020382020312020302020202020200A4D2020454E44
Contributor: TAJIMA S, GUNMA COLLEGE OF TECHNOLOGY
InstType: EI
InstName: HITACHI RMU-7M
IoniMethod: _ENERGY 70 eV
IonPolarity: pos
Date: 2010-10-09 19:48:36+02:00
Num Peaks: 24
15 59 27 41 29 21 31 11 39 44 41 47 42 23 43 999 44 23 45 15 
53 12 55 21 58 37 67 38 69 14 71 533 72 25 85 58 86 327 87 23 
100 46 113 68 128 34 129 14 
