Name: 3-HYDROXY-4-METHOXYBENZALDEHYDE
MW: 152
Formula: C8H8O3
Synonym: MassBank: JP008445
Synonym: 3-HYDROXY-4-METHOXYBENZALDEHYDE
Synonym: ISOVANILLIN
Structure: 332D485944524F58592D342D4D4554484F585942454E5A414C4445485944452E6D6F6C0A20204368656D447261773032323231303231323132440A2031312031312020302020302020302020302020302020302020302020303939392056323030300A2020202D312E363530302020202D302E3335373220202020302E303030302043202020302020302020302020302020302020302020302020302020302020302020302020300A2020202D302E383235302020202D302E3335373220202020302E303030302043202020302020302020302020302020302020302020302020302020302020302020302020300A2020202D302E3431323520202020302E3335373220202020302E303030302043202020302020302020302020302020302020302020302020302020302020302020302020300A20202020302E3431323520202020302E3335373220202020302E303030302043202020302020302020302020302020302020302020302020302020302020302020302020300A20202020302E383235302020202D302E3335373220202020302E303030302043202020302020302020302020302020302020302020302020302020302020302020302020300A20202020302E343132352020202D312E3037313720202020302E303030302043202020302020302020302020302020302020302020302020302020302020302020302020300A2020202D302E343132352020202D312E3037313720202020302E303030302043202020302020302020302020302020302020302020302020302020302020302020302020300A2020202D322E303632352020202D312E3037313720202020302E30303030204F202020302020302020302020302020302020302020302020302020302020302020302020300A20202020312E363530302020202D302E3335373220202020302E30303030204F202020302020302020302020302020302020302020302020302020302020302020302020300A20202020322E303632352020202D312E3037313720202020302E303030302043202020302020302020302020302020302020302020302020302020302020302020302020300A20202020302E3832353020202020312E3037313720202020302E30303030204F202020302020302020302020302020302020302020302020302020302020302020302020300A2020312020322020312020302020202020200A2020322020332020312020302020202020200A2020332020342020322020302020202020200A2020342020352020312020302020202020200A2020352020362020322020302020202020200A2020362020372020312020302020202020200A2020322020372020322020302020202020200A2020312020382020322020302020202020200A2020392031302020312020302020202020200A2020352020392020312020302020202020200A2020342031312020312020302020202020200A4D2020454E44
Contributor: SODA AROMATIC CO., LTD.
InstType: EI
InstName: HITACHI M-80B
IoniMethod: _ENERGY 70 eV
IonPolarity: pos
Date: 2010-10-09 19:48:36+02:00
Num Peaks: 34
14 11 15 24 16 15 27 69 29 69 32 34 38 42 39 84 41 41 50 78 
51 147 52 136 53 136 55 46 61 12 62 45 63 81 65 81 67 28 69 11 
77 55 79 79 80 52 81 275 93 11 95 21 108 82 109 183 123 116 136 13 
137 50 151 993 152 999 153 79 
