Name: MassBank: JP003283
MW: 239
Formula: C10H13N3O4
Synonym: MassBank: JP003283
Synonym: N-TERT-BUTYL-2,4-DINITROBENZENAMINE
Structure: 4E2D544552542D425554594C2D322C342D44494E4954524F42454E5A454E414D494E452E6D6F6C0A20204368656D447261773038313231303032323632440A2031372031372020302020302020302020302020302020302020302020303939392056323030300A20202020302E3230363220202020302E3335373220202020302E303030302043202020302020302020302020302020302020302020302020302020302020302020302020300A20202020302E363138382020202D302E3335373220202020302E303030302043202020302020302020302020302020302020302020302020302020302020302020302020300A20202020302E323036322020202D312E3037313720202020302E303030302043202020302020302020302020302020302020302020302020302020302020302020302020300A2020202D302E363138372020202D312E3037313720202020302E303030302043202020302020302020302020302020302020302020302020302020302020302020302020300A2020202D312E303331332020202D302E3335373220202020302E303030302043202020302020302020302020302020302020302020302020302020302020302020302020300A2020202D302E3631383820202020302E3335373220202020302E303030302043202020302020302020302020302020302020302020302020302020302020302020302020300A20202020302E3631383820202020312E3037313720202020302E30303030204E202020302020302020302020302020302020302020302020302020302020302020302020300A2020202D312E303331322020202D312E3738363220202020302E30303030204E202020302020332020302020302020302020302020302020302020302020302020302020300A2020202D302E363138372020202D322E3530303620202020302E30303030204F202020302020302020302020302020302020302020302020302020302020302020302020300A2020202D312E383536332020202D312E3738363220202020302E30303030204F202020302020352020302020302020302020302020302020302020302020302020302020300A20202020312E343433372020202D302E3335373220202020302E30303030204E202020302020332020302020302020302020302020302020302020302020302020302020300A20202020312E383536332020202D312E3037313720202020302E30303030204F202020302020302020302020302020302020302020302020302020302020302020302020300A20202020312E3835363320202020302E3335373220202020302E30303030204F202020302020352020302020302020302020302020302020302020302020302020302020300A20202020302E3230363220202020312E3738363220202020302E303030302043202020302020302020302020302020302020302020302020302020302020302020302020300A2020202D302E3530383220202020312E3337333720202020302E303030302043202020302020302020302020302020302020302020302020302020302020302020302020300A2020202D302E3230363320202020322E3530303620202020302E303030302043202020302020302020302020302020302020302020302020302020302020302020302020300A20202020302E3932303720202020322E3139383720202020302E303030302043202020302020302020302020302020302020302020302020302020302020302020302020300A2020312020322020312020302020202020200A2020322020332020322020302020202020200A2020332020342020312020302020202020200A2020342020352020322020302020202020200A2020352020362020312020302020202020200A2020312020362020322020302020202020200A2020312020372020312020302020202020200A2020382020392020322020302020202020200A2020382031302020312020302020202020200A2020342020382020312020302020202020200A2031312031322020322020302020202020200A2031312031332020312020302020202020200A2020322031312020312020302020202020200A2031342031352020312020302020202020200A2031342031372020312020302020202020200A2031342031362020312020302020202020200A2020372031342020312020302020202020200A4D202043484720203420202038202020312020313020202D3120203131202020312020313320202D310A4D2020454E44
Contributor: KOGA M, UNIV. OF OCCUPATIONAL AND ENVIRONMENTAL HEALTH
InstType: EI
InstName: JEOL JMS-01-SG-2
IoniMethod: _ENERGY 75 eV
IonPolarity: pos
Date: 2010-10-09 19:48:36+02:00
Num Peaks: 75
42 11 43 21 46 17 51 35 52 46 53 13 55 18 56 48 57 999 58 46 
59 50 62 32 63 45 64 34 65 40 66 20 67 9 74 8 75 40 76 17 
77 19 78 13 79 21 80 28 89 19 90 32 91 39 92 13 93 9 94 12 
95 8 103 28 104 18 105 21 106 20 107 39 110 15 116 19 117 66 118 37 
120 17 122 27 123 18 130 44 131 40 132 43 133 10 134 16 137 39 147 18 
148 22 151 19 153 77 160 15 164 45 165 8 166 18 167 63 168 14 177 32 
178 59 179 23 183 198 184 44 185 16 192 17 193 15 194 19 207 17 218 14 
223 15 224 466 225 54 239 112 240 17 
