Name: MassBank: JP005347
MW: 290
Formula: C19H30O2
Synonym: MassBank: JP005347
Synonym: (Z,Z,Z,Z)-6,9,12,15-OCTADECATETRAENOIC ACID METHYL ESTER
Structure: 285A2C5A2C5A2C5A292D362C392C31322C31352D4F435441444543415445545241454E4F49432041434944204D455448594C2045535445522E6D6F6C0A20204368656D447261773130323230393232323532440A2032392032382020302020302020302020302020302020302020302020303939392056323030300A2020202D322E3134333420202020312E3635303020202020302E303030302043202020302020302020302020302020302020302020302020302020302020302020302020300A2020202D322E3134333420202020302E3832353020202020302E303030302043202020302020302020302020302020302020302020302020302020302020302020302020300A2020202D312E3432383920202020302E3431323520202020302E303030302043202020302020302020302020302020302020302020302020302020302020302020302020300A2020202D312E343238392020202D302E3431323520202020302E303030302043202020302020302020302020302020302020302020302020302020302020302020302020300A2020202D302E373134352020202D302E3832353020202020302E303030302043202020302020302020302020302020302020302020302020302020302020302020302020300A2020202D302E373134352020202D312E3635303020202020302E303030302043202020302020302020302020302020302020302020302020302020302020302020302020300A20202020302E303030302020202D322E3036323520202020302E303030302043202020302020302020302020302020302020302020302020302020302020302020302020300A20202020302E373134352020202D312E3635303020202020302E303030302043202020302020302020302020302020302020302020302020302020302020302020302020300A20202020312E343238392020202D322E3036323520202020302E303030302043202020302020302020302020302020302020302020302020302020302020302020302020300A20202020322E313433342020202D312E3635303020202020302E303030302043202020302020302020302020302020302020302020302020302020302020302020302020300A20202020322E313433342020202D302E3832353020202020302E303030302043202020302020302020302020302020302020302020302020302020302020302020302020300A20202020322E383537392020202D302E3431323520202020302E303030302043202020302020302020302020302020302020302020302020302020302020302020302020300A20202020322E3835373920202020302E3431323520202020302E303030302043202020302020302020302020302020302020302020302020302020302020302020302020300A20202020322E3134333420202020302E3832353020202020302E303030302043202020302020302020302020302020302020302020302020302020302020302020302020300A20202020322E3134333420202020312E3635303020202020302E303030302043202020302020302020302020302020302020302020302020302020302020302020302020300A20202020312E3432383920202020322E3036323520202020302E303030302043202020302020302020302020302020302020302020302020302020302020302020302020300A20202020302E3731343520202020312E3635303020202020302E303030302043202020302020302020302020302020302020302020302020302020302020302020302020300A2020202D302E3030303020202020322E3036323520202020302E303030302043202020302020302020302020302020302020302020302020302020302020302020302020300A2020202D312E3432383920202020322E3036323520202020302E30303030204F202020302020302020302020302020302020302020302020302020302020302020302020300A2020202D322E3835373920202020322E3036323520202020302E30303030204F202020302020302020302020302020302020302020302020302020302020302020302020300A2020202D332E3537323420202020312E3635303020202020302E303030302043202020302020302020302020302020302020302020302020302020302020302020302020300A2020202D312E343238392020202D322E3036323520202020302E303030302048202020302020302020302020302020302020302020302020302020302020302020302020300A20202020302E303030302020202D322E3838373520202020302E303030302048202020302020302020302020302020302020302020302020302020302020302020302020300A20202020312E343238392020202D322E3838373520202020302E303030302048202020302020302020302020302020302020302020302020302020302020302020302020300A20202020322E383537392020202D322E3036323520202020302E303030302048202020302020302020302020302020302020302020302020302020302020302020302020300A20202020332E353732342020202D302E3832353020202020302E303030302048202020302020302020302020302020302020302020302020302020302020302020302020300A20202020332E3537323420202020302E3832353020202020302E303030302048202020302020302020302020302020302020302020302020302020302020302020302020300A20202020322E3835373920202020322E3036323520202020302E303030302048202020302020302020302020302020302020302020302020302020302020302020302020300A20202020312E3432383920202020322E3838373520202020302E303030302048202020302020302020302020302020302020302020302020302020302020302020302020300A2020312020322020312020302020202020200A2020322020332020312020302020202020200A2020332020342020312020302020202020200A2020342020352020312020302020202020200A2020352020362020312020302020202020200A2020362020372020322020302020202020200A2020372020382020312020302020202020200A2020382020392020312020302020202020200A2020392031302020322020302020202020200A2031302031312020312020302020202020200A2031312031322020312020302020202020200A2031322031332020322020302020202020200A2031332031342020312020302020202020200A2031342031352020312020302020202020200A2031352031362020322020302020202020200A2031362031372020312020302020202020200A2031372031382020312020302020202020200A2020312031392020322020302020202020200A2020312032302020312020302020202020200A2032302032312020312020302020202020200A2020362032322020312020302020202020200A2020372032332020312020302020202020200A2020392032342020312020302020202020200A2031302032352020312020302020202020200A2031322032362020312020302020202020200A2031332032372020312020302020202020200A2031352032382020312020302020202020200A2031362032392020312020302020202020200A4D2020454E44
Contributor: YAMAOKA R, KYOTO INSTITUTE OF TECHNOLOGY
InstType: EI
InstName: HITACHI M-80B
IoniMethod: _ENERGY 20 eV
IonPolarity: pos
Date: 2010-10-09 19:48:36+02:00
Num Peaks: 71
40 23 41 137 43 109 53 15 55 182 56 12 57 45 59 37 65 12 66 85 
67 392 68 24 69 133 71 12 74 80 77 108 78 135 79 999 80 479 81 251 
82 76 83 59 84 44 85 45 87 109 91 294 92 147 93 603 94 242 95 167 
96 14 97 38 98 15 104 19 105 340 106 166 107 256 108 430 109 64 111 10 
117 44 118 16 119 249 120 156 121 127 122 128 123 21 131 63 132 12 133 142 
134 96 135 151 136 35 145 32 146 17 147 106 148 65 149 46 161 143 162 76 
163 20 171 19 175 70 189 34 194 81 215 14 221 85 222 35 234 21 261 14 
290 14 
