Name: 4-DIMETHYLAMINOPYRIDINE
CAS: 1122-58-3
MW: 122
Formula: C7H10N2
Synonym: MassBank: JP005697
Synonym: 4-DIMETHYLAMINOPYRIDINE
Structure: 310A32330A342D44494D455448594C414D494E4F5059524944494E452E6D6F6C0A20204368656D447261773033323531303132323532440A2020392020392020302020302020302020302020302020302020302020303939392056323030300A2020202D312E3033313320202020302E3731343520202020302E303030302043202020302020302020302020302020302020302020302020302020302020302020302020300A2020202D302E3230363220202020302E3731343520202020302E303030302043202020302020302020302020302020302020302020302020302020302020302020302020300A20202020302E323036332020202D302E3030303020202020302E303030302043202020302020302020302020302020302020302020302020302020302020302020302020300A2020202D302E323036322020202D302E3731343520202020302E303030302043202020302020302020302020302020302020302020302020302020302020302020302020300A2020202D312E303331332020202D302E3731343520202020302E303030302043202020302020302020302020302020302020302020302020302020302020302020302020300A2020202D312E3434333820202020302E3030303020202020302E30303030204E202020302020302020302020302020302020302020302020302020302020302020302020300A20202020312E303331332020202D302E3030303020202020302E30303030204E202020302020302020302020302020302020302020302020302020302020302020302020300A20202020312E3434333820202020302E3731343520202020302E303030302043202020302020302020302020302020302020302020302020302020302020302020302020300A20202020312E343433382020202D302E3731343520202020302E303030302043202020302020302020302020302020302020302020302020302020302020302020302020300A2020312020322020322020302020202020200A2020322020332020312020302020202020200A2020332020342020322020302020202020200A2020342020352020312020302020202020200A2020352020362020322020302020202020200A2020312020362020312020302020202020200A2020372020382020312020302020202020200A2020372020392020312020302020202020200A2020332020372020312020302020202020200A4D2020454E44
Contributor: MASS SPECTROSCOPY SOC. OF JAPAN (MSSJ)
InstType: EI
InstName: HITACHI M-80
IoniMethod: _ENERGY 70 eV
IonPolarity: pos
Date: 2010-10-09 19:48:36+02:00
Num Peaks: 53
15 26 18 11 26 9 27 14 28 26 29 2 30 4 37 4 38 9 39 28 
40 10 41 14 42 69 43 12 44 43 49 6 50 46 51 108 52 41 53 18 
54 12 55 4 61 11 62 2 63 5 64 10 65 13 66 18 67 11 68 12 
69 4 75 5 76 7 77 8 78 101 79 40 80 37 81 9 92 23 93 24 
94 68 95 11 104 5 105 51 106 45 107 34 108 7 119 21 120 10 121 1000 
122 999 123 104 124 5 
