Name: 2-CYCLOPROPYL-2-PROPANOL
MW: 100
Formula: C6H12O
Synonym: MassBank: JP002479
Synonym: 2-CYCLOPROPYL-2-PROPANOL
Structure: 310A31390A322D4359434C4F50524F50594C2D322D50524F50414E4F4C2E6D6F6C0A20204368656D447261773031303331303132313232440A2020372020372020302020302020302020302020302020302020302020303939392056323030300A2020202D302E3832353020202020302E3335373220202020302E303030302043202020302020302020302020302020302020302020302020302020302020302020302020300A20202020302E3030303020202020302E3335373220202020302E303030302043202020302020302020302020302020302020302020302020302020302020302020302020300A20202020302E3832353020202020302E3335373220202020302E303030302043202020302020302020302020302020302020302020302020302020302020302020302020300A20202020302E3030303020202020312E3138323220202020302E30303030204F202020302020302020302020302020302020302020302020302020302020302020302020300A20202020302E303030302020202D302E3436373820202020302E303030302043202020302020302020302020302020302020302020302020302020302020302020302020300A20202020302E343132352020202D312E3138323220202020302E303030302043202020302020302020302020302020302020302020302020302020302020302020302020300A2020202D302E343132352020202D312E3138323220202020302E303030302043202020302020302020302020302020302020302020302020302020302020302020302020300A2020312020322020312020302020202020200A2020322020332020312020302020202020200A2020322020342020312020302020202020200A2020352020362020312020302020202020200A2020362020372020312020302020202020200A2020352020372020312020302020202020200A2020322020352020312020302020202020200A4D2020454E44
Contributor: MASS SPECTROSCOPY SOC. OF JAPAN (MSSJ)
InstType: EI
InstName: JEOL JMS-D-3000
IoniMethod: _ENERGY 70 eV
IonPolarity: pos
Date: 2010-10-09 19:48:36+02:00
Num Peaks: 33
41 566 42 85 43 999 44 31 45 36 50 29 51 48 52 23 53 118 54 105 
55 119 56 36 57 200 58 38 59 318 60 11 63 14 65 92 66 27 67 900 
68 58 69 68 71 55 72 350 73 17 77 23 79 58 81 116 82 241 83 32 
85 586 86 36 100 12 
