Name: N-PHENYLACETYLPYRROLIDIN-2-ONE
MW: 203
Formula: C12H13NO2
Synonym: MassBank: JP006742
Synonym: N-PHENYLACETYLPYRROLIDIN-2-ONE
Structure: 4E2D5048454E594C41434554594C505952524F4C4944494E2D322D4F4E452E6D6F6C0A20204368656D447261773038313231303032323032440A2031352031362020302020302020302020302020302020302020302020303939392056323030300A2020202D312E3133333320202020302E3332393020202020302E30303030204E202020302020302020302020302020302020302020302020302020302020302020302020300A2020202D312E383837302020202D302E3030363620202020302E303030302043202020302020302020302020302020302020302020302020302020302020302020302020300A2020202D322E3433393020202020302E3630363520202020302E303030302043202020302020302020302020302020302020302020302020302020302020302020302020300A2020202D322E3032363520202020312E3332313020202020302E303030302043202020302020302020302020302020302020302020302020302020302020302020302020300A2020202D312E3231393620202020312E3134393520202020302E303030302043202020302020302020302020302020302020302020302020302020302020302020302020300A2020202D322E303538352020202D302E3831333520202020302E30303030204F202020302020302020302020302020302020302020302020302020302020302020302020300A2020202D302E343138392020202D302E3038333520202020302E303030302043202020302020302020302020302020302020302020302020302020302020302020302020300A2020202D302E343138392020202D302E3930383520202020302E30303030204F202020302020302020302020302020302020302020302020302020302020302020302020300A20202020302E3239353620202020302E3332393020202020302E303030302043202020302020302020302020302020302020302020302020302020302020302020302020300A20202020312E303130312020202D302E3038333520202020302E303030302043202020302020302020302020302020302020302020302020302020302020302020302020300A20202020312E3732343620202020302E3332393020202020302E303030302043202020302020302020302020302020302020302020302020302020302020302020302020300A20202020322E343339302020202D302E3038333520202020302E303030302043202020302020302020302020302020302020302020302020302020302020302020302020300A20202020322E343339302020202D302E3930383520202020302E303030302043202020302020302020302020302020302020302020302020302020302020302020302020300A20202020312E373234362020202D312E3332313020202020302E303030302043202020302020302020302020302020302020302020302020302020302020302020302020300A20202020312E303130312020202D302E3930383520202020302E303030302043202020302020302020302020302020302020302020302020302020302020302020302020300A2020312020322020312020302020202020200A2020322020332020312020302020202020200A2020332020342020312020302020202020200A2020342020352020312020302020202020200A2020312020352020312020302020202020200A2020322020362020322020302020202020200A2020372020382020322020302020202020200A2020372020392020312020302020202020200A2031302031312020312020302020202020200A2031312031322020322020302020202020200A2031322031332020312020302020202020200A2031332031342020322020302020202020200A2031342031352020312020302020202020200A2031302031352020322020302020202020200A2020392031302020312020302020202020200A2020312020372020312020302020202020200A4D2020454E44
Contributor: MASS SPECTROSCOPY SOC. OF JAPAN (MSSJ)
InstType: EI
InstName: HITACHI RMU-6G
IoniMethod: _ENERGY 20 eV
IonPolarity: pos
Date: 2010-10-09 19:48:36+02:00
Num Peaks: 32
41 22 43 5 56 20 57 10 60 5 65 5 69 60 70 5 71 7 73 5 
81 8 84 20 85 5 86 75 87 4 89 4 90 150 91 103 92 10 94 3 
95 3 97 3 112 24 118 999 119 90 120 5 122 4 129 2 149 5 203 187 
204 25 205 3 
