Name: 2-METHYL-5-NITROINDOLE
MW: 176
Formula: C9H8N2O2
Synonym: MassBank: JP000431
Synonym: 2-METHYL-5-NITROINDOLE
Structure: 322D4D455448594C2D352D4E4954524F494E444F4C452E6D6F6C0A20204368656D447261773031323231303037323132440A2031332031342020302020302020302020302020302020302020302020303939392056323030300A2020202D312E343436392020202D302E3137333520202020302E30303030204E202020302020302020302020302020302020302020302020302020302020302020302020300A2020202D312E3533333120202020302E3634373020202020302E303030302043202020302020302020302020302020302020302020302020302020302020302020302020300A2020202D302E3737393420202020302E3938323520202020302E303030302043202020302020302020302020302020302020302020302020302020302020302020302020300A2020202D302E3232373420202020302E3336393520202020302E303030302043202020302020302020302020302020302020302020302020302020302020302020302020300A20202020302E3539373620202020302E3336393520202020302E303030302043202020302020302020302020302020302020302020302020302020302020302020302020300A20202020312E303130312020202D302E3334353020202020302E303030302043202020302020302020302020302020302020302020302020302020302020302020302020300A20202020302E353937362020202D312E3035393520202020302E303030302043202020302020302020302020302020302020302020302020302020302020302020302020300A2020202D302E323237342020202D312E3035393520202020302E303030302043202020302020302020302020302020302020302020302020302020302020302020302020300A2020202D302E363339392020202D302E3334353020202020302E303030302043202020302020302020302020302020302020302020302020302020302020302020302020300A20202020312E383335312020202D302E3334353020202020302E30303030204E202020302020332020302020302020302020302020302020302020302020302020302020300A20202020322E323437362020202D312E3035393520202020302E30303030204F202020302020302020302020302020302020302020302020302020302020302020302020300A20202020322E3234373620202020302E3336393520202020302E30303030204F202020302020352020302020302020302020302020302020302020302020302020302020300A2020202D322E3234373620202020312E3035393520202020302E303030302043202020302020302020302020302020302020302020302020302020302020302020302020300A2020312020322020312020302020202020200A2020322020332020322020302020202020200A2020332020342020312020302020202020200A2020342020352020312020302020202020200A2020352020362020322020302020202020200A2020362020372020312020302020202020200A2020372020382020322020302020202020200A2020382020392020312020302020202020200A2020312020392020312020302020202020200A2020342020392020322020302020202020200A2031302031312020322020302020202020200A2031302031322020312020302020202020200A2020362031302020312020302020202020200A2020322031332020312020302020202020200A4D202043484720203220203130202020312020313220202D310A4D2020454E44
Contributor: SASAKI S, TOYOHASHI UNIV. OF TECH.
InstType: EI
InstName: MX-1303
IoniMethod: _ENERGY 50 eV
IonPolarity: pos
Date: 2010-10-09 19:48:36+02:00
Num Peaks: 36
45 87 55 333 56 97 57 62 60 236 61 35 67 63 68 5 69 802 70 94 
71 333 73 34 77 122 81 277 82 80 83 24 84 83 85 132 87 31 95 10 
96 59 97 177 98 63 102 3 103 236 109 38 111 56 118 4 123 31 129 128 
130 667 131 4 137 31 146 59 176 999 177 135 
