Name: MassBank: JP002087
MW: 230
Formula: C15H18O2
Synonym: MassBank: JP002087
Synonym: 8,12-EPOXYEUDESMA-4(14),7(11),8-TRIEN-12-ONE
Synonym: ATRACTYLENOLIDE 1
Structure: 382C31322D45504F585945554445534D412D34283134292C37283131292C382D545249454E2D31322D4F4E452E6D6F6C0A20204368656D447261773035323431303138333232440A2031392032312020302020302020302020302020302020302020302020303939392056323030300A2020202D322E3437363220202020302E3431323520202020302E303030302043202020302020302020302020302020302020302020302020302020302020302020302020300A2020202D322E343736322020202D302E3431323520202020302E303030302043202020302020302020302020302020302020302020302020302020302020302020302020300A2020202D312E373631372020202D302E3832353020202020302E303030302043202020302020302020302020302020302020302020302020302020302020302020302020300A2020202D312E303437332020202D302E3431323520202020302E303030302043202020302020302020302020302020302020302020302020302020302020302020302020300A2020202D312E3034373320202020302E3431323520202020302E303030302043202020302020302020302020302020302020302020302020302020302020302020302020300A2020202D312E3736313720202020302E3832353020202020302E303030302043202020302020302020302020302020302020302020302020302020302020302020302020300A2020202D302E333332382020202D302E3832353020202020302E303030302043202020302020302020302020302020302020302020302020302020302020302020302020300A20202020302E333831372020202D302E3431323520202020302E303030302043202020302020302020302020302020302020302020302020302020302020302020302020300A20202020302E3338313720202020302E3431323520202020302E303030302043202020302020302020302020302020302020302020302020302020302020302020302020300A2020202D302E3333323820202020302E3832353020202020302E303030302043202020302020302020302020302020302020302020302020302020302020302020302020300A20202020312E313636332020202D302E3636373420202020302E303030302043202020302020302020302020302020302020302020302020302020302020302020302020300A20202020312E3635313220202020302E3030303020202020302E303030302043202020302020302020302020302020302020302020302020302020302020302020302020300A20202020312E3136363320202020302E3636373420202020302E30303030204F202020302020302020302020302020302020302020302020302020302020302020302020300A2020202D302E3333323820202020312E3635303020202020302E303030302048202020302020302020302020302020302020302020302020302020302020302020302020300A20202020322E3437363220202020302E3030303020202020302E30303030204F202020302020302020302020302020302020302020302020302020302020302020302020300A20202020312E343231322020202D312E3435323120202020302E303030302043202020302020302020302020302020302020302020302020302020302020302020302020300A2020202D312E373631372020202D312E3635303020202020302E303030302043202020302020302020302020302020302020302020302020302020302020302020302020300A2020202D312E3034373320202020312E3233373520202020302E303030302043202020302020302020302020302020302020302020302020302020302020302020302020300A2020202D312E303437332020202D312E3233373520202020302E303030302048202020302020302020302020302020302020302020302020302020302020302020302020300A2020312020322020312020302020202020200A2020322020332020312020302020202020200A2020332020342020312020302020202020200A2020342020352020312020302020202020200A2020352020362020312020302020202020200A2020362020312020312020302020202020200A2020342020372020312020302020202020200A2020372020382020312020302020202020200A2020382020392020312020302020202020200A2020392031302020322020302020202020200A2031302020352020312020302020202020200A2020382031312020322020302020202020200A2031312031322020312020302020202020200A2031322031332020312020302020202020200A2031332020392020312020302020202020200A2031302031342020312020302020202020200A2031322031352020322020302020202020200A2031312031362020312020302020202020200A2020332031372020322020302020202020200A2020352031382020312020312020202020200A2020342031392020312020362020202020200A4D2020454E44
Contributor: ENDO K, PHARMACEUTICAL INST., TOHOKU UNIV.
InstType: EI
InstName: HITACHI RMU-7
IoniMethod: _ENERGY 80 eV
IonPolarity: pos
Date: 2010-10-09 19:48:36+02:00
Num Peaks: 116
18 46 27 391 28 164 29 19 39 446 40 82 41 573 43 16 44 55 45 55 
50 64 51 19 52 91 53 436 54 82 55 23 56 64 57 82 58 46 62 6 
63 91 64 64 65 227 66 9 67 291 68 82 69 155 70 6 71 73 72 46 
77 364 78 12 79 318 80 73 81 164 82 6 83 82 84 46 88 73 91 46 
92 118 93 309 94 100 95 12 96 64 97 46 100 46 103 8 104 64 105 264 
106 82 107 10 108 118 109 82 115 127 116 6 117 155 118 64 119 173 120 8 
121 155 122 64 123 55 124 5 127 46 128 91 129 118 130 7 131 164 132 64 
133 209 134 12 135 155 136 55 137 46 138 6 141 118 142 46 143 82 144 7 
145 155 146 91 147 182 148 18 149 136 150 73 155 55 157 5 159 191 160 236 
161 155 162 25 163 46 165 46 167 46 169 6 170 46 171 46 173 136 174 24 
175 127 176 46 185 46 186 6 187 218 188 155 189 55 201 36 202 164 203 73 
215 999 216 19 218 364 219 73 230 891 231 173 
