Name: MassBank: JP007883
CAS: 1863-20-3
MW: 283
Formula: C21H17N
Synonym: MassBank: JP007883
Synonym: 2-METHYL-3,7DIPHENYLINDOLE
Structure: 322D4D455448594C2D332C3744495048454E594C494E444F4C452E6D6F6C0A20204368656D447261773031323231303033323232440A2032322032352020302020302020302020302020302020302020302020303939392056323030300A20202020302E3237333820202020302E3832383120202020302E30303030204E202020302020302020302020302020302020302020302020302020302020302020302020300A2020202D302E3534363720202020302E3931343420202020302E303030302043202020302020302020302020302020302020302020302020302020302020302020302020300A2020202D302E3838323320202020302E3136303720202020302E303030302043202020302020302020302020302020302020302020302020302020302020302020302020300A2020202D302E323639322020202D302E3339313320202020302E303030302043202020302020302020302020302020302020302020302020302020302020302020302020300A2020202D302E323639322020202D312E3231363320202020302E303030302043202020302020302020302020302020302020302020302020302020302020302020302020300A20202020302E343435332020202D312E3632383820202020302E303030302043202020302020302020302020302020302020302020302020302020302020302020302020300A20202020312E313539382020202D312E3231363320202020302E303030302043202020302020302020302020302020302020302020302020302020302020302020302020300A20202020312E313539382020202D302E3339313320202020302E303030302043202020302020302020302020302020302020302020302020302020302020302020302020300A20202020302E3434353320202020302E3032313220202020302E303030302043202020302020302020302020302020302020302020302020302020302020302020302020300A20202020312E3837343220202020302E3032313220202020302E303030302043202020302020302020302020302020302020302020302020302020302020302020302020300A20202020322E353838372020202D302E3339313320202020302E303030302043202020302020302020302020302020302020302020302020302020302020302020302020300A20202020332E3330333220202020302E3032313220202020302E303030302043202020302020302020302020302020302020302020302020302020302020302020302020300A20202020332E3330333220202020302E3834363220202020302E303030302043202020302020302020302020302020302020302020302020302020302020302020302020300A20202020322E3538383720202020312E3235383720202020302E303030302043202020302020302020302020302020302020302020302020302020302020302020302020300A20202020312E3837343220202020302E3834363220202020302E303030302043202020302020302020302020302020302020302020302020302020302020302020302020300A2020202D312E363839322020202D302E3031303820202020302E303030302043202020302020302020302020302020302020302020302020302020302020302020302020300A2020202D322E3234313320202020302E3630323320202020302E303030302043202020302020302020302020302020302020302020302020302020302020302020302020300A2020202D332E3034383220202020302E3433303720202020302E303030302043202020302020302020302020302020302020302020302020302020302020302020302020300A2020202D332E333033322020202D302E3335333920202020302E303030302043202020302020302020302020302020302020302020302020302020302020302020302020300A2020202D322E373531322020202D302E3936373020202020302E303030302043202020302020302020302020302020302020302020302020302020302020302020302020300A2020202D312E393434322020202D302E3739353520202020302E303030302043202020302020302020302020302020302020302020302020302020302020302020302020300A2020202D302E3935393220202020312E3632383820202020302E303030302043202020302020302020302020302020302020302020302020302020302020302020302020300A2020312020322020312020302020202020200A2020322020332020322020302020202020200A2020332020342020312020302020202020200A2020342020352020312020302020202020200A2020352020362020322020302020202020200A2020362020372020312020302020202020200A2020372020382020322020302020202020200A2020382020392020312020302020202020200A2020312020392020312020302020202020200A2020342020392020322020302020202020200A2031302031312020312020302020202020200A2031312031322020322020302020202020200A2031322031332020312020302020202020200A2031332031342020322020302020202020200A2031342031352020312020302020202020200A2031302031352020322020302020202020200A2020382031302020312020302020202020200A2031362031372020312020302020202020200A2031372031382020322020302020202020200A2031382031392020312020302020202020200A2031392032302020322020302020202020200A2032302032312020312020302020202020200A2031362032312020322020302020202020200A2020332031362020312020302020202020200A2020322032322020312020302020202020200A4D2020454E44
Contributor: SASAKI S, TOYOHASHI UNIV. OF TECH.
InstType: EI
InstName: MX-1303
IoniMethod: _ENERGY 50 eV
IonPolarity: pos
Date: 2010-10-09 19:48:36+02:00
Num Peaks: 29
133.5 12 134 11 141.5 25 165 1 178 12 203 11 204 59 205 2 206 78 207 17 
239 41 240 2 241 28 252 20 253 18 254 2 255 14 265 34 266 34 267 6 
268 28 278 48 279 28 280 10 281 59 282 311 283 999 284 31 285 58 
