Name: 2-AMINO-3-INDOLYLPROPIONIC ACID METHYL ESTER
MW: 218
Formula: C12H14N2O2
Synonym: MassBank: JP005265
Synonym: 2-AMINO-3-INDOLYLPROPIONIC ACID METHYL ESTER
Structure: 322D414D494E4F2D332D494E444F4C594C50524F50494F4E49432041434944204D455448594C2045535445522E6D6F6C0A20204368656D447261773132323130393232313632440A2031362031372020302020302020302020302020302020302020302020303939392056323030300A20202020302E333336332020202D302E3930363420202020302E303030302043202020302020302020302020302020302020302020302020302020302020302020302020300A20202020302E333336332020202D312E3733313420202020302E303030302043202020302020302020302020302020302020302020302020302020302020302020302020300A20202020312E303530372020202D322E3134333920202020302E303030302043202020302020302020302020302020302020302020302020302020302020302020302020300A20202020312E373635322020202D312E3733313420202020302E303030302043202020302020302020302020302020302020302020302020302020302020302020302020300A20202020312E373635322020202D302E3930363420202020302E303030302043202020302020302020302020302020302020302020302020302020302020302020302020300A20202020312E303530372020202D302E3439333920202020302E303030302043202020302020302020302020302020302020302020302020302020302020302020302020300A2020202D302E343438342020202D302E3635313520202020302E303030302043202020302020302020302020302020302020302020302020302020302020302020302020300A2020202D302E393333332020202D312E3331383920202020302E303030302043202020302020302020302020302020302020302020302020302020302020302020302020300A2020202D302E343438342020202D312E3938363420202020302E30303030204E202020302020302020302020302020302020302020302020302020302020302020302020300A2020202D312E373538332020202D312E3331383920202020302E30303030204E202020302020302020302020302020302020302020302020302020302020302020302020300A2020202D302E3730333320202020302E3133333120202020302E303030302043202020302020302020302020302020302020302020302020302020302020302020302020300A2020202D302E3135313320202020302E3734363220202020302E303030302043202020302020302020302020302020302020302020302020302020302020302020302020300A2020202D302E3430363220202020312E3533303820202020302E303030302043202020302020302020302020302020302020302020302020302020302020302020302020300A20202020302E3134353820202020322E3134333920202020302E30303030204F202020302020302020302020302020302020302020302020302020302020302020302020300A2020202D312E3231333220202020312E3730323420202020302E30303030204F202020302020302020302020302020302020302020302020302020302020302020302020300A2020202D312E3736353220202020312E3038393320202020302E303030302043202020302020302020302020302020302020302020302020302020302020302020302020300A2020312020322020322020302020202020200A2020322020332020312020302020202020200A2020332020342020322020302020202020200A2020342020352020312020302020202020200A2020352020362020322020302020202020200A2020362020312020312020302020202020200A2020312020372020312020302020202020200A2020372020382020322020302020202020200A2020382020392020312020302020202020200A2020392020322020312020302020202020200A2020382031302020312020302020202020200A2020372031312020312020302020202020200A2031312031322020312020302020202020200A2031322031332020312020302020202020200A2031332031342020322020302020202020200A2031332031352020312020302020202020200A2031352031362020312020302020202020200A4D2020454E44
Contributor: MASS SPECTROSCOPY SOC. OF JAPAN (MSSJ)
InstType: EI
InstName: HITACHI M-80
IoniMethod: _ENERGY 20 eV
IonPolarity: pos
Date: 2010-10-09 19:48:36+02:00
Num Peaks: 7
102 32 103 61 130 999 131 9 132 26 159 46 218 42 
