Name: ALPHA-BROMO-O-XYLENE
CAS: 89-92-9
MW: 183
Formula: C8H9Br
Synonym: MassBank: JP006296
Synonym: ALPHA-BROMO-O-XYLENE
Synonym: 2-METHYLBENZYL BROMIDE
Structure: 310A32330A414C5048412D42524F4D4F2D4F2D58594C454E452E6D6F6C0A20204368656D447261773031323231303037333932440A2020392020392020302020302020302020302020302020302020302020303939392056323030300A2020202D312E303331332020202D302E3335373220202020302E303030302043202020302020302020302020302020302020302020302020302020302020302020302020300A2020202D302E323036322020202D302E3335373220202020302E303030302043202020302020302020302020302020302020302020302020302020302020302020302020300A20202020302E3230363320202020302E3335373220202020302E303030302043202020302020302020302020302020302020302020302020302020302020302020302020300A20202020312E3033313320202020302E3335373220202020302E303030302043202020302020302020302020302020302020302020302020302020302020302020302020300A20202020312E343433382020202D302E3335373220202020302E303030302043202020302020302020302020302020302020302020302020302020302020302020302020300A20202020312E303331332020202D312E3037313720202020302E303030302043202020302020302020302020302020302020302020302020302020302020302020302020300A20202020302E323036322020202D312E3037313720202020302E303030302043202020302020302020302020302020302020302020302020302020302020302020302020300A2020202D302E3230363220202020312E3037313720202020302E303030302043202020302020302020302020302020302020302020302020302020302020302020302020300A2020202D312E343433382020202D312E3037313720202020302E303030302042722020302020302020302020302020302020302020302020302020302020302020302020300A2020312020322020312020302020202020200A2020322020332020312020302020202020200A2020332020342020322020302020202020200A2020342020352020312020302020202020200A2020352020362020322020302020202020200A2020362020372020312020302020202020200A2020322020372020322020302020202020200A2020332020382020312020302020202020200A2020312020392020312020302020202020200A4D2020454E44
Contributor: MASS SPECTROSCOPY SOC. OF JAPAN (MSSJ)
InstType: EI
InstName: HITACHI M-80
IoniMethod: _ENERGY 70 eV
IonPolarity: pos
Date: 2010-10-09 19:48:36+02:00
Num Peaks: 46
15 28 26 31 27 107 28 12 29 11 31 13 32 11 37 17 38 52 39 153 
40 16 41 8 49 11 50 103 51 184 52 72 53 25 61 15 62 42 63 96 
64 20 65 35 66 6 74 28 75 21 76 22 77 180 78 116 79 146 80 11 
81 29 82 9 87 6 89 29 90 11 91 19 92 6 102 26 103 131 104 87 
105 999 106 92 171 5 184 46 185 6 186 44 
