Name: 2-CHLORO-5-DIMETHYLAMINOMETHYLENEAMINOPYRIMIDINE
MW: 184
Formula: C7H9ClN4
Synonym: MassBank: JP004446
Synonym: 2-CHLORO-5-DIMETHYLAMINOMETHYLENEAMINOPYRIMIDINE
Structure: 322D43484C4F524F2D352D44494D455448594C414D494E4F4D455448594C454E45414D494E4F505952494D4944494E452E6D6F6C0A20204368656D447261773031303331303130343332440A2031322031322020302020302020302020302020302020302020302020303939392056323030300A20202020312E363530302020202D302E3335373220202020302E303030302043202020302020302020302020302020302020302020302020302020302020302020302020300A20202020312E323337352020202D312E3037313720202020302E30303030204E202020302020302020302020302020302020302020302020302020302020302020302020300A20202020302E343132352020202D312E3037313720202020302E303030302043202020302020302020302020302020302020302020302020302020302020302020302020300A20202020302E303030302020202D302E3335373220202020302E303030302043202020302020302020302020302020302020302020302020302020302020302020302020300A20202020302E3431323520202020302E3335373220202020302E303030302043202020302020302020302020302020302020302020302020302020302020302020302020300A20202020312E3233373520202020302E3335373220202020302E30303030204E202020302020302020302020302020302020302020302020302020302020302020302020300A2020202D302E383235302020202D302E3335373220202020302E30303030204E202020302020302020302020302020302020302020302020302020302020302020302020300A2020202D312E3233373520202020302E3335373220202020302E303030302043202020302020302020302020302020302020302020302020302020302020302020302020300A2020202D322E3036323520202020302E3335373220202020302E30303030204E202020302020302020302020302020302020302020302020302020302020302020302020300A2020202D322E343735302020202D302E3335373220202020302E303030302043202020302020302020302020302020302020302020302020302020302020302020302020300A2020202D322E3437353020202020312E3037313720202020302E303030302043202020302020302020302020302020302020302020302020302020302020302020302020300A20202020322E343735302020202D302E3335373220202020302E3030303020436C2020302020302020302020302020302020302020302020302020302020302020302020300A2020312020322020312020302020202020200A2020322020332020322020302020202020200A2020332020342020312020302020202020200A2020342020352020322020302020202020200A2020352020362020312020302020202020200A2020312020362020322020302020202020200A2020392031302020312020302020202020200A2020392031312020312020302020202020200A2020382020392020312020302020202020200A2020372020382020322020302020202020200A2020342020372020312020302020202020200A2020312031322020312020302020202020200A4D2020454E44
Contributor: SASAKI S, TOYOHASHI UNIV. OF TECH.
InstType: EI
InstName: MS-902
IoniMethod: _ENERGY 70 eV
IonPolarity: pos
Date: 2010-10-09 19:48:36+02:00
Num Peaks: 135
36 46 37 3 38 14 39 1 40 23 41 42 42 344 43 6 44 999 45 79 
46 20 47 1 50 6 51 50 52 118 53 2 54 34 55 13 56 13 57 22 
58 20 61 3 62 22 63 0 64 7 65 5 66 6 67 1 68 18 69 14 
70 5 71 1 73 5 74 5 75 14 76 1 77 21 78 7 78.5 90 79 3 
79.5 30 80 23 81 40 82 1 83 9 84 2 86 83 87 0 88 28 89 2 
90 2 91 1 92 10 93 5 94 3 95 2 96 9 97 3 98 5 100 1 
101 7 102 4 103 2 104 1 105 4 106 18 107 10 108 8 109 6 111 6 
112 3 113 11 114 15 115 40 116 7 117 0 118 4 119 2 120 10 121 1 
122 40 123 6 125 2 126 0 127 14 128 26 129 8 130 1 131 4 132 11 
133 13 134 1 137 6 138 5 139 4 140 18 141 30 142 354 143 33 144 10 
145 8 147 9 148 5 149 16 150 13 153 3 154 52 155 2 156 148 157 21 
158 46 159 1 160 10 161 1 164 2 165 1 166 4 167 42 168 85 169 36 
170 55 171 108 172 8 173 0 174 13 175 16 176 2 178 0 181 5 182 4 
183 560 184 77 185 250 186 260 187 23 
