Name: N-METHYLANILINE
MW: 107
Formula: C7H9N
Synonym: MassBank: JP009394
Synonym: N-METHYLANILINE
Structure: 310A32310A4E2D4D455448594C414E494C494E452E6D6F6C0A20204368656D447261773038313231303032313432440A2020382020382020302020302020302020302020302020302020302020303939392056323030300A2020202D312E3033313220202020302E3030303020202020302E30303030204E202020302020302020302020302020302020302020302020302020302020302020302020300A2020202D302E3230363220202020302E3030303020202020302E303030302043202020302020302020302020302020302020302020302020302020302020302020302020300A20202020302E3230363320202020302E3731343520202020302E303030302043202020302020302020302020302020302020302020302020302020302020302020302020300A20202020312E3033313220202020302E3731343520202020302E303030302043202020302020302020302020302020302020302020302020302020302020302020302020300A20202020312E343433382020202D302E3030303020202020302E303030302043202020302020302020302020302020302020302020302020302020302020302020302020300A20202020312E303331332020202D302E3731343520202020302E303030302043202020302020302020302020302020302020302020302020302020302020302020302020300A20202020302E323036332020202D302E3731343520202020302E303030302043202020302020302020302020302020302020302020302020302020302020302020302020300A2020202D312E3434333820202020302E3731343520202020302E303030302043202020302020302020302020302020302020302020302020302020302020302020302020300A2020312020322020312020302020202020200A2020322020332020312020302020202020200A2020332020342020322020302020202020200A2020342020352020312020302020202020200A2020352020362020322020302020202020200A2020362020372020312020302020202020200A2020322020372020322020302020202020200A2020312020382020312020302020202020200A4D2020454E44
Contributor: GUNMA COLLEGE OF TECHNOLOGY
InstType: EI
InstName: HITACHI M-80A
IoniMethod: _ENERGY 70 eV
IonPolarity: pos
Date: 2010-10-09 19:48:36+02:00
Num Peaks: 39
15 49 26 19 27 46 28 59 29 14 30 54 37 25 38 57 39 160 40 21 
41 18 42 13 49 11 50 103 51 198 52 76 53 52 54 16 61 10 62 20 
63 53 64 41 65 126 66 25 74 32 75 19 76 20 77 271 78 100 79 149 
80 20 91 18 92 31 93 14 104 36 105 14 106 991 107 999 108 81 
