Name: MassBank: JP000509
MW: 130
Formula: C7H18N2
Synonym: MassBank: JP000509
Synonym: 2-(1,2-DIMETHYLPROPYL)-1,1-DIMETHYLHYDRAZINE
Structure: 310A32320A322D28312C322D44494D455448594C50524F50594C292D312C312D44494D455448594C48594452415A494E452E6D6F6C0A20204368656D447261773132323130393035323132440A2020392020382020302020302020302020302020302020302020302020303939392056323030300A2020202D312E3037313720202020302E3230363220202020302E30303030204E202020302020302020302020302020302020302020302020302020302020302020302020300A2020202D302E333537322020202D302E3230363320202020302E30303030204E202020302020302020302020302020302020302020302020302020302020302020302020300A2020202D312E373836322020202D302E3230363320202020302E303030302043202020302020302020302020302020302020302020302020302020302020302020302020300A2020202D312E3037313720202020312E3033313220202020302E303030302043202020302020302020302020302020302020302020302020302020302020302020302020300A20202020302E3335373220202020302E3230363220202020302E303030302043202020302020302020302020302020302020302020302020302020302020302020302020300A20202020312E303731372020202D302E3230363220202020302E303030302043202020302020302020302020302020302020302020302020302020302020302020302020300A20202020312E303731372020202D312E3033313220202020302E303030302043202020302020302020302020302020302020302020302020302020302020302020302020300A20202020312E3738363220202020302E3230363320202020302E303030302043202020302020302020302020302020302020302020302020302020302020302020302020300A20202020302E3335373220202020312E3033313220202020302E303030302043202020302020302020302020302020302020302020302020302020302020302020302020300A2020312020322020312020302020202020200A2020312020332020312020302020202020200A2020312020342020312020302020202020200A2020352020362020312020302020202020200A2020362020372020312020302020202020200A2020362020382020312020302020202020200A2020352020392020312020302020202020200A2020322020352020312020302020202020200A4D2020454E44
Contributor: SASAKI S, TOYOHASHI UNIV. OF TECH.
InstType: EI
InstName: SHIMADZU LKB-2091
IoniMethod: _ENERGY 70 eV
IonPolarity: pos
Date: 2010-10-09 19:48:36+02:00
Num Peaks: 32
27 49 28 38 29 40 30 4 31 9 39 27 40 9 41 6 42 140 43 198 
44 546 45 21 46 47 55 21 56 13 57 1 58 73 59 999 60 276 61 2 
70 29 71 40 72 17 85 1 86 29 87 964 88 102 99 2 114 18 115 27 
130 437 131 64 
