Name: MassBank: JP006594
MW: 154
Formula: C10H18O
Synonym: MassBank: JP006594
Synonym: 1,4-CINEOLE
Synonym: 1-METHYL-4-ISOPROPYL-8-OXABICYCLO(2.2.1)HEPTANE
Structure: 312C342D43494E454F4C452E6D6F6C0A20204368656D447261773131313430393232353032440A2031312031322020302020302020302020302020302020302020302020303939392056323030300A2020202D302E3731343520202020302E3230363220202020302E303030302043202020302020302020302020302020302020302020302020302020302020302020302020300A2020202D302E373134352020202D302E3631383820202020302E303030302043202020302020302020302020302020302020302020302020302020302020302020302020300A20202020302E303030302020202D312E3033313320202020302E303030302043202020302020302020302020302020302020302020302020302020302020302020302020300A20202020302E373134352020202D302E3631383820202020302E303030302043202020302020302020302020302020302020302020302020302020302020302020302020300A20202020302E3731343520202020302E3230363220202020302E303030302043202020302020302020302020302020302020302020302020302020302020302020302020300A20202020302E3030303020202020302E3631383820202020302E303030302043202020302020302020302020302020302020302020302020302020302020302020302020300A20202020302E3030303020202020312E3434333820202020302E303030302043202020302020302020302020302020302020302020302020302020302020302020302020300A20202020302E303030302020202D312E3835363320202020302E303030302043202020302020302020302020302020302020302020302020302020302020302020302020300A20202020302E3731343520202020312E3835363320202020302E303030302043202020302020302020302020302020302020302020302020302020302020302020302020300A2020202D302E3731343520202020312E3835363320202020302E303030302043202020302020302020302020302020302020302020302020302020302020302020302020300A20202020302E323133352020202D302E3137383120202020302E30303030204F202020302020302020302020302020302020302020302020302020302020302020302020300A2020312020322020312020302020202020200A2020322020332020312020302020202020200A2020332020342020312020302020202020200A2020342020352020312020302020202020200A2020352020362020312020302020202020200A2020362020312020312020302020202020200A2020362020372020312020302020202020200A2020332020382020312020302020202020200A2020372020392020312020302020202020200A2020372031302020312020302020202020200A2020362031312020312020302020202020200A2031312020332020312020302020202020200A4D2020454E44
Contributor: HISAHIRO HAGIWARA, CHEMICAL RESEARCH INSTITUTE OF NON-AQUEOUSSOLUTIONS TOHOKU UNIV.
InstType: EI
InstName: HITACHI M-80B
IoniMethod: _ENERGY 70 eV
IonPolarity: pos
Date: 2010-10-09 19:48:36+02:00
Num Peaks: 55
15 29 26 11 27 225 28 18 29 107 39 190 40 30 41 440 42 41 43 999 
44 26 45 12 51 21 52 12 53 106 54 37 55 406 56 32 57 22 58 114 
59 12 65 21 66 10 67 115 68 98 69 352 70 35 71 598 72 31 77 22 
79 29 81 173 82 29 83 159 84 59 85 12 86 86 91 13 93 70 95 31 
96 88 97 55 98 11 107 35 108 20 109 13 110 40 111 736 112 64 121 55 
125 287 126 56 139 93 154 261 155 25 
