Name: METHYL EICOSANOATE
MW: 326
Formula: C21H42O2
Synonym: MassBank: JP002665
Synonym: METHYL EICOSANOATE
Structure: 4D455448594C204549434F53414E4F4154452E6D6F6C0A20204368656D447261773038313331303133303032440A2032332032322020302020302020302020302020302020302020302020303939392056323030300A20202020302E3230363220202020362E3433303220202020302E303030302043202020302020302020302020302020302020302020302020302020302020302020302020300A2020202D302E3230363220202020352E3731353820202020302E303030302043202020302020302020302020302020302020302020302020302020302020302020302020300A20202020302E3230363220202020352E3030313320202020302E303030302043202020302020302020302020302020302020302020302020302020302020302020302020300A2020202D302E3230363220202020342E3238363820202020302E303030302043202020302020302020302020302020302020302020302020302020302020302020302020300A20202020302E3230363220202020332E3537323420202020302E303030302043202020302020302020302020302020302020302020302020302020302020302020302020300A2020202D302E3230363220202020322E3835373920202020302E303030302043202020302020302020302020302020302020302020302020302020302020302020302020300A20202020302E3230363320202020322E3134333420202020302E303030302043202020302020302020302020302020302020302020302020302020302020302020302020300A2020202D302E3230363220202020312E3432383920202020302E303030302043202020302020302020302020302020302020302020302020302020302020302020302020300A20202020302E3230363320202020302E3731343520202020302E303030302043202020302020302020302020302020302020302020302020302020302020302020302020300A2020202D302E323036322020202D302E3030303020202020302E303030302043202020302020302020302020302020302020302020302020302020302020302020302020300A20202020302E323036332020202D302E3731343520202020302E303030302043202020302020302020302020302020302020302020302020302020302020302020302020300A2020202D302E323036322020202D312E3432383920202020302E303030302043202020302020302020302020302020302020302020302020302020302020302020302020300A20202020302E323036332020202D322E3134333420202020302E303030302043202020302020302020302020302020302020302020302020302020302020302020302020300A2020202D302E323036322020202D322E3835373920202020302E303030302043202020302020302020302020302020302020302020302020302020302020302020302020300A20202020302E323036332020202D332E3537323420202020302E303030302043202020302020302020302020302020302020302020302020302020302020302020302020300A2020202D302E323036322020202D342E3238363820202020302E303030302043202020302020302020302020302020302020302020302020302020302020302020302020300A20202020302E323036332020202D352E3030313320202020302E303030302043202020302020302020302020302020302020302020302020302020302020302020302020300A2020202D302E323036322020202D352E3731353820202020302E303030302043202020302020302020302020302020302020302020302020302020302020302020302020300A20202020302E323036332020202D362E3433303220202020302E303030302043202020302020302020302020302020302020302020302020302020302020302020302020300A2020202D302E323036322020202D372E3134343720202020302E303030302043202020302020302020302020302020302020302020302020302020302020302020302020300A20202020312E3033313320202020362E3433303220202020302E30303030204F202020302020302020302020302020302020302020302020302020302020302020302020300A2020202D302E3230363220202020372E3134343720202020302E30303030204F202020302020302020302020302020302020302020302020302020302020302020302020300A2020202D312E3033313320202020372E3134343720202020302E303030302043202020302020302020302020302020302020302020302020302020302020302020302020300A2020312020322020312020302020202020200A2020322020332020312020302020202020200A2020332020342020312020302020202020200A2020342020352020312020302020202020200A2020352020362020312020302020202020200A2020362020372020312020302020202020200A2020372020382020312020302020202020200A2020382020392020312020302020202020200A2020392031302020312020302020202020200A2031302031312020312020302020202020200A2031312031322020312020302020202020200A2031322031332020312020302020202020200A2031332031342020312020302020202020200A2031342031352020312020302020202020200A2031352031362020312020302020202020200A2031362031372020312020302020202020200A2031372031382020312020302020202020200A2031382031392020312020302020202020200A2031392032302020312020302020202020200A2020312032312020322020302020202020200A2020312032322020312020302020202020200A2032322032332020312020302020202020200A4D2020454E44
Contributor: HAYASHI A, DEPT. OF CHEMISTRY, FAC. OF SCI. AND TECHNOLOGY, KINKI UNIV.
InstType: EI
InstName: SHIMADZU LKB-9000B
IoniMethod: _ENERGY 70 eV
IonPolarity: pos
Date: 2010-10-09 19:48:36+02:00
Num Peaks: 112
43 14 55 61 56 5 57 6 59 26 67 25 68 10 69 11 70 29 71 62 
73 19 74 100 75 248 76 12 79 12 81 3 82 22 83 120 84 50 85 5 
87 999 88 84 89 6 93 1 94 7 95 29 96 16 97 14 98 66 99 18 
101 113 102 1 107 11 108 8 109 29 118 2 111 76 112 27 113 14 115 6 
116 28 121 23 122 6 123 3 124 11 125 55 126 10 127 1 129 200 130 45 
131 7 133 1 135 18 137 17 138 7 139 4 140 6 141 10 143 590 144 6 
145 9 149 10 151 8 153 2 157 60 158 15 163 15 165 1 167 17 171 71 
172 18 177 1 179 6 181 13 185 142 186 4 191 12 192 6 195 12 199 17 
200 26 205 8 207 3 208 1 209 4 213 45 214 12 219 0 221 4 223 6 
227 160 228 3 241 110 242 21 250 9 255 6 256 8 269 48 270 14 282 1 
283 345 284 70 285 6 292 1 293 7 295 119 296 30 297 8 298 16 326 422 
327 94 328 10 
