Name: CIS-3-HEPTENOL
MW: 114
Formula: C7H14O
Synonym: MassBank: JP006852
Synonym: CIS-3-HEPTENOL
Structure: 310A32300A4349532D332D48455054454E4F4C2E6D6F6C0A20204368656D447261773039303831303039353532440A2020382020372020302020302020302020302020302020302020302020303939392056323030300A20202020312E363530302020202D302E3030303020202020302E303030302043202020302020302020302020302020302020302020302020302020302020302020302020300A20202020302E383235302020202D302E3030303020202020302E303030302043202020302020302020302020302020302020302020302020302020302020302020302020300A20202020302E343132352020202D302E3731343520202020302E303030302043202020302020302020302020302020302020302020302020302020302020302020302020300A2020202D302E343132352020202D302E3731343520202020302E303030302043202020302020302020302020302020302020302020302020302020302020302020302020300A2020202D302E3832353020202020302E3030303020202020302E303030302043202020302020302020302020302020302020302020302020302020302020302020302020300A2020202D312E3635303020202020302E3030303020202020302E303030302043202020302020302020302020302020302020302020302020302020302020302020302020300A2020202D322E3036323520202020302E3731343520202020302E303030302043202020302020302020302020302020302020302020302020302020302020302020302020300A20202020322E3036323520202020302E3731343520202020302E30303030204F202020302020302020302020302020302020302020302020302020302020302020302020300A2020312020322020312020302020202020200A2020322020332020312020302020202020200A2020332020342020322020302020202020200A2020342020352020312020302020202020200A2020352020362020312020302020202020200A2020362020372020312020302020202020200A2020312020382020312020302020202020200A4D2020454E44
Contributor: TAJIMA S, GUNMA COLLEGE OF TECHNOLOGY
InstType: EI
InstName: HITACHI M-80B
IoniMethod: _ENERGY 70 eV
IonPolarity: pos
Date: 2010-10-09 19:48:36+02:00
Num Peaks: 41
15 15 26 21 27 297 28 31 29 266 31 342 38 21 39 341 40 37 41 795 
42 221 43 179 44 78 45 18 50 20 51 40 52 21 53 146 54 320 55 999 
56 170 57 151 58 16 65 25 66 19 67 310 68 216 69 110 70 40 71 28 
77 14 79 31 81 751 82 51 83 51 84 19 86 28 95 27 96 208 97 16 
114 28 
