Name: 1-ETHYL-2-METHYL-DIHYDROINDOLE
MW: 161
Formula: C11H15N
Synonym: MassBank: JP008034
Synonym: 1-ETHYL-2-METHYL-DIHYDROINDOLE
Structure: 312D455448594C2D322D4D455448594C2D4449485944524F494E444F4C452E6D6F6C0A20204368656D447261773131313830393033343532440A2031322031332020302020302020302020302020302020302020302020303939392056323030300A2020202D302E3532393620202020302E3137333520202020302E30303030204E202020302020302020302020302020302020302020302020302020302020302020302020300A2020202D302E363135392020202D302E3634373020202020302E303030302043202020302020302020302020302020302020302020302020302020302020302020302020300A20202020302E313337382020202D302E3938323520202020302E303030302043202020302020302020302020302020302020302020302020302020302020302020302020300A20202020302E363839382020202D302E3336393520202020302E303030302043202020302020302020302020302020302020302020302020302020302020302020302020300A20202020312E353134382020202D302E3336393520202020302E303030302043202020302020302020302020302020302020302020302020302020302020302020302020300A20202020312E3932373320202020302E3334353020202020302E303030302043202020302020302020302020302020302020302020302020302020302020302020302020300A20202020312E3531343820202020312E3035393520202020302E303030302043202020302020302020302020302020302020302020302020302020302020302020302020300A20202020302E3638393820202020312E3035393520202020302E303030302043202020302020302020302020302020302020302020302020302020302020302020302020300A20202020302E3237373320202020302E3334353020202020302E303030302043202020302020302020302020302020302020302020302020302020302020302020302020300A2020202D312E333330332020202D312E3035393520202020302E303030302043202020302020302020302020302020302020302020302020302020302020302020302020300A2020202D312E3134323720202020302E3732353520202020302E303030302043202020302020302020302020302020302020302020302020302020302020302020302020300A2020202D312E3932373320202020302E3437303620202020302E303030302043202020302020302020302020302020302020302020302020302020302020302020302020300A2020312020322020312020302020202020200A2020322020332020312020302020202020200A2020332020342020312020302020202020200A2020342020352020312020302020202020200A2020352020362020322020302020202020200A2020362020372020312020302020202020200A2020372020382020322020302020202020200A2020382020392020312020302020202020200A2020312020392020312020302020202020200A2020342020392020322020302020202020200A2020322031302020312020302020202020200A2031312031322020312020302020202020200A2020312031312020312020302020202020200A4D2020454E44
Contributor: HAYASHI A, FAC. OF SCIENCE AND TECHNOLOGY, KINKI UNIV.
InstType: EI
InstName: JEOL JMS-HX-100
IoniMethod: _ENERGY 70 eV
IonPolarity: pos
Date: 2010-10-09 19:48:36+02:00
Num Peaks: 88
28 8 29 9 37 1 38 7 39 40 41 17 42 1 45 1 50 14 51 40 
52 16 53 6 54 4 55 3 56 3 64 14 65 56 66 9 67 3 68 2 
69 2 70 2 71 6 72 4 73 19 74 6 75 11 76 15 77 67 78 19 
79 10 80 22 81 3 82 1 86 1 87 3 88 5 89 59 90 51 91 156 
92 15 93 2 94 2 95 2 96 2 97 1 102 18 103 36 104 16 105 13 
106 7 107 1 113 4 114 3 115 52 116 26 117 213 118 371 119 38 120 5 
121 2 126 1 127 8 128 16 129 17 130 173 131 78 132 51 133 33 134 4 
140 3 141 4 142 11 143 30 144 281 145 53 146 999 147 143 148 8 149 2 
157 8 158 20 159 158 160 50 161 445 162 62 163 5 165 1 
