Name: 4-HYDROXY-2-BUTANONE
MW: 88
Formula: C4H8O2
Synonym: MassBank: JP008854
Synonym: 4-HYDROXY-2-BUTANONE
Synonym: HYDROXYETHYL METHYL KETONE
Structure: 310A31360A342D485944524F58592D322D425554414E4F4E452E6D6F6C0A20204368656D447261773034313231303136323932440A2020362020352020302020302020302020302020302020302020302020303939392056323030300A2020202D312E3432383920202020302E3631383820202020302E303030302043202020302020302020302020302020302020302020302020302020302020302020302020300A2020202D302E3731343520202020302E3230363220202020302E303030302043202020302020302020302020302020302020302020302020302020302020302020302020300A20202020302E3030303020202020302E3631383820202020302E303030302043202020302020302020302020302020302020302020302020302020302020302020302020300A20202020302E3731343520202020302E3230363220202020302E303030302043202020302020302020302020302020302020302020302020302020302020302020302020300A2020202D302E373134352020202D302E3631383820202020302E30303030204F202020302020302020302020302020302020302020302020302020302020302020302020300A20202020312E3432383920202020302E3631383820202020302E30303030204F202020302020302020302020302020302020302020302020302020302020302020302020300A2020312020322020312020302020202020200A2020322020332020312020302020202020200A2020332020342020312020302020202020200A2020322020352020322020302020202020200A2020342020362020312020302020202020200A4D2020454E44
Contributor: TAJIMA S, GUNMA COLLEGE OF TECHNOLOGY
InstType: EI
InstName: HITACHI RMU-7M
IoniMethod: _ENERGY 70 eV
IonPolarity: pos
Date: 2010-10-09 19:48:36+02:00
Num Peaks: 25
14 17 15 93 26 24 27 107 28 67 29 74 30 12 31 133 39 34 41 53 
42 103 43 999 44 37 45 80 55 144 57 40 58 50 61 107 69 20 70 194 
71 36 73 57 74 13 87 13 88 48 
