Name: TERT-BUTYLDIMETHYLSILANOL
MW: 132
Formula: C6H16OSi
Synonym: MassBank: JP004739
Synonym: TERT-BUTYLDIMETHYLSILANOL
Structure: 310A32300A544552542D425554594C44494D455448594C53494C414E4F4C2E6D6F6C0A20204368656D447261773038313231303037303932440A2020382020372020302020302020302020302020302020302020302020303939392056323030300A20202020302E3030303020202020302E3431323520202020302E303030302053692020302020302020302020302020302020302020302020302020302020302020302020300A20202020302E3832353020202020302E3431323520202020302E30303030204F202020302020302020302020302020302020302020302020302020302020302020302020300A2020202D302E3832353020202020302E3431323520202020302E303030302043202020302020302020302020302020302020302020302020302020302020302020302020300A20202020302E3030303020202020312E3233373520202020302E303030302043202020302020302020302020302020302020302020302020302020302020302020302020300A20202020302E303030302020202D302E3431323520202020302E303030302043202020302020302020302020302020302020302020302020302020302020302020302020300A20202020302E383235302020202D302E3431323520202020302E303030302043202020302020302020302020302020302020302020302020302020302020302020302020300A20202020302E303030302020202D312E3233373520202020302E303030302043202020302020302020302020302020302020302020302020302020302020302020302020300A2020202D302E383235302020202D302E3431323520202020302E303030302043202020302020302020302020302020302020302020302020302020302020302020302020300A2020312020322020312020302020202020200A2020312020332020312020302020202020200A2020312020342020312020302020202020200A2020352020362020312020302020202020200A2020352020382020312020302020202020200A2020352020372020312020302020202020200A2020312020352020312020302020202020200A4D2020454E44
Contributor: MASS SPECTROSCOPY SOC. OF JAPAN (MSSJ)
InstType: EI
InstName: JEOL JMS-D-3000
IoniMethod: _ENERGY 70 eV
IonPolarity: pos
Date: 2010-10-09 19:48:36+02:00
Num Peaks: 13
41 31 43 15 45 44 47 36 56 20 57 13 60 10 61 22 74 38 75 999 
76 79 77 40 132 47 
