Name: MassBank: JP009689
MW: 198
Formula: C12H10N2O
Synonym: MassBank: JP009689
Synonym: TRANS-(N,N,O)-AZOXYBENZENE
Structure: 303337335F5452414E532D284E2C4E2C4F292D415A4F585942454E5A454E452E6D6F6C0A20204368656D447261773038323031303032313432440A2031352031362020302020302020302020302020302020302020302020303939392056323030300A20202020302E313531302020202D312E3237383020202020302E303030302043202020302020302020302020302020302020302020302020302020302020302020302020300A20202020302E353633352020202D302E3536333520202020302E303030302043202020302020302020302020302020302020302020302020302020302020302020302020300A20202020312E333838352020202D302E3536333520202020302E303030302043202020302020302020302020302020302020302020302020302020302020302020302020300A20202020312E383031302020202D312E3237383020202020302E303030302043202020302020302020302020302020302020302020302020302020302020302020302020300A20202020312E333838352020202D312E3939323420202020302E303030302043202020302020302020302020302020302020302020302020302020302020302020302020300A20202020302E353633352020202D312E3939323420202020302E303030302043202020302020302020302020302020302020302020302020302020302020302020302020300A2020202D302E353633342020202D302E3836353420202020302E30303030204E202020302020332020302020302020302020302020302020302020302020302020302020300A2020202D312E333630332020202D312E3037393020202020302E30303030204F202020302020352020302020302020302020302020302020302020302020302020302020300A2020202D302E313531302020202D302E3135313020202020302E30303030204E202020302020352020302020302020302020302020302020302020302020302020302020300A2020202D302E3536333420202020302E3536333420202020302E303030302043202020302020302020302020302020302020302020302020302020302020302020302020300A2020202D302E3135303920202020312E3237373920202020302E303030302043202020302020302020302020302020302020302020302020302020302020302020302020300A2020202D302E3536333420202020312E3939323420202020302E303030302043202020302020302020302020302020302020302020302020302020302020302020302020300A2020202D312E3338383420202020312E3939323420202020302E303030302043202020302020302020302020302020302020302020302020302020302020302020302020300A2020202D312E3830313020202020312E3237373920202020302E303030302043202020302020302020302020302020302020302020302020302020302020302020302020300A2020202D312E3338383420202020302E3536333420202020302E303030302043202020302020302020302020302020302020302020302020302020302020302020302020300A2020312020322020312020302020202020200A2020322020332020322020302020202020200A2020332020342020312020302020202020200A2020342020352020322020302020202020200A2020352020362020312020302020202020200A2020312020362020322020302020202020200A2020372020382020342020302020202020200A2020372020392020342020302020202020200A2020312020372020312020302020202020200A2020392031302020312020302020202020200A2031302031312020322020302020202020200A2031312031322020312020302020202020200A2031322031332020322020302020202020200A2031332031342020312020302020202020200A2031342031352020322020302020202020200A2031352031302020312020302020202020200A4D202043484720203320202037202020312020203820202D312020203920202D310A4D2020454E44
Contributor: THE INSTITUTE OF SCIENTIFIC AND INDUSTRIALRESEARCH
InstType: EI
InstName: JEOL JMS-DX-300
IoniMethod: _ENERGY 70 eV
IonPolarity: pos
Date: 2010-10-09 19:48:36+02:00
Num Peaks: 32
27 34 38 23 39 81 40 1 41 23 44 20 50 48 51 30 52 41 63 54 
64 152 65 27 66 21 75 10 76 22 77 999 78 90 91 238 92 26 93 7 
105 116 107 28 115 30 141 7 142 26 152 15 169 73 170 3 182 47 197 18 
198 321 199 45 
