Name: 3-AMINOPROPIONITRILE
MW: 70
Formula: C3H6N2
Synonym: MassBank: JP008241
Synonym: 3-AMINOPROPIONITRILE
Structure: 310A31340A332D414D494E4F50524F50494F4E495452494C452E6D6F6C0A20204368656D447261773032323231303133343932440A2020352020342020302020302020302020302020302020302020302020303939392056323030300A2020202D302E363138382020202D302E3335373220202020302E303030302043202020302020302020302020302020302020302020302020302020302020302020302020300A20202020302E323036322020202D302E3335373220202020302E303030302043202020302020302020302020302020302020302020302020302020302020302020302020300A20202020302E3631383820202020302E3335373220202020302E303030302043202020302020302020302020302020302020302020302020302020302020302020302020300A2020202D312E343433382020202D302E3335373220202020302E30303030204E202020302020302020302020302020302020302020302020302020302020302020302020300A20202020312E3434333820202020302E3335373220202020302E30303030204E202020302020302020302020302020302020302020302020302020302020302020302020300A2020312020322020312020302020202020200A2020322020332020312020302020202020200A2020312020342020332020302020202020200A2020332020352020312020302020202020200A4D2020454E44
Contributor: UBE SCIENTIFIC ANALYSIS LABORATORY
InstType: EI
InstName: HITACHI M-60
IoniMethod: _ENERGY 70 eV
IonPolarity: pos
Date: 2010-10-09 19:48:36+02:00
Num Peaks: 20
14 13 15 37 17 14 26 13 27 30 28 191 29 19 30 999 31 15 38 17 
39 26 40 46 41 61 42 139 43 12 51 10 52 6 69 10 70 5 71 9 
