Name: 2-METHYL-5-(4-METHYLPENTYL)PYRIDINE
MW: 177
Formula: C12H19N
Synonym: MassBank: JP005101
Synonym: 2-METHYL-5-(4-METHYLPENTYL)PYRIDINE
Structure: 322D4D455448594C2D352D28342D4D455448594C50454E54594C295059524944494E452E6D6F6C0A20204368656D447261773031323231303037313232440A2031332031332020302020302020302020302020302020302020302020303939392056323030300A20202020322E3134333420202020302E3431323520202020302E303030302043202020302020302020302020302020302020302020302020302020302020302020302020300A20202020322E313433342020202D302E3431323520202020302E303030302043202020302020302020302020302020302020302020302020302020302020302020302020300A20202020312E343238392020202D302E3832353020202020302E303030302043202020302020302020302020302020302020302020302020302020302020302020302020300A20202020302E373134352020202D302E3431323520202020302E303030302043202020302020302020302020302020302020302020302020302020302020302020302020300A20202020302E3731343520202020302E3431323520202020302E303030302043202020302020302020302020302020302020302020302020302020302020302020302020300A20202020312E3432383920202020302E3832353020202020302E30303030204E202020302020302020302020302020302020302020302020302020302020302020302020300A2020202D302E303030302020202D302E3832353020202020302E303030302043202020302020302020302020302020302020302020302020302020302020302020302020300A2020202D302E373134352020202D302E3431323520202020302E303030302043202020302020302020302020302020302020302020302020302020302020302020302020300A2020202D312E343238392020202D302E3832353020202020302E303030302043202020302020302020302020302020302020302020302020302020302020302020302020300A2020202D322E313433342020202D302E3431323520202020302E303030302043202020302020302020302020302020302020302020302020302020302020302020302020300A2020202D322E383537392020202D302E3832353020202020302E303030302043202020302020302020302020302020302020302020302020302020302020302020302020300A2020202D322E3134333420202020302E3431323520202020302E303030302043202020302020302020302020302020302020302020302020302020302020302020302020300A20202020322E3835373920202020302E3832353020202020302E303030302043202020302020302020302020302020302020302020302020302020302020302020302020300A2020312020322020312020302020202020200A2020322020332020322020302020202020200A2020332020342020312020302020202020200A2020342020352020322020302020202020200A2020352020362020312020302020202020200A2020312020362020322020302020202020200A2020372020382020312020302020202020200A2020382020392020312020302020202020200A2020392031302020312020302020202020200A2031302031312020312020302020202020200A2031302031322020312020302020202020200A2020342020372020312020302020202020200A2020312031332020312020302020202020200A4D2020454E44
Contributor: SASAKI S, TOYOHASHI UNIV. OF TECH.
InstType: EI
InstName: MX-1303
IoniMethod: _ENERGY 50 eV
IonPolarity: pos
Date: 2010-10-09 19:48:36+02:00
Num Peaks: 47
39 53 41 58 42 58 43 5 44 25 51 24 52 18 53 3 55 13 57 14 
63 12 65 5 66 15 67 11 77 135 78 4 79 81 80 13 91 38 92 3 
93 31 94 30 104 14 105 2 106 999 107 247 108 32 117 4 118 19 119 57 
120 137 121 5 132 96 133 17 134 33 135 2 146 10 148 22 149 10 150 4 
161 18 162 32 163 213 175 2 176 16 177 120 178 18 
