Name: N-ACETYLGLYCYLGLYCYLGLYCYLGLYCINE METHYL ESTER
MW: 302
Formula: C11H18N4O6
Synonym: MassBank: JP007413
Synonym: N-ACETYLGLYCYLGLYCYLGLYCYLGLYCINE METHYL ESTER
Structure: 4E2D41434554594C474C5943594C474C5943594C474C5943594C474C5943494E45204D455448594C2045535445522E6D6F6C0A20204368656D447261773038313231303031343432440A2032312032302020302020302020302020302020302020302020302020303939392056323030300A20202020332E3932393620202020302E3431323520202020302E303030302043202020302020302020302020302020302020302020302020302020302020302020302020300A20202020322E3530303620202020302E3431323520202020302E30303030204E202020302020302020302020302020302020302020302020302020302020302020302020300A20202020332E3231353120202020302E3030303020202020302E303030302043202020302020302020302020302020302020302020302020302020302020302020302020300A20202020332E3932393620202020312E3233373520202020302E30303030204F202020302020302020302020302020302020302020302020302020302020302020302020300A20202020342E3634343120202020302E3030303020202020302E30303030204F202020302020302020302020302020302020302020302020302020302020302020302020300A20202020312E3738363220202020302E3030303020202020302E303030302043202020302020302020302020302020302020302020302020302020302020302020302020300A20202020302E3335373220202020302E3030303020202020302E30303030204E202020302020302020302020302020302020302020302020302020302020302020302020300A20202020312E3037313720202020302E3431323520202020302E303030302043202020302020302020302020302020302020302020302020302020302020302020302020300A20202020312E373836322020202D302E3832353020202020302E30303030204F202020302020302020302020302020302020302020302020302020302020302020302020300A2020202D302E3335373220202020302E3431323520202020302E303030302043202020302020302020302020302020302020302020302020302020302020302020302020300A2020202D312E3738363220202020302E3431323520202020302E30303030204E202020302020302020302020302020302020302020302020302020302020302020302020300A2020202D312E3037313720202020302E3030303020202020302E303030302043202020302020302020302020302020302020302020302020302020302020302020302020300A2020202D302E3335373220202020312E3233373520202020302E30303030204F202020302020302020302020302020302020302020302020302020302020302020302020300A2020202D322E353030362020202D302E3030303020202020302E303030302043202020302020302020302020302020302020302020302020302020302020302020302020300A2020202D332E323135312020202D312E3233373520202020302E30303030204E202020302020302020302020302020302020302020302020302020302020302020302020300A2020202D322E353030362020202D302E3832353020202020302E303030302043202020302020302020302020302020302020302020302020302020302020302020302020300A2020202D332E3231353120202020302E3431323520202020302E30303030204F202020302020302020302020302020302020302020302020302020302020302020302020300A2020202D332E393239362020202D302E3832353020202020302E303030302043202020302020302020302020302020302020302020302020302020302020302020302020300A2020202D332E393239362020202D302E3030303020202020302E30303030204F202020302020302020302020302020302020302020302020302020302020302020302020300A2020202D342E363434312020202D312E3233373520202020302E303030302043202020302020302020302020302020302020302020302020302020302020302020302020300A20202020342E363434312020202D302E3832353020202020302E303030302043202020302020302020302020302020302020302020302020302020302020302020302020300A2020322020332020312020302020202020200A2020312020332020312020302020202020200A2020312020342020322020302020202020200A2020312020352020312020302020202020200A2020372020382020312020302020202020200A2020362020382020312020302020202020200A2020362020392020322020302020202020200A2031312031322020312020302020202020200A2031302031322020312020302020202020200A2031302031332020322020302020202020200A2031352031362020312020302020202020200A2031342031362020312020302020202020200A2031342031372020322020302020202020200A2031312031342020312020302020202020200A2020372031302020312020302020202020200A2020322020362020312020302020202020200A2031382031392020322020302020202020200A2031382032302020312020302020202020200A2031352031382020312020302020202020200A2020352032312020312020302020202020200A4D2020454E44
Contributor: YAMAMOTO M, DEP. CHEMISTRY, FAC. SCIENCE, NARA WOMEN'S UNIV.
InstType: EI
InstName: HITACHI RMU-6M
IoniMethod: _ENERGY 70 eV
IonPolarity: pos
Date: 2010-10-09 19:48:36+02:00
Num Peaks: 59
26 16 27 107 28 313 29 6 30 999 31 46 39 16 40 4 41 66 42 85 
43 291 44 5 45 23 54 19 55 23 56 9 57 24 58 20 59 39 60 3 
69 14 71 61 72 188 73 14 74 12 85 42 86 10 87 2 88 102 89 14 
90 175 98 1 99 32 100 382 101 24 113 6 114 42 115 34 129 49 130 17 
131 39 142 30 145 12 146 2 147 29 157 226 158 20 173 1 186 36 187 129 
188 36 203 2 213 15 214 68 230 62 231 1 270 16 284 12 302 50 
