Name: ETHYL 2-ETHOXYCARBONYL-3-(1-PHENETHYL)HEPTANOATE
MW: 334
Formula: C20H30O4
Synonym: MassBank: JP004895
Synonym: ETHYL 2-ETHOXYCARBONYL-3-(1-PHENETHYL)HEPTANOATE
Structure: 303932355F455448594C20322D4554484F5859434152424F4E594C2D332D28312D5048454E455448594C2948455054414E4F4154452E6D6F6C0A20204368656D447261773039303631303230343932440A2032342032342020302020302020302020302020302020302020302020303939392056323030300A2020202D302E313637392020202D312E3432383920202020302E303030302043202020302020302020302020302020302020302020302020302020302020302020302020300A2020202D302E353830342020202D302E3731343520202020302E303030302043202020302020302020302020302020302020302020302020302020302020302020302020300A2020202D302E3136373920202020302E3030303020202020302E303030302043202020302020302020302020302020302020302020302020302020302020302020302020300A2020202D302E3538303420202020302E3731343520202020302E303030302043202020302020302020302020302020302020302020302020302020302020302020302020300A2020202D312E3430353420202020302E3731343520202020302E303030302043202020302020302020302020302020302020302020302020302020302020302020302020300A2020202D312E3831373920202020312E3432383920202020302E303030302043202020302020302020302020302020302020302020302020302020302020302020302020300A2020202D312E3430353420202020322E3134333420202020302E303030302043202020302020302020302020302020302020302020302020302020302020302020302020300A2020202D302E353830342020202D322E3134333420202020302E30303030204F202020302020302020302020302020302020302020302020302020302020302020302020300A20202020302E363537312020202D312E3432383920202020302E30303030204F202020302020302020302020302020302020302020302020302020302020302020302020300A20202020302E3635373120202020302E3030303020202020302E303030302043202020302020302020302020302020302020302020302020302020302020302020302020300A20202020302E3930303620202020302E3738383220202020302E303030302043202020302020302020302020302020302020302020302020302020302020302020302020300A20202020312E363236352020202D302E3234373520202020302E303030302043202020302020302020302020302020302020302020302020302020302020302020302020300A20202020322E3334313020202020302E3136353020202020302E303030302043202020302020302020302020302020302020302020302020302020302020302020302020300A20202020332E303535342020202D302E3234373520202020302E303030302043202020302020302020302020302020302020302020302020302020302020302020302020300A20202020332E303535342020202D312E3037323520202020302E303030302043202020302020302020302020302020302020302020302020302020302020302020302020300A20202020322E333431302020202D312E3438353020202020302E303030302043202020302020302020302020302020302020302020302020302020302020302020302020300A20202020312E363236352020202D312E3037323520202020302E303030302043202020302020302020302020302020302020302020302020302020302020302020302020300A2020202D312E343035342020202D302E3731343520202020302E303030302043202020302020302020302020302020302020302020302020302020302020302020302020300A2020202D312E3831373920202020302E3030303020202020302E30303030204F202020302020302020302020302020302020302020302020302020302020302020302020300A2020202D312E383137392020202D312E3432383920202020302E30303030204F202020302020302020302020302020302020302020302020302020302020302020302020300A2020202D322E363432392020202D312E3432383920202020302E303030302043202020302020302020302020302020302020302020302020302020302020302020302020300A2020202D332E303535342020202D322E3134333420202020302E303030302043202020302020302020302020302020302020302020302020302020302020302020302020300A20202020312E303639362020202D322E3134333420202020302E303030302043202020302020302020302020302020302020302020302020302020302020302020302020300A20202020312E383934362020202D322E3134333420202020302E303030302043202020302020302020302020302020302020302020302020302020302020302020302020300A2020312020322020312020302020202020200A2020322020332020312020302020202020200A2020332020342020312020302020202020200A2020342020352020312020302020202020200A2020352020362020312020302020202020200A2020362020372020312020302020202020200A2020312020382020322020302020202020200A2020312020392020312020302020202020200A2031302031312020312020302020202020200A2031322031332020312020302020202020200A2031332031342020322020302020202020200A2031342031352020312020302020202020200A2031352031362020322020302020202020200A2031362031372020312020302020202020200A2031322031372020322020302020202020200A2020332031302020312020302020202020200A2031382031392020322020302020202020200A2032312032322020312020302020202020200A2032302032312020312020302020202020200A2031382032302020312020302020202020200A2020322031382020312020302020202020200A2032332032342020312020302020202020200A2020392032332020312020302020202020200A2031302031322020312020302020202020200A4D2020454E44
Contributor: KATO T, DEPT. OF CHEM., FAC. OF SCI., TOHOKU UNIV.
InstType: EI
InstName: Unknown
IoniMethod: _ENERGY 14 eV
IonPolarity: pos
Date: 2010-10-09 19:48:36+02:00
Num Peaks: 21
104 32 105 286 106 13 115 2 118 265 119 18 129 11 132 4 133 14 137 28 
155 26 159 6 160 168 161 216 162 24 174 999 176 16 183 34 184 10 289 5 
355 3 
