Name: MassBank: JP003025
MW: 359
Formula: C17H29NO3S2
Synonym: MassBank: JP003025
Synonym: 2-ACETOXY-1-ACETYL-3,6-DI-TERT-BUTYLMERCAPTO-1,2,3,6-TETRAHYDRO-PYRIDINE
Structure: 322D414345544F58592D312D41434554594C2D332C362D44492D544552542D425554594C4D4552434150544F2D312C322C332C362D5445545241485944524F2D5059524944494E452E6D6F6C0A20204368656D447261773132323130393231343232440A2032332032332020302020302020302020302020302020302020302020303939392056323030300A20202020302E3431323520202020302E3335373220202020302E303030302043202020302020302020302020302020302020302020302020302020302020302020302020300A20202020302E383235302020202D302E3335373220202020302E303030302043202020302020302020302020302020302020302020302020302020302020302020302020300A20202020302E343132352020202D312E3037313720202020302E303030302043202020302020302020302020302020302020302020302020302020302020302020302020300A2020202D302E343132352020202D312E3037313720202020302E303030302043202020302020302020302020302020302020302020302020302020302020302020302020300A2020202D302E383235302020202D302E3335373220202020302E303030302043202020302020302020302020302020302020302020302020302020302020302020302020300A2020202D302E3431323520202020302E3335373220202020302E30303030204E202020302020302020302020302020302020302020302020302020302020302020302020300A2020202D312E363530302020202D302E3335373220202020302E303030302053202020302020302020302020302020302020302020302020302020302020302020302020300A2020202D322E303632352020202D312E3037313720202020302E303030302043202020302020302020302020302020302020302020302020302020302020302020302020300A2020202D322E373737302020202D302E3635393220202020302E303030302043202020302020302020302020302020302020302020302020302020302020302020302020300A2020202D312E333438302020202D312E3438343220202020302E303030302043202020302020302020302020302020302020302020302020302020302020302020302020300A2020202D322E343735302020202D312E3738363220202020302E303030302043202020302020302020302020302020302020302020302020302020302020302020302020300A20202020312E363530302020202D302E3335373220202020302E303030302053202020302020302020302020302020302020302020302020302020302020302020302020300A20202020322E303632352020202D312E3037313720202020302E303030302043202020302020302020302020302020302020302020302020302020302020302020302020300A20202020322E343735302020202D312E3738363220202020302E303030302043202020302020302020302020302020302020302020302020302020302020302020302020300A20202020312E333438302020202D312E3438343220202020302E303030302043202020302020302020302020302020302020302020302020302020302020302020302020300A20202020322E373737302020202D302E3635393220202020302E303030302043202020302020302020302020302020302020302020302020302020302020302020302020300A2020202D302E3832353020202020312E3037313720202020302E303030302043202020302020302020302020302020302020302020302020302020302020302020302020300A2020202D312E3635303020202020312E3037313720202020302E30303030204F202020302020302020302020302020302020302020302020302020302020302020302020300A2020202D302E3431323520202020312E3738363220202020302E303030302043202020302020302020302020302020302020302020302020302020302020302020302020300A20202020302E3832353020202020312E3037313720202020302E30303030204F202020302020302020302020302020302020302020302020302020302020302020302020300A20202020312E3635303020202020312E3037313720202020302E303030302043202020302020302020302020302020302020302020302020302020302020302020302020300A20202020322E3036323520202020312E3738363220202020302E30303030204F202020302020302020302020302020302020302020302020302020302020302020302020300A20202020322E3036323520202020302E3335373220202020302E303030302043202020302020302020302020302020302020302020302020302020302020302020302020300A2020312020322020312020302020202020200A2020322020332020312020302020202020200A2020332020342020322020302020202020200A2020342020352020312020302020202020200A2020352020362020312020302020202020200A2020312020362020312020302020202020200A2020382020392020312020302020202020200A2020382031312020312020302020202020200A2020382031302020312020302020202020200A2020372020382020312020302020202020200A2020352020372020312020302020202020200A2031332031342020312020302020202020200A2031332031362020312020312020202020200A2031332031352020312020312020202020200A2031322031332020312020302020202020200A2020322031322020312020302020202020200A2031372031382020322020302020202020200A2031372031392020312020302020202020200A2020362031372020312020302020202020200A2032312032322020322020302020202020200A2032312032332020312020302020202020200A2032302032312020312020302020202020200A2020312032302020312020302020202020200A4D2020454E44
Contributor: SASAKI S, TOYOHASHI UNIV. OF TECH.
InstType: EI
InstName: Unknown
IoniMethod: EI
IonPolarity: pos
Date: 2010-10-09 19:48:36+02:00
Num Peaks: 42
39 340 40 500 41 620 42 6 43 490 45 130 49 40 50 1 51 100 52 140 
53 70 55 1 56 130 57 999 58 50 59 1 60 80 67 70 75 80 78 1 
79 210 80 240 83 50 84 0 90 100 96 110 110 50 111 6 112 380 113 60 
122 40 132 1 135 90 138 90 154 90 167 2 168 290 169 60 180 40 210 1 
270 140 359 30 
