Name: MassBank: JP003109
MW: 205
Formula: C13H19NO
Synonym: MassBank: JP003109
Synonym: DIETHYLPROPION, DONYLEN,DOBESIN
Structure: 4449455448594C50524F50494F4E2C20444F4E594C454E2C444F424553494E2E6D6F6C0A20204368656D447261773039323131303230343332440A2031352031352020302020302020302020302020302020302020302020303939392056323030300A20202020302E303030302020202D302E3335373220202020302E303030302043202020302020302020302020302020302020302020302020302020302020302020302020300A20202020302E3431323520202020302E3335373220202020302E303030302043202020302020302020302020302020302020302020302020302020302020302020302020300A20202020302E3030303020202020312E3037313720202020302E303030302043202020302020302020302020302020302020302020302020302020302020302020302020300A20202020302E343132352020202D312E3037313720202020302E30303030204F202020302020302020302020302020302020302020302020302020302020302020302020300A2020202D302E383235302020202D302E3335373220202020302E303030302043202020302020302020302020302020302020302020302020302020302020302020302020300A2020202D312E323337352020202D312E3037313720202020302E303030302043202020302020302020302020302020302020302020302020302020302020302020302020300A2020202D322E303632352020202D312E3037313720202020302E303030302043202020302020302020302020302020302020302020302020302020302020302020302020300A2020202D322E343735302020202D302E3335373220202020302E303030302043202020302020302020302020302020302020302020302020302020302020302020302020300A2020202D322E3036323520202020302E3335373220202020302E303030302043202020302020302020302020302020302020302020302020302020302020302020302020300A2020202D312E3233373520202020302E3335373220202020302E303030302043202020302020302020302020302020302020302020302020302020302020302020302020300A20202020312E3233373520202020302E3335373220202020302E30303030204E202020302020302020302020302020302020302020302020302020302020302020302020300A20202020312E363530302020202D302E3335373220202020302E303030302043202020302020302020302020302020302020302020302020302020302020302020302020300A20202020312E323337352020202D312E3037313720202020302E303030302043202020302020302020302020302020302020302020302020302020302020302020302020300A20202020312E3635303020202020312E3037313720202020302E303030302043202020302020302020302020302020302020302020302020302020302020302020302020300A20202020322E3437353020202020312E3037313720202020302E303030302043202020302020302020302020302020302020302020302020302020302020302020302020300A2020312020322020312020302020202020200A2020322020332020312020302020202020200A2020312020342020322020302020202020200A2020352020362020312020302020202020200A2020362020372020322020302020202020200A2020372020382020312020302020202020200A2020382020392020322020302020202020200A2020392031302020312020302020202020200A2020352031302020322020302020202020200A2020312020352020312020302020202020200A2031322031332020312020302020202020200A2031312031322020312020302020202020200A2031342031352020312020302020202020200A2031312031342020312020302020202020200A2020322031312020312020302020202020200A4D2020454E44
Contributor: SASAKI S, TOYOHASHI UNIV. OF TECH.
InstType: EI
InstName: Unknown
IoniMethod: EI
IonPolarity: pos
Date: 2010-10-09 19:48:36+02:00
Num Peaks: 139
24 1 25 9 26 43 27 12 28 353 29 119 30 43 31 0 32 17 35 3 
36 17 37 1 38 11 39 41 40 17 41 6 42 149 43 34 44 283 45 1 
49 3 50 44 51 117 52 3 53 9 54 18 55 27 56 11 57 23 58 33 
59 1 61 0 62 7 63 17 64 8 65 2 66 3 67 5 68 16 69 1 
70 67 71 17 72 200 73 2 74 13 75 14 76 21 77 18 78 58 79 21 
80 1 81 0 82 1 83 8 84 13 85 1 86 13 87 2 88 1 89 2 
90 9 91 40 92 9 93 0 95 3 96 1 97 3 98 3 99 10 100 999 
101 83 102 2 103 19 104 26 105 149 106 2 107 3 114 1 115 44 116 2 
117 21 118 13 119 3 120 1 121 1 126 3 127 7 128 1 129 14 130 12 
131 14 132 2 133 11 134 17 135 3 139 0 141 2 142 2 143 9 144 1 
145 4 146 7 147 5 154 1 155 1 156 9 157 5 158 1 159 8 160 8 
161 1 162 2 163 3 167 3 168 4 169 0 170 6 171 1 172 8 173 0 
174 3 175 2 176 5 177 0 181 1 183 2 184 4 185 1 186 11 187 3 
188 8 189 1 190 3 201 3 202 8 203 0 204 4 205 5 206 1 
