Name: FLUOREN
MW: 166
Formula: C13H10
Synonym: MassBank: JP001403
Synonym: FLUOREN
Synonym: 2-21-METHYLENBIPHENYL
Structure: 464C554F52454E2E6D6F6C0A20204368656D447261773132323130393231333732440A2031332031352020302020302020302020302020302020302020302020303939392056323030300A2020202D302E313932362020202D312E3032313020202020302E303030302043202020302020302020302020302020302020302020302020302020302020302020302020300A20202020302E353631302020202D302E3638353520202020302E303030302043202020302020302020302020302020302020302020302020302020302020302020302020300A20202020312E333134372020202D312E3032313020202020302E303030302043202020302020302020302020302020302020302020302020302020302020302020302020300A20202020312E393832322020202D302E3533363120202020302E303030302043202020302020302020302020302020302020302020302020302020302020302020302020300A20202020312E3839353920202020302E3238343420202020302E303030302043202020302020302020302020302020302020302020302020302020302020302020302020300A20202020312E3134323320202020302E3631393920202020302E303030302043202020302020302020302020302020302020302020302020302020302020302020302020300A20202020302E3437343820202020302E3133353020202020302E303030302043202020302020302020302020302020302020302020302020302020302020302020302020300A2020202D302E3333323220202020302E3330363520202020302E303030302043202020302020302020302020302020302020302020302020302020302020302020302020300A2020202D302E3734343720202020312E3032313020202020302E303030302043202020302020302020302020302020302020302020302020302020302020302020302020300A2020202D312E3536393720202020312E3032313020202020302E303030302043202020302020302020302020302020302020302020302020302020302020302020302020300A2020202D312E3938323220202020302E3330363520202020302E303030302043202020302020302020302020302020302020302020302020302020302020302020302020300A2020202D312E353639372020202D302E3430373920202020302E303030302043202020302020302020302020302020302020302020302020302020302020302020302020300A2020202D302E373434372020202D302E3430373920202020302E303030302043202020302020302020302020302020302020302020302020302020302020302020302020300A2020312020322020312020302020202020200A2020322020332020312020302020202020200A2020332020342020322020302020202020200A2020342020352020312020302020202020200A2020352020362020322020302020202020200A2020362020372020312020302020202020200A2020322020372020322020302020202020200A2020372020382020312020302020202020200A2020382020392020312020302020202020200A2020392031302020322020302020202020200A2031302031312020312020302020202020200A2031312031322020322020302020202020200A2031322031332020312020302020202020200A2020382031332020322020302020202020200A2020312031332020312020302020202020200A4D2020454E44
Contributor: HASHIMOTO K, KYOTO COLLEGE OF PHARMACY
InstType: EI
InstName: HITACHI M-80
IoniMethod: _ENERGY 20 eV
IonPolarity: pos
Date: 2010-10-09 19:48:36+02:00
Num Peaks: 3
165 419 166 999 167 162 
