Name: CIS-3-PENTENOL
CAS: 616-25-1
MW: 86
Formula: C5H10O
Synonym: MassBank: JP007113
Synonym: CIS-3-PENTENOL
Structure: 310A31360A4349532D332D50454E54454E4F4C2E6D6F6C0A20204368656D447261773039303831303134323932440A2020362020352020302020302020302020302020302020302020302020303939392056323030300A20202020302E373134352020202D302E3631383820202020302E303030302043202020302020302020302020302020302020302020302020302020302020302020302020300A2020202D302E303030302020202D302E3230363220202020302E303030302043202020302020302020302020302020302020302020302020302020302020302020302020300A2020202D302E373134352020202D302E3631383820202020302E303030302043202020302020302020302020302020302020302020302020302020302020302020302020300A2020202D312E343238392020202D302E3230363220202020302E303030302043202020302020302020302020302020302020302020302020302020302020302020302020300A20202020312E343238392020202D302E3230363220202020302E303030302043202020302020302020302020302020302020302020302020302020302020302020302020300A2020202D302E3030303020202020302E3631383820202020302E30303030204F202020302020302020302020302020302020302020302020302020302020302020302020300A2020312020322020312020302020202020200A2020322020332020312020302020202020200A2020332020342020322020302020202020200A2020312020352020312020302020202020200A2020322020362020312020302020202020200A4D2020454E44
Contributor: SODA AROMATIC CO., LTD.
InstType: EI
InstName: HITACHI M-80B
IoniMethod: _ENERGY 70 eV
IonPolarity: pos
Date: 2010-10-09 19:48:36+02:00
Num Peaks: 33
15 33 26 85 27 564 28 108 29 674 30 21 31 641 37 24 38 65 39 569 
40 99 41 700 42 80 43 123 44 146 45 29 49 13 50 64 51 83 52 27 
53 267 54 151 55 999 56 910 57 203 58 34 65 13 66 14 67 228 68 884 
69 57 71 16 86 60 
