Name: 3-NITROBENZYL ALCOHOL
CAS: 619-25-0
MW: 153
Formula: C7H7NO3
Synonym: MassBank: JP005704
Synonym: 3-NITROBENZYL ALCOHOL
Structure: 332D4E4954524F42454E5A594C20414C434F484F4C2E6D6F6C0A20204368656D447261773033323031303137343232440A2031312031312020302020302020302020302020302020302020302020303939392056323030300A20202020312E3432383920202020302E3431323520202020302E303030302043202020302020302020302020302020302020302020302020302020302020302020302020300A20202020302E3731343520202020302E3030303020202020302E303030302043202020302020302020302020302020302020302020302020302020302020302020302020300A2020202D302E3030303020202020302E3431323520202020302E303030302043202020302020302020302020302020302020302020302020302020302020302020302020300A2020202D302E3731343520202020302E3030303020202020302E303030302043202020302020302020302020302020302020302020302020302020302020302020302020300A2020202D302E373134352020202D302E3832353020202020302E303030302043202020302020302020302020302020302020302020302020302020302020302020302020300A20202020302E303030302020202D312E3233373520202020302E303030302043202020302020302020302020302020302020302020302020302020302020302020302020300A20202020302E373134352020202D302E3832353020202020302E303030302043202020302020302020302020302020302020302020302020302020302020302020302020300A2020202D312E3432383920202020302E3431323520202020302E30303030204E202020302020332020302020302020302020302020302020302020302020302020302020300A2020202D312E3432383920202020312E3233373520202020302E30303030204F202020302020302020302020302020302020302020302020302020302020302020302020300A2020202D322E3134333420202020302E3030303020202020302E30303030204F202020302020352020302020302020302020302020302020302020302020302020302020300A20202020322E3134333420202020302E3030303020202020302E30303030204F202020302020302020302020302020302020302020302020302020302020302020302020300A2020312020322020312020302020202020200A2020322020332020312020302020202020200A2020332020342020322020302020202020200A2020342020352020312020302020202020200A2020352020362020322020302020202020200A2020362020372020312020302020202020200A2020322020372020322020302020202020200A2020382020392020322020302020202020200A2020382031302020312020302020202020200A2020342020382020312020302020202020200A2020312031312020312020302020202020200A4D202043484720203220202038202020312020313020202D310A4D2020454E44
Contributor: MASS SPECTROSCOPY SOC. OF JAPAN (MSSJ)
InstType: EI
InstName: HITACHI M-80
IoniMethod: _ENERGY 70 eV
IonPolarity: pos
Date: 2010-10-09 19:48:36+02:00
Num Peaks: 66
27 55 28 12 29 53 30 73 31 70 37 14 38 33 39 117 40 13 41 28 
46 31 49 8 50 148 51 271 52 69 53 89 55 22 61 16 62 44 63 138 
64 35 65 35 66 21 67 22 73 10 74 59 75 53 76 83 77 999 78 332 
79 158 80 12 81 7 85 5 86 10 87 10 88 6 89 515 90 83 91 20 
92 15 93 7 94 33 95 14 104 14 105 180 106 315 107 667 108 198 109 13 
110 8 121 15 122 5 123 6 124 62 125 14 135 7 136 369 137 73 138 8 
150 11 151 6 152 64 153 485 154 72 155 28 
