Name: MassBank: JP004616
MW: 364
Formula: C22H36O4
Synonym: MassBank: JP004616
Synonym: (6E,10E)-1-ACETOXY-14-(1-HYDROXY-1-METHYLETHYL)-2,3-EPOXY-3,7,11-TRIMETHYLCYCLOTETRADECADIENE
Structure: 2836452C313045292D312D414345544F58592D31342D28312D485944524F58592D312D4D455448594C455448594C292D322C332D45504F58592D332C372C31312D5452494D455448594C4359434C4F5445545241444543414449454E452E6D6F6C0A20204368656D447261773130323230393034333532440A2032382032392020302020302020302020302020302020302020302020303939392056323030300A2020202D302E3831393020202020312E3436303920202020302E303030302043202020302020302020302020302020302020302020302020302020302020302020302020300A2020202D302E3831393020202020302E3633353920202020302E303030302043202020302020302020302020302020302020302020302020302020302020302020302020300A2020202D302E3233353620202020302E3035323620202020302E303030302043202020302020302020302020302020302020302020302020302020302020302020302020300A20202020302E3538393420202020302E3035323620202020302E303030302043202020302020302020302020302020302020302020302020302020302020302020302020300A20202020312E3137323820202020302E3633353920202020302E303030302043202020302020302020302020302020302020302020302020302020302020302020302020300A20202020312E3137323820202020312E3436303920202020302E303030302043202020302020302020302020302020302020302020302020302020302020302020302020300A20202020302E3538393420202020322E3034343320202020302E303030302043202020302020302020302020302020302020302020302020302020302020302020302020300A2020202D302E3233353620202020322E3034343320202020302E303030302043202020302020302020302020302020302020302020302020302020302020302020302020300A2020202D312E3634343020202020302E3633353920202020302E303030302043202020302020302020302020302020302020302020302020302020302020302020302020300A2020202D322E3232373320202020302E3035323620202020302E303030302043202020302020302020302020302020302020302020302020302020302020302020302020300A2020202D322E323237332020202D302E3737323420202020302E303030302043202020302020302020302020302020302020302020302020302020302020302020302020300A2020202D312E363434302020202D312E3335353820202020302E303030302043202020302020302020302020302020302020302020302020302020302020302020302020300A2020202D302E383139302020202D312E3335353820202020302E303030302043202020302020302020302020302020302020302020302020302020302020302020302020300A2020202D302E323335362020202D302E3737323420202020302E303030302043202020302020302020302020302020302020302020302020302020302020302020302020300A20202020312E3838393720202020312E3034383420202020302E30303030204F202020302020302020302020302020302020302020302020302020302020302020302020300A20202020302E393036382020202D302E3731313320202020302E30303030204F202020302020302020302020302020302020302020302020302020302020302020302020300A20202020312E373233312020202D302E3831373320202020302E303030302043202020302020302020302020302020302020302020302020302020302020302020302020300A20202020322E323237332020202D302E3136353320202020302E30303030204F202020302020302020302020302020302020302020302020302020302020302020302020300A20202020322E303338382020202D312E3537393520202020302E303030302043202020302020302020302020302020302020302020302020302020302020302020302020300A2020202D312E3538303020202020312E3737353620202020302E303030302048202020302020302020302020302020302020302020302020302020302020302020302020300A20202020302E313736392020202D302E3636313920202020302E303030302043202020302020302020302020302020302020302020302020302020302020302020302020300A2020202D312E353132362020202D302E3336303720202020302E303030302048202020302020302020302020302020302020302020302020302020302020302020302020300A20202020302E353839342020202D312E3337373720202020302E30303030204F202020302020302020302020302020302020302020302020302020302020302020302020300A2020202D302E323335362020202D312E3337363420202020302E303030302043202020302020302020302020302020302020302020302020302020302020302020302020300A20202020302E383931342020202D312E3037343420202020302E303030302043202020302020302020302020302020302020302020302020302020302020302020302020300A2020202D302E383230302020202D302E3138393120202020302E303030302043202020302020302020302020302020302020302020302020302020302020302020302020300A2020202D312E393539382020202D322E3131363820202020302E303030302043202020302020302020302020302020302020302020302020302020302020302020302020300A20202020312E3637343320202020322E3131363820202020302E303030302043202020302020302020302020302020302020302020302020302020302020302020302020300A2020312020322020322020302020202020200A2020332020342020312020302020202020200A2020342020352020312020302020202020200A2020352020362020312020302020202020200A2020362020372020312020302020202020200A2020372020382020312020302020202020200A2020382020312020312020302020202020200A2020322020392020312020302020202020200A2020392031302020312020302020202020200A2031302031312020312020302020202020200A2031312031322020322020302020202020200A2031322031332020312020302020202020200A2031332031342020312020302020202020200A2031342020332020312020302020202020200A2020362031352020312020302020202020200A2020352031352020312020302020202020200A2020342031362020312020302020202020200A2031362031372020312020302020202020200A2031372031382020322020302020202020200A2031372031392020312020302020202020200A2020312032302020312020302020202020200A2020332032312020312020302020202020200A2031312032322020312020302020202020200A2032312032332020312020302020202020200A2032312032342020312020302020202020200A2032312032352020312020302020202020200A2020322032362020312020302020202020200A2031322032372020312020302020202020200A2020362032382020312020302020202020200A4D202053545920203120202031205355500A4D2020534C4220203120202031202020310A4D202053414C20202031202031202032360A4D202053424C20202031202031202032370A4D2020534D5420202031204D650A4D2020534256202020312032372020202D382E3033323820202020352E353635330A4D202053545920203120202032205355500A4D2020534C4220203120202032202020320A4D202053414C20202032202031202032370A4D202053424C20202032202031202032380A4D2020534D5420202032204D650A4D2020534256202020322032382020202D382E3334373720202020352E363239330A4D202053545920203120202033205355500A4D2020534C4220203120202033202020330A4D202053414C20202033202031202032380A4D202053424C20202033202031202032390A4D2020534D5420202033204D650A4D2020534256202020332032392020202D372E3533303320202020372E303436320A4D2020454E44
Contributor: KATO T, DEPT. OF CHEM., FAC. OF SCI., TOHOKU UNIV.
InstType: EI
InstName: Unknown
IoniMethod: _ENERGY 25 eV
IonPolarity: pos
Date: 2010-10-09 19:48:36+02:00
Num Peaks: 156
15 40 17 70 18 458 26 3 27 227 28 144 29 570 30 4 31 608 39 79 
41 560 42 11 43 999 44 56 45 364 47 7 53 65 55 222 56 105 57 57 
58 70 59 772 60 38 61 4 67 125 68 229 69 341 70 11 71 119 72 38 
73 65 74 32 77 45 79 200 80 91 81 68 82 196 83 141 84 72 85 16 
91 138 92 69 93 418 94 17 95 319 96 163 97 175 98 12 99 50 105 152 
106 92 107 36 108 238 109 371 110 185 111 9 112 65 113 38 115 34 117 32 
118 55 119 328 120 165 121 37 122 144 123 192 124 82 125 22 126 50 127 51 
129 38 131 5 132 51 133 169 134 115 135 34 136 109 137 165 138 100 139 6 
140 32 141 158 142 39 145 9 146 44 147 215 148 126 149 16 150 89 151 99 
152 44 153 16 154 50 155 200 157 85 159 7 160 50 161 139 162 54 163 8 
164 32 165 33 166 33 169 4 173 132 174 100 175 147 176 10 177 315 178 37 
179 132 181 7 187 35 188 45 189 49 192 3 205 45 209 112 210 88 211 17 
212 148 213 255 214 40 215 16 217 45 228 32 231 39 232 4 233 31 234 38 
235 42 255 4 261 38 263 38 265 415 266 19 267 507 268 491 269 872 270 15 
271 562 272 41 273 124 275 4 286 45 287 40 289 58 291 4 304 51 311 78 
313 115 315 5 346 35 347 12 364 13 365 5 
