Name: MassBank: JP000029
MW: 145
Formula: C6H4Cl2
Synonym: MassBank: JP000029
Synonym: 1,2-DICHLOROBENZENE
Structure: 310A32310A312C322D444943484C4F524F42454E5A454E452E6D6F6C0A20204368656D447261773131303330393233313032440A2020382020382020302020302020302020302020302020302020302020303939392056323030300A2020202D302E343132352020202D302E3335373220202020302E303030302043202020302020302020302020302020302020302020302020302020302020302020302020300A2020202D302E3030303020202020302E3335373220202020302E303030302043202020302020302020302020302020302020302020302020302020302020302020302020300A20202020302E3832353020202020302E3335373220202020302E303030302043202020302020302020302020302020302020302020302020302020302020302020302020300A20202020312E323337352020202D302E3335373220202020302E303030302043202020302020302020302020302020302020302020302020302020302020302020302020300A20202020302E383235302020202D312E3037313720202020302E303030302043202020302020302020302020302020302020302020302020302020302020302020302020300A2020202D302E303030302020202D312E3037313720202020302E303030302043202020302020302020302020302020302020302020302020302020302020302020302020300A2020202D302E3431323520202020312E3037313720202020302E3030303020436C2020302020302020302020302020302020302020302020302020302020302020302020300A2020202D312E323337352020202D302E3335373220202020302E3030303020436C2020302020302020302020302020302020302020302020302020302020302020302020300A2020312020322020312020302020202020200A2020322020332020322020302020202020200A2020332020342020312020302020202020200A2020342020352020322020302020202020200A2020352020362020312020302020202020200A2020312020362020322020302020202020200A2020322020372020312020302020202020200A2020312020382020312020302020202020200A4D2020454E44
Contributor: KOGA M, UNIV. OF OCCUPATIONAL AND ENVIRONMENTAL HEALTH
InstType: EI
InstName: Unknown
IoniMethod: EI
IonPolarity: pos
Date: 2010-10-09 19:48:36+02:00
Num Peaks: 22
51 43 55 80 56 31 61 22 73 101 74 147 75 262 76 31 84 35 85 36 
109 23 110 58 111 419 112 49 113 135 128 23 145 28 146 999 147 80 148 609 
149 59 150 98 
