Name: CLIONASTERYL-ACETATE
MW: 456
Formula: C31H52O2
Synonym: MassBank: JP008161
Synonym: CLIONASTERYL-ACETATE
Structure: 434C494F4E4153544552594C2D414345544154452E6D6F6C0A20204368656D447261773039313531303034303832440A2034302034332020302020302020302020302020302020302020302020303939392056323030300A2020202D332E333830392020202D302E3731323420202020302E303030302043202020302020302020302020302020302020302020302020302020302020302020302020300A2020202D332E333830392020202D312E3533373420202020302E303030302043202020302020302020302020302020302020302020302020302020302020302020302020300A2020202D322E363636342020202D312E3934393920202020302E303030302043202020302020302020302020302020302020302020302020302020302020302020302020300A2020202D312E393532302020202D312E3533373420202020302E303030302043202020302020302020302020302020302020302020302020302020302020302020302020300A2020202D312E393532302020202D302E3731323420202020302E303030302043202020302020302020302020302020302020302020302020302020302020302020302020300A2020202D322E363636342020202D302E3239393920202020302E303030302043202020302020302020302020302020302020302020302020302020302020302020302020300A2020202D312E323337352020202D312E3934393920202020302E303030302043202020302020302020302020302020302020302020302020302020302020302020302020300A2020202D302E353233302020202D312E3533373420202020302E303030302043202020302020302020302020302020302020302020302020302020302020302020302020300A2020202D302E353233302020202D302E3731323420202020302E303030302043202020302020302020302020302020302020302020302020302020302020302020302020300A2020202D312E323337352020202D302E3239393920202020302E303030302043202020302020302020302020302020302020302020302020302020302020302020302020300A20202020302E313931342020202D302E3239393920202020302E303030302043202020302020302020302020302020302020302020302020302020302020302020302020300A20202020302E3139313420202020302E3532353120202020302E303030302043202020302020302020302020302020302020302020302020302020302020302020302020300A2020202D302E3532333020202020302E3933373620202020302E303030302043202020302020302020302020302020302020302020302020302020302020302020302020300A2020202D312E3233373520202020302E3532353120202020302E303030302043202020302020302020302020302020302020302020302020302020302020302020302020300A20202020312E363230342020202D302E3239393920202020302E303030302043202020302020302020302020302020302020302020302020302020302020302020302020300A20202020312E3632303420202020302E3532353120202020302E303030302043202020302020302020302020302020302020302020302020302020302020302020302020300A20202020302E3930353920202020302E3933373620202020302E303030302043202020302020302020302020302020302020302020302020302020302020302020302020300A20202020302E3930353920202020312E3736323620202020302E303030302043202020302020302020302020302020302020302020302020302020302020302020302020300A2020202D332E353934342020202D322E3333343320202020302E30303030204F202020302020302020302020302020302020302020302020302020302020302020302020300A2020202D332E303131312020202D322E3931373720202020302E303030302043202020302020302020302020302020302020302020302020302020302020302020302020300A2020202D322E323134322020202D322E3730343120202020302E303030302043202020302020302020302020302020302020302020302020302020302020302020302020300A2020202D332E323234362020202D332E3731343620202020302E30303030204F202020302020302020302020302020302020302020302020302020302020302020302020300A2020202D312E323337352020202D312E3132343920202020302E303030302043202020302020302020302020302020302020302020302020302020302020302020302020300A20202020302E313931342020202D312E3132343920202020302E303030302048202020302020302020302020302020302020302020302020302020302020302020302020300A20202020302E3139313420202020312E3335303120202020302E303030302043202020302020302020302020302020302020302020302020302020302020302020302020300A2020202D342E323035392020202D312E3533373420202020302E303030302048202020302020302020302020302020302020302020302020302020302020302020302020300A2020202D312E3935323020202020302E3131323620202020302E303030302048202020302020302020302020302020302020302020302020302020302020302020302020300A20202020312E3438393320202020312E3532303920202020302E303030302048202020302020302020302020302020302020302020302020302020302020302020302020300A20202020302E363033392020202D312E3031343420202020302E303030302048202020302020302020302020302020302020302020302020302020302020302020302020300A20202020302E3930353920202020322E3538373620202020302E303030302048202020302020302020302020302020302020302020302020302020302020302020302020300A20202020312E3733303920202020312E3736323620202020302E303030302043202020302020302020302020302020302020302020302020302020302020302020302020300A20202020302E3038303920202020312E3736323620202020302E303030302043202020302020302020302020302020302020302020302020302020302020302020302020300A20202020322E3134333420202020322E3437373120202020302E303030302043202020302020302020302020302020302020302020302020302020302020302020302020300A20202020322E3936383420202020322E3437373120202020302E303030302043202020302020302020302020302020302020302020302020302020302020302020302020300A20202020332E3739333420202020322E3437373120202020302E303030302043202020302020302020302020302020302020302020302020302020302020302020302020300A20202020322E3936383420202020332E3330323120202020302E303030302043202020302020302020302020302020302020302020302020302020302020302020302020300A20202020322E3936383420202020312E3635323120202020302E303030302048202020302020302020302020302020302020302020302020302020302020302020302020300A20202020332E3638323920202020332E3731343620202020302E303030302043202020302020302020302020302020302020302020302020302020302020302020302020300A20202020342E3230353920202020312E3736323620202020302E303030302043202020302020302020302020302020302020302020302020302020302020302020302020300A20202020342E3230353920202020332E3139313520202020302E303030302043202020302020302020302020302020302020302020302020302020302020302020302020300A2020312020322020312020302020202020200A2020322020332020312020302020202020200A2020332020342020312020302020202020200A2020342020352020312020302020202020200A2020352020362020312020302020202020200A2020362020312020312020302020202020200A2020342020372020322020302020202020200A2020372020382020312020302020202020200A2020382020392020312020302020202020200A2020392031302020312020302020202020200A2031302020352020312020302020202020200A2020392031312020312020302020202020200A2031312031322020312020302020202020200A2031322031332020312020302020202020200A2031332031342020312020302020202020200A2031342031302020312020302020202020200A2031352031362020312020302020202020200A2031362031372020312020302020202020200A2031372031322020312020302020202020200A2031372031382020312020302020202020200A2020322031392020312020312020202020200A2031392032302020312020302020202020200A2032302032312020312020302020202020200A2032302032322020322020302020202020200A2020352032332020312020312020202020200A2020392032342020312020312020202020200A2031322032352020312020312020202020200A2020322032362020312020362020202020200A2031302032372020312020362020202020200A2031372032382020312020362020202020200A2031312032392020312020362020202020200A2031382033302020312020312020202020200A2031382033312020312020302020202020200A2031382033322020312020302020202020200A2033312033332020312020302020202020200A2033332033342020312020302020202020200A2033342033352020312020302020202020200A2033342033362020312020312020202020200A2033342033372020312020312020202020200A2033362033382020312020302020202020200A2033352033392020312020302020202020200A2033352034302020312020302020202020200A2031312031352020312020302020202020200A4D2020454E44
Contributor: NARA WOMEN'S UNIVERSITY
InstType: EI
InstName: HITACHI M-80
IoniMethod: _ENERGY 70 eV
IonPolarity: pos
Date: 2010-10-09 19:48:36+02:00
Num Peaks: 130
15 13 27 22 29 61 39 15 41 212 42 74 43 758 44 18 53 25 55 264 
56 27 57 273 61 9 65 12 67 134 68 17 69 166 70 12 71 108 77 42 
78 15 79 121 80 21 81 272 82 24 83 54 84 9 85 104 91 153 92 40 
93 162 94 40 95 166 96 15 97 43 99 11 103 9 104 13 105 188 106 66 
107 179 108 62 109 91 110 10 111 34 115 16 116 11 117 66 118 35 119 117 
120 125 121 118 122 30 123 47 125 13 128 19 129 40 130 23 131 99 132 30 
133 135 134 38 135 78 136 18 137 19 141 14 142 15 143 93 144 39 145 221 
146 82 147 276 148 63 149 55 150 8 151 9 155 10 157 49 158 52 159 110 
160 68 161 73 162 21 163 43 169 9 171 27 172 13 173 39 174 15 175 25 
176 9 177 27 183 9 185 27 186 11 187 18 189 11 191 16 197 14 199 32 
200 16 201 21 212 11 213 90 214 29 215 17 227 13 228 25 229 16 233 13 
234 16 241 10 254 16 255 103 256 22 273 15 274 13 275 73 276 21 283 16 
287 12 288 74 289 24 354 18 381 120 382 40 395 12 396 999 397 323 398 55 
