Name: MassBank: JP001632
MW: 121
Formula: C8H11N
Synonym: MassBank: JP001632
Synonym: 3,4-DIMETHYLANILINE
Synonym: 3,4-XYLIDINE
Structure: 310A32330A332C342D44494D455448594C414E494C494E452E6D6F6C0A20204368656D447261773032323131303232353132440A2020392020392020302020302020302020302020302020302020302020303939392056323030300A20202020312E343238392020202D302E3832353020202020302E30303030204E202020302020302020302020302020302020302020302020302020302020302020302020300A20202020302E373134352020202D302E3431323520202020302E303030302043202020302020302020302020302020302020302020302020302020302020302020302020300A2020202D302E303030302020202D302E3832353020202020302E303030302043202020302020302020302020302020302020302020302020302020302020302020302020300A2020202D302E373134352020202D302E3431323520202020302E303030302043202020302020302020302020302020302020302020302020302020302020302020302020300A2020202D302E3731343520202020302E3431323520202020302E303030302043202020302020302020302020302020302020302020302020302020302020302020302020300A20202020302E3030303020202020302E3832353020202020302E303030302043202020302020302020302020302020302020302020302020302020302020302020302020300A20202020302E3731343520202020302E3431323520202020302E303030302043202020302020302020302020302020302020302020302020302020302020302020302020300A2020202D312E3432383920202020302E3832353020202020302E303030302043202020302020302020302020302020302020302020302020302020302020302020302020300A2020202D312E343238392020202D302E3832353020202020302E303030302043202020302020302020302020302020302020302020302020302020302020302020302020300A2020312020322020312020302020202020200A2020322020332020312020302020202020200A2020332020342020322020302020202020200A2020342020352020312020302020202020200A2020352020362020322020302020202020200A2020362020372020312020302020202020200A2020322020372020322020302020202020200A2020352020382020312020302020202020200A2020342020392020312020302020202020200A4D2020454E44
Contributor: KOGA M, UNIV. OF OCCUPATIONAL AND ENVIRONMENTAL HEALTH
InstType: EI
InstName: VARIAN MAT-44
IoniMethod: _ENERGY 70 eV
IonPolarity: pos
Date: 2010-10-09 19:48:36+02:00
Num Peaks: 55
30 55 32 37 37 20 38 69 39 315 40 63 41 159 42 129 43 18 44 20 
45 14 46 43 47 13 49 22 50 107 51 203 52 166 53 197 54 71 58 116 
59 139 60 94 61 19 62 38 63 44 64 55 65 114 66 53 67 28 74 17 
75 18 76 27 77 383 78 112 79 129 80 75 81 12 89 24 90 16 91 221 
92 50 93 125 94 43 102 12 103 66 104 46 105 34 106 1000 107 82 117 20 
118 55 119 54 120 939 121 999 122 91 
