Name: 2-PYRIDYL P-TOLYL ETHER
MW: 185
Formula: C12H11NO
Synonym: MassBank: JP003953
Synonym: 2-PYRIDYL P-TOLYL ETHER
Structure: 322D5059524944594C20502D544F4C594C2045544845522E6D6F6C0A20204368656D447261773032323131303135313932440A2031342031352020302020302020302020302020302020302020302020303939392056323030300A20202020302E3335373220202020302E3832353020202020302E30303030204F202020302020302020302020302020302020302020302020302020302020302020302020300A2020202D302E3335373220202020302E3431323520202020302E303030302043202020302020302020302020302020302020302020302020302020302020302020302020300A2020202D312E3037313720202020302E3832353020202020302E303030302043202020302020302020302020302020302020302020302020302020302020302020302020300A2020202D312E373836322020202D302E3431323520202020302E303030302043202020302020302020302020302020302020302020302020302020302020302020302020300A2020202D302E333537322020202D302E3431323520202020302E303030302043202020302020302020302020302020302020302020302020302020302020302020302020300A2020202D312E3738363220202020302E3431323520202020302E303030302043202020302020302020302020302020302020302020302020302020302020302020302020300A2020202D312E303731372020202D302E3832353020202020302E303030302043202020302020302020302020302020302020302020302020302020302020302020302020300A2020202D322E353030362020202D302E3832353020202020302E303030302043202020302020302020302020302020302020302020302020302020302020302020302020300A20202020312E3037313720202020302E3431323520202020302E303030302043202020302020302020302020302020302020302020302020302020302020302020302020300A20202020312E303731372020202D302E3431323520202020302E303030302043202020302020302020302020302020302020302020302020302020302020302020302020300A20202020312E373836322020202D302E3832353020202020302E303030302043202020302020302020302020302020302020302020302020302020302020302020302020300A20202020322E353030362020202D302E3431323520202020302E303030302043202020302020302020302020302020302020302020302020302020302020302020302020300A20202020322E3530303620202020302E3431323520202020302E303030302043202020302020302020302020302020302020302020302020302020302020302020302020300A20202020312E3738363220202020302E3832353020202020302E30303030204E202020302020302020302020302020302020302020302020302020302020302020302020300A2020322020332020312020302020202020200A2020322020352020322020302020202020200A2020332020362020322020302020202020200A2020342020362020312020302020202020200A2020342020372020322020302020202020200A2020352020372020312020302020202020200A2020342020382020312020302020202020200A2020312020322020312020302020202020200A2020392031302020312020302020202020200A2031302031312020322020302020202020200A2031312031322020312020302020202020200A2031322031332020322020302020202020200A2031332031342020312020302020202020200A2020392031342020322020302020202020200A2020312020392020312020302020202020200A4D2020454E44
Contributor: NAKATA H, DEPT. OF CHEMISTRY, AICHI KYOIKU UNIV.
InstType: EI
InstName: HITACHI RMU-7
IoniMethod: _ENERGY 70 eV
IonPolarity: pos
Date: 2010-10-09 19:48:36+02:00
Num Peaks: 26
50 70 51 330 52 150 53 60 63 90 65 160 77 200 78 380 79 80 89 80 
91 190 92 50 107 60 115 150 128 80 129 140 130 130 142 80 154 60 156 510 
157 750 158 110 183 70 184 999 185 999 186 180 
