Name: ETHYL 2-FUROATE
CAS: 614-99-3
MW: 140
Formula: C7H8O3
Synonym: MassBank: JP009049
Synonym: ETHYL 2-FUROATE
Structure: 455448594C20322D4655524F4154452E6D6F6C0A20204368656D447261773031303331303133353532440A2031302031302020302020302020302020302020302020302020302020303939392056323030300A2020202D302E3836323320202020302E3934333220202020302E30303030204F202020302020302020302020302020302020302020302020302020302020302020302020300A2020202D302E3737363120202020302E3132323720202020302E303030302043202020302020302020302020302020302020302020302020302020302020302020302020300A2020202D312E353239382020202D302E3231323820202020302E303030302043202020302020302020302020302020302020302020302020302020302020302020302020300A2020202D322E3038313820202020302E3430303320202020302E303030302043202020302020302020302020302020302020302020302020302020302020302020302020300A2020202D312E3636393320202020312E3131343820202020302E303030302043202020302020302020302020302020302020302020302020302020302020302020302020300A2020202D302E303631362020202D302E3238393820202020302E303030302043202020302020302020302020302020302020302020302020302020302020302020302020300A2020202D302E303631362020202D312E3131343820202020302E30303030204F202020302020302020302020302020302020302020302020302020302020302020302020300A20202020302E3635323920202020302E3132323720202020302E30303030204F202020302020302020302020302020302020302020302020302020302020302020302020300A20202020312E333637332020202D302E3238393820202020302E303030302043202020302020302020302020302020302020302020302020302020302020302020302020300A20202020322E3038313820202020302E3132323720202020302E303030302043202020302020302020302020302020302020302020302020302020302020302020302020300A2020312020322020312020302020202020200A2020322020332020322020302020202020200A2020332020342020312020302020202020200A2020342020352020322020302020202020200A2020312020352020312020302020202020200A2020322020362020312020302020202020200A2020362020372020322020302020202020200A2020362020382020312020302020202020200A2020392031302020312020302020202020200A2020382020392020312020302020202020200A4D2020454E44
Contributor: SODA AROMATIC CO., LTD.
InstType: EI
InstName: HITACHI M-80B
IoniMethod: _ENERGY 70 eV
IonPolarity: pos
Date: 2010-10-09 19:48:36+02:00
Num Peaks: 21
26 17 27 74 29 85 37 27 38 82 39 250 41 11 42 10 45 45 53 13 
66 12 67 22 68 103 84 26 95 999 96 171 97 18 112 408 113 24 140 183 
141 13 
