Name: MassBank: JP009566
MW: 172
Formula: C8H12O4
Synonym: MassBank: JP009566
Synonym: TRANS-1,2-CYCLOHEXANEDICARBOXYLIC ACID
Structure: 5452414E532D312C322D4359434C4F484558414E454449434152424F58594C494320414349442E6D6F6C0A20204368656D447261773038313231303037343432440A2031322031322020302020302020302020302020302020302020302020303939392056323030300A2020202D302E323036322020202D302E3731343520202020302E303030302043202020302020302020302020302020302020302020302020302020302020302020302020300A20202020302E3230363220202020302E3030303020202020302E303030302043202020302020302020302020302020302020302020302020302020302020302020302020300A20202020312E3033313320202020302E3030303020202020302E303030302043202020302020302020302020302020302020302020302020302020302020302020302020300A20202020312E343433382020202D302E3731343520202020302E303030302043202020302020302020302020302020302020302020302020302020302020302020302020300A20202020312E303331332020202D312E3432383920202020302E303030302043202020302020302020302020302020302020302020302020302020302020302020302020300A20202020302E323036322020202D312E3432383920202020302E303030302043202020302020302020302020302020302020302020302020302020302020302020302020300A2020202D312E303331332020202D302E3731343520202020302E303030302043202020302020302020302020302020302020302020302020302020302020302020302020300A2020202D312E3434333820202020302E3030303020202020302E30303030204F202020302020302020302020302020302020302020302020302020302020302020302020300A2020202D312E343433382020202D312E3432383920202020302E30303030204F202020302020302020302020302020302020302020302020302020302020302020302020300A2020202D302E3230363220202020302E3731343520202020302E303030302043202020302020302020302020302020302020302020302020302020302020302020302020300A2020202D312E3033313320202020302E3731343520202020302E30303030204F202020302020302020302020302020302020302020302020302020302020302020302020300A20202020302E3230363220202020312E3432383920202020302E30303030204F202020302020302020302020302020302020302020302020302020302020302020302020300A2020312020322020312020302020202020200A2020322020332020312020302020202020200A2020332020342020312020302020202020200A2020342020352020312020302020202020200A2020352020362020312020302020202020200A2020312020362020312020302020202020200A2020372020382020322020302020202020200A2020372020392020312020302020202020200A2020312020372020312020312020202020200A2031302031312020322020302020202020200A2031302031322020312020302020202020200A2020322031302020312020362020202020200A4D2020454E44
Contributor: HAMAMATSU UNIV. SCHOOL OF MEDICINE
InstType: EI
InstName: JEOL JMS-AX-505-H
IoniMethod: _ENERGY 70 eV
IonPolarity: pos
Date: 2010-10-09 19:48:36+02:00
Num Peaks: 69
26 26 27 212 28 54 29 113 31 28 37 16 38 37 39 350 40 69 41 446 
42 51 43 197 44 11 45 152 47 18 50 21 51 55 52 32 53 173 54 183 
55 226 56 115 57 66 58 14 59 13 60 98 61 56 65 31 66 69 67 341 
68 213 69 154 70 23 71 39 72 10 73 234 74 24 77 72 78 18 79 192 
80 239 81 999 82 271 83 88 84 20 85 35 86 201 87 59 94 15 95 35 
97 69 98 21 99 227 100 41 107 13 108 238 109 119 110 61 111 41 112 34 
113 24 125 22 126 446 127 97 128 618 129 59 136 24 154 168 155 32 
