Name: 2-METHOXY-5-METHYLPYRIMIDINE
MW: 124
Formula: C6H8N2O
Synonym: MassBank: JP002036
Synonym: 2-METHOXY-5-METHYLPYRIMIDINE
Structure: 310A32330A322D4D4554484F58592D352D4D455448594C505952494D4944494E452E6D6F6C0A20204368656D447261773031323231303032313132440A2020392020392020302020302020302020302020302020302020302020303939392056323030300A20202020302E3631383720202020302E3030303020202020302E303030302043202020302020302020302020302020302020302020302020302020302020302020302020300A20202020302E323036322020202D302E3731343520202020302E30303030204E202020302020302020302020302020302020302020302020302020302020302020302020300A2020202D302E363138382020202D302E3731343520202020302E303030302043202020302020302020302020302020302020302020302020302020302020302020302020300A2020202D312E3033313320202020302E3030303020202020302E303030302043202020302020302020302020302020302020302020302020302020302020302020302020300A2020202D302E3631383820202020302E3731343520202020302E303030302043202020302020302020302020302020302020302020302020302020302020302020302020300A20202020302E3230363220202020302E3731343520202020302E30303030204E202020302020302020302020302020302020302020302020302020302020302020302020300A2020202D312E3835363320202020302E3030303020202020302E303030302043202020302020302020302020302020302020302020302020302020302020302020302020300A20202020312E3434333720202020302E3030303020202020302E30303030204F202020302020302020302020302020302020302020302020302020302020302020302020300A20202020312E383536332020202D302E3731343520202020302E303030302043202020302020302020302020302020302020302020302020302020302020302020302020300A2020312020322020312020302020202020200A2020322020332020322020302020202020200A2020332020342020312020302020202020200A2020342020352020322020302020202020200A2020352020362020312020302020202020200A2020312020362020322020302020202020200A2020342020372020312020302020202020200A2020382020392020312020302020202020200A2020312020382020312020302020202020200A4D2020454E44
Contributor: SASAKI S, TOYOHASHI UNIV. OF TECH.
InstType: EI
InstName: MS-902
IoniMethod: _ENERGY 70 eV
IonPolarity: pos
Date: 2010-10-09 19:48:36+02:00
Num Peaks: 32
37 20 38 42 39 194 40 10 41 138 42 115 43 73 44 2 45 10 51 24 
52 83 53 8 54 106 56 22 58 154 61 1 64 13 65 11 66 72 67 55 
68 78 79 13 80 13 81 1 82 67 93 115 94 834 95 37 96 41 123 482 
124 999 125 94 
