Name: MassBank: JP001056
MW: 370
Formula: C16H30O4Si3
Synonym: MassBank: JP001056
Synonym: 3,4-BIS(TRIMETHYLSILYL)OXY-BENZOIC ACID TRIMETHYLSILYL ESTER
Synonym: TRIMETHYLSILYL 3,4-BIS(TRIMETHYLSILOXY)BENZOATE
Structure: 332C342D424953285452494D455448594C53494C594C294F58592D42454E5A4F49432041434944205452494D455448594C53494C594C2045535445522E6D6F6C0A20204368656D447261773032323131303232313032440A2032332032332020302020302020302020302020302020302020302020303939392056323030300A2020202D312E313832322020202D302E3335373220202020302E303030302043202020302020302020302020302020302020302020302020302020302020302020302020300A2020202D302E333537322020202D302E3335373220202020302E303030302043202020302020302020302020302020302020302020302020302020302020302020302020300A20202020302E3035353320202020302E3335373220202020302E303030302043202020302020302020302020302020302020302020302020302020302020302020302020300A20202020302E3838303320202020302E3335373220202020302E303030302043202020302020302020302020302020302020302020302020302020302020302020302020300A20202020312E323932382020202D302E3335373220202020302E303030302043202020302020302020302020302020302020302020302020302020302020302020302020300A20202020302E383830332020202D312E3037313720202020302E303030302043202020302020302020302020302020302020302020302020302020302020302020302020300A20202020302E303535332020202D312E3037313720202020302E303030302043202020302020302020302020302020302020302020302020302020302020302020302020300A2020202D312E3539343720202020302E3335373220202020302E30303030204F202020302020302020302020302020302020302020302020302020302020302020302020300A2020202D312E353934372020202D312E3037313720202020302E30303030204F202020302020302020302020302020302020302020302020302020302020302020302020300A20202020322E313137382020202D302E3335373220202020302E30303030204F202020302020302020302020302020302020302020302020302020302020302020302020300A20202020322E353330332020202D312E3037313720202020302E303030302053692020302020302020302020302020302020302020302020302020302020302020302020300A20202020332E323434372020202D302E3635393220202020302E303030302043202020302020302020302020302020302020302020302020302020302020302020302020300A20202020322E393432382020202D312E3738363220202020302E303030302043202020302020302020302020302020302020302020302020302020302020302020302020300A20202020312E383135382020202D312E3438343220202020302E303030302043202020302020302020302020302020302020302020302020302020302020302020302020300A20202020312E3239323820202020312E3037313720202020302E30303030204F202020302020302020302020302020302020302020302020302020302020302020302020300A20202020322E3131373820202020312E3037313720202020302E303030302053692020302020302020302020302020302020302020302020302020302020302020302020300A20202020322E3131373820202020302E3234363720202020302E303030302043202020302020302020302020302020302020302020302020302020302020302020302020300A20202020322E3131373820202020312E3839363720202020302E303030302043202020302020302020302020302020302020302020302020302020302020302020302020300A20202020322E3934323820202020312E3037313720202020302E303030302043202020302020302020302020302020302020302020302020302020302020302020302020300A2020202D322E343139372020202D312E3037313720202020302E303030302053692020302020302020302020302020302020302020302020302020302020302020302020300A2020202D322E343139372020202D312E3839363720202020302E303030302043202020302020302020302020302020302020302020302020302020302020302020302020300A2020202D332E323434372020202D312E3037313720202020302E303030302043202020302020302020302020302020302020302020302020302020302020302020302020300A2020202D322E343139372020202D302E3234363720202020302E303030302043202020302020302020302020302020302020302020302020302020302020302020302020300A2020312020322020312020302020202020200A2020322020332020312020302020202020200A2020332020342020322020302020202020200A2020342020352020312020302020202020200A2020352020362020322020302020202020200A2020362020372020312020302020202020200A2020322020372020322020302020202020200A2020312020382020322020302020202020200A2020312020392020312020302020202020200A2031302031312020312020302020202020200A2031312031322020312020312020202020200A2031312031332020312020302020202020200A2031312031342020312020312020202020200A2020352031302020312020302020202020200A2031352031362020312020302020202020200A2031362031372020312020302020202020200A2031362031382020312020302020202020200A2031362031392020312020302020202020200A2020342031352020312020302020202020200A2032302032312020312020312020202020200A2032302032322020312020302020202020200A2032302032332020312020312020202020200A2020392032302020312020302020202020200A4D2020454E44
Contributor: KOGA M, UNIV. OF OCCUPATIONAL AND ENVIRONMENTAL HEALTH
InstType: EI
InstName: JEOL JMS-01-SG
IoniMethod: _ENERGY 70 eV
IonPolarity: pos
Date: 2010-10-09 19:48:36+02:00
Num Peaks: 31
43 25 44 25 45 228 47 3 59 25 73 999 74 78 75 10 77 18 133 28 
137 43 147 4 165 59 179 25 193 65 194 14 195 56 207 21 223 56 267 3 
281 65 282 21 311 166 312 3 313 21 355 222 356 68 357 3 370 294 371 97 
372 31 
