Name: PIPERIDINE
MW: 85
Formula: C5H11N
Synonym: MassBank: JP000478
Synonym: PIPERIDINE
Structure: 310A31370A50495045524944494E452E6D6F6C0A20204368656D447261773038313231303035353032440A2020362020362020302020302020302020302020302020302020302020303939392056323030300A20202020302E373134352020202D302E3431323520202020302E30303030204E202020302020302020302020302020302020302020302020302020302020302020302020300A20202020302E303030302020202D302E3832353020202020302E303030302043202020302020302020302020302020302020302020302020302020302020302020302020300A2020202D302E373134352020202D302E3431323520202020302E303030302043202020302020302020302020302020302020302020302020302020302020302020302020300A2020202D302E3731343520202020302E3431323520202020302E303030302043202020302020302020302020302020302020302020302020302020302020302020302020300A20202020302E3030303020202020302E3832353020202020302E303030302043202020302020302020302020302020302020302020302020302020302020302020302020300A20202020302E3731343520202020302E3431323520202020302E303030302043202020302020302020302020302020302020302020302020302020302020302020302020300A2020312020322020312020302020202020200A2020322020332020312020302020202020200A2020332020342020312020302020202020200A2020342020352020312020302020202020200A2020352020362020312020302020202020200A2020312020362020312020302020202020200A4D2020454E44
Contributor: SASAKI S, TOYOHASHI UNIV. OF TECH.
InstType: EI
InstName: MX-1303
IoniMethod: _ENERGY 50 eV
IonPolarity: pos
Date: 2010-10-09 19:48:36+02:00
Num Peaks: 35
26 37 27 167 29 262 30 19 38 15 39 131 40 28 41 17 42 348 43 209 
45 10 50 2 51 23 52 23 53 40 54 6 55 129 56 554 57 385 58 2 
65 10 67 32 68 48 69 2 70 131 71 18 78 10 79 1 80 22 81 10 
82 46 83 3 84 999 85 466 86 30 
