Name: DIISOPROPYLAMINE
MW: 101
Formula: C6H15N
Synonym: MassBank: JP009405
Synonym: DIISOPROPYLAMINE
Synonym: BIS(1-METHYLETHYL)AMINE
Structure: 310A31380A444949534F50524F50594C414D494E452E6D6F6C0A20204368656D447261773039303531303231333732440A2020372020362020302020302020302020302020302020302020302020303939392056323030300A2020202D302E303030302020202D302E3631383820202020302E30303030204E202020302020302020302020302020302020302020302020302020302020302020302020300A20202020302E373134352020202D302E3230363220202020302E303030302043202020302020302020302020302020302020302020302020302020302020302020302020300A20202020302E3731343520202020302E3631383820202020302E303030302043202020302020302020302020302020302020302020302020302020302020302020302020300A20202020312E343238392020202D302E3631383820202020302E303030302043202020302020302020302020302020302020302020302020302020302020302020302020300A2020202D302E373134352020202D302E3230363220202020302E303030302043202020302020302020302020302020302020302020302020302020302020302020302020300A2020202D312E343238392020202D302E3631383820202020302E303030302043202020302020302020302020302020302020302020302020302020302020302020302020300A2020202D302E3731343520202020302E3631383820202020302E303030302043202020302020302020302020302020302020302020302020302020302020302020302020300A2020322020332020312020302020202020200A2020322020342020312020302020202020200A2020312020322020312020302020202020200A2020352020362020312020302020202020200A2020352020372020312020302020202020200A2020312020352020312020302020202020200A4D2020454E44
Contributor: GUNMA COLLEGE OF TECHNOLOGY
InstType: EI
InstName: HITACHI M-80A
IoniMethod: _ENERGY 70 eV
IonPolarity: pos
Date: 2010-10-09 19:48:36+02:00
Num Peaks: 21
14 15 15 91 18 41 27 91 28 30 30 29 32 33 39 54 41 101 42 121 
43 95 44 999 45 26 56 15 58 72 70 19 86 335 87 20 100 11 101 34 
102 37 
