Name: MassBank: JP009953
MW: 300
Formula: C20H28O2
Synonym: MassBank: JP009953
Synonym: 7-ISOPROPYL-1,4A-DIMETHYL-1,2,3,4,4A,9,10,10A-OCTAHYDRO-1-PHENANTHRENECARBOXYLIC ACID
Structure: 372D49534F50524F50594C2D312C34412D44494D455448594C2D312C322C332C342C34412C392C31302C3130412D4F435441485944524F2D312D5048454E414E544852454E45434152424F58594C494320414349442E6D6F6C0A20204368656D447261773035323131303035343332440A2032322032342020302020302020302020302020302020302020302020303939392056323030300A2020202D312E383536332020202D302E3030303020202020302E303030302043202020302020302020302020302020302020302020302020302020302020302020302020300A2020202D322E3236383820202020302E3731343520202020302E303030302043202020302020302020302020302020302020302020302020302020302020302020302020300A2020202D312E3835363320202020312E3432383920202020302E303030302043202020302020302020302020302020302020302020302020302020302020302020302020300A2020202D312E3033313320202020312E3432383920202020302E303030302043202020302020302020302020302020302020302020302020302020302020302020302020300A2020202D302E3631383720202020302E3731343520202020302E303030302043202020302020302020302020302020302020302020302020302020302020302020302020300A20202020302E3230363220202020302E3731343520202020302E303030302043202020302020302020302020302020302020302020302020302020302020302020302020300A20202020302E3631383820202020312E3432383920202020302E303030302043202020302020302020302020302020302020302020302020302020302020302020302020300A20202020312E3434333720202020312E3432383920202020302E303030302043202020302020302020302020302020302020302020302020302020302020302020302020300A20202020312E3835363320202020302E3731343520202020302E303030302043202020302020302020302020302020302020302020302020302020302020302020302020300A20202020312E343433382020202D302E3030303020202020302E303030302043202020302020302020302020302020302020302020302020302020302020302020302020300A20202020302E363138372020202D302E3030303020202020302E303030302043202020302020302020302020302020302020302020302020302020302020302020302020300A20202020302E323036322020202D302E3731343520202020302E303030302043202020302020302020302020302020302020302020302020302020302020302020302020300A2020202D302E363138382020202D302E3731343520202020302E303030302043202020302020302020302020302020302020302020302020302020302020302020302020300A2020202D312E3033313320202020302E3030303020202020302E303030302043202020302020302020302020302020302020302020302020302020302020302020302020300A2020202D322E323638382020202D302E3731343520202020302E303030302043202020302020302020302020302020302020302020302020302020302020302020302020300A2020202D332E303933382020202D302E3731343520202020302E30303030204F202020302020302020302020302020302020302020302020302020302020302020302020300A2020202D312E383536332020202D312E3432383920202020302E30303030204F202020302020302020302020302020302020302020302020302020302020302020302020300A2020202D302E3230363220202020312E3432383920202020302E303030302043202020302020302020302020302020302020302020302020302020302020302020302020300A20202020322E3638313220202020302E3731343520202020302E303030302043202020302020302020302020302020302020302020302020302020302020302020302020300A20202020332E3039333820202020312E3432383920202020302E303030302043202020302020302020302020302020302020302020302020302020302020302020302020300A20202020332E303933382020202D302E3030303020202020302E303030302043202020302020302020302020302020302020302020302020302020302020302020302020300A2020202D322E363533312020202D302E3231333520202020302E303030302043202020302020302020302020302020302020302020302020302020302020302020302020300A2020312020322020312020302020202020200A2020322020332020312020302020202020200A2020332020342020312020302020202020200A2020342020352020312020302020202020200A2020352020362020312020302020202020200A2020362020372020312020302020202020200A2020372020382020322020302020202020200A2020382020392020312020302020202020200A2020392031302020322020302020202020200A2031302031312020312020302020202020200A2020362031312020322020302020202020200A2031312031322020312020302020202020200A2031322031332020312020302020202020200A2031332031342020312020302020202020200A2020312031342020312020302020202020200A2020352031342020312020302020202020200A2031352031362020322020302020202020200A2031352031372020312020302020202020200A2020312031352020312020302020202020200A2020352031382020312020302020202020200A2031392032302020312020302020202020200A2031392032312020312020302020202020200A2020392031392020312020302020202020200A2020312032322020312020302020202020200A4D2020454E44
Contributor: KURARAY CO., LTD.
InstType: EI
InstName: JEOL JMS-D-300
IoniMethod: _ENERGY 70 eV
IonPolarity: pos
Date: 2010-10-09 19:48:36+02:00
Num Peaks: 118
27 32 29 22 39 24 41 14 43 196 45 22 53 32 55 8 56 21 67 43 
69 51 77 5 78 22 79 65 81 87 82 2 83 21 84 16 85 14 89 3 
91 71 92 32 93 65 94 2 95 63 96 5 97 5 99 3 105 79 107 79 
109 62 111 2 112 24 115 79 116 27 117 11 119 47 121 63 123 44 125 2 
127 32 128 82 129 107 130 2 131 96 132 16 133 101 134 3 135 47 136 25 
139 24 141 15 142 52 143 92 144 16 145 5 146 25 147 13 149 5 150 4 
151 16 152 21 153 33 154 2 155 76 156 25 157 71 159 10 160 16 161 13 
163 47 165 3 166 16 167 63 168 27 169 6 171 60 173 41 175 24 179 2 
180 13 181 21 183 73 184 2 185 58 186 33 187 78 189 2 195 30 197 269 
198 47 199 6 201 35 207 16 211 24 213 2 215 27 225 35 239 754 240 15 
241 28 243 79 244 16 255 2 257 24 259 32 261 28 271 3 284 16 285 999 
286 221 287 3 289 150 290 32 300 292 301 7 302 14 304 63 
