Name: N-METHYL-META-TOLUIDINE
MW: 121
Formula: C8H11N
Synonym: MassBank: JP002123
Synonym: N-METHYL-META-TOLUIDINE
Structure: 310A32330A4E2D4D455448594C2D4D4554412D544F4C554944494E452E6D6F6C0A20204368656D447261773038313231303032313232440A2020392020392020302020302020302020302020302020302020302020303939392056323030300A20202020312E303731372020202D302E3832353020202020302E30303030204E202020302020302020302020302020302020302020302020302020302020302020302020300A20202020302E333537322020202D302E3431323520202020302E303030302043202020302020302020302020302020302020302020302020302020302020302020302020300A2020202D302E333537322020202D302E3832353020202020302E303030302043202020302020302020302020302020302020302020302020302020302020302020302020300A2020202D312E303731372020202D302E3431323520202020302E303030302043202020302020302020302020302020302020302020302020302020302020302020302020300A2020202D312E3037313720202020302E3431323520202020302E303030302043202020302020302020302020302020302020302020302020302020302020302020302020300A2020202D302E3335373220202020302E3832353020202020302E303030302043202020302020302020302020302020302020302020302020302020302020302020302020300A20202020302E3335373220202020302E3431323520202020302E303030302043202020302020302020302020302020302020302020302020302020302020302020302020300A2020202D312E373836322020202D302E3832353020202020302E303030302043202020302020302020302020302020302020302020302020302020302020302020302020300A20202020312E373836322020202D302E3431323520202020302E303030302043202020302020302020302020302020302020302020302020302020302020302020302020300A2020312020322020312020302020202020200A2020322020332020312020302020202020200A2020332020342020322020302020202020200A2020342020352020312020302020202020200A2020352020362020322020302020202020200A2020362020372020312020302020202020200A2020322020372020322020302020202020200A2020342020382020312020302020202020200A2020312020392020312020302020202020200A4D2020454E44
Contributor: TAJIMA S, GUNMA COLLEGE OF TECHNOLOGY
InstType: EI
InstName: HITACHI RMU-7M
IoniMethod: _ENERGY 70 eV
IonPolarity: pos
Date: 2010-10-09 19:48:36+02:00
Num Peaks: 38
27 29 28 47 30 25 38 20 39 88 40 15 41 32 42 19 44 16 50 29 
51 63 52 35 53 25 58.5 36 59.5 70 60.5 36 62 18 63 49 64 19 65 125 
66 15 77 115 78 40 79 54 80 15 89 34 90 24 91 311 92 80 93 48 
104 24 105 18 106 64 118 75 119 98 120 999 121 842 122 77 
