Name: ALPHA-TERPINEOL
MW: 154
Formula: C10H18O
Synonym: MassBank: JP005329
Synonym: ALPHA-TERPINEOL
Synonym: P-MENTH-1-EN-8-OL
Structure: 2853292D414C5048412C414C5048412C342D5452494D455448594C2D332D4359434C4F484558454E452D312D4D455448414E4F4C2E6D6F6C0A20204368656D447261773130323230393138333432440A2031332031332020302020302020302020302020302020302020302020303939392056323030300A2020202D302E3237343820202020302E3332373120202020302E303030302043202020302020302020302020302020302020302020302020302020302020302020302020300A2020202D302E323734382020202D302E3439373920202020302E303030302043202020302020302020302020302020302020302020302020302020302020302020302020300A20202020302E343339372020202D302E3931303420202020302E303030302043202020302020302020302020302020302020302020302020302020302020302020302020300A20202020312E313534322020202D302E3439373920202020302E303030302043202020302020302020302020302020302020302020302020302020302020302020302020300A20202020312E3135343220202020302E3332373120202020302E303030302043202020302020302020302020302020302020302020302020302020302020302020302020300A20202020302E3433393720202020302E3733393620202020302E303030302043202020302020302020302020302020302020302020302020302020302020302020302020300A20202020312E3836383620202020302E3733393620202020302E303030302048202020302020302020302020302020302020302020302020302020302020302020302020300A2020202D302E3835383120202020302E3931303420202020302E303030302048202020302020302020302020302020302020302020302020302020302020302020302020300A2020202D312E3037313720202020302E3131333520202020302E303030302043202020302020302020302020302020302020302020302020302020302020302020302020300A2020202D312E383638362020202D302E3130303020202020302E30303030204F202020302020302020302020302020302020302020302020302020302020302020302020300A2020202D302E383538312020202D302E3638333420202020302E303030302043202020302020302020302020302020302020302020302020302020302020302020302020300A2020202D312E3238353320202020302E3931303420202020302E303030302043202020302020302020302020302020302020302020302020302020302020302020302020300A20202020312E383638342020202D302E3931303220202020302E303030302043202020302020302020302020302020302020302020302020302020302020302020302020300A2020312020322020312020302020202020200A2020322020332020312020302020202020200A2020332020342020312020302020202020200A2020342020352020322020302020202020200A2020352020362020312020302020202020200A2020362020312020312020302020202020200A2020352020372020312020302020202020200A2020312020382020312020312020202020200A2020312020392020312020362020202020200A2020392031302020312020302020202020200A2020392031312020312020302020202020200A2020392031322020312020302020202020200A2020342031332020312020302020202020200A4D202053545920203120202031205355500A4D2020534C4220203120202031202020310A4D202053414C20202031202031202031330A4D202053424C20202031202031202031330A4D2020534D5420202031204D650A4D2020534256202020312031332020202D352E3930323520202020372E303132360A4D2020454E44
Contributor: YAMAMOTO M, DEP. CHEMISTRY, FAC. SCIENCE, NARA WOMEN'S UNIV.
InstType: EI
InstName: HITACHI RMU-6M
IoniMethod: _ENERGY 70 eV
IonPolarity: pos
Date: 2010-10-09 19:48:36+02:00
Num Peaks: 47
15 17 27 81 28 11 29 60 31 81 39 103 40 24 41 174 42 14 43 341 
45 20 51 26 52 13 53 80 54 49 55 126 57 11 58 11 59 999 60 33 
65 30 66 14 67 149 68 150 69 36 71 78 77 71 78 16 79 107 80 56 
81 311 82 23 91 55 92 152 93 513 94 74 95 140 96 73 105 22 107 50 
108 23 121 383 122 40 136 418 137 53 139 69 154 4 
