Name: MassBank: JP004402
MW: 234
Formula: C13H15ClN2
Synonym: MassBank: JP004402
Synonym: 7-CHLORO-2,5-DIMETHYL-1,2,3,4-TETRAHYDROPYRIMIDO(1,6-A)INDOLE
Structure: 372D43484C4F524F2D322C352D44494D455448594C2D312C322C332C342D5445545241485944524F505952494D49444F28312C362D4129494E444F4C452E6D6F6C0A20204368656D447261773035323131303033333932440A2031362031382020302020302020302020302020302020302020302020303939392056323030300A20202020302E3539363720202020302E3533383520202020302E30303030204E202020302020302020302020302020302020302020302020302020302020302020302020300A20202020302E363832392020202D302E3238323020202020302E303030302043202020302020302020302020302020302020302020302020302020302020302020302020300A2020202D302E303730372020202D302E3631373520202020302E303030302043202020302020302020302020302020302020302020302020302020302020302020302020300A2020202D302E363232382020202D302E3030343420202020302E303030302043202020302020302020302020302020302020302020302020302020302020302020302020300A2020202D312E343437382020202D302E3030343420202020302E303030302043202020302020302020302020302020302020302020302020302020302020302020302020300A2020202D312E3836303320202020302E3731303020202020302E303030302043202020302020302020302020302020302020302020302020302020302020302020302020300A2020202D312E3434373820202020312E3432343520202020302E303030302043202020302020302020302020302020302020302020302020302020302020302020302020300A2020202D302E3632323820202020312E3432343520202020302E303030302043202020302020302020302020302020302020302020302020302020302020302020302020300A2020202D302E3231303320202020302E3731303020202020302E303030302043202020302020302020302020302020302020302020302020302020302020302020302020300A20202020312E3236343120202020312E3032333420202020302E303030302043202020302020302020302020302020302020302020302020302020302020302020302020300A20202020322E3031373820202020302E3638373920202020302E30303030204E202020302020302020302020302020302020302020302020302020302020302020302020300A20202020322E313034312020202D302E3133323620202020302E303030302043202020302020302020302020302020302020302020302020302020302020302020302020300A20202020312E343336362020202D302E3631373520202020302E303030302043202020302020302020302020302020302020302020302020302020302020302020302020300A2020202D302E323432332020202D312E3432343520202020302E303030302043202020302020302020302020302020302020302020302020302020302020302020302020300A20202020322E3638353320202020312E3137323820202020302E303030302043202020302020302020302020302020302020302020302020302020302020302020302020300A2020202D322E3638353320202020302E3731303020202020302E3030303020436C2020302020302020302020302020302020302020302020302020302020302020302020300A2020312020322020312020302020202020200A2020322020332020322020302020202020200A2020332020342020312020302020202020200A2020342020352020312020302020202020200A2020352020362020322020302020202020200A2020362020372020312020302020202020200A2020372020382020322020302020202020200A2020382020392020312020302020202020200A2020312020392020312020302020202020200A2020342020392020322020302020202020200A2031302031312020312020302020202020200A2031312031322020312020302020202020200A2031322031332020312020302020202020200A2020312031302020312020302020202020200A2020322031332020312020302020202020200A2020332031342020312020302020202020200A2031312031352020312020302020202020200A2020362031362020312020302020202020200A4D2020454E44
Contributor: SASAKI S, TOYOHASHI UNIV. OF TECH.
InstType: EI
InstName: JEOL JMS-01-SG-2
IoniMethod: _ENERGY 75 eV
IonPolarity: pos
Date: 2010-10-09 19:48:36+02:00
Num Peaks: 20
77 12 115 11 127 13 128 1 129 11 130 21 143 10 154 2 155 13 156 213 
164 21 178 2 190 107 191 999 192 121 193 27 233 12 234 369 235 30 236 77 
