Name: N-PIPEROYLANILINE
MW: 293
Formula: C18H15NO3
Synonym: MassBank: JP001393
Synonym: N-PIPEROYLANILINE
Synonym: 5-(3,4-METHYLENEDIOXYPHENYL)-N-PHENYL-2,4-PENTADIENAMIDE
Structure: 4E2D50495045524F594C414E494C494E452E6D6F6C0A20204368656D447261773034323331303033313132440A2032322032342020302020302020302020302020302020302020302020303939392056323030300A20202020312E343737392020202D312E3032313020202020302E303030302043202020302020302020302020302020302020302020302020302020302020302020302020300A20202020302E363532392020202D312E3032313020202020302E303030302043202020302020302020302020302020302020302020302020302020302020302020302020300A20202020302E323430342020202D302E3330363520202020302E303030302043202020302020302020302020302020302020302020302020302020302020302020302020300A2020202D302E353834362020202D302E3330363520202020302E303030302043202020302020302020302020302020302020302020302020302020302020302020302020300A2020202D302E3939373120202020302E3430373920202020302E303030302043202020302020302020302020302020302020302020302020302020302020302020302020300A20202020312E383930342020202D312E3733353520202020302E30303030204F202020302020302020302020302020302020302020302020302020302020302020302020300A20202020312E383930342020202D302E3330363520202020302E30303030204E202020302020302020302020302020302020302020302020302020302020302020302020300A20202020322E373135342020202D302E3330363520202020302E303030302043202020302020302020302020302020302020302020302020302020302020302020302020300A20202020332E3132373920202020302E3430373920202020302E303030302043202020302020302020302020302020302020302020302020302020302020302020302020300A20202020332E3935323920202020302E3430373920202020302E303030302043202020302020302020302020302020302020302020302020302020302020302020302020300A20202020342E333635342020202D302E3330363520202020302E303030302043202020302020302020302020302020302020302020302020302020302020302020302020300A20202020332E393532392020202D312E3032313020202020302E303030302043202020302020302020302020302020302020302020302020302020302020302020302020300A20202020332E313237392020202D312E3032313020202020302E303030302043202020302020302020302020302020302020302020302020302020302020302020302020300A2020202D312E3832323120202020302E3430373920202020302E303030302043202020302020302020302020302020302020302020302020302020302020302020302020300A2020202D322E3233343620202020312E3132323420202020302E303030302043202020302020302020302020302020302020302020302020302020302020302020302020300A2020202D332E3035393620202020312E3132323420202020302E303030302043202020302020302020302020302020302020302020302020302020302020302020302020300A2020202D332E3437323120202020302E3430373920202020302E303030302043202020302020302020302020302020302020302020302020302020302020302020302020300A2020202D332E303539362020202D302E3330363520202020302E303030302043202020302020302020302020302020302020302020302020302020302020302020302020300A2020202D322E323334362020202D302E3330363520202020302E303030302043202020302020302020302020302020302020302020302020302020302020302020302020300A2020202D342E3336353420202020312E3339393920202020302E303030302043202020302020302020302020302020302020302020302020302020302020302020302020300A2020202D332E3631313720202020312E3733353520202020302E30303030204F202020302020302020302020302020302020302020302020302020302020302020302020300A2020202D342E3237393120202020302E3537393520202020302E30303030204F202020302020302020302020302020302020302020302020302020302020302020302020300A2020312020322020312020302020202020200A2020322020332020322020302020202020200A2020332020342020312020302020202020200A2020342020352020322020302020202020200A2020312020362020322020302020202020200A2020312020372020312020302020202020200A2020382020392020312020302020202020200A2020392031302020322020302020202020200A2031302031312020312020302020202020200A2031312031322020322020302020202020200A2031322031332020312020302020202020200A2020382031332020322020302020202020200A2020372020382020312020302020202020200A2031342031352020312020302020202020200A2031352031362020322020302020202020200A2031362031372020312020302020202020200A2031372031382020322020302020202020200A2031382031392020312020302020202020200A2031342031392020322020302020202020200A2032302032312020312020302020202020200A2032302032322020312020302020202020200A2031362032312020312020302020202020200A2031372032322020312020302020202020200A2020352031342020312020302020202020200A4D2020454E44
Contributor: HASHIMOTO K, KYOTO COLLEGE OF PHARMACY
InstType: EI
InstName: HITACHI M-80
IoniMethod: _ENERGY 20 eV
IonPolarity: pos
Date: 2010-10-09 19:48:36+02:00
Num Peaks: 9
159 14 161 29 171 83 172 6 173 79 201 999 202 104 293 27 294 53 
