Name: METHYL ISOPROPYL ETHER
MW: 74
Formula: C4H10O
Synonym: MassBank: JP003925
Synonym: METHYL ISOPROPYL ETHER
Structure: 310A31340A4D455448594C2049534F50524F50594C2045544845522E6D6F6C0A20204368656D447261773038313231303030323432440A2020352020342020302020302020302020302020302020302020302020303939392056323030300A2020202D302E333537322020202D302E3631383820202020302E30303030204F202020302020302020302020302020302020302020302020302020302020302020302020300A20202020302E333537322020202D302E3230363220202020302E303030302043202020302020302020302020302020302020302020302020302020302020302020302020300A20202020302E3335373220202020302E3631383820202020302E303030302043202020302020302020302020302020302020302020302020302020302020302020302020300A20202020312E303731372020202D302E3631383820202020302E303030302043202020302020302020302020302020302020302020302020302020302020302020302020300A2020202D312E303731372020202D302E3230363320202020302E303030302043202020302020302020302020302020302020302020302020302020302020302020302020300A2020322020332020312020302020202020200A2020322020342020312020302020202020200A2020312020322020312020302020202020200A2020312020352020312020302020202020200A4D2020454E44
Contributor: MASS SPECTROSCOPY SOC. OF JAPAN (MSSJ)
InstType: EI
InstName: Unknown
IoniMethod: EI
IonPolarity: pos
Date: 2010-10-09 19:48:36+02:00
Num Peaks: 23
23 25 24 39 25 247 26 4 27 184 28 40 29 331 30 3 31 181 32 26 
37 20 38 2 39 119 40 31 41 170 42 10 43 287 44 21 45 35 59 999 
60 42 73 44 74 65 
