Name: MassBank: JP006733
MW: 245
Formula: C15H19NO2
Synonym: MassBank: JP006733
Synonym: N-(4,4-DIDEUTERO-4-PHENYLBUTYRYL)PIPERIDIN-2-ONE
Structure: 4E2D28342C342D44494445555445524F2D342D5048454E594C4255545952594C2950495045524944494E2D322D4F4E452E6D6F6C0A20204368656D447261773038313231303031323032440A2032302032312020302020302020302020302020302020302020302020303939392056323030300A2020202D302E373639372020202D302E3832353020202020302E30303030204E202020302020302020302020302020302020302020302020302020302020302020302020300A2020202D312E313832322020202D312E3533393520202020302E303030302043202020302020302020302020302020302020302020302020302020302020302020302020300A2020202D322E303037322020202D312E3533393520202020302E303030302043202020302020302020302020302020302020302020302020302020302020302020302020300A2020202D322E343139372020202D302E3832353020202020302E303030302043202020302020302020302020302020302020302020302020302020302020302020302020300A2020202D322E303037322020202D302E3131303520202020302E303030302043202020302020302020302020302020302020302020302020302020302020302020302020300A2020202D312E313832322020202D302E3131303520202020302E303030302043202020302020302020302020302020302020302020302020302020302020302020302020300A2020202D302E373639372020202D322E3235333920202020302E30303030204F202020302020302020302020302020302020302020302020302020302020302020302020300A20202020302E303535332020202D302E3832353020202020302E303030302043202020302020302020302020302020302020302020302020302020302020302020302020300A20202020302E343637382020202D312E3533393520202020302E30303030204F202020302020302020302020302020302020302020302020302020302020302020302020300A20202020302E343637382020202D302E3131303520202020302E303030302043202020302020302020302020302020302020302020302020302020302020302020302020300A20202020312E323932382020202D302E3131303520202020302E303030302043202020302020302020302020302020302020302020302020302020302020302020302020300A20202020312E3730353320202020302E3630333920202020302E303030302043202020302020302020302020302020302020302020302020302020302020302020302020300A20202020302E3939303820202020312E3031363420202020302E303030302043202020302020302020302020302020302020302020302020302020302020302020302020300A20202020302E3237363320202020302E3630333920202020302E303030302043202020302020302020302020302020302020302020302020302020302020302020302020300A2020202D302E3433383120202020312E3031363420202020302E303030302043202020302020302020302020302020302020302020302020302020302020302020302020300A2020202D302E3433383120202020312E3834313420202020302E303030302043202020302020302020302020302020302020302020302020302020302020302020302020300A20202020302E3237363320202020322E3235333920202020302E303030302043202020302020302020302020302020302020302020302020302020302020302020302020300A20202020302E3939303820202020312E3834313420202020302E303030302043202020302020302020302020302020302020302020302020302020302020302020302020300A20202020322E3131373820202020312E3331383420202020302E303030302048202020312020302020302020302020302020302020302020302020302020302020302020300A20202020322E3431393720202020302E3139313420202020302E303030302048202020312020302020302020302020302020302020302020302020302020302020302020300A2020312020322020312020302020202020200A2020322020332020312020302020202020200A2020332020342020312020302020202020200A2020342020352020312020302020202020200A2020352020362020312020302020202020200A2020312020362020312020302020202020200A2020322020372020322020302020202020200A2020382020392020322020302020202020200A2020382031302020312020302020202020200A2031302031312020312020302020202020200A2031312031322020312020302020202020200A2031332031342020312020302020202020200A2031342031352020322020302020202020200A2031352031362020312020302020202020200A2031362031372020322020302020202020200A2031372031382020312020302020202020200A2031332031382020322020302020202020200A2031322031332020312020302020202020200A2031322031392020312020302020202020200A2031322032302020312020302020202020200A2020312020382020312020302020202020200A4D202049534F202032202031392020203220203230202020320A4D2020454E44
Contributor: MASS SPECTROSCOPY SOC. OF JAPAN (MSSJ)
InstType: EI
InstName: HITACHI RMU-6G
IoniMethod: _ENERGY 20 eV
IonPolarity: pos
Date: 2010-10-09 19:48:36+02:00
Num Peaks: 63
41 70 42 55 43 190 44 35 45 30 55 130 56 45 57 80 58 90 61 20 
69 40 70 70 71 130 72 25 76 25 81 25 82 40 83 45 84 30 85 65 
86 20 91 110 92 70 93 190 94 30 95 20 96 20 97 45 98 80 99 360 
100 670 101 280 102 25 104 50 105 300 106 110 107 60 109 20 111 30 112 60 
113 90 114 720 115 70 118 25 119 40 125 20 126 20 131 20 139 60 141 120 
142 999 143 100 147 30 148 30 149 60 154 90 155 45 165 10 166 50 167 10 
247 70 248 20 249 7 
