Name: ORTHO-(PENTAMETHYLDISILANYL)BENZALDEHYDE
MW: 236
Formula: C12H20OSi2
Synonym: MassBank: JP001434
Synonym: ORTHO-(PENTAMETHYLDISILANYL)BENZALDEHYDE
Structure: 4F5254484F2D2850454E54414D455448594C444953494C414E594C2942454E5A414C4445485944452E6D6F6C0A20204368656D447261773038313231303033333032440A2031352031352020302020302020302020302020302020302020302020303939392056323030300A2020202D312E313832322020202D302E3132333720202020302E303030302043202020302020302020302020302020302020302020302020302020302020302020302020300A2020202D302E343637382020202D302E3533363320202020302E303030302043202020302020302020302020302020302020302020302020302020302020302020302020300A20202020302E323436372020202D302E3132333720202020302E303030302043202020302020302020302020302020302020302020302020302020302020302020302020300A20202020302E393631322020202D302E3533363220202020302E303030302043202020302020302020302020302020302020302020302020302020302020302020302020300A20202020302E393631322020202D312E3336313220202020302E303030302043202020302020302020302020302020302020302020302020302020302020302020302020300A20202020302E323436372020202D312E3737333820202020302E303030302043202020302020302020302020302020302020302020302020302020302020302020302020300A2020202D302E343637382020202D312E3336313320202020302E303030302043202020302020302020302020302020302020302020302020302020302020302020302020300A2020202D312E383936372020202D302E3533363320202020302E30303030204F202020302020302020302020302020302020302020302020302020302020302020302020300A20202020302E3234363720202020302E3934383820202020302E303030302053692020302020302020302020302020302020302020302020302020302020302020302020300A20202020312E3037313720202020302E3934383820202020302E303030302053692020302020302020302020302020302020302020302020302020302020302020302020300A20202020302E3234363720202020312E3737333820202020302E303030302043202020302020302020302020302020302020302020302020302020302020302020302020300A2020202D302E3537383320202020302E3934383820202020302E303030302043202020302020302020302020302020302020302020302020302020302020302020302020300A20202020312E3037313720202020302E3132333820202020302E303030302043202020302020302020302020302020302020302020302020302020302020302020302020300A20202020312E3839363720202020302E3934383820202020302E303030302043202020302020302020302020302020302020302020302020302020302020302020302020300A20202020312E3037313720202020312E3737333820202020302E303030302043202020302020302020302020302020302020302020302020302020302020302020302020300A2020312020322020312020302020202020200A2020322020332020312020302020202020200A2020332020342020322020302020202020200A2020342020352020312020302020202020200A2020352020362020322020302020202020200A2020362020372020312020302020202020200A2020322020372020322020302020202020200A2020312020382020322020302020202020200A2020392031302020312020302020202020200A2020392031312020312020302020202020200A2020392031322020312020302020202020200A2031302031332020312020302020202020200A2031302031342020312020302020202020200A2031302031352020312020302020202020200A2020332020392020312020302020202020200A4D2020454E44
Contributor: MASS SPECTROSCOPY SOC. OF JAPAN (MSSJ)
InstType: EI
InstName: JEOL JMS-D-3000
IoniMethod: _ENERGY 70 eV
IonPolarity: pos
Date: 2010-10-09 19:48:36+02:00
Num Peaks: 29
43 20 53 26 61 17 73 343 74 42 77 19 89 38 91 21 93 20 103 26 
105 22 107 34 117 24 119 42 121 23 146 17 148 87 161 15 163 999 164 203 
179 32 193 276 194 83 195 37 219 19 221 206 222 47 223 19 236 20 
