Name: DIETHYL CHLOROTHIOPHOSPHATE
CAS: 2524-04-1
MW: 187
Formula: C4H10ClO2PS
Synonym: MassBank: JP008193
Synonym: DIETHYL CHLOROTHIOPHOSPHATE
Synonym: DIETHYL PHOSPHOROCHLORIDOTHIONATE
Structure: 310A32320A4449455448594C2043484C4F524F5448494F50484F5350484154452E6D6F6C0A20204368656D447261773039323131303230303132440A2020392020382020302020302020302020302020302020302020302020303939392056323030300A20202020302E3234363720202020302E3030303020202020302E303030302050202020302020302020302020302020302020302020302020302020302020302020302020300A20202020302E363539322020202D302E3731343520202020302E30303030204F202020302020302020302020302020302020302020302020302020302020302020302020300A2020202D302E343637382020202D302E3431323520202020302E30303030204F202020302020302020302020302020302020302020302020302020302020302020302020300A2020202D302E3136353820202020302E3731343520202020302E303030302053202020302020302020302020302020302020302020302020302020302020302020302020300A20202020302E3936313220202020302E3431323520202020302E3030303020436C2020302020302020302020302020302020302020302020302020302020302020302020300A20202020312E343834322020202D302E3731343520202020302E303030302043202020302020302020302020302020302020302020302020302020302020302020302020300A20202020312E3839363720202020302E3030303020202020302E303030302043202020302020302020302020302020302020302020302020302020302020302020302020300A2020202D312E313832322020202D302E3030303020202020302E303030302043202020302020302020302020302020302020302020302020302020302020302020302020300A2020202D312E383936372020202D302E3431323520202020302E303030302043202020302020302020302020302020302020302020302020302020302020302020302020300A2020312020322020312020302020202020200A2020312020332020312020302020202020200A2020312020342020322020302020202020200A2020312020352020312020302020202020200A2020362020372020312020302020202020200A2020322020362020312020302020202020200A2020382020392020312020302020202020200A2020332020382020312020302020202020200A4D2020454E44
Contributor: NARA WOMEN'S UNIVERSITY
InstType: EI
InstName: HITACHI M-80
IoniMethod: _ENERGY 70 eV
IonPolarity: pos
Date: 2010-10-09 19:48:36+02:00
Num Peaks: 80
14 15 15 47 26 121 27 555 28 162 29 581 30 20 31 14 32 30 34 16 
35 18 42 19 43 113 44 18 45 315 47 200 48 26 49 11 58 14 59 26 
60 48 61 33 62 47 63 80 64 35 65 143 66 20 67 21 79 95 80 57 
81 14 83 175 85 57 91 15 93 34 96 55 97 614 98 24 99 99 100 59 
101 29 102 18 111 122 113 42 114 42 115 321 116 495 117 139 118 184 119 14 
121 22 122 14 125 214 126 14 127 37 128 13 129 14 131 61 132 645 133 373 
134 247 135 133 136 10 143 75 144 584 145 77 146 218 147 19 153 130 154 10 
159 22 160 68 161 154 162 29 163 54 188 999 189 86 190 363 191 29 192 16 
