Name: DIETHYLHYDRAZONE ISOBUTYRALDEHYDE
MW: 142
Formula: C8H18N2
Synonym: MassBank: JP000839
Synonym: DIETHYLHYDRAZONE ISOBUTYRALDEHYDE
Synonym: ISOBUTYRALDEHYDE DIETHYLHYDRAZONE
Structure: 303137325F4449455448594C48594452415A4F4E452049534F4255545952414C4445485944452E6D6F6C0A20204368656D447261773039303331303138333332440A2031302020392020302020302020302020302020302020302020302020303939392056323030300A20202020302E3030303020202020312E3738363120202020302E303030302043202020302020302020302020302020302020302020302020302020302020302020302020300A20202020302E3431323520202020312E3037313720202020302E303030302043202020302020302020302020302020302020302020302020302020302020302020302020300A20202020302E3030303020202020302E3335373220202020302E303030302043202020302020302020302020302020302020302020302020302020302020302020302020300A20202020312E3233373520202020312E3037313720202020302E303030302043202020302020302020302020302020302020302020302020302020302020302020302020300A20202020302E343132352020202D302E3335373220202020302E30303030204E202020302020302020302020302020302020302020302020302020302020302020302020300A20202020302E303030302020202D312E3037313720202020302E30303030204E202020302020302020302020302020302020302020302020302020302020302020302020300A20202020302E343132352020202D312E3738363120202020302E303030302043202020302020302020302020302020302020302020302020302020302020302020302020300A20202020312E323337352020202D312E3738363120202020302E303030302043202020302020302020302020302020302020302020302020302020302020302020302020300A2020202D302E383235302020202D312E3037313720202020302E303030302043202020302020302020302020302020302020302020302020302020302020302020302020300A2020202D312E323337352020202D312E3738363120202020302E303030302043202020302020302020302020302020302020302020302020302020302020302020302020300A2020312020322020312020302020202020200A2020322020332020312020302020202020200A2020322020342020312020302020202020200A2020352020362020312020302020202020200A2020372020382020312020302020202020200A2020362020372020312020302020202020200A2020392031302020312020302020202020200A2020362020392020312020302020202020200A2020332020352020322020302020202020200A4D2020454E44
Contributor: SASAKI S, TOYOHASHI UNIV. OF TECH.
InstType: EI
InstName: SHIMADZU LKB-2091
IoniMethod: _ENERGY 70 eV
IonPolarity: pos
Date: 2010-10-09 19:48:36+02:00
Num Peaks: 41
26 16 27 164 28 182 29 46 30 259 31 18 39 73 40 2 41 177 42 20 
43 409 44 26 45 19 53 12 54 16 55 5 56 145 57 82 58 569 59 4 
68 15 69 16 70 123 71 3 72 148 73 46 74 9 83 1 84 8 85 11 
86 20 97 1 99 46 111 10 113 195 114 2 127 999 128 117 141 34 142 50 
143 48 
