Name: MassBank: JP003224
MW: 182
Formula: C11H18O2
Synonym: MassBank: JP003224
Synonym: 2-PROPYL-5,5-DIMETHYL-1,3-CYCLOHEXANEDIONE
Structure: 322D50524F50594C2D352C352D44494D455448594C2D312C332D4359434C4F484558414E4544494F4E452E6D6F6C0A20204368656D447261773032323131303135303132440A2031332031332020302020302020302020302020302020302020302020303939392056323030300A20202020302E3034393020202020302E3634333620202020302E303030302043202020302020302020302020302020302020302020302020302020302020302020302020300A20202020302E303439302020202D302E3138313420202020302E303030302043202020302020302020302020302020302020302020302020302020302020302020302020300A2020202D302E363635352020202D302E3539333920202020302E303030302043202020302020302020302020302020302020302020302020302020302020302020302020300A2020202D312E333739392020202D302E3138313420202020302E303030302043202020302020302020302020302020302020302020302020302020302020302020302020300A2020202D312E3337393920202020302E3634333620202020302E303030302043202020302020302020302020302020302020302020302020302020302020302020302020300A2020202D302E3636353520202020312E3035363120202020302E303030302043202020302020302020302020302020302020302020302020302020302020302020302020300A20202020302E3736333520202020312E3035363120202020302E30303030204F202020302020302020302020302020302020302020302020302020302020302020302020300A2020202D302E363635352020202D312E3431383920202020302E30303030204F202020302020302020302020302020302020302020302020302020302020302020302020300A2020202D312E3636323120202020312E3431383920202020302E303030302043202020302020302020302020302020302020302020302020302020302020302020302020300A2020202D322E3139323420202020302E3530303420202020302E303030302043202020302020302020302020302020302020302020302020302020302020302020302020300A20202020302E373633352020202D302E3539333920202020302E303030302043202020302020302020302020302020302020302020302020302020302020302020302020300A20202020312E343737392020202D302E3138313420202020302E303030302043202020302020302020302020302020302020302020302020302020302020302020302020300A20202020322E313932342020202D302E3539333920202020302E303030302043202020302020302020302020302020302020302020302020302020302020302020302020300A2020312020322020312020302020202020200A2020322020332020312020302020202020200A2020332020342020312020302020202020200A2020342020352020312020302020202020200A2020352020362020312020302020202020200A2020312020362020312020302020202020200A2020312020372020322020302020202020200A2020332020382020322020302020202020200A2020352020392020312020312020202020200A2020352031302020312020362020202020200A2031312031322020312020302020202020200A2031322031332020312020302020202020200A2020322031312020312020302020202020200A4D2020454E44
Contributor: NAKATA H, DEPT. OF CHEMISTRY, AICHI KYOIKU UNIV.
InstType: EI
InstName: HITACHI RMU-7
IoniMethod: _ENERGY 70 eV
IonPolarity: pos
Date: 2010-10-09 19:48:36+02:00
Num Peaks: 19
41 180 42 300 43 170 55 690 56 190 69 190 83 999 84 570 97 190 98 190 
111 260 112 110 125 170 126 90 140 170 153 170 154 130 167 170 182 230 
