Name: MassBank: JP004382
MW: 161
Formula: C11H15N
Synonym: MassBank: JP004382
Synonym: 6,8-DIMETHYL-1,2,3,4-TETRAHYDROQUINOLINE
Structure: 362C382D44494D455448594C2D312C322C332C342D5445545241485944524F5155494E4F4C494E452E6D6F6C0A20204368656D447261773035313331303231303932440A2031322031332020302020302020302020302020302020302020302020303939392056323030300A20202020312E3037313720202020302E3431323520202020302E30303030204E202020302020302020302020302020302020302020302020302020302020302020302020300A20202020312E3738363220202020302E3030303020202020302E303030302043202020302020302020302020302020302020302020302020302020302020302020302020300A20202020312E373836322020202D302E3832353020202020302E303030302043202020302020302020302020302020302020302020302020302020302020302020302020300A20202020312E303731372020202D312E3233373520202020302E303030302043202020302020302020302020302020302020302020302020302020302020302020302020300A20202020302E333537322020202D302E3832353020202020302E303030302043202020302020302020302020302020302020302020302020302020302020302020302020300A2020202D302E333537322020202D312E3233373520202020302E303030302043202020302020302020302020302020302020302020302020302020302020302020302020300A2020202D312E303731372020202D302E3832353020202020302E303030302043202020302020302020302020302020302020302020302020302020302020302020302020300A2020202D312E303731372020202D302E3030303020202020302E303030302043202020302020302020302020302020302020302020302020302020302020302020302020300A2020202D302E3335373220202020302E3431323520202020302E303030302043202020302020302020302020302020302020302020302020302020302020302020302020300A20202020302E3335373220202020302E3030303020202020302E303030302043202020302020302020302020302020302020302020302020302020302020302020302020300A2020202D302E3335373220202020312E3233373520202020302E303030302043202020302020302020302020302020302020302020302020302020302020302020302020300A2020202D312E373836322020202D312E3233373520202020302E303030302043202020302020302020302020302020302020302020302020302020302020302020302020300A2020312020322020312020302020202020200A2020322020332020312020302020202020200A2020332020342020312020302020202020200A2020342020352020312020302020202020200A2020352020362020312020302020202020200A2020362020372020322020302020202020200A2020372020382020312020302020202020200A2020382020392020322020302020202020200A2020392031302020312020302020202020200A2020312031302020312020302020202020200A2020352031302020322020302020202020200A2020392031312020312020302020202020200A2020372031322020312020302020202020200A4D2020454E44
Contributor: SASAKI S, TOYOHASHI UNIV. OF TECH.
InstType: EI
InstName: MX-1303
IoniMethod: _ENERGY 50 eV
IonPolarity: pos
Date: 2010-10-09 19:48:36+02:00
Num Peaks: 116
15 16 16 12 17 80 18 30 26 21 27 69 29 25 30 1 31 11 38 23 
39 139 40 2 41 66 42 21 43 28 45 1 50 48 51 128 52 53 53 4 
54 21 55 30 56 18 57 2 57.5 12 58.5 21 60 11 61 1 62 30 63 98 
63.5 12 64 4 64.5 34 65 119 65.5 52 66.5 2 67 23 68 12 69 16 70 1 
70.5 16 71 14 71.5 46 72 3 72.5 32 73 14 74 23 75 4 76 41 76.5 19 
77 209 77.5 4 78 99 78.5 48 79 68 79.5 5 80 21 80.5 23 81 19 86 1 
87 18 88 16 89 66 90 4 91 144 92 30 93 21 94 2 95 12 98 11 
100 11 101 3 102 62 103 91 104 71 105 6 106 41 107 14 113 16 114 3 
115 137 116 64 117 166 118 10 119 28 120 30 121 25 126 1 127 62 128 121 
129 112 130 14 131 205 132 317 134 39 140 3 141 78 142 389 143 99 144 22 
145 230 146 403 147 53 148 1 152 12 153 12 154 113 155 4 156 331 157 835 
158 218 159 7 160 789 161 999 162 118 163 14 
