Name: DECANEDIOIC ACID DIMETHYL ESTER
MW: 230
Formula: C12H22O4
Synonym: MassBank: JP001708
Synonym: DECANEDIOIC ACID DIMETHYL ESTER
Synonym: DIMETHYL SEBACATE
Structure: 444543414E4544494F494320414349442044494D455448594C2045535445522E6D6F6C0A20204368656D447261773039323031303130303832440A2031362031352020302020302020302020302020302020302020302020303939392056323030300A2020202D332E3231353120202020302E3230363220202020302E303030302043202020302020302020302020302020302020302020302020302020302020302020302020300A2020202D322E353030362020202D302E3230363320202020302E303030302043202020302020302020302020302020302020302020302020302020302020302020302020300A2020202D312E3738363220202020302E3230363220202020302E303030302043202020302020302020302020302020302020302020302020302020302020302020302020300A2020202D312E303731372020202D302E3230363320202020302E303030302043202020302020302020302020302020302020302020302020302020302020302020302020300A2020202D302E3335373220202020302E3230363220202020302E303030302043202020302020302020302020302020302020302020302020302020302020302020302020300A20202020302E333537322020202D302E3230363320202020302E303030302043202020302020302020302020302020302020302020302020302020302020302020302020300A20202020312E3037313720202020302E3230363220202020302E303030302043202020302020302020302020302020302020302020302020302020302020302020302020300A20202020312E373836322020202D302E3230363220202020302E303030302043202020302020302020302020302020302020302020302020302020302020302020302020300A20202020322E3530303620202020302E3230363320202020302E303030302043202020302020302020302020302020302020302020302020302020302020302020302020300A20202020332E323135312020202D302E3230363220202020302E303030302043202020302020302020302020302020302020302020302020302020302020302020302020300A2020202D332E3231353120202020312E3033313220202020302E30303030204F202020302020302020302020302020302020302020302020302020302020302020302020300A2020202D332E393239362020202D302E3230363320202020302E30303030204F202020302020302020302020302020302020302020302020302020302020302020302020300A20202020332E323135312020202D312E3033313220202020302E30303030204F202020302020302020302020302020302020302020302020302020302020302020302020300A20202020332E3932393620202020302E3230363320202020302E30303030204F202020302020302020302020302020302020302020302020302020302020302020302020300A2020202D332E393239362020202D312E3033313320202020302E303030302043202020302020302020302020302020302020302020302020302020302020302020302020300A20202020332E3932393620202020312E3033313320202020302E303030302043202020302020302020302020302020302020302020302020302020302020302020302020300A2020312020322020312020302020202020200A2020322020332020312020302020202020200A2020332020342020312020302020202020200A2020342020352020312020302020202020200A2020352020362020312020302020202020200A2020362020372020312020302020202020200A2020372020382020312020302020202020200A2020382020392020312020302020202020200A2020392031302020312020302020202020200A2020312031312020322020302020202020200A2020312031322020312020302020202020200A2031302031332020322020302020202020200A2031302031342020312020302020202020200A2031322031352020312020302020202020200A2031342031362020312020302020202020200A4D2020454E44
Contributor: MASS SPECTROSCOPY SOC. OF JAPAN (MSSJ)
InstType: EI
InstName: Unknown
IoniMethod: EI
IonPolarity: pos
Date: 2010-10-09 19:48:36+02:00
Num Peaks: 104
15 12 29 14 41 43 42 15 43 339 44 4 45 14 54 7 55 516 56 43 
57 55 59 192 60 4 67 59 68 46 69 240 70 41 71 20 72 4 73 66 
74 999 75 76 76 5 79 30 80 55 81 91 82 63 83 412 84 731 85 53 
86 4 87 313 88 40 91 3 93 18 94 45 95 70 96 129 97 605 98 928 
99 86 100 86 101 114 102 13 104 12 105 6 106 17 107 57 108 8 109 29 
110 95 111 113 112 86 113 34 114 30 115 112 116 12 119 13 120 34 121 117 
122 27 123 27 124 104 125 829 126 73 127 23 128 12 129 16 130 12 131 4 
137 26 138 410 139 197 140 22 141 9 142 21 143 8 144 49 145 4 147 6 
148 66 149 24 150 2 151 9 154 17 155 10 156 21 157 600 158 64 159 5 
165 10 166 354 167 53 168 6 169 2 170 41 171 12 172 2 180 9 198 32 
199 413 200 49 201 4 231 5 
