Name: ETHYL 2-FUROATE
CAS: 614-99-3
MW: 140
Formula: C7H8O3
Synonym: MassBank: JP007746
Synonym: ETHYL 2-FUROATE
Synonym: 2-FURANCARBOXYLIC ACID ETHYL ESTER
Structure: 455448594C20322D4655524F4154452E6D6F6C0A20204368656D447261773031303331303133353532440A2031302031302020302020302020302020302020302020302020302020303939392056323030300A2020202D302E3836323320202020302E3934333220202020302E30303030204F202020302020302020302020302020302020302020302020302020302020302020302020300A2020202D302E3737363120202020302E3132323720202020302E303030302043202020302020302020302020302020302020302020302020302020302020302020302020300A2020202D312E353239382020202D302E3231323820202020302E303030302043202020302020302020302020302020302020302020302020302020302020302020302020300A2020202D322E3038313820202020302E3430303320202020302E303030302043202020302020302020302020302020302020302020302020302020302020302020302020300A2020202D312E3636393320202020312E3131343820202020302E303030302043202020302020302020302020302020302020302020302020302020302020302020302020300A2020202D302E303631362020202D302E3238393820202020302E303030302043202020302020302020302020302020302020302020302020302020302020302020302020300A2020202D302E303631362020202D312E3131343820202020302E30303030204F202020302020302020302020302020302020302020302020302020302020302020302020300A20202020302E3635323920202020302E3132323720202020302E30303030204F202020302020302020302020302020302020302020302020302020302020302020302020300A20202020312E333637332020202D302E3238393820202020302E303030302043202020302020302020302020302020302020302020302020302020302020302020302020300A20202020322E3038313820202020302E3132323720202020302E303030302043202020302020302020302020302020302020302020302020302020302020302020302020300A2020312020322020312020302020202020200A2020322020332020322020302020202020200A2020332020342020312020302020202020200A2020342020352020322020302020202020200A2020312020352020312020302020202020200A2020322020362020312020302020202020200A2020362020372020322020302020202020200A2020362020382020312020302020202020200A2020392031302020312020302020202020200A2020382020392020312020302020202020200A4D2020454E44
Contributor: HASHIMOTO K, KYOTO COLLEGE OF PHARMACY
InstType: EI
InstName: HITACHI M-80
IoniMethod: _ENERGY 20 eV
IonPolarity: pos
Date: 2010-10-09 19:48:36+02:00
Num Peaks: 26
27 20 29 121 39 167 40 40 41 10 42 20 45 300 51 10 53 10 55 20 
56 10 67 55 68 339 69 10 81 10 84 80 94 10 95 999 96 528 97 99 
112 708 113 139 114 10 125 30 140 539 141 86 
