Name: 2-PHENYLOXIRANE
MW: 120
Formula: C8H8O
Synonym: MassBank: JP005424
Synonym: 2-PHENYLOXIRANE
Synonym: (1,2-EPOXYETHYL)BENZENE
Structure: 310A32340A28312C322D45504F5859455448594C2942454E5A454E452E6D6F6C0A20204368656D447261773130303630393135343032440A2020392031302020302020302020302020302020302020302020302020303939392056323030300A2020202D312E3138323220202020302E3731343520202020302E303030302043202020302020302020302020302020302020302020302020302020302020302020302020300A2020202D312E3539343720202020302E3030303020202020302E303030302043202020302020302020302020302020302020302020302020302020302020302020302020300A2020202D312E313832322020202D302E3731343520202020302E303030302043202020302020302020302020302020302020302020302020302020302020302020302020300A2020202D302E333537322020202D302E3731343520202020302E303030302043202020302020302020302020302020302020302020302020302020302020302020302020300A20202020302E3035353320202020302E3030303020202020302E303030302043202020302020302020302020302020302020302020302020302020302020302020302020300A2020202D302E3335373220202020302E3731343520202020302E303030302043202020302020302020302020302020302020302020302020302020302020302020302020300A20202020302E3838303320202020302E3030303020202020302E303030302043202020302020302020302020302020302020302020302020302020302020302020302020300A20202020312E353934372020202D302E3431323520202020302E303030302043202020302020302020302020302020302020302020302020302020302020302020302020300A20202020312E3539343720202020302E3431323520202020302E30303030204F202020302020302020302020302020302020302020302020302020302020302020302020300A2020312020322020322020302020202020200A2020322020332020312020302020202020200A2020332020342020322020302020202020200A2020342020352020312020302020202020200A2020352020362020322020302020202020200A2020362020312020312020302020202020200A2020352020372020312020302020202020200A2020372020382020312020302020202020200A2020382020392020312020302020202020200A2020392020372020312020302020202020200A4D2020454E44
Contributor: TAJIMA S, GUNMA COLLEGE OF TECHNOLOGY
InstType: EI
InstName: HITACHI RMU-7M
IoniMethod: _ENERGY 70 eV
IonPolarity: pos
Date: 2010-10-09 19:48:36+02:00
Num Peaks: 33
27 29 28 14 29 20 31 43 37 18 38 38 39 143 40 23 41 21 43 22 
45 33 46 14 50 69 51 136 52 23 62 49 63 152 64 66 65 167 74 18 
75 14 77 76 78 17 89 667 90 829 91 999 92 364 93 26 105 32 107 23 
119 583 120 479 121 45 
