Name: MassBank: JP003232
MW: 127
Formula: C6H9NO2
Synonym: MassBank: JP003232
Synonym: 3,5-DIMETHYL-4-HYDROXYMETHYL-ISOXAZOLE
Structure: 310A32330A332C352D44494D455448594C2D342D485944524F58594D455448594C2D49534F58415A4F4C452E6D6F6C0A20204368656D447261773032323231303031323632440A2020392020392020302020302020302020302020302020302020302020303939392056323030300A20202020312E323533352020202D302E3431323520202020302E30303030204F202020302020302020302020302020302020302020302020302020302020302020302020300A20202020312E3235333520202020302E3431323520202020302E30303030204E202020302020302020302020302020302020302020302020302020302020302020302020300A20202020302E3436383920202020302E3636373420202020302E303030302043202020302020302020302020302020302020302020302020302020302020302020302020300A2020202D302E3031363020202020302E3030303020202020302E303030302043202020302020302020302020302020302020302020302020302020302020302020302020300A20202020302E343638392020202D302E3636373420202020302E303030302043202020302020302020302020302020302020302020302020302020302020302020302020300A2020202D302E3834313020202020302E3030303020202020302E303030302043202020302020302020302020302020302020302020302020302020302020302020302020300A2020202D312E3235333520202020302E3731343520202020302E30303030204F202020302020302020302020302020302020302020302020302020302020302020302020300A20202020302E323134302020202D312E3435323120202020302E303030302043202020302020302020302020302020302020302020302020302020302020302020302020300A20202020302E3231343020202020312E3435323120202020302E303030302043202020302020302020302020302020302020302020302020302020302020302020302020300A2020312020322020312020302020202020200A2020322020332020322020302020202020200A2020332020342020312020302020202020200A2020342020352020322020302020202020200A2020312020352020312020302020202020200A2020362020372020312020302020202020200A2020342020362020312020302020202020200A2020352020382020312020302020202020200A2020332020392020312020302020202020200A4D2020454E44
Contributor: MASS SPECTROSCOPY SOC. OF JAPAN (MSSJ)
InstType: EI
InstName: HITACHI RMU-6E
IoniMethod: _ENERGY 70 eV
IonPolarity: pos
Date: 2010-10-09 19:48:36+02:00
Num Peaks: 9
127 999 112 120 110 250 109 360 84 640 82 640 68 750 43 880 42 820 
