Name: METHYL 2-FUROATE
CAS: 611-13-2
MW: 126
Formula: C6H6O3
Synonym: MassBank: JP009048
Synonym: METHYL 2-FUROATE
Structure: 310A32330A4D455448594C20322D4655524F4154452E6D6F6C0A20204368656D447261773038313131303233333132440A2020392020392020302020302020302020302020302020302020302020303939392056323030300A2020202D302E3436383920202020302E3331303220202020302E30303030204F202020302020302020302020302020302020302020302020302020302020302020302020300A20202020302E303136302020202D302E3335373220202020302E303030302043202020302020302020302020302020302020302020302020302020302020302020302020300A2020202D302E343638392020202D312E3032343720202020302E303030302043202020302020302020302020302020302020302020302020302020302020302020302020300A2020202D312E323533352020202D302E3736393720202020302E303030302043202020302020302020302020302020302020302020302020302020302020302020302020300A2020202D312E3235333520202020302E3035353320202020302E303030302043202020302020302020302020302020302020302020302020302020302020302020302020300A20202020302E383431302020202D302E3335373220202020302E303030302043202020302020302020302020302020302020302020302020302020302020302020302020300A20202020312E323533352020202D312E3037313720202020302E30303030204F202020302020302020302020302020302020302020302020302020302020302020302020300A20202020312E3235333520202020302E3335373220202020302E30303030204F202020302020302020302020302020302020302020302020302020302020302020302020300A20202020302E3834313020202020312E3037313720202020302E303030302043202020302020302020302020302020302020302020302020302020302020302020302020300A2020312020322020312020302020202020200A2020322020332020322020302020202020200A2020332020342020312020302020202020200A2020342020352020322020302020202020200A2020312020352020312020302020202020200A2020322020362020312020302020202020200A2020362020372020322020302020202020200A2020362020382020312020302020202020200A2020382020392020312020302020202020200A4D2020454E44
Contributor: SODA AROMATIC CO., LTD.
InstType: EI
InstName: HITACHI M-80B
IoniMethod: _ENERGY 70 eV
IonPolarity: pos
Date: 2010-10-09 19:48:36+02:00
Num Peaks: 18
15 34 27 14 29 52 37 47 38 107 39 239 41 11 51 10 53 18 59 12 
66 13 67 30 68 47 81 10 95 999 96 90 126 345 127 22 
