Name: MassBank: JP001085
MW: 502
Formula: C26H42O4Si3
Synonym: MassBank: JP001085
Synonym: 4,4-BIS(PARA-(TRIMETHYLSILYL)OXY-PHENYL)-VALERIC ACID TRIMETHYLSILYL ESTER
Synonym: TRIMETHYLSILYL 4,4-BIS(PARA-TRIMETHYLSILOXYPHENYL)PENTANOATE
Structure: 342C342D42495328504152412D285452494D455448594C53494C594C294F58592D5048454E594C292D56414C455249432041434944205452494D455448594C53494C594C2045535445522E6D6F6C0A20204368656D447261773038313131303135333032440A2033332033342020302020302020302020302020302020302020302020303939392056323030300A20202020322E3231333520202020322E3231333520202020302E303030302043202020302020302020302020302020302020302020302020302020302020302020302020300A20202020322E3231333520202020312E3338383520202020302E303030302043202020302020302020302020302020302020302020302020302020302020302020302020300A20202020312E3439393020202020302E3937363020202020302E303030302043202020302020302020302020302020302020302020302020302020302020302020302020300A20202020312E3439393020202020302E3135313020202020302E303030302043202020302020302020302020302020302020302020302020302020302020302020302020300A20202020322E3332343020202020302E3135313020202020302E303030302043202020302020302020302020302020302020302020302020302020302020302020302020300A20202020322E3932383020202020322E3632363020202020302E30303030204F202020302020302020302020302020302020302020302020302020302020302020302020300A20202020312E3439393020202020322E3632363020202020302E30303030204F202020302020302020302020302020302020302020302020302020302020302020302020300A20202020312E343939302020202D302E3637343020202020302E303030302043202020302020302020302020302020302020302020302020302020302020302020302020300A20202020322E323133352020202D312E3038363520202020302E303030302043202020302020302020302020302020302020302020302020302020302020302020302020300A20202020322E323133352020202D312E3931313520202020302E303030302043202020302020302020302020302020302020302020302020302020302020302020302020300A20202020312E343939302020202D322E3332343020202020302E303030302043202020302020302020302020302020302020302020302020302020302020302020302020300A20202020302E373834352020202D312E3931313520202020302E303030302043202020302020302020302020302020302020302020302020302020302020302020302020300A20202020302E373834352020202D312E3038363520202020302E303030302043202020302020302020302020302020302020302020302020302020302020302020302020300A20202020312E343939302020202D332E3134393020202020302E30303030204F202020302020302020302020302020302020302020302020302020302020302020302020300A20202020322E323133352020202D332E3536313520202020302E303030302053692020302020302020302020302020302020302020302020302020302020302020302020300A20202020322E363236302020202D322E3834373020202020302E303030302043202020302020302020302020302020302020302020302020302020302020302020302020300A20202020322E393238302020202D332E3937343020202020302E303030302043202020302020302020302020302020302020302020302020302020302020302020302020300A20202020312E383031302020202D342E3237363020202020302E303030302043202020302020302020302020302020302020302020302020302020302020302020302020300A20202020302E3637343020202020302E3135313020202020302E303030302043202020302020302020302020302020302020302020302020302020302020302020302020300A20202020302E323631352020202D302E3536333520202020302E303030302043202020302020302020302020302020302020302020302020302020302020302020302020300A2020202D302E353633352020202D302E3536333520202020302E303030302043202020302020302020302020302020302020302020302020302020302020302020302020300A2020202D302E3937363020202020302E3135313020202020302E303030302043202020302020302020302020302020302020302020302020302020302020302020302020300A2020202D302E3536333520202020302E3836353520202020302E303030302043202020302020302020302020302020302020302020302020302020302020302020302020300A20202020302E3236313520202020302E3836353520202020302E303030302043202020302020302020302020302020302020302020302020302020302020302020302020300A2020202D312E3830313020202020302E3135313020202020302E30303030204F202020302020302020302020302020302020302020302020302020302020302020302020300A2020202D322E323133352020202D302E3536333520202020302E303030302053692020302020302020302020302020302020302020302020302020302020302020302020300A2020202D312E343939302020202D302E3937363020202020302E303030302043202020302020302020302020302020302020302020302020302020302020302020302020300A2020202D322E363236302020202D312E3237383020202020302E303030302043202020302020302020302020302020302020302020302020302020302020302020302020300A2020202D322E393238302020202D302E3135313020202020302E303030302043202020302020302020302020302020302020302020302020302020302020302020302020300A20202020312E3439393020202020332E3435313020202020302E303030302053692020302020302020302020302020302020302020302020302020302020302020302020300A20202020302E3637343020202020332E3435313020202020302E303030302043202020302020302020302020302020302020302020302020302020302020302020302020300A20202020312E3439393020202020342E3237363020202020302E303030302043202020302020302020302020302020302020302020302020302020302020302020302020300A20202020322E3332343020202020332E3435313020202020302E303030302043202020302020302020302020302020302020302020302020302020302020302020302020300A2020312020322020312020302020202020200A2020322020332020312020302020202020200A2020332020342020312020302020202020200A2020342020352020312020302020202020200A2020312020362020322020302020202020200A2020312020372020312020302020202020200A2020382020392020312020302020202020200A2020392031302020322020302020202020200A2031302031312020312020302020202020200A2031312031322020322020302020202020200A2031322031332020312020302020202020200A2020382031332020322020302020202020200A2031352031362020312020302020202020200A2031352031372020312020302020202020200A2031352031382020312020302020202020200A2031342031352020312020302020202020200A2031312031342020312020302020202020200A2020342020382020312020302020202020200A2031392032302020312020302020202020200A2032302032312020322020302020202020200A2032312032322020312020302020202020200A2032322032332020322020302020202020200A2032332032342020312020302020202020200A2031392032342020322020302020202020200A2032362032372020312020302020202020200A2032362032382020312020302020202020200A2032362032392020312020302020202020200A2032352032362020312020302020202020200A2032322032352020312020302020202020200A2020342031392020312020302020202020200A2033302033312020312020302020202020200A2033302033322020312020302020202020200A2033302033332020312020302020202020200A2020372033302020312020302020202020200A4D2020454E44
Contributor: KOGA M, UNIV. OF OCCUPATIONAL AND ENVIRONMENTAL HEALTH
InstType: EI
InstName: JEOL JMS-01-SG
IoniMethod: _ENERGY 70 eV
IonPolarity: pos
Date: 2010-10-09 19:48:36+02:00
Num Peaks: 15
44 204 45 42 73 238 74 3 75 40 135 31 191 70 193 4 219 27 321 62 
357 999 358 40 359 191 369 31 487 50 
