Name: N-BUTANE
CAS: 106-97-8
MW: 58
Formula: C4H10
Synonym: MassBank: JP001572
Synonym: N-BUTANE
Structure: 310A31320A4E2D425554414E452E6D6F6C0A20204368656D447261773038313231303031353332440A2020342020332020302020302020302020302020302020302020302020303939392056323030300A2020202D312E3037313720202020302E3230363320202020302E303030302043202020302020302020302020302020302020302020302020302020302020302020302020300A2020202D302E333537322020202D302E3230363320202020302E303030302043202020302020302020302020302020302020302020302020302020302020302020302020300A20202020302E3335373220202020302E3230363320202020302E303030302043202020302020302020302020302020302020302020302020302020302020302020302020300A20202020312E303731372020202D302E3230363220202020302E303030302043202020302020302020302020302020302020302020302020302020302020302020302020300A2020312020322020312020302020202020200A2020322020332020312020302020202020200A2020332020342020312020302020202020200A4D2020454E44
Contributor: MASS SPECTROSCOPY SOC. OF JAPAN (MSSJ)
InstType: EI
InstName: HITACHI RMU-5B
IoniMethod: _ENERGY 80 eV
IonPolarity: pos
Date: 2010-10-09 19:48:36+02:00
Num Peaks: 20
14 10 15 62 26 74 27 374 28 304 29 395 37 17 38 28 39 174 40 25 
41 315 42 140 43 999 44 34 50 20 51 15 55 12 57 32 58 168 59 8 
