Name: MassBank: JP005346
MW: 292
Formula: C19H32O2
Synonym: MassBank: JP005346
Synonym: (Z,Z,Z)-6,12,15-OCTADECATRIENOIC ACID METHYL ESTER
Structure: 285A2C5A2C5A292D362C31322C31352D4F43544144454341545249454E4F49432041434944204D455448594C2045535445522E6D6F6C0A20204368656D447261773130323230393232313732440A2032372032362020302020302020302020302020302020302020302020303939392056323030300A2020202D342E3333313220202020302E3731343520202020302E303030302043202020302020302020302020302020302020302020302020302020302020302020302020300A2020202D332E393138382020202D302E3030303020202020302E303030302043202020302020302020302020302020302020302020302020302020302020302020302020300A2020202D332E303933382020202D302E3030303020202020302E303030302043202020302020302020302020302020302020302020302020302020302020302020302020300A2020202D322E363831322020202D302E3731343520202020302E303030302043202020302020302020302020302020302020302020302020302020302020302020302020300A2020202D312E383536332020202D302E3731343520202020302E303030302043202020302020302020302020302020302020302020302020302020302020302020302020300A2020202D312E343433382020202D312E3432383920202020302E303030302043202020302020302020302020302020302020302020302020302020302020302020302020300A2020202D302E363138382020202D312E3432383920202020302E303030302043202020302020302020302020302020302020302020302020302020302020302020302020300A2020202D302E323036322020202D302E3731343520202020302E303030302043202020302020302020302020302020302020302020302020302020302020302020302020300A20202020302E363138382020202D302E3731343520202020302E303030302043202020302020302020302020302020302020302020302020302020302020302020302020300A20202020312E303331332020202D302E3030303020202020302E303030302043202020302020302020302020302020302020302020302020302020302020302020302020300A20202020312E383536332020202D302E3030303020202020302E303030302043202020302020302020302020302020302020302020302020302020302020302020302020300A20202020322E323638372020202D302E3731343520202020302E303030302043202020302020302020302020302020302020302020302020302020302020302020302020300A20202020332E303933382020202D302E3731343520202020302E303030302043202020302020302020302020302020302020302020302020302020302020302020302020300A20202020332E3530363320202020302E3030303020202020302E303030302043202020302020302020302020302020302020302020302020302020302020302020302020300A20202020342E3333313220202020302E3030303020202020302E303030302043202020302020302020302020302020302020302020302020302020302020302020302020300A20202020342E373433382020202D302E3731343520202020302E303030302048202020302020302020302020302020302020302020302020302020302020302020302020300A2020202D332E3931383820202020312E3432383920202020302E30303030204F202020302020302020302020302020302020302020302020302020302020302020302020300A2020202D352E3135363320202020302E3731343520202020302E30303030204F202020302020302020302020302020302020302020302020302020302020302020302020300A2020202D352E353638372020202D302E3030303020202020302E303030302043202020302020302020302020302020302020302020302020302020302020302020302020300A20202020312E383536332020202D312E3432383920202020302E303030302048202020302020302020302020302020302020302020302020302020302020302020302020300A20202020332E353036332020202D312E3432383920202020302E303030302048202020302020302020302020302020302020302020302020302020302020302020302020300A20202020342E3734333820202020302E3731343520202020302E303030302043202020302020302020302020302020302020302020302020302020302020302020302020300A2020202D312E383536332020202D322E3134333420202020302E303030302048202020302020302020302020302020302020302020302020302020302020302020302020300A2020202D302E323036322020202D322E3134333420202020302E303030302048202020302020302020302020302020302020302020302020302020302020302020302020300A20202020352E3536383720202020302E3731343520202020302E303030302048202020302020302020302020302020302020302020302020302020302020302020302020300A20202020342E3333313220202020312E3432383920202020302E303030302043202020302020302020302020302020302020302020302020302020302020302020302020300A20202020342E3734333820202020322E3134333420202020302E303030302043202020302020302020302020302020302020302020302020302020302020302020302020300A2020312020322020312020302020202020200A2020322020332020312020302020202020200A2020332020342020312020302020202020200A2020342020352020312020302020202020200A2020352020362020312020302020202020200A2020362020372020322020302020202020200A2020372020382020312020302020202020200A2020382020392020312020302020202020200A2020392031302020312020302020202020200A2031302031312020312020302020202020200A2031312031322020312020302020202020200A2031322031332020322020302020202020200A2031332031342020312020302020202020200A2031342031352020312020302020202020200A2031352031362020312020302020202020200A2020312031372020322020302020202020200A2020312031382020312020302020202020200A2031382031392020312020302020202020200A2031322032302020312020302020202020200A2031332032312020312020302020202020200A2031352032322020322020302020202020200A2020362032332020312020302020202020200A2020372032342020312020302020202020200A2032322032352020312020302020202020200A2032322032362020312020302020202020200A2032362032372020312020302020202020200A4D2020454E44
Contributor: YAMAOKA R, KYOTO INSTITUTE OF TECHNOLOGY
InstType: EI
InstName: HITACHI M-80B
IoniMethod: _ENERGY 20 eV
IonPolarity: pos
Date: 2010-10-09 19:48:36+02:00
Num Peaks: 85
40 37 41 208 43 66 44 17 45 31 53 36 54 136 55 287 59 86 65 13 
66 40 67 999 68 329 69 228 70 47 71 40 73 40 74 136 75 13 77 12 
78 75 79 589 80 448 81 760 82 515 83 164 84 35 85 50 87 127 91 132 
93 378 94 482 95 662 96 318 97 113 101 25 105 61 106 93 107 393 108 197 
109 241 110 73 111 57 115 38 116 31 119 72 120 65 121 437 122 214 123 104 
124 31 129 46 130 17 131 32 133 81 134 55 135 244 136 198 137 64 139 12 
147 114 149 193 150 82 159 20 161 48 162 46 163 200 164 114 165 44 175 15 
177 191 178 124 189 15 191 65 195 33 203 11 206 13 207 15 210 71 221 40 
235 73 237 7 243 23 249 96 292 24 
