Name: EPOXYCHRYSANTHENONE
MW: 166
Formula: C10H14O2
Synonym: MassBank: JP006306
Synonym: EPOXYCHRYSANTHENONE
Synonym: CHRYSANTHENONE EPOXIDE
Structure: 45504F58594348525953414E5448454E4F4E452E6D6F6C0A20204368656D447261773039303731303131343632440A2031352031372020302020302020302020302020302020302020302020303939392056323030300A2020202D302E3731343520202020302E3637343020202020302E303030302043202020302020302020302020302020302020302020302020302020302020302020302020300A2020202D302E373134352020202D302E3135313020202020302E303030302043202020302020302020302020302020302020302020302020302020302020302020302020300A20202020302E303030302020202D302E3536333520202020302E303030302043202020302020302020302020302020302020302020302020302020302020302020302020300A20202020302E373134352020202D302E3135313020202020302E303030302043202020302020302020302020302020302020302020302020302020302020302020302020300A20202020302E3731343520202020302E3637343020202020302E303030302043202020302020302020302020302020302020302020302020302020302020302020302020300A20202020302E3030303020202020312E3038363520202020302E303030302043202020302020302020302020302020302020302020302020302020302020302020302020300A20202020312E3432383920202020302E3236313520202020302E30303030204F202020302020302020302020302020302020302020302020302020302020302020302020300A2020202D312E343238392020202D302E3536333520202020302E30303030204F202020302020302020302020302020302020302020302020302020302020302020302020300A20202020302E3030303020202020302E3236313520202020302E303030302043202020302020302020302020302020302020302020302020302020302020302020302020300A20202020302E3431323520202020302E3937363020202020302E303030302043202020302020302020302020302020302020302020302020302020302020302020302020300A2020202D302E3832353020202020302E3236313520202020302E303030302043202020302020302020302020302020302020302020302020302020302020302020302020300A20202020312E3132373020202020312E3338383520202020302E303030302048202020302020302020302020302020302020302020302020302020302020302020302020300A20202020312E313237302020202D302E3836353520202020302E303030302043202020302020302020302020302020302020302020302020302020302020302020302020300A2020202D312E3432383920202020312E3038363520202020302E303030302048202020302020302020302020302020302020302020302020302020302020302020302020300A20202020302E303030302020202D312E3338383520202020302E303030302048202020302020302020302020302020302020302020302020302020302020302020302020300A2020312020322020312020302020202020200A2020322020332020312020302020202020200A2020332020342020312020302020202020200A2020342020352020312020302020202020200A2020352020362020312020302020202020200A2020362020312020312020302020202020200A2020342020372020312020302020202020200A2020372020352020312020302020202020200A2020322020382020322020302020202020200A2020312020392020312020312020202020200A2020332020392020312020312020202020200A2020392031302020312020312020202020200A2020392031312020312020312020202020200A2020352031322020312020312020202020200A2020342031332020312020312020202020200A2020312031342020312020362020202020200A2020332031352020312020362020202020200A4D2020454E44
Contributor: EGUCHI S, FAC. OF SCIENCE, HIROSHIMA UNIV.
InstType: EI
InstName: HITACHI RMS-4
IoniMethod: _ENERGY 70 eV
IonPolarity: pos
Date: 2010-10-09 19:48:36+02:00
Num Peaks: 56
40 318 41 922 42 101 43 73 44 31 45 23 50 39 51 10 52 54 53 252 
54 70 55 36 56 35 57 23 67 527 68 16 69 930 70 109 71 23 77 12 
78 39 79 205 80 74 81 12 82 105 83 85 85 43 91 46 92 78 93 74 
94 39 95 17 96 54 97 66 98 698 99 66 105 155 106 35 107 999 108 11 
109 109 110 12 111 105 112 1 121 151 122 183 123 152 124 3 125 23 137 23 
138 12 139 4 151 58 165 47 166 81 167 12 
