Name: 4-CYANO-4-(2-CYANOETHYL)CYCLOHEXENE
MW: 160
Formula: C10H12N2
Synonym: MassBank: JP004191
Synonym: 4-CYANO-4-(2-CYANOETHYL)CYCLOHEXENE
Structure: 342D4359414E4F2D342D28322D4359414E4F455448594C294359434C4F484558454E452E6D6F6C0A20204368656D447261773033323531303131343032440A2031322031322020302020302020302020302020302020302020302020303939392056323030300A20202020322E313938332020202D302E3938313520202020302E303030302043202020302020302020302020302020302020302020302020302020302020302020302020300A20202020312E343833382020202D312E3339343020202020302E303030302043202020302020302020302020302020302020302020302020302020302020302020302020300A20202020302E373639342020202D302E3938313520202020302E303030302043202020302020302020302020302020302020302020302020302020302020302020302020300A20202020302E373639342020202D302E3135363520202020302E303030302043202020302020302020302020302020302020302020302020302020302020302020302020300A20202020312E3438333820202020302E3235363020202020302E303030302043202020302020302020302020302020302020302020302020302020302020302020302020300A20202020322E313938332020202D302E3135363520202020302E303030302043202020302020302020302020302020302020302020302020302020302020302020302020300A2020202D302E303433312020202D302E3239393820202020302E303030302043202020302020302020302020302020302020302020302020302020302020302020302020300A2020202D302E3537333420202020302E3333323220202020302E303030302043202020302020302020302020302020302020302020302020302020302020302020302020300A2020202D312E3338353920202020302E3138393020202020302E303030302043202020302020302020302020302020302020302020302020302020302020302020302020300A2020202D322E3139383320202020302E3034353720202020302E30303030204E202020302020302020302020302020302020302020302020302020302020302020302020300A20202020302E3438373220202020302E3631383820202020302E303030302043202020302020302020302020302020302020302020302020302020302020302020302020300A20202020302E3230353020202020312E3339343020202020302E30303030204E202020302020302020302020302020302020302020302020302020302020302020302020300A2020312020322020322020302020202020200A2020322020332020312020302020202020200A2020332020342020312020302020202020200A2020342020352020312020302020202020200A2020352020362020312020302020202020200A2020312020362020312020302020202020200A2020372020382020312020302020202020200A2020392031302020332020302020202020200A2020382020392020312020302020202020200A2020342020372020312020302020202020200A2031312031322020332020302020202020200A2020342031312020312020302020202020200A4D2020454E44
Contributor: MASS SPECTROSCOPY SOC. OF JAPAN (MSSJ)
InstType: EI
InstName: HITACHI RMU-6E
IoniMethod: _ENERGY 70 eV
IonPolarity: pos
Date: 2010-10-09 19:48:36+02:00
Num Peaks: 76
25 1 26 23 27 462 28 20 29 15 30 8 31 1 32 0 37 7 38 19 
39 600 40 3 41 348 42 18 43 2 49 0 50 20 51 156 52 132 53 18 
54 999 55 132 56 16 57 1 61 1 62 4 63 13 64 1 65 108 66 21 
67 13 68 0 69 1 74 2 75 4 76 1 77 162 78 22 79 270 80 3 
81 6 82 1 88 1 89 0 90 4 91 30 92 156 93 25 94 11 95 1 
102 3 103 0 104 15 105 9 106 96 107 2 108 2 115 1 116 12 117 1 
118 6 119 6 120 228 121 1 130 1 131 2 132 162 133 3 134 4 143 1 
144 1 145 0 146 1 159 5 160 26 161 6 
