Name: N-ACETYLGLUTAMIC ACID DIETHYL ESTER
MW: 245
Formula: C11H19NO5
Synonym: MassBank: JP007625
Synonym: N-ACETYLGLUTAMIC ACID DIETHYL ESTER
Structure: 313031395F4E2D41434554594C474C5554414D49432041434944204449455448594C2045535445522E6D6F6C0A20204368656D447261773039303631303231353832440A2031382031372020302020302020302020302020302020302020302020303939392056323030300A20202020312E3434333720202020302E3030303020202020302E303030302043202020302020302020302020302020302020302020302020302020302020302020302020300A20202020312E343433382020202D312E3432383920202020302E30303030204E202020302020302020302020302020302020302020302020302020302020302020302020300A20202020312E303331322020202D302E3731343520202020302E303030302043202020302020302020302020302020302020302020302020302020302020302020302020300A20202020302E323036322020202D302E3731343520202020302E303030302043202020302020302020302020302020302020302020302020302020302020302020302020300A2020202D302E3230363320202020302E3030303020202020302E303030302043202020302020302020302020302020302020302020302020302020302020302020302020300A2020202D312E3033313320202020302E3030303020202020302E303030302043202020302020302020302020302020302020302020302020302020302020302020302020300A2020202D312E3434333820202020302E3731343520202020302E30303030204F202020302020302020302020302020302020302020302020302020302020302020302020300A2020202D312E343433382020202D302E3731343520202020302E30303030204F202020302020302020302020302020302020302020302020302020302020302020302020300A20202020322E3236383720202020302E3030303020202020302E30303030204F202020302020302020302020302020302020302020302020302020302020302020302020300A20202020312E3033313220202020302E3731343520202020302E30303030204F202020302020302020302020302020302020302020302020302020302020302020302020300A20202020322E323638372020202D312E3432383920202020302E303030302043202020302020302020302020302020302020302020302020302020302020302020302020300A20202020322E363831332020202D302E3731343520202020302E30303030204F202020302020302020302020302020302020302020302020302020302020302020302020300A20202020322E363831332020202D322E3134333420202020302E303030302043202020302020302020302020302020302020302020302020302020302020302020302020300A2020202D322E323638382020202D302E3731343520202020302E303030302043202020302020302020302020302020302020302020302020302020302020302020302020300A2020202D322E363831332020202D312E3432383920202020302E303030302043202020302020302020302020302020302020302020302020302020302020302020302020300A20202020312E3434333720202020312E3432383920202020302E303030302043202020302020302020302020302020302020302020302020302020302020302020302020300A20202020312E3033313220202020322E3134333420202020302E303030302043202020302020302020302020302020302020302020302020302020302020302020302020300A20202020302E363138372020202D302E3030303020202020302E303030302048202020302020302020302020302020302020302020302020302020302020302020302020300A2020332020322020312020312020202020200A2020312020332020312020302020202020200A2020332020342020312020302020202020200A2020342020352020312020302020202020200A2020352020362020312020302020202020200A2020362020372020322020302020202020200A2020362020382020312020302020202020200A2020312020392020322020302020202020200A2020312031302020312020302020202020200A2031312031322020322020302020202020200A2031312031332020312020302020202020200A2020322031312020312020302020202020200A2031342031352020312020302020202020200A2020382031342020312020302020202020200A2031362031372020312020302020202020200A2031302031362020312020302020202020200A2020332031382020312020312020202020200A4D2020454E44
Contributor: YAMAMOTO M, DEP. CHEMISTRY, FAC. SCIENCE, NARA WOMEN'S UNIV.
InstType: EI
InstName: HITACHI RMU-6M
IoniMethod: _ENERGY 15 eV
IonPolarity: pos
Date: 2010-10-09 19:48:36+02:00
Num Peaks: 28
31 30 43 27 45 22 56 2 84 699 85 32 98 10 102 3 111 13 112 267 
113 14 126 41 127 29 128 11 130 525 131 3 145 16 153 32 154 21 157 1 
158 230 159 13 172 999 173 8 199 115 200 106 202 58 245 24 
