Name: 3-(3-OXOBUTYL)CYCLOHEX-2-EN-1-ONE
MW: 166
Formula: C10H14O2
Synonym: MassBank: JP004379
Synonym: 3-(3-OXOBUTYL)CYCLOHEX-2-EN-1-ONE
Synonym: 3-(3-OXOBUTYL)-2-CYCLOHEXENONE
Structure: 332D28332D4F584F425554594C294359434C4F4845582D322D454E2D312D4F4E452E6D6F6C0A20204368656D447261773032323231303130303632440A2031322031322020302020302020302020302020302020302020302020303939392056323030300A20202020302E303030302020202D312E3738363220202020302E303030302043202020302020302020302020302020302020302020302020302020302020302020302020300A20202020302E343132352020202D312E3037313720202020302E303030302043202020302020302020302020302020302020302020302020302020302020302020302020300A20202020302E303030302020202D302E3335373220202020302E303030302043202020302020302020302020302020302020302020302020302020302020302020302020300A2020202D302E383235302020202D302E3335373220202020302E303030302043202020302020302020302020302020302020302020302020302020302020302020302020300A2020202D312E323337352020202D312E3037313720202020302E303030302043202020302020302020302020302020302020302020302020302020302020302020302020300A2020202D302E383235302020202D312E3738363220202020302E303030302043202020302020302020302020302020302020302020302020302020302020302020302020300A20202020302E343132352020202D322E3530303620202020302E30303030204F202020302020302020302020302020302020302020302020302020302020302020302020300A20202020302E3431323520202020302E3335373220202020302E303030302043202020302020302020302020302020302020302020302020302020302020302020302020300A20202020302E3030303020202020312E3037313720202020302E303030302043202020302020302020302020302020302020302020302020302020302020302020302020300A20202020302E3431323520202020312E3738363220202020302E303030302043202020302020302020302020302020302020302020302020302020302020302020302020300A20202020302E3030303020202020322E3530303620202020302E303030302043202020302020302020302020302020302020302020302020302020302020302020302020300A20202020312E3233373520202020312E3738363220202020302E30303030204F202020302020302020302020302020302020302020302020302020302020302020302020300A2020312020322020312020302020202020200A2020322020332020322020302020202020200A2020332020342020312020302020202020200A2020342020352020312020302020202020200A2020352020362020312020302020202020200A2020312020362020312020302020202020200A2020312020372020322020302020202020200A2020382020392020312020302020202020200A2020392031302020312020302020202020200A2031302031312020312020302020202020200A2031302031322020322020302020202020200A2020332020382020312020302020202020200A4D2020454E44
Contributor: HAGIWARA H, CHEM. RES. INST. OF NON-AQUEOUS SOLUTIONS, TOHOKU UNIV.
InstType: EI
InstName: JEOL JMS-DX-300
IoniMethod: _ENERGY 70 eV
IonPolarity: pos
Date: 2010-10-09 19:48:36+02:00
Num Peaks: 27
14 57 15 115 17 368 18 266 27 191 32 59 39 312 41 256 42 51 43 999 
51 62 53 11 55 125 65 75 66 63 67 218 77 70 79 102 81 78 95 478 
96 60 108 255 109 67 110 86 123 488 124 89 106 177 
