Name: COPPER DI(3-NITROACETYLACETONATE)
MW: 350
Formula: C10H12CuN2O8
Synonym: MassBank: JP000338
Synonym: COPPER DI(3-NITROACETYLACETONATE)
Structure: 434F5050455220444928332D4E4954524F41434554594C414345544F4E415445292E6D6F6C0A20204368656D447261773039313531303034333532440A2032312032302020302020302020302020302020302020302020302020303939392056323030300A2020202D312E303731372020202D312E3835363320202020302E303030302043202020302020302020302020302020302020302020302020302020302020302020302020300A2020202D312E303731372020202D322E3638313220202020302E30303030204E202020302020332020302020302020302020302020302020302020302020302020302020300A2020202D312E373836322020202D312E3434333820202020302E303030302043202020302020302020302020302020302020302020302020302020302020302020302020300A2020202D302E333537322020202D312E3434333820202020302E303030302043202020302020302020302020302020302020302020302020302020302020302020302020300A20202020302E333537322020202D312E3835363320202020302E303030302043202020302020302020302020302020302020302020302020302020302020302020302020300A2020202D302E333537322020202D302E3631383820202020302E30303030204F202020302020302020302020302020302020302020302020302020302020302020302020300A2020202D322E353030362020202D312E3835363320202020302E303030302043202020302020302020302020302020302020302020302020302020302020302020302020300A2020202D312E373836322020202D302E3631383820202020302E30303030204F202020302020302020302020302020302020302020302020302020302020302020302020300A2020202D302E333537322020202D332E3039333820202020302E30303030204F202020302020302020302020302020302020302020302020302020302020302020302020300A2020202D312E373836322020202D332E3039333820202020302E30303030204F202020302020352020302020302020302020302020302020302020302020302020302020300A20202020302E333537322020202D302E3230363220202020302E303030302043752020302020302020302020302020302020302020302020302020302020302020302020300A20202020302E3335373220202020302E3631383820202020302E30303030204F202020302020302020302020302020302020302020302020302020302020302020302020300A20202020312E3037313720202020312E3033313320202020302E303030302043202020302020302020302020302020302020302020302020302020302020302020302020300A20202020312E3037313720202020312E3835363320202020302E303030302043202020302020302020302020302020302020302020302020302020302020302020302020300A20202020312E3738363220202020302E3631383820202020302E303030302043202020302020302020302020302020302020302020302020302020302020302020302020300A20202020302E3335373220202020322E3236383720202020302E303030302043202020302020302020302020302020302020302020302020302020302020302020302020300A20202020312E3738363220202020322E3236383720202020302E30303030204E202020302020332020302020302020302020302020302020302020302020302020302020300A2020202D302E3335373220202020312E3835363320202020302E303030302043202020302020302020302020302020302020302020302020302020302020302020302020300A20202020302E3335373220202020332E3039333820202020302E30303030204F202020302020302020302020302020302020302020302020302020302020302020302020300A20202020312E3738363220202020332E3039333820202020302E30303030204F202020302020352020302020302020302020302020302020302020302020302020302020300A20202020322E3530303620202020312E3835363320202020302E30303030204F202020302020302020302020302020302020302020302020302020302020302020302020300A2020312020322020312020302020202020200A2020312020332020312020302020202020200A2020312020342020322020302020202020200A2020342020352020312020302020202020200A2020342020362020312020302020202020200A2020332020372020312020302020202020200A2020332020382020322020302020202020200A2020322020392020322020302020202020200A2020322031302020312020302020202020200A2020362031312020312020302020202020200A2031312031322020312020302020202020200A2031322031332020312020302020202020200A2031332031342020322020302020202020200A2031332031352020312020302020202020200A2031342031362020312020302020202020200A2031342031372020312020302020202020200A2031362031382020312020302020202020200A2031362031392020322020302020202020200A2031372032302020312020302020202020200A2031372032312020322020302020202020200A4D202043484720203420202032202020312020313020202D3120203137202020312020323020202D310A4D2020454E44
Contributor: SASAKI S, TOYOHASHI UNIV. OF TECH.
InstType: EI
InstName: HITACHI RMU-6D
IoniMethod: _ENERGY 70 eV
IonPolarity: pos
Date: 2010-10-09 19:48:36+02:00
Num Peaks: 71
12 5 13 6 14 34 15 10 16 8 17 30 18 124 24 0 25 6 26 20 
27 42 28 15 29 38 30 78 31 16 32 0 37 4 38 15 39 34 40 2 
41 36 42 100 43 999 44 2 45 78 46 2 49 1 50 1 51 14 52 11 
53 6 54 5 55 16 56 2 57 5 58 1 59 2 60 58 61 3 63 0 
67 7 68 4 69 62 70 1 71 8 72 16 73 2 74 0 76 2 77 8 
78 42 79 0 81 1 82 2 83 3 84 0 85 142 86 14 87 4 88 0 
100 100 102 4 104 4 105 0 127 15 128 11 129 4 130 0 134 1 142 5 
145 8 
