Name: MassBank: JP001376
MW: 262
Formula: C17H30Si
Synonym: MassBank: JP001376
Synonym: (3,5-DI-TERT-BUTYLPHENYL)TRIMETHYLSILANE
Structure: 28332C352D44492D544552542D425554594C5048454E594C295452494D455448594C53494C414E452E6D6F6C0A20204368656D447261773130323030393233303232440A2031382031382020302020302020302020302020302020302020302020303939392056323030300A2020202D302E373134352020202D302E3035353320202020302E303030302043202020302020302020302020302020302020302020302020302020302020302020302020300A2020202D302E373134352020202D302E3838303320202020302E303030302043202020302020302020302020302020302020302020302020302020302020302020302020300A2020202D302E303030302020202D312E3239323820202020302E303030302043202020302020302020302020302020302020302020302020302020302020302020302020300A20202020302E373134352020202D302E3838303320202020302E303030302043202020302020302020302020302020302020302020302020302020302020302020302020300A20202020302E373134352020202D302E3035353320202020302E303030302043202020302020302020302020302020302020302020302020302020302020302020302020300A2020202D302E3030303020202020302E3335373220202020302E303030302043202020302020302020302020302020302020302020302020302020302020302020302020300A2020202D302E3030303020202020312E3138323220202020302E303030302053692020302020302020302020302020302020302020302020302020302020302020302020300A2020202D312E343238392020202D312E3239323820202020302E303030302043202020302020302020302020302020302020302020302020302020302020302020302020300A20202020312E343238392020202D312E3239323820202020302E303030302043202020302020302020302020302020302020302020302020302020302020302020302020300A2020202D302E3030303020202020322E3030373220202020302E303030302043202020302020302020302020302020302020302020302020302020302020302020302020300A20202020302E3832353020202020312E3138323220202020302E303030302043202020302020302020302020302020302020302020302020302020302020302020302020300A2020202D302E3832353020202020312E3138323220202020302E303030302043202020302020302020302020302020302020302020302020302020302020302020302020300A2020202D322E313433342020202D312E3730353320202020302E303030302043202020302020302020302020302020302020302020302020302020302020302020302020300A2020202D312E383431342020202D302E3537383320202020302E303030302043202020302020302020302020302020302020302020302020302020302020302020302020300A2020202D312E303136342020202D322E3030373220202020302E303030302043202020302020302020302020302020302020302020302020302020302020302020302020300A20202020322E313433342020202D312E3730353320202020302E303030302043202020302020302020302020302020302020302020302020302020302020302020302020300A20202020312E383431342020202D302E3537383320202020302E303030302043202020302020302020302020302020302020302020302020302020302020302020302020300A20202020312E303136342020202D322E3030373220202020302E303030302043202020302020302020302020302020302020302020302020302020302020302020302020300A2020312020322020322020302020202020200A2020322020332020312020302020202020200A2020332020342020322020302020202020200A2020342020352020312020302020202020200A2020352020362020322020302020202020200A2020362020312020312020302020202020200A2020362020372020312020302020202020200A2020322020382020312020302020202020200A2020342020392020312020302020202020200A2020372031302020312020302020202020200A2020372031312020312020302020202020200A2020372031322020312020302020202020200A2020382031332020312020302020202020200A2020382031342020312020302020202020200A2020382031352020312020302020202020200A2020392031362020312020302020202020200A2020392031372020312020302020202020200A2020392031382020312020302020202020200A4D2020454E44
Contributor: MASS SPECTROSCOPY SOC. OF JAPAN (MSSJ)
InstType: EI
InstName: JEOL JMS-D-3000
IoniMethod: _ENERGY 70 eV
IonPolarity: pos
Date: 2010-10-09 19:48:36+02:00
Num Peaks: 18
45 23 57 86 59 36 73 253 74 21 75 12 102 55 116 46 117 11 175 26 
215 12 231 42 232 15 247 999 248 239 249 63 262 119 263 31 
