Name: MassBank: JP005527
MW: 156
Formula: C7H12N2O2
Synonym: MassBank: JP005527
Synonym: 3-ISOPROPYL-2,5-PIPERAZINEDIONE
Synonym: CYCLOGLYCYLVALINE
Structure: 332D49534F50524F50594C2D322C352D5049504552415A494E4544494F4E452E6D6F6C0A20204368656D447261773039313531303035333032440A2031312031312020302020302020302020302020302020302020302020303939392056323030300A20202020312E3033313220202020302E3731343520202020302E30303030204E202020302020302020302020302020302020302020302020302020302020302020302020300A20202020302E3230363220202020302E3731343520202020302E303030302043202020302020302020302020302020302020302020302020302020302020302020302020300A2020202D302E323036332020202D302E3030303020202020302E303030302043202020302020302020302020302020302020302020302020302020302020302020302020300A20202020302E323036322020202D302E3731343520202020302E30303030204E202020302020302020302020302020302020302020302020302020302020302020302020300A20202020312E303331322020202D302E3731343520202020302E303030302043202020302020302020302020302020302020302020302020302020302020302020302020300A20202020312E3434333820202020302E3030303020202020302E303030302043202020302020302020302020302020302020302020302020302020302020302020302020300A2020202D302E3230363320202020312E3432383920202020302E30303030204F202020302020302020302020302020302020302020302020302020302020302020302020300A20202020312E343433372020202D312E3432383920202020302E30303030204F202020302020302020302020302020302020302020302020302020302020302020302020300A2020202D312E303331332020202D302E3030303020202020302E303030302043202020302020302020302020302020302020302020302020302020302020302020302020300A2020202D312E3434333820202020302E3731343520202020302E303030302043202020302020302020302020302020302020302020302020302020302020302020302020300A2020202D312E343433382020202D302E3731343520202020302E303030302043202020302020302020302020302020302020302020302020302020302020302020302020300A2020312020322020312020302020202020200A2020322020332020312020302020202020200A2020332020342020312020302020202020200A2020342020352020312020302020202020200A2020352020362020312020302020202020200A2020312020362020312020302020202020200A2020322020372020322020302020202020200A2020352020382020322020302020202020200A2020392031302020312020302020202020200A2020392031312020312020302020202020200A2020332020392020312020302020202020200A4D2020454E44
Contributor: YAMAMOTO M, DEP. CHEMISTRY, FAC. SCIENCE, NARA WOMEN'S UNIV.
InstType: EI
InstName: HITACHI RMU-6M
IoniMethod: _ENERGY 20 eV
IonPolarity: pos
Date: 2010-10-09 19:48:36+02:00
Num Peaks: 24
28 26 29 13 30 304 31 1 42 24 43 32 44 50 55 3 56 41 57 156 
58 20 59 1 69 27 70 105 71 18 72 4 83 11 85 146 86 65 113 11 
114 999 115 52 141 12 156 7 
