Name: MassBank: JP005837
MW: 215
Formula: C3H6Br2O
Synonym: MassBank: JP005837
Synonym: 2,3-DIBROMO-1-PROPANOL
Synonym: GLYCEROL ALPHA,BATA-DIBROMOHYDRIN
Structure: 310A31360A322C332D444942524F4D4F2D312D50524F50414E4F4C2E6D6F6C0A20204368656D447261773132323030393131313932440A2020362020352020302020302020302020302020302020302020302020303939392056323030300A20202020302E343132352020202D302E3731343520202020302E303030302043202020302020302020302020302020302020302020302020302020302020302020302020300A20202020302E3030303020202020302E3030303020202020302E303030302043202020302020302020302020302020302020302020302020302020302020302020302020300A2020202D302E3832353020202020302E3030303020202020302E303030302043202020302020302020302020302020302020302020302020302020302020302020302020300A20202020312E323337352020202D302E3731343520202020302E30303030204F202020302020302020302020302020302020302020302020302020302020302020302020300A2020202D312E323337352020202D302E3731343520202020302E303030302042722020302020302020302020302020302020302020302020302020302020302020302020300A20202020302E3431323520202020302E3731343520202020302E303030302042722020302020302020302020302020302020302020302020302020302020302020302020300A2020312020322020312020302020202020200A2020322020332020312020302020202020200A2020312020342020312020302020202020200A2020332020352020312020302020202020200A2020322020362020312020302020202020200A4D2020454E44
Contributor: HASHIMOTO K, KYOTO COLLEGE OF PHARMACY
InstType: EI
InstName: HITACHI M-80
IoniMethod: _ENERGY 20 eV
IonPolarity: pos
Date: 2010-10-09 19:48:36+02:00
Num Peaks: 33
39 30 43 20 57 97 58 25 81 14 93 21 95 31 105 25 106 775 107 182 
108 998 109 190 110 220 111 24 119 51 121 48 135 14 136 872 137 999 138 842 
139 963 140 41 186 18 187 18 188 29 189 11 190 14 198 10 200 13 201 10 
216 11 218 19 220 10 
