Name: MassBank: JP009957
MW: 302
Formula: C20H30O2
Synonym: MassBank: JP009957
Synonym: 1,3-DIMETHYL-3-PHENYLOCTYL METHACRYLATE
Structure: 312C332D44494D455448594C2D332D5048454E594C4F4354594C204D455448414352594C4154452E6D6F6C0A20204368656D447261773131313230393131343732440A2032322032322020302020302020302020302020302020302020302020303939392056323030300A20202020322E3034373720202020312E3539343720202020302E303030302043202020302020302020302020302020302020302020302020302020302020302020302020300A20202020322E3837323720202020312E3539343720202020302E303030302043202020302020302020302020302020302020302020302020302020302020302020302020300A20202020332E3238353220202020322E3330393220202020302E303030302043202020302020302020302020302020302020302020302020302020302020302020302020300A20202020332E3238353220202020302E3838303320202020302E303030302043202020302020302020302020302020302020302020302020302020302020302020302020300A20202020312E3633353220202020322E3330393220202020302E30303030204F202020302020302020302020302020302020302020302020302020302020302020302020300A20202020312E3633353220202020302E3838303320202020302E30303030204F202020302020302020302020302020302020302020302020302020302020302020302020300A20202020302E3831303220202020302E3838303320202020302E303030302043202020302020302020302020302020302020302020302020302020302020302020302020300A20202020302E3339373720202020302E3136353820202020302E303030302043202020302020302020302020302020302020302020302020302020302020302020302020300A2020202D302E3432373320202020302E3136353820202020302E303030302043202020302020302020302020302020302020302020302020302020302020302020302020300A2020202D302E3432373320202020302E3939303820202020302E303030302043202020302020302020302020302020302020302020302020302020302020302020302020300A2020202D312E3134313820202020312E3430333320202020302E303030302043202020302020302020302020302020302020302020302020302020302020302020302020300A2020202D312E3835363320202020302E3939303820202020302E303030302043202020302020302020302020302020302020302020302020302020302020302020302020300A2020202D322E3537303720202020312E3430333320202020302E303030302043202020302020302020302020302020302020302020302020302020302020302020302020300A2020202D332E3238353220202020302E3939303820202020302E303030302043202020302020302020302020302020302020302020302020302020302020302020302020300A2020202D302E343237332020202D302E3635393220202020302E303030302043202020302020302020302020302020302020302020302020302020302020302020302020300A2020202D312E313431382020202D312E3037313720202020302E303030302043202020302020302020302020302020302020302020302020302020302020302020302020300A2020202D312E313431382020202D312E3839363720202020302E303030302043202020302020302020302020302020302020302020302020302020302020302020302020300A2020202D302E343237332020202D322E3330393220202020302E303030302043202020302020302020302020302020302020302020302020302020302020302020302020300A20202020302E323837322020202D312E3839363720202020302E303030302043202020302020302020302020302020302020302020302020302020302020302020302020300A20202020302E323837322020202D312E3037313720202020302E303030302043202020302020302020302020302020302020302020302020302020302020302020302020300A2020202D312E3235323320202020302E3136353820202020302E303030302043202020302020302020302020302020302020302020302020302020302020302020302020300A20202020302E3339373720202020312E3539343720202020302E303030302043202020302020302020302020302020302020302020302020302020302020302020302020300A2020312020322020312020302020202020200A2020322020332020312020302020202020200A2020322020342020322020302020202020200A2020312020352020322020302020202020200A2020312020362020312020302020202020200A2020372020382020312020302020202020200A2020382020392020312020302020202020200A2020392031302020312020302020202020200A2031302031312020312020302020202020200A2031312031322020312020302020202020200A2031322031332020312020302020202020200A2031332031342020312020302020202020200A2031352031362020312020302020202020200A2031362031372020322020302020202020200A2031372031382020312020302020202020200A2031382031392020322020302020202020200A2031392032302020312020302020202020200A2031352032302020322020302020202020200A2020392031352020312020302020202020200A2020392032312020312020302020202020200A2020372032322020312020302020202020200A2020362020372020312020302020202020200A4D2020454E44
Contributor: KURARAY CO., LTD.
InstType: EI
InstName: JEOL JMS-D-300
IoniMethod: _ENERGY 70 eV
IonPolarity: pos
Date: 2010-10-09 19:48:36+02:00
Num Peaks: 54
27 7 28 63 29 28 39 2 41 133 42 10 43 39 55 3 57 7 67 7 
69 168 70 1 71 7 73 5 77 19 78 2 79 14 91 324 92 26 97 1 
103 39 104 7 105 481 106 4 115 25 116 10 117 97 118 12 119 120 120 9 
127 6 128 1 129 25 130 14 131 38 132 1 133 39 143 12 144 6 145 999 
146 212 147 25 159 120 160 3 174 17 175 313 176 45 188 1 189 8 221 12 
231 113 232 2 245 38 246 7 
