Name: STYRENE OXIDE
MW: 120
Formula: C8H8O
Synonym: MassBank: JP008413
Synonym: STYRENE OXIDE
Structure: 310A32340A53545952454E45204F584944452E6D6F6C0A20204368656D447261773038313231303036353532440A2020392031302020302020302020302020302020302020302020302020303939392056323030300A2020202D312E3539343720202020302E3431323520202020302E303030302043202020302020302020302020302020302020302020302020302020302020302020302020300A2020202D302E383830332020202D302E3030303020202020302E303030302043202020302020302020302020302020302020302020302020302020302020302020302020300A2020202D302E303535332020202D302E3030303020202020302E303030302043202020302020302020302020302020302020302020302020302020302020302020302020300A20202020302E3335373220202020302E3731343520202020302E303030302043202020302020302020302020302020302020302020302020302020302020302020302020300A20202020312E3138323220202020302E3731343520202020302E303030302043202020302020302020302020302020302020302020302020302020302020302020302020300A20202020312E353934372020202D302E3030303020202020302E303030302043202020302020302020302020302020302020302020302020302020302020302020302020300A20202020312E313832322020202D302E3731343520202020302E303030302043202020302020302020302020302020302020302020302020302020302020302020302020300A20202020302E333537322020202D302E3731343520202020302E303030302043202020302020302020302020302020302020302020302020302020302020302020302020300A2020202D312E353934372020202D302E3431323520202020302E30303030204F202020302020302020302020302020302020302020302020302020302020302020302020300A2020312020322020312020302020202020200A2020322020332020312020302020202020200A2020332020342020312020302020202020200A2020342020352020322020302020202020200A2020352020362020312020302020202020200A2020362020372020322020302020202020200A2020372020382020312020302020202020200A2020332020382020322020302020202020200A2020312020392020312020302020202020200A2020322020392020312020302020202020200A4D2020454E44
Contributor: SODA AROMATIC CO., LTD.
InstType: EI
InstName: HITACHI M-80B
IoniMethod: _ENERGY 70 eV
IonPolarity: pos
Date: 2010-10-09 19:48:36+02:00
Num Peaks: 34
18 25 27 15 28 13 29 29 38 22 39 86 41 14 44 12 50 43 51 71 
52 18 61 15 62 28 63 71 64 24 65 133 66 13 74 16 75 12 76 11 
77 39 78 17 89 78 90 60 91 999 92 249 93 16 103 21 104 22 105 27 
106 21 119 31 120 216 121 21 
