Name: NORBORNANE
MW: 96
Formula: C7H12
Synonym: MassBank: JP002604
Synonym: NORBORNANE
Synonym: BICYCLO(2.2.1)HEPTANE
Structure: 310A32300A4E4F52424F524E414E452E6D6F6C0A20204368656D447261773039303531303139303032440A2020372020382020302020302020302020302020302020302020302020303939392056323030300A2020202D302E3731343520202020302E3431323520202020302E303030302043202020302020302020302020302020302020302020302020302020302020302020302020300A2020202D302E373134352020202D302E3431323520202020302E303030302043202020302020302020302020302020302020302020302020302020302020302020302020300A20202020302E303030302020202D302E3832353020202020302E303030302043202020302020302020302020302020302020302020302020302020302020302020302020300A20202020302E373134352020202D302E3431323520202020302E303030302043202020302020302020302020302020302020302020302020302020302020302020302020300A20202020302E3731343520202020302E3431323520202020302E303030302043202020302020302020302020302020302020302020302020302020302020302020302020300A20202020302E3030303020202020302E3832353020202020302E303030302043202020302020302020302020302020302020302020302020302020302020302020302020300A20202020302E3038323420202020302E3139393020202020302E303030302043202020302020302020302020302020302020302020302020302020302020302020302020300A2020312020322020312020302020202020200A2020322020332020312020302020202020200A2020332020342020312020302020202020200A2020342020352020312020302020202020200A2020352020362020312020302020202020200A2020362020312020312020302020202020200A2020312020372020312020302020202020200A2020372020342020312020302020202020200A4D2020454E44
Contributor: YAMAMOTO M, DEP. CHEMISTRY, FAC. SCIENCE, NARA WOMEN'S UNIV.
InstType: EI
InstName: HITACHI RMU-6M
IoniMethod: _ENERGY 70 eV
IonPolarity: pos
Date: 2010-10-09 19:48:36+02:00
Num Peaks: 38
15 58 26 27 27 199 28 41 29 128 30 19 31 261 32 120 38 29 39 318 
40 71 41 244 42 40 43 19 45 64 46 28 50 22 51 39 52 21 53 147 
54 477 55 292 56 19 63 16 65 47 66 132 67 999 68 794 69 47 77 32 
79 39 80 13 81 721 82 53 91 16 95 53 96 334 97 31 
