Name: VANILLIN
MW: 152
Formula: C8H8O3
Synonym: MassBank: JP009387
Synonym: VANILLIN
Synonym: 4-HYDROXY-3-METHOXYBENZALDEHYDE
Structure: 56414E494C4C494E2E6D6F6C0A20204368656D447261773034313231303136343132440A2031312031312020302020302020302020302020302020302020302020303939392056323030300A20202020312E343238392020202D302E3832353020202020302E30303030204F202020302020302020302020302020302020302020302020302020302020302020302020300A2020202D322E3134333420202020302E3431323520202020302E30303030204F202020302020302020302020302020302020302020302020302020302020302020302020300A2020202D312E3432383920202020302E3832353020202020302E303030302043202020302020302020302020302020302020302020302020302020302020302020302020300A2020202D302E3731343520202020302E3431323520202020302E303030302043202020302020302020302020302020302020302020302020302020302020302020302020300A20202020302E3030303020202020302E3832353020202020302E303030302043202020302020302020302020302020302020302020302020302020302020302020302020300A20202020302E3731343520202020302E3431323520202020302E303030302043202020302020302020302020302020302020302020302020302020302020302020302020300A20202020312E3432383920202020302E3832353020202020302E30303030204F202020302020302020302020302020302020302020302020302020302020302020302020300A20202020322E3134333420202020302E3431323520202020302E303030302043202020302020302020302020302020302020302020302020302020302020302020302020300A20202020302E373134352020202D302E3431323520202020302E303030302043202020302020302020302020302020302020302020302020302020302020302020302020300A2020202D302E303030302020202D302E3832353020202020302E303030302043202020302020302020302020302020302020302020302020302020302020302020302020300A2020202D302E373134352020202D302E3431323520202020302E303030302043202020302020302020302020302020302020302020302020302020302020302020302020300A2020322020332020322020302020202020200A2020332020342020312020302020202020200A2020342020352020312020302020202020200A2020352020362020322020302020202020200A2020362020372020312020302020202020200A2020372020382020312020302020202020200A2020362020392020312020302020202020200A2020312020392020312020302020202020200A2020392031302020322020302020202020200A2031302031312020312020302020202020200A2020342031312020322020302020202020200A4D2020454E44
Contributor: GUNMA COLLEGE OF TECHNOLOGY
InstType: EI
InstName: HITACHI M-80A
IoniMethod: _ENERGY 70 eV
IonPolarity: pos
Date: 2010-10-09 19:48:36+02:00
Num Peaks: 46
15 116 26 35 27 120 29 196 31 24 37 35 38 65 39 133 41 43 49 22 
50 124 51 213 52 214 53 143 54 17 55 59 61 27 62 60 63 102 64 25 
65 113 66 21 67 39 74 16 75 12 77 58 79 75 80 58 81 392 82 22 
91 15 92 20 93 24 95 30 108 80 109 232 110 16 121 10 123 129 124 22 
136 19 137 64 151 872 152 999 153 97 154 10 
