Name: 1-PENTENE
MW: 70
Formula: C5H10
Synonym: MassBank: JP000320
Synonym: 1-PENTENE
Structure: 310A31340A312D50454E54454E452E6D6F6C0A20204368656D447261773131323230393232303232440A2020352020342020302020302020302020302020302020302020302020303939392056323030300A2020202D312E343238392020202D302E3230363320202020302E303030302043202020302020302020302020302020302020302020302020302020302020302020302020300A2020202D302E3731343520202020302E3230363320202020302E303030302043202020302020302020302020302020302020302020302020302020302020302020302020300A20202020302E303030302020202D302E3230363320202020302E303030302043202020302020302020302020302020302020302020302020302020302020302020302020300A20202020302E3731343520202020302E3230363320202020302E303030302043202020302020302020302020302020302020302020302020302020302020302020302020300A20202020312E343238392020202D302E3230363220202020302E303030302043202020302020302020302020302020302020302020302020302020302020302020302020300A2020312020322020322020302020202020200A2020322020332020312020302020202020200A2020332020342020312020302020202020200A2020342020352020312020302020202020200A4D2020454E44
Contributor: YAMAMOTO M, DEP. CHEMISTRY, FAC. SCIENCE, NARA WOMEN'S UNIV.
InstType: EI
InstName: HITACHI RMU-6M
IoniMethod: _ENERGY 80 eV
IonPolarity: pos
Date: 2010-10-09 19:48:36+02:00
Num Peaks: 28
15 24 26 47 27 334 28 6 29 355 37 24 38 54 39 47 40 103 41 732 
42 999 43 16 44 36 50 27 51 32 52 1 53 78 54 25 55 917 56 17 
57 103 62 10 63 11 65 1 67 22 69 56 70 538 71 47 
