Name: MassBank: JP008855
MW: 74
Formula: C3H6O2
Synonym: MassBank: JP008855
Synonym: 1,3-DIOXOLANE
Synonym: 1,3-DIOXACYCLOPENTANE
Structure: 310A31350A312C332D44494F584F4C414E452E6D6F6C0A20204368656D447261773131313230393132303032440A2020352020352020302020302020302020302020302020302020302020303939392056323030300A20202020302E3431323520202020302E3633343820202020302E30303030204F202020302020302020302020302020302020302020302020302020302020302020302020300A20202020302E363637342020202D302E3134393820202020302E303030302043202020302020302020302020302020302020302020302020302020302020302020302020300A20202020302E303030302020202D302E3633343820202020302E30303030204F202020302020302020302020302020302020302020302020302020302020302020302020300A2020202D302E363637342020202D302E3134393820202020302E303030302043202020302020302020302020302020302020302020302020302020302020302020302020300A2020202D302E3431323520202020302E3633343820202020302E303030302043202020302020302020302020302020302020302020302020302020302020302020302020300A2020312020322020312020302020202020200A2020322020332020312020302020202020200A2020332020342020312020302020202020200A2020342020352020312020302020202020200A2020312020352020312020302020202020200A4D2020454E44
Contributor: TAJIMA S, GUNMA COLLEGE OF TECHNOLOGY
InstType: EI
InstName: HITACHI RMU-7M
IoniMethod: _ENERGY 70 eV
IonPolarity: pos
Date: 2010-10-09 19:48:36+02:00
Num Peaks: 18
14 35 15 160 29 381 30 21 31 74 41 43 42 44 43 240 44 571 45 265 
55 32 56 13 57 48 69 19 71 22 73 999 74 65 75 10 
