Name: 4-(3-(4-(2-TRIMETHYLSILYLOXYETHOXY)PHENOXY)PROPYL)MORPHORINE
MW: 353
Formula: C18H31NO4Si
Synonym: MassBank: JP003457
Synonym: 4-(3-(4-(2-TRIMETHYLSILYLOXYETHOXY)PHENOXY)PROPYL)MORPHORINE
Structure: 342D28332D28342D28322D5452494D455448594C53494C594C4F58594554484F5859295048454E4F58592950524F50594C294D4F5250484F52494E452E6D6F6C0A20204368656D447261773033323331303233323432440A2032342032352020302020302020302020302020302020302020302020303939392056323030300A2020202D352E333538352020202D302E3536333520202020302E303030302043202020302020302020302020302020302020302020302020302020302020302020302020300A2020202D342E363434312020202D302E3135313020202020302E303030302043202020302020302020302020302020302020302020302020302020302020302020302020300A2020202D332E393239362020202D302E3536333520202020302E30303030204E202020302020302020302020302020302020302020302020302020302020302020302020300A2020202D332E393239362020202D312E3338383520202020302E303030302043202020302020302020302020302020302020302020302020302020302020302020302020300A2020202D342E363434312020202D312E3830313020202020302E303030302043202020302020302020302020302020302020302020302020302020302020302020302020300A2020202D352E333538352020202D312E3338383520202020302E30303030204F202020302020302020302020302020302020302020302020302020302020302020302020300A2020202D332E323135312020202D302E3135313020202020302E303030302043202020302020302020302020302020302020302020302020302020302020302020302020300A2020202D322E353030362020202D302E3536333520202020302E303030302043202020302020302020302020302020302020302020302020302020302020302020302020300A2020202D312E373836322020202D302E3135313020202020302E303030302043202020302020302020302020302020302020302020302020302020302020302020302020300A2020202D312E303731372020202D302E3536333520202020302E30303030204F202020302020302020302020302020302020302020302020302020302020302020302020300A2020202D302E333537322020202D302E3135313020202020302E303030302043202020302020302020302020302020302020302020302020302020302020302020302020300A2020202D302E3335373220202020302E3637343020202020302E303030302043202020302020302020302020302020302020302020302020302020302020302020302020300A20202020302E3335373220202020312E3038363520202020302E303030302043202020302020302020302020302020302020302020302020302020302020302020302020300A20202020312E3037313720202020302E3637343020202020302E303030302043202020302020302020302020302020302020302020302020302020302020302020302020300A20202020312E303731372020202D302E3135313020202020302E303030302043202020302020302020302020302020302020302020302020302020302020302020302020300A20202020302E333537322020202D302E3536333520202020302E303030302043202020302020302020302020302020302020302020302020302020302020302020302020300A20202020312E3738363220202020312E3038363520202020302E30303030204F202020302020302020302020302020302020302020302020302020302020302020302020300A20202020322E3530303620202020302E3637343020202020302E303030302043202020302020302020302020302020302020302020302020302020302020302020302020300A20202020332E3231353120202020312E3038363520202020302E303030302043202020302020302020302020302020302020302020302020302020302020302020302020300A20202020332E3932393620202020302E3637343020202020302E30303030204F202020302020302020302020302020302020302020302020302020302020302020302020300A20202020342E3634343120202020312E3038363520202020302E303030302053692020302020302020302020302020302020302020302020302020302020302020302020300A20202020342E3233313620202020312E3830313020202020302E303030302043202020302020302020302020302020302020302020302020302020302020302020302020300A20202020352E3335383520202020312E3439393020202020302E303030302043202020302020302020302020302020302020302020302020302020302020302020302020300A20202020352E3035363620202020302E3337323020202020302E303030302043202020302020302020302020302020302020302020302020302020302020302020302020300A2020312020322020312020302020202020200A2020322020332020312020302020202020200A2020332020342020312020302020202020200A2020342020352020312020302020202020200A2020352020362020312020302020202020200A2020312020362020312020302020202020200A2020372020382020312020302020202020200A2020382020392020312020302020202020200A2031312031322020312020302020202020200A2031322031332020322020302020202020200A2031332031342020312020302020202020200A2031342031352020322020302020202020200A2031352031362020312020302020202020200A2031312031362020322020302020202020200A2031302031312020312020302020202020200A2031382031392020312020302020202020200A2031372031382020312020302020202020200A2032312032322020312020312020202020200A2032312032332020312020302020202020200A2032312032342020312020312020202020200A2032302032312020312020302020202020200A2031392032302020312020302020202020200A2031342031372020312020302020202020200A2020392031302020312020302020202020200A2020332020372020312020302020202020200A4D2020454E44
Contributor: MASS SPECTROSCOPY SOC. OF JAPAN (MSSJ)
InstType: EI
InstName: HITACHI M-60
IoniMethod: _ENERGY 20 eV
IonPolarity: pos
Date: 2010-10-09 19:48:36+02:00
Num Peaks: 23
43 16 70 67 71 11 73 34 84 8 86 15 87 16 97 10 98 24 100 999 
101 60 113 27 117 15 127 21 128 950 129 78 143 5 144 16 149 6 206 2 
338 37 339 5 353 23 
