Name: CARBON TETRACHLORIDE
MW: 151
Formula: CCl4
Synonym: MassBank: JP002339
Synonym: CARBON TETRACHLORIDE
Synonym: TETRACHLOROMETHANE
Structure: 310A31340A434152424F4E20544554524143484C4F524944452E6D6F6C0A20204368656D447261773039303631303130323432440A2020352020342020302020302020302020302020302020302020302020303939392056323030300A20202020302E3030303020202020302E3030303020202020302E303030302043202020302020302020302020302020302020302020302020302020302020302020302020300A20202020302E303030302020202D302E3832353020202020302E3030303020436C2020302020302020302020302020302020302020302020302020302020302020302020300A2020202D302E3832353020202020302E3030303020202020302E3030303020436C2020302020302020302020302020302020302020302020302020302020302020302020300A20202020302E3030303020202020302E3832353020202020302E3030303020436C2020302020302020302020302020302020302020302020302020302020302020302020300A20202020302E3832353020202020302E3030303020202020302E3030303020436C2020302020302020302020302020302020302020302020302020302020302020302020300A2020312020322020312020312020202020200A2020312020332020312020302020202020200A2020312020342020312020312020202020200A2020312020352020312020302020202020200A4D2020454E44
Contributor: MASS SPECTROSCOPY SOC. OF JAPAN (MSSJ)
InstType: EI
InstName: JEOL JMS-D-3000
IoniMethod: _ENERGY 70 eV
IonPolarity: pos
Date: 2010-10-09 19:48:36+02:00
Num Peaks: 15
47 208 49 72 58 41 59 39 60 13 70 14 82 240 84 155 86 26 117 999 
118 12 119 976 120 11 121 310 123 34 
