Name: DIETHYLENE GLYCOL
MW: 106
Formula: C4H10O3
Synonym: MassBank: JP003887
Synonym: DIETHYLENE GLYCOL
Structure: 310A31380A4449455448594C454E4520474C59434F4C2E6D6F6C0A20204368656D447261773039323131303230313332440A2020372020362020302020302020302020302020302020302020302020303939392056323030300A2020202D312E3432383920202020302E3230363320202020302E303030302043202020302020302020302020302020302020302020302020302020302020302020302020300A2020202D302E373134352020202D302E3230363320202020302E303030302043202020302020302020302020302020302020302020302020302020302020302020302020300A2020202D322E313433342020202D302E3230363320202020302E30303030204F202020302020302020302020302020302020302020302020302020302020302020302020300A20202020302E3030303020202020302E3230363320202020302E30303030204F202020302020302020302020302020302020302020302020302020302020302020302020300A20202020302E373134352020202D302E3230363220202020302E303030302043202020302020302020302020302020302020302020302020302020302020302020302020300A20202020312E3432383920202020302E3230363320202020302E303030302043202020302020302020302020302020302020302020302020302020302020302020302020300A20202020322E313433342020202D302E3230363220202020302E30303030204F202020302020302020302020302020302020302020302020302020302020302020302020300A2020312020322020312020302020202020200A2020312020332020312020302020202020200A2020322020342020312020302020202020200A2020352020362020312020302020202020200A2020362020372020312020302020202020200A2020342020352020312020302020202020200A4D2020454E44
Contributor: MASS SPECTROSCOPY SOC. OF JAPAN (MSSJ)
InstType: EI
InstName: Unknown
IoniMethod: EI
IonPolarity: pos
Date: 2010-10-09 19:48:36+02:00
Num Peaks: 13
15 50 18 23 19 92 27 13 28 95 29 110 31 135 43 10 44 92 45 999 
46 29 75 18 76 92 
