Name: 2-MESITYLENESULFONIC ACID
CAS: 3453-83-6
MW: 200
Formula: C9H12O3S
Synonym: MassBank: JP008176
Synonym: 2-MESITYLENESULFONIC ACID
Synonym: 2,4,6-TRIMETHYLBENZENESULFONIC ACID
Structure: 322D4D45534954594C454E4553554C464F4E494320414349442E6D6F6C0A20204368656D447261773132323030393133333932440A2031332031332020302020302020302020302020302020302020302020303939392056323030300A2020202D302E343132352020202D312E3432383920202020302E303030302043202020302020302020302020302020302020302020302020302020302020302020302020300A20202020302E303030302020202D302E3731343520202020302E303030302043202020302020302020302020302020302020302020302020302020302020302020302020300A2020202D302E3431323520202020302E3030303020202020302E303030302043202020302020302020302020302020302020302020302020302020302020302020302020300A20202020302E3030303020202020302E3731343520202020302E303030302043202020302020302020302020302020302020302020302020302020302020302020302020300A2020202D302E3431323520202020312E3432383920202020302E303030302043202020302020302020302020302020302020302020302020302020302020302020302020300A20202020302E3832353020202020302E3731343520202020302E303030302043202020302020302020302020302020302020302020302020302020302020302020302020300A20202020312E323337352020202D302E3030303020202020302E303030302043202020302020302020302020302020302020302020302020302020302020302020302020300A20202020322E303632352020202D302E3030303020202020302E303030302043202020302020302020302020302020302020302020302020302020302020302020302020300A20202020302E383235302020202D302E3731343520202020302E303030302043202020302020302020302020302020302020302020302020302020302020302020302020300A2020202D312E3233373520202020302E3030303020202020302E303030302053202020302020302020302020302020302020302020302020302020302020302020302020300A2020202D312E323337352020202D302E3832353020202020302E30303030204F202020302020302020302020302020302020302020302020302020302020302020302020300A2020202D312E3233373520202020302E3832353020202020302E30303030204F202020302020302020302020302020302020302020302020302020302020302020302020300A2020202D322E3036323520202020302E3030303020202020302E30303030204F202020302020302020302020302020302020302020302020302020302020302020302020300A2020312020322020312020302020202020200A2020322020332020312020302020202020200A2020332020342020322020302020202020200A2020342020352020312020302020202020200A2020342020362020312020302020202020200A2020362020372020322020302020202020200A2020372020382020312020302020202020200A2020372020392020312020302020202020200A2020322020392020322020302020202020200A2031302031312020322020302020202020200A2031302031322020322020302020202020200A2031302031332020312020302020202020200A2020332031302020312020302020202020200A4D2020454E44
Contributor: NARA WOMEN'S UNIVERSITY
InstType: EI
InstName: HITACHI M-80
IoniMethod: _ENERGY 70 eV
IonPolarity: pos
Date: 2010-10-09 19:48:36+02:00
Num Peaks: 56
17 16 18 71 27 37 39 89 40 12 41 48 48 16 50 22 51 69 52 26 
53 40 62 12 63 58 64 18 65 115 66 15 67 11 74 10 75 13 76 12 
77 132 78 77 79 59 81 13 82 25 89 30 90 13 91 364 92 54 93 17 
102 36 103 326 104 71 105 158 106 34 107 21 115 176 116 57 117 744 118 999 
119 386 120 199 121 50 134 382 135 191 136 40 164 44 165 38 166 11 182 31 
183 66 184 16 199 21 200 866 201 181 202 57 
