Name: DIMETHYLHYDRAZONE VALERALDEHYDE
MW: 128
Formula: C7H16N2
Synonym: MassBank: JP000836
Synonym: DIMETHYLHYDRAZONE VALERALDEHYDE
Synonym: PENTANAL DIMETHYLHYDRAZONE
Structure: 310A32320A303933385F44494D455448594C48594452415A4F4E452056414C4552414C4445485944452E6D6F6C0A20204368656D447261773038323031303131343432440A2020392020382020302020302020302020302020302020302020302020303939392056323030300A2020202D302E3832353020202020302E3335373220202020302E303030302043202020302020302020302020302020302020302020302020302020302020302020302020300A2020202D302E343132362020202D302E3335373320202020302E303030302043202020302020302020302020302020302020302020302020302020302020302020302020300A20202020302E343132352020202D302E3335373320202020302E303030302043202020302020302020302020302020302020302020302020302020302020302020302020300A20202020302E383235302020202D312E3037313720202020302E303030302043202020302020302020302020302020302020302020302020302020302020302020302020300A2020202D302E3431323620202020312E3037313720202020302E30303030204E202020302020302020302020302020302020302020302020302020302020302020302020300A20202020302E3431323420202020312E3037313720202020302E30303030204E202020302020302020302020302020302020302020302020302020302020302020302020300A20202020302E3832353020202020312E3738363120202020302E303030302043202020302020302020302020302020302020302020302020302020302020302020302020300A20202020302E3832353020202020302E3335373220202020302E303030302043202020302020302020302020302020302020302020302020302020302020302020302020300A20202020302E343132352020202D312E3738363120202020302E303030302043202020302020302020302020302020302020302020302020302020302020302020302020300A2020312020322020312020302020202020200A2020322020332020312020302020202020200A2020332020342020312020302020202020200A2020352020362020312020302020202020200A2020362020372020312020302020202020200A2020362020382020312020302020202020200A2020312020352020322020302020202020200A2020342020392020312020302020202020200A4D2020454E44
Contributor: SASAKI S, TOYOHASHI UNIV. OF TECH.
InstType: EI
InstName: SHIMADZU LKB-2091
IoniMethod: _ENERGY 70 eV
IonPolarity: pos
Date: 2010-10-09 19:48:36+02:00
Num Peaks: 29
27 194 29 125 30 100 39 8 41 175 42 462 43 488 44 999 45 362 46 41 
55 55 56 8 57 55 58 88 70 28 71 16 72 32 83 24 84 31 85 81 
86 839 87 48 99 175 100 3 113 113 114 10 127 22 128 66 129 61 
