Name: 1-ACETYL-4-(2-PYRIDYL)-2-PYRAZOLINE-3-CARBOXYLIC ACID METHYL ESTER
MW: 247
Formula: C12H13N3O3
Synonym: MassBank: JP004389
Synonym: 1-ACETYL-4-(2-PYRIDYL)-2-PYRAZOLINE-3-CARBOXYLIC ACID METHYL ESTER
Structure: 312D41434554594C2D342D28322D5059524944594C292D322D505952415A4F4C494E452D332D434152424F58594C49432041434944204D455448594C2045535445522E6D6F6C0A20204368656D447261773131313730393231303632440A2031382031392020302020302020302020302020302020302020302020303939392056323030300A2020202D312E3036343220202020302E3534333020202020302E30303030204E202020302020302020302020302020302020302020302020302020302020302020302020300A2020202D312E333139312020202D302E3234313720202020302E30303030204E202020302020302020302020302020302020302020302020302020302020302020302020300A2020202D302E363531372020202D302E3732363620202020302E303030302043202020302020302020302020302020302020302020302020302020302020302020302020300A20202020302E303135372020202D302E3234313720202020302E303030302043202020302020302020302020302020302020302020302020302020302020302020302020300A2020202D302E3233393220202020302E3534333020202020302E303030302043202020302020302020302020302020302020302020302020302020302020302020302020300A2020202D302E363531372020202D312E3535313620202020302E303030302043202020302020302020302020302020302020302020302020302020302020302020302020300A20202020302E303632382020202D312E3936343120202020302E30303030204F202020302020302020302020302020302020302020302020302020302020302020302020300A2020202D312E333636322020202D312E3936343120202020302E30303030204F202020302020302020302020302020302020302020302020302020302020302020302020300A20202020302E383030342020202D302E3439363620202020302E303030302043202020302020302020302020302020302020302020302020302020302020302020302020300A20202020302E393731392020202D312E3330333620202020302E303030302043202020302020302020302020302020302020302020302020302020302020302020302020300A20202020312E373536352020202D312E3535383520202020302E303030302043202020302020302020302020302020302020302020302020302020302020302020302020300A20202020322E333639362020202D312E3030363520202020302E303030302043202020302020302020302020302020302020302020302020302020302020302020302020300A20202020322E313938312020202D302E3139393520202020302E303030302043202020302020302020302020302020302020302020302020302020302020302020302020300A20202020312E3431333520202020302E3035353420202020302E30303030204E202020302020302020302020302020302020302020302020302020302020302020302020300A2020202D312E3534393120202020312E3231303420202020302E303030302043202020302020302020302020302020302020302020302020302020302020302020302020300A2020202D312E3231333620202020312E3936343120202020302E30303030204F202020302020302020302020302020302020302020302020302020302020302020302020300A2020202D322E3336393620202020312E3132343220202020302E303030302043202020302020302020302020302020302020302020302020302020302020302020302020300A2020202D322E303830362020202D312E3535313620202020302E303030302043202020302020302020302020302020302020302020302020302020302020302020302020300A2020312020322020312020302020202020200A2020322020332020322020302020202020200A2020332020342020312020302020202020200A2020342020352020312020302020202020200A2020312020352020312020302020202020200A2020362020372020322020302020202020200A2020362020382020312020302020202020200A2020332020362020312020302020202020200A2020392031302020312020302020202020200A2031302031312020322020302020202020200A2031312031322020312020302020202020200A2031322031332020322020302020202020200A2031332031342020312020302020202020200A2020392031342020322020302020202020200A2020342020392020312020302020202020200A2031352031362020322020302020202020200A2031352031372020312020302020202020200A2020312031352020312020302020202020200A2020382031382020312020302020202020200A4D2020454E44
Contributor: SASAKI S, TOYOHASHI UNIV. OF TECH.
InstType: EI
InstName: MX-1303
IoniMethod: _ENERGY 50 eV
IonPolarity: pos
Date: 2010-10-09 19:48:36+02:00
Num Peaks: 15
78 126 79 999 80 407 92 3 95 208 117 126 118 96 119 21 127 333 146 74 
169 52 172 6 204 81 246 46 247 24 
