Name: MassBank: JP001997
MW: 257
Formula: C12H7N3O4
Synonym: MassBank: JP001997
Synonym: 1,6-DINITROCARBAZOLE
Structure: 312C362D44494E4954524F43415242415A4F4C452E6D6F6C0A20204368656D447261773131313730393037333032440A2031392032312020302020302020302020302020302020302020302020303939392056323030300A2020202D302E353135382020202D302E3832353020202020302E30303030204E202020302020302020302020302020302020302020302020302020302020302020302020300A2020202D312E303030382020202D302E3135373620202020302E303030302043202020302020302020302020302020302020302020302020302020302020302020302020300A2020202D312E383231332020202D302E3037313320202020302E303030302043202020302020302020302020302020302020302020302020302020302020302020302020300A2020202D322E3135363820202020302E3638323320202020302E303030302043202020302020302020302020302020302020302020302020302020302020302020302020300A2020202D312E3637313920202020312E3334393820202020302E303030302043202020302020302020302020302020302020302020302020302020302020302020302020300A2020202D302E3835313420202020312E3236333620202020302E303030302043202020302020302020302020302020302020302020302020302020302020302020302020300A2020202D302E3531353820202020302E3530393920202020302E303030302043202020302020302020302020302020302020302020302020302020302020302020302020300A20202020302E3236383820202020302E3235343920202020302E303030302043202020302020302020302020302020302020302020302020302020302020302020302020300A20202020302E3938333220202020302E3636373420202020302E303030302043202020302020302020302020302020302020302020302020302020302020302020302020300A20202020312E3639373720202020302E3235343920202020302E303030302043202020302020302020302020302020302020302020302020302020302020302020302020300A20202020312E363937372020202D302E3537303120202020302E303030302043202020302020302020302020302020302020302020302020302020302020302020302020300A20202020302E393833322020202D302E3938323620202020302E303030302043202020302020302020302020302020302020302020302020302020302020302020302020300A20202020302E323638382020202D302E3537303120202020302E303030302043202020302020302020302020302020302020302020302020302020302020302020302020300A20202020322E3431323220202020302E3636373420202020302E30303030204E202020302020332020302020302020302020302020302020302020302020302020302020300A20202020322E3431323220202020312E3439323420202020302E30303030204F202020302020302020302020302020302020302020302020302020302020302020302020300A20202020332E3132363720202020302E3235343920202020302E30303030204F202020302020352020302020302020302020302020302020302020302020302020302020300A2020202D322E333036322020202D302E3733383820202020302E30303030204E202020302020332020302020302020302020302020302020302020302020302020302020300A2020202D312E393730362020202D312E3439323420202020302E30303030204F202020302020302020302020302020302020302020302020302020302020302020302020300A2020202D332E313236372020202D302E3635323520202020302E30303030204F202020302020352020302020302020302020302020302020302020302020302020302020300A2020312020322020312020302020202020200A2020322020332020312020302020202020200A2020332020342020322020302020202020200A2020342020352020312020302020202020200A2020352020362020322020302020202020200A2020362020372020312020302020202020200A2020322020372020322020302020202020200A2020372020382020312020302020202020200A2020382020392020312020302020202020200A2020392031302020322020302020202020200A2031302031312020312020302020202020200A2031312031322020322020302020202020200A2031322031332020312020302020202020200A2020382031332020322020302020202020200A2020312031332020312020302020202020200A2031342031352020322020302020202020200A2031342031362020312020302020202020200A2031302031342020312020302020202020200A2031372031382020322020302020202020200A2031372031392020312020302020202020200A2020332031372020312020302020202020200A4D202043484720203420203134202020312020313620202D3120203137202020312020313920202D310A4D2020454E44
Contributor: SASAKI S, TOYOHASHI UNIV. OF TECH.
InstType: EI
InstName: MX-1303
IoniMethod: _ENERGY 50 eV
IonPolarity: pos
Date: 2010-10-09 19:48:36+02:00
Num Peaks: 83
39 64 40 12 41 336 42 10 43 579 51 12 53 18 54 4 55 370 56 90 
57 400 58 1 59 12 60 79 61 15 65 1 67 90 68 53 69 257 70 6 
71 148 72 10 73 71 74 1 77 18 79 20 80 18 81 10 82 53 83 158 
84 84 85 7 87 13 91 16 93 20 94 2 95 67 96 46 97 112 98 6 
99 16 107 18 109 28 110 2 111 43 112 18 113 10 115 1 121 12 123 18 
124 12 125 2 126 13 127 13 129 26 135 1 137 26 138 41 139 16 152 3 
153 35 154 15 163 12 164 21 165 163 166 20 167 13 180 1 181 122 182 15 
183 18 184 4 194 12 210 12 211 368 212 3 226 41 227 262 228 18 236 2 
239 10 257 999 258 86 
