Name: P-T-BUTYLCYCLOHEXYL ACETATE (CIS)
MW: 198
Formula: C12H22O2
Synonym: MassBank: JP000128
Synonym: P-T-BUTYLCYCLOHEXYL ACETATE (CIS)
Structure: 303030375F502D542D425554594C4359434C4F484558594C20414345544154452028434953292E6D6F6C0A20204368656D447261773130303131303230313532440A2031362031362020302020302020302020302020302020302020302020303939392056323030300A2020202D312E343238342020202D312E3338383420202020302E303030302043202020302020302020302020302020302020302020302020302020302020302020302020300A2020202D302E373133322020202D312E3830303220202020302E30303030204F202020302020302020302020302020302020302020302020302020302020302020302020300A2020202D322E313432342020202D312E3830313720202020302E303030302043202020302020302020302020302020302020302020302020302020302020302020302020300A2020202D312E343237362020202D302E3536323820202020302E30303030204F202020302020302020302020302020302020302020302020302020302020302020302020300A2020202D302E373135342020202D302E3135303220202020302E303030302043202020302020302020302020302020302020302020302020302020302020302020302020300A2020202D302E3731353420202020302E3637343820202020302E303030302043202020302020302020302020302020302020302020302020302020302020302020302020300A2020202D302E3030303920202020312E3038373320202020302E303030302043202020302020302020302020302020302020302020302020302020302020302020302020300A20202020302E3731333520202020302E3637343820202020302E303030302043202020302020302020302020302020302020302020302020302020302020302020302020300A20202020302E373133352020202D302E3135303220202020302E303030302043202020302020302020302020302020302020302020302020302020302020302020302020300A2020202D302E303030392020202D302E3536323720202020302E303030302043202020302020302020302020302020302020302020302020302020302020302020302020300A2020202D302E363334392020202D302E3937313820202020302E303030302048202020302020302020302020302020302020302020302020302020302020302020302020300A20202020312E3432383020202020312E3038373320202020302E303030302043202020302020302020302020302020302020302020302020302020302020302020302020300A20202020312E3031353520202020312E3830313720202020302E303030302043202020302020302020302020302020302020302020302020302020302020302020302020300A20202020322E3134323420202020312E3439393820202020302E303030302043202020302020302020302020302020302020302020302020302020302020302020302020300A20202020312E3834303520202020302E3337323820202020302E303030302043202020302020302020302020302020302020302020302020302020302020302020302020300A20202020302E3633353020202020312E3439363020202020302E303030302048202020302020302020302020302020302020302020302020302020302020302020302020300A2020312020322020322020302020202020200A2020312020332020312020302020202020200A2020312020342020312020302020202020200A2020352020362020312020302020202020200A2020362020372020312020302020202020200A2020372020382020312020302020202020200A2020382020392020312020302020202020200A2020392031302020312020302020202020200A2020352031302020312020302020202020200A2020352020342020312020312020202020200A2020352031312020312020362020202020200A2020382031322020312020312020202020200A2031322031332020312020302020202020200A2031322031342020312020302020202020200A2031322031352020312020302020202020200A2020382031362020312020362020202020200A4D2020454E44
Contributor: YAMAMOTO M, DEP. CHEMISTRY, FAC. SCIENCE, NARA WOMEN'S UNIV.
InstType: EI
InstName: HITACHI RMU-6M
IoniMethod: _ENERGY 70 eV
IonPolarity: pos
Date: 2010-10-09 19:48:36+02:00
Num Peaks: 53
15 111 27 137 28 31 29 319 39 155 40 30 41 704 42 51 43 999 44 31 
51 19 52 11 53 94 54 142 55 270 56 577 57 936 58 82 61 408 62 10 
65 23 66 22 67 707 68 65 69 121 70 27 71 15 77 34 78 12 79 111 
80 693 81 517 82 806 83 385 84 36 91 15 93 13 94 19 95 83 96 36 
97 24 98 10 99 33 107 11 109 16 110 20 117 37 123 243 124 33 138 271 
139 52 142 31 143 61 
