Name: BORNEOL
MW: 154
Formula: C10H18O
Synonym: MassBank: JP000557
Synonym: BORNEOL
Synonym: ENDO-BORNEOL
Structure: 303134395F424F524E454F4C2E6D6F6C0A20204368656D447261773039303331303138323232440A2031312031322020302020302020302020302020302020302020302020303939392056323030300A2020202D302E3632353620202020302E3030303020202020302E303030302043202020302020302020302020302020302020302020302020302020302020302020302020300A2020202D302E363235362020202D302E3832353020202020302E303030302043202020302020302020302020302020302020302020302020302020302020302020302020300A20202020302E303838392020202D312E3233373520202020302E303030302043202020302020302020302020302020302020302020302020302020302020302020302020300A20202020302E383033342020202D302E3832353020202020302E303030302043202020302020302020302020302020302020302020302020302020302020302020302020300A20202020302E3830333420202020302E3030303020202020302E303030302043202020302020302020302020302020302020302020302020302020302020302020302020300A20202020302E3038383920202020302E3431323520202020302E303030302043202020302020302020302020302020302020302020302020302020302020302020302020300A2020202D312E3334303020202020302E3431323520202020302E30303030204F202020302020302020302020302020302020302020302020302020302020302020302020300A20202020302E3038383920202020312E3233373520202020302E303030302043202020302020302020302020302020302020302020302020302020302020302020302020300A20202020302E353136352020202D302E3239333020202020302E303030302043202020302020302020302020302020302020302020302020302020302020302020302020300A20202020312E333430302020202D302E3234333720202020302E303030302043202020302020302020302020302020302020302020302020302020302020302020302020300A20202020312E313838382020202D302E3737313220202020302E303030302043202020302020302020302020302020302020302020302020302020302020302020302020300A2020312020322020312020302020202020200A2020322020332020312020302020202020200A2020332020342020312020302020202020200A2020352020362020312020302020202020200A2020362020312020312020302020202020200A2020312020372020312020312020202020200A2020362020382020312020302020202020200A2020362020392020312020362020202020200A2020332020392020312020362020202020200A2020392031302020312020302020202020200A2020392031312020312020302020202020200A2020352020342020312020302020202020200A4D2020454E44
Contributor: HASHIMOTO K, KYOTO COLLEGE OF PHARMACY
InstType: EI
InstName: HITACHI M-80
IoniMethod: _ENERGY 20 eV
IonPolarity: pos
Date: 2010-10-09 19:48:36+02:00
Num Peaks: 28
40 12 41 12 42 29 54 38 67 35 69 43 70 24 71 49 72 27 81 20 
82 51 83 47 84 48 92 25 93 66 95 999 96 112 107 12 108 44 109 26 
110 368 111 66 121 91 122 13 137 144 139 171 140 21 154 32 
