Name: CITRIC ACID TRIBUTYL ESTER
MW: 360
Formula: C18H32O7
Synonym: MassBank: JP006077
Synonym: CITRIC ACID TRIBUTYL ESTER
Synonym: TRIBUTYL CITRATE
Structure: 434954524943204143494420545249425554594C2045535445522E6D6F6C0A20204368656D447261773038313131303137323332440A2032352032342020302020302020302020302020302020302020302020303939392056323030300A20202020312E373836322020202D302E3738343520202020302E303030302043202020302020302020302020302020302020302020302020302020302020302020302020300A20202020312E333733372020202D302E3037303120202020302E303030302043202020302020302020302020302020302020302020302020302020302020302020302020300A20202020302E353438372020202D302E3037303120202020302E303030302043202020302020302020302020302020302020302020302020302020302020302020302020300A2020202D302E323736332020202D302E3037303120202020302E30303030204F202020302020302020302020302020302020302020302020302020302020302020302020300A20202020302E3534383720202020302E3735343920202020302E303030302043202020302020302020302020302020302020302020302020302020302020302020302020300A20202020302E353438372020202D302E3839353120202020302E303030302043202020302020302020302020302020302020302020302020302020302020302020302020300A2020202D302E313635382020202D312E3330373620202020302E303030302043202020302020302020302020302020302020302020302020302020302020302020302020300A20202020312E333733372020202D312E3439393020202020302E30303030204F202020302020302020302020302020302020302020302020302020302020302020302020300A20202020322E363131322020202D302E3738343520202020302E30303030204F202020302020302020302020302020302020302020302020302020302020302020302020300A20202020312E3236333120202020312E3136373420202020302E30303030204F202020302020302020302020302020302020302020302020302020302020302020302020300A2020202D302E3136353820202020312E3136373420202020302E30303030204F202020302020302020302020302020302020302020302020302020302020302020302020300A2020202D302E383830332020202D302E3839353120202020302E30303030204F202020302020302020302020302020302020302020302020302020302020302020302020300A2020202D302E313635382020202D322E3133323620202020302E30303030204F202020302020302020302020302020302020302020302020302020302020302020302020300A20202020332E303233372020202D312E3439393020202020302E303030302043202020302020302020302020302020302020302020302020302020302020302020302020300A20202020322E363131322020202D322E3231333520202020302E303030302043202020302020302020302020302020302020302020302020302020302020302020302020300A20202020332E303233372020202D322E3932383020202020302E303030302043202020302020302020302020302020302020302020302020302020302020302020302020300A20202020322E363131322020202D332E3634323420202020302E303030302043202020302020302020302020302020302020302020302020302020302020302020302020300A2020202D302E3136353820202020312E3939323420202020302E303030302043202020302020302020302020302020302020302020302020302020302020302020302020300A20202020302E3534383720202020322E3430343920202020302E303030302043202020302020302020302020302020302020302020302020302020302020302020302020300A20202020302E3534383720202020332E3232393920202020302E303030302043202020302020302020302020302020302020302020302020302020302020302020302020300A20202020312E3236333120202020332E3634323420202020302E303030302043202020302020302020302020302020302020302020302020302020302020302020302020300A2020202D302E383830332020202D322E3534353120202020302E303030302043202020302020302020302020302020302020302020302020302020302020302020302020300A2020202D312E353934372020202D322E3133323620202020302E303030302043202020302020302020302020302020302020302020302020302020302020302020302020300A2020202D322E333039322020202D322E3534353120202020302E303030302043202020302020302020302020302020302020302020302020302020302020302020302020300A2020202D332E303233372020202D322E3133323620202020302E303030302043202020302020302020302020302020302020302020302020302020302020302020302020300A2020312020322020312020302020202020200A2020322020332020312020302020202020200A2020332020342020312020302020202020200A2020332020352020312020302020202020200A2020332020362020312020302020202020200A2020362020372020312020302020202020200A2020312020382020322020302020202020200A2020312020392020312020302020202020200A2020352031302020322020302020202020200A2020352031312020312020302020202020200A2020372031322020322020302020202020200A2020372031332020312020302020202020200A2031342031352020312020302020202020200A2031352031362020312020302020202020200A2031362031372020312020302020202020200A2020392031342020312020302020202020200A2031382031392020312020302020202020200A2031392032302020312020302020202020200A2032302032312020312020302020202020200A2031312031382020312020302020202020200A2032322032332020312020302020202020200A2032332032342020312020302020202020200A2032342032352020312020302020202020200A2031332032322020312020302020202020200A4D2020454E44
Contributor: HASHIMOTO K, KYOTO COLLEGE OF PHARMACY
InstType: EI
InstName: HITACHI M-80
IoniMethod: _ENERGY 20 eV
IonPolarity: pos
Date: 2010-10-09 19:48:36+02:00
Num Peaks: 20
57 47 87 14 102 19 111 33 129 453 130 28 133 13 139 11 147 65 157 32 
158 28 185 999 186 102 187 13 203 31 213 11 259 362 260 55 287 8 360 3 
