Name: 2-(4-(4-NITROPHENYL)-6-PHENYL-2-PYRIMIDINYLAMINO)BENZOIC ACID METHYL ESTER
MW: 426
Formula: C24H18N4O4
Synonym: MassBank: JP005082
Synonym: 2-(4-(4-NITROPHENYL)-6-PHENYL-2-PYRIMIDINYLAMINO)BENZOIC ACID METHYL ESTER
Structure: 322D28342D28342D4E4954524F5048454E594C292D362D5048454E594C2D322D505952494D4944494E594C414D494E4F2942454E5A4F49432041434944204D455448594C2045535445522E6D6F6C0A20204368656D447261773132323130393139353232440A2033322033352020302020302020302020302020302020302020302020303939392056323030300A20202020322E383537392020202D312E3835363220202020302E303030302043202020302020302020302020302020302020302020302020302020302020302020302020300A20202020322E383537392020202D312E3033313220202020302E303030302043202020302020302020302020302020302020302020302020302020302020302020302020300A20202020322E313433342020202D302E3631383720202020302E303030302043202020302020302020302020302020302020302020302020302020302020302020302020300A20202020322E3134333420202020302E3230363320202020302E303030302043202020302020302020302020302020302020302020302020302020302020302020302020300A20202020322E3835373920202020302E3631383820202020302E303030302043202020302020302020302020302020302020302020302020302020302020302020302020300A20202020332E3537323420202020302E3230363320202020302E303030302043202020302020302020302020302020302020302020302020302020302020302020302020300A20202020332E353732342020202D302E3631383720202020302E303030302043202020302020302020302020302020302020302020302020302020302020302020302020300A20202020322E313433342020202D322E3236383720202020302E30303030204F202020302020302020302020302020302020302020302020302020302020302020302020300A20202020332E353732342020202D322E3236383720202020302E30303030204F202020302020302020302020302020302020302020302020302020302020302020302020300A20202020312E343238392020202D312E3033313220202020302E30303030204E202020302020302020302020302020302020302020302020302020302020302020302020300A20202020302E373134352020202D302E3631383720202020302E303030302043202020302020302020302020302020302020302020302020302020302020302020302020300A2020202D302E303030302020202D312E3033313220202020302E30303030204E202020302020302020302020302020302020302020302020302020302020302020302020300A2020202D302E373134352020202D302E3631383820202020302E303030302043202020302020302020302020302020302020302020302020302020302020302020302020300A2020202D302E3731343520202020302E3230363220202020302E303030302043202020302020302020302020302020302020302020302020302020302020302020302020300A20202020302E3030303020202020302E3631383820202020302E303030302043202020302020302020302020302020302020302020302020302020302020302020302020300A20202020302E3731343520202020302E3230363320202020302E30303030204E202020302020302020302020302020302020302020302020302020302020302020302020300A20202020302E3030303020202020312E3434333820202020302E303030302043202020302020302020302020302020302020302020302020302020302020302020302020300A2020202D302E3731343520202020312E3835363320202020302E303030302043202020302020302020302020302020302020302020302020302020302020302020302020300A2020202D302E3731343520202020322E3638313220202020302E303030302043202020302020302020302020302020302020302020302020302020302020302020302020300A20202020302E3030303020202020332E3039333820202020302E303030302043202020302020302020302020302020302020302020302020302020302020302020302020300A20202020302E3731343520202020322E3638313320202020302E303030302043202020302020302020302020302020302020302020302020302020302020302020302020300A20202020302E3731343520202020312E3835363320202020302E303030302043202020302020302020302020302020302020302020302020302020302020302020302020300A2020202D312E343238392020202D312E3033313320202020302E303030302043202020302020302020302020302020302020302020302020302020302020302020302020300A2020202D312E343238392020202D312E3835363320202020302E303030302043202020302020302020302020302020302020302020302020302020302020302020302020300A2020202D322E313433342020202D322E3236383720202020302E303030302043202020302020302020302020302020302020302020302020302020302020302020302020300A2020202D322E383537392020202D312E3835363320202020302E303030302043202020302020302020302020302020302020302020302020302020302020302020302020300A2020202D322E383537392020202D312E3033313320202020302E303030302043202020302020302020302020302020302020302020302020302020302020302020302020300A2020202D322E313433342020202D302E3631383720202020302E303030302043202020302020302020302020302020302020302020302020302020302020302020302020300A2020202D332E353732342020202D322E3236383720202020302E30303030204E202020302020332020302020302020302020302020302020302020302020302020302020300A2020202D332E353732342020202D332E3039333820202020302E30303030204F202020302020302020302020302020302020302020302020302020302020302020302020300A2020202D342E323836382020202D312E3835363320202020302E30303030204F202020302020352020302020302020302020302020302020302020302020302020302020300A20202020342E323836382020202D312E3835363220202020302E303030302043202020302020302020302020302020302020302020302020302020302020302020302020300A2020312020322020312020302020202020200A2020322020332020312020302020202020200A2020332020342020322020302020202020200A2020342020352020312020302020202020200A2020352020362020322020302020202020200A2020362020372020312020302020202020200A2020322020372020322020302020202020200A2020312020382020322020302020202020200A2020312020392020312020302020202020200A2031312031322020312020302020202020200A2031322031332020322020302020202020200A2031332031342020312020302020202020200A2031342031352020322020302020202020200A2031352031362020312020302020202020200A2031312031362020322020302020202020200A2031302031312020312020302020202020200A2031372031382020312020302020202020200A2031382031392020322020302020202020200A2031392032302020312020302020202020200A2032302032312020322020302020202020200A2032312032322020312020302020202020200A2031372032322020322020302020202020200A2031352031372020312020302020202020200A2032332032342020312020302020202020200A2032342032352020322020302020202020200A2032352032362020312020302020202020200A2032362032372020322020302020202020200A2032372032382020312020302020202020200A2032332032382020322020302020202020200A2032392033302020322020302020202020200A2032392033312020312020302020202020200A2032362032392020312020302020202020200A2031332032332020312020302020202020200A2020332031302020312020302020202020200A2020392033322020312020302020202020200A4D202043484720203220203239202020312020333120202D310A4D2020454E44
Contributor: SASAKI S, TOYOHASHI UNIV. OF TECH.
InstType: EI
InstName: MS-902
IoniMethod: _ENERGY 70 eV
IonPolarity: pos
Date: 2010-10-09 19:48:36+02:00
Num Peaks: 53
32 79 44 17 51 14 63 1 75 12 76 20 77 48 89 1 90 30 101 12 
102 19 104 1 116 14 117 12 128 11 129 2 144 16 145 18 146 18 159 2 
159.5 188 173.5 20 174 12 190 1 215 11 216 11 244 12 307 1 308 24 309 20 
317 10 318 4 319 54 320 152 321 277 331 2 337 45 338 11 347 30 348 2 
349 19 366 37 367 999 368 24 369 29 393 56 394 28 395 2 396 12 425 25 
426 269 427 7 428 12 
