Name: (3R)-3-(TERT-BUTYLDIMETHYLSILYLOXY)-5-PIVALOYLOXYPENTANOL
MW: 318
Formula: C16H34O4Si
Synonym: MassBank: JP007253
Synonym: (3R)-3-(TERT-BUTYLDIMETHYLSILYLOXY)-5-PIVALOYLOXYPENTANOL
Structure: 283352292D332D28544552542D425554594C44494D455448594C53494C594C4F5859292D352D504956414C4F594C4F585950454E54414E4F4C2E6D6F6C0A20204368656D447261773130323130393033333032440A2032322032312020302020302020302020302020302020302020302020303939392056323030300A2020202D332E353732342020202D302E3631383820202020302E303030302043202020302020302020302020302020302020302020302020302020302020302020302020300A2020202D322E383537392020202D302E3230363220202020302E303030302043202020302020302020302020302020302020302020302020302020302020302020302020300A2020202D322E313433342020202D302E3631383820202020302E303030302053692020302020302020302020302020302020302020302020302020302020302020302020300A2020202D312E343238392020202D302E3230363220202020302E30303030204F202020302020302020302020302020302020302020302020302020302020302020302020300A2020202D302E373134352020202D302E3631383820202020302E303030302043202020302020302020302020302020302020302020302020302020302020302020302020300A20202020302E303030302020202D302E3230363220202020302E303030302043202020302020302020302020302020302020302020302020302020302020302020302020300A20202020302E373134352020202D302E3631383820202020302E303030302043202020302020302020302020302020302020302020302020302020302020302020302020300A20202020312E343238392020202D302E3230363220202020302E30303030204F202020302020302020302020302020302020302020302020302020302020302020302020300A20202020322E313433342020202D302E3631383820202020302E303030302043202020302020302020302020302020302020302020302020302020302020302020302020300A20202020322E383537392020202D302E3230363220202020302E303030302043202020302020302020302020302020302020302020302020302020302020302020302020300A20202020332E353732342020202D302E3631383820202020302E303030302043202020302020302020302020302020302020302020302020302020302020302020302020300A2020202D322E3835373920202020302E3631383820202020302E303030302043202020302020302020302020302020302020302020302020302020302020302020302020300A2020202D322E383537392020202D312E3033313320202020302E303030302043202020302020302020302020302020302020302020302020302020302020302020302020300A2020202D302E373134352020202D312E3434333820202020302E303030302048202020302020302020302020302020302020302020302020302020302020302020302020300A2020202D302E3731343520202020302E3230363220202020302E303030302043202020302020302020302020302020302020302020302020302020302020302020302020300A20202020322E3835373920202020302E3631383820202020302E303030302043202020302020302020302020302020302020302020302020302020302020302020302020300A20202020322E383537392020202D312E3033313320202020302E303030302043202020302020302020302020302020302020302020302020302020302020302020302020300A20202020322E313433342020202D312E3434333820202020302E30303030204F202020302020302020302020302020302020302020302020302020302020302020302020300A2020202D312E3432383920202020302E3631383820202020302E303030302043202020302020302020302020302020302020302020302020302020302020302020302020300A2020202D312E3432383920202020312E3434333820202020302E30303030204F202020302020302020302020302020302020302020302020302020302020302020302020300A2020202D322E3333373120202020302E3230363220202020302E303030302043202020302020302020302020302020302020302020302020302020302020302020302020300A2020202D322E333337312020202D312E3434333820202020302E303030302043202020302020302020302020302020302020302020302020302020302020302020302020300A2020312020322020312020302020202020200A2020322020332020312020302020202020200A2020332020342020312020302020202020200A2020342020352020312020302020202020200A2020352020362020312020302020202020200A2020362020372020312020302020202020200A2020372020382020312020302020202020200A2020382020392020312020302020202020200A2020392031302020312020302020202020200A2031302031312020312020302020202020200A2020322031322020312020312020202020200A2020322031332020312020312020202020200A2020352031342020312020312020202020200A2020352031352020312020312020202020200A2031302031362020312020312020202020200A2031302031372020312020312020202020200A2020392031382020322020302020202020200A2031352031392020312020302020202020200A2031392032302020312020302020202020200A2020332032312020312020302020202020200A2020332032322020312020302020202020200A4D202053545920203120202031205355500A4D2020534C4220203120202031202020310A4D202053414C20202031202031202032310A4D202053424C20202031202031202032300A4D2020534D5420202031204D650A4D2020534256202020312032302020202D382E3133383520202020362E393530360A4D202053545920203120202032205355500A4D2020534C4220203120202032202020320A4D202053414C20202032202031202032320A4D202053424C20202032202031202032310A4D2020534D5420202032204D650A4D2020534256202020322032312020202D382E3133383520202020352E333030360A4D2020454E44
Contributor: ITO S, DEPT. OF CHEM., TOHOKU UNIV.
InstType: EI
InstName: HITACHI M-52
IoniMethod: _ENERGY 25 eV
IonPolarity: pos
Date: 2010-10-09 19:48:36+02:00
Num Peaks: 36
67 598 68 40 71 23 73 8 75 370 76 26 85 196 89 4 101 34 105 261 
106 23 115 4 117 23 129 57 131 181 132 3 141 43 144 26 145 65 147 3 
157 91 159 999 160 125 161 5 169 153 170 23 171 181 172 3 177 181 187 34 
189 68 231 13 232 20 261 88 262 17 263 9 
