Name: METHYL TETRA-O-METHYL-ALPHA-D-MANNOPYRANOSIDE
MW: 250
Formula: C11H22O6
Synonym: MassBank: JP009685
Synonym: METHYL TETRA-O-METHYL-ALPHA-D-MANNOPYRANOSIDE
Structure: 303737365F4D455448594C2054455452412D4F2D4D455448594C2D414C5048412D442D4D414E4E4F505952414E4F534944452E6D6F6C0A20204368656D447261773130313931303232353632440A2032322032322020302020302020302020302020302020302020302020303939392056323030300A2020202D302E3935343920202020302E3331333520202020302E303030302043202020302020302020302020302020302020302020302020302020302020302020302020300A2020202D322E313434382020202D302E3539323520202020302E303030302043202020302020302020302020302020302020302020302020302020302020302020302020300A2020202D302E393534392020202D312E3438363720202020302E303030302043202020302020302020302020302020302020302020302020302020302020302020302020300A20202020302E393037332020202D312E3438363720202020302E303030302043202020302020302020302020302020302020302020302020302020302020302020302020300A20202020322E313434382020202D302E3539323520202020302E303030302043202020302020302020302020302020302020302020302020302020302020302020302020300A20202020302E3930373320202020302E3331333520202020302E30303030204F202020302020302020302020302020302020302020302020302020302020302020302020300A2020202D322E3134343820202020302E3136383120202020302E303030302048202020302020302020302020302020302020302020302020302020302020302020302020300A2020202D322E313434382020202D312E3438363720202020302E30303030204F202020302020302020302020302020302020302020302020302020302020302020302020300A20202020322E3134343820202020302E3236333520202020302E303030302048202020302020302020302020302020302020302020302020302020302020302020302020300A20202020322E313434382020202D312E3430353620202020302E30303030204F202020302020302020302020302020302020302020302020302020302020302020302020300A20202020302E393037332020202D302E3638373920202020302E30303030204F202020302020302020302020302020302020302020302020302020302020302020302020300A20202020302E393037332020202D322E3331313720202020302E303030302048202020302020302020302020302020302020302020302020302020302020302020302020300A2020202D302E393534392020202D322E3331313720202020302E303030302048202020302020302020302020302020302020302020302020302020302020302020302020300A2020202D302E393534392020202D302E3733353620202020302E30303030204F202020302020302020302020302020302020302020302020302020302020302020302020300A2020202D302E3935343920202020312E3037343220202020302E303030302043202020302020302020302020302020302020302020302020302020302020302020302020300A2020202D302E393636392020202D302E3238323620202020302E303030302048202020302020302020302020302020302020302020302020302020302020302020302020300A2020202D302E323433332020202D302E3331383220202020302E303030302043202020302020302020302020302020302020302020302020302020302020302020302020300A20202020322E383539322020202D312E3831383120202020302E303030302043202020302020302020302020302020302020302020302020302020302020302020302020300A2020202D312E3636393420202020312E3438363720202020302E30303030204F202020302020302020302020302020302020302020302020302020302020302020302020300A2020202D312E3636393420202020322E3331313720202020302E303030302043202020302020302020302020302020302020302020302020302020302020302020302020300A2020202D322E383539322020202D312E3839393220202020302E303030302043202020302020302020302020302020302020302020302020302020302020302020302020300A20202020302E313835312020202D302E3238393120202020302E303030302043202020302020302020302020302020302020302020302020302020302020302020302020300A2020312020322020312020302020202020200A2020322020332020312020302020202020200A2020332020342020312020302020202020200A2020342020352020312020302020202020200A2020352020362020312020302020202020200A2020312020362020312020302020202020200A2020322020372020312020302020202020200A2020322020382020312020302020202020200A2020352020392020312020302020202020200A2020352031302020312020302020202020200A2020342031312020312020302020202020200A2020342031322020312020302020202020200A2020332031332020312020302020202020200A2020332031342020312020302020202020200A2020312031352020312020302020202020200A2020312031362020312020302020202020200A2031342031372020312020302020202020200A2031302031382020312020302020202020200A2031352031392020312020302020202020200A2031392032302020312020302020202020200A2020382032312020312020302020202020200A2031312032322020312020302020202020200A4D2020454E44
Contributor: THE INSTITUTE OF SCIENTIFIC AND INDUSTRIALRESEARCH
InstType: EI
InstName: JEOL JMS-DX-300
IoniMethod: _ENERGY 70 eV
IonPolarity: pos
Date: 2010-10-09 19:48:36+02:00
Num Peaks: 38
27 18 29 41 31 19 33 1 39 10 41 46 42 10 43 4 44 20 45 218 
47 14 53 1 55 20 57 19 59 40 69 1 71 121 72 17 73 108 74 3 
75 675 76 21 85 25 88 999 89 143 99 12 101 535 102 5 111 20 117 19 
127 20 131 2 145 32 149 298 150 19 176 6 187 29 219 23 
