Name: TETRADECANE
CAS: 629-59-4
MW: 198
Formula: C14H30
Synonym: MassBank: JP007688
Synonym: TETRADECANE
Structure: 5445545241444543414E452E6D6F6C0A20204368656D447261773038313231303037313832440A2031342031332020302020302020302020302020302020302020302020303939392056323030300A2020202D342E363434312020202D302E3230363320202020302E303030302043202020302020302020302020302020302020302020302020302020302020302020302020300A2020202D332E3932393620202020302E3230363320202020302E303030302043202020302020302020302020302020302020302020302020302020302020302020302020300A2020202D332E323135312020202D302E3230363320202020302E303030302043202020302020302020302020302020302020302020302020302020302020302020302020300A2020202D322E3530303620202020302E3230363220202020302E303030302043202020302020302020302020302020302020302020302020302020302020302020302020300A2020202D312E373836322020202D302E3230363320202020302E303030302043202020302020302020302020302020302020302020302020302020302020302020302020300A2020202D312E3037313720202020302E3230363320202020302E303030302043202020302020302020302020302020302020302020302020302020302020302020302020300A2020202D302E333537322020202D302E3230363220202020302E303030302043202020302020302020302020302020302020302020302020302020302020302020302020300A20202020302E3335373220202020302E3230363320202020302E303030302043202020302020302020302020302020302020302020302020302020302020302020302020300A20202020312E303731372020202D302E3230363220202020302E303030302043202020302020302020302020302020302020302020302020302020302020302020302020300A20202020312E3738363220202020302E3230363320202020302E303030302043202020302020302020302020302020302020302020302020302020302020302020302020300A20202020322E353030362020202D302E3230363220202020302E303030302043202020302020302020302020302020302020302020302020302020302020302020302020300A20202020332E3231353120202020302E3230363320202020302E303030302043202020302020302020302020302020302020302020302020302020302020302020302020300A20202020332E393239362020202D302E3230363220202020302E303030302043202020302020302020302020302020302020302020302020302020302020302020302020300A20202020342E3634343120202020302E3230363320202020302E303030302043202020302020302020302020302020302020302020302020302020302020302020302020300A2020312020322020312020302020202020200A2020322020332020312020302020202020200A2020332020342020312020302020202020200A2020342020352020312020302020202020200A2020352020362020312020302020202020200A2020362020372020312020302020202020200A2020372020382020312020302020202020200A2020382020392020312020302020202020200A2020392031302020312020302020202020200A2031302031312020312020302020202020200A2031312031322020312020302020202020200A2031322031332020312020302020202020200A2031332031342020312020302020202020200A4D2020454E44
Contributor: KYOTO INSTITUTE OF TECHNOLOGY
InstType: EI
InstName: SHIMADZU QP-1000
IoniMethod: _ENERGY 70 eV
IonPolarity: pos
Date: 2010-10-09 19:48:36+02:00
Num Peaks: 37
40 35 41 443 42 123 43 98 44 41 53 16 54 15 55 15 56 142 57 999 
58 42 67 1 68 9 69 56 70 83 71 46 72 25 82 9 83 26 84 4 
85 254 86 17 97 15 98 3 99 47 111 5 112 19 113 2 126 11 127 13 
140 6 141 1 155 5 168 1 169 2 198 1 199 1 
