Name: 4-TERPINENOL
MW: 154
Formula: C10H18O
Synonym: MassBank: JP006930
Synonym: 4-TERPINENOL
Synonym: 4-METHYL-1-(1-METHYLETHYL)-3-CYCLOHEXEN-1-OL
Structure: 342D54455250494E454E4F4C2E6D6F6C0A20204368656D447261773034323131303030353932440A2031312031312020302020302020302020302020302020302020302020303939392056323030300A2020202D302E3430303320202020302E3233313120202020302E303030302043202020302020302020302020302020302020302020302020302020302020302020302020300A20202020302E3331343120202020302E3634333620202020302E303030302043202020302020302020302020302020302020302020302020302020302020302020302020300A20202020312E3032383620202020302E3233313120202020302E303030302043202020302020302020302020302020302020302020302020302020302020302020302020300A20202020312E303238362020202D302E3539333920202020302E303030302043202020302020302020302020302020302020302020302020302020302020302020302020300A20202020302E333134312020202D312E3030363420202020302E303030302043202020302020302020302020302020302020302020302020302020302020302020302020300A2020202D302E343030332020202D302E3539333920202020302E303030302043202020302020302020302020302020302020302020302020302020302020302020302020300A2020202D302E3638323520202020312E3030363420202020302E30303030204F202020302020302020302020302020302020302020302020302020302020302020302020300A2020202D312E3231323820202020302E3038373920202020302E303030302043202020302020302020302020302020302020302020302020302020302020302020302020300A2020202D312E3734333120202020302E3731393920202020302E303030302043202020302020302020302020302020302020302020302020302020302020302020302020300A2020202D312E343935302020202D302E3638373420202020302E303030302043202020302020302020302020302020302020302020302020302020302020302020302020300A20202020312E373433312020202D312E3030363420202020302E303030302043202020302020302020302020302020302020302020302020302020302020302020302020300A2020312020322020312020302020202020200A2020322020332020312020302020202020200A2020332020342020322020302020202020200A2020342020352020312020302020202020200A2020352020362020312020302020202020200A2020312020362020312020302020202020200A2020312020372020312020302020202020200A2020382020392020312020302020202020200A2020382031302020312020302020202020200A2020312020382020312020302020202020200A2020342031312020312020302020202020200A4D2020454E44
Contributor: TAJIMA S, GUNMA COLLEGE OF TECHNOLOGY
InstType: EI
InstName: HITACHI M-80B
IoniMethod: _ENERGY 70 eV
IonPolarity: pos
Date: 2010-10-09 19:48:36+02:00
Num Peaks: 59
15 12 27 178 28 15 29 67 31 20 39 164 40 42 41 328 42 41 43 448 
44 15 45 17 51 37 52 17 53 137 54 18 55 224 56 13 57 33 58 14 
59 13 65 44 66 18 67 160 68 152 69 211 70 46 71 999 72 51 77 104 
78 17 79 48 81 118 82 40 83 102 84 13 85 15 86 268 87 17 91 87 
92 72 93 433 94 48 95 79 96 10 97 12 98 13 107 10 109 13 110 63 
111 526 112 41 121 16 125 19 136 74 137 12 139 20 154 176 155 17 
