Name: 1-ETHOXY-1-(TRANS-3-HEXENYLOXY)ETHANE
MW: 172
Formula: C10H20O2
Synonym: MassBank: JP008648
Synonym: 1-ETHOXY-1-(TRANS-3-HEXENYLOXY)ETHANE
Synonym: ACETALDEHYDE ETHYL TRANS-3-HEXENYL ACETAL
Structure: 312D4554484F58592D312D285452414E532D332D484558454E594C4F585929455448414E452E6D6F6C0A20204368656D447261773131313830393031343032440A2031342031332020302020302020302020302020302020302020302020303939392056323030300A2020202D312E3432383920202020302E3230363220202020302E303030302043202020302020302020302020302020302020302020302020302020302020302020302020300A2020202D312E3432383920202020312E3033313320202020302E303030302043202020302020302020302020302020302020302020302020302020302020302020302020300A2020202D302E373134352020202D302E3230363320202020302E30303030204F202020302020302020302020302020302020302020302020302020302020302020302020300A20202020302E3030303020202020302E3230363220202020302E303030302043202020302020302020302020302020302020302020302020302020302020302020302020300A20202020302E373134352020202D302E3230363220202020302E303030302043202020302020302020302020302020302020302020302020302020302020302020302020300A20202020312E3432383920202020302E3230363220202020302E303030302043202020302020302020302020302020302020302020302020302020302020302020302020300A20202020322E313433342020202D302E3230363220202020302E303030302043202020302020302020302020302020302020302020302020302020302020302020302020300A20202020322E3835373920202020302E3230363320202020302E303030302043202020302020302020302020302020302020302020302020302020302020302020302020300A20202020332E353732342020202D302E3230363220202020302E303030302043202020302020302020302020302020302020302020302020302020302020302020302020300A2020202D322E313433342020202D302E3230363320202020302E30303030204F202020302020302020302020302020302020302020302020302020302020302020302020300A2020202D322E3835373920202020302E3230363220202020302E303030302043202020302020302020302020302020302020302020302020302020302020302020302020300A2020202D332E353732342020202D302E3230363320202020302E303030302043202020302020302020302020302020302020302020302020302020302020302020302020300A20202020312E3432383920202020312E3033313320202020302E303030302048202020302020302020302020302020302020302020302020302020302020302020302020300A20202020322E313433342020202D312E3033313320202020302E303030302048202020302020302020302020302020302020302020302020302020302020302020302020300A2020312020322020312020302020202020200A2020342020352020312020302020202020200A2020352020362020312020302020202020200A2020362020372020322020302020202020200A2020372020382020312020302020202020200A2020382020392020312020302020202020200A2020332020342020312020302020202020200A2020312020332020312020302020202020200A2031312031322020312020302020202020200A2031302031312020312020302020202020200A2020312031302020312020302020202020200A2020362031332020312020302020202020200A2020372031342020312020302020202020200A4D2020454E44
Contributor: SODA AROMATIC CO., LTD.
InstType: EI
InstName: HITACHI M-80B
IoniMethod: _ENERGY 70 eV
IonPolarity: pos
Date: 2010-10-09 19:48:36+02:00
Num Peaks: 29
15 21 26 10 27 124 29 132 31 62 39 92 41 247 42 26 43 99 44 54 
45 772 46 16 53 30 54 22 55 307 56 21 57 11 67 90 69 22 70 23 
72 18 73 999 74 33 82 54 83 218 84 13 89 24 103 31 127 16 
