Name: L-MENTHYL 2-METHYLBUTYRATE
MW: 240
Formula: C15H28O2
Synonym: MassBank: JP007096
Synonym: L-MENTHYL 2-METHYLBUTYRATE
Synonym: 5-METHYL-2-(1-METHYLETHYL)CYCLOHEXYL 2-METHYLBUTYRATE
Structure: 4C2D4D454E5448594C20322D4D455448594C42555459524154452E6D6F6C0A20204368656D447261773034323331303037303432440A2032302032302020302020302020302020302020302020302020302020303939392056323030300A2020202D312E3037373620202020302E3334393520202020302E303030302043202020302020302020302020302020302020302020302020302020302020302020302020300A2020202D312E373932312020202D302E3036333020202020302E303030302043202020302020302020302020302020302020302020302020302020302020302020302020300A2020202D322E3530363620202020302E3334393520202020302E303030302043202020302020302020302020302020302020302020302020302020302020302020302020300A2020202D322E3530363620202020312E3137343520202020302E303030302043202020302020302020302020302020302020302020302020302020302020302020302020300A2020202D312E3037373620202020312E3137343520202020302E30303030204F202020302020302020302020302020302020302020302020302020302020302020302020300A2020202D302E333633312020202D302E3036333020202020302E30303030204F202020302020302020302020302020302020302020302020302020302020302020302020300A2020202D312E373932312020202D302E3838383020202020302E303030302043202020302020302020302020302020302020302020302020302020302020302020302020300A20202020302E3335313320202020302E3334393520202020302E303030302043202020302020302020302020302020302020302020302020302020302020302020302020300A20202020302E363333352020202D302E3432353720202020302E303030302043202020302020302020302020302020302020302020302020302020302020302020302020300A20202020312E343436302020202D302E3536393020202020302E303030302043202020302020302020302020302020302020302020302020302020302020302020302020300A20202020312E3937363320202020302E3036333020202020302E303030302043202020302020302020302020302020302020302020302020302020302020302020302020300A20202020312E3639343120202020302E3833383220202020302E303030302043202020302020302020302020302020302020302020302020302020302020302020302020300A20202020302E3838313620202020302E3938313520202020302E303030302043202020302020302020302020302020302020302020302020302020302020302020302020300A20202020302E363333352020202D312E3235303720202020302E303030302043202020302020302020302020302020302020302020302020302020302020302020302020300A20202020312E333438302020202D312E3636333220202020302E303030302043202020302020302020302020302020302020302020302020302020302020302020302020300A2020202D302E303831302020202D312E3636333220202020302E303030302043202020302020302020302020302020302020302020302020302020302020302020302020300A20202020312E3639343120202020312E3636333220202020302E303030302043202020302020302020302020302020302020302020302020302020302020302020302020300A2020202D302E313739302020202D302E3536393020202020302E303030302048202020302020302020302020302020302020302020302020302020302020302020302020300A2020202D302E3137393020202020302E3938313520202020302E303030302048202020302020302020302020302020302020302020302020302020302020302020302020300A20202020322E3530363620202020302E3938313520202020302E303030302048202020302020302020302020302020302020302020302020302020302020302020302020300A2020312020322020312020302020202020200A2020322020332020312020302020202020200A2020332020342020312020302020202020200A2020312020352020322020302020202020200A2020312020362020312020302020202020200A2020322020372020312020302020202020200A2020382020392020312020302020202020200A2020392031302020312020302020202020200A2031302031312020312020302020202020200A2031312031322020312020302020202020200A2031322031332020312020302020202020200A2020382031332020312020302020202020200A2031342031352020312020302020202020200A2031342031362020312020302020202020200A2020392031342020312020362020202020200A2031322031372020312020312020202020200A2020382020362020312020312020202020200A2020392031382020312020312020202020200A2020382031392020312020362020202020200A2031322032302020312020362020202020200A4D2020454E44
Contributor: SODA AROMATIC CO., LTD.
InstType: EI
InstName: HITACHI M-80B
IoniMethod: _ENERGY 70 eV
IonPolarity: pos
Date: 2010-10-09 19:48:36+02:00
Num Peaks: 40
27 103 29 220 39 75 41 414 42 28 43 182 53 39 54 39 55 310 56 55 
57 999 58 34 65 12 67 113 68 40 69 215 70 19 71 38 77 14 79 25 
80 28 81 331 82 132 83 484 84 33 85 294 86 14 93 12 94 49 95 512 
96 138 97 91 103 28 109 34 110 22 123 160 124 13 137 21 138 487 139 115 
