Name: ETHYL 4-TERT-BUTYLBENZOATE
MW: 206
Formula: C13H18O2
Synonym: MassBank: JP009593
Synonym: ETHYL 4-TERT-BUTYLBENZOATE
Structure: 455448594C20342D544552542D425554594C42454E5A4F4154452E6D6F6C0A20204368656D447261773038313131303138323032440A2031352031352020302020302020302020302020302020302020302020303939392056323030300A20202020312E323337352020202D302E3330323020202020302E303030302043202020302020302020302020302020302020302020302020302020302020302020302020300A20202020302E343132352020202D302E3330323020202020302E303030302043202020302020302020302020302020302020302020302020302020302020302020302020300A2020202D302E303030302020202D312E3031363420202020302E303030302043202020302020302020302020302020302020302020302020302020302020302020302020300A2020202D302E383235302020202D312E3031363420202020302E303030302043202020302020302020302020302020302020302020302020302020302020302020302020300A2020202D312E323337352020202D302E3330323020202020302E303030302043202020302020302020302020302020302020302020302020302020302020302020302020300A2020202D302E3832353020202020302E3431323520202020302E303030302043202020302020302020302020302020302020302020302020302020302020302020302020300A2020202D302E3030303020202020302E3431323520202020302E303030302043202020302020302020302020302020302020302020302020302020302020302020302020300A20202020312E363530302020202D312E3031363420202020302E30303030204F202020302020302020302020302020302020302020302020302020302020302020302020300A20202020312E3635303020202020302E3431323520202020302E30303030204F202020302020302020302020302020302020302020302020302020302020302020302020300A2020202D322E303632352020202D302E3330323020202020302E303030302043202020302020302020302020302020302020302020302020302020302020302020302020300A2020202D322E303632352020202D312E3132373020202020302E303030302043202020302020302020302020302020302020302020302020302020302020302020302020300A2020202D322E383837352020202D302E3330323020202020302E303030302043202020302020302020302020302020302020302020302020302020302020302020302020300A2020202D322E3036323520202020302E3532333020202020302E303030302043202020302020302020302020302020302020302020302020302020302020302020302020300A20202020322E3437353020202020302E3431323520202020302E303030302043202020302020302020302020302020302020302020302020302020302020302020302020300A20202020322E3838373520202020312E3132373020202020302E303030302043202020302020302020302020302020302020302020302020302020302020302020302020300A2020312020322020312020302020202020200A2020322020332020312020302020202020200A2020332020342020322020302020202020200A2020342020352020312020302020202020200A2020352020362020322020302020202020200A2020362020372020312020302020202020200A2020322020372020322020302020202020200A2020312020382020322020302020202020200A2020312020392020312020302020202020200A2031302031312020312020302020202020200A2031302031332020312020302020202020200A2031302031322020312020302020202020200A2020352031302020312020302020202020200A2031342031352020312020302020202020200A2020392031342020312020302020202020200A4D2020454E44
Contributor: THE INSTITUTE OF SCIENTIFIC AND INDUSTRIALRESEARCH
InstType: EI
InstName: JEOL JMS-DX-300
IoniMethod: _ENERGY 70 eV
IonPolarity: pos
Date: 2010-10-09 19:48:36+02:00
Num Peaks: 59
26 17 27 128 29 348 30 1 31 17 39 94 40 10 41 29 43 16 45 24 
50 35 51 8 52 15 53 21 55 22 57 4 58 13 63 31 64 10 65 6 
72 15 74 11 75 20 76 4 77 128 78 35 79 59 89 4 90 46 91 263 
92 25 93 1 101 10 102 30 103 73 104 2 105 61 107 39 115 115 116 3 
117 91 118 113 119 62 131 2 133 20 135 59 145 59 146 3 147 12 161 159 
162 22 163 14 164 15 178 10 191 999 192 14 193 16 206 222 207 40 
