Name: MassBank: JP007870
MW: 228
Formula: C15H20N2
Synonym: MassBank: JP007870
Synonym: 3-(2-AMINOPROPYL)-2-METHYL-1,7-TRIMETHYLENEINDOLE
Synonym: 1-(2-AMINOPROPYL)-5,6-DIHYDRO-2-METHYL-4H-BENZ(HI)INDOLIZINE
Structure: 2D28322D414D494E4F50524F50594C292D322D4D455448594C2D312C372D5452494D455448594C454E45494E444F4C452E6D6F6C0A20204368656D447261773131313730393136353132440A2031372031392020302020302020302020302020302020302020302020303939392056323030300A2020202D312E313637342020202D302E3635393220202020302E303030302043202020302020302020302020302020302020302020302020302020302020302020302020300A2020202D312E313637342020202D312E3438343220202020302E303030302043202020302020302020302020302020302020302020302020302020302020302020302020300A2020202D302E343533302020202D312E3839363720202020302E303030302043202020302020302020302020302020302020302020302020302020302020302020302020300A20202020302E323631352020202D312E3438343220202020302E303030302043202020302020302020302020302020302020302020302020302020302020302020302020300A20202020302E323631352020202D302E3635393220202020302E303030302043202020302020302020302020302020302020302020302020302020302020302020302020300A2020202D302E343533302020202D302E3234363720202020302E303030302043202020302020302020302020302020302020302020302020302020302020302020302020300A20202020302E393736302020202D312E3839363720202020302E303030302043202020302020302020302020302020302020302020302020302020302020302020302020300A20202020312E363930352020202D312E3438343220202020302E303030302043202020302020302020302020302020302020302020302020302020302020302020302020300A20202020312E363930352020202D302E3635393220202020302E303030302043202020302020302020302020302020302020302020302020302020302020302020302020300A20202020302E393736302020202D302E3234363720202020302E30303030204E202020302020302020302020302020302020302020302020302020302020302020302020300A2020202D302E3034303520202020302E3436373820202020302E303030302043202020302020302020302020302020302020302020302020302020302020302020302020300A20202020302E3536333520202020302E3436373820202020302E303030302043202020302020302020302020302020302020302020302020302020302020302020302020300A2020202D302E3435333020202020312E3138323220202020302E303030302043202020302020302020302020302020302020302020302020302020302020302020302020300A20202020302E3937363020202020312E3138323220202020302E303030302043202020302020302020302020302020302020302020302020302020302020302020302020300A2020202D312E3237383020202020312E3138323220202020302E303030302043202020302020302020302020302020302020302020302020302020302020302020302020300A2020202D312E3639303520202020302E3436373820202020302E30303030204E202020302020302020302020302020302020302020302020302020302020302020302020300A2020202D312E3639303520202020312E3839363720202020302E303030302043202020302020302020302020302020302020302020302020302020302020302020302020300A2020312020322020322020302020202020200A2020322020332020312020302020202020200A2020332020342020322020302020202020200A2020342020352020312020302020202020200A2020352020362020322020302020202020200A2020362020312020312020302020202020200A2020342020372020312020302020202020200A2020372020382020312020302020202020200A2020382020392020312020302020202020200A2020392031302020312020302020202020200A2031302020352020312020302020202020200A2020362031312020312020302020202020200A2031302031322020312020302020202020200A2031322031312020322020302020202020200A2031312031332020312020302020202020200A2031322031342020312020302020202020200A2031332031352020312020302020202020200A2031352031362020312020302020202020200A2031352031372020312020302020202020200A4D2020454E44
Contributor: SASAKI S, TOYOHASHI UNIV. OF TECH.
InstType: EI
InstName: MX-1303
IoniMethod: _ENERGY 50 eV
IonPolarity: pos
Date: 2010-10-09 19:48:36+02:00
Num Peaks: 43
27 10 39 10 41 16 42 1 77 16 91 10 115 38 116 1 117 12 127 17 
128 29 129 2 130 16 132 24 133 18 141 2 142 16 143 14 144 12 154 4 
155 16 156 148 157 28 167 3 168 51 169 19 170 81 171 2 180 37 181 28 
182 78 183 5 184 999 185 710 186 92 196 1 198 21 210 12 211 16 225 1 
226 10 228 56 229 11 
