Name: MassBank: JP001475
MW: 104
Formula: C5H12O2
Synonym: MassBank: JP001475
Synonym: 2,2-DIMETHOXYPROPANE
Structure: 310A31380A322C322D44494D4554484F585950524F50414E452E6D6F6C0A20204368656D447261773132323030393036333532440A2020372020362020302020302020302020302020302020302020302020303939392056323030300A2020202D302E3431323520202020302E3731343520202020302E303030302043202020302020302020302020302020302020302020302020302020302020302020302020300A20202020302E3030303020202020302E3030303020202020302E303030302043202020302020302020302020302020302020302020302020302020302020302020302020300A20202020302E343132352020202D302E3731343520202020302E303030302043202020302020302020302020302020302020302020302020302020302020302020302020300A20202020302E3731343520202020302E3431323520202020302E30303030204F202020302020302020302020302020302020302020302020302020302020302020302020300A20202020312E3432383920202020302E3030303020202020302E303030302043202020302020302020302020302020302020302020302020302020302020302020302020300A2020202D302E373134352020202D302E3431323520202020302E30303030204F202020302020302020302020302020302020302020302020302020302020302020302020300A2020202D312E3432383920202020302E3030303020202020302E303030302043202020302020302020302020302020302020302020302020302020302020302020302020300A2020312020322020312020302020202020200A2020322020332020312020302020202020200A2020342020352020312020302020202020200A2020322020342020312020312020202020200A2020362020372020312020302020202020200A2020322020362020312020312020202020200A4D2020454E44
Contributor: YAMAMOTO M, DEP. CHEMISTRY, FAC. SCIENCE, NARA WOMEN'S UNIV.
InstType: EI
InstName: HITACHI RMU-6M
IoniMethod: _ENERGY 70 eV
IonPolarity: pos
Date: 2010-10-09 19:48:36+02:00
Num Peaks: 24
14 12 15 103 26 10 27 58 28 12 29 72 31 45 32 11 33 14 39 61 
40 17 41 125 42 82 43 424 44 12 45 77 47 44 55 30 57 24 72 34 
73 999 74 48 89 250 90 12 
