Name: ISO-BUTANE
CAS: 75-28-5
MW: 58
Formula: C4H10
Synonym: MassBank: JP001573
Synonym: ISO-BUTANE
Synonym: 2-METHYL-PROPANE
Structure: 310A31320A49534F2D425554414E452E6D6F6C0A20204368656D447261773031323231303037333132440A2020342020332020302020302020302020302020302020302020302020303939392056323030300A20202020302E3631383820202020302E3731343520202020302E303030302043202020302020302020302020302020302020302020302020302020302020302020302020300A20202020302E323036322020202D302E3030303020202020302E303030302043202020302020302020302020302020302020302020302020302020302020302020302020300A20202020302E363138382020202D302E3731343520202020302E303030302043202020302020302020302020302020302020302020302020302020302020302020302020300A2020202D302E363138382020202D302E3030303020202020302E303030302043202020302020302020302020302020302020302020302020302020302020302020302020300A2020312020322020312020302020202020200A2020322020332020312020302020202020200A2020322020342020312020302020202020200A4D2020454E44
Contributor: MASS SPECTROSCOPY SOC. OF JAPAN (MSSJ)
InstType: EI
InstName: HITACHI RMU-5B
IoniMethod: _ENERGY 80 eV
IonPolarity: pos
Date: 2010-10-09 19:48:36+02:00
Num Peaks: 19
14 12 15 69 26 27 27 256 28 33 29 57 37 23 38 41 39 227 40 34 
41 419 42 349 43 999 44 33 50 14 51 10 57 33 58 39 59 2 
