Name: THUJONE
MW: 152
Formula: C10H16O
Synonym: MassBank: JP006608
Synonym: THUJONE
Synonym: 4-METHYL-1ALPHA-(1-METHYLETHYL)BICYCLO(3.1.0)HEXAN-3-ONE
Structure: 5448554A4F4E452E6D6F6C0A20204368656D447261773034323131303031303732440A2031332031342020302020302020302020302020302020302020302020303939392056323030300A2020202D302E3939343020202020302E3338303520202020302E303030302043202020302020302020302020302020302020302020302020302020302020302020302020300A2020202D302E3234303420202020302E3731363120202020302E303030302043202020302020302020302020302020302020302020302020302020302020302020302020300A20202020302E3331313720202020302E3130333020202020302E303030302043202020302020302020302020302020302020302020302020302020302020302020302020300A20202020302E3937393120202020302E3538373920202020302E303030302043202020302020302020302020302020302020302020302020302020302020302020302020300A20202020312E3733323820202020302E3235323320202020302E303030302043202020302020302020302020302020302020302020302020302020302020302020302020300A20202020302E3839323920202020312E3430383420202020302E303030302043202020302020302020302020302020302020302020302020302020302020302020302020300A20202020302E373234322020202D302E3631313520202020302E303030302043202020302020302020302020302020302020302020302020302020302020302020302020300A2020202D302E313030382020202D302E3631313520202020302E303030302043202020302020302020302020302020302020302020302020302020302020302020302020300A2020202D302E393037382020202D302E3434303020202020302E303030302043202020302020302020302020302020302020302020302020302020302020302020302020300A2020202D312E353230392020202D302E3939323020202020302E303030302043202020302020302020302020302020302020302020302020302020302020302020302020300A2020202D312E3730383520202020302E3739333020202020302E30303030204F202020302020302020302020302020302020302020302020302020302020302020302020300A2020202D312E373332382020202D302E3434303020202020302E303030302048202020302020302020302020302020302020302020302020302020302020302020302020300A20202020302E313132372020202D312E3430383420202020302E303030302048202020302020302020302020302020302020302020302020302020302020302020302020300A2020312020322020312020302020202020200A2020322020332020312020302020202020200A2020332020342020312020312020202020200A2020342020352020312020302020202020200A2020342020362020312020302020202020200A2020332020372020312020302020202020200A2020372020382020312020302020202020200A2020332020382020312020302020202020200A2020382020392020312020302020202020200A2020312020392020312020302020202020200A2020392031302020312020312020202020200A2020312031312020322020302020202020200A2020392031322020312020362020202020200A2020382031332020312020312020202020200A4D2020454E44
Contributor: HISAHIRO HAGIWARA, CHEMICAL RESEARCH INSTITUTE OF NON-AQUEOUSSOLUTIONS TOHOKU UNIV.
InstType: EI
InstName: HITACHI M-80B
IoniMethod: _ENERGY 70 eV
IonPolarity: pos
Date: 2010-10-09 19:48:36+02:00
Num Peaks: 44
15 24 26 17 27 382 28 85 29 199 38 17 39 449 40 50 41 782 42 50 
43 163 50 30 51 86 52 45 53 292 54 70 55 383 56 57 63 18 65 67 
66 43 67 536 68 674 69 591 70 92 77 97 78 19 79 145 80 80 81 999 
82 252 83 29 91 43 93 39 94 15 95 448 96 42 97 14 107 13 109 492 
110 668 111 52 124 58 152 65 
