Name: 6-METHOXY-4-CHLOROQUINALIDINE
MW: 207
Formula: C11H10ClNO
Synonym: MassBank: JP009531
Synonym: 6-METHOXY-4-CHLOROQUINALIDINE
Structure: 362D4D4554484F58592D342D43484C4F524F5155494E414C4944494E452E6D6F6C0A20204368656D447261773035313731303139303832440A2031342031352020302020302020302020302020302020302020302020303939392056323030300A2020202D312E3432383920202020302E3832353020202020302E303030302043202020302020302020302020302020302020302020302020302020302020302020302020300A2020202D312E3432383920202020302E3030303020202020302E303030302043202020302020302020302020302020302020302020302020302020302020302020302020300A2020202D302E373134352020202D302E3431323520202020302E303030302043202020302020302020302020302020302020302020302020302020302020302020302020300A20202020302E3030303020202020302E3030303020202020302E303030302043202020302020302020302020302020302020302020302020302020302020302020302020300A20202020302E3030303020202020302E3832353020202020302E303030302043202020302020302020302020302020302020302020302020302020302020302020302020300A2020202D302E3731343520202020312E3233373520202020302E303030302043202020302020302020302020302020302020302020302020302020302020302020302020300A20202020302E373134352020202D302E3431323520202020302E303030302043202020302020302020302020302020302020302020302020302020302020302020302020300A20202020312E3432383920202020302E3030303020202020302E303030302043202020302020302020302020302020302020302020302020302020302020302020302020300A20202020312E3432383920202020302E3832353020202020302E303030302043202020302020302020302020302020302020302020302020302020302020302020302020300A20202020302E3731343520202020312E3233373520202020302E30303030204E202020302020302020302020302020302020302020302020302020302020302020302020300A20202020302E373134352020202D312E3233373520202020302E3030303020436C2020302020302020302020302020302020302020302020302020302020302020302020300A2020202D322E313433342020202D302E3431323520202020302E30303030204F202020302020302020302020302020302020302020302020302020302020302020302020300A2020202D322E313433342020202D312E3233373520202020302E303030302043202020302020302020302020302020302020302020302020302020302020302020302020300A20202020322E3134333420202020312E3233373520202020302E303030302043202020302020302020302020302020302020302020302020302020302020302020302020300A2020312020322020322020302020202020200A2020322020332020312020302020202020200A2020332020342020322020302020202020200A2020342020352020312020302020202020200A2020352020362020322020302020202020200A2020362020312020312020302020202020200A2020342020372020312020302020202020200A2020372020382020322020302020202020200A2020382020392020312020302020202020200A2020392031302020322020302020202020200A2031302020352020312020302020202020200A2020372031312020312020302020202020200A2020322031322020312020302020202020200A2031322031332020312020302020202020200A2020392031342020312020302020202020200A4D2020454E44
Contributor: NARA WOMEN'S UNIVERSITY
InstType: EI
InstName: HITACHI M-80
IoniMethod: _ENERGY 70 eV
IonPolarity: pos
Date: 2010-10-09 19:48:36+02:00
Num Peaks: 61
15 55 18 11 38 10 39 18 50 35 51 55 52 24 61 12 62 66 63 43 
64 10 73 13 74 45 75 71 76 31 77 69 78 25 80 11 86 19 87 44 
88 60 89 18 98 13 99 31 100 25 101 124 102 145 103 29 113 19 114 32 
115 19 116 49 123 10 127 28 128 164 129 106 130 13 135 13 137 59 138 12 
139 21 140 45 141 19 142 19 163 14 164 626 165 69 166 203 167 21 172 40 
177 43 178 23 179 17 192 351 193 48 194 115 195 15 207 999 208 135 209 328 
210 43 
