Name: MassBank: JP005142
MW: 358
Formula: C20H22O6
Synonym: MassBank: JP005142
Synonym: DIMETHYL 2-BENZYL-2-(3,4-DIMETHOXYPHENYL)MALONATE
Structure: 44494D455448594C20322D42454E5A594C2D322D28332C342D44494D4554484F58595048454E594C294D414C4F4E4154452E6D6F6C0A20204368656D447261773130313831303136353632440A2032362032372020302020302020302020302020302020302020302020303939392056323030300A2020202D312E323136392020202D312E3233373520202020302E303030302043202020302020302020302020302020302020302020302020302020302020302020302020300A2020202D302E333931392020202D312E3233373520202020302E303030302043202020302020302020302020302020302020302020302020302020302020302020302020300A2020202D302E333931392020202D322E3036323520202020302E303030302043202020302020302020302020302020302020302020302020302020302020302020302020300A2020202D312E363239342020202D302E3532333020202020302E30303030204F202020302020302020302020302020302020302020302020302020302020302020302020300A2020202D312E363239342020202D312E3935323020202020302E30303030204F202020302020302020302020302020302020302020302020302020302020302020302020300A2020202D312E313036332020202D322E3437353020202020302E30303030204F202020302020302020302020302020302020302020302020302020302020302020302020300A20202020302E333232362020202D322E3437353020202020302E30303030204F202020302020302020302020302020302020302020302020302020302020302020302020300A2020202D302E333931392020202D302E3431323520202020302E303030302043202020302020302020302020302020302020302020302020302020302020302020302020300A2020202D312E3130363320202020302E3030303020202020302E303030302043202020302020302020302020302020302020302020302020302020302020302020302020300A2020202D312E3130363320202020302E3832353020202020302E303030302043202020302020302020302020302020302020302020302020302020302020302020302020300A2020202D302E3339313920202020312E3233373520202020302E303030302043202020302020302020302020302020302020302020302020302020302020302020302020300A20202020302E3332323620202020302E3832353020202020302E303030302043202020302020302020302020302020302020302020302020302020302020302020302020300A20202020302E333232362020202D302E3030303020202020302E303030302043202020302020302020302020302020302020302020302020302020302020302020302020300A2020202D302E3339313920202020322E3036323520202020302E30303030204F202020302020302020302020302020302020302020302020302020302020302020302020300A2020202D312E3130363320202020322E3437353020202020302E303030302043202020302020302020302020302020302020302020302020302020302020302020302020300A2020202D312E3832303820202020312E3233373520202020302E30303030204F202020302020302020302020302020302020302020302020302020302020302020302020300A2020202D312E3832303820202020322E3036323520202020302E303030302043202020302020302020302020302020302020302020302020302020302020302020302020300A20202020302E363830362020202D312E3233373520202020302E303030302043202020302020302020302020302020302020302020302020302020302020302020302020300A20202020312E323136392020202D302E3330383720202020302E303030302043202020302020302020302020302020302020302020302020302020302020302020302020300A20202020302E3830343420202020302E3430353820202020302E303030302043202020302020302020302020302020302020302020302020302020302020302020302020300A20202020312E3231363920202020312E3132303320202020302E303030302043202020302020302020302020302020302020302020302020302020302020302020302020300A20202020322E3034313920202020312E3132303320202020302E303030302043202020302020302020302020302020302020302020302020302020302020302020302020300A20202020322E3435343420202020302E3430353820202020302E303030302043202020302020302020302020302020302020302020302020302020302020302020302020300A20202020322E303431392020202D302E3330383720202020302E303030302043202020302020302020302020302020302020302020302020302020302020302020302020300A2020202D322E343534342020202D312E3935323020202020302E303030302043202020302020302020302020302020302020302020302020302020302020302020302020300A20202020312E303337312020202D322E3036323520202020302E303030302043202020302020302020302020302020302020302020302020302020302020302020302020300A2020312020322020312020302020202020200A2020322020332020312020302020202020200A2020312020342020322020302020202020200A2020312020352020312020302020202020200A2020332020362020322020302020202020200A2020332020372020312020302020202020200A2020382020392020312020302020202020200A2020392031302020322020302020202020200A2031302031312020312020302020202020200A2031312031322020322020302020202020200A2031322031332020312020302020202020200A2020382031332020322020302020202020200A2031342031352020312020302020202020200A2031312031342020312020302020202020200A2031362031372020312020302020202020200A2031302031362020312020302020202020200A2020322020382020312020302020202020200A2031382031392020312020302020202020200A2031392032302020312020302020202020200A2032302032312020322020302020202020200A2032312032322020312020302020202020200A2032322032332020322020302020202020200A2032332032342020312020302020202020200A2031392032342020322020302020202020200A2020322031382020312020302020202020200A2020352032352020312020302020202020200A2020372032362020312020302020202020200A4D2020454E44
Contributor: HAYASHI A, FAC. OF SCIENCE AND TECHNOLOGY, KINKI UNIV.
InstType: EI
InstName: JEOL JMS-HX-100
IoniMethod: _ENERGY 70 eV
IonPolarity: pos
Date: 2010-10-09 19:48:36+02:00
Num Peaks: 81
39 9 43 7 45 22 51 11 59 21 63 9 65 20 75 6 76 14 77 20 
78 6 79 6 89 9 91 109 92 10 102 6 103 7 104 6 105 10 107 5 
115 10 119 16 120 7 121 48 122 9 127 6 128 7 133 19 134 7 135 5 
137 6 139 8 141 6 151 22 152 29 153 23 154 10 163 13 164 8 165 109 
166 23 176 5 177 8 178 20 179 17 181 82 182 12 193 22 194 9 195 7 
196 8 205 8 207 17 208 27 209 20 211 15 220 78 221 28 222 6 223 5 
224 8 225 7 235 54 236 29 237 13 239 200 240 39 241 8 252 8 265 5 
267 999 268 159 269 26 271 20 294 14 298 6 299 62 300 14 358 359 359 83 
360 14 
