Name: ISOBORNYL PROPIONATE
MW: 210
Formula: C13H22O2
Synonym: MassBank: JP006910
Synonym: ISOBORNYL PROPIONATE
Synonym: EXO-1,7,7-TRIMETHYLBICYCLO(2.2.1)HEPT-2-YLPROPIONATE
Structure: 303332365F49534F424F524E594C2050524F50494F4E4154452E6D6F6C0A20204368656D447261773130313931303230303732440A2031352031362020302020302020302020302020302020302020302020303939392056323030300A20202020312E303737392020202D302E3330323520202020302E303030302043202020302020302020302020302020302020302020302020302020302020302020302020300A20202020312E383734382020202D302E3038393020202020302E303030302043202020302020302020302020302020302020302020302020302020302020302020302020300A20202020322E3038383320202020302E3730373920202020302E303030302043202020302020302020302020302020302020302020302020302020302020302020302020300A20202020302E383634332020202D312E3039393420202020302E30303030204F202020302020302020302020302020302020302020302020302020302020302020302020300A20202020302E3439343520202020302E3238303920202020302E30303030204F202020302020302020302020302020302020302020302020302020302020302020302020300A2020202D302E3534333720202020302E3030333320202020302E303030302043202020302020302020302020302020302020302020302020302020302020302020302020300A2020202D302E353433372020202D302E3830313120202020302E303030302043202020302020302020302020302020302020302020302020302020302020302020302020300A2020202D312E333037342020202D312E3036303320202020302E303030302043202020302020302020302020302020302020302020302020302020302020302020302020300A2020202D322E303838332020202D302E3830313020202020302E303030302043202020302020302020302020302020302020302020302020302020302020302020302020300A2020202D322E3038383320202020302E3032343020202020302E303030302043202020302020302020302020302020302020302020302020302020302020302020302020300A2020202D312E3239323720202020302E3237343520202020302E303030302043202020302020302020302020302020302020302020302020302020302020302020302020300A2020202D302E383332362020202D302E3338323220202020302E303030302043202020302020302020302020302020302020302020302020302020302020302020302020300A2020202D302E313831302020202D302E3838383320202020302E303030302043202020302020302020302020302020302020302020302020302020302020302020302020300A2020202D302E303235352020202D302E3231313120202020302E303030302043202020302020302020302020302020302020302020302020302020302020302020302020300A2020202D312E3239323720202020312E3039393420202020302E303030302043202020302020302020302020302020302020302020302020302020302020302020302020300A2020312020322020312020302020202020200A2020322020332020312020302020202020200A2020312020342020322020302020202020200A2020312020352020312020302020202020200A2020362020372020312020302020202020200A2020372020382020312020302020202020200A2020382020392020312020302020202020200A2020392031302020312020302020202020200A2031302031312020312020302020202020200A2020362031312020312020302020202020200A2031312031322020312020312020202020200A2020382031322020312020312020202020200A2031322031332020312020302020202020200A2031322031342020312020302020202020200A2031312031352020312020302020202020200A2020352020362020312020302020202020200A4D2020454E44
Contributor: TAJIMA S, GUNMA COLLEGE OF TECHNOLOGY
InstType: EI
InstName: HITACHI M-80B
IoniMethod: _ENERGY 70 eV
IonPolarity: pos
Date: 2010-10-09 19:48:36+02:00
Num Peaks: 56
27 115 28 11 29 401 39 81 40 15 41 296 42 19 43 139 51 14 53 85 
54 13 55 183 56 18 57 950 58 28 65 23 66 13 67 140 68 53 69 193 
70 16 71 32 72 34 77 67 78 12 79 101 80 89 81 139 82 118 83 83 
84 28 91 61 92 119 93 433 94 75 95 999 96 82 97 25 105 23 107 102 
108 347 109 268 110 231 111 68 121 476 122 40 123 20 135 26 136 762 137 155 
138 13 139 33 153 19 154 132 155 14 210 19 
