Name: MassBank: JP004760
CAS: 583-05-1
MW: 176
Formula: C11H12O2
Synonym: MassBank: JP004760
Synonym: 1-PHENYL-1,4-PENTANEDIONE
Structure: 312D5048454E594C2D312C342D50454E54414E4544494F4E452E6D6F6C0A20204368656D447261773131323230393232303832440A2031332031332020302020302020302020302020302020302020302020303939392056323030300A20202020302E3335373220202020302E3431323520202020302E303030302043202020302020302020302020302020302020302020302020302020302020302020302020300A2020202D302E3335373220202020302E3030303020202020302E303030302043202020302020302020302020302020302020302020302020302020302020302020302020300A2020202D312E3037313720202020302E3431323520202020302E303030302043202020302020302020302020302020302020302020302020302020302020302020302020300A2020202D312E3738363220202020302E3030303020202020302E303030302043202020302020302020302020302020302020302020302020302020302020302020302020300A2020202D322E3530303620202020302E3431323520202020302E303030302043202020302020302020302020302020302020302020302020302020302020302020302020300A20202020302E3335373220202020312E3233373520202020302E30303030204F202020302020302020302020302020302020302020302020302020302020302020302020300A2020202D312E373836322020202D302E3832353020202020302E30303030204F202020302020302020302020302020302020302020302020302020302020302020302020300A20202020312E3037313720202020302E3030303020202020302E303030302043202020302020302020302020302020302020302020302020302020302020302020302020300A20202020312E3738363220202020302E3431323520202020302E303030302043202020302020302020302020302020302020302020302020302020302020302020302020300A20202020322E3530303620202020302E3030303020202020302E303030302043202020302020302020302020302020302020302020302020302020302020302020302020300A20202020322E353030362020202D302E3832353020202020302E303030302043202020302020302020302020302020302020302020302020302020302020302020302020300A20202020312E373836322020202D312E3233373520202020302E303030302043202020302020302020302020302020302020302020302020302020302020302020302020300A20202020312E303731372020202D302E3832353020202020302E303030302043202020302020302020302020302020302020302020302020302020302020302020302020300A2020312020322020312020302020202020200A2020322020332020312020302020202020200A2020332020342020312020302020202020200A2020342020352020312020302020202020200A2020312020362020322020302020202020200A2020342020372020322020302020202020200A2020382020392020312020302020202020200A2020392031302020322020302020202020200A2031302031312020312020302020202020200A2031312031322020322020302020202020200A2031322031332020312020302020202020200A2020382031332020322020302020202020200A2020312020382020312020302020202020200A4D2020454E44
Contributor: MASS SPECTROSCOPY SOC. OF JAPAN (MSSJ)
InstType: EI
InstName: JEOL JMS-D-3000
IoniMethod: _ENERGY 70 eV
IonPolarity: pos
Date: 2010-10-09 19:48:36+02:00
Num Peaks: 25
43 180 50 33 51 125 55 28 63 14 76 18 77 380 78 34 79 20 105 999 
106 78 115 86 116 13 128 20 129 26 131 17 133 88 134 40 157 91 158 203 
159 38 161 142 162 15 174 15 176 51 
