Name: ISOBUTYL ACRYLATE
MW: 128
Formula: C7H12O2
Synonym: MassBank: JP004266
Synonym: ISOBUTYL ACRYLATE
Synonym: PROPENOIC ACID ISOBUTYL ESTER
Structure: 310A32320A50524F50454E4F494320414349442049534F425554594C2045535445522E6D6F6C0A20204368656D447261773038313231303036303332440A2020392020382020302020302020302020302020302020302020302020303939392056323030300A2020202D312E3037313720202020302E3230363220202020302E303030302043202020302020302020302020302020302020302020302020302020302020302020302020300A2020202D312E373836322020202D302E3230363320202020302E303030302043202020302020302020302020302020302020302020302020302020302020302020302020300A2020202D312E373836322020202D312E3033313320202020302E303030302043202020302020302020302020302020302020302020302020302020302020302020302020300A2020202D312E3037313720202020312E3033313320202020302E30303030204F202020302020302020302020302020302020302020302020302020302020302020302020300A2020202D302E333537322020202D302E3230363220202020302E30303030204F202020302020302020302020302020302020302020302020302020302020302020302020300A20202020302E3335373220202020302E3230363220202020302E303030302043202020302020302020302020302020302020302020302020302020302020302020302020300A20202020312E303731372020202D302E3230363220202020302E303030302043202020302020302020302020302020302020302020302020302020302020302020302020300A20202020312E3738363220202020302E3230363220202020302E303030302043202020302020302020302020302020302020302020302020302020302020302020302020300A20202020312E303731372020202D312E3033313320202020302E303030302043202020302020302020302020302020302020302020302020302020302020302020302020300A2020312020322020312020302020202020200A2020322020332020322020302020202020200A2020312020342020322020302020202020200A2020312020352020312020302020202020200A2020362020372020312020302020202020200A2020372020382020312020302020202020200A2020372020392020312020302020202020200A2020352020362020312020302020202020200A4D2020454E44
Contributor: TAJIMA S, GUNMA COLLEGE OF TECHNOLOGY
InstType: EI
InstName: HITACHI RMU-7M
IoniMethod: _ENERGY 70 eV
IonPolarity: pos
Date: 2010-10-09 19:48:36+02:00
Num Peaks: 19
26 27 27 175 28 38 29 59 31 12 39 56 40 12 41 184 42 18 43 43 
44 15 55 999 56 512 57 49 69 22 70 20 72 22 73 94 85 86 
