Name: METHAPYRILENE
MW: 261
Formula: C14H19N3S
Synonym: MassBank: JP003865
Synonym: METHAPYRILENE
Synonym: N,N-DIMETHYL-N'-(2-PYRIDYL)-N'-(2-THIENYL)METHYL-1,2-ETHANEDIAMINE
Structure: 303732325F4D45544841505952494C454E452E6D6F6C0A20204368656D447261773039303631303139353832440A2031382031392020302020302020302020302020302020302020302020303939392056323030300A20202020312E333030342020202D302E3331323020202020302E303030302043202020302020302020302020302020302020302020302020302020302020302020302020300A20202020322E313235332020202D302E3331323020202020302E30303030204E202020302020302020302020302020302020302020302020302020302020302020302020300A2020202D302E3433323120202020302E3231363820202020302E30303030204E202020302020302020302020302020302020302020302020302020302020302020302020300A2020202D312E353435382020202D312E3035343520202020302E303030302043202020302020302020302020302020302020302020302020302020302020302020302020300A2020202D312E323130332020202D312E3830383220202020302E303030302043202020302020302020302020302020302020302020302020302020302020302020302020300A2020202D312E383233332020202D322E3336303220202020302E303030302043202020302020302020302020302020302020302020302020302020302020302020302020300A2020202D322E353337382020202D312E3934373720202020302E303030302043202020302020302020302020302020302020302020302020302020302020302020302020300A2020202D322E333636332020202D312E3134303720202020302E303030302053202020302020302020302020302020302020302020302020302020302020302020302020300A2020202D302E3834343620202020302E3933313320202020302E303030302043202020302020302020302020302020302020302020302020302020302020302020302020300A2020202D312E3636393620202020302E3933313320202020302E303030302043202020302020302020302020302020302020302020302020302020302020302020302020300A2020202D322E3038323120202020312E3634353720202020302E303030302043202020302020302020302020302020302020302020302020302020302020302020302020300A2020202D312E3636393620202020322E3336303220202020302E303030302043202020302020302020302020302020302020302020302020302020302020302020302020300A2020202D302E3834343620202020322E3336303220202020302E303030302043202020302020302020302020302020302020302020302020302020302020302020302020300A2020202D302E3433323120202020312E3634353720202020302E30303030204E202020302020302020302020302020302020302020302020302020302020302020302020300A20202020322E353337382020202D312E3032363520202020302E303030302043202020302020302020302020302020302020302020302020302020302020302020302020300A20202020322E3533373820202020302E3430323520202020302E303030302043202020302020302020302020302020302020302020302020302020302020302020302020300A2020202D312E313333332020202D302E3334303020202020302E303030302043202020302020302020302020302020302020302020302020302020302020302020302020300A20202020302E3434353120202020302E3233313920202020302E303030302043202020302020302020302020302020302020302020302020302020302020302020302020300A2020312020322020312020302020202020200A2020342020352020322020302020202020200A2020352020362020312020302020202020200A2020362020372020322020302020202020200A2020372020382020312020302020202020200A2020342020382020312020302020202020200A2020392031302020312020302020202020200A2031302031312020322020302020202020200A2031312031322020312020302020202020200A2031322031332020322020302020202020200A2031332031342020312020302020202020200A2020392031342020322020302020202020200A2020332020392020312020302020202020200A2020322031352020312020302020202020200A2020322031362020312020302020202020200A2020342031372020312020302020202020200A2031372020332020312020302020202020200A2020332031382020312020302020202020200A2031382020312020312020302020202020200A4D2020454E44
Contributor: SASAKI S, TOYOHASHI UNIV. OF TECH.
InstType: EI
InstName: Unknown
IoniMethod: _ENERGY 70 eV
IonPolarity: pos
Date: 2010-10-09 19:48:36+02:00
Num Peaks: 101
38 9 39 24 40 14 41 2 42 59 43 24 44 29 45 4 46 9 50 9 
51 19 52 3 53 29 54 14 55 24 56 3 57 24 58 999 59 49 60 1 
64 4 65 14 66 9 67 1 68 4 69 14 70 19 71 18 72 284 73 19 
74 4 75 1 76 9 77 4 78 64 79 9 80 14 81 4 82 14 83 2 
84 239 85 34 89 9 90 1 91 44 92 9 93 12 95 1 96 9 97 714 
98 74 99 4 100 4 103 9 104 4 105 2 106 24 107 29 108 4 109 0 
117 9 118 14 119 39 120 1 121 14 147 4 148 4 149 2 150 29 151 9 
152 4 155 1 156 4 157 19 158 4 187 0 188 9 189 39 190 119 191 15 
192 19 193 9 194 4 201 1 202 9 203 69 204 14 205 1 206 4 215 4 
216 9 217 1 218 4 219 4 260 9 261 11 262 19 263 9 264 4 266 0 
267 14 
