Name: 3-PHENYLPYRAZOLE
MW: 144
Formula: C9H8N2
Synonym: MassBank: JP002018
Synonym: 3-PHENYLPYRAZOLE
Structure: 332D5048454E594C505952415A4F4C452E6D6F6C0A20204368656D447261773033323331303136313532440A2031312031322020302020302020302020302020302020302020302020303939392056323030300A20202020312E383732332020202D302E3431323520202020302E30303030204E202020302020302020302020302020302020302020302020302020302020302020302020300A20202020312E303837372020202D302E3636373420202020302E30303030204E202020302020302020302020302020302020302020302020302020302020302020302020300A20202020302E3630323720202020302E3030303020202020302E303030302043202020302020302020302020302020302020302020302020302020302020302020302020300A20202020312E3038373720202020302E3636373420202020302E303030302043202020302020302020302020302020302020302020302020302020302020302020302020300A20202020312E3837323320202020302E3431323520202020302E303030302043202020302020302020302020302020302020302020302020302020302020302020302020300A2020202D302E3232323320202020302E3030303020202020302E303030302043202020302020302020302020302020302020302020302020302020302020302020302020300A2020202D302E363334382020202D302E3731343520202020302E303030302043202020302020302020302020302020302020302020302020302020302020302020302020300A2020202D312E343539382020202D302E3731343520202020302E303030302043202020302020302020302020302020302020302020302020302020302020302020302020300A2020202D312E3837323320202020302E3030303020202020302E303030302043202020302020302020302020302020302020302020302020302020302020302020302020300A2020202D312E3435393820202020302E3731343520202020302E303030302043202020302020302020302020302020302020302020302020302020302020302020302020300A2020202D302E3633343820202020302E3731343520202020302E303030302043202020302020302020302020302020302020302020302020302020302020302020302020300A2020312020322020312020302020202020200A2020322020332020322020302020202020200A2020332020342020312020302020202020200A2020342020352020322020302020202020200A2020312020352020312020302020202020200A2020362020372020312020302020202020200A2020372020382020322020302020202020200A2020382020392020312020302020202020200A2020392031302020322020302020202020200A2031302031312020312020302020202020200A2020362031312020322020302020202020200A2020332020362020312020302020202020200A4D2020454E44
Contributor: SASAKI S, TOYOHASHI UNIV. OF TECH.
InstType: EI
InstName: MX-1303
IoniMethod: _ENERGY 50 eV
IonPolarity: pos
Date: 2010-10-09 19:48:36+02:00
Num Peaks: 38
27 18 28 42 38 13 39 6 40 22 41 23 50 50 51 11 52 20 61 11 
62 33 63 9 64 21 65 31 72 39 74 2 75 24 76 28 77 173 78 2 
86 10 87 16 88 17 89 11 90 109 91 17 102 12 103 1 104 32 113 12 
114 17 115 22 116 71 117 134 118 22 143 12 144 999 145 109 
