Name: MassBank: JP003472
MW: 469
Formula: C22H43N3O4Si2
Synonym: MassBank: JP003472
Synonym: 2-(2,3-DITRIMETHYLSILYLOXYBUTOXY)-N-(2-(DIETHYLAMINO)ETHYL)-3-PYRIDINECARBOXAMIDE
Structure: 322D28322C332D44495452494D455448594C53494C594C4F58594255544F5859292D4E2D28322D284449455448594C414D494E4F29455448594C292D332D5059524944494E45434152424F58414D4944452E6D6F6C0A20204368656D447261773132323130393036303332440A2033312033312020302020302020302020302020302020302020302020303939392056323030300A2020202D312E343939302020202D312E3432383920202020302E303030302043202020302020302020302020302020302020302020302020302020302020302020302020300A2020202D312E303836352020202D322E3134333420202020302E303030302043202020302020302020302020302020302020302020302020302020302020302020302020300A2020202D312E343939302020202D322E3835373920202020302E303030302043202020302020302020302020302020302020302020302020302020302020302020302020300A2020202D322E333234302020202D322E3835373920202020302E303030302043202020302020302020302020302020302020302020302020302020302020302020302020300A2020202D322E373336352020202D322E3134333420202020302E303030302043202020302020302020302020302020302020302020302020302020302020302020302020300A2020202D322E333234302020202D312E3432383920202020302E30303030204E202020302020302020302020302020302020302020302020302020302020302020302020300A2020202D302E323631352020202D322E3134333420202020302E303030302043202020302020302020302020302020302020302020302020302020302020302020302020300A20202020302E313531302020202D322E3835373920202020302E30303030204F202020302020302020302020302020302020302020302020302020302020302020302020300A20202020302E313531302020202D312E3432383920202020302E30303030204E202020302020302020302020302020302020302020302020302020302020302020302020300A20202020302E393736302020202D312E3432383920202020302E303030302043202020302020302020302020302020302020302020302020302020302020302020302020300A20202020312E333838352020202D302E3731343520202020302E303030302043202020302020302020302020302020302020302020302020302020302020302020302020300A20202020322E323133352020202D302E3731343520202020302E30303030204E202020302020302020302020302020302020302020302020302020302020302020302020300A20202020322E3632363020202020302E3030303020202020302E303030302043202020302020302020302020302020302020302020302020302020302020302020302020300A20202020322E3231333520202020302E3731343520202020302E303030302043202020302020302020302020302020302020302020302020302020302020302020302020300A20202020322E363236302020202D312E3432383920202020302E303030302043202020302020302020302020302020302020302020302020302020302020302020302020300A20202020332E343531302020202D312E3432383920202020302E303030302043202020302020302020302020302020302020302020302020302020302020302020302020300A2020202D312E303836352020202D302E3731343520202020302E30303030204F202020302020302020302020302020302020302020302020302020302020302020302020300A2020202D312E3439393020202020302E3030303020202020302E303030302043202020302020302020302020302020302020302020302020302020302020302020302020300A2020202D312E3038363520202020302E3731343520202020302E303030302043202020302020302020302020302020302020302020302020302020302020302020302020300A2020202D312E3439393020202020312E3432383920202020302E303030302043202020302020302020302020302020302020302020302020302020302020302020302020300A2020202D312E3038363520202020322E3134333420202020302E303030302043202020302020302020302020302020302020302020302020302020302020302020302020300A2020202D322E3332343020202020312E3432383920202020302E30303030204F202020302020302020302020302020302020302020302020302020302020302020302020300A2020202D322E3733363520202020322E3134333420202020302E303030302053692020302020302020302020302020302020302020302020302020302020302020302020300A2020202D332E3134393020202020322E3835373920202020302E303030302043202020302020302020302020302020302020302020302020302020302020302020302020300A2020202D322E3032323020202020322E3535353920202020302E303030302043202020302020302020302020302020302020302020302020302020302020302020302020300A2020202D332E3435313020202020312E3733303920202020302E303030302043202020302020302020302020302020302020302020302020302020302020302020302020300A2020202D302E3236313520202020302E3731343520202020302E30303030204F202020302020302020302020302020302020302020302020302020302020302020302020300A20202020302E3135313020202020312E3432383920202020302E303030302053692020302020302020302020302020302020302020302020302020302020302020302020300A2020202D302E3536333520202020312E3834313420202020302E303030302043202020302020302020302020302020302020302020302020302020302020302020302020300A20202020302E3536333520202020322E3134333420202020302E303030302043202020302020302020302020302020302020302020302020302020302020302020302020300A20202020302E3836353520202020312E3031363420202020302E303030302043202020302020302020302020302020302020302020302020302020302020302020302020300A2020312020322020312020302020202020200A2020322020332020322020302020202020200A2020332020342020312020302020202020200A2020342020352020322020302020202020200A2020352020362020312020302020202020200A2020312020362020322020302020202020200A2020372020382020322020302020202020200A2020372020392020312020302020202020200A2020322020372020312020302020202020200A2031302031312020312020302020202020200A2031332031342020312020302020202020200A2031322031332020312020302020202020200A2031352031362020312020302020202020200A2031322031352020312020302020202020200A2031312031322020312020302020202020200A2020392031302020312020302020202020200A2031382031392020312020302020202020200A2031392032302020312020302020202020200A2032302032312020312020302020202020200A2031372031382020312020302020202020200A2032332032342020312020302020202020200A2032332032352020312020312020202020200A2032332032362020312020312020202020200A2032322032332020312020302020202020200A2032302032322020312020302020202020200A2032382032392020312020302020202020200A2032382033302020312020302020202020200A2032382033312020312020302020202020200A2032372032382020312020302020202020200A2031392032372020312020302020202020200A2020312031372020312020302020202020200A4D2020454E44
Contributor: MASS SPECTROSCOPY SOC. OF JAPAN (MSSJ)
InstType: EI
InstName: HITACHI M-60
IoniMethod: _ENERGY 20 eV
IonPolarity: pos
Date: 2010-10-09 19:48:36+02:00
Num Peaks: 25
43 5 58 4 72 7 73 13 84 3 85 4 86 999 87 59 99 170 100 43 
129 42 142 5 143 3 147 17 205 4 211 2 217 9 233 7 237 6 310 21 
366 17 367 2 371 1 454 12 455 2 
