Name: 3-ACETYLINDOLE
MW: 159
Formula: C10H9NO
Synonym: MassBank: JP000437
Synonym: 3-ACETYLINDOLE
Structure: 332D41434554594C494E444F4C452E6D6F6C0A20204368656D447261773032323231303133343032440A2031322031332020302020302020302020302020302020302020302020303939392056323030300A2020202D312E323532352020202D302E3134333920202020302E30303030204E202020302020302020302020302020302020302020302020302020302020302020302020300A2020202D302E3931363920202020302E3630393720202020302E303030302043202020302020302020302020302020302020302020302020302020302020302020302020300A2020202D302E3039363420202020302E3532333520202020302E303030302043202020302020302020302020302020302020302020302020302020302020302020302020300A20202020302E303735312020202D302E3238333520202020302E303030302043202020302020302020302020302020302020302020302020302020302020302020302020300A20202020302E373839362020202D302E3639363020202020302E303030302043202020302020302020302020302020302020302020302020302020302020302020302020300A20202020302E373839362020202D312E3532313020202020302E303030302043202020302020302020302020302020302020302020302020302020302020302020302020300A20202020302E303735312020202D312E3933333520202020302E303030302043202020302020302020302020302020302020302020302020302020302020302020302020300A2020202D302E363339342020202D312E3532313020202020302E303030302043202020302020302020302020302020302020302020302020302020302020302020302020300A2020202D302E363339342020202D302E3639363020202020302E303030302043202020302020302020302020302020302020302020302020302020302020302020302020300A20202020302E3435353620202020312E3133363620202020302E303030302043202020302020302020302020302020302020302020302020302020302020302020302020300A20202020302E3234323120202020312E3933333520202020302E30303030204F202020302020302020302020302020302020302020302020302020302020302020302020300A20202020312E3235323520202020302E3932333120202020302E303030302043202020302020302020302020302020302020302020302020302020302020302020302020300A2020312020322020312020302020202020200A2020322020332020322020302020202020200A2020332020342020312020302020202020200A2020342020352020312020302020202020200A2020352020362020322020302020202020200A2020362020372020312020302020202020200A2020372020382020322020302020202020200A2020382020392020312020302020202020200A2020312020392020312020302020202020200A2020342020392020322020302020202020200A2031302031312020322020302020202020200A2031302031322020312020302020202020200A2020332031302020312020302020202020200A4D2020454E44
Contributor: SASAKI S, TOYOHASHI UNIV. OF TECH.
InstType: EI
InstName: MX-1303
IoniMethod: _ENERGY 50 eV
IonPolarity: pos
Date: 2010-10-09 19:48:36+02:00
Num Peaks: 25
39 30 41 26 43 105 44 2 45 63 55 23 57 28 60 2 62 15 63 65 
69 70 71 1 72 12 77 22 81 16 88 1 89 188 90 12 115 23 116 13 
130 23 144 999 145 70 159 44 160 21 
