Name: MassBank: JP000261
MW: 100
Formula: C6H12O
Synonym: MassBank: JP000261
Synonym: 3,3-DIMETHYL-2-BUTANONE
Synonym: PINACOLONE
Structure: 310A31380A332C332D44494D455448594C2D322D425554414E4F4E452E6D6F6C0A20204368656D447261773032323131303230313832440A2020372020362020302020302020302020302020302020302020302020303939392056323030300A2020202D302E3731343520202020312E3033313320202020302E303030302043202020302020302020302020302020302020302020302020302020302020302020302020300A20202020302E3030303020202020302E3631383720202020302E303030302043202020302020302020302020302020302020302020302020302020302020302020302020300A20202020302E303030302020202D302E3230363220202020302E303030302043202020302020302020302020302020302020302020302020302020302020302020302020300A20202020302E383235302020202D302E3230363220202020302E303030302043202020302020302020302020302020302020302020302020302020302020302020302020300A20202020302E3731343520202020312E3033313320202020302E30303030204F202020302020302020302020302020302020302020302020302020302020302020302020300A20202020302E303030302020202D312E3033313320202020302E303030302043202020302020302020302020302020302020302020302020302020302020302020302020300A2020202D302E383235302020202D302E3230363220202020302E303030302043202020302020302020302020302020302020302020302020302020302020302020302020300A2020312020322020312020302020202020200A2020322020332020312020302020202020200A2020332020342020312020312020202020200A2020322020352020322020302020202020200A2020332020362020312020302020202020200A2020332020372020312020312020202020200A4D2020454E44
Contributor: YAMAMOTO M, DEP. CHEMISTRY, FAC. SCIENCE, NARA WOMEN'S UNIV.
InstType: EI
InstName: HITACHI RMU-6M
IoniMethod: _ENERGY 70 eV
IonPolarity: pos
Date: 2010-10-09 19:48:36+02:00
Num Peaks: 23
14 10 15 86 26 11 27 9 28 19 29 414 38 14 39 15 40 21 41 427 
42 38 43 37 50 10 51 11 53 12 55 4 56 74 57 999 58 46 67 1 
85 38 100 200 101 18 
