Name: VITAMIN K1
CAS: 84-80-0
MW: 450
Formula: C31H46O2
Synonym: MassBank: JP006238
Synonym: VITAMIN K1
Synonym: PHYLLOQUINONE
Structure: 303030395F5048594C4C4F5155494E4F4E452E6D6F6C0A20204368656D447261773038313931303232313732440A2033352033362020302020302020302020302020302020302020302020303939392056323030300A2020202D362E3336323120202020302E3134383720202020302E303030302043202020302020302020302020302020302020302020302020302020302020302020302020300A2020202D362E333632312020202D302E3637363320202020302E303030302043202020302020302020302020302020302020302020302020302020302020302020302020300A2020202D352E363437372020202D312E3038383820202020302E303030302043202020302020302020302020302020302020302020302020302020302020302020302020300A2020202D342E393333322020202D302E3637363320202020302E303030302043202020302020302020302020302020302020302020302020302020302020302020302020300A2020202D342E3933333220202020302E3134383720202020302E303030302043202020302020302020302020302020302020302020302020302020302020302020302020300A2020202D352E3634373720202020302E3536313220202020302E303030302043202020302020302020302020302020302020302020302020302020302020302020302020300A2020202D342E323138372020202D312E3038383820202020302E303030302043202020302020302020302020302020302020302020302020302020302020302020302020300A2020202D332E353034322020202D302E3637363320202020302E303030302043202020302020302020302020302020302020302020302020302020302020302020302020300A2020202D332E3530343220202020302E3134383720202020302E303030302043202020302020302020302020302020302020302020302020302020302020302020302020300A2020202D342E3231383720202020302E3536313220202020302E303030302043202020302020302020302020302020302020302020302020302020302020302020302020300A2020202D342E3231383720202020312E3338363220202020302E30303030204F202020302020302020302020302020302020302020302020302020302020302020302020300A2020202D342E323138372020202D312E3931333820202020302E30303030204F202020302020302020302020302020302020302020302020302020302020302020302020300A2020202D322E3738393820202020302E3536313220202020302E303030302043202020302020302020302020302020302020302020302020302020302020302020302020300A2020202D322E373839382020202D312E3038383820202020302E303030302043202020302020302020302020302020302020302020302020302020302020302020302020300A2020202D322E303735332020202D302E3637363320202020302E303030302043202020302020302020302020302020302020302020302020302020302020302020302020300A2020202D312E333630382020202D312E3038383820202020302E303030302043202020302020302020302020302020302020302020302020302020302020302020302020300A2020202D302E363436342020202D302E3637363320202020302E303030302043202020302020302020302020302020302020302020302020302020302020302020302020300A2020202D312E333630382020202D312E3931333820202020302E303030302043202020302020302020302020302020302020302020302020302020302020302020302020300A2020202D302E3634363420202020302E3134383720202020302E303030302043202020302020302020302020302020302020302020302020302020302020302020302020300A20202020302E3036383120202020302E3536313220202020302E303030302043202020302020302020302020302020302020302020302020302020302020302020302020300A20202020302E3738323620202020302E3134383720202020302E303030302043202020302020302020302020302020302020302020302020302020302020302020302020300A20202020302E303638312020202D302E3236333820202020302E303030302048202020302020302020302020302020302020302020302020302020302020302020302020300A20202020302E3939363120202020302E3934353620202020302E303030302043202020302020302020302020302020302020302020302020302020302020302020302020300A20202020312E343337312020202D302E3335333520202020302E303030302043202020302020302020302020302020302020302020302020302020302020302020302020300A20202020322E313939332020202D302E3033373820202020302E303030302043202020302020302020302020302020302020302020302020302020302020302020302020300A20202020322E3330373020202020302E3738303120202020302E303030302043202020302020302020302020302020302020302020302020302020302020302020302020300A20202020332E3036393220202020312E3039353820202020302E303030302043202020302020302020302020302020302020302020302020302020302020302020302020300A20202020332E3137363920202020312E3931333820202020302E303030302043202020302020302020302020302020302020302020302020302020302020302020302020300A20202020332E3036393220202020302E3237303820202020302E303030302048202020302020302020302020302020302020302020302020302020302020302020302020300A20202020332E3839323420202020312E3034313920202020302E303030302043202020302020302020302020302020302020302020302020302020302020302020302020300A20202020342E3235373320202020302E3330323020202020302E303030302043202020302020302020302020302020302020302020302020302020302020302020302020300A20202020352E3038303520202020302E3234383020202020302E303030302043202020302020302020302020302020302020302020302020302020302020302020302020300A20202020352E3533383920202020302E3933343020202020302E303030302043202020302020302020302020302020302020302020302020302020302020302020302020300A20202020352E3137343020202020312E3637333920202020302E303030302043202020302020302020302020302020302020302020302020302020302020302020302020300A20202020362E3336323120202020302E3838303020202020302E303030302043202020302020302020302020302020302020302020302020302020302020302020302020300A2020312020322020322020302020202020200A2020322020332020312020302020202020200A2020332020342020322020302020202020200A2020342020352020312020302020202020200A2020352020362020322020302020202020200A2020362020312020312020302020202020200A2020342020372020312020302020202020200A2020372020382020312020302020202020200A2020382020392020322020302020202020200A2020392031302020312020302020202020200A2031302020352020312020302020202020200A2031302031312020322020302020202020200A2020372031322020322020302020202020200A2020392031332020312020302020202020200A2020382031342020312020302020202020200A2031342031352020312020302020202020200A2031352031362020322020302020202020200A2031362031372020312020302020202020200A2031362031382020312020302020202020200A2031372031392020312020302020202020200A2031392032302020312020302020202020200A2032302032312020312020302020202020200A2032312032322020312020312020202020200A2032312032332020312020312020202020200A2032312032342020312020302020202020200A2032342032352020312020302020202020200A2032352032362020312020302020202020200A2032362032372020312020302020202020200A2032372032382020312020312020202020200A2032372032392020312020312020202020200A2032372033302020312020302020202020200A2033302033312020312020302020202020200A2033312033322020312020302020202020200A2033322033332020312020302020202020200A2033332033342020312020302020202020200A2033332033352020312020302020202020200A4D2020454E44
Contributor: MASS SPECTROSCOPY SOC. OF JAPAN (MSSJ)
InstType: EI
InstName: HITACHI M-80
IoniMethod: _ENERGY 70 eV
IonPolarity: pos
Date: 2010-10-09 19:48:36+02:00
Num Peaks: 162
39 38 40 9 41 316 42 60 43 674 44 20 50 6 51 7 53 26 54 8 
55 276 56 61 57 376 58 17 65 10 67 40 68 15 69 155 70 24 71 156 
72 8 75 5 76 26 77 42 78 6 79 21 80 7 81 50 82 12 83 63 
84 9 85 42 89 6 90 2 91 25 92 5 93 17 94 10 95 34 96 7 
97 41 98 4 99 6 103 8 104 25 105 71 106 6 107 10 108 4 109 25 
110 4 111 18 112 3 113 4 114 3 115 38 116 7 117 5 119 8 121 7 
122 2 123 11 124 3 125 6 127 14 128 34 129 28 130 8 131 7 132 3 
133 35 134 5 137 5 139 6 141 38 142 11 143 10 144 4 145 6 147 18 
151 4 152 21 153 19 154 7 155 11 157 30 158 24 159 12 160 6 161 10 
165 30 166 13 167 11 168 7 169 22 170 8 171 20 172 6 173 13 174 18 
175 4 178 23 179 19 180 6 181 48 182 15 183 15 184 8 185 11 186 374 
187 240 188 41 189 7 191 5 192 5 193 14 194 9 195 32 196 19 197 124 
198 361 199 88 200 43 201 10 207 13 208 12 209 32 210 33 211 80 212 30 
213 20 214 5 221 15 222 11 223 34 224 74 225 496 226 210 227 80 228 16 
235 6 236 4 237 12 238 15 239 55 240 18 241 14 242 12 252 4 253 13 
254 10 267 15 268 7 433 5 435 31 436 11 448 7 449 8 450 999 451 343 
452 69 453 10 
