Name: 3-ETHYLPYRIDINE
MW: 107
Formula: C7H9N
Synonym: MassBank: JP003935
Synonym: 3-ETHYLPYRIDINE
Structure: 310A32310A332D455448594C5059524944494E452E6D6F6C0A20204368656D447261773032323231303138303032440A2020382020382020302020302020302020302020302020302020302020303939392056323030300A2020202D302E3230363220202020302E3731343520202020302E303030302043202020302020302020302020302020302020302020302020302020302020302020302020300A20202020302E323036332020202D302E3030303020202020302E303030302043202020302020302020302020302020302020302020302020302020302020302020302020300A2020202D302E323036322020202D302E3731343520202020302E303030302043202020302020302020302020302020302020302020302020302020302020302020302020300A2020202D312E303331322020202D302E3731343520202020302E303030302043202020302020302020302020302020302020302020302020302020302020302020302020300A2020202D312E3434333820202020302E3030303020202020302E303030302043202020302020302020302020302020302020302020302020302020302020302020302020300A2020202D312E3033313320202020302E3731343520202020302E30303030204E202020302020302020302020302020302020302020302020302020302020302020302020300A20202020312E303331332020202D302E3030303020202020302E303030302043202020302020302020302020302020302020302020302020302020302020302020302020300A20202020312E343433382020202D302E3731343520202020302E303030302043202020302020302020302020302020302020302020302020302020302020302020302020300A2020312020322020312020302020202020200A2020322020332020322020302020202020200A2020332020342020312020302020202020200A2020342020352020322020302020202020200A2020352020362020312020302020202020200A2020312020362020322020302020202020200A2020372020382020312020302020202020200A2020322020372020312020302020202020200A4D2020454E44
Contributor: MASS SPECTROSCOPY SOC. OF JAPAN (MSSJ)
InstType: EI
InstName: Unknown
IoniMethod: EI
IonPolarity: pos
Date: 2010-10-09 19:48:36+02:00
Num Peaks: 37
25 18 26 104 27 202 28 14 29 38 37 52 38 125 39 37 40 59 41 48 
49 32 50 16 51 282 52 139 53 79 54 4 61 22 62 37 63 84 64 3 
65 336 66 37 67 36 74 4 75 33 76 33 77 111 78 9 79 182 80 40 
91 26 92 999 93 78 104 32 105 30 106 45 107 828 
