Name: METHYL 2-TRIMETHYLSILOXYTETRACOSANOATE
MW: 470
Formula: C28H58O3Si
Synonym: MassBank: JP001872
Synonym: METHYL 2-TRIMETHYLSILOXYTETRACOSANOATE
Synonym: METHYL (O-TRIMETHYLSILYL)-ALPHA-HYDROXYLIGNOCERATE
Structure: 303334355F4D455448594C20322D5452494D455448594C53494C4F58595445545241434F53414E4F4154452E6D6F6C0A20204368656D447261773039303631303136313332440A2033322033312020302020302020302020302020302020302020302020303939392056323030300A20202020342E3331363920202020302E3935393220202020302E303030302043202020302020302020302020302020302020302020302020302020302020302020302020300A20202020332E3535333720202020312E3334383120202020302E303030302043202020302020302020302020302020302020302020302020302020302020302020302020300A20202020342E3333373520202020302E3133343220202020302E303030302043202020302020302020302020302020302020302020302020302020302020302020302020300A20202020332E363233302020202D302E3237383320202020302E303030302043202020302020302020302020302020302020302020302020302020302020302020302020300A20202020322E3930383520202020302E3133343220202020302E303030302043202020302020302020302020302020302020302020302020302020302020302020302020300A20202020322E313934322020202D302E3237383320202020302E303030302043202020302020302020302020302020302020302020302020302020302020302020302020300A20202020312E3437393720202020302E3133343220202020302E303030302043202020302020302020302020302020302020302020302020302020302020302020302020300A20202020302E373635322020202D302E3237383320202020302E303030302043202020302020302020302020302020302020302020302020302020302020302020302020300A20202020302E3035303820202020302E3133343220202020302E303030302043202020302020302020302020302020302020302020302020302020302020302020302020300A2020202D302E363633362020202D302E3237383320202020302E303030302043202020302020302020302020302020302020302020302020302020302020302020302020300A2020202D312E3337383120202020302E3133343220202020302E303030302043202020302020302020302020302020302020302020302020302020302020302020302020300A2020202D322E303932362020202D302E3237383320202020302E303030302043202020302020302020302020302020302020302020302020302020302020302020302020300A2020202D322E3830373020202020302E3133343220202020302E303030302043202020302020302020302020302020302020302020302020302020302020302020302020300A2020202D332E353231352020202D302E3237383320202020302E303030302043202020302020302020302020302020302020302020302020302020302020302020302020300A2020202D342E3233353920202020302E3133343220202020302E303030302043202020302020302020302020302020302020302020302020302020302020302020302020300A2020202D342E393530332020202D302E3237383320202020302E303030302043202020302020302020302020302020302020302020302020302020302020302020302020300A2020202D352E3636343820202020302E3133343220202020302E303030302043202020302020302020302020302020302020302020302020302020302020302020302020300A2020202D362E333739332020202D302E3237383320202020302E303030302043202020302020302020302020302020302020302020302020302020302020302020302020300A20202020342E3732393320202020312E3637333720202020302E30303030204F202020302020302020302020302020302020302020302020302020302020302020302020300A20202020352E3535343320202020312E3637333720202020302E303030302053692020302020302020302020302020302020302020302020302020302020302020302020300A20202020352E3535343320202020302E3834383720202020302E303030302043202020302020302020302020302020302020302020302020302020302020302020302020300A20202020352E3535343320202020322E3439383720202020302E303030302043202020302020302020302020302020302020302020302020302020302020302020302020300A20202020362E3337393320202020312E3637333720202020302E303030302043202020302020302020302020302020302020302020302020302020302020302020302020300A20202020322E3734373020202020312E3532303920202020302E30303030204F202020302020302020302020302020302020302020302020302020302020302020302020300A20202020332E3832393720202020322E3132353520202020302E30303030204F202020302020302020302020302020302020302020302020302020302020302020302020300A20202020332E3239343420202020322E3735333320202020302E303030302043202020302020302020302020302020302020302020302020302020302020302020302020300A2020202D362E333739332020202D312E3130333320202020302E303030302043202020302020302020302020302020302020302020302020302020302020302020302020300A2020202D352E363634382020202D312E3531353820202020302E303030302043202020302020302020302020302020302020302020302020302020302020302020302020300A2020202D352E363634382020202D322E3334303820202020302E303030302043202020302020302020302020302020302020302020302020302020302020302020302020300A2020202D342E393530342020202D322E3735333320202020302E303030302043202020302020302020302020302020302020302020302020302020302020302020302020300A2020202D342E323335392020202D322E3334303820202020302E303030302043202020302020302020302020302020302020302020302020302020302020302020302020300A2020202D332E353231342020202D322E3735333320202020302E303030302043202020302020302020302020302020302020302020302020302020302020302020302020300A2020312020322020312020302020202020200A2020332020342020312020302020202020200A2020342020352020312020302020202020200A2020352020362020312020302020202020200A2020362020372020312020302020202020200A2020372020382020312020302020202020200A2020382020392020312020302020202020200A2020392031302020312020302020202020200A2031302031312020312020302020202020200A2031312031322020312020302020202020200A2031322031332020312020302020202020200A2031332031342020312020302020202020200A2031342031352020312020302020202020200A2031352031362020312020302020202020200A2031362031372020312020302020202020200A2031372031382020312020302020202020200A2020312031392020312020302020202020200A2032302032312020312020302020202020200A2032302032322020312020302020202020200A2032302032332020312020302020202020200A2031392032302020312020302020202020200A2020312020332020312020302020202020200A2020322032342020322020302020202020200A2020322032352020312020302020202020200A2032352032362020312020302020202020200A2031382032372020312020302020202020200A2032372032382020312020302020202020200A2032382032392020312020302020202020200A2032392033302020312020302020202020200A2033302033312020312020302020202020200A2033312033322020312020302020202020200A4D2020454E44
Contributor: SEYAMA Y, DEPT. OF PHYSIOL. CHEMISTRY AND NUTRITION, FAC. OF MEDICINE, UNIV. OF TOKYO
InstType: EI
InstName: SHIMADZU LKB-9000B
IoniMethod: _ENERGY 70 eV
IonPolarity: pos
Date: 2010-10-09 19:48:36+02:00
Num Peaks: 55
39 23 41 139 42 51 43 353 55 198 56 56 57 333 59 57 61 26 67 76 
68 70 69 174 70 79 71 173 73 738 74 87 75 255 77 18 79 10 81 67 
82 111 83 200 84 36 85 73 87 21 89 319 90 38 91 90 95 114 97 176 
98 36 101 33 103 126 104 33 105 28 107 33 108 15 109 60 111 120 115 21 
117 10 123 37 125 40 129 272 130 36 131 51 143 33 145 45 159 129 411 999 
412 311 413 77 455 308 456 98 470 34 
