Name: 4-METHYLAMINO-2(5H)-FURANONE
MW: 113
Formula: C5H7NO2
Synonym: MassBank: JP005113
Synonym: 4-METHYLAMINO-2(5H)-FURANONE
Structure: 310A32310A342D4D455448594C414D494E4F2D32283548292D465552414E4F4E452E6D6F6C0A20204368656D447261773034323131303032353932440A2020382020382020302020302020302020302020302020302020302020303939392056323030300A2020202D302E3434373920202020302E3738323420202020302E30303030204F202020302020302020302020302020302020302020302020302020302020302020302020300A2020202D302E3933323820202020302E3131353020202020302E303030302043202020302020302020302020302020302020302020302020302020302020302020302020300A2020202D302E343437392020202D302E3535323420202020302E303030302043202020302020302020302020302020302020302020302020302020302020302020302020300A20202020302E333336372020202D302E3239373520202020302E303030302043202020302020302020302020302020302020302020302020302020302020302020302020300A20202020302E3333363720202020302E3532373520202020302E303030302043202020302020302020302020302020302020302020302020302020302020302020302020300A2020202D312E3735373820202020302E3131353020202020302E30303030204F202020302020302020302020302020302020302020302020302020302020302020302020300A20202020312E303034322020202D302E3738323420202020302E30303030204E202020302020302020302020302020302020302020302020302020302020302020302020300A20202020312E373537382020202D302E3434363920202020302E303030302043202020302020302020302020302020302020302020302020302020302020302020302020300A2020312020322020312020302020202020200A2020322020332020312020302020202020200A2020332020342020322020302020202020200A2020342020352020312020302020202020200A2020312020352020312020302020202020200A2020322020362020322020302020202020200A2020372020382020312020302020202020200A2020342020372020312020302020202020200A4D2020454E44
Contributor: HAYASHI A, FAC. OF SCIENCE AND TECHNOLOGY, KINKI UNIV.
InstType: EI
InstName: JEOL JMS-HX-100
IoniMethod: _ENERGY 23 eV
IonPolarity: pos
Date: 2010-10-09 19:48:36+02:00
Num Peaks: 41
40 2 41 7 42 26 43 5 44 3 45 4 54 36 55 276 56 114 57 16 
58 2 60 6 61 4 67 12 68 21 69 6 70 16 71 8 72 2 73 7 
74 4 81 3 82 30 83 48 84 134 85 95 86 6 87 4 95 56 96 7 
97 6 98 9 99 5 109 3 110 3 111 5 112 104 113 999 114 74 115 10 
116 4 
