Name: 6-NITRO-2-PHENYLINDOLIZINE
MW: 238
Formula: C14H10N2O2
Synonym: MassBank: JP004412
Synonym: 6-NITRO-2-PHENYLINDOLIZINE
Structure: 362D4E4954524F2D322D5048454E594C494E444F4C495A494E452E6D6F6C0A20204368656D447261773035313931303232343432440A2031382032302020302020302020302020302020302020302020302020303939392056323030300A2020202D302E373530382020202D302E3739323220202020302E303030302043202020302020302020302020302020302020302020302020302020302020302020302020300A2020202D302E3833373120202020302E3032383220202020302E303030302043202020302020302020302020302020302020302020302020302020302020302020302020300A2020202D302E3038333420202020302E3336333820202020302E303030302043202020302020302020302020302020302020302020302020302020302020302020302020300A20202020302E343638362020202D302E3234393320202020302E30303030204E202020302020302020302020302020302020302020302020302020302020302020302020300A20202020312E323933362020202D302E3234393320202020302E303030302043202020302020302020302020302020302020302020302020302020302020302020302020300A20202020312E373036312020202D302E3936333820202020302E303030302043202020302020302020302020302020302020302020302020302020302020302020302020300A20202020312E323933362020202D312E3637383220202020302E303030302043202020302020302020302020302020302020302020302020302020302020302020302020300A20202020302E343638362020202D312E3637383220202020302E303030302043202020302020302020302020302020302020302020302020302020302020302020302020300A20202020302E303536312020202D302E3936333820202020302E303030302043202020302020302020302020302020302020302020302020302020302020302020302020300A2020202D312E3535313520202020302E3434303720202020302E303030302043202020302020302020302020302020302020302020302020302020302020302020302020300A2020202D322E3236363020202020302E3032383220202020302E303030302043202020302020302020302020302020302020302020302020302020302020302020302020300A2020202D322E3938303520202020302E3434303720202020302E303030302043202020302020302020302020302020302020302020302020302020302020302020302020300A2020202D322E3938303520202020312E3236353720202020302E303030302043202020302020302020302020302020302020302020302020302020302020302020302020300A2020202D322E3236363020202020312E3637383220202020302E303030302043202020302020302020302020302020302020302020302020302020302020302020302020300A2020202D312E3535313520202020312E3236353720202020302E303030302043202020302020302020302020302020302020302020302020302020302020302020302020300A20202020322E353331312020202D302E3936333820202020302E30303030204E202020302020332020302020302020302020302020302020302020302020302020302020300A20202020322E393035372020202D302E3232383720202020302E30303030204F202020302020302020302020302020302020302020302020302020302020302020302020300A20202020322E393830352020202D312E3635353720202020302E30303030204F202020302020352020302020302020302020302020302020302020302020302020302020300A2020312020322020312020302020202020200A2020322020332020322020302020202020200A2020332020342020312020302020202020200A2020342020352020312020302020202020200A2020352020362020322020302020202020200A2020362020372020312020302020202020200A2020372020382020322020302020202020200A2020382020392020312020302020202020200A2020312020392020322020302020202020200A2020342020392020312020302020202020200A2031302031312020312020302020202020200A2031312031322020322020302020202020200A2031322031332020312020302020202020200A2031332031342020322020302020202020200A2031342031352020312020302020202020200A2031302031352020322020302020202020200A2020322031302020312020302020202020200A2031362031372020322020302020202020200A2031362031382020312020302020202020200A2020362031362020312020302020202020200A4D202043484720203220203136202020312020313820202D310A4D2020454E44
Contributor: SASAKI S, TOYOHASHI UNIV. OF TECH.
InstType: EI
InstName: MX-1303
IoniMethod: _ENERGY 50 eV
IonPolarity: pos
Date: 2010-10-09 19:48:36+02:00
Num Peaks: 49
50 27 51 43 62 27 63 9 64 10 65 13 69.5 49 74 2 75 24 76 28 
77 34 81.5 3 82 30 82.5 77 86 13 87 3 88 16 89 35 90 18 95.5 5 
96 25 102 35 113 20 114 2 115 84 119 30 126 17 127 1 139 64 140 22 
151 11 152 4 153 12 154 10 162 12 163 10 164 100 165 254 166 58 177 2 
181 27 190 100 191 291 192 68 193 156 194 13 208 12 238 999 239 168 
