Name: BORNEOL
MW: 154
Formula: C10H18O
Synonym: MassBank: JP006924
Synonym: BORNEOL
Synonym: ENDO-1,7,7-TRIMETHYLBICYCLO(2.2.1)HEPTAN-2-OL
Structure: 303134395F424F524E454F4C2E6D6F6C0A20204368656D447261773039303331303138323232440A2031312031322020302020302020302020302020302020302020302020303939392056323030300A2020202D302E3632353620202020302E3030303020202020302E303030302043202020302020302020302020302020302020302020302020302020302020302020302020300A2020202D302E363235362020202D302E3832353020202020302E303030302043202020302020302020302020302020302020302020302020302020302020302020302020300A20202020302E303838392020202D312E3233373520202020302E303030302043202020302020302020302020302020302020302020302020302020302020302020302020300A20202020302E383033342020202D302E3832353020202020302E303030302043202020302020302020302020302020302020302020302020302020302020302020302020300A20202020302E3830333420202020302E3030303020202020302E303030302043202020302020302020302020302020302020302020302020302020302020302020302020300A20202020302E3038383920202020302E3431323520202020302E303030302043202020302020302020302020302020302020302020302020302020302020302020302020300A2020202D312E3334303020202020302E3431323520202020302E30303030204F202020302020302020302020302020302020302020302020302020302020302020302020300A20202020302E3038383920202020312E3233373520202020302E303030302043202020302020302020302020302020302020302020302020302020302020302020302020300A20202020302E353136352020202D302E3239333020202020302E303030302043202020302020302020302020302020302020302020302020302020302020302020302020300A20202020312E333430302020202D302E3234333720202020302E303030302043202020302020302020302020302020302020302020302020302020302020302020302020300A20202020312E313838382020202D302E3737313220202020302E303030302043202020302020302020302020302020302020302020302020302020302020302020302020300A2020312020322020312020302020202020200A2020322020332020312020302020202020200A2020332020342020312020302020202020200A2020352020362020312020302020202020200A2020362020312020312020302020202020200A2020312020372020312020312020202020200A2020362020382020312020302020202020200A2020362020392020312020362020202020200A2020332020392020312020362020202020200A2020392031302020312020302020202020200A2020392031312020312020302020202020200A2020352020342020312020302020202020200A4D2020454E44
Contributor: TAJIMA S, GUNMA COLLEGE OF TECHNOLOGY
InstType: EI
InstName: HITACHI M-80B
IoniMethod: _ENERGY 70 eV
IonPolarity: pos
Date: 2010-10-09 19:48:36+02:00
Num Peaks: 42
27 64 29 56 39 86 40 13 41 180 42 15 43 100 44 11 51 13 53 54 
55 104 56 11 57 30 65 16 67 85 68 14 69 70 70 23 71 58 72 20 
77 34 79 41 81 33 82 43 83 38 84 35 91 28 92 23 93 67 94 12 
95 999 96 84 97 13 105 10 107 11 108 26 109 23 110 207 111 41 121 57 
136 58 139 86 
