Name: TETRAPROPYLAMMONIUM IODIDE
MW: 313
Formula: C12H28IN
Synonym: MassBank: JP004208
Synonym: TETRAPROPYLAMMONIUM IODIDE
Structure: 544554524150524F50594C414D4D4F4E49554D20494F444944452E6D6F6C0A20204368656D447261773038313231303037333232440A2031342031322020302020302020302020302020302020302020302020303939392056323030300A20202020302E333136382020202D302E3039353720202020302E30303030204E202020302020332020302020302020302020302020302020302020302020302020302020300A20202020302E3331363820202020302E3732393320202020302E303030302043202020302020302020302020302020302020302020302020302020302020302020302020300A2020202D302E3339373720202020312E3134313820202020302E303030302043202020302020302020302020302020302020302020302020302020302020302020302020300A2020202D312E3131323220202020302E3732393320202020302E303030302043202020302020302020302020302020302020302020302020302020302020302020302020300A20202020312E313431382020202D302E3039353720202020302E303030302043202020302020302020302020302020302020302020302020302020302020302020302020300A20202020312E3535343320202020302E3631383820202020302E303030302043202020302020302020302020302020302020302020302020302020302020302020302020300A20202020312E3134313820202020312E3333333220202020302E303030302043202020302020302020302020302020302020302020302020302020302020302020302020300A20202020302E333136382020202D302E3932303720202020302E303030302043202020302020302020302020302020302020302020302020302020302020302020302020300A20202020312E303331332020202D312E3333333220202020302E303030302043202020302020302020302020302020302020302020302020302020302020302020302020300A20202020312E373435372020202D302E3932303720202020302E303030302043202020302020302020302020302020302020302020302020302020302020302020302020300A2020202D302E353038322020202D302E3039353720202020302E303030302043202020302020302020302020302020302020302020302020302020302020302020302020300A2020202D302E393230372020202D302E3831303220202020302E303030302043202020302020302020302020302020302020302020302020302020302020302020302020300A2020202D312E373435372020202D302E3831303220202020302E303030302043202020302020302020302020302020302020302020302020302020302020302020302020300A2020202D302E323636362020202D302E3637393120202020302E303030302049202020302020352020302020302020302020302020302020302020302020302020302020300A2020322020332020312020302020202020200A2020332020342020312020302020202020200A2020312020322020312020302020202020200A2020352020362020312020302020202020200A2020362020372020312020302020202020200A2020312020352020312020302020202020200A2020382020392020312020302020202020200A2020392031302020312020302020202020200A2020312020382020312020302020202020200A2031312031322020312020302020202020200A2031322031332020312020302020202020200A2020312031312020312020302020202020200A4D202043484720203220202031202020312020313420202D310A4D2020454E44
Contributor: ISA K, DEPT. OF CHEM., FAC. OF EDUC., FUKUI UNIV.
InstType: EI
InstName: JEOL JMS-01-SG
IoniMethod: _ENERGY 15 eV
IonPolarity: pos
Date: 2010-10-09 19:48:36+02:00
Num Peaks: 17
43 482 70 15 72 179 86 91 98 3 100 9 114 999 115 120 127 25 128 15 
142 30 143 86 144 17 170 175 186 161 254 0 312 1 
