Name: 2-BUTOXY-N-(2-(ETHYLAMINO)ETHYL)-4-QUINOLINECARBOXAMIDE
MW: 315
Formula: C18H25N3O2
Synonym: MassBank: JP003438
Synonym: 2-BUTOXY-N-(2-(ETHYLAMINO)ETHYL)-4-QUINOLINECARBOXAMIDE
Structure: 322D4255544F58592D4E2D28322D28455448594C414D494E4F29455448594C292D342D5155494E4F4C494E45434152424F58414D4944452E6D6F6C0A20204368656D447261773132323130393233333032440A2032332032342020302020302020302020302020302020302020302020303939392056323030300A2020202D302E3431323520202020312E3037313720202020302E30303030204E202020302020302020302020302020302020302020302020302020302020302020302020300A20202020302E3431323520202020312E3037313720202020302E303030302043202020302020302020302020302020302020302020302020302020302020302020302020300A20202020302E3832353020202020302E3335373220202020302E303030302043202020302020302020302020302020302020302020302020302020302020302020302020300A20202020302E343132352020202D302E3335373220202020302E303030302043202020302020302020302020302020302020302020302020302020302020302020302020300A2020202D302E343132352020202D302E3335373220202020302E303030302043202020302020302020302020302020302020302020302020302020302020302020302020300A2020202D302E383235302020202D312E3037313720202020302E303030302043202020302020302020302020302020302020302020302020302020302020302020302020300A2020202D312E363530302020202D312E3037313720202020302E303030302043202020302020302020302020302020302020302020302020302020302020302020302020300A2020202D322E303632352020202D302E3335373220202020302E303030302043202020302020302020302020302020302020302020302020302020302020302020302020300A2020202D312E3635303020202020302E3335373220202020302E303030302043202020302020302020302020302020302020302020302020302020302020302020302020300A2020202D302E3832353020202020302E3335373220202020302E303030302043202020302020302020302020302020302020302020302020302020302020302020302020300A20202020302E383235302020202D312E3037313720202020302E303030302043202020302020302020302020302020302020302020302020302020302020302020302020300A20202020302E343132352020202D312E3738363220202020302E30303030204F202020302020302020302020302020302020302020302020302020302020302020302020300A20202020312E363530302020202D312E3037313720202020302E30303030204E202020302020302020302020302020302020302020302020302020302020302020302020300A20202020322E303632352020202D312E3738363220202020302E303030302043202020302020302020302020302020302020302020302020302020302020302020302020300A20202020312E363530302020202D322E3530303620202020302E303030302043202020302020302020302020302020302020302020302020302020302020302020302020300A20202020322E303632352020202D332E3231353120202020302E30303030204E202020302020302020302020302020302020302020302020302020302020302020302020300A20202020312E363530302020202D332E3932393620202020302E303030302043202020302020302020302020302020302020302020302020302020302020302020302020300A20202020322E303632352020202D342E3634343120202020302E303030302043202020302020302020302020302020302020302020302020302020302020302020302020300A20202020302E3832353020202020312E3738363220202020302E30303030204F202020302020302020302020302020302020302020302020302020302020302020302020300A20202020302E3431323520202020322E3530303620202020302E303030302043202020302020302020302020302020302020302020302020302020302020302020302020300A20202020302E3832353020202020332E3231353120202020302E303030302043202020302020302020302020302020302020302020302020302020302020302020302020300A20202020302E3431323520202020332E3932393620202020302E303030302043202020302020302020302020302020302020302020302020302020302020302020302020300A20202020302E3832353020202020342E3634343120202020302E303030302043202020302020302020302020302020302020302020302020302020302020302020302020300A2020312020322020312020302020202020200A2020322020332020322020302020202020200A2020332020342020312020302020202020200A2020342020352020322020302020202020200A2020352020362020312020302020202020200A2020362020372020322020302020202020200A2020372020382020312020302020202020200A2020382020392020322020302020202020200A2020392031302020312020302020202020200A2020312031302020322020302020202020200A2020352031302020312020302020202020200A2031312031322020322020302020202020200A2031312031332020312020302020202020200A2020342031312020312020302020202020200A2031342031352020312020302020202020200A2031372031382020312020302020202020200A2031362031372020312020302020202020200A2031352031362020312020302020202020200A2031332031342020312020302020202020200A2032302032312020312020302020202020200A2032312032322020312020302020202020200A2032322032332020312020302020202020200A2031392032302020312020302020202020200A2020322031392020312020302020202020200A4D2020454E44
Contributor: MASS SPECTROSCOPY SOC. OF JAPAN (MSSJ)
InstType: EI
InstName: HITACHI M-60
IoniMethod: _ENERGY 20 eV
IonPolarity: pos
Date: 2010-10-09 19:48:36+02:00
Num Peaks: 56
56 106 57 38 58 999 59 38 68 29 71 367 87 9 116 8 144 19 145 170 
146 22 158 2 159 2 170 3 171 6 172 25 173 9 185 2 186 2 188 21 
189 54 190 5 191 3 199 11 200 8 201 707 202 106 203 11 213 3 214 7 
215 11 216 5 227 10 228 46 229 526 230 91 231 8 240 5 241 3 243 2 
244 2 245 172 246 26 257 15 258 155 259 27 260 2 270 2 271 11 272 3 
282 3 296 13 297 8 313 8 314 5 316 5 
