Name: MassBank: JP007837
MW: 160
Formula: C12H16
Synonym: MassBank: JP007837
Synonym: 1,1,4-TRIMETHYLINDAN
Structure: 312C312C342D5452494D455448594C494E44414E2E6D6F6C0A20204368656D447261773130323330393033323532440A2031322031332020302020302020302020302020302020302020302020303939392056323030300A20202020302E373439352020202D302E3738313920202020302E303030302043202020302020302020302020302020302020302020302020302020302020302020302020300A20202020312E323334352020202D302E3131343420202020302E303030302043202020302020302020302020302020302020302020302020302020302020302020302020300A20202020302E3734393520202020302E3535333020202020302E303030302043202020302020302020302020302020302020302020302020302020302020302020302020300A2020202D302E3033353120202020302E3239383120202020302E303030302043202020302020302020302020302020302020302020302020302020302020302020302020300A2020202D302E3734393520202020302E3731303620202020302E303030302043202020302020302020302020302020302020302020302020302020302020302020302020300A2020202D312E3436343020202020302E3239383120202020302E303030302043202020302020302020302020302020302020302020302020302020302020302020302020300A2020202D312E343634302020202D302E3532363920202020302E303030302043202020302020302020302020302020302020302020302020302020302020302020302020300A2020202D302E373439352020202D302E3933393420202020302E303030302043202020302020302020302020302020302020302020302020302020302020302020302020300A2020202D302E303335312020202D302E3532363920202020302E303030302043202020302020302020302020302020302020302020302020302020302020302020302020300A2020202D302E3734393520202020312E3533353620202020302E303030302043202020302020302020302020302020302020302020302020302020302020302020302020300A20202020302E343134302020202D312E3533353620202020302E303030302043202020302020302020302020302020302020302020302020302020302020302020302020300A20202020312E343634302020202D312E3139343420202020302E303030302043202020302020302020302020302020302020302020302020302020302020302020302020300A2020312020322020312020302020202020200A2020322020332020312020302020202020200A2020332020342020312020302020202020200A2020342020352020312020302020202020200A2020352020362020322020302020202020200A2020362020372020312020302020202020200A2020372020382020322020302020202020200A2020382020392020312020302020202020200A2020312020392020312020302020202020200A2020342020392020322020302020202020200A2020352031302020312020302020202020200A2020312031312020312020312020202020200A2020312031322020312020362020202020200A4D2020454E44
Contributor: HASHIMOTO K, KYOTO COLLEGE OF PHARMACY
InstType: EI
InstName: HITACHI M-80
IoniMethod: _ENERGY 20 eV
IonPolarity: pos
Date: 2010-10-09 19:48:36+02:00
Num Peaks: 22
15 65 27 54 28 27 39 68 41 30 51 48 53 27 65 35 70.5 35 77 45 
79 17 91 41 103 16 105 60 115 99 128 103 129 76 143 24 145 999 159 8 
160 153 161 20 
