Name: ISOBUTYL ALCOHOL
CAS: 78-83-1
MW: 74
Formula: C4H10O
Synonym: MassBank: JP007110
Synonym: ISOBUTYL ALCOHOL
Synonym: 2-METHYL-1-PROPANOL
Structure: 310A31340A49534F425554594C20414C434F484F4C2E6D6F6C0A20204368656D447261773031323231303032353832440A2020352020342020302020302020302020302020302020302020302020303939392056323030300A2020202D302E333537322020202D302E3631383820202020302E303030302043202020302020302020302020302020302020302020302020302020302020302020302020300A20202020302E333537322020202D302E3230363220202020302E303030302043202020302020302020302020302020302020302020302020302020302020302020302020300A20202020302E3335373220202020302E3631383820202020302E303030302043202020302020302020302020302020302020302020302020302020302020302020302020300A20202020312E303731372020202D302E3631383720202020302E303030302043202020302020302020302020302020302020302020302020302020302020302020302020300A2020202D312E303731372020202D302E3230363220202020302E30303030204F202020302020302020302020302020302020302020302020302020302020302020302020300A2020312020322020312020302020202020200A2020322020332020312020302020202020200A2020322020342020312020302020202020200A2020312020352020312020302020202020200A4D2020454E44
Contributor: SODA AROMATIC CO., LTD.
InstType: EI
InstName: HITACHI M-80B
IoniMethod: _ENERGY 70 eV
IonPolarity: pos
Date: 2010-10-09 19:48:36+02:00
Num Peaks: 25
15 42 26 37 27 360 28 42 29 178 30 13 31 549 32 12 33 492 37 14 
38 39 39 222 40 43 41 632 42 591 43 999 44 34 45 31 53 10 55 58 
56 43 57 53 59 38 73 16 74 101 
