Name: MassBank: JP003653
MW: 180
Formula: C12H20O
Synonym: MassBank: JP003653
Synonym: 2,2,7,7-TETRAMETHYLOCTA-4,5-DIEN-3-ONE
Structure: 322C322C372C372D54455452414D455448594C4F4354412D342C352D4449454E2D332D4F4E452E6D6F6C0A20204368656D447261773132323030393036323932440A2031332031322020302020302020302020302020302020302020302020303939392056323030300A2020202D322E3139383720202020302E3435333020202020302E303030302043202020302020302020302020302020302020302020302020302020302020302020302020300A2020202D312E373836322020202D302E3236313520202020302E303030302043202020302020302020302020302020302020302020302020302020302020302020302020300A2020202D312E3037313720202020302E3135313020202020302E303030302043202020302020302020302020302020302020302020302020302020302020302020302020300A2020202D302E333537322020202D302E3236313520202020302E303030302043202020302020302020302020302020302020302020302020302020302020302020302020300A20202020302E3335373220202020302E3135313020202020302E303030302043202020302020302020302020302020302020302020302020302020302020302020302020300A20202020312E3037313720202020302E3536333520202020302E303030302043202020302020302020302020302020302020302020302020302020302020302020302020300A20202020312E3738363220202020302E3135313020202020302E303030302043202020302020302020302020302020302020302020302020302020302020302020302020300A20202020322E353030362020202D302E3236313520202020302E303030302043202020302020302020302020302020302020302020302020302020302020302020302020300A2020202D312E3037313720202020302E3937363020202020302E30303030204F202020302020302020302020302020302020302020302020302020302020302020302020300A20202020322E3139383720202020302E3836353520202020302E303030302043202020302020302020302020302020302020302020302020302020302020302020302020300A20202020312E333733372020202D302E3536333520202020302E303030302043202020302020302020302020302020302020302020302020302020302020302020302020300A2020202D322E353030362020202D302E3637343020202020302E303030302043202020302020302020302020302020302020302020302020302020302020302020302020300A2020202D312E333733372020202D302E3937363020202020302E303030302043202020302020302020302020302020302020302020302020302020302020302020302020300A2020322020312020312020312020202020200A2020322020332020312020302020202020200A2020332020342020312020302020202020200A2020342020352020322020302020202020200A2020352020362020322020302020202020200A2020362020372020312020302020202020200A2020372020382020312020302020202020200A2020332020392020322020302020202020200A2020372031302020312020312020202020200A2020372031312020312020312020202020200A2020322031322020312020302020202020200A2020322031332020312020312020202020200A4D2020454E44
Contributor: SASAKI S, TOYOHASHI UNIV. OF TECH.
InstType: EI
InstName: Unknown
IoniMethod: EI
IonPolarity: pos
Date: 2010-10-09 19:48:36+02:00
Num Peaks: 10
41 380 43 999 55 180 57 81 58 210 69 170 95 100 123 1 165 110 180 70 
