Name: BIS(2-CHLOROETHOXY)METHANE
CAS: 111-91-1
MW: 172
Formula: C5H10Cl2O2
Synonym: MassBank: JP000962
Synonym: BIS(2-CHLOROETHOXY)METHANE
Structure: 310A32320A42495328322D43484C4F524F4554484F5859294D455448414E452E6D6F6C0A20204368656D447261773039303531303231343332440A2020392020382020302020302020302020302020302020302020302020303939392056323030300A20202020302E303030302020202D302E3731343520202020302E303030302043202020302020302020302020302020302020302020302020302020302020302020302020300A2020202D302E383235302020202D302E3731343520202020302E30303030204F202020302020302020302020302020302020302020302020302020302020302020302020300A2020202D312E323337352020202D302E3030303020202020302E303030302043202020302020302020302020302020302020302020302020302020302020302020302020300A2020202D322E303632352020202D302E3030303020202020302E303030302043202020302020302020302020302020302020302020302020302020302020302020302020300A2020202D322E3437353020202020302E3731343520202020302E3030303020436C2020302020302020302020302020302020302020302020302020302020302020302020300A20202020302E3431323520202020302E3030303020202020302E30303030204F202020302020302020302020302020302020302020302020302020302020302020302020300A20202020312E3233373520202020302E3030303020202020302E303030302043202020302020302020302020302020302020302020302020302020302020302020302020300A20202020312E3635303020202020302E3731343520202020302E303030302043202020302020302020302020302020302020302020302020302020302020302020302020300A20202020322E3437353020202020302E3731343520202020302E3030303020436C2020302020302020302020302020302020302020302020302020302020302020302020300A2020332020342020312020302020202020200A2020322020332020312020302020202020200A2020342020352020312020302020202020200A2020312020322020312020302020202020200A2020372020382020312020302020202020200A2020362020372020312020302020202020200A2020382020392020312020302020202020200A2020312020362020312020302020202020200A4D2020454E44
Contributor: KOGA M, UNIV. OF OCCUPATIONAL AND ENVIRONMENTAL HEALTH
InstType: EI
InstName: JEOL JMS-01-SG
IoniMethod: _ENERGY 70 eV
IonPolarity: pos
Date: 2010-10-09 19:48:36+02:00
Num Peaks: 15
43 28 44 38 49 45 61 2 62 32 63 687 65 221 93 999 94 34 95 304 
96 21 106 5 123 249 125 72 171 30 
