Name: 5ALPHA-CHOLEST-3-ENE
MW: 370
Formula: C27H46
Synonym: MassBank: JP001889
Synonym: 5ALPHA-CHOLEST-3-ENE
Synonym: 3-CHOLESTENE
Structure: 35414C5048412D43484F4C4553542D332D454E452E6D6F6C0A20204368656D447261773032323231303136353132440A2033332033362020302020302020302020302020302020302020302020303939392056323030300A2020202D342E303930392020202D312E3837333220202020302E303030302043202020302020302020302020302020302020302020302020302020302020302020302020300A2020202D342E303930392020202D312E3034383220202020302E303030302043202020302020302020302020302020302020302020302020302020302020302020302020300A2020202D332E333736352020202D302E3633353720202020302E303030302043202020302020302020302020302020302020302020302020302020302020302020302020300A2020202D332E333736352020202D322E3238353720202020302E303030302043202020302020302020302020302020302020302020302020302020302020302020302020300A2020202D322E363632302020202D312E3837333220202020302E303030302043202020302020302020302020302020302020302020302020302020302020302020302020300A2020202D312E393437352020202D322E3238353720202020302E303030302043202020302020302020302020302020302020302020302020302020302020302020302020300A2020202D312E323333302020202D312E3837333220202020302E303030302043202020302020302020302020302020302020302020302020302020302020302020302020300A2020202D312E323333302020202D312E3034383220202020302E303030302043202020302020302020302020302020302020302020302020302020302020302020302020300A2020202D302E353138362020202D302E3633353720202020302E303030302043202020302020302020302020302020302020302020302020302020302020302020302020300A20202020302E323636302020202D302E3839303720202020302E303030302043202020302020302020302020302020302020302020302020302020302020302020302020300A20202020302E373531302020202D302E3232333220202020302E303030302043202020302020302020302020302020302020302020302020302020302020302020302020300A20202020302E3236363020202020302E3434343220202020302E303030302043202020302020302020302020302020302020302020302020302020302020302020302020300A20202020302E3532313020202020312E3232383820202020302E303030302043202020302020302020302020302020302020302020302020302020302020302020302020300A2020202D302E3531383620202020302E3138393320202020302E303030302043202020302020302020302020302020302020302020302020302020302020302020302020300A2020202D302E3531383620202020312E3031343320202020302E303030302043202020302020302020302020302020302020302020302020302020302020302020302020300A2020202D312E3233333020202020302E3630313820202020302E303030302043202020302020302020302020302020302020302020302020302020302020302020302020300A2020202D312E3934373520202020302E3138393320202020302E303030302043202020302020302020302020302020302020302020302020302020302020302020302020300A2020202D312E393437352020202D302E3633353720202020302E303030302043202020302020302020302020302020302020302020302020302020302020302020302020300A2020202D322E363632302020202D312E3034383220202020302E303030302043202020302020302020302020302020302020302020302020302020302020302020302020300A2020202D322E363632302020202D302E3232333220202020302E303030302043202020302020302020302020302020302020302020302020302020302020302020302020300A2020202D322E363632302020202D322E3639383220202020302E303030302048202020302020302020302020302020302020302020302020302020302020302020302020300A2020202D312E393437352020202D312E3436303720202020302E303030302048202020302020302020302020302020302020302020302020302020302020302020302020300A2020202D312E323333302020202D302E3232333220202020302E303030302048202020302020302020302020302020302020302020302020302020302020302020302020300A2020202D302E353138362020202D312E3436303720202020302E303030302048202020302020302020302020302020302020302020302020302020302020302020302020300A20202020312E3039313020202020302E3434343220202020302E303030302048202020302020302020302020302020302020302020302020302020302020302020302020300A20202020302E3733343520202020322E3032353720202020302E303030302048202020302020302020302020302020302020302020302020302020302020302020302020300A20202020312E3331323020202020302E3939343520202020302E303030302043202020302020302020302020302020302020302020302020302020302020302020302020300A2020202D302E3237303020202020312E3436333220202020302E303030302043202020302020302020302020302020302020302020302020302020302020302020302020300A20202020312E3931303420202020312E3536323420202020302E303030302043202020302020302020302020302020302020302020302020302020302020302020302020300A20202020322E3730313520202020312E3332383120202020302E303030302043202020302020302020302020302020302020302020302020302020302020302020302020300A20202020332E3239393920202020312E3839363020202020302E303030302043202020302020302020302020302020302020302020302020302020302020302020302020300A20202020342E3039303920202020312E3636313720202020302E303030302043202020302020302020302020302020302020302020302020302020302020302020302020300A20202020332E3130373320202020322E3639383220202020302E303030302043202020302020302020302020302020302020302020302020302020302020302020302020300A2020312020322020312020302020202020200A2020322020332020312020302020202020200A2020312020342020322020302020202020200A2020342020352020312020302020202020200A2020352020362020312020302020202020200A2020362020372020312020302020202020200A2020372020382020312020302020202020200A2020382020392020312020302020202020200A2020392031302020312020302020202020200A2031302031312020312020302020202020200A2031312031322020312020302020202020200A2031322031332020312020302020202020200A2031322031342020312020302020202020200A2020392031342020312020302020202020200A2031342031352020312020312020202020200A2031342031362020312020302020202020200A2031362031372020312020302020202020200A2031372031382020312020302020202020200A2020382031382020312020302020202020200A2031382031392020312020302020202020200A2020332031392020312020302020202020200A2020352031392020312020302020202020200A2031392032302020312020312020202020200A2020352032312020312020362020202020200A2031382032322020312020362020202020200A2020382032332020312020312020202020200A2020392032342020312020362020202020200A2031322032352020312020362020202020200A2031332032362020312020312020202020200A2031332032372020312020302020202020200A2031332032382020312020302020202020200A2032372032392020312020302020202020200A2032392033302020312020302020202020200A2033302033312020312020302020202020200A2033312033322020312020302020202020200A2033312033332020312020302020202020200A4D2020454E44
Contributor: SEYAMA Y, DEPT. OF PHYSIOL. CHEMISTRY AND NUTRITION, FAC. OF MEDICINE, UNIV. OF TOKYO
InstType: EI
InstName: SHIMADZU LKB-9000B
IoniMethod: _ENERGY 70 eV
IonPolarity: pos
Date: 2010-10-09 19:48:36+02:00
Num Peaks: 218
36 80 38 31 39 84 40 36 41 613 42 82 43 999 45 299 46 114 50 68 
52 23 53 148 54 65 55 859 56 116 57 570 58 24 59 124 65 80 66 45 
67 601 68 167 69 520 70 75 71 246 72 18 73 10 74 28 77 260 78 85 
79 744 80 182 81 864 82 174 83 369 84 38 85 46 87 20 89 12 90 24 
91 727 92 252 93 841 94 332 95 797 96 95 97 236 98 29 99 19 100 86 
101 27 103 29 104 109 105 690 106 604 107 734 108 444 109 427 110 65 111 331 
112 56 113 42 114 23 115 54 116 10 117 125 118 57 119 353 120 207 121 362 
122 143 123 243 125 50 126 34 127 14 128 56 129 40 130 26 131 150 132 63 
133 316 134 166 135 255 136 79 137 83 138 44 124 36 139 37 140 30 141 49 
143 17 144 29 145 227 146 86 147 549 148 183 149 194 150 37 151 57 152 23 
153 45 154 13 155 13 156 10 157 11 158 15 159 133 160 112 161 535 162 292 
163 123 164 30 165 28 166 30 167 36 171 19 172 50 173 125 174 68 175 154 
176 401 177 152 178 24 179 3 181 21 185 37 186 36 187 9 188 82 189 92 
190 65 192 2 193 21 194 42 197 13 198 4 199 31 201 250 202 123 203 49 
204 76 205 10 206 14 207 2 214 16 215 927 216 546 217 25 218 40 219 26 
220 24 221 2 222 24 225 15 226 23 227 3 229 54 230 190 231 80 232 3 
233 10 241 22 242 21 243 3 244 22 245 11 246 15 247 3 249 26 251 30 
252 12 253 1 255 31 256 45 257 311 258 8 259 11 260 29 261 30 262 6 
263 20 267 29 268 26 271 3 272 13 273 10 275 61 276 2 279 16 280 20 
281 22 285 3 287 48 300 27 301 102 302 4 306 27 313 22 314 27 315 6 
316 835 317 223 318 27 325 2 328 25 333 14 334 16 339 3 341 33 355 379 
356 118 357 2 366 25 368 12 370 914 371 30 372 50 399 11 
