Name: MassBank: JP004631
MW: 210
Formula: C15H14O
Synonym: MassBank: JP004631
Synonym: 4-PHENYLBICYCLO(3.2.2)NONA-3,6-DIEN-2-ONE
Structure: 342D5048454E594C42494359434C4F28332E322E32294E4F4E412D332C362D4449454E2D322D4F4E452E6D6F6C0A20204368656D447261773034323231303230353732440A2031362031382020302020302020302020302020302020302020302020303939392056323030300A2020202D322E313633392020202D302E3134313020202020302E303030302043202020302020302020302020302020302020302020302020302020302020302020302020300A2020202D312E3639393920202020302E3636323820202020302E303030302043202020302020302020302020302020302020302020302020302020302020302020302020300A2020202D302E3736333420202020302E3636323820202020302E303030302043202020302020302020302020302020302020302020302020302020302020302020302020300A2020202D302E323934372020202D302E3134393020202020302E303030302043202020302020302020302020302020302020302020302020302020302020302020302020300A2020202D302E373538362020202D302E3935323520202020302E303030302043202020302020302020302020302020302020302020302020302020302020302020302020300A2020202D302E373538362020202D302E3133363120202020302E303030302043202020302020302020302020302020302020302020302020302020302020302020302020300A2020202D312E3436313720202020302E3236393820202020302E303030302043202020302020302020302020302020302020302020302020302020302020302020302020300A2020202D322E313633392020202D302E3936313120202020302E303030302043202020302020302020302020302020302020302020302020302020302020302020302020300A2020202D312E343535372020202D312E3337303020202020302E303030302043202020302020302020302020302020302020302020302020302020302020302020302020300A2020202D322E3130383220202020312E3337303020202020302E30303030204F202020302020302020302020302020302020302020302020302020302020302020302020300A20202020302E353330362020202D302E3134393020202020302E303030302043202020302020302020302020302020302020302020302020302020302020302020302020300A20202020302E3934373720202020302E3537333420202020302E303030302043202020302020302020302020302020302020302020302020302020302020302020302020300A20202020312E3735393120202020302E3537333420202020302E303030302043202020302020302020302020302020302020302020302020302020302020302020302020300A20202020322E313633392020202D302E3132373820202020302E303030302043202020302020302020302020302020302020302020302020302020302020302020302020300A20202020312E373539372020202D302E3832383020202020302E303030302043202020302020302020302020302020302020302020302020302020302020302020302020300A20202020302E393531392020202D302E3832383020202020302E303030302043202020302020302020302020302020302020302020302020302020302020302020302020300A2020312020322020312020302020202020200A2020322020332020312020302020202020200A2020332020342020322020302020202020200A2020342020352020312020302020202020200A2020352020362020312020302020202020200A2020362020372020322020302020202020200A2020382020392020312020302020202020200A2020312020372020312020302020202020200A2020312020382020312020302020202020200A2020352020392020312020302020202020200A2020322031302020322020302020202020200A2031312031322020312020302020202020200A2031322031332020322020302020202020200A2031332031342020312020302020202020200A2031342031352020322020302020202020200A2031352031362020312020302020202020200A2031312031362020322020302020202020200A2020342031312020312020302020202020200A4D2020454E44
Contributor: KATO T, DEPT. OF CHEM., FAC. OF SCI., TOHOKU UNIV.
InstType: EI
InstName: HITACHI M-52
IoniMethod: _ENERGY 25 eV
IonPolarity: pos
Date: 2010-10-09 19:48:36+02:00
Num Peaks: 52
17 55 18 662 28 314 32 9 43 100 58 35 77 49 78 6 79 100 80 63 
91 259 92 4 102 51 103 178 104 177 105 62 106 59 107 33 115 61 116 3 
118 29 119 41 128 86 129 2 131 220 132 116 133 88 141 13 142 51 152 67 
153 98 154 18 155 59 165 177 166 198 167 60 168 116 169 41 178 39 179 7 
181 167 182 79 183 20 191 19 192 523 193 84 194 41 195 15 196 31 209 271 
210 999 211 136 
