Name: BROMOMETHANE
CAS: 74-83-9
MW: 93
Formula: CH3Br
Synonym: MassBank: JP000968
Synonym: BROMOMETHANE
Structure: 310A380A42524F4D4F4D455448414E452E6D6F6C0A20204368656D447261773039303631303031323432440A2020322020312020302020302020302020302020302020302020302020303939392056323030300A2020202D302E3431323520202020302E3030303020202020302E303030302043202020302020302020302020302020302020302020302020302020302020302020302020300A20202020302E3431323520202020302E3030303020202020302E303030302042722020302020302020302020302020302020302020302020302020302020302020302020300A2020312020322020312020302020202020200A4D2020454E44
Contributor: KOGA M, UNIV. OF OCCUPATIONAL AND ENVIRONMENTAL HEALTH
InstType: EI
InstName: JEOL JMS-01-SG
IoniMethod: _ENERGY 70 eV
IonPolarity: pos
Date: 2010-10-09 19:48:36+02:00
Num Peaks: 10
79 213 80 43 81 205 82 4 91 90 92 43 93 216 94 999 95 141 96 893 
