Name: MassBank: JP008242
CAS: 111-94-4
MW: 123
Formula: C6H9N3
Synonym: MassBank: JP008242
Synonym: 3,3'-IMINODIPROPIONITRILE
Synonym: BIS(2-CYANOETHYL)AMINE
Structure: 310A32320A332C33272D494D494E4F444950524F50494F4E495452494C452E6D6F6C0A20204368656D447261773032323131303139343232440A2020392020382020302020302020302020302020302020302020302020303939392056323030300A2020202D302E303030302020202D302E3431323520202020302E30303030204E202020302020302020302020302020302020302020302020302020302020302020302020300A20202020322E3134333420202020302E3030303020202020302E303030302043202020302020302020302020302020302020302020302020302020302020302020302020300A20202020312E343238392020202D302E3431323520202020302E303030302043202020302020302020302020302020302020302020302020302020302020302020302020300A20202020302E3731343520202020302E3030303020202020302E303030302043202020302020302020302020302020302020302020302020302020302020302020302020300A20202020322E3835373920202020302E3431323520202020302E30303030204E202020302020302020302020302020302020302020302020302020302020302020302020300A2020202D322E313433342020202D302E3030303020202020302E303030302043202020302020302020302020302020302020302020302020302020302020302020302020300A2020202D312E343238392020202D302E3431323520202020302E303030302043202020302020302020302020302020302020302020302020302020302020302020302020300A2020202D302E373134352020202D302E3030303020202020302E303030302043202020302020302020302020302020302020302020302020302020302020302020302020300A2020202D322E3835373920202020302E3431323520202020302E30303030204E202020302020302020302020302020302020302020302020302020302020302020302020300A2020322020332020312020302020202020200A2020332020342020312020302020202020200A2020322020352020332020302020202020200A2020312020342020312020302020202020200A2020362020372020312020302020202020200A2020372020382020312020302020202020200A2020362020392020332020302020202020200A2020312020382020312020302020202020200A4D2020454E44
Contributor: UBE SCIENTIFIC ANALYSIS LABORATORY
InstType: EI
InstName: HITACHI M-60
IoniMethod: _ENERGY 70 eV
IonPolarity: pos
Date: 2010-10-09 19:48:36+02:00
Num Peaks: 26
15 34 26 46 27 103 28 306 29 53 30 175 38 6 39 21 40 61 41 76 
42 999 43 127 51 14 52 61 53 20 54 523 55 42 56 59 57 11 66 12 
67 9 81 58 82 23 83 859 84 52 123 6 
