Name: 5-ETHYL-4-PROPYLTHIAZOLE
MW: 155
Formula: C8H13NS
Synonym: MassBank: JP002012
Synonym: 5-ETHYL-4-PROPYLTHIAZOLE
Structure: 352D455448594C2D342D50524F50594C544849415A4F4C452E6D6F6C0A20204368656D447261773034323331303035313632440A2031302031302020302020302020302020302020302020302020302020303939392056323030300A2020202D312E3531363420202020302E3435393620202020302E303030302053202020302020302020302020302020302020302020302020302020302020302020302020300A2020202D312E3130333920202020312E3137343020202020302E303030302043202020302020302020302020302020302020302020302020302020302020302020302020300A2020202D302E3239363920202020312E3030323520202020302E30303030204E202020302020302020302020302020302020302020302020302020302020302020302020300A2020202D302E3231303720202020302E3138323020202020302E303030302043202020302020302020302020302020302020302020302020302020302020302020302020300A2020202D302E393634332020202D302E3135333520202020302E303030302043202020302020302020302020302020302020302020302020302020302020302020302020300A20202020302E353033382020202D302E3233303520202020302E303030302043202020302020302020302020302020302020302020302020302020302020302020302020300A20202020312E3231383320202020302E3138323020202020302E303030302043202020302020302020302020302020302020302020302020302020302020302020302020300A20202020312E393332382020202D302E3233303520202020302E303030302043202020302020302020302020302020302020302020302020302020302020302020302020300A2020202D312E313335392020202D302E3936303520202020302E303030302043202020302020302020302020302020302020302020302020302020302020302020302020300A2020202D312E393332382020202D312E3137343020202020302E303030302043202020302020302020302020302020302020302020302020302020302020302020302020300A2020312020322020312020302020202020200A2020322020332020322020302020202020200A2020332020342020312020302020202020200A2020342020352020322020302020202020200A2020312020352020312020302020202020200A2020362020372020312020302020202020200A2020372020382020312020302020202020200A2020342020362020312020302020202020200A2020392031302020312020302020202020200A2020352020392020312020302020202020200A4D2020454E44
Contributor: SASAKI S, TOYOHASHI UNIV. OF TECH.
InstType: EI
InstName: MX-1303
IoniMethod: _ENERGY 50 eV
IonPolarity: pos
Date: 2010-10-09 19:48:36+02:00
Num Peaks: 93
26 43 27 298 29 109 37 1 38 33 39 306 40 52 41 40 42 73 43 471 
45 322 46 2 47 39 49 19 50 27 51 7 52 40 53 97 54 28 55 13 
56 27 58 80 59 156 60 2 61 20 62 16 63 28 64 1 65 154 66 31 
67 46 68 3 69 125 70 61 71 500 72 4 73 55 74 13 75 14 76 2 
77 92 78 26 79 55 80 2 81 19 82 26 83 25 84 5 85 90 86 18 
87 11 91 2 92 15 93 17 94 18 95 1 96 13 97 76 98 225 99 21 
100 28 101 10 103 11 104 1 105 18 107 11 109 10 110 1 111 38 112 209 
113 44 114 3 115 10 122 11 124 36 125 5 126 800 127 999 128 105 129 5 
138 28 139 13 140 282 141 4 142 19 148 11 152 14 153 1 154 125 155 298 
156 46 157 2 158 10 
