Name: METHANETRICARBALDEHYDE
MW: 100
Formula: C4H4O3
Synonym: MassBank: JP003713
Synonym: METHANETRICARBALDEHYDE
Structure: 310A31380A4D455448414E4554524943415242414C4445485944452E6D6F6C0A20204368656D447261773038313131303233303232440A2020372020362020302020302020302020302020302020302020302020303939392056323030300A2020202D302E303030302020202D302E3335373220202020302E303030302043202020302020302020302020302020302020302020302020302020302020302020302020300A20202020302E3431323520202020302E3335373220202020302E303030302043202020302020302020302020302020302020302020302020302020302020302020302020300A2020202D302E3030303020202020312E3037313720202020302E30303030204F202020302020302020302020302020302020302020302020302020302020302020302020300A20202020302E343132352020202D312E3037313720202020302E303030302043202020302020302020302020302020302020302020302020302020302020302020302020300A20202020312E323337352020202D312E3037313720202020302E30303030204F202020302020302020302020302020302020302020302020302020302020302020302020300A2020202D302E383235302020202D302E3335373220202020302E303030302043202020302020302020302020302020302020302020302020302020302020302020302020300A2020202D312E323337352020202D312E3037313720202020302E30303030204F202020302020302020302020302020302020302020302020302020302020302020302020300A2020322020332020322020302020202020200A2020312020322020312020302020202020200A2020342020352020322020302020202020200A2020312020342020312020302020202020200A2020362020372020322020302020202020200A2020312020362020312020302020202020200A4D2020454E44
Contributor: SASAKI S, TOYOHASHI UNIV. OF TECH.
InstType: EI
InstName: Unknown
IoniMethod: EI
IonPolarity: pos
Date: 2010-10-09 19:48:36+02:00
Num Peaks: 19
40 36 41 130 42 261 43 24 44 43 45 22 52 22 53 34 54 326 55 94 
68 25 69 9 70 43 71 362 72 999 73 8 99 14 100 413 101 29 
