Name: N-ACETYL-ISOLEUCINE METHYLESTER
MW: 187
Formula: C9H17NO3
Synonym: MassBank: JP000088
Synonym: N-ACETYL-ISOLEUCINE METHYLESTER
Structure: 303033365F4E2D41434554594C2D49534F4C455543494E45204D455448594C45535445522E6D6F6C0A20204368656D447261773039303331303137303132440A2031352031342020302020302020302020302020302020302020302020303939392056323030300A2020202D302E363138382020202D302E3731343520202020302E303030302043202020302020302020302020302020302020302020302020302020302020302020302020300A20202020302E3631383820202020302E3030303020202020302E30303030204E202020302020302020302020302020302020302020302020302020302020302020302020300A2020202D302E3230363220202020302E3030303020202020302E303030302043202020302020302020302020302020302020302020302020302020302020302020302020300A2020202D302E3631383820202020302E3731343520202020302E303030302043202020302020302020302020302020302020302020302020302020302020302020302020300A2020202D312E3434333720202020302E3731343520202020302E303030302043202020302020302020302020302020302020302020302020302020302020302020302020300A2020202D312E3835363320202020302E3030303020202020302E303030302043202020302020302020302020302020302020302020302020302020302020302020302020300A2020202D302E3230363220202020312E3432383920202020302E303030302043202020302020302020302020302020302020302020302020302020302020302020302020300A2020202D312E343433372020202D302E3731343520202020302E30303030204F202020302020302020302020302020302020302020302020302020302020302020302020300A2020202D302E323036322020202D312E3432383920202020302E30303030204F202020302020302020302020302020302020302020302020302020302020302020302020300A20202020312E3033313320202020302E3731343520202020302E303030302043202020302020302020302020302020302020302020302020302020302020302020302020300A20202020312E3835363320202020302E3731343520202020302E30303030204F202020302020302020302020302020302020302020302020302020302020302020302020300A20202020302E3631383820202020312E3432383920202020302E303030302043202020302020302020302020302020302020302020302020302020302020302020302020300A20202020302E363138382020202D312E3432383920202020302E303030302043202020302020302020302020302020302020302020302020302020302020302020302020300A2020202D312E3033313320202020302E3030303020202020302E303030302048202020302020302020302020302020302020302020302020302020302020302020302020300A2020202D302E393237362020202D302E3430303220202020302E303030302048202020302020302020302020302020302020302020302020302020302020302020302020300A2020332020322020312020312020202020200A2020312020332020312020302020202020200A2020332020342020312020302020202020200A2020342020352020312020302020202020200A2020352020362020312020302020202020200A2020342020372020312020312020202020200A2020312020382020322020302020202020200A2020312020392020312020302020202020200A2031302031312020322020302020202020200A2031302031322020312020302020202020200A2020322031302020312020302020202020200A2020392031332020312020302020202020200A2020342031342020312020312020202020200A2020332031352020312020312020202020200A4D2020454E44
Contributor: YAMAMOTO M, DEP. CHEMISTRY, FAC. SCIENCE, NARA WOMEN'S UNIV.
InstType: EI
InstName: HITACHI RMU-6M
IoniMethod: _ENERGY 70 eV
IonPolarity: pos
Date: 2010-10-09 19:48:36+02:00
Num Peaks: 54
14 12 15 413 26 12 27 15 28 328 29 253 30 410 31 1 33 139 39 100 
40 14 41 30 42 65 43 909 45 108 46 2 53 20 54 31 55 46 56 16 
57 189 58 31 59 37 60 20 67 19 68 25 69 158 70 7 71 83 72 49 
74 62 84 5 85 28 86 999 87 69 88 50 89 209 90 37 96 59 97 3 
98 19 99 556 100 40 113 2 116 22 126 28 128 896 129 9 130 19 131 131 
144 15 155 1 156 17 187 8 
