Name: ISOPROPYL ALCOHOL(2-D)
MW: 60
Formula: C3H8O
Synonym: MassBank: JP001654
Synonym: ISOPROPYL ALCOHOL(2-D)
Structure: 310A31350A303239335F49534F50524F50594C20414C434F484F4C28322D44292E6D6F6C0A20204368656D447261773039303631303135353932440A2020352020342020302020302020302020302020302020302020302020303939392056323030300A2020202D302E3832353020202020302E3030303020202020302E303030302043202020302020302020302020302020302020302020302020302020302020302020302020300A20202020302E3030303020202020302E3030303020202020302E303030302043202020302020302020302020302020302020302020302020302020302020302020302020300A20202020302E3030303020202020302E3832353020202020302E303030302043202020302020302020302020302020302020302020302020302020302020302020302020300A20202020302E3832353020202020302E3030303020202020302E30303030204F202020302020302020302020302020302020302020302020302020302020302020302020300A20202020302E303030302020202D302E3832353020202020302E303030302048202020312020302020302020302020302020302020302020302020302020302020302020300A2020312020322020312020302020202020200A2020322020332020312020302020202020200A2020322020342020312020302020202020200A2020322020352020312020302020202020200A4D202049534F20203120202035202020320A4D2020454E44
Contributor: TAJIMA S, GUNMA COLLEGE OF TECHNOLOGY
InstType: EI
InstName: HITACHI RMU-7M
IoniMethod: _ENERGY 70 eV
IonPolarity: pos
Date: 2010-10-09 19:48:36+02:00
Num Peaks: 19
15 25 19 26 20 21 27 39 28 81 29 31 30 25 31 24 32 11 39 22 
40 17 41 18 42 40 43 62 44 71 45 32 46 999 47 19 59 16 
