Name: BUTYLHYDRAZONE ACETALDEHYDE
MW: 114
Formula: C6H14N2
Synonym: MassBank: JP000524
Synonym: BUTYLHYDRAZONE ACETALDEHYDE
Synonym: ACETALDEHYDE BUTYLHYDRAZONE
Structure: 310A32300A425554594C48594452415A4F4E452041434554414C4445485944452E6D6F6C0A20204368656D447261773036323431303035323732440A2020382020372020302020302020302020302020302020302020302020303939392056323030300A20202020312E373836322020202D302E3230363220202020302E303030302043202020302020302020302020302020302020302020302020302020302020302020302020300A20202020322E3530303620202020302E3230363320202020302E303030302043202020302020302020302020302020302020302020302020302020302020302020302020300A20202020312E3037313720202020302E3230363320202020302E30303030204E202020302020302020302020302020302020302020302020302020302020302020302020300A20202020302E333537322020202D302E3230363220202020302E30303030204E202020302020302020302020302020302020302020302020302020302020302020302020300A2020202D302E3335373220202020302E3230363320202020302E303030302043202020302020302020302020302020302020302020302020302020302020302020302020300A2020202D312E303731372020202D302E3230363220202020302E303030302043202020302020302020302020302020302020302020302020302020302020302020302020300A2020202D312E3738363220202020302E3230363220202020302E303030302043202020302020302020302020302020302020302020302020302020302020302020302020300A2020202D322E353030362020202D302E3230363320202020302E303030302043202020302020302020302020302020302020302020302020302020302020302020302020300A2020312020322020312020302020202020200A2020332020342020312020302020202020200A2020352020362020312020302020202020200A2020362020372020312020302020202020200A2020372020382020312020302020202020200A2020342020352020312020302020202020200A2020312020332020322020302020202020200A4D2020454E44
Contributor: SASAKI S, TOYOHASHI UNIV. OF TECH.
InstType: EI
InstName: SHIMADZU LKB-2091
IoniMethod: _ENERGY 70 eV
IonPolarity: pos
Date: 2010-10-09 19:48:36+02:00
Num Peaks: 31
28 142 29 118 30 631 31 29 39 37 40 16 41 87 42 22 43 79 44 50 
45 8 54 0 55 20 56 42 57 63 58 5 59 5 69 16 70 21 71 999 
72 118 73 26 83 7 84 1 85 6 99 71 100 5 112 1 113 10 114 213 
115 21 
