Name: MassBank: JP009975
MW: 84
Formula: C5H8O
Synonym: MassBank: JP009975
Synonym: 2-METHYL-3,4-EPOXY-1-BUTENE
Synonym: 2-ISOPROPENYLOXIRANE
Structure: 310A31370A322D4D455448594C2D332C342D45504F58592D312D425554454E452E6D6F6C0A20204368656D447261773031323231303030313132440A2020362020362020302020302020302020302020302020302020302020303939392056323030300A2020202D302E393736302020202D302E3731343520202020302E303030302043202020302020302020302020302020302020302020302020302020302020302020302020300A2020202D302E3536333520202020302E3030303020202020302E303030302043202020302020302020302020302020302020302020302020302020302020302020302020300A20202020302E3236313520202020302E3030303020202020302E303030302043202020302020302020302020302020302020302020302020302020302020302020302020300A20202020302E393736302020202D302E3431323520202020302E303030302043202020302020302020302020302020302020302020302020302020302020302020302020300A20202020302E3937363020202020302E3431323520202020302E30303030204F202020302020302020302020302020302020302020302020302020302020302020302020300A2020202D302E3937363020202020302E3731343520202020302E303030302043202020302020302020302020302020302020302020302020302020302020302020302020300A2020312020322020322020302020202020200A2020322020332020312020302020202020200A2020332020342020312020302020202020200A2020332020352020312020302020202020200A2020342020352020312020302020202020200A2020322020362020312020302020202020200A4D2020454E44
Contributor: KURARAY CO., LTD.
InstType: EI
InstName: JEOL JMS-D-300
IoniMethod: _ENERGY 70 eV
IonPolarity: pos
Date: 2010-10-09 19:48:36+02:00
Num Peaks: 26
26 58 27 200 28 95 29 16 30 34 37 83 38 175 39 999 40 81 41 300 
42 47 43 5 49 43 50 211 51 196 52 11 53 526 54 134 55 509 56 43 
57 36 67 21 68 21 69 23 83 357 84 105 
