Name: TRANS-DECAHYDRO-BETA-NAPHTHOL
MW: 154
Formula: C10H18O
Synonym: MassBank: JP006565
Synonym: TRANS-DECAHYDRO-BETA-NAPHTHOL
Synonym: TRANS-3-HYDROXYBICYCLO(4.4.0)DECANE
Structure: 5452414E532D332D485944524F585942494359434C4F28342E342E3029444543414E452E6D6F6C0A20204368656D447261773038313231303038303032440A2031332031342020302020302020302020302020302020302020302020303939392056323030300A2020202D302E3230363220202020302E3335373220202020302E303030302043202020302020302020302020302020302020302020302020302020302020302020302020300A20202020302E3631383820202020302E3335373220202020302E303030302043202020302020302020302020302020302020302020302020302020302020302020302020300A20202020312E303331332020202D302E3335373220202020302E303030302043202020302020302020302020302020302020302020302020302020302020302020302020300A20202020302E363138382020202D312E3037313720202020302E303030302043202020302020302020302020302020302020302020302020302020302020302020302020300A2020202D302E323036322020202D312E3037313720202020302E303030302043202020302020302020302020302020302020302020302020302020302020302020302020300A2020202D302E363138382020202D302E3335373220202020302E303030302043202020302020302020302020302020302020302020302020302020302020302020302020300A2020202D312E343433382020202D302E3335373220202020302E303030302043202020302020302020302020302020302020302020302020302020302020302020302020300A2020202D312E3835363320202020302E3335373220202020302E303030302043202020302020302020302020302020302020302020302020302020302020302020302020300A2020202D312E3434333820202020312E3037313720202020302E303030302043202020302020302020302020302020302020302020302020302020302020302020302020300A2020202D302E3631383820202020312E3037313720202020302E303030302043202020302020302020302020302020302020302020302020302020302020302020302020300A20202020312E383536332020202D302E3335373220202020302E30303030204F202020302020302020302020302020302020302020302020302020302020302020302020300A20202020302E3230363220202020312E3037313720202020302E303030302048202020302020302020302020302020302020302020302020302020302020302020302020300A2020202D312E303331332020202D312E3037313720202020302E303030302048202020302020302020302020302020302020302020302020302020302020302020302020300A2020312020322020312020302020202020200A2020322020332020312020302020202020200A2020332020342020312020302020202020200A2020342020352020312020302020202020200A2020352020362020312020302020202020200A2020362020372020312020302020202020200A2020372020382020312020302020202020200A2020382020392020312020302020202020200A2020392031302020312020302020202020200A2020312031302020312020302020202020200A2020312020362020312020302020202020200A2020332031312020312020302020202020200A2020312031322020312020362020202020200A2020362031332020312020312020202020200A4D2020454E44
Contributor: HISAHIRO HAGIWARA, CHEMICAL RESEARCH INSTITUTE OF NON-AQUEOUSSOLUTIONS TOHOKU UNIV.
InstType: EI
InstName: HITACHI M-80B
IoniMethod: _ENERGY 70 eV
IonPolarity: pos
Date: 2010-10-09 19:48:36+02:00
Num Peaks: 56
15 16 26 12 27 252 28 26 29 270 30 11 31 60 39 303 40 43 41 629 
42 78 43 160 44 106 45 20 50 10 51 40 52 25 53 173 54 214 55 631 
56 57 57 166 58 24 65 56 66 61 67 548 68 190 69 133 70 142 71 23 
77 103 78 39 79 356 80 190 81 386 82 149 83 109 84 19 91 54 92 12 
93 255 94 800 95 654 96 58 97 187 98 18 107 300 108 211 109 27 110 83 
111 16 121 341 122 30 135 25 136 999 137 102 
