Name: PROPYLENE
CAS: 115-07-1
MW: 42
Formula: C3H6
Synonym: MassBank: JP001581
Synonym: PROPYLENE
Synonym: PROPENE
Structure: 310A31300A50524F50594C454E452E6D6F6C0A20204368656D447261773038313231303036313932440A2020332020322020302020302020302020302020302020302020302020303939392056323030300A20202020302E373134352020202D302E3230363320202020302E303030302043202020302020302020302020302020302020302020302020302020302020302020302020300A2020202D302E3030303020202020302E3230363320202020302E303030302043202020302020302020302020302020302020302020302020302020302020302020302020300A2020202D302E373134352020202D302E3230363320202020302E303030302043202020302020302020302020302020302020302020302020302020302020302020302020300A2020312020322020322020302020202020200A2020322020332020312020302020202020200A4D2020454E44
Contributor: MASS SPECTROSCOPY SOC. OF JAPAN (MSSJ)
InstType: EI
InstName: HITACHI RMU-5B
IoniMethod: _ENERGY 80 eV
IonPolarity: pos
Date: 2010-10-09 19:48:36+02:00
Num Peaks: 19
12 11 13 16 14 35 15 50 19 29 19.5 18 20 20 25 26 26 116 27 265 
28 22 36 30 37 158 38 213 39 734 40 303 41 999 42 661 43 23 
