Name: BUTANETHIOL
MW: 90
Formula: C4H10S
Synonym: MassBank: JP008742
Synonym: BUTANETHIOL
Structure: 310A31340A425554414E455448494F4C2E6D6F6C0A20204368656D447261773039303631303031353932440A2020352020342020302020302020302020302020302020302020302020303939392056323030300A2020202D302E3731343520202020302E3230363320202020302E303030302043202020302020302020302020302020302020302020302020302020302020302020302020300A20202020302E303030302020202D302E3230363320202020302E303030302043202020302020302020302020302020302020302020302020302020302020302020302020300A20202020302E3731343520202020302E3230363320202020302E303030302043202020302020302020302020302020302020302020302020302020302020302020302020300A20202020312E343238392020202D302E3230363220202020302E303030302043202020302020302020302020302020302020302020302020302020302020302020302020300A2020202D312E343238392020202D302E3230363320202020302E303030302053202020302020302020302020302020302020302020302020302020302020302020302020300A2020312020322020312020302020202020200A2020322020332020312020302020202020200A2020332020342020312020302020202020200A2020312020352020312020302020202020200A4D2020454E44
Contributor: SODA AROMATIC CO., LTD.
InstType: EI
InstName: HITACHI M-80B
IoniMethod: _ENERGY 70 eV
IonPolarity: pos
Date: 2010-10-09 19:48:36+02:00
Num Peaks: 35
15 23 26 57 27 447 28 150 29 314 33 21 34 18 35 73 37 10 38 18 
39 211 40 40 41 830 42 50 43 113 45 160 46 97 47 378 48 60 49 22 
50 17 51 15 53 19 54 10 55 124 56 999 57 167 58 47 59 48 60 22 
61 197 62 11 90 514 91 24 92 19 
