Name: SUCCINIMIDE
MW: 99
Formula: C4H5NO2
Synonym: MassBank: JP001388
Synonym: SUCCINIMIDE
Structure: 310A31390A53554343494E494D4944452E6D6F6C0A20204368656D447261773038313231303036353632440A2020372020372020302020302020302020302020302020302020302020303939392056323030300A2020202D302E373133362020202D302E3239373520202020302E303030302043202020302020302020302020302020302020302020302020302020302020302020302020300A2020202D312E333831302020202D302E3738323420202020302E30303030204F202020302020302020302020302020302020302020302020302020302020302020302020300A2020202D302E3731333620202020302E3532373520202020302E303030302043202020302020302020302020302020302020302020302020302020302020302020302020300A20202020302E3037313120202020302E3738323420202020302E303030302043202020302020302020302020302020302020302020302020302020302020302020302020300A20202020302E3535363020202020302E3131353020202020302E303030302043202020302020302020302020302020302020302020302020302020302020302020302020300A20202020312E3338313020202020302E3131353020202020302E30303030204F202020302020302020302020302020302020302020302020302020302020302020302020300A20202020302E303731312020202D302E3535323420202020302E30303030204E202020302020302020302020302020302020302020302020302020302020302020302020300A2020312020322020322020302020202020200A2020312020332020312020302020202020200A2020332020342020312020302020202020200A2020342020352020312020302020202020200A2020352020362020322020302020202020200A2020312020372020312020302020202020200A2020352020372020312020302020202020200A4D2020454E44
Contributor: HASHIMOTO K, KYOTO COLLEGE OF PHARMACY
InstType: EI
InstName: HITACHI M-80
IoniMethod: _ENERGY 20 eV
IonPolarity: pos
Date: 2010-10-09 19:48:36+02:00
Num Peaks: 5
55 29 56 867 57 29 99 999 100 89 
