Name: MassBank: JP006351
MW: 182
Formula: C10H14O3
Synonym: MassBank: JP006351
Synonym: 1-ACETYL-4,4-ETHYLENEDIOXYCYCLOHEXENE
Structure: 312D41434554594C2D342C342D455448594C454E4544494F58594359434C4F484558454E452E6D6F6C0A20204368656D447261773131313730393231303532440A2031342031352020302020302020302020302020302020302020302020303939392056323030300A2020202D302E383431302020202D302E3335373220202020302E303030302043202020302020302020302020302020302020302020302020302020302020302020302020300A2020202D302E3432383520202020302E3335373220202020302E303030302043202020302020302020302020302020302020302020302020302020302020302020302020300A20202020302E3339363520202020302E3335373220202020302E303030302043202020302020302020302020302020302020302020302020302020302020302020302020300A20202020302E383039302020202D302E3335373220202020302E303030302043202020302020302020302020302020302020302020302020302020302020302020302020300A20202020302E333936352020202D312E3037313720202020302E303030302043202020302020302020302020302020302020302020302020302020302020302020302020300A2020202D302E343238352020202D312E3037313720202020302E303030302043202020302020302020302020302020302020302020302020302020302020302020302020300A20202020322E3037383520202020302E3035353320202020302E303030302043202020302020302020302020302020302020302020302020302020302020302020302020300A20202020322E303738352020202D302E3736393720202020302E303030302043202020302020302020302020302020302020302020302020302020302020302020302020300A20202020312E3239333920202020302E3331303220202020302E30303030204F202020302020302020302020302020302020302020302020302020302020302020302020300A20202020312E323933392020202D312E3032343720202020302E30303030204F202020302020302020302020302020302020302020302020302020302020302020302020300A2020202D312E363636302020202D302E3335373220202020302E303030302043202020302020302020302020302020302020302020302020302020302020302020302020300A2020202D322E303738352020202D312E3037313720202020302E30303030204F202020302020302020302020302020302020302020302020302020302020302020302020300A2020202D322E3037383520202020302E3335373220202020302E303030302043202020302020302020302020302020302020302020302020302020302020302020302020300A2020202D302E3834313020202020312E3037313720202020302E303030302048202020302020302020302020302020302020302020302020302020302020302020302020300A2020312020322020322020302020202020200A2020322020332020312020302020202020200A2020332020342020312020302020202020200A2020342020352020312020302020202020200A2020352020362020312020302020202020200A2020312020362020312020302020202020200A2020372020382020312020302020202020200A2020372020392020312020302020202020200A2020382031302020312020302020202020200A2020342020392020312020302020202020200A2020342031302020312020302020202020200A2031312031322020322020302020202020200A2031312031332020312020302020202020200A2020312031312020312020302020202020200A2020322031342020312020302020202020200A4D2020454E44
Contributor: HISAHIRO HAGIWARA, CHEMICAL RESEARCH INSTITUTE OF NON-AQUEOUSSOLUTIONS TOHOKU UNIV.
InstType: EI
InstName: JEOL JMS-DX-300
IoniMethod: _ENERGY 70 eV
IonPolarity: pos
Date: 2010-10-09 19:48:36+02:00
Num Peaks: 50
31 36 37 87 38 79 39 320 40 35 41 188 42 754 44 162 45 60 51 44 
52 43 53 157 54 28 55 65 57 80 58 712 59 72 65 78 66 46 67 104 
73 79 77 99 81 76 83 31 85 23 87 290 88 44 94 67 95 236 96 44 
99 98 108 36 109 235 110 130 121 49 123 78 125 22 136 42 137 120 138 25 
139 77 140 26 151 80 152 102 154 113 167 295 168 25 182 999 183 116 184 20 
