Name: 3-ACETYL-5-PHENYL-2-ISOXAZOLINE
MW: 189
Formula: C11H11NO2
Synonym: MassBank: JP009354
Synonym: 3-ACETYL-5-PHENYL-2-ISOXAZOLINE
Structure: 332D41434554594C2D352D5048454E594C2D322D49534F58415A4F4C494E452E6D6F6C0A20204368656D447261773032323231303133333632440A2031342031352020302020302020302020302020302020302020302020303939392056323030300A20202020302E333737312020202D312E3136393220202020302E30303030204F202020302020302020302020302020302020302020302020302020302020302020302020300A20202020312E313631372020202D302E3931343220202020302E30303030204E202020302020302020302020302020302020302020302020302020302020302020302020300A20202020312E313631372020202D302E3038393220202020302E303030302043202020302020302020302020302020302020302020302020302020302020302020302020300A20202020302E3337373120202020302E3136353720202020302E303030302043202020302020302020302020302020302020302020302020302020302020302020302020300A2020202D302E313037382020202D302E3530313720202020302E303030302043202020302020302020302020302020302020302020302020302020302020302020302020300A2020202D302E393332382020202D302E3530313720202020302E303030302043202020302020302020302020302020302020302020302020302020302020302020302020300A2020202D312E3334353320202020302E3231323820202020302E303030302043202020302020302020302020302020302020302020302020302020302020302020302020300A2020202D322E3137303320202020302E3231323820202020302E303030302043202020302020302020302020302020302020302020302020302020302020302020302020300A2020202D322E353832382020202D302E3530313720202020302E303030302043202020302020302020302020302020302020302020302020302020302020302020302020300A2020202D322E313730332020202D312E3231363220202020302E303030302043202020302020302020302020302020302020302020302020302020302020302020302020300A2020202D312E333435332020202D312E3231363220202020302E303030302043202020302020302020302020302020302020302020302020302020302020302020302020300A20202020312E3832393220202020302E3339353720202020302E303030302043202020302020302020302020302020302020302020302020302020302020302020302020300A20202020322E3538323820202020302E3036303120202020302E30303030204F202020302020302020302020302020302020302020302020302020302020302020302020300A20202020312E3734323920202020312E3231363220202020302E303030302043202020302020302020302020302020302020302020302020302020302020302020302020300A2020312020322020312020302020202020200A2020322020332020322020302020202020200A2020332020342020312020302020202020200A2020342020352020312020302020202020200A2020312020352020312020302020202020200A2020362020372020312020302020202020200A2020372020382020322020302020202020200A2020382020392020312020302020202020200A2020392031302020322020302020202020200A2031302031312020312020302020202020200A2020362031312020322020302020202020200A2020352020362020312020302020202020200A2031322031332020322020302020202020200A2031322031342020312020302020202020200A2020332031322020312020302020202020200A4D2020454E44
Contributor: KANEMASA S, INST. OF ADVANCED MATERIAL STUDY KYUSHU UNIV.
InstType: EI
InstName: JEOL JMS-01-SG-2
IoniMethod: _ENERGY 75 eV
IonPolarity: pos
Date: 2010-10-09 19:48:36+02:00
Num Peaks: 35
38 35 39 112 40 42 41 27 42 104 43 999 44 24 50 112 51 322 52 73 
62 38 63 89 65 41 74 53 75 39 76 44 77 381 78 168 89 53 91 55 
102 29 103 73 104 133 105 150 106 15 115 172 116 52 117 17 120 16 128 25 
129 27 130 24 143 27 172 22 189 34 
