Name: DI-N-PROPYLHYDRAZONE BETA.BETA-DIMETHYLACRYLALDEHYDE
MW: 182
Formula: C11H22N2
Synonym: MassBank: JP000886
Synonym: DI-N-PROPYLHYDRAZONE BETA.BETA-DIMETHYLACRYLALDEHYDE
Synonym: 3-METHYL-2-BUTENAL DIPROPYLHYDRAZONE
Structure: 44492D4E2D50524F50594C48594452415A4F4E4520424554412E424554412D44494D455448594C414352594C414C4445485944452E6D6F6C0A20204368656D447261773033323031303030303932440A2031332031322020302020302020302020302020302020302020302020303939392056323030300A2020202D302E3335373220202020302E3230363220202020302E303030302043202020302020302020302020302020302020302020302020302020302020302020302020300A2020202D312E303731372020202D302E3230363320202020302E303030302043202020302020302020302020302020302020302020302020302020302020302020302020300A2020202D312E3738363220202020302E3230363220202020302E303030302043202020302020302020302020302020302020302020302020302020302020302020302020300A2020202D322E353030362020202D302E3230363320202020302E303030302043202020302020302020302020302020302020302020302020302020302020302020302020300A2020202D312E3738363220202020312E3033313220202020302E303030302043202020302020302020302020302020302020302020302020302020302020302020302020300A20202020302E333537322020202D302E3230363320202020302E30303030204E202020302020302020302020302020302020302020302020302020302020302020302020300A20202020312E3037313720202020302E3230363220202020302E30303030204E202020302020302020302020302020302020302020302020302020302020302020302020300A20202020312E3037313720202020312E3033313220202020302E303030302043202020302020302020302020302020302020302020302020302020302020302020302020300A20202020302E3335373220202020312E3434333820202020302E303030302043202020302020302020302020302020302020302020302020302020302020302020302020300A2020202D302E3335373220202020312E3033313220202020302E303030302043202020302020302020302020302020302020302020302020302020302020302020302020300A20202020312E373836322020202D302E3230363320202020302E303030302043202020302020302020302020302020302020302020302020302020302020302020302020300A20202020312E373836322020202D312E3033313320202020302E303030302043202020302020302020302020302020302020302020302020302020302020302020302020300A20202020322E353030362020202D312E3434333820202020302E303030302043202020302020302020302020302020302020302020302020302020302020302020302020300A2020312020322020312020302020202020200A2020322020332020322020302020202020200A2020332020342020312020302020202020200A2020332020352020312020302020202020200A2020362020372020312020302020202020200A2020382020392020312020302020202020200A2020392031302020312020302020202020200A2020372020382020312020302020202020200A2031312031322020312020302020202020200A2031322031332020312020302020202020200A2020372031312020312020302020202020200A2020312020362020322020302020202020200A4D2020454E44
Contributor: SASAKI S, TOYOHASHI UNIV. OF TECH.
InstType: EI
InstName: SHIMADZU LKB-2091
IoniMethod: _ENERGY 70 eV
IonPolarity: pos
Date: 2010-10-09 19:48:36+02:00
Num Peaks: 46
28 124 29 146 30 260 39 14 40 44 41 347 42 196 43 41 44 54 51 12 
53 100 54 3 55 304 56 96 57 24 58 7 65 26 67 139 68 61 69 41 
70 132 71 15 72 260 73 2 80 50 81 46 82 304 83 7 84 63 87 20 
94 49 95 2 96 36 97 81 98 24 100 3 109 20 110 30 111 542 112 6 
124 54 125 30 153 999 154 12 182 564 183 100 
