Name: MassBank: JP004247
CAS: 16002-29-2
MW: 178
Formula: C6H10O4S
Synonym: MassBank: JP004247
Synonym: 2,2'-THIOBIS(ACETIC ACID) DIMETHYL ESTER
Structure: 322C32272D5448494F424953284143455449432041434944292044494D455448594C2045535445522E6D6F6C0A20204368656D447261773132313930393034343632440A2031312031302020302020302020302020302020302020302020302020303939392056323030300A20202020302E343132352020202D312E3037313720202020302E303030302053202020302020302020302020302020302020302020302020302020302020302020302020300A2020202D302E383235302020202D302E3335373220202020302E303030302043202020302020302020302020302020302020302020302020302020302020302020302020300A2020202D302E343132352020202D312E3037313720202020302E303030302043202020302020302020302020302020302020302020302020302020302020302020302020300A2020202D302E3431323520202020302E3335373220202020302E30303030204F202020302020302020302020302020302020302020302020302020302020302020302020300A2020202D312E363530302020202D302E3335373220202020302E30303030204F202020302020302020302020302020302020302020302020302020302020302020302020300A20202020312E363530302020202D302E3335373220202020302E303030302043202020302020302020302020302020302020302020302020302020302020302020302020300A20202020302E383235302020202D302E3335373220202020302E303030302043202020302020302020302020302020302020302020302020302020302020302020302020300A20202020322E303632352020202D312E3037313720202020302E30303030204F202020302020302020302020302020302020302020302020302020302020302020302020300A20202020322E3036323520202020302E3335373220202020302E30303030204F202020302020302020302020302020302020302020302020302020302020302020302020300A2020202D322E303632352020202D312E3037313720202020302E303030302043202020302020302020302020302020302020302020302020302020302020302020302020300A20202020312E3635303020202020312E3037313720202020302E303030302043202020302020302020302020302020302020302020302020302020302020302020302020300A2020322020332020312020302020202020200A2020322020342020322020302020202020200A2020322020352020312020302020202020200A2020312020332020312020302020202020200A2020362020372020312020302020202020200A2020362020382020322020302020202020200A2020362020392020312020302020202020200A2020312020372020312020302020202020200A2020352031302020312020302020202020200A2020392031312020312020302020202020200A4D2020454E44
Contributor: KOGA M, UNIV. OF OCCUPATIONAL AND ENVIRONMENTAL HEALTH
InstType: EI
InstName: JEOL JMS-01-SG
IoniMethod: _ENERGY 70 eV
IonPolarity: pos
Date: 2010-10-09 19:48:36+02:00
Num Peaks: 26
42 142 43 244 44 41 45 88 46 136 47 23 59 83 60 4 61 220 74 267 
77 47 87 7 91 231 101 41 104 41 105 4 118 309 119 541 120 35 121 3 
146 999 147 136 148 53 178 45 179 29 180 23 
