Name: MassBank: JP007252
CAS: 567-72-6
MW: 382
Formula: C27H42O
Synonym: MassBank: JP007252
Synonym: CHOLESTA-3,5-DIEN-7-ONE
Structure: 43484F4C455354412D332C352D4449454E2D372D4F4E452E6D6F6C0A20204368656D447261773039303731303131323332440A2033332033362020302020302020302020302020302020302020302020303939392056323030300A2020202D342E303930392020202D322E3037393520202020302E303030302043202020302020302020302020302020302020302020302020302020302020302020302020300A2020202D342E303930392020202D312E3235343520202020302E303030302043202020302020302020302020302020302020302020302020302020302020302020302020300A2020202D332E333736352020202D302E3834323020202020302E303030302043202020302020302020302020302020302020302020302020302020302020302020302020300A2020202D332E333736352020202D322E3439323020202020302E303030302043202020302020302020302020302020302020302020302020302020302020302020302020300A2020202D322E363632302020202D322E3037393520202020302E303030302043202020302020302020302020302020302020302020302020302020302020302020302020300A2020202D312E393437352020202D322E3439323020202020302E303030302043202020302020302020302020302020302020302020302020302020302020302020302020300A2020202D312E323333302020202D322E3037393520202020302E303030302043202020302020302020302020302020302020302020302020302020302020302020302020300A2020202D312E323333302020202D312E3235343520202020302E303030302043202020302020302020302020302020302020302020302020302020302020302020302020300A2020202D302E353138362020202D302E3834323020202020302E303030302043202020302020302020302020302020302020302020302020302020302020302020302020300A20202020302E323636302020202D312E3039363920202020302E303030302043202020302020302020302020302020302020302020302020302020302020302020302020300A20202020302E373531302020202D302E3432393520202020302E303030302043202020302020302020302020302020302020302020302020302020302020302020302020300A20202020302E3236363020202020302E3233383020202020302E303030302043202020302020302020302020302020302020302020302020302020302020302020302020300A20202020302E3532313020202020312E3032323620202020302E303030302043202020302020302020302020302020302020302020302020302020302020302020302020300A2020202D302E353138362020202D302E3031373020202020302E303030302043202020302020302020302020302020302020302020302020302020302020302020302020300A2020202D302E3531383620202020302E3830383020202020302E303030302043202020302020302020302020302020302020302020302020302020302020302020302020300A2020202D312E3233333020202020302E3339353520202020302E303030302043202020302020302020302020302020302020302020302020302020302020302020302020300A2020202D312E393437352020202D302E3031373020202020302E303030302043202020302020302020302020302020302020302020302020302020302020302020302020300A2020202D312E393437352020202D302E3834323020202020302E303030302043202020302020302020302020302020302020302020302020302020302020302020302020300A2020202D322E363632302020202D312E3235343520202020302E303030302043202020302020302020302020302020302020302020302020302020302020302020302020300A2020202D312E393437352020202D312E3636373020202020302E303030302043202020302020302020302020302020302020302020302020302020302020302020302020300A2020202D322E363632302020202D302E3432393520202020302E303030302048202020302020302020302020302020302020302020302020302020302020302020302020300A2020202D302E353138362020202D312E3636373020202020302E303030302048202020302020302020302020302020302020302020302020302020302020302020302020300A2020202D302E313036312020202D312E3535363420202020302E303030302048202020302020302020302020302020302020302020302020302020302020302020302020300A20202020312E3038303920202020302E3336373020202020302E303030302048202020302020302020302020302020302020302020302020302020302020302020302020300A20202020302E3733343520202020312E3831393520202020302E303030302048202020302020302020302020302020302020302020302020302020302020302020302020300A20202020312E3331323020202020302E3738383320202020302E303030302043202020302020302020302020302020302020302020302020302020302020302020302020300A2020202D302E3237303020202020312E3235363920202020302E303030302043202020302020302020302020302020302020302020302020302020302020302020302020300A20202020312E3931303420202020312E3335363220202020302E303030302043202020302020302020302020302020302020302020302020302020302020302020302020300A20202020322E3730313520202020312E3132313920202020302E303030302043202020302020302020302020302020302020302020302020302020302020302020302020300A20202020332E3239393920202020312E3638393820202020302E303030302043202020302020302020302020302020302020302020302020302020302020302020302020300A20202020342E3039303920202020312E3435353420202020302E303030302043202020302020302020302020302020302020302020302020302020302020302020302020300A20202020332E3130373320202020322E3439323020202020302E303030302043202020302020302020302020302020302020302020302020302020302020302020302020300A2020202D302E353138362020202D322E3439323020202020302E30303030204F202020302020302020302020302020302020302020302020302020302020302020302020300A2020312020322020312020302020202020200A2020322020332020312020302020202020200A2020312020342020322020302020202020200A2020342020352020312020302020202020200A2020352020362020322020302020202020200A2020362020372020312020302020202020200A2020372020382020312020302020202020200A2020382020392020312020302020202020200A2020392031302020312020302020202020200A2031302031312020312020302020202020200A2031312031322020312020302020202020200A2031322031332020312020302020202020200A2031322031342020312020302020202020200A2020392031342020312020302020202020200A2031342031352020312020312020202020200A2031342031362020312020302020202020200A2031362031372020312020302020202020200A2031372031382020312020302020202020200A2020382031382020312020302020202020200A2031382031392020312020302020202020200A2020332031392020312020302020202020200A2020352031392020312020302020202020200A2031392032302020312020312020202020200A2031382032312020312020362020202020200A2020382032322020312020312020202020200A2020392032332020312020362020202020200A2031322032342020312020362020202020200A2031332032352020312020312020202020200A2031332032362020312020302020202020200A2031332032372020312020302020202020200A2032362032382020312020302020202020200A2032382032392020312020302020202020200A2032392033302020312020302020202020200A2033302033312020312020302020202020200A2033302033322020312020302020202020200A2020372033332020322020302020202020200A4D2020454E44
Contributor: ENDO K, PHARMACEUTICAL INST., TOHOKU UNIV.
InstType: EI
InstName: HITACHI M-52
IoniMethod: _ENERGY 25 eV
IonPolarity: pos
Date: 2010-10-09 19:48:36+02:00
Num Peaks: 100
43 23 55 23 57 37 67 2 69 23 71 19 79 32 81 10 82 19 83 28 
85 14 91 4 93 69 94 14 95 51 97 3 105 42 106 14 107 69 108 3 
109 83 110 14 111 19 113 1 119 69 121 51 122 14 123 2 125 14 129 14 
131 19 133 7 134 130 135 60 136 32 141 2 143 19 145 88 146 37 147 8 
148 28 149 23 157 28 158 3 159 245 160 74 161 324 162 6 163 19 173 134 
174 999 175 24 176 46 185 37 187 435 188 7 193 37 199 42 201 32 206 3 
213 55 214 28 215 42 219 2 220 19 227 60 228 37 229 7 230 19 241 37 
242 37 243 2 245 14 251 19 255 28 267 1 268 23 269 319 280 79 281 1 
297 19 298 14 339 9 340 6 341 19 349 9 354 9 364 2 365 9 366 9 
367 167 368 6 369 19 376 9 379 9 380 2 381 37 382 977 383 435 384 79 
