Name: 3-TERT-BUTYL-1-METHYLPYRROLE
MW: 137
Formula: C9H15N
Synonym: MassBank: JP002021
Synonym: 3-TERT-BUTYL-1-METHYLPYRROLE
Structure: 332D544552542D425554594C2D312D4D455448594C505952524F4C452E6D6F6C0A20204368656D447261773033323331303137333932440A2031302031302020302020302020302020302020302020302020302020303939392056323030300A2020202D312E3132363120202020302E3337363320202020302E30303030204E202020302020302020302020302020302020302020302020302020302020302020302020300A2020202D302E3334313420202020302E3633313220202020302E303030302043202020302020302020302020302020302020302020302020302020302020302020302020300A20202020302E313433352020202D302E3033363220202020302E303030302043202020302020302020302020302020302020302020302020302020302020302020302020300A2020202D302E333431342020202D302E3730333720202020302E303030302043202020302020302020302020302020302020302020302020302020302020302020302020300A2020202D312E313236312020202D302E3434383720202020302E303030302043202020302020302020302020302020302020302020302020302020302020302020302020300A2020202D312E3739333520202020302E3836313220202020302E303030302043202020302020302020302020302020302020302020302020302020302020302020302020300A20202020302E393638352020202D302E3033363220202020302E303030302043202020302020302020302020302020302020302020302020302020302020302020302020300A20202020302E3936383520202020302E3738383820202020302E303030302043202020302020302020302020302020302020302020302020302020302020302020302020300A20202020312E373933352020202D302E3033363220202020302E303030302043202020302020302020302020302020302020302020302020302020302020302020302020300A20202020302E393638352020202D302E3836313220202020302E303030302043202020302020302020302020302020302020302020302020302020302020302020302020300A2020312020322020312020302020202020200A2020322020332020322020302020202020200A2020332020342020312020302020202020200A2020342020352020322020302020202020200A2020312020352020312020302020202020200A2020312020362020312020302020202020200A2020372020382020312020302020202020200A2020372031302020312020302020202020200A2020372020392020312020302020202020200A2020332020372020312020302020202020200A4D2020454E44
Contributor: SASAKI S, TOYOHASHI UNIV. OF TECH.
InstType: EI
InstName: MX-1303
IoniMethod: _ENERGY 50 eV
IonPolarity: pos
Date: 2010-10-09 19:48:36+02:00
Num Peaks: 47
26 10 27 40 29 24 30 2 38 10 39 87 40 17 41 14 42 100 43 14 
50 13 51 3 52 20 53 42 54 16 55 4 56 52 57 24 64 13 65 3 
66 14 67 33 675 10 68 2 77 38 78 20 79 35 80 3 81 65 82 127 
83 10 91 2 92 16 93 13 94 79 95 2 104 10 105 13 106 61 107 13 
108 24 120 24 121 38 122 999 123 103 137 390 138 43 
