Name: MassBank: JP004491
MW: 232
Formula: C12H12N2O3
Synonym: MassBank: JP004491
Synonym: 9-METHYL-4-OXO-4H-PYRIDO(1,2-A)PYRIMIDINE-3-CARBOXYLIC ACID ETHYL ESTER
Structure: 392D4D455448594C2D342D4F584F2D34482D50595249444F28312C322D4129505952494D4944494E452D332D434152424F58594C4943204143494420455448594C2045535445522E6D6F6C0A20204368656D447261773036323131303231343832440A2031372031382020302020302020302020302020302020302020302020303939392056323030300A2020202D312E3434333820202020302E3030303020202020302E303030302043202020302020302020302020302020302020302020302020302020302020302020302020300A2020202D312E303331322020202D302E3731343520202020302E30303030204E202020302020302020302020302020302020302020302020302020302020302020302020300A2020202D302E323036332020202D302E3731343520202020302E303030302043202020302020302020302020302020302020302020302020302020302020302020302020300A20202020302E3230363320202020302E3030303020202020302E303030302043202020302020302020302020302020302020302020302020302020302020302020302020300A2020202D302E3230363220202020302E3731343520202020302E303030302043202020302020302020302020302020302020302020302020302020302020302020302020300A2020202D312E3033313220202020302E3731343520202020302E30303030204E202020302020302020302020302020302020302020302020302020302020302020302020300A2020202D322E3236383820202020302E3030303020202020302E303030302043202020302020302020302020302020302020302020302020302020302020302020302020300A2020202D322E3638313320202020302E3731343520202020302E303030302043202020302020302020302020302020302020302020302020302020302020302020302020300A2020202D322E3236383720202020312E3432383920202020302E303030302043202020302020302020302020302020302020302020302020302020302020302020302020300A2020202D312E3434333720202020312E3432383920202020302E303030302043202020302020302020302020302020302020302020302020302020302020302020302020300A20202020312E3033313320202020302E3030303020202020302E303030302043202020302020302020302020302020302020302020302020302020302020302020302020300A20202020312E3434333720202020302E3731343520202020302E30303030204F202020302020302020302020302020302020302020302020302020302020302020302020300A20202020312E343433382020202D302E3731343520202020302E30303030204F202020302020302020302020302020302020302020302020302020302020302020302020300A20202020302E3230363320202020312E3432383920202020302E30303030204F202020302020302020302020302020302020302020302020302020302020302020302020300A2020202D322E363831322020202D302E3731343520202020302E303030302043202020302020302020302020302020302020302020302020302020302020302020302020300A20202020322E323638382020202D302E3731343520202020302E303030302043202020302020302020302020302020302020302020302020302020302020302020302020300A20202020322E363831332020202D312E3432383920202020302E303030302043202020302020302020302020302020302020302020302020302020302020302020302020300A2020312020322020322020302020202020200A2020322020332020312020302020202020200A2020332020342020322020302020202020200A2020342020352020312020302020202020200A2020352020362020312020302020202020200A2020312020362020312020302020202020200A2020372020382020322020302020202020200A2020382020392020312020302020202020200A2020392031302020322020302020202020200A2020362031302020312020302020202020200A2020312020372020312020302020202020200A2031312031322020322020302020202020200A2031312031332020312020302020202020200A2020342031312020312020302020202020200A2020352031342020322020302020202020200A2020372031352020312020302020202020200A2031362031372020312020302020202020200A2031332031362020312020302020202020200A4D2020454E44
Contributor: SASAKI S, TOYOHASHI UNIV. OF TECH.
InstType: EI
InstName: MS-902
IoniMethod: _ENERGY 70 eV
IonPolarity: pos
Date: 2010-10-09 19:48:36+02:00
Num Peaks: 56
39 192 41 35 43 15 44 3 50 23 51 85 52 73 53 19 54 15 63 46 
64 85 65 4 65.5 31 66 81 67 15 76 3 77 135 78 77 79 23 80 1 
90 13 91 81 92 999 93 23 93.5 8 94 10 102 15 103 3 104 108 105 35 
118 65 119 3 120 23 129 19 130 23 131 13 132 500 133 46 158 46 159 2 
160 84 161 85 175 23 176 23 177 19 186 23 187 76 188 9 189 15 203 8 
204 69 205 0 231 4 232 86 233 115 234 10 
