Name: MassBank: JP008713
MW: 150
Formula: C8H6O3
Synonym: MassBank: JP008713
Synonym: 3,4-METHYLENEDIOXYBENZALDEHYDE
Synonym: HELIOTROPINE
Structure: 332C342D4D455448594C454E4544494F585942454E5A414C4445485944452E6D6F6C0A20204368656D447261773032323131303233303032440A2031312031322020302020302020302020302020302020302020302020303939392056323030300A20202020312E3334393220202020302E3832353020202020302E303030302043202020302020302020302020302020302020302020302020302020302020302020302020300A20202020302E3633343820202020302E3431323520202020302E303030302043202020302020302020302020302020302020302020302020302020302020302020302020300A2020202D302E3037393720202020302E3832353020202020302E303030302043202020302020302020302020302020302020302020302020302020302020302020302020300A2020202D302E3739343220202020302E3431323520202020302E303030302043202020302020302020302020302020302020302020302020302020302020302020302020300A2020202D302E373934322020202D302E3431323520202020302E303030302043202020302020302020302020302020302020302020302020302020302020302020302020300A2020202D302E303739372020202D302E3832353020202020302E303030302043202020302020302020302020302020302020302020302020302020302020302020302020300A20202020302E363334382020202D302E3431323520202020302E303030302043202020302020302020302020302020302020302020302020302020302020302020302020300A20202020322E3036333720202020302E3431323520202020302E30303030204F202020302020302020302020302020302020302020302020302020302020302020302020300A2020202D322E3036333720202020302E3030303020202020302E303030302043202020302020302020302020302020302020302020302020302020302020302020302020300A2020202D312E3537383820202020302E3636373420202020302E30303030204F202020302020302020302020302020302020302020302020302020302020302020302020300A2020202D312E353738382020202D302E3636373420202020302E30303030204F202020302020302020302020302020302020302020302020302020302020302020302020300A2020312020322020312020302020202020200A2020322020332020312020302020202020200A2020332020342020322020302020202020200A2020342020352020312020302020202020200A2020352020362020322020302020202020200A2020362020372020312020302020202020200A2020322020372020322020302020202020200A2020312020382020322020302020202020200A2020392031302020312020302020202020200A2020392031312020312020302020202020200A2020342031302020312020302020202020200A2020352031312020312020302020202020200A4D2020454E44
Contributor: SODA AROMATIC CO., LTD.
InstType: EI
InstName: HITACHI M-80B
IoniMethod: _ENERGY 70 eV
IonPolarity: pos
Date: 2010-10-09 19:48:36+02:00
Num Peaks: 28
26 11 29 87 30 10 37 41 38 72 39 70 49 15 50 52 51 50 52 11 
53 57 61 73 62 139 63 348 64 67 65 219 66 30 74 26 79 15 91 93 
92 18 119 63 120 14 121 277 122 26 149 999 150 876 151 65 
