Name: 3-ACETYL-9-BUTYLCARBAZOLE
MW: 265
Formula: C18H19NO
Synonym: MassBank: JP005110
Synonym: 3-ACETYL-9-BUTYLCARBAZOLE
Structure: 332D41434554594C2D392D425554594C43415242415A4F4C452E6D6F6C0A20204368656D447261773032323231303133333732440A2032302032322020302020302020302020302020302020302020302020303939392056323030300A2020202D302E373837372020202D302E3730363020202020302E30303030204E202020302020302020302020302020302020302020302020302020302020302020302020300A2020202D302E3935393220202020302E3130313020202020302E303030302043202020302020302020302020302020302020302020302020302020302020302020302020300A2020202D312E3637333720202020302E3531333520202020302E303030302043202020302020302020302020302020302020302020302020302020302020302020302020300A2020202D312E3637333720202020312E3333383520202020302E303030302043202020302020302020302020302020302020302020302020302020302020302020302020300A2020202D302E3935393220202020312E3735313020202020302E303030302043202020302020302020302020302020302020302020302020302020302020302020302020300A2020202D302E3234343820202020312E3333383520202020302E303030302043202020302020302020302020302020302020302020302020302020302020302020302020300A2020202D302E3234343820202020302E3531333520202020302E303030302043202020302020302020302020302020302020302020302020302020302020302020302020300A20202020302E333638332020202D302E3033383520202020302E303030302043202020302020302020302020302020302020302020302020302020302020302020302020300A20202020312E3138383820202020302E3034373720202020302E303030302043202020302020302020302020302020302020302020302020302020302020302020302020300A20202020312E363733372020202D302E3631393720202020302E303030302043202020302020302020302020302020302020302020302020302020302020302020302020300A20202020312E333338322020202D312E3337333420202020302E303030302043202020302020302020302020302020302020302020302020302020302020302020302020300A20202020302E353137372020202D312E3435393620202020302E303030302043202020302020302020302020302020302020302020302020302020302020302020302020300A20202020302E303332382020202D302E3739323220202020302E303030302043202020302020302020302020302020302020302020302020302020302020302020302020300A2020202D312E333339382020202D312E3331393120202020302E303030302043202020302020302020302020302020302020302020302020302020302020302020302020300A2020202D312E303434312020202D322E3038393320202020302E303030302043202020302020302020302020302020302020302020302020302020302020302020302020300A2020202D302E323239332020202D322E3231383320202020302E303030302043202020302020302020302020302020302020302020302020302020302020302020302020300A20202020302E303636342020202D322E3938383520202020302E303030302043202020302020302020302020302020302020302020302020302020302020302020302020300A2020202D302E3935393220202020322E3537363020202020302E303030302043202020302020302020302020302020302020302020302020302020302020302020302020300A2020202D312E3637333720202020322E3938383520202020302E30303030204F202020302020302020302020302020302020302020302020302020302020302020302020300A2020202D302E3234343820202020322E3938383520202020302E303030302043202020302020302020302020302020302020302020302020302020302020302020302020300A2020312020322020312020302020202020200A2020322020332020312020302020202020200A2020332020342020322020302020202020200A2020342020352020312020302020202020200A2020352020362020322020302020202020200A2020362020372020312020302020202020200A2020322020372020322020302020202020200A2020372020382020312020302020202020200A2020382020392020312020302020202020200A2020392031302020322020302020202020200A2031302031312020312020302020202020200A2031312031322020322020302020202020200A2031322031332020312020302020202020200A2020382031332020322020302020202020200A2020312031332020312020302020202020200A2031342031352020312020302020202020200A2031352031362020312020302020202020200A2031362031372020312020302020202020200A2020312031342020312020302020202020200A2031382031392020322020302020202020200A2031382032302020312020302020202020200A2020352031382020312020302020202020200A4D2020454E44
Contributor: SASAKI S, TOYOHASHI UNIV. OF TECH.
InstType: EI
InstName: MX-1303
IoniMethod: _ENERGY 50 eV
IonPolarity: pos
Date: 2010-10-09 19:48:36+02:00
Num Peaks: 24
41 18 43 113 55 10 125 1 139 28 141 10 151 21 152 3 153 22 164 22 
165 39 166 4 178 88 179 423 180 148 192 1 194 20 195 19 222 999 223 30 
250 465 251 55 265 831 266 158 
