Name: ETHYLTRIMETHYLSILANE
MW: 102
Formula: C5H14Si
Synonym: MassBank: JP005332
Synonym: ETHYLTRIMETHYLSILANE
Structure: 310A31360A455448594C5452494D455448594C53494C414E452E6D6F6C0A20204368656D447261773038313131303139313732440A2020362020352020302020302020302020302020302020302020302020303939392056323030300A2020202D302E333537322020202D302E3030303020202020302E303030302053692020302020302020302020302020302020302020302020302020302020302020302020300A2020202D302E3736393720202020302E3731343520202020302E303030302043202020302020302020302020302020302020302020302020302020302020302020302020300A20202020302E303535332020202D302E3731343520202020302E303030302043202020302020302020302020302020302020302020302020302020302020302020302020300A2020202D312E303731372020202D302E3431323520202020302E303030302043202020302020302020302020302020302020302020302020302020302020302020302020300A20202020302E3335373220202020302E3431323520202020302E303030302043202020302020302020302020302020302020302020302020302020302020302020302020300A20202020312E3037313720202020302E3030303020202020302E303030302043202020302020302020302020302020302020302020302020302020302020302020302020300A2020312020322020312020302020202020200A2020312020332020312020302020202020200A2020312020342020312020302020202020200A2020352020362020312020302020202020200A2020312020352020312020302020202020200A4D2020454E44
Contributor: YAMAMOTO M, DEP. CHEMISTRY, FAC. SCIENCE, NARA WOMEN'S UNIV.
InstType: EI
InstName: HITACHI RMU-6M
IoniMethod: _ENERGY 70 eV
IonPolarity: pos
Date: 2010-10-09 19:48:36+02:00
Num Peaks: 23
27 11 28 35 29 35 31 3 42 18 43 111 44 25 45 10 53 13 55 18 
57 16 58 4 59 514 60 36 61 16 72 1 73 999 74 79 75 34 87 21 
88 22 89 8 102 52 
