Name: 2-(META-NITROPHENYL)HEPTAMETHYLTRISILANE
MW: 311
Formula: C13H25NO2Si3
Synonym: MassBank: JP001978
Synonym: 2-(META-NITROPHENYL)HEPTAMETHYLTRISILANE
Structure: 322D284D4554412D4E4954524F5048454E594C2948455054414D455448594C54524953494C414E452E6D6F6C0A20204368656D447261773132323130393230353532440A2031392031392020302020302020302020302020302020302020302020303939392056323030300A2020202D302E3533323020202020312E3734323020202020302E303030302053692020302020302020302020302020302020302020302020302020302020302020302020300A20202020302E3138323520202020312E3332393520202020302E303030302053692020302020302020302020302020302020302020302020302020302020302020302020300A20202020302E3839373020202020302E3931373020202020302E303030302053692020302020302020302020302020302020302020302020302020302020302020302020300A2020202D302E3335333820202020302E3430303720202020302E303030302043202020302020302020302020302020302020302020302020302020302020302020302020300A20202020302E303531372020202D302E3330383520202020302E303030302043202020302020302020302020302020302020302020302020302020302020302020302020300A2020202D302E333633342020202D312E3032373520202020302E303030302043202020302020302020302020302020302020302020302020302020302020302020302020300A2020202D312E313935312020202D312E3032373520202020302E303030302043202020302020302020302020302020302020302020302020302020302020302020302020300A2020202D312E363131342020202D302E3330363520202020302E303030302043202020302020302020302020302020302020302020302020302020302020302020302020300A2020202D312E3139343920202020302E3431343920202020302E303030302043202020302020302020302020302020302020302020302020302020302020302020302020300A20202020302E303439312020202D312E3734323020202020302E30303030204E202020302020332020302020302020302020302020302020302020302020302020302020300A20202020302E383734312020202D312E3734323020202020302E30303030204F202020302020302020302020302020302020302020302020302020302020302020302020300A2020202D302E333633342020202D322E3435363520202020302E30303030204F202020302020352020302020302020302020302020302020302020302020302020302020300A2020202D302E3934343520202020312E3032373520202020302E303030302043202020302020302020302020302020302020302020302020302020302020302020302020300A2020202D302E3131393520202020322E3435363520202020302E303030302043202020302020302020302020302020302020302020302020302020302020302020302020300A2020202D312E3234363520202020322E3135343520202020302E303030302043202020302020302020302020302020302020302020302020302020302020302020302020300A20202020302E3539353020202020322E3034343020202020302E303030302043202020302020302020302020302020302020302020302020302020302020302020302020300A20202020302E3438343520202020302E3230323520202020302E303030302043202020302020302020302020302020302020302020302020302020302020302020302020300A20202020312E3631313420202020302E3530343520202020302E303030302043202020302020302020302020302020302020302020302020302020302020302020302020300A20202020312E3330393520202020312E3633313520202020302E303030302043202020302020302020302020302020302020302020302020302020302020302020302020300A2020322020312020312020312020202020200A2020322020332020312020312020202020200A2020342020352020312020302020202020200A2020352020362020322020302020202020200A2020362020372020312020302020202020200A2020372020382020322020302020202020200A2020382020392020312020302020202020200A2020342020392020322020302020202020200A2031302031312020322020302020202020200A2031302031322020312020302020202020200A2020362031302020312020302020202020200A2020322020342020312020302020202020200A2020312031332020312020302020202020200A2020312031342020312020302020202020200A2020312031352020312020302020202020200A2020322031362020312020302020202020200A2020332031372020312020302020202020200A2020332031382020312020302020202020200A2020332031392020312020302020202020200A4D202043484720203220203130202020312020313220202D310A4D2020454E44
Contributor: MASS SPECTROSCOPY SOC. OF JAPAN (MSSJ)
InstType: EI
InstName: JEOL JMS-D-3000
IoniMethod: _ENERGY 70 eV
IonPolarity: pos
Date: 2010-10-09 19:48:36+02:00
Num Peaks: 51
40 82 47 11 56 40 73 999 74 86 75 67 83 20 93 17 103 18 105 18 
115 11 117 37 119 96 120 18 121 27 131 44 132 21 133 110 134 58 135 31 
145 14 147 92 148 40 149 102 150 24 158 15 161 12 162 13 163 12 164 26 
165 13 175 19 177 56 178 17 179 123 180 32 181 13 191 15 192 22 193 79 
194 27 195 14 205 13 206 15 207 18 208 13 222 19 237 22 296 37 297 11 
311 32 
