Name: MassBank: JP002650
MW: 216
Formula: C11H20O4
Synonym: MassBank: JP002650
Synonym: HEPTANE-4,4-DICARBOXYLIC ACID DIMETHYL ESTER
Structure: 48455054414E452D342C342D4449434152424F58594C494320414349442044494D455448594C2045535445522E6D6F6C0A20204368656D447261773038313131303230303832440A2031352031342020302020302020302020302020302020302020302020303939392056323030300A2020202D302E3731343520202020312E3635303020202020302E303030302043202020302020302020302020302020302020302020302020302020302020302020302020300A2020202D302E3731343520202020302E3832353020202020302E303030302043202020302020302020302020302020302020302020302020302020302020302020302020300A20202020302E3030303020202020302E3431323520202020302E303030302043202020302020302020302020302020302020302020302020302020302020302020302020300A20202020302E303030302020202D302E3431323520202020302E303030302043202020302020302020302020302020302020302020302020302020302020302020302020300A20202020302E383235302020202D302E3431323520202020302E303030302043202020302020302020302020302020302020302020302020302020302020302020302020300A20202020312E3233373520202020302E3330323020202020302E303030302043202020302020302020302020302020302020302020302020302020302020302020302020300A20202020322E3036323520202020302E3330323020202020302E303030302043202020302020302020302020302020302020302020302020302020302020302020302020300A20202020302E303030302020202D312E3233373520202020302E303030302043202020302020302020302020302020302020302020302020302020302020302020302020300A2020202D302E373134352020202D312E3635303020202020302E30303030204F202020302020302020302020302020302020302020302020302020302020302020302020300A20202020302E373134352020202D312E3635303020202020302E30303030204F202020302020302020302020302020302020302020302020302020302020302020302020300A2020202D302E383235302020202D302E3431323520202020302E303030302043202020302020302020302020302020302020302020302020302020302020302020302020300A2020202D312E3233373520202020302E3330323020202020302E30303030204F202020302020302020302020302020302020302020302020302020302020302020302020300A2020202D312E323337352020202D312E3132373020202020302E30303030204F202020302020302020302020302020302020302020302020302020302020302020302020300A20202020312E343238392020202D312E3233373520202020302E303030302043202020302020302020302020302020302020302020302020302020302020302020302020300A2020202D322E303632352020202D312E3132373020202020302E303030302043202020302020302020302020302020302020302020302020302020302020302020302020300A2020312020322020312020302020202020200A2020322020332020312020302020202020200A2020332020342020312020302020202020200A2020342020352020312020302020202020200A2020352020362020312020302020202020200A2020362020372020312020302020202020200A2020382020392020322020302020202020200A2020382031302020312020302020202020200A2020342020382020312020302020202020200A2031312031322020322020302020202020200A2031312031332020312020302020202020200A2020342031312020312020302020202020200A2031302031342020312020302020202020200A2031332031352020312020302020202020200A4D2020454E44
Contributor: KOGA M, UNIV. OF OCCUPATIONAL AND ENVIRONMENTAL HEALTH
InstType: EI
InstName: JEOL JMS-01-SG
IoniMethod: _ENERGY 70 eV
IonPolarity: pos
Date: 2010-10-09 19:48:36+02:00
Num Peaks: 30
44 98 53 119 55 817 56 10 59 464 67 139 69 237 73 44 82 72 83 134 
85 70 87 9 95 173 97 612 109 83 110 39 113 843 114 338 125 79 127 29 
141 216 142 248 143 321 145 999 146 220 155 117 156 162 157 42 174 509 185 175 
