Name: MassBank: JP002485
MW: 222
Formula: C13H22OSi
Synonym: MassBank: JP002485
Synonym: 6-TRIMETHYLSILYLMETHYL-2,3,3A,4,7,7A-HEXAHYDROINDEN-1-ONE
Structure: 362D5452494D455448594C53494C594C4D455448594C2D322C332C33412C342C372C37412D48455841485944524F494E44454E2D312D4F4E452E6D6F6C0A20204368656D447261773035313931303232353332440A2031352031362020302020302020302020302020302020302020302020303939392056323030300A20202020312E3933363020202020302E3335333920202020302E303030302043202020302020302020302020302020302020302020302020302020302020302020302020300A20202020322E343231302020202D302E3331333520202020302E303030302043202020302020302020302020302020302020302020302020302020302020302020302020300A20202020312E393336302020202D302E3938313020202020302E303030302043202020302020302020302020302020302020302020302020302020302020302020302020300A20202020312E313531342020202D302E3732363020202020302E303030302043202020302020302020302020302020302020302020302020302020302020302020302020300A20202020302E343336392020202D312E3133383520202020302E303030302043202020302020302020302020302020302020302020302020302020302020302020302020300A2020202D302E323737352020202D302E3732363020202020302E303030302043202020302020302020302020302020302020302020302020302020302020302020302020300A2020202D302E3237373520202020302E3039393020202020302E303030302043202020302020302020302020302020302020302020302020302020302020302020302020300A20202020302E3433363920202020302E3531313520202020302E303030302043202020302020302020302020302020302020302020302020302020302020302020302020300A20202020312E3135313420202020302E3039393020202020302E303030302043202020302020302020302020302020302020302020302020302020302020302020302020300A20202020322E3139313020202020312E3133383520202020302E30303030204F202020302020302020302020302020302020302020302020302020302020302020302020300A2020202D302E3939323020202020302E3531313520202020302E303030302043202020302020302020302020302020302020302020302020302020302020302020302020300A2020202D312E3730363520202020302E3039393020202020302E303030302053692020302020302020302020302020302020302020302020302020302020302020302020300A2020202D312E323934302020202D302E3631353520202020302E303030302043202020302020302020302020302020302020302020302020302020302020302020302020300A2020202D322E343231302020202D302E3331333520202020302E303030302043202020302020302020302020302020302020302020302020302020302020302020302020300A2020202D322E3131393020202020302E3831333420202020302E303030302043202020302020302020302020302020302020302020302020302020302020302020302020300A2020312020322020312020302020202020200A2020322020332020312020302020202020200A2020332020342020312020302020202020200A2020342020352020312020302020202020200A2020352020362020312020302020202020200A2020362020372020322020302020202020200A2020372020382020312020302020202020200A2020382020392020312020302020202020200A2020312020392020312020302020202020200A2020342020392020312020302020202020200A2020312031302020322020302020202020200A2031322031332020312020312020202020200A2031322031342020312020302020202020200A2031322031352020312020312020202020200A2031312031322020312020302020202020200A2020372031312020312020302020202020200A4D2020454E44
Contributor: MASS SPECTROSCOPY SOC. OF JAPAN (MSSJ)
InstType: EI
InstName: JEOL JMS-D-3000
IoniMethod: _ENERGY 70 eV
IonPolarity: pos
Date: 2010-10-09 19:48:36+02:00
Num Peaks: 22
45 130 59 114 73 999 75 140 91 177 92 183 105 201 106 204 117 254 131 106 
132 143 133 138 141 93 148 87 179 148 181 108 193 122 194 140 207 307 221 201 
222 579 223 164 
