Name: DI-N-PROPYLHYDRAZONE PROPIONALDEHYDE
MW: 156
Formula: C9H20N2
Synonym: MassBank: JP000840
Synonym: DI-N-PROPYLHYDRAZONE PROPIONALDEHYDE
Synonym: PROPIONALDEHYDE DIPROPYLHYDRAZONE
Structure: 303730325F44492D4E2D50524F50594C48594452415A4F4E452050524F50494F4E414C4445485944452E6D6F6C0A20204368656D447261773038323031303039323932440A2031312031302020302020302020302020302020302020302020302020303939392056323030300A20202020302E3631383720202020312E3432383920202020302E303030302043202020302020302020302020302020302020302020302020302020302020302020302020300A20202020302E3230363220202020302E3731343520202020302E303030302043202020302020302020302020302020302020302020302020302020302020302020302020300A20202020312E3434333720202020312E3432383920202020302E303030302043202020302020302020302020302020302020302020302020302020302020302020302020300A20202020302E3631383720202020302E3030303020202020302E30303030204E202020302020302020302020302020302020302020302020302020302020302020302020300A20202020302E323036322020202D302E3731343520202020302E30303030204E202020302020302020302020302020302020302020302020302020302020302020302020300A20202020302E363138372020202D312E3432383920202020302E303030302043202020302020302020302020302020302020302020302020302020302020302020302020300A20202020312E343433372020202D312E3432383920202020302E303030302043202020302020302020302020302020302020302020302020302020302020302020302020300A20202020312E383536332020202D302E3731343520202020302E303030302043202020302020302020302020302020302020302020302020302020302020302020302020300A2020202D302E363138382020202D302E3731343520202020302E303030302043202020302020302020302020302020302020302020302020302020302020302020302020300A2020202D312E3033313320202020302E3030303020202020302E303030302043202020302020302020302020302020302020302020302020302020302020302020302020300A2020202D312E3835363320202020302E3030303020202020302E303030302043202020302020302020302020302020302020302020302020302020302020302020302020300A2020312020322020312020302020202020200A2020312020332020312020302020202020200A2020342020352020312020302020202020200A2020362020372020312020302020202020200A2020372020382020312020302020202020200A2020352020362020312020302020202020200A2020392031302020312020302020202020200A2031302031312020312020302020202020200A2020352020392020312020302020202020200A2020322020342020322020302020202020200A4D2020454E44
Contributor: SASAKI S, TOYOHASHI UNIV. OF TECH.
InstType: EI
InstName: SHIMADZU LKB-2091
IoniMethod: _ENERGY 70 eV
IonPolarity: pos
Date: 2010-10-09 19:48:36+02:00
Num Peaks: 32
28 126 29 43 30 240 31 1 32 18 39 33 40 8 41 19 42 81 43 253 
44 23 54 1 55 8 56 74 57 11 58 4 59 7 70 47 71 8 72 4 
83 6 85 329 86 15 97 1 98 6 99 247 100 6 113 9 127 999 128 69 
156 158 157 15 
