Name: MassBank: JP007233
CAS: 149-91-7
MW: 170
Formula: C7H6O5
Synonym: MassBank: JP007233
Synonym: 3,4,5-TRIHYDROXYBENZOIC ACID
Synonym: GALLIC ACID
Structure: 332C342C352D545249485944524F585942454E5A4F494320414349442E6D6F6C0A20204368656D447261773032323131303231333932440A2031322031322020302020302020302020302020302020302020302020303939392056323030300A20202020312E3434333720202020302E3030303020202020302E303030302043202020302020302020302020302020302020302020302020302020302020302020302020300A20202020302E3631383720202020302E3030303020202020302E303030302043202020302020302020302020302020302020302020302020302020302020302020302020300A20202020302E323036322020202D302E3731343520202020302E303030302043202020302020302020302020302020302020302020302020302020302020302020302020300A2020202D302E363138382020202D302E3731343520202020302E303030302043202020302020302020302020302020302020302020302020302020302020302020302020300A2020202D312E3033313320202020302E3030303020202020302E303030302043202020302020302020302020302020302020302020302020302020302020302020302020300A2020202D302E3631383820202020302E3731343520202020302E303030302043202020302020302020302020302020302020302020302020302020302020302020302020300A20202020302E3230363220202020302E3731343520202020302E303030302043202020302020302020302020302020302020302020302020302020302020302020302020300A20202020312E383536332020202D302E3731343520202020302E30303030204F202020302020302020302020302020302020302020302020302020302020302020302020300A20202020312E3835363320202020302E3731343520202020302E30303030204F202020302020302020302020302020302020302020302020302020302020302020302020300A2020202D312E3033313320202020312E3432383920202020302E30303030204F202020302020302020302020302020302020302020302020302020302020302020302020300A2020202D312E3835363320202020302E3030303020202020302E30303030204F202020302020302020302020302020302020302020302020302020302020302020302020300A2020202D312E303331332020202D312E3432383920202020302E30303030204F202020302020302020302020302020302020302020302020302020302020302020302020300A2020312020322020312020302020202020200A2020322020332020312020302020202020200A2020332020342020322020302020202020200A2020342020352020312020302020202020200A2020352020362020322020302020202020200A2020362020372020312020302020202020200A2020322020372020322020302020202020200A2020312020382020322020302020202020200A2020312020392020312020302020202020200A2020362031302020312020302020202020200A2020352031312020312020302020202020200A2020342031322020312020302020202020200A4D2020454E44
Contributor: ENDO K, PHARMACEUTICAL INST., TOHOKU UNIV.
InstType: EI
InstName: HITACHI M-52
IoniMethod: _ENERGY 25 eV
IonPolarity: pos
Date: 2010-10-09 19:48:36+02:00
Num Peaks: 48
17 14 18 236 27 14 28 4 39 28 43 42 44 104 45 6 50 21 51 104 
52 62 53 4 55 56 56 7 57 139 67 4 68 49 69 69 71 56 79 10 
80 69 81 28 83 49 84 4 85 49 95 14 96 49 97 8 98 7 107 21 
108 42 109 1 110 42 111 21 113 7 124 2 125 132 126 229 127 28 135 6 
137 35 152 14 153 556 154 10 155 7 169 7 170 999 171 69 
