Name: FENCHONE
MW: 152
Formula: C10H16O
Synonym: MassBank: JP002596
Synonym: FENCHONE
Synonym: 1,3,3-TRIMETHYLBICYCLO(2.2.1)HEPTAN-2-ONE
Structure: 46454E43484F4E452E6D6F6C0A20204368656D447261773131313130393137313832440A2031312031322020302020302020302020302020302020302020302020303939392056323030300A2020202D302E3736393720202020302E3030303020202020302E303030302043202020302020302020302020302020302020302020302020302020302020302020302020300A2020202D302E373639372020202D302E3832353020202020302E303030302043202020302020302020302020302020302020302020302020302020302020302020302020300A2020202D302E303535332020202D312E3233373520202020302E303030302043202020302020302020302020302020302020302020302020302020302020302020302020300A20202020302E363539322020202D302E3832353020202020302E303030302043202020302020302020302020302020302020302020302020302020302020302020302020300A20202020302E3635393220202020302E3030303020202020302E303030302043202020302020302020302020302020302020302020302020302020302020302020302020300A2020202D302E3035353320202020302E3431323520202020302E303030302043202020302020302020302020302020302020302020302020302020302020302020302020300A2020202D302E3035353320202020312E3233373520202020302E30303030204F202020302020302020302020302020302020302020302020302020302020302020302020300A20202020302E3035353320202020302E3030303020202020302E303030302043202020302020302020302020302020302020302020302020302020302020302020302020300A2020202D312E3438343220202020302E3431323520202020302E303030302043202020302020302020302020302020302020302020302020302020302020302020302020300A20202020312E3438343220202020302E3030303020202020302E303030302043202020302020302020302020302020302020302020302020302020302020302020302020300A20202020302E3837323720202020302E3739363920202020302E303030302043202020302020302020302020302020302020302020302020302020302020302020302020300A2020312020322020312020302020202020200A2020322020332020312020302020202020200A2020332020342020312020302020202020200A2020342020352020312020302020202020200A2020352020362020312020302020202020200A2020362020312020312020302020202020200A2020362020372020322020302020202020200A2020312020382020312020302020202020200A2020382020342020312020302020202020200A2020312020392020312020302020202020200A2020352031302020312020312020202020200A2020352031312020312020362020202020200A4D2020454E44
Contributor: YAMAMOTO M, DEP. CHEMISTRY, FAC. SCIENCE, NARA WOMEN'S UNIV.
InstType: EI
InstName: HITACHI RMU-6M
IoniMethod: _ENERGY 70 eV
IonPolarity: pos
Date: 2010-10-09 19:48:36+02:00
Num Peaks: 30
27 74 28 32 29 45 39 97 41 255 42 28 43 28 51 18 52 11 53 56 
54 12 55 41 65 18 66 11 67 57 68 44 69 463 70 30 72 22 77 22 
79 35 80 135 81 999 82 85 91 13 95 12 109 51 137 17 152 134 153 18 
