Name: AFLATOXIN B1
MW: 312
Formula: C17H12O6
Synonym: MassBank: JP001412
Synonym: AFLATOXIN B1
Synonym: 2,3,6AALPHA;9AALPHA-TETRAHYDRO-4-METHOXYCYCLOPENTA(C)FURO(3',2':4,5)FURO(2,3-H)(1)BENZOPYRAN-1,11-DIONE
Structure: 41464C41544F58494E2042312E6D6F6C0A20204368656D447261773132323030393039353832440A2032332032372020302020302020302020302020302020302020302020303939392056323030300A20202020302E3734393520202020312E3434333820202020302E303030302043202020302020302020302020302020302020302020302020302020302020302020302020300A20202020312E3436343020202020312E3033313320202020302E303030302043202020302020302020302020302020302020302020302020302020302020302020302020300A20202020312E3436343020202020302E3230363220202020302E303030302043202020302020302020302020302020302020302020302020302020302020302020302020300A20202020302E373439352020202D302E3230363320202020302E303030302043202020302020302020302020302020302020302020302020302020302020302020302020300A20202020302E3033353120202020302E3230363220202020302E303030302043202020302020302020302020302020302020302020302020302020302020302020302020300A20202020302E3033353120202020312E3033313220202020302E30303030204F202020302020302020302020302020302020302020302020302020302020302020302020300A2020202D302E363739342020202D302E3230363320202020302E303030302043202020302020302020302020302020302020302020302020302020302020302020302020300A2020202D302E363739342020202D312E3033313320202020302E303030302043202020302020302020302020302020302020302020302020302020302020302020302020300A20202020302E303335312020202D312E3434333820202020302E303030302043202020302020302020302020302020302020302020302020302020302020302020302020300A20202020302E373439352020202D312E3033313320202020302E303030302043202020302020302020302020302020302020302020302020302020302020302020302020300A2020202D312E343634302020202D312E3238363220202020302E30303030204F202020302020302020302020302020302020302020302020302020302020302020302020300A2020202D312E3436343020202020302E3034383720202020302E303030302043202020302020302020302020302020302020302020302020302020302020302020302020300A2020202D312E393438392020202D302E3631383820202020302E303030302043202020302020302020302020302020302020302020302020302020302020302020302020300A2020202D322E373333362020202D302E3336333820202020302E30303030204F202020302020302020302020302020302020302020302020302020302020302020302020300A2020202D312E3934383920202020302E3731363120202020302E303030302043202020302020302020302020302020302020302020302020302020302020302020302020300A2020202D322E3733333620202020302E3436313220202020302E303030302043202020302020302020302020302020302020302020302020302020302020302020302020300A20202020322E323438362020202D302E3034383720202020302E303030302043202020302020302020302020302020302020302020302020302020302020302020302020300A20202020322E3733333620202020302E3631383820202020302E303030302043202020302020302020302020302020302020302020302020302020302020302020302020300A20202020322E3234383620202020312E3238363220202020302E303030302043202020302020302020302020302020302020302020302020302020302020302020302020300A20202020322E3530333620202020322E3037303820202020302E30303030204F202020302020302020302020302020302020302020302020302020302020302020302020300A20202020302E3734393520202020322E3236383720202020302E30303030204F202020302020302020302020302020302020302020302020302020302020302020302020300A20202020312E343634302020202D312E3434333820202020302E30303030204F202020302020302020302020302020302020302020302020302020302020302020302020300A20202020312E343634302020202D322E3236383720202020302E303030302043202020302020302020302020302020302020302020302020302020302020302020302020300A2020312020322020312020302020202020200A2020322020332020322020302020202020200A2020332020342020312020302020202020200A2020342020352020312020302020202020200A2020352020362020312020302020202020200A2020312020362020312020302020202020200A2020372020382020312020302020202020200A2020382020392020322020302020202020200A2020392031302020312020302020202020200A2020342031302020322020302020202020200A2020352020372020322020302020202020200A2031322031332020312020302020202020200A2031312031332020312020302020202020200A2031352031362020322020302020202020200A2031342031362020312020302020202020200A2031322031352020312020302020202020200A2031332031342020312020302020202020200A2020382031312020312020302020202020200A2020372031322020312020302020202020200A2031372031382020312020302020202020200A2031382031392020312020302020202020200A2020322031392020312020302020202020200A2020332031372020312020302020202020200A2031392032302020322020302020202020200A2020312032312020322020302020202020200A2032322032332020312020302020202020200A2031302032322020312020302020202020200A4D2020454E44
Contributor: HASHIMOTO K, KYOTO COLLEGE OF PHARMACY
InstType: EI
InstName: HITACHI M-80
IoniMethod: _ENERGY 20 eV
IonPolarity: pos
Date: 2010-10-09 19:48:36+02:00
Num Peaks: 29
199 30 200 18 201 12 210 1 213 48 214 13 227 86 228 11 229 25 238 26 
241 85 242 2 253 13 255 74 256 126 257 2 266 25 269 103 270 24 281 6 
282 17 283 119 284 226 285 4 294 24 311 25 312 999 313 21 314 34 
