Name: PROPIONIC ACID
MW: 74
Formula: C3H6O2
Synonym: MassBank: JP009175
Synonym: PROPIONIC ACID
Structure: 310A31340A50524F50494F4E494320414349442E6D6F6C0A20204368656D447261773038313231303036303632440A2020352020342020302020302020302020302020302020302020302020303939392056323030300A20202020302E333537322020202D302E3230363220202020302E303030302043202020302020302020302020302020302020302020302020302020302020302020302020300A2020202D302E333537322020202D302E3631383820202020302E303030302043202020302020302020302020302020302020302020302020302020302020302020302020300A2020202D312E303731372020202D302E3230363220202020302E303030302043202020302020302020302020302020302020302020302020302020302020302020302020300A20202020302E3335373220202020302E3631383820202020302E30303030204F202020302020302020302020302020302020302020302020302020302020302020302020300A20202020312E303731372020202D302E3631383720202020302E30303030204F202020302020302020302020302020302020302020302020302020302020302020302020300A2020312020322020312020302020202020200A2020322020332020312020302020202020200A2020312020342020322020302020202020200A2020312020352020312020302020202020200A4D2020454E44
Contributor: SODA AROMATIC CO., LTD.
InstType: EI
InstName: HITACHI M-80B
IoniMethod: _ENERGY 70 eV
IonPolarity: pos
Date: 2010-10-09 19:48:36+02:00
Num Peaks: 26
14 26 15 30 17 11 18 35 25 27 26 247 27 707 28 999 29 791 30 110 
31 44 41 11 42 41 43 23 44 16 45 521 46 37 47 25 53 20 55 92 
56 79 57 243 58 11 73 339 74 535 75 16 
