Name: MassBank: JP009490
CAS: 128-37-0
MW: 220
Formula: C15H24O
Synonym: MassBank: JP009490
Synonym: 2,6-DI-TERT-BUTYL-4-METHYLPHENOL
Synonym: 2,6-DI-TERT-BUTYL-4-CRESOL
Structure: 322C362D44492D544552542D425554594C2D342D4D455448594C5048454E4F4C2E6D6F6C0A20204368656D447261773132323130393033343632440A2031362031362020302020302020302020302020302020302020302020303939392056323030300A2020202D302E3035353320202020302E3335373220202020302E303030302043202020302020302020302020302020302020302020302020302020302020302020302020300A20202020302E333537322020202D302E3335373220202020302E303030302043202020302020302020302020302020302020302020302020302020302020302020302020300A2020202D302E303535332020202D312E3037313720202020302E303030302043202020302020302020302020302020302020302020302020302020302020302020302020300A2020202D302E383830332020202D312E3037313720202020302E303030302043202020302020302020302020302020302020302020302020302020302020302020302020300A2020202D312E323932382020202D302E3335373220202020302E303030302043202020302020302020302020302020302020302020302020302020302020302020302020300A2020202D302E3838303320202020302E3335373220202020302E303030302043202020302020302020302020302020302020302020302020302020302020302020302020300A2020202D312E323932382020202D312E3738363220202020302E303030302043202020302020302020302020302020302020302020302020302020302020302020302020300A2020202D312E3239323820202020312E3037313720202020302E303030302043202020302020302020302020302020302020302020302020302020302020302020302020300A2020202D312E3730353320202020312E3738363220202020302E303030302043202020302020302020302020302020302020302020302020302020302020302020302020300A2020202D302E3537383320202020312E3438343220202020302E303030302043202020302020302020302020302020302020302020302020302020302020302020302020300A2020202D322E3030373220202020302E3635393220202020302E303030302043202020302020302020302020302020302020302020302020302020302020302020302020300A20202020312E313832322020202D302E3335373220202020302E303030302043202020302020302020302020302020302020302020302020302020302020302020302020300A20202020312E3138323220202020302E3436373820202020302E303030302043202020302020302020302020302020302020302020302020302020302020302020302020300A20202020322E303037322020202D302E3335373220202020302E303030302043202020302020302020302020302020302020302020302020302020302020302020302020300A20202020312E313832322020202D312E3138323220202020302E303030302043202020302020302020302020302020302020302020302020302020302020302020302020300A20202020302E3335373220202020312E3037313720202020302E30303030204F202020302020302020302020302020302020302020302020302020302020302020302020300A2020312020322020312020302020202020200A2020322020332020322020302020202020200A2020332020342020312020302020202020200A2020342020352020322020302020202020200A2020352020362020312020302020202020200A2020312020362020322020302020202020200A2020342020372020312020302020202020200A2020382020392020312020302020202020200A2020382031312020312020302020202020200A2020382031302020312020302020202020200A2020362020382020312020302020202020200A2031322031332020312020302020202020200A2031322031352020312020302020202020200A2031322031342020312020302020202020200A2020322031322020312020302020202020200A2020312031362020312020302020202020200A4D2020454E44
Contributor: NARA WOMEN'S UNIVERSITY
InstType: EI
InstName: HITACHI M-80
IoniMethod: _ENERGY 70 eV
IonPolarity: pos
Date: 2010-10-09 19:48:36+02:00
Num Peaks: 40
29 33 39 14 41 53 43 12 55 29 57 126 67 15 77 18 79 12 81 25 
91 38 95 18 105 52 115 27 116 12 117 14 119 29 121 24 128 22 129 24 
130 14 131 28 133 24 135 13 141 16 142 13 145 82 146 13 147 13 149 15 
157 11 159 13 161 31 163 17 175 11 177 55 189 43 205 999 206 156 207 14 
