Name: 1-PIPEROYLPYRROLIDINE
MW: 271
Formula: C16H17NO3
Synonym: MassBank: JP001401
Synonym: 1-PIPEROYLPYRROLIDINE
Synonym: N-(5-(3,4-METHYLENEDIOXYPHENYL)-2,4-PENTADIENOYL)PYRROLIDINE
Structure: 312D50495045524F594C505952524F4C4944494E452E6D6F6C0A20204368656D447261773131323230393232333432440A2032302032322020302020302020302020302020302020302020302020303939392056323030300A20202020322E3633313820202020302E3336383220202020302E30303030204E202020302020302020302020302020302020302020302020302020302020302020302020300A20202020322E3239363320202020312E3132313820202020302E303030302043202020302020302020302020302020302020302020302020302020302020302020302020300A20202020322E3930393420202020312E3637333920202020302E303030302043202020302020302020302020302020302020302020302020302020302020302020302020300A20202020332E3632333920202020312E3236313420202020302E303030302043202020302020302020302020302020302020302020302020302020302020302020302020300A20202020332E3435323320202020302E3435343420202020302E303030302043202020302020302020302020302020302020302020302020302020302020302020302020300A20202020322E323139332020202D302E3334363320202020302E303030302043202020302020302020302020302020302020302020302020302020302020302020302020300A20202020312E333934332020202D302E3334363320202020302E303030302043202020302020302020302020302020302020302020302020302020302020302020302020300A20202020302E3938313820202020302E3336383220202020302E303030302043202020302020302020302020302020302020302020302020302020302020302020302020300A20202020302E3135363820202020302E3336383220202020302E303030302043202020302020302020302020302020302020302020302020302020302020302020302020300A2020202D302E323535372020202D302E3334363320202020302E303030302043202020302020302020302020302020302020302020302020302020302020302020302020300A20202020322E363331382020202D312E3036303820202020302E30303030204F202020302020302020302020302020302020302020302020302020302020302020302020300A2020202D312E303830372020202D302E3334363320202020302E303030302043202020302020302020302020302020302020302020302020302020302020302020302020300A2020202D312E343933322020202D312E3036303820202020302E303030302043202020302020302020302020302020302020302020302020302020302020302020302020300A2020202D322E333138322020202D312E3036303820202020302E303030302043202020302020302020302020302020302020302020302020302020302020302020302020300A2020202D322E373330372020202D302E3334363320202020302E303030302043202020302020302020302020302020302020302020302020302020302020302020302020300A2020202D322E3331383220202020302E3336383220202020302E303030302043202020302020302020302020302020302020302020302020302020302020302020302020300A2020202D312E3439333220202020302E3336383220202020302E303030302043202020302020302020302020302020302020302020302020302020302020302020302020300A2020202D332E363233392020202D312E3333383320202020302E303030302043202020302020302020302020302020302020302020302020302020302020302020302020300A2020202D322E383730322020202D312E3637333920202020302E30303030204F202020302020302020302020302020302020302020302020302020302020302020302020300A2020202D332E353337362020202D302E3531373820202020302E30303030204F202020302020302020302020302020302020302020302020302020302020302020302020300A2020312020322020312020302020202020200A2020322020332020312020302020202020200A2020332020342020312020302020202020200A2020342020352020312020302020202020200A2020312020352020312020302020202020200A2020362020372020312020302020202020200A2020372020382020322020302020202020200A2020382020392020312020302020202020200A2020392031302020322020302020202020200A2020362031312020322020302020202020200A2031322031332020312020302020202020200A2031332031342020322020302020202020200A2031342031352020312020302020202020200A2031352031362020322020302020202020200A2031362031372020312020302020202020200A2031322031372020322020302020202020200A2031382031392020312020302020202020200A2031382032302020312020302020202020200A2031342031392020312020302020202020200A2031352032302020312020302020202020200A2031302031322020312020302020202020200A2020312020362020312020302020202020200A4D2020454E44
Contributor: HASHIMOTO K, KYOTO COLLEGE OF PHARMACY
InstType: EI
InstName: HITACHI M-80
IoniMethod: _ENERGY 20 eV
IonPolarity: pos
Date: 2010-10-09 19:48:36+02:00
Num Peaks: 11
144 12 171 112 172 194 173 34 174 146 200 175 201 999 202 27 203 15 271 797 
272 190 
