Name: MassBank: JP004414
MW: 228
Formula: C14H16N2O
Synonym: MassBank: JP004414
Synonym: 5,7-DIMETHYL-1,2,3,4-TETRAHYDROPYRIMIDO(1,6-A)INDOLE-2-CARBALDEHYDE
Structure: 352C372D44494D455448594C2D312C322C332C342D5445545241485944524F505952494D49444F28312C362D4129494E444F4C452D322D43415242414C4445485944452E6D6F6C0A20204368656D447261773034323331303032333132440A2031372031392020302020302020302020302020302020302020302020303939392056323030300A20202020302E3231393920202020302E3533383520202020302E30303030204E202020302020302020302020302020302020302020302020302020302020302020302020300A20202020302E333036312020202D302E3238323020202020302E303030302043202020302020302020302020302020302020302020302020302020302020302020302020300A2020202D302E343437362020202D302E3631373520202020302E303030302043202020302020302020302020302020302020302020302020302020302020302020302020300A2020202D302E393939362020202D302E3030343420202020302E303030302043202020302020302020302020302020302020302020302020302020302020302020302020300A2020202D312E383234362020202D302E3030343420202020302E303030302043202020302020302020302020302020302020302020302020302020302020302020302020300A2020202D322E3233373120202020302E3731303020202020302E303030302043202020302020302020302020302020302020302020302020302020302020302020302020300A2020202D312E3832343620202020312E3432343520202020302E303030302043202020302020302020302020302020302020302020302020302020302020302020302020300A2020202D302E3939393620202020312E3432343520202020302E303030302043202020302020302020302020302020302020302020302020302020302020302020302020300A2020202D302E3538373120202020302E3731303020202020302E303030302043202020302020302020302020302020302020302020302020302020302020302020302020300A20202020302E3838373320202020312E3032333420202020302E303030302043202020302020302020302020302020302020302020302020302020302020302020302020300A20202020312E3634313020202020302E3638373920202020302E30303030204E202020302020302020302020302020302020302020302020302020302020302020302020300A20202020312E373237322020202D302E3133323620202020302E303030302043202020302020302020302020302020302020302020302020302020302020302020302020300A20202020312E303539382020202D302E3631373520202020302E303030302043202020302020302020302020302020302020302020302020302020302020302020302020300A20202020322E3330383420202020312E3137323820202020302E303030302043202020302020302020302020302020302020302020302020302020302020302020302020300A20202020332E3036323120202020302E3833373220202020302E30303030204F202020302020302020302020302020302020302020302020302020302020302020302020300A2020202D332E3036323120202020302E3731303020202020302E303030302043202020302020302020302020302020302020302020302020302020302020302020302020300A2020202D302E363139312020202D312E3432343520202020302E303030302043202020302020302020302020302020302020302020302020302020302020302020302020300A2020312020322020312020302020202020200A2020322020332020322020302020202020200A2020332020342020312020302020202020200A2020342020352020312020302020202020200A2020352020362020322020302020202020200A2020362020372020312020302020202020200A2020372020382020322020302020202020200A2020382020392020312020302020202020200A2020312020392020312020302020202020200A2020342020392020322020302020202020200A2031302031312020312020302020202020200A2031312031322020312020302020202020200A2031322031332020312020302020202020200A2020312031302020312020302020202020200A2020322031332020312020302020202020200A2031342031352020322020302020202020200A2031312031342020312020302020202020200A2020362031362020312020302020202020200A2020332031372020312020302020202020200A4D2020454E44
Contributor: SASAKI S, TOYOHASHI UNIV. OF TECH.
InstType: EI
InstName: JEOL JMS-01-SG-2
IoniMethod: _ENERGY 75 eV
IonPolarity: pos
Date: 2010-10-09 19:48:36+02:00
Num Peaks: 16
55 88 57 134 69 171 81 6 115 52 143 64 156 61 157 5 158 999 159 49 
170 82 171 70 172 45 199 19 227 30 228 930 
