Name: TRIBUTYL CITRATE
MW: 360
Formula: C18H32O7
Synonym: MassBank: JP003332
Synonym: TRIBUTYL CITRATE
Structure: 545249425554594C20434954524154452E6D6F6C0A20204368656D447261773031323131303134323532440A2032352032342020302020302020302020302020302020302020302020303939392056323030300A2020202D302E373834352020202D312E3738363220202020302E303030302043202020302020302020302020302020302020302020302020302020302020302020302020300A2020202D302E303730312020202D312E3337333720202020302E303030302043202020302020302020302020302020302020302020302020302020302020302020302020300A2020202D302E303730312020202D302E3534383720202020302E303030302043202020302020302020302020302020302020302020302020302020302020302020302020300A2020202D302E3037303120202020302E3237363320202020302E30303030204F202020302020302020302020302020302020302020302020302020302020302020302020300A20202020302E373534392020202D302E3534383720202020302E303030302043202020302020302020302020302020302020302020302020302020302020302020302020300A2020202D302E383935312020202D302E3534383720202020302E303030302043202020302020302020302020302020302020302020302020302020302020302020302020300A2020202D312E3330373620202020302E3136353820202020302E303030302043202020302020302020302020302020302020302020302020302020302020302020302020300A2020202D312E343939302020202D312E3337333720202020302E30303030204F202020302020302020302020302020302020302020302020302020302020302020302020300A2020202D302E373834352020202D322E3631313220202020302E30303030204F202020302020302020302020302020302020302020302020302020302020302020302020300A20202020312E313637342020202D312E3236333120202020302E30303030204F202020302020302020302020302020302020302020302020302020302020302020302020300A20202020312E3136373420202020302E3136353820202020302E30303030204F202020302020302020302020302020302020302020302020302020302020302020302020300A2020202D302E3839353120202020302E3838303320202020302E30303030204F202020302020302020302020302020302020302020302020302020302020302020302020300A2020202D322E3133323620202020302E3136353820202020302E30303030204F202020302020302020302020302020302020302020302020302020302020302020302020300A2020202D312E343939302020202D332E3032333720202020302E303030302043202020302020302020302020302020302020302020302020302020302020302020302020300A2020202D322E323133352020202D322E3631313220202020302E303030302043202020302020302020302020302020302020302020302020302020302020302020302020300A2020202D322E393238302020202D332E3032333720202020302E303030302043202020302020302020302020302020302020302020302020302020302020302020302020300A2020202D332E363432342020202D322E3631313220202020302E303030302043202020302020302020302020302020302020302020302020302020302020302020302020300A20202020312E3939323420202020302E3136353820202020302E303030302043202020302020302020302020302020302020302020302020302020302020302020302020300A20202020322E343034392020202D302E3534383720202020302E303030302043202020302020302020302020302020302020302020302020302020302020302020302020300A20202020332E323239392020202D302E3534383720202020302E303030302043202020302020302020302020302020302020302020302020302020302020302020302020300A20202020332E363432342020202D312E3236333120202020302E303030302043202020302020302020302020302020302020302020302020302020302020302020302020300A2020202D322E3534353120202020302E3838303320202020302E303030302043202020302020302020302020302020302020302020302020302020302020302020302020300A2020202D322E3133323620202020312E3539343720202020302E303030302043202020302020302020302020302020302020302020302020302020302020302020302020300A2020202D322E3534353120202020322E3330393220202020302E303030302043202020302020302020302020302020302020302020302020302020302020302020302020300A2020202D322E3133323620202020332E3032333720202020302E303030302043202020302020302020302020302020302020302020302020302020302020302020302020300A2020312020322020312020302020202020200A2020322020332020312020302020202020200A2020332020342020312020302020202020200A2020332020352020312020302020202020200A2020332020362020312020302020202020200A2020362020372020312020302020202020200A2020312020382020322020302020202020200A2020312020392020312020302020202020200A2020352031302020322020302020202020200A2020352031312020312020302020202020200A2020372031322020322020302020202020200A2020372031332020312020302020202020200A2031342031352020312020302020202020200A2031352031362020312020302020202020200A2031362031372020312020302020202020200A2020392031342020312020302020202020200A2031382031392020312020302020202020200A2031392032302020312020302020202020200A2032302032312020312020302020202020200A2031312031382020312020302020202020200A2032322032332020312020302020202020200A2032332032342020312020302020202020200A2032342032352020312020302020202020200A2031332032322020312020302020202020200A4D2020454E44
Contributor: KOGA M, UNIV. OF OCCUPATIONAL AND ENVIRONMENTAL HEALTH
InstType: EI
InstName: JEOL JMS-01-SG-2
IoniMethod: _ENERGY 75 eV
IonPolarity: pos
Date: 2010-10-09 19:48:36+02:00
Num Peaks: 25
43 101 54 70 55 110 56 365 59 25 69 27 84 38 87 7 101 11 102 66 
111 95 129 60 130 33 139 23 147 75 157 5 158 33 185 999 186 97 203 4 
259 507 260 89 261 13 287 2 361 31 
