Name: MassBank: JP006719
MW: 231
Formula: C14H17NO2
Synonym: MassBank: JP006719
Synonym: N-(2,2,3,3-TETRADEUTERO-3-PHENYLPROPIONYL)PIPERIDIN-2-ONE
Structure: 313138385F4E2D28322C322C332C332D54455452414445555445524F2D332D5048454E594C50524F50494F4E594C2950495045524944494E2D322D4F4E452E6D6F6C0A20204368656D447261773039303731303131333532440A2032312032322020302020302020302020302020302020302020302020303939392056323030300A20202020312E3533383220202020302E3437323820202020302E30303030204E202020302020302020302020302020302020302020302020302020302020302020302020300A20202020322E3235303620202020302E3838373220202020302E303030302043202020302020302020302020302020302020302020302020302020302020302020302020300A20202020322E3936353020202020302E3437343720202020302E303030302043202020302020302020302020302020302020302020302020302020302020302020302020300A20202020322E393635302020202D302E3335303320202020302E303030302043202020302020302020302020302020302020302020302020302020302020302020302020300A20202020322E323530362020202D302E3736323820202020302E303030302043202020302020302020302020302020302020302020302020302020302020302020302020300A20202020312E353336312020202D302E3335303320202020302E303030302043202020302020302020302020302020302020302020302020302020302020302020302020300A20202020322E3235313920202020312E3731313620202020302E30303030204F202020302020302020302020302020302020302020302020302020302020302020302020300A20202020302E3832313620202020302E3838373220202020302E303030302043202020302020302020302020302020302020302020302020302020302020302020302020300A20202020302E3832313820202020312E3731313620202020302E30303030204F202020302020302020302020302020302020302020302020302020302020302020302020300A2020202D302E3130373220202020302E3335303920202020302E303030302043202020302020302020302020302020302020302020302020302020302020302020302020300A20202020302E333036312020202D302E3336353220202020302E303030302048202020312020302020302020302020302020302020302020302020302020302020302020300A2020202D302E3531393420202020312E3036353320202020302E303030302048202020312020302020302020302020302020302020302020302020302020302020302020300A2020202D302E383231362020202D302E3036313620202020302E303030302043202020302020302020302020302020302020302020302020302020302020302020302020300A2020202D302E343038332020202D302E3737363420202020302E303030302048202020312020302020302020302020302020302020302020302020302020302020302020300A2020202D312E3233333320202020302E3635323820202020302E303030302048202020312020302020302020302020302020302020302020302020302020302020302020300A2020202D312E353336312020202D302E3437343120202020302E303030302043202020302020302020302020302020302020302020302020302020302020302020302020300A2020202D322E323530362020202D302E3036313620202020302E303030302043202020302020302020302020302020302020302020302020302020302020302020302020300A2020202D322E393635302020202D302E3437343120202020302E303030302043202020302020302020302020302020302020302020302020302020302020302020302020300A2020202D322E393635302020202D312E3239393120202020302E303030302043202020302020302020302020302020302020302020302020302020302020302020302020300A2020202D322E323530362020202D312E3731313620202020302E303030302043202020302020302020302020302020302020302020302020302020302020302020302020300A2020202D312E353336312020202D312E3239393120202020302E303030302043202020302020302020302020302020302020302020302020302020302020302020302020300A2020312020322020312020302020202020200A2020322020332020312020302020202020200A2020332020342020312020302020202020200A2020342020352020312020302020202020200A2020352020362020312020302020202020200A2020312020362020312020302020202020200A2020322020372020322020302020202020200A2020382020392020322020302020202020200A2020382031302020312020302020202020200A2031302031332020312020302020202020200A2031302031312020312020312020202020200A2020312020382020312020302020202020200A2031302031322020312020312020202020200A2031332031342020312020312020202020200A2031332031362020312020302020202020200A2031332031352020312020312020202020200A2031362031372020322020302020202020200A2031372031382020312020302020202020200A2031382031392020322020302020202020200A2031392032302020312020302020202020200A2032302032312020322020302020202020200A2031362032312020312020302020202020200A4D202049534F20203420203131202020322020313220202032202031342020203220203135202020320A4D2020454E44
Contributor: MASS SPECTROSCOPY SOC. OF JAPAN (MSSJ)
InstType: EI
InstName: HITACHI RMU-6G
IoniMethod: _ENERGY 20 eV
IonPolarity: pos
Date: 2010-10-09 19:48:36+02:00
Num Peaks: 44
55 50 56 20 57 17 58 13 70 10 71 30 72 30 82 42 86 31 91 70 
92 18 93 245 94 26 98 28 99 120 100 190 101 440 102 999 103 70 104 6 
105 15 106 55 107 850 108 140 109 170 110 17 113 23 114 220 115 23 132 5 
133 35 134 70 135 75 136 18 137 20 141 10 142 36 143 6 179 18 180 40 
234 40 235 460 236 75 237 20 
