Name: VERBENONE
MW: 166
Formula: C10H14O2
Synonym: MassBank: JP006312
Synonym: VERBENONE
Structure: 342C362C362D5452494D455448594C42494359434C4F28332E312E3129484550542D332D454E2D322D4F4E452E6D6F6C0A20204368656D447261773038313131303135333032440A2031312031322020302020302020302020302020302020302020302020303939392056323030300A20202020302E313836352020202D302E3634323220202020302E303030302043202020302020302020302020302020302020302020302020302020302020302020302020300A20202020302E363637382020202D302E3136303920202020302E303030302043202020302020302020302020302020302020302020302020302020302020302020302020300A20202020302E3439353220202020302E3439353120202020302E303030302043202020302020302020302020302020302020302020302020302020302020302020302020300A2020202D302E3136303920202020302E3636373720202020302E303030302043202020302020302020302020302020302020302020302020302020302020302020302020300A2020202D302E3634323220202020302E3138363520202020302E303030302043202020302020302020302020302020302020302020302020302020302020302020302020300A2020202D302E363432322020202D302E3634303320202020302E303030302043202020302020302020302020302020302020302020302020302020302020302020302020300A20202020302E3138363520202020302E3138343720202020302E303030302043202020302020302020302020302020302020302020302020302020302020302020302020300A20202020312E343635342020202D302E3338303520202020302E30303030204F202020302020302020302020302020302020302020302020302020302020302020302020300A2020202D302E363432322020202D312E3436353320202020302E303030302043202020302020302020302020302020302020302020302020302020302020302020302020300A2020202D312E343635342020202D302E3634303320202020302E303030302043202020302020302020302020302020302020302020302020302020302020302020302020300A2020202D302E3338303220202020312E3436353320202020302E303030302043202020302020302020302020302020302020302020302020302020302020302020302020300A2020312020322020312020302020202020200A2020322020332020312020302020202020200A2020332020342020322020302020202020200A2020342020352020312020302020202020200A2020352020362020312020302020202020200A2020312020362020312020302020202020200A2020312020372020312020302020202020200A2020352020372020312020302020202020200A2020322020382020322020302020202020200A2020362020392020312020302020202020200A2020362031302020312020302020202020200A2020342031312020312020302020202020200A4D2020454E44
Contributor: EGUCHI S, FAC. OF SCIENCE, HIROSHIMA UNIV.
InstType: EI
InstName: HITACHI RMS-4
IoniMethod: _ENERGY 70 eV
IonPolarity: pos
Date: 2010-10-09 19:48:36+02:00
Num Peaks: 61
40 196 41 978 42 91 43 65 44 43 45 33 50 80 51 26 52 127 53 384 
54 252 55 34 56 68 57 203 58 22 59 11 60 14 61 18 62 25 63 7 
64 22 65 239 66 107 67 36 68 58 69 158 70 210 71 7 77 337 78 92 
79 478 80 61 81 203 82 804 83 170 84 2 91 674 92 145 93 188 94 12 
95 283 96 94 97 36 105 23 106 62 107 999 108 375 109 30 110 80 111 29 
120 18 121 11 122 217 123 72 124 22 134 2 135 826 136 92 149 51 150 54 
151 87 
