Name: N-ALANYLALANINE
CAS: 1948-31-8
MW: 160
Formula: C6H12N2O3
Synonym: MassBank: JP007411
Synonym: N-ALANYLALANINE
Structure: 303430365F4E2D414C414E594C414C414E494E452E6D6F6C0A20204368656D447261773130313931303230333132440A2031332031322020302020302020302020302020302020302020302020303939392056323030300A20202020312E343433372020202D302E3335373220202020302E303030302043202020302020302020302020302020302020302020302020302020302020302020302020300A20202020302E3230363220202020302E3335373220202020302E30303030204E202020302020302020302020302020302020302020302020302020302020302020302020300A20202020302E363138382020202D302E3335373220202020302E303030302043202020302020302020302020302020302020302020302020302020302020302020302020300A20202020302E323036322020202D312E3037313720202020302E303030302043202020302020302020302020302020302020302020302020302020302020302020302020300A20202020312E383536332020202D312E3037313720202020302E30303030204F202020302020302020302020302020302020302020302020302020302020302020302020300A20202020312E3835363320202020302E3335373220202020302E30303030204F202020302020302020302020302020302020302020302020302020302020302020302020300A2020202D302E3631383820202020302E3335373220202020302E303030302043202020302020302020302020302020302020302020302020302020302020302020302020300A2020202D302E363138382020202D312E3037313720202020302E30303030204E202020302020302020302020302020302020302020302020302020302020302020302020300A2020202D312E303331332020202D302E3335373220202020302E303030302043202020302020302020302020302020302020302020302020302020302020302020302020300A2020202D312E383536332020202D302E3335373220202020302E303030302043202020302020302020302020302020302020302020302020302020302020302020302020300A2020202D312E3033313320202020312E3037313720202020302E30303030204F202020302020302020302020302020302020302020302020302020302020302020302020300A2020202D312E3434333820202020302E3335373320202020302E303030302048202020302020302020302020302020302020302020302020302020302020302020302020300A20202020312E3037313920202020302E3333323320202020302E303030302048202020302020302020302020302020302020302020302020302020302020302020302020300A2020322020332020312020302020202020200A2020312020332020312020302020202020200A2020332020342020312020312020202020200A2020312020352020322020302020202020200A2020312020362020312020302020202020200A2020392020382020312020312020202020200A2020372020392020312020302020202020200A2020392031302020312020302020202020200A2020372031312020322020302020202020200A2020322020372020312020302020202020200A2020392031322020312020312020202020200A2020332031332020312020312020202020200A4D2020454E44
Contributor: YAMAMOTO M, DEP. CHEMISTRY, FAC. SCIENCE, NARA WOMEN'S UNIV.
InstType: EI
InstName: HITACHI RMU-6M
IoniMethod: _ENERGY 70 eV
IonPolarity: pos
Date: 2010-10-09 19:48:36+02:00
Num Peaks: 48
14 26 15 130 16 11 17 46 18 323 25 13 26 68 27 191 28 429 29 62 
30 37 31 12 32 21 36 11 38 24 39 37 40 103 41 193 42 332 43 175 
44 999 45 160 51 11 52 18 53 23 54 30 55 91 56 115 57 25 58 36 
60 14 69 15 70 37 71 60 72 12 73 20 74 18 84 13 88 15 99 215 
100 14 113 10 114 14 115 20 117 21 127 12 142 37 160 16 
