Name: 14-METHYL-1-PENTADECANOL
MW: 242
Formula: C16H34O
Synonym: MassBank: JP008104
Synonym: 14-METHYL-1-PENTADECANOL
Structure: 31342D4D455448594C2D312D50454E5441444543414E4F4C2E6D6F6C0A20204368656D447261773132313030393232303132440A2031372031362020302020302020302020302020302020302020302020303939392056323030300A2020202D342E323836382020202D302E3431323520202020302E303030302043202020302020302020302020302020302020302020302020302020302020302020302020300A2020202D332E353732342020202D302E3832353020202020302E303030302043202020302020302020302020302020302020302020302020302020302020302020302020300A2020202D322E383537392020202D302E3431323520202020302E303030302043202020302020302020302020302020302020302020302020302020302020302020302020300A2020202D322E313433342020202D302E3832353020202020302E303030302043202020302020302020302020302020302020302020302020302020302020302020302020300A2020202D312E343238392020202D302E3431323520202020302E303030302043202020302020302020302020302020302020302020302020302020302020302020302020300A2020202D302E373134352020202D302E3832353020202020302E303030302043202020302020302020302020302020302020302020302020302020302020302020302020300A20202020302E303030302020202D302E3431323520202020302E303030302043202020302020302020302020302020302020302020302020302020302020302020302020300A20202020302E373134352020202D302E3832353020202020302E303030302043202020302020302020302020302020302020302020302020302020302020302020302020300A20202020312E343238392020202D302E3431323520202020302E303030302043202020302020302020302020302020302020302020302020302020302020302020302020300A20202020322E313433342020202D302E3832353020202020302E303030302043202020302020302020302020302020302020302020302020302020302020302020302020300A20202020322E383537392020202D302E3431323520202020302E303030302043202020302020302020302020302020302020302020302020302020302020302020302020300A20202020332E353732342020202D302E3832353020202020302E303030302043202020302020302020302020302020302020302020302020302020302020302020302020300A20202020342E323836382020202D302E3431323520202020302E303030302043202020302020302020302020302020302020302020302020302020302020302020302020300A20202020342E3238363820202020302E3431323520202020302E303030302043202020302020302020302020302020302020302020302020302020302020302020302020300A20202020332E3537323420202020302E3832353020202020302E303030302043202020302020302020302020302020302020302020302020302020302020302020302020300A2020202D352E303031332020202D302E3832353020202020302E30303030204F202020302020302020302020302020302020302020302020302020302020302020302020300A20202020352E3030313320202020302E3832353020202020302E303030302043202020302020302020302020302020302020302020302020302020302020302020302020300A2020312020322020312020302020202020200A2020322020332020312020302020202020200A2020332020342020312020302020202020200A2020342020352020312020302020202020200A2020352020362020312020302020202020200A2020362020372020312020302020202020200A2020372020382020312020302020202020200A2020382020392020312020302020202020200A2020392031302020312020302020202020200A2031302031312020312020302020202020200A2031312031322020312020302020202020200A2031322031332020312020302020202020200A2031332031342020312020302020202020200A2031342031352020312020302020202020200A2020312031362020312020302020202020200A2031342031372020312020302020202020200A4D2020454E44
Contributor: YAMAMOTO M, DEP. CHEMISTRY, FAC. SCIENCE, NARA WOMEN'S UNIV.
InstType: EI
InstName: JEOL JMS-HX-100
IoniMethod: _ENERGY 40 eV
IonPolarity: pos
Date: 2010-10-09 19:48:36+02:00
Num Peaks: 59
15 8 31 51 39 26 40 5 41 293 42 100 43 688 45 15 47 6 54 72 
55 671 56 999 57 947 58 45 67 97 68 289 69 883 70 434 71 294 72 19 
73 15 75 6 81 60 82 277 83 624 84 265 85 73 87 2 95 34 96 88 
97 516 98 146 99 43 109 13 110 42 111 310 112 113 113 30 123 20 124 29 
125 132 126 69 127 18 129 2 137 21 138 20 139 54 140 74 141 15 149 3 
153 27 154 24 168 108 169 18 181 29 182 18 196 114 197 24 224 46 
