Name: MassBank: JP000764
MW: 313
Formula: C18H19NO4
Synonym: MassBank: JP000764
Synonym: ETHYL 3-CYANO-4,8-BIS(METHOXYMETHYL)AZULENE-1-CARBOXYLATE
Structure: 455448594C20332D4359414E4F2D342C382D424953284D4554484F58594D455448594C29415A554C454E452D312D434152424F58594C4154452E6D6F6C0A20204368656D447261773038313131303138313132440A2032332032342020302020302020302020302020302020302020302020303939392056323030300A2020202D302E3531353320202020302E3736353020202020302E303030302043202020302020302020302020302020302020302020302020302020302020302020302020300A20202020302E3135323120202020312E3234393920202020302E303030302043202020302020302020302020302020302020302020302020302020302020302020302020300A20202020302E3831393620202020302E3736353020202020302E303030302043202020302020302020302020302020302020302020302020302020302020302020302020300A20202020302E353634362020202D302E3031393620202020302E303030302043202020302020302020302020302020302020302020302020302020302020302020302020300A20202020312E303739302020202D302E3636343620202020302E303030302043202020302020302020302020302020302020302020302020302020302020302020302020300A20202020302E383935342020202D312E3436393020202020302E303030302043202020302020302020302020302020302020302020302020302020302020302020302020300A20202020302E313532312020202D312E3832363920202020302E303030302043202020302020302020302020302020302020302020302020302020302020302020302020300A2020202D302E353931322020202D312E3436393020202020302E303030302043202020302020302020302020302020302020302020302020302020302020302020302020300A2020202D302E373734382020202D302E3636343620202020302E303030302043202020302020302020302020302020302020302020302020302020302020302020302020300A2020202D302E323630342020202D302E3031393620202020302E303030302043202020302020302020302020302020302020302020302020302020302020302020302020300A2020202D312E3239393920202020312E3031393920202020302E303030302043202020302020302020302020302020302020302020302020302020302020302020302020300A2020202D312E3437313520202020312E3832363920202020302E30303030204F202020302020302020302020302020302020302020302020302020302020302020302020300A2020202D312E3838333320202020302E3433363620202020302E30303030204F202020302020302020302020302020302020302020302020302020302020302020302020300A2020202D312E353739312020202D302E3438313120202020302E303030302043202020302020302020302020302020302020302020302020302020302020302020302020300A2020202D322E313632342020202D312E3036343420202020302E30303030204F202020302020302020302020302020302020302020302020302020302020302020302020300A2020202D322E393539332020202D302E3835303920202020302E303030302043202020302020302020302020302020302020302020302020302020302020302020302020300A20202020312E383833332020202D302E3438313120202020302E303030302043202020302020302020302020302020302020302020302020302020302020302020302020300A20202020322E343636372020202D312E3036343420202020302E30303030204F202020302020302020302020302020302020302020302020302020302020302020302020300A20202020332E323633362020202D302E3835303920202020302E303030302043202020302020302020302020302020302020302020302020302020302020302020302020300A20202020312E3630343220202020312E3031393920202020302E303030302043202020302020302020302020302020302020302020302020302020302020302020302020300A20202020322E3338383820202020312E3237343920202020302E30303030204E202020302020302020302020302020302020302020302020302020302020302020302020300A2020202D322E3638303220202020302E3635303120202020302E303030302043202020302020302020302020302020302020302020302020302020302020302020302020300A2020202D332E3236333620202020302E3036363720202020302E303030302043202020302020302020302020302020302020302020302020302020302020302020302020300A2020312020322020312020302020202020200A2020322020332020322020302020202020200A2020332020342020312020302020202020200A2020342020352020322020302020202020200A2020352020362020312020302020202020200A2020362020372020322020302020202020200A2020372020382020312020302020202020200A2020382020392020322020302020202020200A2020392031302020312020302020202020200A2020312031302020322020302020202020200A2020342031302020312020302020202020200A2031312031322020322020302020202020200A2031312031332020312020302020202020200A2020312031312020312020302020202020200A2031352031362020312020302020202020200A2031342031352020312020302020202020200A2020392031342020312020302020202020200A2031382031392020312020302020202020200A2031372031382020312020302020202020200A2020352031372020312020302020202020200A2032302032312020332020302020202020200A2020332032302020312020302020202020200A2032322032332020312020302020202020200A2031332032322020312020302020202020200A4D2020454E44
Contributor: ITO S, DEPT. OF CHEM., TOHOKU UNIV.
InstType: EI
InstName: Unknown
IoniMethod: _ENERGY 25 eV
IonPolarity: pos
Date: 2010-10-09 19:48:36+02:00
Num Peaks: 99
41 230 42 95 43 999 44 10 45 310 52 60 53 105 54 4 55 350 56 60 
57 250 58 7 59 60 67 45 68 60 69 17 70 160 71 740 72 90 73 19 
79 70 81 70 82 130 83 5 84 40 85 80 86 165 87 24 88 55 91 45 
95 50 96 9 97 70 98 60 99 480 100 9 101 60 105 50 109 60 110 7 
113 55 114 45 115 110 117 12 123 60 124 70 125 100 126 9 127 590 128 70 
129 60 136 5 137 50 138 50 142 60 143 4 144 240 145 110 149 165 150 6 
151 45 152 50 153 60 154 11 155 150 161 80 165 50 166 6 167 50 169 45 
170 60 171 19 172 35 173 430 174 60 187 6 189 95 195 45 196 45 198 5 
199 390 200 150 201 80 208 4 209 45 210 70 216 55 223 4 226 70 227 200 
228 40 240 4 241 40 245 170 246 70 247 4 272 120 273 220 313 25 
