Name: MassBank: JP007302
MW: 236
Formula: C15H24O2
Synonym: MassBank: JP007302
Synonym: 11BETA-METHOXY-6,6,8BETA-TRIMETHYL-5ALPHA-TRICYCLO(6.3.0.0(1,5))UNDECAN-2-ONE
Structure: 3131424554412D4D4554484F58592D362C362C38424554412D5452494D455448594C2D35414C5048412D5452494359434C4F28362E332E302E3028312C352929554E444543414E2D322D4F4E452E6D6F6C0A20204368656D447261773132313030393139313232440A2031392032312020302020302020302020302020302020302020302020303939392056323030300A2020202D302E303535302020202D302E3035303720202020302E303030302043202020302020302020302020302020302020302020302020302020302020302020302020300A20202020302E363938372020202D302E3338363220202020302E303030302043202020302020302020302020302020302020302020302020302020302020302020302020300A20202020302E363132342020202D312E3230363720202020302E303030302043202020302020302020302020302020302020302020302020302020302020302020302020300A2020202D302E313934352020202D312E3337383320202020302E303030302043202020302020302020302020302020302020302020302020302020302020302020302020300A2020202D302E363037302020202D302E3636333820202020302E303030302043202020302020302020302020302020302020302020302020302020302020302020302020300A2020202D312E333438312020202D302E3333353220202020302E303030302043202020302020302020302020302020302020302020302020302020302020302020302020300A2020202D312E3237343520202020302E3439323320202020302E303030302043202020302020302020302020302020302020302020302020302020302020302020302020300A2020202D302E3436373520202020302E3636333820202020302E303030302043202020302020302020302020302020302020302020302020302020302020302020302020300A20202020302E3038343520202020312E3237363920202020302E303030302043202020302020302020302020302020302020302020302020302020302020302020302020300A20202020302E3833383220202020302E3934313320202020302E303030302043202020302020302020302020302020302020302020302020302020302020302020302020300A20202020302E3735323020202020302E3132303820202020302E303030302043202020302020302020302020302020302020302020302020302020302020302020302020300A20202020312E3431333120202020302E3032363320202020302E30303030204F202020302020302020302020302020302020302020302020302020302020302020302020300A2020202D302E3838303020202020312E3337383320202020302E303030302043202020302020302020302020302020302020302020302020302020302020302020302020300A2020202D312E373630362020202D312E3034393720202020302E303030302043202020302020302020302020302020302020302020302020302020302020302020302020300A2020202D322E313439372020202D302E3038373020202020302E303030302043202020302020302020302020302020302020302020302020302020302020302020302020300A20202020312E333635312020202D302E3433313220202020302E30303030204F202020302020302020302020302020302020302020302020302020302020302020302020300A20202020322E313439372020202D302E3137363320202020302E303030302043202020302020302020302020302020302020302020302020302020302020302020302020300A2020202D312E303139352020202D312E3337383320202020302E303030302048202020302020302020302020302020302020302020302020302020302020302020302020300A20202020312E3532323220202020302E3431363520202020302E303030302048202020302020302020302020302020302020302020302020302020302020302020302020300A2020312020322020312020302020202020200A2020322020332020312020302020202020200A2020332020342020312020302020202020200A2020342020352020312020302020202020200A2020352020362020312020302020202020200A2020362020372020312020302020202020200A2020372020382020312020302020202020200A2020382020392020312020302020202020200A2020392031302020312020302020202020200A2031302031312020312020302020202020200A2020312031312020312020302020202020200A2020312020382020312020302020202020200A2020312020352020312020302020202020200A2020322031322020322020302020202020200A2020382031332020312020312020202020200A2020362031342020312020362020202020200A2020362031352020312020312020202020200A2031362031372020312020302020202020200A2031312031362020312020312020202020200A2020352031382020312020362020202020200A2031312031392020312020362020202020200A4D2020454E44
Contributor: ITO S, DEPT. OF CHEM., TOHOKU UNIV.
InstType: EI
InstName: HITACHI M-52
IoniMethod: _ENERGY 14 eV
IonPolarity: pos
Date: 2010-10-09 19:48:36+02:00
Num Peaks: 6
72 32 147 24 165 999 166 11 236 65 237 21 
