Name: PARA-TERT-AMYLCYCLOHEXANOL
MW: 170
Formula: C11H22O
Synonym: MassBank: JP008407
Synonym: PARA-TERT-AMYLCYCLOHEXANOL
Structure: 303937375F504152412D544552542D414D594C4359434C4F484558414E4F4C2E6D6F6C0A20204368656D447261773038323031303132303732440A2031322031322020302020302020302020302020302020302020302020303939392056323030300A2020202D302E393230372020202D302E3030303020202020302E303030302043202020302020302020302020302020302020302020302020302020302020302020302020300A2020202D302E393230372020202D302E3832353020202020302E303030302043202020302020302020302020302020302020302020302020302020302020302020302020300A2020202D302E323036322020202D312E3233373520202020302E303030302043202020302020302020302020302020302020302020302020302020302020302020302020300A20202020302E353038322020202D302E3832353020202020302E303030302043202020302020302020302020302020302020302020302020302020302020302020302020300A20202020302E353038322020202D302E3030303020202020302E303030302043202020302020302020302020302020302020302020302020302020302020302020302020300A2020202D302E3230363220202020302E3431323520202020302E303030302043202020302020302020302020302020302020302020302020302020302020302020302020300A2020202D302E323036322020202D322E3036323520202020302E30303030204F202020302020302020302020302020302020302020302020302020302020302020302020300A2020202D302E3230363220202020312E3233373520202020302E303030302043202020302020302020302020302020302020302020302020302020302020302020302020300A2020202D312E3033313320202020312E3233373520202020302E303030302043202020302020302020302020302020302020302020302020302020302020302020302020300A2020202D302E3230363220202020322E3036323520202020302E303030302043202020302020302020302020302020302020302020302020302020302020302020302020300A20202020302E3631383820202020312E3233373520202020302E303030302043202020302020302020302020302020302020302020302020302020302020302020302020300A20202020312E3033313320202020312E3935323020202020302E303030302043202020302020302020302020302020302020302020302020302020302020302020302020300A2020312020322020312020302020202020200A2020322020332020312020302020202020200A2020332020342020312020302020202020200A2020342020352020312020302020202020200A2020352020362020312020302020202020200A2020362020312020312020302020202020200A2020332020372020312020302020202020200A2020362020382020312020302020202020200A2020382020392020312020302020202020200A2020382031302020312020302020202020200A2020382031312020312020302020202020200A2031312031322020312020302020202020200A4D2020454E44
Contributor: SODA AROMATIC CO., LTD.
InstType: EI
InstName: HITACHI M-80B
IoniMethod: _ENERGY 70 eV
IonPolarity: pos
Date: 2010-10-09 19:48:36+02:00
Num Peaks: 41
27 122 28 22 29 197 31 23 39 98 40 14 41 322 42 63 43 703 44 68 
53 66 54 60 55 358 56 45 57 86 65 12 67 389 68 32 69 97 70 999 
71 856 72 46 77 14 79 48 80 88 81 456 82 134 83 89 93 11 95 96 
96 16 97 11 99 79 107 11 109 12 122 24 123 465 124 56 137 49 141 21 
152 85 
