Name: MassBank: JP003674
MW: 174
Formula: C10H22O2
Synonym: MassBank: JP003674
Synonym: 2-ETHYL-1,3-DIMETHOXYHEXANE
Structure: 322D455448594C2D312C332D44494D4554484F5859484558414E452E6D6F6C0A20204368656D447261773031303331303132343332440A2031322031312020302020302020302020302020302020302020302020303939392056323030300A20202020302E3731343520202020312E3033313320202020302E303030302043202020302020302020302020302020302020302020302020302020302020302020302020300A20202020302E3731343520202020302E3230363220202020302E303030302043202020302020302020302020302020302020302020302020302020302020302020302020300A2020202D302E303030302020202D302E3230363320202020302E303030302043202020302020302020302020302020302020302020302020302020302020302020302020300A2020202D302E3731343520202020302E3230363220202020302E303030302043202020302020302020302020302020302020302020302020302020302020302020302020300A2020202D312E343238392020202D302E3230363320202020302E303030302043202020302020302020302020302020302020302020302020302020302020302020302020300A2020202D322E3134333420202020302E3230363220202020302E303030302043202020302020302020302020302020302020302020302020302020302020302020302020300A2020202D302E303030302020202D312E3033313320202020302E30303030204F202020302020302020302020302020302020302020302020302020302020302020302020300A2020202D302E373134352020202D312E3434333820202020302E303030302043202020302020302020302020302020302020302020302020302020302020302020302020300A20202020302E3030303020202020312E3434333820202020302E30303030204F202020302020302020302020302020302020302020302020302020302020302020302020300A2020202D302E3731343520202020312E3033313220202020302E303030302043202020302020302020302020302020302020302020302020302020302020302020302020300A20202020312E343238392020202D302E3230363320202020302E303030302043202020302020302020302020302020302020302020302020302020302020302020302020300A20202020322E3134333420202020302E3230363320202020302E303030302043202020302020302020302020302020302020302020302020302020302020302020302020300A2020312020322020312020302020202020200A2020322020332020312020302020202020200A2020332020342020312020302020202020200A2020342020352020312020302020202020200A2020352020362020312020302020202020200A2020372020382020312020302020202020200A2020332020372020312020302020202020200A2020392031302020312020302020202020200A2020312020392020312020302020202020200A2031312031322020312020302020202020200A2020322031312020312020302020202020200A4D2020454E44
Contributor: SASAKI S, TOYOHASHI UNIV. OF TECH.
InstType: EI
InstName: Unknown
IoniMethod: EI
IonPolarity: pos
Date: 2010-10-09 19:48:36+02:00
Num Peaks: 48
39 75 40 12 41 215 42 3 43 65 44 7 45 999 46 2 47 6 51 8 
53 33 54 1 55 181 56 35 57 54 58 2 59 25 65 7 67 29 68 1 
69 46 70 7 71 125 72 0 73 12 75 13 77 9 79 1 81 14 82 6 
83 5 85 5 86 118 87 475 88 29 89 3 95 6 97 7 99 69 100 1 
101 23 110 8 111 5 113 3 131 65 142 35 143 5 159 9 
