Name: 2-ETHYL-5-(2-OXOPROPYL)FURAN
MW: 152
Formula: C9H12O2
Synonym: MassBank: JP004369
Synonym: 2-ETHYL-5-(2-OXOPROPYL)FURAN
Structure: 322D455448594C2D352D28322D4F584F50524F50594C29465552414E2E6D6F6C0A20204368656D447261773031303331303132353632440A2031312031312020302020302020302020302020302020302020302020303939392056323030300A20202020302E3531393820202020302E3632353320202020302E30303030204F202020302020302020302020302020302020302020302020302020302020302020302020300A20202020312E3037313920202020302E3031323220202020302E303030302043202020302020302020302020302020302020302020302020302020302020302020302020300A20202020302E363539342020202D302E3730323320202020302E303030302043202020302020302020302020302020302020302020302020302020302020302020302020300A2020202D302E313437362020202D302E3533303720202020302E303030302043202020302020302020302020302020302020302020302020302020302020302020302020300A2020202D302E3233333820202020302E3238393820202020302E303030302043202020302020302020302020302020302020302020302020302020302020302020302020300A2020202D302E3934383320202020302E3730323320202020302E303030302043202020302020302020302020302020302020302020302020302020302020302020302020300A2020202D312E3636323820202020302E3238393820202020302E303030302043202020302020302020302020302020302020302020302020302020302020302020302020300A2020202D322E3337373320202020302E3730323320202020302E303030302043202020302020302020302020302020302020302020302020302020302020302020302020300A2020202D312E363632382020202D302E3533353220202020302E30303030204F202020302020302020302020302020302020302020302020302020302020302020302020300A20202020312E3839323320202020302E3039383520202020302E303030302043202020302020302020302020302020302020302020302020302020302020302020302020300A20202020322E333737332020202D302E3536393020202020302E303030302043202020302020302020302020302020302020302020302020302020302020302020302020300A2020312020322020312020302020202020200A2020322020332020322020302020202020200A2020332020342020312020302020202020200A2020342020352020322020302020202020200A2020312020352020312020302020202020200A2020362020372020312020302020202020200A2020372020382020312020302020202020200A2020372020392020322020302020202020200A2020352020362020312020302020202020200A2031302031312020312020302020202020200A2020322031302020312020302020202020200A4D2020454E44
Contributor: HAGIWARA H, CHEM. RES. INST. OF NON-AQUEOUS SOLUTIONS, TOHOKU UNIV.
InstType: EI
InstName: JEOL JMS-DX-300
IoniMethod: _ENERGY 70 eV
IonPolarity: pos
Date: 2010-10-09 19:48:36+02:00
Num Peaks: 24
14 118 15 607 16 33 17 160 18 646 26 114 27 372 28 407 29 245 32 92 
39 316 41 210 42 166 43 999 50 130 51 244 52 220 53 196 55 99 65 100 
66 98 79 89 94 120 109 411 
