Name: TERT-BUTYLDIMETHYLSILYLAMINE
MW: 131
Formula: C6H17NSi
Synonym: MassBank: JP004741
Synonym: TERT-BUTYLDIMETHYLSILYLAMINE
Structure: 310A32300A544552542D425554594C44494D455448594C53494C594C414D494E452E6D6F6C0A20204368656D447261773038313231303037303932440A2020382020372020302020302020302020302020302020302020302020303939392056323030300A20202020302E3832353020202020302E3431323520202020302E30303030204E202020302020302020302020302020302020302020302020302020302020302020302020300A20202020302E3030303020202020302E3431323520202020302E303030302053692020302020302020302020302020302020302020302020302020302020302020302020300A2020202D302E3832353020202020302E3431323520202020302E303030302043202020302020302020302020302020302020302020302020302020302020302020302020300A20202020302E3030303020202020312E3233373520202020302E303030302043202020302020302020302020302020302020302020302020302020302020302020302020300A20202020302E303030302020202D302E3431323520202020302E303030302043202020302020302020302020302020302020302020302020302020302020302020302020300A20202020302E383235302020202D302E3431323520202020302E303030302043202020302020302020302020302020302020302020302020302020302020302020302020300A20202020302E303030302020202D312E3233373520202020302E303030302043202020302020302020302020302020302020302020302020302020302020302020302020300A2020202D302E383235302020202D302E3431323520202020302E303030302043202020302020302020302020302020302020302020302020302020302020302020302020300A2020322020332020312020302020202020200A2020322020342020312020302020202020200A2020352020362020312020302020202020200A2020352020382020312020302020202020200A2020352020372020312020302020202020200A2020322020352020312020302020202020200A2020312020322020312020302020202020200A4D2020454E44
Contributor: MASS SPECTROSCOPY SOC. OF JAPAN (MSSJ)
InstType: EI
InstName: JEOL JMS-D-3000
IoniMethod: _ENERGY 70 eV
IonPolarity: pos
Date: 2010-10-09 19:48:36+02:00
Num Peaks: 14
41 17 43 37 44 42 45 19 46 27 58 15 59 25 60 17 73 28 74 999 
75 53 76 34 116 13 131 20 
