Name: JASMONE
CAS: 488-10-8
MW: 164
Formula: C11H16O
Synonym: MassBank: JP007721
Synonym: JASMONE
Synonym: (Z)-3-METHYL-2-(2-PENTENYL)-2-CYCLOPENTEN-1-ONE
Structure: 285A292D332D4D455448594C2D322D28322D50454E54454E594C292D322D4359434C4F50454E54454E2D312D4F4E452E6D6F6C0A20204368656D447261773130323230393231313832440A2031342031342020302020302020302020302020302020302020302020303939392056323030300A20202020302E3232323320202020302E3731343520202020302E303030302043202020302020302020302020302020302020302020302020302020302020302020302020300A20202020312E3034373320202020302E3731343520202020302E303030302043202020302020302020302020302020302020302020302020302020302020302020302020300A20202020312E343539382020202D302E3030303020202020302E303030302043202020302020302020302020302020302020302020302020302020302020302020302020300A20202020312E3435393820202020312E3432383920202020302E303030302048202020302020302020302020302020302020302020302020302020302020302020302020300A2020202D302E3139303220202020312E3432383920202020302E303030302048202020302020302020302020302020302020302020302020302020302020302020302020300A2020202D302E313930322020202D302E3030303020202020302E303030302043202020302020302020302020302020302020302020302020302020302020302020302020300A20202020322E323834382020202D302E3030303020202020302E303030302043202020302020302020302020302020302020302020302020302020302020302020302020300A2020202D312E303135322020202D302E3030303020202020302E303030302043202020302020302020302020302020302020302020302020302020302020302020302020300A2020202D312E3530303220202020302E3636373420202020302E303030302043202020302020302020302020302020302020302020302020302020302020302020302020300A2020202D322E3238343820202020302E3431323520202020302E303030302043202020302020302020302020302020302020302020302020302020302020302020302020300A2020202D322E323834382020202D302E3431323520202020302E303030302043202020302020302020302020302020302020302020302020302020302020302020302020300A2020202D312E353030322020202D302E3636373420202020302E303030302043202020302020302020302020302020302020302020302020302020302020302020302020300A2020202D312E3234353220202020312E3435323120202020302E303030302043202020302020302020302020302020302020302020302020302020302020302020302020300A2020202D312E323435322020202D312E3435323120202020302E30303030204F202020302020302020302020302020302020302020302020302020302020302020302020300A2020312020322020322020302020202020200A2020322020332020312020302020202020200A2020322020342020312020302020202020200A2020312020352020312020302020202020200A2020312020362020312020302020202020200A2020332020372020312020302020202020200A2020362020382020312020302020202020200A2020382020392020322020302020202020200A2020392031302020312020302020202020200A2031302031312020312020302020202020200A2031312031322020312020302020202020200A2031322020382020312020302020202020200A2020392031332020312020302020202020200A2031322031342020322020302020202020200A4D2020454E44
Contributor: KYOTO INSTITUTE OF TECHNOLOGY
InstType: EI
InstName: SHIMADZU QP-1000
IoniMethod: _ENERGY 70 eV
IonPolarity: pos
Date: 2010-10-09 19:48:36+02:00
Num Peaks: 75
40 175 41 965 42 91 43 25 44 15 45 10 50 87 51 28 52 153 53 454 
54 71 55 76 56 44 57 28 62 23 63 9 64 28 65 293 66 149 67 44 
68 67 69 45 74 12 75 1 77 509 78 127 79 999 80 16 81 374 82 149 
83 17 89 2 91 583 92 84 93 533 94 12 95 195 96 30 97 12 103 5 
105 213 106 62 107 359 108 8 109 329 110 606 111 50 115 4 116 20 117 44 
118 11 119 4 120 41 121 253 122 528 123 10 129 15 130 34 131 295 132 4 
133 32 134 56 135 420 136 14 137 14 145 24 146 50 147 3 148 56 149 482 
150 54 163 7 164 559 165 123 166 12 
