Name: P-ANISIDINE
CAS: 104-94-9
MW: 123
Formula: C7H9NO
Synonym: MassBank: JP005718
Synonym: P-ANISIDINE
Synonym: 4-METHOXYANILINE
Structure: 310A32330A502D414E49534944494E452E6D6F6C0A20204368656D447261773034323031303137313832440A2020392020392020302020302020302020302020302020302020302020303939392056323030300A20202020312E383536332020202D302E3030303020202020302E30303030204E202020302020302020302020302020302020302020302020302020302020302020302020300A20202020312E303331332020202D302E3030303020202020302E303030302043202020302020302020302020302020302020302020302020302020302020302020302020300A20202020302E363138372020202D302E3731343520202020302E303030302043202020302020302020302020302020302020302020302020302020302020302020302020300A2020202D302E323036322020202D302E3731343520202020302E303030302043202020302020302020302020302020302020302020302020302020302020302020302020300A2020202D302E3631383820202020302E3030303020202020302E303030302043202020302020302020302020302020302020302020302020302020302020302020302020300A2020202D302E3230363320202020302E3731343520202020302E303030302043202020302020302020302020302020302020302020302020302020302020302020302020300A20202020302E3631383820202020302E3731343520202020302E303030302043202020302020302020302020302020302020302020302020302020302020302020302020300A2020202D312E3434333820202020302E3030303020202020302E30303030204F202020302020302020302020302020302020302020302020302020302020302020302020300A2020202D312E3835363320202020302E3731343520202020302E303030302043202020302020302020302020302020302020302020302020302020302020302020302020300A2020312020322020312020302020202020200A2020322020332020312020302020202020200A2020332020342020322020302020202020200A2020342020352020312020302020202020200A2020352020362020322020302020202020200A2020362020372020312020302020202020200A2020322020372020322020302020202020200A2020382020392020312020302020202020200A2020352020382020312020302020202020200A4D2020454E44
Contributor: MASS SPECTROSCOPY SOC. OF JAPAN (MSSJ)
InstType: EI
InstName: HITACHI M-80
IoniMethod: _ENERGY 70 eV
IonPolarity: pos
Date: 2010-10-09 19:48:36+02:00
Num Peaks: 56
15 25 16 10 17 28 18 133 38 17 39 51 40 9 41 33 42 10 43 72 
44 12 50 17 51 34 52 94 53 119 54 35 55 10 61 20 62 17 63 31 
64 16 65 59 66 13 67 7 68 3 69 56 71 5 73 16 74 5 75 4 
76 4 77 9 78 13 79 19 80 373 81 27 82 4 90 4 91 9 92 21 
93 7 94 5 95 22 96 4 107 7 108 999 109 83 110 5 111 3 119 13 
120 5 121 3 122 26 123 893 124 77 125 6 
