Name: 2-(2-TRIMETHYLSILYLOXYETHOXY)-N-(2-(ETHYLAMINO)ETHYL)-4-QUINOLINECARBOXAMIDE
MW: 375
Formula: C19H29N3O3Si
Synonym: MassBank: JP003451
Synonym: 2-(2-TRIMETHYLSILYLOXYETHOXY)-N-(2-(ETHYLAMINO)ETHYL)-4-QUINOLINECARBOXAMIDE
Structure: 322D28322D5452494D455448594C53494C594C4F58594554484F5859292D4E2D28322D28455448594C414D494E4F29455448594C292D342D5155494E4F4C494E45434152424F58414D4944452E6D6F6C0A20204368656D447261773132323130393134313432440A2032362032372020302020302020302020302020302020302020302020303939392056323030300A2020202D302E3431323520202020312E3037313720202020302E30303030204E202020302020302020302020302020302020302020302020302020302020302020302020300A20202020302E3431323520202020312E3037313720202020302E303030302043202020302020302020302020302020302020302020302020302020302020302020302020300A20202020302E3832353020202020302E3335373220202020302E303030302043202020302020302020302020302020302020302020302020302020302020302020302020300A20202020302E343132352020202D302E3335373220202020302E303030302043202020302020302020302020302020302020302020302020302020302020302020302020300A2020202D302E343132352020202D302E3335373220202020302E303030302043202020302020302020302020302020302020302020302020302020302020302020302020300A2020202D302E383235302020202D312E3037313720202020302E303030302043202020302020302020302020302020302020302020302020302020302020302020302020300A2020202D312E363530302020202D312E3037313720202020302E303030302043202020302020302020302020302020302020302020302020302020302020302020302020300A2020202D322E303632352020202D302E3335373220202020302E303030302043202020302020302020302020302020302020302020302020302020302020302020302020300A2020202D312E3635303020202020302E3335373220202020302E303030302043202020302020302020302020302020302020302020302020302020302020302020302020300A2020202D302E3832353020202020302E3335373220202020302E303030302043202020302020302020302020302020302020302020302020302020302020302020302020300A20202020302E383235302020202D312E3037313720202020302E303030302043202020302020302020302020302020302020302020302020302020302020302020302020300A20202020302E343132352020202D312E3738363220202020302E30303030204F202020302020302020302020302020302020302020302020302020302020302020302020300A20202020312E363530302020202D312E3037313720202020302E30303030204E202020302020302020302020302020302020302020302020302020302020302020302020300A20202020322E303632352020202D312E3738363220202020302E303030302043202020302020302020302020302020302020302020302020302020302020302020302020300A20202020312E363530302020202D322E3530303620202020302E303030302043202020302020302020302020302020302020302020302020302020302020302020302020300A20202020322E303632352020202D332E3231353120202020302E30303030204E202020302020302020302020302020302020302020302020302020302020302020302020300A20202020312E363530302020202D332E3932393620202020302E303030302043202020302020302020302020302020302020302020302020302020302020302020302020300A20202020322E303632352020202D342E3634343120202020302E303030302043202020302020302020302020302020302020302020302020302020302020302020302020300A20202020302E3832353020202020312E3738363220202020302E30303030204F202020302020302020302020302020302020302020302020302020302020302020302020300A20202020302E3431323520202020322E3530303620202020302E303030302043202020302020302020302020302020302020302020302020302020302020302020302020300A2020202D302E3431323520202020322E3530303620202020302E303030302043202020302020302020302020302020302020302020302020302020302020302020302020300A2020202D302E3832353020202020332E3231353120202020302E30303030204F202020302020302020302020302020302020302020302020302020302020302020302020300A2020202D302E3431323520202020332E3932393620202020302E303030302053692020302020302020302020302020302020302020302020302020302020302020302020300A2020202D312E3132373020202020342E3334323120202020302E303030302043202020302020302020302020302020302020302020302020302020302020302020302020300A2020202D302E3030303020202020342E3634343120202020302E303030302043202020302020302020302020302020302020302020302020302020302020302020302020300A20202020302E3330323020202020332E3531373120202020302E303030302043202020302020302020302020302020302020302020302020302020302020302020302020300A2020312020322020312020302020202020200A2020322020332020322020302020202020200A2020332020342020312020302020202020200A2020342020352020322020302020202020200A2020352020362020312020302020202020200A2020362020372020322020302020202020200A2020372020382020312020302020202020200A2020382020392020322020302020202020200A2020392031302020312020302020202020200A2020312031302020322020302020202020200A2020352031302020312020302020202020200A2031312031322020322020302020202020200A2031312031332020312020302020202020200A2020342031312020312020302020202020200A2031342031352020312020302020202020200A2031372031382020312020302020202020200A2031362031372020312020302020202020200A2031352031362020312020302020202020200A2031332031342020312020302020202020200A2032302032312020312020302020202020200A2031392032302020312020302020202020200A2032332032342020312020312020202020200A2032332032352020312020302020202020200A2032332032362020312020312020202020200A2032322032332020312020302020202020200A2032312032322020312020302020202020200A2020322031392020312020302020202020200A4D2020454E44
Contributor: MASS SPECTROSCOPY SOC. OF JAPAN (MSSJ)
InstType: EI
InstName: HITACHI M-60
IoniMethod: _ENERGY 20 eV
IonPolarity: pos
Date: 2010-10-09 19:48:36+02:00
Num Peaks: 53
41 67 42 11 56 227 57 421 58 999 69 138 71 678 73 178 75 46 77 169 
81 63 83 40 85 253 93 87 97 45 98 59 99 111 111 59 112 4 113 149 
116 98 117 73 127 73 141 37 142 35 145 109 171 356 172 119 173 28 185 23 
198 18 207 16 212 18 213 24 215 61 226 85 227 90 239 17 240 236 241 230 
257 51 260 33 261 817 262 184 263 69 289 533 290 95 305 49 318 80 342 9 
357 25 358 12 360 86 
