Name: MassBank: JP000752
MW: 333
Formula: C11H11IO4
Synonym: MassBank: JP000752
Synonym: 9-IODO-8-METHYL-3-OXO-2-OXABICYCLO(4.4.0)DEC-4-ENE-6,8-CARBOLACTONE
Structure: 392D494F444F2D382D4D455448594C2D332D4F584F2D322D4F584142494359434C4F28342E342E30294445432D342D454E452D362C382D434152424F4C4143544F4E452E6D6F6C0A20204368656D447261773036323131303231333932440A2031362031382020302020302020302020302020302020302020302020303939392056323030300A2020202D312E3431343720202020302E3238353020202020302E303030302043202020302020302020302020302020302020302020302020302020302020302020302020300A2020202D312E343134372020202D302E3534313520202020302E303030302043202020302020302020302020302020302020302020302020302020302020302020302020300A2020202D302E363934342020202D302E3935373420202020302E303030302043202020302020302020302020302020302020302020302020302020302020302020302020300A20202020302E303333382020202D302E3533373020202020302E303030302043202020302020302020302020302020302020302020302020302020302020302020302020300A20202020302E3033333820202020302E3239333820202020302E303030302043202020302020302020302020302020302020302020302020302020302020302020302020300A2020202D302E3639363720202020302E3731353520202020302E30303030204F202020302020302020302020302020302020302020302020302020302020302020302020300A20202020302E363937352020202D302E3937343820202020302E303030302043202020302020302020302020302020302020302020302020302020302020302020302020300A20202020312E343038332020202D302E3536343320202020302E303030302043202020302020302020302020302020302020302020302020302020302020302020302020300A20202020312E3430383320202020302E3236393620202020302E303030302043202020302020302020302020302020302020302020302020302020302020302020302020300A20202020302E3731323020202020302E3637313620202020302E303030302043202020302020302020302020302020302020302020302020302020302020302020302020300A2020202D322E3133333220202020302E3639393920202020302E30303030204F202020302020302020302020302020302020302020302020302020302020302020302020300A20202020322E3133333220202020302E3638383120202020302E303030302049202020302020302020302020302020302020302020302020302020302020302020302020300A20202020302E3330393320202020302E3236323420202020302E303030302043202020302020302020302020302020302020302020302020302020302020302020302020300A20202020312E3135333420202020302E3236323420202020302E30303030204F202020302020302020302020302020302020302020302020302020302020302020302020300A2020202D302E3130333220202020302E3937363820202020302E30303030204F202020302020302020302020302020302020302020302020302020302020302020302020300A20202020322E313232382020202D302E3937363820202020302E303030302043202020302020302020302020302020302020302020302020302020302020302020302020300A2020312020322020312020302020202020200A2020322020332020322020302020202020200A2020332020342020312020302020202020200A2020342020352020312020302020202020200A2020352020362020312020302020202020200A2020362020312020312020302020202020200A2020342020372020312020302020202020200A2020372020382020312020302020202020200A2020382020392020312020302020202020200A2020392031302020312020302020202020200A2031302020352020312020302020202020200A2020312031312020322020302020202020200A2020392031322020312020302020202020200A2020342031332020312020302020202020200A2031332031342020312020302020202020200A2031342020382020312020302020202020200A2031332031352020322020302020202020200A2020382031362020312020302020202020200A4D2020454E44
Contributor: NAKAYAMA M, MASS SPECTROSCOPY SOC. OF JAPAN (MSSJ)
InstType: EI
InstName: HITACHI RMU-6L
IoniMethod: _ENERGY 70 eV
IonPolarity: pos
Date: 2010-10-09 19:48:36+02:00
Num Peaks: 75
39 180 40 20 41 150 42 1 43 350 44 20 45 10 50 4 51 120 52 120 
53 190 54 2 55 150 56 10 57 120 62 1 63 40 64 10 65 90 66 1 
67 70 69 100 71 10 74 1 75 10 77 140 78 40 79 20 80 70 81 520 
82 20 83 1 89 10 90 10 91 250 92 3 93 40 94 10 95 100 96 1 
97 10 103 20 105 120 106 1 107 90 108 250 109 110 110 6 115 10 117 20 
119 20 123 1 133 120 134 10 135 120 136 1 137 10 138 10 145 10 147 1 
149 10 150 170 151 120 152 1 161 100 162 20 163 170 164 2 179 780 180 80 
188 10 207 999 208 10 334 50 335 5 
