Name: METHYL PHENYL SULFIDE
MW: 124
Formula: C7H8S
Synonym: MassBank: JP009132
Synonym: METHYL PHENYL SULFIDE
Structure: 310A32310A4D455448594C205048454E594C2053554C464944452E6D6F6C0A20204368656D447261773038313231303030333632440A2020382020382020302020302020302020302020302020302020302020303939392056323030300A2020202D312E3033313220202020302E3030303020202020302E303030302053202020302020302020302020302020302020302020302020302020302020302020302020300A2020202D302E3230363320202020302E3030303020202020302E303030302043202020302020302020302020302020302020302020302020302020302020302020302020300A20202020302E3230363320202020302E3731343520202020302E303030302043202020302020302020302020302020302020302020302020302020302020302020302020300A20202020312E3033313220202020302E3731343520202020302E303030302043202020302020302020302020302020302020302020302020302020302020302020302020300A20202020312E343433382020202D302E3030303020202020302E303030302043202020302020302020302020302020302020302020302020302020302020302020302020300A20202020312E303331332020202D302E3731343520202020302E303030302043202020302020302020302020302020302020302020302020302020302020302020302020300A20202020302E323036332020202D302E3731343520202020302E303030302043202020302020302020302020302020302020302020302020302020302020302020302020300A2020202D312E3434333820202020302E3731343520202020302E303030302043202020302020302020302020302020302020302020302020302020302020302020302020300A2020322020332020312020302020202020200A2020332020342020322020302020202020200A2020342020352020312020302020202020200A2020352020362020322020302020202020200A2020362020372020312020302020202020200A2020322020372020322020302020202020200A2020312020322020312020302020202020200A2020312020382020312020302020202020200A4D2020454E44
Contributor: SODA AROMATIC CO., LTD.
InstType: EI
InstName: HITACHI M-80B
IoniMethod: _ENERGY 70 eV
IonPolarity: pos
Date: 2010-10-09 19:48:36+02:00
Num Peaks: 43
15 57 26 13 27 31 37 19 38 44 39 193 45 286 46 79 47 51 49 14 
50 181 51 348 52 32 57 23 58 20 61 13 62 61 63 61 65 225 66 14 
69 147 70 12 71 15 73 12 74 62 75 28 76 18 77 127 78 430 79 61 
81 21 82 51 83 16 91 317 92 20 108 56 109 464 110 31 111 20 123 82 
124 999 125 83 126 48 
