Name: 4-(PENTAMETHYLDISILANYL)ACETOPHENONE
MW: 250
Formula: C13H22OSi2
Synonym: MassBank: JP001953
Synonym: 4-(PENTAMETHYLDISILANYL)ACETOPHENONE
Structure: 342D2850454E54414D455448594C444953494C414E594C29414345544F5048454E4F4E452E6D6F6C0A20204368656D447261773033323531303033353432440A2031362031362020302020302020302020302020302020302020302020303939392056323030300A2020202D312E3132373020202020302E3230363220202020302E303030302043202020302020302020302020302020302020302020302020302020302020302020302020300A2020202D312E313237302020202D302E3631383820202020302E303030302043202020302020302020302020302020302020302020302020302020302020302020302020300A2020202D302E343132352020202D312E3033313320202020302E303030302043202020302020302020302020302020302020302020302020302020302020302020302020300A20202020302E333032302020202D302E3631383820202020302E303030302043202020302020302020302020302020302020302020302020302020302020302020302020300A20202020302E3330323020202020302E3230363220202020302E303030302043202020302020302020302020302020302020302020302020302020302020302020302020300A2020202D302E3431323520202020302E3631383820202020302E303030302043202020302020302020302020302020302020302020302020302020302020302020302020300A2020202D302E3431323520202020312E3434333820202020302E303030302053692020302020302020302020302020302020302020302020302020302020302020302020300A2020202D302E3431323520202020322E3236383720202020302E303030302043202020302020302020302020302020302020302020302020302020302020302020302020300A20202020302E3431323520202020312E3434333820202020302E303030302053692020302020302020302020302020302020302020302020302020302020302020302020300A2020202D312E3233373520202020312E3434333820202020302E303030302043202020302020302020302020302020302020302020302020302020302020302020302020300A20202020312E3233373520202020312E3434333820202020302E303030302043202020302020302020302020302020302020302020302020302020302020302020302020300A20202020302E3431323520202020322E3236383720202020302E303030302043202020302020302020302020302020302020302020302020302020302020302020302020300A20202020302E3431323520202020302E3631383820202020302E303030302043202020302020302020302020302020302020302020302020302020302020302020302020300A2020202D302E343132352020202D312E3835363320202020302E303030302043202020302020302020302020302020302020302020302020302020302020302020302020300A2020202D312E313237302020202D322E3236383720202020302E303030302043202020302020302020302020302020302020302020302020302020302020302020302020300A20202020302E333032302020202D322E3236383720202020302E30303030204F202020302020302020302020302020302020302020302020302020302020302020302020300A2020312020322020322020302020202020200A2020322020332020312020302020202020200A2020332020342020322020302020202020200A2020342020352020312020302020202020200A2020352020362020322020302020202020200A2020362020312020312020302020202020200A2020362020372020312020302020202020200A2020372020382020312020302020202020200A2020372020392020312020302020202020200A2020372031302020312020302020202020200A2020392031312020312020302020202020200A2020392031322020312020302020202020200A2020392031332020312020302020202020200A2020332031342020312020302020202020200A2031342031352020312020302020202020200A2031342031362020322020302020202020200A4D2020454E44
Contributor: MASS SPECTROSCOPY SOC. OF JAPAN (MSSJ)
InstType: EI
InstName: JEOL JMS-D-3000
IoniMethod: _ENERGY 70 eV
IonPolarity: pos
Date: 2010-10-09 19:48:36+02:00
Num Peaks: 30
44 65 45 20 46 47 73 351 74 29 75 30 119 55 131 18 133 25 134 58 
147 26 149 21 161 19 162 26 176 20 177 999 178 167 179 57 191 19 193 34 
206 19 207 35 219 22 235 166 236 44 237 18 249 30 250 226 251 59 252 22 
