Name: 3-HEXANOYL-5-PHENYL-2-ISOXAZOLINE
MW: 245
Formula: C15H19NO2
Synonym: MassBank: JP009368
Synonym: 3-HEXANOYL-5-PHENYL-2-ISOXAZOLINE
Structure: 332D484558414E4F594C2D352D5048454E594C2D322D49534F58415A4F4C494E452E6D6F6C0A20204368656D447261773032323231303138313432440A2031382031392020302020302020302020302020302020302020302020303939392056323030300A2020202D312E333033372020202D312E3134393520202020302E30303030204F202020302020302020302020302020302020302020302020302020302020302020302020300A2020202D302E343936372020202D312E3332313020202020302E30303030204E202020302020302020302020302020302020302020302020302020302020302020302020300A2020202D302E303834322020202D302E3630363520202020302E303030302043202020302020302020302020302020302020302020302020302020302020302020302020300A2020202D302E3633363220202020302E3030363620202020302E303030302043202020302020302020302020302020302020302020302020302020302020302020302020300A2020202D312E333839392020202D302E3332393020202020302E303030302043202020302020302020302020302020302020302020302020302020302020302020302020300A2020202D322E3130343420202020302E3038333520202020302E303030302043202020302020302020302020302020302020302020302020302020302020302020302020300A2020202D322E3130343420202020302E3930383520202020302E303030302043202020302020302020302020302020302020302020302020302020302020302020302020300A2020202D322E3831383820202020312E3332313020202020302E303030302043202020302020302020302020302020302020302020302020302020302020302020302020300A2020202D332E3533333320202020302E3930383520202020302E303030302043202020302020302020302020302020302020302020302020302020302020302020302020300A2020202D332E3533333320202020302E3038333520202020302E303030302043202020302020302020302020302020302020302020302020302020302020302020302020300A2020202D322E383138382020202D302E3332393020202020302E303030302043202020302020302020302020302020302020302020302020302020302020302020302020300A20202020302E373336332020202D302E3532303320202020302E303030302043202020302020302020302020302020302020302020302020302020302020302020302020300A20202020312E323231322020202D312E3138373720202020302E303030302043202020302020302020302020302020302020302020302020302020302020302020302020300A20202020322E303431372020202D312E3130313520202020302E303030302043202020302020302020302020302020302020302020302020302020302020302020302020300A20202020322E333737332020202D302E3334373820202020302E303030302043202020302020302020302020302020302020302020302020302020302020302020302020300A20202020332E313937372020202D302E3236313620202020302E303030302043202020302020302020302020302020302020302020302020302020302020302020302020300A20202020332E3533333320202020302E3439323120202020302E303030302043202020302020302020302020302020302020302020302020302020302020302020302020300A20202020312E3037313920202020302E3233333420202020302E30303030204F202020302020302020302020302020302020302020302020302020302020302020302020300A2020312020322020312020302020202020200A2020322020332020322020302020202020200A2020332020342020312020302020202020200A2020342020352020312020302020202020200A2020312020352020312020302020202020200A2020362020372020312020302020202020200A2020372020382020322020302020202020200A2020382020392020312020302020202020200A2020392031302020322020302020202020200A2031302031312020312020302020202020200A2020362031312020322020302020202020200A2020352020362020312020302020202020200A2031322031332020312020302020202020200A2031332031342020312020302020202020200A2031342031352020312020302020202020200A2031352031362020312020302020202020200A2031362031372020312020302020202020200A2031322031382020322020302020202020200A2020332031322020312020302020202020200A4D2020454E44
Contributor: KANEMASA S, INST. OF ADVANCED MATERIAL STUDY KYUSHU UNIV.
InstType: EI
InstName: JEOL JMS-01-SG-2
IoniMethod: _ENERGY 75 eV
IonPolarity: pos
Date: 2010-10-09 19:48:36+02:00
Num Peaks: 32
39 148 41 285 42 64 43 564 51 154 55 140 65 57 71 350 76 257 77 158 
78 59 91 198 99 494 103 161 104 835 105 194 115 201 116 71 117 87 120 94 
128 157 129 209 130 127 146 56 172 58 188 83 189 82 228 427 229 83 244 241 
245 999 246 167 
