Name: MassBank: JP004994
MW: 104
Formula: C7H9B
Synonym: MassBank: JP004994
Synonym: 1-METHYL-1-BORACYCLOHEPTA-2,4,6-TRIENE
Structure: 312D4D455448594C2D312D424F52414359434C4F48455054412D322C342C362D545249454E452E6D6F6C0A20204368656D447261773131313930393136313932440A2031342031342020302020302020302020302020302020302020302020303939392056323030300A2020202D302E383632382020202D302E3030303020202020302E303030302042202020302020302020302020302020302020302020302020302020302020302020302020300A2020202D302E3530343820202020302E3734333320202020302E303030302043202020302020302020302020302020302020302020302020302020302020302020302020300A20202020302E3239393520202020302E3932363920202020302E303030302043202020302020302020302020302020302020302020302020302020302020302020302020300A20202020302E3934343520202020302E3431323520202020302E303030302043202020302020302020302020302020302020302020302020302020302020302020302020300A20202020302E393434352020202D302E3431323520202020302E303030302043202020302020302020302020302020302020302020302020302020302020302020302020300A20202020302E323939352020202D302E3932363920202020302E303030302043202020302020302020302020302020302020302020302020302020302020302020302020300A2020202D302E353034382020202D302E3734333320202020302E303030302043202020302020302020302020302020302020302020302020302020302020302020302020300A2020202D312E363837382020202D302E3030303020202020302E303030302043202020302020302020302020302020302020302020302020302020302020302020302020300A2020202D312E3031393220202020312E3338383320202020302E303030302048202020302020302020302020302020302020302020302020302020302020302020302020300A20202020302E3438333120202020312E3733313220202020302E303030302048202020302020302020302020302020302020302020302020302020302020302020302020300A20202020312E3638373820202020302E3737303520202020302E303030302048202020302020302020302020302020302020302020302020302020302020302020302020300A20202020312E363837382020202D302E3737303520202020302E303030302048202020302020302020302020302020302020302020302020302020302020302020302020300A20202020302E343833312020202D312E3733313220202020302E303030302048202020302020302020302020302020302020302020302020302020302020302020302020300A2020202D312E303139322020202D312E3338383320202020302E303030302048202020302020302020302020302020302020302020302020302020302020302020302020300A2020312020322020312020302020202020200A2020322020332020322020302020202020200A2020332020342020312020302020202020200A2020342020352020322020302020202020200A2020352020362020312020302020202020200A2020362020372020322020302020202020200A2020312020372020312020302020202020200A2020312020382020312020302020202020200A2020322020392020312020302020202020200A2020332031302020312020302020202020200A2020342031312020312020302020202020200A2020352031322020312020302020202020200A2020362031332020312020302020202020200A2020372031342020312020302020202020200A4D2020454E44
Contributor: MASS SPECTROSCOPY SOC. OF JAPAN (MSSJ)
InstType: EI
InstName: JEOL JMS-D-3000
IoniMethod: _ENERGY 70 eV
IonPolarity: pos
Date: 2010-10-09 19:48:36+02:00
Num Peaks: 27
43 21 44 30 45 40 49 17 50 132 51 176 52 92 61 70 62 38 63 125 
69 36 73 30 74 49 75 47 76 90 77 173 78 296 79 64 86 16 87 82 
88 74 89 281 101 34 102 247 103 999 104 279 105 35 
