Name: (3-PHENYLTHIO-5-HEXENYL)TRIMETHYLSILANE
MW: 264
Formula: C15H24SSi
Synonym: MassBank: JP004959
Synonym: (3-PHENYLTHIO-5-HEXENYL)TRIMETHYLSILANE
Synonym: 4-PHENYLTHIO-6-TRIMETHYLSILYL-1-HEXENE
Structure: 28332D5048454E594C5448494F2D352D484558454E594C295452494D455448594C53494C414E452E6D6F6C0A20204368656D447261773130323030393233313232440A2031372031372020302020302020302020302020302020302020302020303939392056323030300A2020202D312E3037313120202020302E3838303320202020302E303030302043202020302020302020302020302020302020302020302020302020302020302020302020300A2020202D312E3738353520202020312E3239323820202020302E303030302043202020302020302020302020302020302020302020302020302020302020302020302020300A2020202D322E3530303020202020302E3838303320202020302E303030302043202020302020302020302020302020302020302020302020302020302020302020302020300A2020202D322E3530303020202020302E3035353320202020302E303030302043202020302020302020302020302020302020302020302020302020302020302020302020300A2020202D312E373835352020202D302E3335373220202020302E303030302043202020302020302020302020302020302020302020302020302020302020302020302020300A2020202D312E3037313120202020302E3035353320202020302E303030302043202020302020302020302020302020302020302020302020302020302020302020302020300A2020202D302E333536362020202D302E3335373220202020302E303030302053202020302020302020302020302020302020302020302020302020302020302020302020300A20202020302E3335373920202020302E3035353320202020302E303030302043202020302020302020302020302020302020302020302020302020302020302020302020300A20202020302E3335373920202020302E3838303320202020302E303030302043202020302020302020302020302020302020302020302020302020302020302020302020300A20202020312E3037323420202020312E3239323820202020302E303030302043202020302020302020302020302020302020302020302020302020302020302020302020300A20202020312E3738363820202020302E3838303320202020302E303030302053692020302020302020302020302020302020302020302020302020302020302020302020300A20202020312E303732342020202D302E3335373320202020302E303030302043202020302020302020302020302020302020302020302020302020302020302020302020300A20202020312E303732342020202D312E3138323320202020302E303030302043202020302020302020302020302020302020302020302020302020302020302020302020300A20202020302E333537392020202D312E3539343720202020302E303030302043202020302020302020302020302020302020302020302020302020302020302020302020300A20202020322E3530303020202020302E3436373820202020302E303030302043202020302020302020302020302020302020302020302020302020302020302020302020300A20202020322E3139393320202020312E3539343720202020302E303030302043202020302020302020302020302020302020302020302020302020302020302020302020300A20202020312E3337333920202020302E3136363720202020302E303030302043202020302020302020302020302020302020302020302020302020302020302020302020300A2020312020322020322020302020202020200A2020322020332020312020302020202020200A2020332020342020322020302020202020200A2020342020352020312020302020202020200A2020352020362020322020302020202020200A2020362020312020312020302020202020200A2020362020372020312020302020202020200A2020372020382020312020302020202020200A2020382020392020312020302020202020200A2020392031302020312020302020202020200A2031302031312020312020302020202020200A2020382031322020312020302020202020200A2031322031332020312020302020202020200A2031332031342020322020302020202020200A2031312031352020312020302020202020200A2031312031362020312020302020202020200A2031312031372020312020302020202020200A4D202053545920203120202031205355500A4D2020534C4220203120202031202020310A4D202053414C20202031202031202031350A4D202053424C20202031202031202031350A4D2020534D5420202031204D650A4D2020534256202020312031352020202D352E3932353320202020382E303432310A4D202053545920203120202032205355500A4D2020534C4220203120202032202020320A4D202053414C20202032202031202031360A4D202053424C20202032202031202031360A4D2020534D5420202032204D650A4D2020534256202020322031362020202D362E3232363020202020392E313639310A4D202053545920203120202033205355500A4D2020534C4220203120202033202020330A4D202053414C20202033202031202031370A4D202053424C20202033202031202031370A4D2020534D5420202033204D650A4D2020534256202020332031372020202D372E3035313420202020372E373431300A4D2020454E44
Contributor: MASS SPECTROSCOPY SOC. OF JAPAN (MSSJ)
InstType: EI
InstName: JEOL JMS-D-3000
IoniMethod: _ENERGY 70 eV
IonPolarity: pos
Date: 2010-10-09 19:48:36+02:00
Num Peaks: 26
41 35 45 69 53 14 59 58 65 22 67 16 72 17 73 999 74 91 75 59 
77 26 79 16 85 15 91 31 101 17 109 36 110 26 135 16 151 21 167 112 
168 18 182 19 223 140 224 35 249 37 264 39 
