Name: METHYL PROPYL ETHER
MW: 74
Formula: C4H10O
Synonym: MassBank: JP003706
Synonym: METHYL PROPYL ETHER
Structure: 310A31340A4D455448594C2050524F50594C2045544845522E6D6F6C0A20204368656D447261773038313231303030333732440A2020352020342020302020302020302020302020302020302020302020303939392056323030300A2020202D302E3731343520202020302E3230363220202020302E30303030204F202020302020302020302020302020302020302020302020302020302020302020302020300A2020202D302E303030302020202D302E3230363220202020302E303030302043202020302020302020302020302020302020302020302020302020302020302020302020300A20202020302E3731343520202020302E3230363220202020302E303030302043202020302020302020302020302020302020302020302020302020302020302020302020300A20202020312E343238392020202D302E3230363220202020302E303030302043202020302020302020302020302020302020302020302020302020302020302020302020300A2020202D312E343238392020202D302E3230363220202020302E303030302043202020302020302020302020302020302020302020302020302020302020302020302020300A2020322020332020312020302020202020200A2020332020342020312020302020202020200A2020312020322020312020302020202020200A2020312020352020312020302020202020200A4D2020454E44
Contributor: SASAKI S, TOYOHASHI UNIV. OF TECH.
InstType: EI
InstName: Unknown
IoniMethod: EI
IonPolarity: pos
Date: 2010-10-09 19:48:36+02:00
Num Peaks: 15
15 76 26 12 27 83 28 3 29 109 31 16 39 37 41 1 42 14 43 22 
45 999 46 2 59 3 73 6 74 16 
