Name: MassBank: JP009769
MW: 163
Formula: C5H9BrO
Synonym: MassBank: JP009769
Synonym: 4-BROMO-1,2-EPOXY-2-METHYLBUTANE
Structure: 310A31390A342D42524F4D4F2D312C322D45504F58592D322D4D455448594C425554414E452E6D6F6C0A20204368656D447261773033323531303036303132440A2020372020372020302020302020302020302020302020302020302020303939392056323030300A20202020312E323933382020202D302E3136383120202020302E303030302043202020302020302020302020302020302020302020302020302020302020302020302020300A20202020302E3537393320202020302E3234343420202020302E303030302043202020302020302020302020302020302020302020302020302020302020302020302020300A20202020302E303439302020202D302E3338373620202020302E303030302043202020302020302020302020302020302020302020302020302020302020302020302020300A2020202D302E373633352020202D302E3234343420202020302E303030302043202020302020302020302020302020302020302020302020302020302020302020302020300A20202020302E3034393020202020302E3837363420202020302E303030302043202020302020302020302020302020302020302020302020302020302020302020302020300A20202020312E3239333820202020302E3635363920202020302E30303030204F202020302020302020302020302020302020302020302020302020302020302020302020300A2020202D312E323933382020202D302E3837363420202020302E303030302042722020302020302020302020302020302020302020302020302020302020302020302020300A2020312020322020312020302020202020200A2020322020332020312020302020202020200A2020332020342020312020302020202020200A2020322020352020312020302020202020200A2020312020362020312020302020202020200A2020322020362020312020302020202020200A2020342020372020312020302020202020200A4D2020454E44
Contributor: KURARAY CO., LTD.
InstType: EI
InstName: JEOL JMS-D-300
IoniMethod: _ENERGY 70 eV
IonPolarity: pos
Date: 2010-10-09 19:48:36+02:00
Num Peaks: 30
26 26 27 178 28 10 29 23 31 14 38 18 39 197 40 2 41 223 42 27 
43 192 45 2 49 24 50 20 51 33 53 13 54 42 55 687 56 57 57 6 
58 85 62 25 75 38 77 3 85 999 86 73 105 12 107 1 109 10 121 11 
