Name: 2-METHYL-1-TRIETHYLSILOXYPROPANE
MW: 188
Formula: C10H24OSi
Synonym: MassBank: JP002326
Synonym: 2-METHYL-1-TRIETHYLSILOXYPROPANE
Structure: 322D4D455448594C2D312D545249455448594C53494C4F585950524F50414E452E6D6F6C0A20204368656D447261773031323231303033303032440A2031322031312020302020302020302020302020302020302020302020303939392056323030300A2020202D302E373134352020202D302E3335373220202020302E303030302043202020302020302020302020302020302020302020302020302020302020302020302020300A2020202D312E3432383920202020302E3035353320202020302E303030302043202020302020302020302020302020302020302020302020302020302020302020302020300A2020202D322E313433342020202D302E3335373220202020302E303030302043202020302020302020302020302020302020302020302020302020302020302020302020300A20202020302E3030303020202020302E3035353320202020302E30303030204F202020302020302020302020302020302020302020302020302020302020302020302020300A20202020302E373134352020202D302E3335373220202020302E303030302053692020302020302020302020302020302020302020302020302020302020302020302020300A20202020312E3132373020202020302E3335373220202020302E303030302043202020302020302020302020302020302020302020302020302020302020302020302020300A20202020302E3731343520202020312E3037313720202020302E303030302043202020302020302020302020302020302020302020302020302020302020302020302020300A20202020312E343238392020202D302E3736393720202020302E303030302043202020302020302020302020302020302020302020302020302020302020302020302020300A20202020322E313433342020202D302E3335373220202020302E303030302043202020302020302020302020302020302020302020302020302020302020302020302020300A20202020302E333032302020202D312E3037313720202020302E303030302043202020302020302020302020302020302020302020302020302020302020302020302020300A2020202D302E353233302020202D312E3037313720202020302E303030302043202020302020302020302020302020302020302020302020302020302020302020302020300A2020202D312E3432383920202020302E3838303320202020302E303030302043202020302020302020302020302020302020302020302020302020302020302020302020300A2020312020322020312020302020202020200A2020322020332020312020302020202020200A2020342020352020312020302020202020200A2020362020372020312020302020202020200A2020352020362020312020302020202020200A2020382020392020312020302020202020200A2020352020382020312020302020202020200A2031302031312020312020302020202020200A2020352031302020312020302020202020200A2020312020342020312020302020202020200A2020322031322020312020302020202020200A4D2020454E44
Contributor: MASS SPECTROSCOPY SOC. OF JAPAN (MSSJ)
InstType: EI
InstName: JEOL JMS-D-3000
IoniMethod: _ENERGY 70 eV
IonPolarity: pos
Date: 2010-10-09 19:48:36+02:00
Num Peaks: 28
41 63 43 28 45 98 47 164 57 50 58 70 59 190 60 20 61 40 73 26 
74 20 75 784 76 59 77 27 87 166 88 33 89 17 100 17 102 724 103 71 
104 27 112 82 113 85 131 49 159 999 160 144 161 45 188 4 
