Name: BIS(PENTAFLUOROPHENYL)-BROMOPHOSPHINE
MW: 443
Formula: C12BrF10P
Synonym: MassBank: JP003807
Synonym: BIS(PENTAFLUOROPHENYL)-BROMOPHOSPHINE
Structure: 4249532850454E5441464C554F524F5048454E594C292D42524F4D4F50484F535048494E452E6D6F6C0A20204368656D447261773039303631303030343332440A2032342032352020302020302020302020302020302020302020302020303939392056323030300A2020202D302E313330372020202D302E3831313420202020302E303030302050202020302020302020302020302020302020302020302020302020302020302020302020300A2020202D302E323032362020202D312E3633333320202020302E303030302042722020302020302020302020302020302020302020302020302020302020302020302020300A2020202D312E303539352020202D302E3237353220202020302E303030302043202020302020302020302020302020302020302020302020302020302020302020302020300A2020202D312E373734302020202D302E3638373720202020302E303030302043202020302020302020302020302020302020302020302020302020302020302020302020300A2020202D322E343838342020202D302E3237353220202020302E303030302043202020302020302020302020302020302020302020302020302020302020302020302020300A2020202D322E3438383420202020302E3534393820202020302E303030302043202020302020302020302020302020302020302020302020302020302020302020302020300A2020202D312E3737333920202020302E3936323320202020302E303030302043202020302020302020302020302020302020302020302020302020302020302020302020300A2020202D312E3035393520202020302E3534393820202020302E303030302043202020302020302020302020302020302020302020302020302020302020302020302020300A2020202D312E373734302020202D312E3531323720202020302E303030302046202020302020302020302020302020302020302020302020302020302020302020302020300A2020202D332E323032392020202D302E3638373720202020302E303030302046202020302020302020302020302020302020302020302020302020302020302020302020300A2020202D332E3230323920202020302E3936323320202020302E303030302046202020302020302020302020302020302020302020302020302020302020302020302020300A2020202D312E3737333920202020312E3738373320202020302E303030302046202020302020302020302020302020302020302020302020302020302020302020302020300A2020202D302E3334353020202020302E3936323320202020302E303030302046202020302020302020302020302020302020302020302020302020302020302020302020300A20202020302E383737322020202D302E3434343620202020302E303030302043202020302020302020302020302020302020302020302020302020302020302020302020300A20202020312E3032303420202020302E3336373920202020302E303030302043202020302020302020302020302020302020302020302020302020302020302020302020300A20202020312E3739353720202020302E3635303020202020302E303030302043202020302020302020302020302020302020302020302020302020302020302020302020300A20202020322E3432373620202020302E3131393720202020302E303030302043202020302020302020302020302020302020302020302020302020302020302020302020300A20202020322E323834342020202D302E3639323720202020302E303030302043202020302020302020302020302020302020302020302020302020302020302020302020300A20202020312E353039312020202D302E3937343920202020302E303030302043202020302020302020302020302020302020302020302020302020302020302020302020300A20202020302E3338383420202020302E3839383220202020302E303030302046202020302020302020302020302020302020302020302020302020302020302020302020300A20202020312E3933383920202020312E3436323520202020302E303030302046202020302020302020302020302020302020302020302020302020302020302020302020300A20202020332E3230323920202020302E3430313920202020302E303030302046202020302020302020302020302020302020302020302020302020302020302020302020300A20202020322E393136342020202D312E3232333020202020302E303030302046202020302020302020302020302020302020302020302020302020302020302020302020300A20202020312E333635392020202D312E3738373320202020302E303030302046202020302020302020302020302020302020302020302020302020302020302020302020300A2020312020322020312020302020202020200A2020332020342020312020302020202020200A2020342020352020322020302020202020200A2020352020362020312020302020202020200A2020362020372020322020302020202020200A2020372020382020312020302020202020200A2020332020382020322020302020202020200A2020342020392020312020302020202020200A2020352031302020312020302020202020200A2020362031312020312020302020202020200A2020372031322020312020302020202020200A2020382031332020312020302020202020200A2020312020332020312020302020202020200A2031342031352020312020302020202020200A2031352031362020322020302020202020200A2031362031372020312020302020202020200A2031372031382020322020302020202020200A2031382031392020312020302020202020200A2031342031392020322020302020202020200A2031352032302020312020302020202020200A2031362032312020312020302020202020200A2031372032322020312020302020202020200A2031382032332020312020302020202020200A2031392032342020312020302020202020200A2020312031342020312020302020202020200A4D2020454E44
Contributor: SASAKI S, TOYOHASHI UNIV. OF TECH.
InstType: EI
InstName: Unknown
IoniMethod: _ENERGY 70 eV
IonPolarity: pos
Date: 2010-10-09 19:48:36+02:00
Num Peaks: 53
69 999 74 23 76 19 77 5 79 86 80 51 86 21 91 2 93 101 98 77 
99 103 105 9 110 348 111 47 112 151 118 3 129 482 130 36 137 48 141 3 
148 59 149 46 167 28 168 28 169 41 170 67 180 21 188 32 199 33 217 405 
218 29 227 11 234 13 241 17 246 39 258 6 265 31 277 86 278 15 296 30 
297 44 315 24 327 13 336 3 348 28 365 870 366 256 367 4 384 72 444 146 
445 19 446 14 447 19 
