Name: MassBank: JP000772
MW: 150
Formula: C9H10O2
Synonym: MassBank: JP000772
Synonym: 3,7-DIMETHYLTROPOLONE
Structure: 332C372D44494D455448594C54524F504F4C4F4E452E6D6F6C0A20204368656D447261773032323231303038343432440A2031312031312020302020302020302020302020302020302020302020303939392056323030300A20202020312E333136312020202D302E3137313420202020302E30303030204F202020302020302020302020302020302020302020302020302020302020302020302020300A20202020302E343931312020202D302E3137313420202020302E303030302043202020302020302020302020302020302020302020302020302020302020302020302020300A20202020302E313333322020202D302E3931343720202020302E303030302043202020302020302020302020302020302020302020302020302020302020302020302020300A2020202D302E363731312020202D312E3039383320202020302E303030302043202020302020302020302020302020302020302020302020302020302020302020302020300A2020202D312E333136312020202D302E3538333920202020302E303030302043202020302020302020302020302020302020302020302020302020302020302020302020300A2020202D312E3331363120202020302E3234313120202020302E303030302043202020302020302020302020302020302020302020302020302020302020302020302020300A2020202D302E3637313120202020302E3735353420202020302E303030302043202020302020302020302020302020302020302020302020302020302020302020302020300A20202020302E3133333220202020302E3537313920202020302E303030302043202020302020302020302020302020302020302020302020302020302020302020302020300A20202020302E3634373620202020312E3231363920202020302E30303030204F202020302020302020302020302020302020302020302020302020302020302020302020300A20202020302E363437362020202D312E3535393820202020302E303030302043202020302020302020302020302020302020302020302020302020302020302020302020300A2020202D302E3835343720202020312E3535393820202020302E303030302043202020302020302020302020302020302020302020302020302020302020302020302020300A2020312020322020322020302020202020200A2020322020332020312020302020202020200A2020332020342020322020302020202020200A2020342020352020312020302020202020200A2020352020362020322020302020202020200A2020362020372020312020302020202020200A2020372020382020322020302020202020200A2020322020382020312020302020202020200A2020382020392020312020302020202020200A2020332031302020312020302020202020200A2020372031312020312020302020202020200A4D2020454E44
Contributor: ITO S, DEPT. OF CHEM., TOHOKU UNIV.
InstType: EI
InstName: Unknown
IoniMethod: _ENERGY 25 eV
IonPolarity: pos
Date: 2010-10-09 19:48:36+02:00
Num Peaks: 29
51 90 52 65 53 120 55 5 63 35 64 30 65 105 66 5 67 30 75 40 
77 310 78 14 79 175 80 35 91 175 92 4 93 45 94 50 103 100 104 12 
105 45 107 660 108 70 121 24 122 510 123 50 131 30 150 999 151 105 
