Name: ISOCROTYLHYDRAZONE METHYLETHYLKETONE
MW: 140
Formula: C8H16N2
Synonym: MassBank: JP000866
Synonym: ISOCROTYLHYDRAZONE METHYLETHYLKETONE
Synonym: 2-BUTANONE (1-METHYL-2-PROPENYL)HYDRAZONE
Structure: 49534F43524F54594C48594452415A4F4E45204D455448594C455448594C4B45544F4E452E6D6F6C0A20204368656D447261773132323130393233303432440A2031302020392020302020302020302020302020302020302020302020303939392056323030300A2020202D302E3431323520202020312E3738363220202020302E303030302043202020302020302020302020302020302020302020302020302020302020302020302020300A2020202D302E3030303020202020312E3037313720202020302E303030302043202020302020302020302020302020302020302020302020302020302020302020302020300A20202020302E3832353020202020312E3037313720202020302E303030302043202020302020302020302020302020302020302020302020302020302020302020302020300A20202020312E3233373520202020302E3335373220202020302E303030302043202020302020302020302020302020302020302020302020302020302020302020302020300A2020202D302E3431323520202020302E3335373220202020302E30303030204E202020302020302020302020302020302020302020302020302020302020302020302020300A2020202D302E303030302020202D302E3335373220202020302E30303030204E202020302020302020302020302020302020302020302020302020302020302020302020300A2020202D302E343132352020202D312E3037313720202020302E303030302043202020302020302020302020302020302020302020302020302020302020302020302020300A2020202D302E303030302020202D312E3738363220202020302E303030302043202020302020302020302020302020302020302020302020302020302020302020302020300A20202020302E383235302020202D312E3738363220202020302E303030302043202020302020302020302020302020302020302020302020302020302020302020302020300A2020202D312E323337352020202D312E3037313720202020302E303030302043202020302020302020302020302020302020302020302020302020302020302020302020300A2020312020322020312020302020202020200A2020322020332020312020302020202020200A2020332020342020312020302020202020200A2020352020362020312020302020202020200A2020372020382020312020302020202020200A2020382020392020322020302020202020200A2020372031302020312020302020202020200A2020362020372020312020302020202020200A2020322020352020322020302020202020200A4D2020454E44
Contributor: SASAKI S, TOYOHASHI UNIV. OF TECH.
InstType: EI
InstName: SHIMADZU LKB-2091
IoniMethod: _ENERGY 70 eV
IonPolarity: pos
Date: 2010-10-09 19:48:36+02:00
Num Peaks: 45
27 185 28 130 29 333 30 14 31 10 39 117 40 22 41 24 42 999 43 82 
44 223 45 1 51 11 52 10 53 48 54 7 55 333 56 278 57 139 58 2 
62.5 12 68 185 69 72 70 24 71 50 72 22 82 22 83 2 84 32 85 259 
86 43 96 1 97 22 98 15 111 67 112 1 113 146 114 11 124 17 125 89 
126 89 139 20 140 482 141 9 142 11 
