Name: MassBank: JP006738
MW: 245
Formula: C15H19NO2
Synonym: MassBank: JP006738
Synonym: N-(2,2,3,3,4,4-HEXADEUTERO-4-PHENYLBUTYRYL)PIPERIDIN-2-ONE
Structure: 4E2D28322C322C332C332C342C342D484558414445555445524F2D342D5048454E594C4255545952594C2950495045524944494E2D322D4F4E452E6D6F6C0A20204368656D447261773038313231303031303932440A2032342032352020302020302020302020302020302020302020302020303939392056323030300A2020202D312E373339332020202D302E3238313820202020302E30303030204E202020302020302020302020302020302020302020302020302020302020302020302020300A2020202D322E313531382020202D302E3939363220202020302E303030302043202020302020302020302020302020302020302020302020302020302020302020302020300A2020202D322E393836372020202D302E3939363220202020302E303030302043202020302020302020302020302020302020302020302020302020302020302020302020300A2020202D332E333638302020202D302E3234363120202020302E303030302043202020302020302020302020302020302020302020302020302020302020302020302020300A2020202D322E3935353520202020302E3436383420202020302E303030302043202020302020302020302020302020302020302020302020302020302020302020302020300A2020202D322E3132303520202020302E3436383420202020302E303030302043202020302020302020302020302020302020302020302020302020302020302020302020300A2020202D312E373434342020202D312E3730313820202020302E30303030204F202020302020302020302020302020302020302020302020302020302020302020302020300A2020202D302E393034332020202D302E3238313820202020302E303030302043202020302020302020302020302020302020302020302020302020302020302020302020300A2020202D302E343739312020202D312E3031383220202020302E30303030204F202020302020302020302020302020302020302020302020302020302020302020302020300A2020202D302E3530353220202020302E3430393520202020302E303030302043202020302020302020302020302020302020302020302020302020302020302020302020300A20202020302E3437333820202020302E3035383520202020302E303030302043202020302020302020302020302020302020302020302020302020302020302020302020300A20202020312E3031303020202020302E3938373320202020302E303030302043202020302020302020302020302020302020302020302020302020302020302020302020300A20202020312E3933383820202020302E3435313120202020302E303030302043202020302020302020302020302020302020302020302020302020302020302020302020300A20202020322E3635333720202020302E3836333820202020302E303030302043202020302020302020302020302020302020302020302020302020302020302020302020300A20202020332E3336383020202020302E3435313420202020302E303030302043202020302020302020302020302020302020302020302020302020302020302020302020300A20202020332E333638302020202D302E3337333520202020302E303030302043202020302020302020302020302020302020302020302020302020302020302020302020300A20202020322E363533352020202D302E3738363020202020302E303030302043202020302020302020302020302020302020302020302020302020302020302020302020300A20202020312E393339312020202D302E3337333520202020302E303030302043202020302020302020302020302020302020302020302020302020302020302020302020300A20202020312E3432323520202020312E3730313820202020302E303030302048202020312020302020302020302020302020302020302020302020302020302020302020300A20202020302E3239353520202020312E3339393820202020302E303030302048202020312020302020302020302020302020302020302020302020302020302020302020300A20202020312E323131302020202D302E3331313720202020302E303030302048202020312020302020302020302020302020302020302020302020302020302020302020300A20202020302E313437302020202D302E3639393020202020302E303030302048202020312020302020302020302020302020302020302020302020302020302020302020300A2020202D302E3334333820202020312E3232383120202020302E303030302048202020312020302020302020302020302020302020302020302020302020302020302020300A2020202D312E3330393320202020302E3730373520202020302E303030302048202020312020302020302020302020302020302020302020302020302020302020302020300A2020312020322020312020302020202020200A2020322020332020312020302020202020200A2020332020342020312020302020202020200A2020342020352020312020302020202020200A2020352020362020312020302020202020200A2020312020362020312020302020202020200A2020322020372020322020302020202020200A2020382020392020322020302020202020200A2020382031302020312020302020202020200A2031302031312020312020302020202020200A2031312031322020312020302020202020200A2031332031342020312020302020202020200A2031342031352020322020302020202020200A2031352031362020312020302020202020200A2031362031372020322020302020202020200A2031372031382020312020302020202020200A2031332031382020322020302020202020200A2031322031332020312020302020202020200A2031322031392020312020302020202020200A2031322032302020312020302020202020200A2031312032312020312020302020202020200A2031312032322020312020302020202020200A2031302032332020312020302020202020200A2031302032342020312020302020202020200A2020312020382020312020302020202020200A4D202049534F2020362020313920202032202032302020203220203231202020322020323220202032202032332020203220203234202020320A4D2020454E44
Contributor: MASS SPECTROSCOPY SOC. OF JAPAN (MSSJ)
InstType: EI
InstName: HITACHI RMU-6G
IoniMethod: _ENERGY 20 eV
IonPolarity: pos
Date: 2010-10-09 19:48:36+02:00
Num Peaks: 69
28 15 30 40 41 20 42 2 43 30 44 30 45 30 46 3 47 30 55 55 
56 26 57 2 58 90 59 17 60 70 63 1 69 10 70 45 71 25 72 3 
75 10 82 30 83 10 86 3 87 15 88 25 91 15 92 2 93 280 94 70 
95 15 98 5 99 170 100 500 101 400 102 38 103 28 105 10 106 25 107 21 
108 60 109 40 114 60 115 17 116 840 117 70 118 10 121 2 122 18 123 15 
130 10 134 2 142 20 143 200 144 999 145 9 146 10 151 12 152 18 153 5 
154 10 157 10 158 50 170 2 250 10 251 60 252 20 253 3 254 8 
