Name: MassBank: JP001351
MW: 177
Formula: C10H15NSi
Synonym: MassBank: JP001351
Synonym: 1,2,2-TRIMETHYL-2-SILAINDOLINE
Structure: 312C322C322D5452494D455448594C2D322D53494C41494E444F4C494E452E6D6F6C0A20204368656D447261773130323330393131343532440A2031322031332020302020302020302020302020302020302020302020303939392056323030300A20202020302E353537382020202D302E3335333920202020302E30303030204E202020302020302020302020302020302020302020302020302020302020302020302020300A20202020312E3034323720202020302E3331333520202020302E303030302053692020302020302020302020302020302020302020302020302020302020302020302020300A20202020302E3535373820202020302E3938313020202020302E303030302043202020302020302020302020302020302020302020302020302020302020302020302020300A2020202D302E3232363820202020302E3732363020202020302E303030302043202020302020302020302020302020302020302020302020302020302020302020302020300A2020202D302E3934313320202020312E3133383520202020302E303030302043202020302020302020302020302020302020302020302020302020302020302020302020300A2020202D312E3635353820202020302E3732363020202020302E303030302043202020302020302020302020302020302020302020302020302020302020302020302020300A2020202D312E363535382020202D302E3039393020202020302E303030302043202020302020302020302020302020302020302020302020302020302020302020302020300A2020202D302E393431332020202D302E3531313520202020302E303030302043202020302020302020302020302020302020302020302020302020302020302020302020300A2020202D302E323236382020202D302E3039393020202020302E303030302043202020302020302020302020302020302020302020302020302020302020302020302020300A20202020312E363535382020202D302E3233383520202020302E303030302043202020302020302020302020302020302020302020302020302020302020302020302020300A20202020312E3635353820202020302E3836353620202020302E303030302043202020302020302020302020302020302020302020302020302020302020302020302020300A20202020302E383132372020202D312E3133383520202020302E303030302043202020302020302020302020302020302020302020302020302020302020302020302020300A2020312020322020312020302020202020200A2020322020332020312020302020202020200A2020332020342020312020302020202020200A2020342020352020312020302020202020200A2020352020362020322020302020202020200A2020362020372020312020302020202020200A2020372020382020322020302020202020200A2020382020392020312020302020202020200A2020312020392020312020302020202020200A2020342020392020322020302020202020200A2020322031302020312020312020202020200A2020322031312020312020362020202020200A2020312031322020312020302020202020200A4D2020454E44
Contributor: MASS SPECTROSCOPY SOC. OF JAPAN (MSSJ)
InstType: EI
InstName: JEOL JMS-D-3000
IoniMethod: _ENERGY 70 eV
IonPolarity: pos
Date: 2010-10-09 19:48:36+02:00
Num Peaks: 52
43 95 44 119 45 30 50 10 51 30 53 29 54 18 59 126 60 11 63 17 
65 36 66 10 67 17 69 11 74 39 75 15 77 32 78 20 79 18 81 130 
82 17 83 11 84 83 89 48 90 14 91 78 93 20 105 31 106 25 107 26 
117 35 118 129 119 79 120 33 121 17 131 13 132 44 133 24 134 62 135 23 
146 64 147 29 148 33 160 43 161 20 162 1000 163 137 164 38 176 252 177 999 
178 162 179 41 
