Name: MassBank: JP009925
MW: 272
Formula: C19H28O
Synonym: MassBank: JP009925
Synonym: 3-ETHYL-1,1,3,5,8-PENTAMETHYL-5H,6H-PYRANO(4,5-F)INDAN
Structure: 332D455448594C2D312C312C332C352C382D50454E54414D455448594C2D35482C36482D505952414E4F28342C352D4629494E44414E2E6D6F6C0A20204368656D447261773032323231303137333032440A2032302032322020302020302020302020302020302020302020302020303939392056323030300A2020202D312E3035393320202020302E3431323520202020302E303030302043202020302020302020302020302020302020302020302020302020302020302020302020300A2020202D312E303539332020202D302E3431323520202020302E303030302043202020302020302020302020302020302020302020302020302020302020302020302020300A2020202D302E333434392020202D302E3832353020202020302E303030302043202020302020302020302020302020302020302020302020302020302020302020302020300A20202020302E333639362020202D302E3431323520202020302E303030302043202020302020302020302020302020302020302020302020302020302020302020302020300A20202020302E3336393620202020302E3431323520202020302E303030302043202020302020302020302020302020302020302020302020302020302020302020302020300A2020202D302E3334343920202020302E3832353020202020302E303030302043202020302020302020302020302020302020302020302020302020302020302020302020300A2020202D312E3737333820202020302E3832353020202020302E303030302043202020302020302020302020302020302020302020302020302020302020302020302020300A2020202D322E3438383320202020302E3431323520202020302E30303030204F202020302020302020302020302020302020302020302020302020302020302020302020300A2020202D322E343838332020202D302E3431323520202020302E303030302043202020302020302020302020302020302020302020302020302020302020302020302020300A2020202D312E373733382020202D302E3832353020202020302E303030302043202020302020302020302020302020302020302020302020302020302020302020302020300A20202020312E313534322020202D302E3636373420202020302E303030302043202020302020302020302020302020302020302020302020302020302020302020302020300A20202020312E3633393220202020302E3030303020202020302E303030302043202020302020302020302020302020302020302020302020302020302020302020302020300A20202020312E3135343220202020302E3636373420202020302E303030302043202020302020302020302020302020302020302020302020302020302020302020302020300A20202020312E343039322020202D312E3435323120202020302E303030302043202020302020302020302020302020302020302020302020302020302020302020302020300A20202020312E393639312020202D302E3739363520202020302E303030302043202020302020302020302020302020302020302020302020302020302020302020302020300A20202020322E343838332020202D302E3135353420202020302E303030302043202020302020302020302020302020302020302020302020302020302020302020302020300A2020202D312E373733382020202D312E3635303020202020302E303030302043202020302020302020302020302020302020302020302020302020302020302020302020300A2020202D312E3737333820202020312E3635303020202020302E303030302043202020302020302020302020302020302020302020302020302020302020302020302020300A20202020312E3836383720202020312E3037393920202020302E303030302043202020302020302020302020302020302020302020302020302020302020302020302020300A20202020302E3831383720202020312E3432313120202020302E303030302043202020302020302020302020302020302020302020302020302020302020302020302020300A2020312020322020322020302020202020200A2020322020332020312020302020202020200A2020332020342020322020302020202020200A2020342020352020312020302020202020200A2020352020362020322020302020202020200A2020362020312020312020302020202020200A2020312020372020312020302020202020200A2020372020382020312020302020202020200A2020382020392020312020302020202020200A2020392031302020312020302020202020200A2031302020322020312020302020202020200A2020342031312020312020302020202020200A2031312031322020312020302020202020200A2031322031332020312020302020202020200A2031332020352020312020302020202020200A2031312031342020312020302020202020200A2031312031352020312020302020202020200A2031352031362020312020302020202020200A2031302031372020312020302020202020200A2020372031382020312020302020202020200A2031332031392020312020312020202020200A2031332032302020312020362020202020200A4D2020454E44
Contributor: KURARAY CO., LTD.
InstType: EI
InstName: JEOL JMS-D-300
IoniMethod: _ENERGY 70 eV
IonPolarity: pos
Date: 2010-10-09 19:48:36+02:00
Num Peaks: 6
215 449 229 999 230 238 243 89 257 314 272 209 
