Name: TERPINYL BUTYRATE
MW: 224
Formula: C14H24O2
Synonym: MassBank: JP006409
Synonym: TERPINYL BUTYRATE
Structure: 303530375F54455250494E594C2042555459524154452E6D6F6C0A20204368656D447261773038323031303033353832440A2031372031372020302020302020302020302020302020302020302020303939392056323030300A20202020312E373031372020202D312E3237393420202020302E303030302043202020302020302020302020302020302020302020302020302020302020302020302020300A20202020322E343136322020202D302E3836363920202020302E303030302043202020302020302020302020302020302020302020302020302020302020302020302020300A20202020322E343136322020202D302E3034313920202020302E303030302043202020302020302020302020302020302020302020302020302020302020302020302020300A20202020312E3730313720202020302E3337303620202020302E303030302043202020302020302020302020302020302020302020302020302020302020302020302020300A20202020302E393837332020202D302E3034313920202020302E303030302043202020302020302020302020302020302020302020302020302020302020302020302020300A20202020302E393837332020202D302E3836363920202020302E303030302043202020302020302020302020302020302020302020302020302020302020302020302020300A20202020332E313330372020202D312E3237393420202020302E303030302043202020302020302020302020302020302020302020302020302020302020302020302020300A20202020302E3737333720202020302E3735353020202020302E303030302048202020302020302020302020302020302020302020302020302020302020302020302020300A20202020302E313639332020202D302E3134393620202020302E303030302043202020302020302020302020302020302020302020302020302020302020302020302020300A20202020302E3338323820202020302E3634373320202020302E303030302043202020302020302020302020302020302020302020302020302020302020302020302020300A20202020302E333832382020202D302E3934363520202020302E303030302043202020302020302020302020302020302020302020302020302020302020302020302020300A2020202D302E363535372020202D302E3134393620202020302E30303030204F202020302020302020302020302020302020302020302020302020302020302020302020300A2020202D312E3036383220202020302E3536343920202020302E303030302043202020302020302020302020302020302020302020302020302020302020302020302020300A2020202D312E3839333220202020302E3536343920202020302E303030302043202020302020302020302020302020302020302020302020302020302020302020302020300A2020202D302E3635353720202020312E3237393420202020302E30303030204F202020302020302020302020302020302020302020302020302020302020302020302020300A2020202D322E333035372020202D302E3134393620202020302E303030302043202020302020302020302020302020302020302020302020302020302020302020302020300A2020202D332E313330372020202D302E3134393620202020302E303030302043202020302020302020302020302020302020302020302020302020302020302020302020300A2020312020322020312020302020202020200A2020322020332020322020302020202020200A2020332020342020312020302020202020200A2020342020352020312020302020202020200A2020352020362020312020302020202020200A2020362020312020312020302020202020200A2020322020372020312020302020202020200A2020352020382020312020362020202020200A2020352020392020312020312020202020200A2020392031302020312020302020202020200A2020392031312020312020302020202020200A2020392031322020312020302020202020200A2031322031332020312020302020202020200A2031332031342020312020302020202020200A2031332031352020322020302020202020200A2031342031362020312020302020202020200A2031362031372020312020302020202020200A4D2020454E44
Contributor: HISAHIRO HAGIWARA, CHEMICAL RESEARCH INSTITUTE OF NON-AQUEOUSSOLUTIONS TOHOKU UNIV.
InstType: EI
InstName: HITACHI M-80B
IoniMethod: _ENERGY 70 eV
IonPolarity: pos
Date: 2010-10-09 19:48:36+02:00
Num Peaks: 50
27 121 29 64 31 17 39 82 40 21 41 340 42 38 43 541 44 19 45 12 
51 18 52 11 53 74 54 12 55 76 59 44 60 20 65 29 66 13 67 134 
68 84 69 100 71 595 72 26 73 11 77 77 78 21 79 133 80 64 81 273 
82 23 91 73 92 171 93 671 95 98 105 35 106 10 107 100 108 59 109 12 
119 11 121 999 122 87 123 22 129 14 136 754 137 215 138 17 139 15 209 18 
