Name: 3-METHYL-1-BUTANOL
MW: 88
Formula: C5H12O
Synonym: MassBank: JP000277
Synonym: 3-METHYL-1-BUTANOL
Synonym: ISO-AMYL ALCOHOL
Structure: 310A31360A332D4D455448594C2D312D425554414E4F4C2E6D6F6C0A20204368656D447261773032323231303233323132440A2020362020352020302020302020302020302020302020302020302020303939392056323030300A2020202D302E373134352020202D302E3230363220202020302E303030302043202020302020302020302020302020302020302020302020302020302020302020302020300A20202020302E303030302020202D302E3631383820202020302E303030302043202020302020302020302020302020302020302020302020302020302020302020302020300A20202020302E373134352020202D302E3230363220202020302E303030302043202020302020302020302020302020302020302020302020302020302020302020302020300A20202020302E3731343520202020302E3631383820202020302E303030302043202020302020302020302020302020302020302020302020302020302020302020302020300A2020202D312E343238392020202D302E3631383820202020302E30303030204F202020302020302020302020302020302020302020302020302020302020302020302020300A20202020312E343238392020202D302E3631383820202020302E303030302043202020302020302020302020302020302020302020302020302020302020302020302020300A2020312020322020312020302020202020200A2020322020332020312020302020202020200A2020332020342020312020302020202020200A2020312020352020312020302020202020200A2020332020362020312020302020202020200A4D2020454E44
Contributor: YAMAMOTO M, DEP. CHEMISTRY, FAC. SCIENCE, NARA WOMEN'S UNIV.
InstType: EI
InstName: HITACHI RMU-6M
IoniMethod: _ENERGY 70 eV
IonPolarity: pos
Date: 2010-10-09 19:48:36+02:00
Num Peaks: 33
15 45 19 32 26 35 27 39 28 142 29 633 30 16 31 48 32 20 33 13 
38 24 39 30 40 50 41 999 42 765 43 58 44 30 45 175 46 61 47 1 
50 18 51 21 53 38 54 2 55 901 56 543 57 651 58 3 59 25 60 12 
69 49 70 78 71 59 
