Name: 3-BENZYLAMINO-2-METHYL-2-BUTEN-4-OLIDE
MW: 203
Formula: C12H13NO2
Synonym: MassBank: JP008122
Synonym: 3-BENZYLAMINO-2-METHYL-2-BUTEN-4-OLIDE
Structure: 332D42454E5A594C414D494E4F2D322D4D455448594C2D322D425554454E2D342D4F4C4944452E6D6F6C0A20204368656D447261773032323231303134313332440A2031352031362020302020302020302020302020302020302020302020303939392056323030300A20202020322E303238382020202D302E3630363520202020302E303030302043202020302020302020302020302020302020302020302020302020302020302020302020300A20202020312E3437363820202020302E3030363620202020302E303030302043202020302020302020302020302020302020302020302020302020302020302020302020300A20202020302E373233312020202D302E3332393020202020302E303030302043202020302020302020302020302020302020302020302020302020302020302020302020300A20202020302E383039332020202D312E3134393520202020302E303030302043202020302020302020302020302020302020302020302020302020302020302020302020300A20202020312E3634383320202020302E3831333520202020302E303030302043202020302020302020302020302020302020302020302020302020302020302020302020300A20202020302E3030383620202020302E3038333520202020302E30303030204E202020302020302020302020302020302020302020302020302020302020302020302020300A2020202D302E373035392020202D302E3332393020202020302E303030302043202020302020302020302020302020302020302020302020302020302020302020302020300A2020202D312E3432303320202020302E3038333520202020302E303030302043202020302020302020302020302020302020302020302020302020302020302020302020300A2020202D312E3432303320202020302E3930383520202020302E303030302043202020302020302020302020302020302020302020302020302020302020302020302020300A2020202D322E3133343820202020312E3332313020202020302E303030302043202020302020302020302020302020302020302020302020302020302020302020302020300A2020202D322E3834393320202020302E3930383520202020302E303030302043202020302020302020302020302020302020302020302020302020302020302020302020300A2020202D322E3834393320202020302E3038333520202020302E303030302043202020302020302020302020302020302020302020302020302020302020302020302020300A2020202D322E313334382020202D302E3332393020202020302E303030302043202020302020302020302020302020302020302020302020302020302020302020302020300A20202020322E383439332020202D302E3532303320202020302E30303030204F202020302020302020302020302020302020302020302020302020302020302020302020300A20202020312E363136332020202D312E3332313020202020302E30303030204F202020302020302020302020302020302020302020302020302020302020302020302020300A2020312020322020312020302020202020200A2020322020332020322020302020202020200A2020332020342020312020302020202020200A2020322020352020312020302020202020200A2020372020382020312020302020202020200A2020382020392020312020302020202020200A2020392031302020322020302020202020200A2031302031312020312020302020202020200A2031312031322020322020302020202020200A2031322031332020312020302020202020200A2020382031332020322020302020202020200A2020362020372020312020302020202020200A2020332020362020312020302020202020200A2020312031342020322020302020202020200A2020312031352020312020302020202020200A2020342031352020312020302020202020200A4D2020454E44
Contributor: YAMAMOTO M, DEP. CHEMISTRY, FAC. SCIENCE, NARA WOMEN'S UNIV.
InstType: EI
InstName: JEOL JMS-HX-100
IoniMethod: _ENERGY 70 eV
IonPolarity: pos
Date: 2010-10-09 19:48:36+02:00
Num Peaks: 121
38 3 39 33 41 22 42 4 43 12 44 1 50 6 51 19 52 10 53 11 
54 7 55 13 56 3 57 11 59 1 60 8 62 5 63 18 64 6 65 98 
66 8 67 5 68 7 69 18 70 4 71 6 72 6 73 9 74 1 75 2 
76 2 77 14 78 8 79 4 80 2 81 8 82 5 83 10 84 4 85 4 
87 4 88 2 89 23 90 10 91 999 92 97 93 4 94 1 95 4 96 2 
97 7 98 3 99 2 100 2 101 2 102 1 103 2 104 11 106 2 107 2 
109 2 111 5 112 2 113 2 114 2 115 9 116 4 117 4 118 2 120 2 
121 3 123 2 124 2 125 3 126 1 128 2 129 8 130 5 131 3 135 2 
136 1 137 2 138 1 140 1 142 2 143 7 144 6 145 2 147 1 148 2 
149 1 151 1 152 1 156 6 157 5 158 9 159 2 163 1 164 2 165 2 
167 4 169 1 171 2 172 2 174 4 175 1 176 2 177 1 184 2 185 4 
186 2 188 2 191 3 193 2 199 2 200 2 201 2 202 7 203 403 204 61 
205 6 
