Name: MassBank: JP007836
MW: 160
Formula: C12H16
Synonym: MassBank: JP007836
Synonym: 1,1,3-TRIMETHYLINDAN
Structure: 312C312C332D5452494D455448594C494E44414E2E6D6F6C0A20204368656D447261773130323330393032303432440A2031322031332020302020302020302020302020302020302020302020303939392056323030300A20202020302E373439352020202D302E3638323920202020302E303030302043202020302020302020302020302020302020302020302020302020302020302020302020300A20202020312E323334352020202D302E3031353520202020302E303030302043202020302020302020302020302020302020302020302020302020302020302020302020300A20202020302E3734393520202020302E3635323020202020302E303030302043202020302020302020302020302020302020302020302020302020302020302020302020300A2020202D302E3033353120202020302E3339373020202020302E303030302043202020302020302020302020302020302020302020302020302020302020302020302020300A2020202D302E3734393520202020302E3830393520202020302E303030302043202020302020302020302020302020302020302020302020302020302020302020302020300A2020202D312E3436343020202020302E3339373020202020302E303030302043202020302020302020302020302020302020302020302020302020302020302020302020300A2020202D312E343634302020202D302E3432383020202020302E303030302043202020302020302020302020302020302020302020302020302020302020302020302020300A2020202D302E373439352020202D302E3834303520202020302E303030302043202020302020302020302020302020302020302020302020302020302020302020302020300A2020202D302E303335312020202D302E3432383020202020302E303030302043202020302020302020302020302020302020302020302020302020302020302020302020300A20202020312E3030343520202020312E3433363620202020302E303030302043202020302020302020302020302020302020302020302020302020302020302020302020300A20202020302E343134302020202D312E3433363620202020302E303030302043202020302020302020302020302020302020302020302020302020302020302020302020300A20202020312E343634302020202D312E3039353420202020302E303030302043202020302020302020302020302020302020302020302020302020302020302020302020300A2020312020322020312020302020202020200A2020322020332020312020302020202020200A2020332020342020312020302020202020200A2020342020352020312020302020202020200A2020352020362020322020302020202020200A2020362020372020312020302020202020200A2020372020382020322020302020202020200A2020382020392020312020302020202020200A2020312020392020312020302020202020200A2020342020392020322020302020202020200A2020332031302020312020302020202020200A2020312031312020312020312020202020200A2020312031322020312020362020202020200A4D2020454E44
Contributor: HASHIMOTO K, KYOTO COLLEGE OF PHARMACY
InstType: EI
InstName: HITACHI M-80
IoniMethod: _ENERGY 20 eV
IonPolarity: pos
Date: 2010-10-09 19:48:36+02:00
Num Peaks: 20
27 10 39 24 41 20 51 27 57.5 8 64 33 65 30 77 33 78 10 91 92 
103 23 115 74 117 106 128 79 129 67 144 25 145 999 146 119 160 187 161 23 
