Name: BROMOTRICHLOROMETHANE
CAS: 75-62-7
MW: 195
Formula: CBrCl3
Synonym: MassBank: JP009520
Synonym: BROMOTRICHLOROMETHANE
Structure: 310A31340A42524F4D4F54524943484C4F524F4D455448414E452E6D6F6C0A20204368656D447261773039303631303031323432440A2020352020342020302020302020302020302020302020302020302020303939392056323030300A20202020302E3030303020202020302E3030303020202020302E303030302043202020302020302020302020302020302020302020302020302020302020302020302020300A20202020302E303030302020202D302E3832353020202020302E3030303020436C2020302020302020302020302020302020302020302020302020302020302020302020300A2020202D302E3832353020202020302E3030303020202020302E3030303020436C2020302020302020302020302020302020302020302020302020302020302020302020300A20202020302E3030303020202020302E3832353020202020302E3030303020436C2020302020302020302020302020302020302020302020302020302020302020302020300A20202020302E3832353020202020302E3030303020202020302E303030302042722020302020302020302020302020302020302020302020302020302020302020302020300A2020312020322020312020302020202020200A2020312020332020312020302020202020200A2020312020342020312020302020202020200A2020312020352020312020302020202020200A4D2020454E44
Contributor: NARA WOMEN'S UNIVERSITY
InstType: EI
InstName: HITACHI M-80
IoniMethod: _ENERGY 70 eV
IonPolarity: pos
Date: 2010-10-09 19:48:36+02:00
Num Peaks: 29
11 23 35 308 36 19 37 71 47 429 49 128 79 128 80 11 81 288 82 364 
84 227 86 32 91 56 93 53 114 10 116 14 117 990 118 13 119 999 120 11 
121 313 123 35 126 33 128 47 130 11 161 247 163 394 165 175 167 25 
