Name: N-HEXYL-5-HYDROXYPENTANAMIDE
MW: 201
Formula: C11H23NO2
Synonym: MassBank: JP004160
Synonym: N-HEXYL-5-HYDROXYPENTANAMIDE
Structure: 4E2D484558594C2D352D485944524F585950454E54414E414D4944452E6D6F6C0A20204368656D447261773038313231303032303832440A2031342031332020302020302020302020302020302020302020302020303939392056323030300A2020202D312E343238392020202D302E3832353020202020302E303030302043202020302020302020302020302020302020302020302020302020302020302020302020300A2020202D322E313433342020202D312E3233373520202020302E303030302043202020302020302020302020302020302020302020302020302020302020302020302020300A2020202D322E383537392020202D302E3832353020202020302E303030302043202020302020302020302020302020302020302020302020302020302020302020302020300A2020202D322E3835373920202020302E3030303020202020302E303030302043202020302020302020302020302020302020302020302020302020302020302020302020300A2020202D332E3537323420202020302E3431323520202020302E303030302043202020302020302020302020302020302020302020302020302020302020302020302020300A2020202D312E3432383920202020302E3030303020202020302E30303030204F202020302020302020302020302020302020302020302020302020302020302020302020300A2020202D302E373134352020202D312E3233373520202020302E30303030204E202020302020302020302020302020302020302020302020302020302020302020302020300A2020202D332E3537323420202020312E3233373520202020302E30303030204F202020302020302020302020302020302020302020302020302020302020302020302020300A20202020302E303030302020202D302E3832353020202020302E303030302043202020302020302020302020302020302020302020302020302020302020302020302020300A20202020302E373134352020202D312E3233373520202020302E303030302043202020302020302020302020302020302020302020302020302020302020302020302020300A20202020312E343238392020202D302E3832353020202020302E303030302043202020302020302020302020302020302020302020302020302020302020302020302020300A20202020322E313433342020202D312E3233373520202020302E303030302043202020302020302020302020302020302020302020302020302020302020302020302020300A20202020322E383537392020202D302E3832353020202020302E303030302043202020302020302020302020302020302020302020302020302020302020302020302020300A20202020332E353732342020202D312E3233373520202020302E303030302043202020302020302020302020302020302020302020302020302020302020302020302020300A2020312020322020312020302020202020200A2020322020332020312020302020202020200A2020332020342020312020302020202020200A2020342020352020312020302020202020200A2020312020362020322020302020202020200A2020312020372020312020302020202020200A2020352020382020312020302020202020200A2020392031302020312020302020202020200A2031302031312020312020302020202020200A2031312031322020312020302020202020200A2031322031332020312020302020202020200A2031332031342020312020302020202020200A2020372020392020312020302020202020200A4D2020454E44
Contributor: MASS SPECTROSCOPY SOC. OF JAPAN (MSSJ)
InstType: EI
InstName: HITACHI RMU-6E
IoniMethod: _ENERGY 70 eV
IonPolarity: pos
Date: 2010-10-09 19:48:36+02:00
Num Peaks: 134
25 2 26 11 27 232 28 17 29 298 30 999 31 250 32 1 33 1 36 3 
37 3 38 1 39 140 40 33 41 532 42 20 43 814 44 534 45 100 46 1 
49 1 50 4 51 7 52 1 53 42 54 44 55 776 56 28 57 292 58 212 
59 130 60 5 61 2 65 4 66 3 67 2 68 17 69 56 70 58 71 6 
72 212 73 210 74 21 75 0 78 1 79 6 80 4 81 1 82 31 83 304 
84 108 85 21 86 290 87 188 88 17 89 0 94 3 95 4 96 7 97 1 
98 62 99 58 100 320 101 74 102 106 103 12 104 1 108 0 109 7 110 5 
111 7 112 10 113 180 114 136 115 39 116 1 117 1 118 8 124 5 125 1 
126 102 127 84 128 238 129 3 130 27 131 290 132 31 133 0 137 1 138 3 
139 2 140 19 141 62 142 25 143 144 144 12 145 40 146 3 153 1 154 8 
155 15 156 298 157 46 158 34 159 60 160 8 161 1 162 0 166 3 167 2 
168 26 169 0 170 114 171 82 172 152 173 2 174 3 181 2 182 11 183 10 
184 46 185 5 186 28 187 0 188 1 189 1 197 3 198 0 199 3 200 18 
201 294 202 15 203 18 204 2 
