Name: SITOSTEROL
CAS: 83-46-5
MW: 414
Formula: C29H50O
Synonym: MassBank: JP005753
Synonym: SITOSTEROL
Structure: 303535395F5349544F535445524F4C2E6D6F6C0A20204368656D447261773038323031303035343132440A2033372034302020302020302020302020302020302020302020302020303939392056323030300A2020202D332E373635392020202D302E3834353020202020302E303030302043202020302020302020302020302020302020302020302020302020302020302020302020300A2020202D332E373635392020202D312E3637303020202020302E303030302043202020302020302020302020302020302020302020302020302020302020302020302020300A2020202D332E303531342020202D322E3038323520202020302E303030302043202020302020302020302020302020302020302020302020302020302020302020302020300A2020202D322E333336392020202D312E3637303020202020302E303030302043202020302020302020302020302020302020302020302020302020302020302020302020300A2020202D322E333336392020202D302E3834353020202020302E303030302043202020302020302020302020302020302020302020302020302020302020302020302020300A2020202D332E303531342020202D302E3433323520202020302E303030302043202020302020302020302020302020302020302020302020302020302020302020302020300A2020202D312E363232352020202D322E3038323520202020302E303030302043202020302020302020302020302020302020302020302020302020302020302020302020300A2020202D302E393038302020202D312E3637303020202020302E303030302043202020302020302020302020302020302020302020302020302020302020302020302020300A2020202D302E393038302020202D302E3834353020202020302E303030302043202020302020302020302020302020302020302020302020302020302020302020302020300A2020202D312E363232352020202D302E3433323520202020302E303030302043202020302020302020302020302020302020302020302020302020302020302020302020300A2020202D302E313933352020202D302E3433323520202020302E303030302043202020302020302020302020302020302020302020302020302020302020302020302020300A20202020302E353931312020202D302E3638373320202020302E303030302043202020302020302020302020302020302020302020302020302020302020302020302020300A20202020312E303736302020202D302E3032303020202020302E303030302043202020302020302020302020302020302020302020302020302020302020302020302020300A20202020302E3539313120202020302E3634373520202020302E303030302043202020302020302020302020302020302020302020302020302020302020302020302020300A20202020302E3834363020202020312E3433323220202020302E303030302043202020302020302020302020302020302020302020302020302020302020302020302020300A20202020302E3034393220202020312E3634353620202020302E303030302043202020302020302020302020302020302020302020302020302020302020302020302020300A20202020302E3834363020202020322E3235373220202020302E303030302048202020302020302020302020302020302020302020302020302020302020302020302020300A20202020312E3637313020202020312E3433323220202020302E303030302043202020302020302020302020302020302020302020302020302020302020302020302020300A20202020322E3235343420202020322E3031353520202020302E303030302043202020302020302020302020302020302020302020302020302020302020302020302020300A20202020332E3035313420202020312E3830323020202020302E303030302043202020302020302020302020302020302020302020302020302020302020302020302020300A20202020332E3633353620202020322E3338343320202020302E303030302048202020302020302020302020302020302020302020302020302020302020302020302020300A20202020332E3736353820202020312E3338393520202020302E303030302043202020302020302020302020302020302020302020302020302020302020302020302020300A20202020342E3438303220202020312E3830323020202020302E303030302043202020302020302020302020302020302020302020302020302020302020302020302020300A20202020332E3736353820202020302E3536343520202020302E303030302043202020302020302020302020302020302020302020302020302020302020302020302020300A20202020332E3233373820202020302E3338353320202020302E303030302043202020302020302020302020302020302020302020302020302020302020302020302020300A20202020322E3733353620202020312E3033393720202020302E303030302043202020302020302020302020302020302020302020302020302020302020302020302020300A20202020312E3431363120202020302E3634373520202020302E303030302048202020302020302020302020302020302020302020302020302020302020302020302020300A2020202D302E313933352020202D312E3235373520202020302E303030302048202020302020302020302020302020302020302020302020302020302020302020302020300A20202020302E333839382020202D312E3031353720202020302E303030302048202020302020302020302020302020302020302020302020302020302020302020302020300A2020202D302E3930383020202020302E3830353020202020302E303030302043202020302020302020302020302020302020302020302020302020302020302020302020300A2020202D312E3632323520202020302E3339323520202020302E303030302043202020302020302020302020302020302020302020302020302020302020302020302020300A2020202D302E3139333520202020302E3339323520202020302E303030302043202020302020302020302020302020302020302020302020302020302020302020302020300A2020202D302E3139333520202020312E3231373520202020302E303030302043202020302020302020302020302020302020302020302020302020302020302020302020300A2020202D342E343830322020202D312E3235373520202020302E303030302048202020302020302020302020302020302020302020302020302020302020302020302020300A2020202D342E313738342020202D322E3338343320202020302E30303030204F202020302020302020302020302020302020302020302020302020302020302020302020300A2020202D312E363232352020202D312E3235373520202020302E303030302043202020302020302020302020302020302020302020302020302020302020302020302020300A2020202D322E3230353820202020302E3135303920202020302E303030302048202020302020302020302020302020302020302020302020302020302020302020302020300A2020312020322020312020302020202020200A2020322020332020312020302020202020200A2020332020342020312020302020202020200A2020342020352020312020302020202020200A2020352020362020312020302020202020200A2020362020312020312020302020202020200A2020342020372020322020302020202020200A2020372020382020312020302020202020200A2020382020392020312020302020202020200A2020392031302020312020302020202020200A2031302020352020312020302020202020200A2020392031312020312020302020202020200A2031312033322020312020302020202020200A2033322033302020312020302020202020200A2033312031302020312020302020202020200A2031312031322020312020302020202020200A2031322031332020312020302020202020200A2031332031342020312020302020202020200A2031342033322020312020302020202020200A2031342031352020312020302020202020200A2031352031362020312020302020202020200A2031352031372020312020312020202020200A2031352031382020312020302020202020200A2031382031392020312020302020202020200A2031392032302020312020302020202020200A2032302032312020312020312020202020200A2032302032362020312020312020202020200A2032302032322020312020302020202020200A2032322032332020312020302020202020200A2032322032342020312020302020202020200A2032352032362020312020302020202020200A2031342032372020312020362020202020200A2020392032382020312020312020202020200A2031312032392020312020362020202020200A2033302033312020312020302020202020200A2033322033332020312020312020202020200A2020322033342020312020362020202020200A2020322033352020312020312020202020200A2020352033362020312020312020202020200A2031302033372020312020362020202020200A4D2020454E44
Contributor: MASS SPECTROSCOPY SOC. OF JAPAN (MSSJ)
InstType: EI
InstName: HITACHI M-80
IoniMethod: _ENERGY 70 eV
IonPolarity: pos
Date: 2010-10-09 19:48:36+02:00
Num Peaks: 215
17 18 18 65 27 77 28 71 29 196 36 26 39 58 40 15 41 533 42 102 
43 999 44 51 53 82 54 19 55 702 56 72 57 537 58 27 65 38 66 18 
67 228 68 53 69 417 70 40 71 195 72 11 73 12 77 114 78 31 79 260 
80 49 81 437 82 68 83 213 84 30 85 209 86 14 91 352 92 91 93 280 
94 98 95 392 96 52 97 141 98 17 99 24 103 26 104 26 105 427 106 117 
107 421 108 98 109 210 110 37 111 77 115 42 116 27 117 139 118 73 119 283 
120 192 121 224 122 52 123 110 124 51 125 57 128 42 129 76 130 47 131 207 
132 68 133 266 134 91 135 193 136 51 137 58 138 28 139 21 141 26 142 27 
143 141 144 71 145 352 146 97 147 208 148 60 149 112 150 24 151 43 152 14 
155 21 156 15 157 93 158 11 159 252 160 138 161 216 162 55 163 157 164 31 
165 23 169 23 170 11 171 81 172 34 173 127 174 45 175 68 176 33 177 60 
178 80 179 27 183 19 184 11 185 77 186 40 187 77 188 24 189 39 190 16 
191 51 192 14 193 12 197 26 198 12 199 93 200 32 201 55 202 18 203 27 
205 36 207 43 211 28 212 13 213 229 214 74 215 73 216 20 217 32 218 13 
219 21 221 16 225 12 227 42 228 66 229 99 230 28 231 135 232 44 233 26 
234 20 235 12 239 22 241 31 242 11 243 12 245 17 246 34 247 23 248 13 
253 19 254 16 255 196 256 46 257 21 258 11 259 12 261 13 271 39 272 30 
273 143 274 40 275 66 276 22 281 49 282 15 283 22 288 20 289 25 290 11 
296 28 297 12 299 38 300 21 301 19 302 71 303 271 304 63 314 163 315 51 
316 12 328 14 329 188 330 52 341 14 342 15 367 13 368 11 370 11 381 153 
382 54 383 13 394 12 395 11 396 276 397 102 398 22 399 164 400 60 401 11 
412 38 413 19 414 500 415 169 416 29 
