Name: CHOLESTEROL ACETATE
CAS: 604-35-3
MW: 428
Formula: C29H48O2
Synonym: MassBank: JP002708
Synonym: CHOLESTEROL ACETATE
Structure: 43484F4C45535445524F4C20414345544154452E6D6F6C0A20204368656D447261773039303731303131333232440A2033372034302020302020302020302020302020302020302020302020303939392056323030300A2020202D332E333736352020202D312E3436303720202020302E303030302043202020302020302020302020302020302020302020302020302020302020302020302020300A2020202D332E333736352020202D302E3633353720202020302E303030302043202020302020302020302020302020302020302020302020302020302020302020302020300A2020202D322E363632302020202D302E3232333220202020302E303030302043202020302020302020302020302020302020302020302020302020302020302020302020300A2020202D322E363632302020202D312E3837333220202020302E303030302043202020302020302020302020302020302020302020302020302020302020302020302020300A2020202D312E393437352020202D312E3436303720202020302E303030302043202020302020302020302020302020302020302020302020302020302020302020302020300A2020202D312E323333312020202D312E3837333220202020302E303030302043202020302020302020302020302020302020302020302020302020302020302020302020300A2020202D302E353138362020202D312E3436303720202020302E303030302043202020302020302020302020302020302020302020302020302020302020302020302020300A2020202D302E353138362020202D302E3633353720202020302E303030302043202020302020302020302020302020302020302020302020302020302020302020302020300A20202020302E313935392020202D302E3232333220202020302E303030302043202020302020302020302020302020302020302020302020302020302020302020302020300A20202020302E393830352020202D302E3437383220202020302E303030302043202020302020302020302020302020302020302020302020302020302020302020302020300A20202020312E3436353420202020302E3138393320202020302E303030302043202020302020302020302020302020302020302020302020302020302020302020302020300A20202020302E3938303520202020302E3835363720202020302E303030302043202020302020302020302020302020302020302020302020302020302020302020302020300A20202020312E3233353420202020312E3634313320202020302E303030302043202020302020302020302020302020302020302020302020302020302020302020302020300A20202020302E3139353920202020302E3630313820202020302E303030302043202020302020302020302020302020302020302020302020302020302020302020302020300A20202020302E3139353920202020312E3432363820202020302E303030302043202020302020302020302020302020302020302020302020302020302020302020302020300A2020202D302E3531383620202020312E3031343320202020302E303030302043202020302020302020302020302020302020302020302020302020302020302020302020300A2020202D312E3233333120202020302E3630313820202020302E303030302043202020302020302020302020302020302020302020302020302020302020302020302020300A2020202D312E323333312020202D302E3232333220202020302E303030302043202020302020302020302020302020302020302020302020302020302020302020302020300A2020202D312E393437352020202D302E3633353720202020302E303030302043202020302020302020302020302020302020302020302020302020302020302020302020300A2020202D312E323333312020202D312E3034383220202020302E303030302043202020302020302020302020302020302020302020302020302020302020302020302020300A2020202D342E303931302020202D312E3837333220202020302E30303030204F202020302020302020302020302020302020302020302020302020302020302020302020300A2020202D312E3934373520202020302E3138393320202020302E303030302048202020302020302020302020302020302020302020302020302020302020302020302020300A20202020302E313935392020202D312E3034383220202020302E303030302048202020302020302020302020302020302020302020302020302020302020302020302020300A20202020302E363038342020202D302E3933373720202020302E303030302048202020302020302020302020302020302020302020302020302020302020302020302020300A2020202D342E313733342020202D312E3234373220202020302E303030302048202020302020302020302020302020302020302020302020302020302020302020302020300A20202020312E3830353520202020302E3835363720202020302E303030302048202020302020302020302020302020302020302020302020302020302020302020302020300A20202020312E3434393020202020322E3433383220202020302E303030302048202020302020302020302020302020302020302020302020302020302020302020302020300A20202020322E3032363520202020312E3430373020202020302E303030302043202020302020302020302020302020302020302020302020302020302020302020302020300A20202020302E3434343420202020312E3837353720202020302E303030302043202020302020302020302020302020302020302020302020302020302020302020302020300A20202020322E3632343920202020312E3937343920202020302E303030302043202020302020302020302020302020302020302020302020302020302020302020302020300A20202020332E3431353920202020312E3734303620202020302E303030302043202020302020302020302020302020302020302020302020302020302020302020302020300A20202020342E3031343320202020322E3330383520202020302E303030302043202020302020302020302020302020302020302020302020302020302020302020302020300A20202020342E3830353420202020322E3037343220202020302E303030302043202020302020302020302020302020302020302020302020302020302020302020302020300A20202020332E3832313820202020332E3131303720202020302E303030302043202020302020302020302020302020302020302020302020302020302020302020302020300A2020202D342E303931302020202D322E3639383220202020302E303030302043202020302020302020302020302020302020302020302020302020302020302020302020300A2020202D332E333736352020202D332E3131303720202020302E303030302043202020302020302020302020302020302020302020302020302020302020302020302020300A2020202D342E383035342020202D332E3131303720202020302E30303030204F202020302020302020302020302020302020302020302020302020302020302020302020300A2020312020322020312020302020202020200A2020322020332020312020302020202020200A2020312020342020312020302020202020200A2020342020352020312020302020202020200A2020352020362020322020302020202020200A2020362020372020312020302020202020200A2020372020382020312020302020202020200A2020382020392020312020302020202020200A2020392031302020312020302020202020200A2031302031312020312020302020202020200A2031312031322020312020302020202020200A2031322031332020312020302020202020200A2031322031342020312020302020202020200A2020392031342020312020302020202020200A2031342031352020312020312020202020200A2031342031362020312020302020202020200A2031362031372020312020302020202020200A2031372031382020312020302020202020200A2020382031382020312020302020202020200A2031382031392020312020302020202020200A2020332031392020312020302020202020200A2020352031392020312020302020202020200A2031392032302020312020312020202020200A2020312032312020312020312020202020200A2031382032322020312020362020202020200A2020382032332020312020312020202020200A2020392032342020312020362020202020200A2020312032352020312020362020202020200A2031322032362020312020362020202020200A2031332032372020312020312020202020200A2031332032382020312020302020202020200A2031332032392020312020302020202020200A2032382033302020312020302020202020200A2033302033312020312020302020202020200A2033312033322020312020302020202020200A2033322033332020312020302020202020200A2033322033342020312020302020202020200A2032312033352020312020302020202020200A2033352033362020312020302020202020200A2033352033372020322020302020202020200A4D2020454E44
Contributor: HAYASHI A, DEPT. OF CHEMISTRY, FAC. OF SCI. AND TECHNOLOGY, KINKI UNIV.
InstType: EI
InstName: SHIMADZU LKB-9000B
IoniMethod: _ENERGY 70 eV
IonPolarity: pos
Date: 2010-10-09 19:48:36+02:00
Num Peaks: 187
44 15 56 42 57 41 60 10 65 10 67 71 69 61 71 5 77 44 78 18 
79 103 80 2 81 210 82 26 83 52 85 1 91 199 92 58 93 182 94 5 
95 192 96 21 97 48 103 2 104 27 105 285 106 99 107 26 108 87 109 140 
110 23 111 4 113 10 115 47 116 28 117 13 118 77 119 186 120 186 121 22 
122 57 123 84 124 13 125 2 127 25 128 68 129 108 130 6 131 208 132 61 
133 237 134 7 135 199 136 36 137 41 138 1 139 13 141 51 142 56 143 21 
144 97 145 511 146 177 147 54 148 119 149 136 150 14 151 4 152 18 153 21 
154 12 155 5 156 32 157 125 158 116 159 31 160 195 161 199 162 56 163 12 
164 19 165 36 166 15 167 1 168 17 169 33 170 17 171 9 172 42 173 116 
174 48 175 7 176 18 177 43 178 16 179 3 181 11 182 10 183 27 184 1 
185 92 186 40 187 51 188 2 189 24 191 50 192 16 193 5 194 15 195 14 
197 47 198 2 199 114 200 64 201 90 202 2 203 14 204 11 205 74 206 7 
207 24 209 10 211 26 212 21 213 324 214 100 215 55 216 2 217 15 219 32 
220 14 225 1 226 12 227 50 228 82 229 6 230 13 231 16 232 11 233 2 
239 15 240 11 241 34 242 1 243 12 245 63 246 59 247 47 248 115 249 18 
251 15 253 2 254 11 255 359 256 88 257 1 258 14 259 45 260 255 261 9 
262 17 273 15 274 33 275 3 283 40 284 17 287 10 297 1 314 40 315 17 
325 10 326 5 327 14 338 11 339 23 340 2 351 15 352 12 353 430 354 13 
355 22 364 13 366 43 367 3 368 999 369 318 370 49 
