Name: MassBank: JP007872
MW: 272
Formula: C16H20N2O2
Synonym: MassBank: JP007872
Synonym: 1,8-DIACETYL-3A,8A-DIMETHYL-2,3,3A,8A-TETRAHYDROPYRROLO(2,3-B)INDOLE
Structure: 312C382D444941434554594C2D33412C38412D44494D455448594C2D322C332C33412C38412D5445545241485944524F505952524F4C4F28322C332D4229494E444F4C452E6D6F6C0A20204368656D447261773131313730393037343132440A2032302032322020302020302020302020302020302020302020302020303939392056323030300A2020202D302E323436382020202D302E3330323320202020302E30303030204E202020302020302020302020302020302020302020302020302020302020302020302020300A20202020302E3233383120202020302E3336353120202020302E303030302043202020302020302020302020302020302020302020302020302020302020302020302020300A2020202D302E3234363820202020312E3033323620202020302E303030302043202020302020302020302020302020302020302020302020302020302020302020302020300A2020202D312E3033313420202020302E3737373620202020302E303030302043202020302020302020302020302020302020302020302020302020302020302020302020300A2020202D312E3734353920202020312E3139303120202020302E303030302043202020302020302020302020302020302020302020302020302020302020302020302020300A2020202D322E3436303420202020302E3737373620202020302E303030302043202020302020302020302020302020302020302020302020302020302020302020302020300A2020202D322E343630342020202D302E3034373420202020302E303030302043202020302020302020302020302020302020302020302020302020302020302020302020300A2020202D312E373435392020202D302E3435393920202020302E303030302043202020302020302020302020302020302020302020302020302020302020302020302020300A2020202D312E303331342020202D302E3034373420202020302E303030302043202020302020302020302020302020302020302020302020302020302020302020302020300A20202020312E3032323720202020302E3632303120202020302E30303030204E202020302020302020302020302020302020302020302020302020302020302020302020300A20202020302E3233383120202020312E3730303020202020302E303030302043202020302020302020302020302020302020302020302020302020302020302020302020300A20202020312E3032323720202020312E3434353120202020302E303030302043202020302020302020302020302020302020302020302020302020302020302020302020300A20202020302E373233302020202D302E3330323320202020302E303030302043202020302020302020302020302020302020302020302020302020302020302020302020300A2020202D302E3733313720202020312E3730303020202020302E303030302043202020302020302020302020302020302020302020302020302020302020302020302020300A20202020302E303038312020202D312E3038363920202020302E303030302043202020302020302020302020302020302020302020302020302020302020302020302020300A2020202D302E353433392020202D312E3730303020202020302E30303030204F202020302020302020302020302020302020302020302020302020302020302020302020300A20202020302E383233302020202D312E3231363020202020302E303030302043202020302020302020302020302020302020302020302020302020302020302020302020300A20202020312E3639303220202020302E3133353220202020302E303030302043202020302020302020302020302020302020302020302020302020302020302020302020300A20202020322E3436303420202020302E3433303820202020302E30303030204F202020302020302020302020302020302020302020302020302020302020302020302020300A20202020312E353631312020202D302E3637393720202020302E303030302043202020302020302020302020302020302020302020302020302020302020302020302020300A2020312020322020312020302020202020200A2020322020332020312020302020202020200A2020332020342020312020302020202020200A2020342020352020312020302020202020200A2020352020362020322020302020202020200A2020362020372020312020302020202020200A2020372020382020322020302020202020200A2020382020392020312020302020202020200A2020312020392020312020302020202020200A2020342020392020322020302020202020200A2031312031322020312020302020202020200A2031302031322020312020302020202020200A2020322031302020312020302020202020200A2020332031312020312020302020202020200A2020322031332020312020302020202020200A2020332031342020312020302020202020200A2031352031362020322020302020202020200A2031352031372020312020302020202020200A2020312031352020312020302020202020200A2031382031392020322020302020202020200A2031382032302020312020302020202020200A2031302031382020312020302020202020200A4D2020454E44
Contributor: SASAKI S, TOYOHASHI UNIV. OF TECH.
InstType: EI
InstName: MX-1303
IoniMethod: _ENERGY 50 eV
IonPolarity: pos
Date: 2010-10-09 19:48:36+02:00
Num Peaks: 101
26 31 27 84 29 41 30 5 39 62 40 31 41 98 42 10 43 385 50 16 
51 36 52 2 53 24 54 22 55 64 56 3 57 26 58 26 60 15 63 2 
64 14 65 31 66 12 67 2 68 16 69 22 70 18 75 2 76 23 77 88 
78 35 79 3 80 14 81 22 82 23 83 2 86 24 89 26 90 16 91 8 
92 20 93 15 94 18 95 2 96 31 97 16 100 14 101 2 102 35 103 49 
104 18 105 2 106 15 115 118 116 49 117 5 118 29 119 12 127 27 128 5 
129 42 130 153 131 53 132 4 141 14 142 35 143 118 144 66 145 999 146 156 
147 22 154 2 155 23 156 78 157 73 158 31 159 68 160 18 167 12 168 2 
169 20 170 59 171 75 172 7 173 63 174 15 182 11 183 1 184 19 185 26 
186 22 187 5 188 19 212 11 213 11 215 32 216 57 230 592 231 98 239 1 
272 41 
