Name: MassBank: JP001470
MW: 228
Formula: C12H28Si2
Synonym: MassBank: JP001470
Synonym: 1,1-BIS(TRIMETHYLSILYL)-3,3-DIMETHYL-1-BUTENE
Structure: 312C312D424953285452494D455448594C53494C594C292D332C332D44494D455448594C2D312D425554454E452E6D6F6C0A20204368656D447261773130323330393033333532440A2031342031332020302020302020302020302020302020302020302020303939392056323030300A2020202D302E303534372020202D302E3535333520202020302E303030302043202020302020302020302020302020302020302020302020302020302020302020302020300A2020202D302E3035373720202020302E3531393020202020302E303030302043202020302020302020302020302020302020302020302020302020302020302020302020300A2020202D302E3639313220202020312E3034373620202020302E303030302043202020302020302020302020302020302020302020302020302020302020302020302020300A2020202D312E3235393020202020312E3634363120202020302E303030302043202020302020302020302020302020302020302020302020302020302020302020302020300A2020202D302E3132363720202020312E3634393220202020302E303030302043202020302020302020302020302020302020302020302020302020302020302020302020300A2020202D312E3332313720202020302E3531353520202020302E303030302043202020302020302020302020302020302020302020302020302020302020302020302020300A20202020302E363934302020202D302E3930303120202020302E303030302053692020302020302020302020302020302020302020302020302020302020302020302020300A20202020302E333437342020202D312E3634383720202020302E303030302043202020302020302020302020302020302020302020302020302020302020302020302020300A20202020312E303430352020202D302E3135313420202020302E303030302043202020302020302020302020302020302020302020302020302020302020302020302020300A20202020312E343432362020202D312E3234363620202020302E303030302043202020302020302020302020302020302020302020302020302020302020302020302020300A2020202D302E373737392020202D302E3937343720202020302E303030302053692020302020302020302020302020302020302020302020302020302020302020302020300A2020202D302E333032392020202D312E3634393220202020302E303030302043202020302020302020302020302020302020302020302020302020302020302020302020300A2020202D312E343432362020202D312E3434323920202020302E303030302043202020302020302020302020302020302020302020302020302020302020302020302020300A2020202D312E333030312020202D302E3333373520202020302E303030302043202020302020302020302020302020302020302020302020302020302020302020302020300A2020312020322020322020302020202020200A2020322020332020312020302020202020200A2020332020342020312020302020202020200A2020332020352020312020302020202020200A2020332020362020312020302020202020200A2020372020382020312020302020202020200A2020372020392020312020302020202020200A2020372031302020312020302020202020200A2020312020372020312020302020202020200A2031312031322020312020302020202020200A2031312031332020312020302020202020200A2031312031342020312020302020202020200A2020312031312020312020302020202020200A4D2020454E44
Contributor: MASS SPECTROSCOPY SOC. OF JAPAN (MSSJ)
InstType: EI
InstName: JEOL JMS-D-3000
IoniMethod: _ENERGY 70 eV
IonPolarity: pos
Date: 2010-10-09 19:48:36+02:00
Num Peaks: 34
41 20 43 21 45 70 57 28 59 38 67 14 73 999 74 88 75 38 83 108 
84 11 85 12 97 88 98 24 99 14 109 10 123 11 125 107 126 15 139 371 
140 106 141 32 154 28 155 29 171 271 172 54 173 25 185 20 213 173 214 40 
215 17 228 175 229 42 230 18 
