Name: VINYLTRIETHOXYSILANE
MW: 190
Formula: C8H18O3Si
Synonym: MassBank: JP008858
Synonym: VINYLTRIETHOXYSILANE
Structure: 56494E594C5452494554484F585953494C414E452E6D6F6C0A20204368656D447261773038313231303039323932440A2031322031312020302020302020302020302020302020302020302020303939392056323030300A2020202D302E3335373220202020302E3335373220202020302E303030302053692020302020302020302020302020302020302020302020302020302020302020302020300A20202020302E333537322020202D302E3035353320202020302E30303030204F202020302020302020302020302020302020302020302020302020302020302020302020300A20202020312E3037313720202020302E3335373220202020302E303030302043202020302020302020302020302020302020302020302020302020302020302020302020300A20202020312E373836322020202D302E3035353320202020302E303030302043202020302020302020302020302020302020302020302020302020302020302020302020300A2020202D302E373639372020202D302E3335373220202020302E30303030204F202020302020302020302020302020302020302020302020302020302020302020302020300A2020202D302E333537322020202D312E3037313720202020302E303030302043202020302020302020302020302020302020302020302020302020302020302020302020300A20202020302E343637382020202D312E3037313720202020302E303030302043202020302020302020302020302020302020302020302020302020302020302020302020300A2020202D312E3037313720202020302E3736393720202020302E30303030204F202020302020302020302020302020302020302020302020302020302020302020302020300A2020202D312E3738363220202020302E3335373220202020302E303030302043202020302020302020302020302020302020302020302020302020302020302020302020300A2020202D312E373836322020202D302E3436373820202020302E303030302043202020302020302020302020302020302020302020302020302020302020302020302020300A20202020302E3035353320202020312E3037313720202020302E303030302043202020302020302020302020302020302020302020302020302020302020302020302020300A20202020302E3838303320202020312E3037313720202020302E303030302043202020302020302020302020302020302020302020302020302020302020302020302020300A2020332020342020312020302020202020200A2020322020332020312020302020202020200A2020312020322020312020302020202020200A2020362020372020312020302020202020200A2020352020362020312020302020202020200A2020312020352020312020302020202020200A2020392031302020312020302020202020200A2020382020392020312020302020202020200A2020312020382020312020302020202020200A2031312031322020322020302020202020200A2020312031312020312020302020202020200A4D2020454E44
Contributor: TAJIMA S, GUNMA COLLEGE OF TECHNOLOGY
InstType: EI
InstName: HITACHI RMU-7M
IoniMethod: _ENERGY 70 eV
IonPolarity: pos
Date: 2010-10-09 19:48:36+02:00
Num Peaks: 45
27 59 29 141 31 37 41 28 43 55 44 21 45 191 47 30 55 31 57 34 
61 79 62 50 63 201 71 56 73 118 77 93 79 131 80 24 87 59 89 235 
90 31 91 89 101 286 102 35 103 46 105 60 107 78 115 122 116 17 117 154 
118 46 119 207 131 277 132 30 133 129 135 364 136 36 145 999 146 212 147 157 
161 78 163 262 175 364 176 49 189 33 
