Name: 3-(3-INDOLYL)-PROPIONIC ACID
MW: 189
Formula: C11H11NO2
Synonym: MassBank: JP003726
Synonym: 3-(3-INDOLYL)-PROPIONIC ACID
Structure: 332D28332D494E444F4C594C292D50524F50494F4E494320414349442E6D6F6C0A20204368656D447261773032323231303130303432440A2031342031352020302020302020302020302020302020302020302020303939392056323030300A2020202D312E3833353420202020302E3630343120202020302E303030302043202020302020302020302020302020302020302020302020302020302020302020302020300A2020202D312E3232323420202020302E3035323120202020302E303030302043202020302020302020302020302020302020302020302020302020302020302020302020300A2020202D302E3433373720202020302E3330373020202020302E303030302043202020302020302020302020302020302020302020302020302020302020302020302020300A2020202D322E3633323320202020302E3339303620202020302E30303030204F202020302020302020302020302020302020302020302020302020302020302020302020300A2020202D312E3632313920202020312E3430313020202020302E30303030204F202020302020302020302020302020302020302020302020302020302020302020302020300A20202020302E383432382020202D312E3430313020202020302E30303030204E202020302020302020302020302020302020302020302020302020302020302020302020300A20202020302E303839312020202D312E3036353520202020302E303030302043202020302020302020302020302020302020302020302020302020302020302020302020300A20202020302E313735342020202D302E3234353020202020302E303030302043202020302020302020302020302020302020302020302020302020302020302020302020300A20202020302E393832332020202D302E3037333520202020302E303030302043202020302020302020302020302020302020302020302020302020302020302020302020300A20202020312E3339343820202020302E3634313020202020302E303030302043202020302020302020302020302020302020302020302020302020302020302020302020300A20202020322E3231393820202020302E3634313020202020302E303030302043202020302020302020302020302020302020302020302020302020302020302020302020300A20202020322E363332332020202D302E3037333520202020302E303030302043202020302020302020302020302020302020302020302020302020302020302020302020300A20202020322E323139382020202D302E3738373920202020302E303030302043202020302020302020302020302020302020302020302020302020302020302020302020300A20202020312E333934382020202D302E3738373920202020302E303030302043202020302020302020302020302020302020302020302020302020302020302020302020300A2020312020322020312020302020202020200A2020322020332020312020302020202020200A2020312020342020322020302020202020200A2020312020352020312020302020202020200A2020362020372020312020302020202020200A2020372020382020322020302020202020200A2020382020392020312020302020202020200A2020392031302020312020302020202020200A2031302031312020322020302020202020200A2031312031322020312020302020202020200A2031322031332020322020302020202020200A2031332031342020312020302020202020200A2020362031342020312020302020202020200A2020392031342020322020302020202020200A2020332020382020312020302020202020200A4D2020454E44
Contributor: SASAKI S, TOYOHASHI UNIV. OF TECH.
InstType: EI
InstName: Unknown
IoniMethod: EI
IonPolarity: pos
Date: 2010-10-09 19:48:36+02:00
Num Peaks: 30
39 24 44 10 45 10 50 1 51 22 52 10 63 24 65 1 75 14 76 10 
77 62 89 2 90 14 91 10 101 7 102 2 103 34 115 55 116 17 117 2 
129 31 130 999 131 97 142 2 143 52 144 38 145 5 146 1 189 241 190 36 
