Name: N-ACETYL-GLYCYL-ALANYL-ALANYL-GLYCINE METHYL ESTER
MW: 330
Formula: C13H22N4O6
Synonym: MassBank: JP001567
Synonym: N-ACETYL-GLYCYL-ALANYL-ALANYL-GLYCINE METHYL ESTER
Structure: 303236365F4E2D41434554594C2D474C5943594C2D414C414E594C2D414C414E594C2D474C5943494E45204D455448594C2045535445522E6D6F6C0A20204368656D447261773039303631303135343732440A2032352032342020302020302020302020302020302020302020302020303939392056323030300A20202020332E3932393520202020302E3431323520202020302E303030302043202020302020302020302020302020302020302020302020302020302020302020302020300A20202020322E3530303520202020302E3431323520202020302E30303030204E202020302020302020302020302020302020302020302020302020302020302020302020300A20202020332E3231353020202020302E3832353020202020302E303030302043202020302020302020302020302020302020302020302020302020302020302020302020300A20202020332E393239352020202D302E3431323520202020302E30303030204F202020302020302020302020302020302020302020302020302020302020302020302020300A20202020342E3634343020202020302E3832353020202020302E30303030204F202020302020302020302020302020302020302020302020302020302020302020302020300A20202020322E353030352020202D302E3431323520202020302E303030302043202020302020302020302020302020302020302020302020302020302020302020302020300A20202020312E303731372020202D302E3431323520202020302E30303030204E202020302020302020302020302020302020302020302020302020302020302020302020300A20202020312E373836312020202D302E3832353020202020302E303030302043202020302020302020302020302020302020302020302020302020302020302020302020300A20202020312E373836312020202D312E3635303020202020302E303030302043202020302020302020302020302020302020302020302020302020302020302020302020300A20202020332E323135302020202D302E3832353020202020302E30303030204F202020302020302020302020302020302020302020302020302020302020302020302020300A20202020302E333537322020202D302E3832353020202020302E303030302043202020302020302020302020302020302020302020302020302020302020302020302020300A2020202D312E303731372020202D302E3832353020202020302E30303030204E202020302020302020302020302020302020302020302020302020302020302020302020300A2020202D302E333537322020202D302E3431323520202020302E303030302043202020302020302020302020302020302020302020302020302020302020302020302020300A2020202D302E3335373220202020302E3431323520202020302E303030302043202020302020302020302020302020302020302020302020302020302020302020302020300A20202020302E333537322020202D312E3635303020202020302E30303030204F202020302020302020302020302020302020302020302020302020302020302020302020300A2020202D312E373836312020202D302E3431323520202020302E303030302043202020302020302020302020302020302020302020302020302020302020302020302020300A2020202D332E323135302020202D302E3431323520202020302E30303030204E202020302020302020302020302020302020302020302020302020302020302020302020300A2020202D322E353030352020202D302E3832353020202020302E303030302043202020302020302020302020302020302020302020302020302020302020302020302020300A2020202D312E3738363120202020302E3431323520202020302E30303030204F202020302020302020302020302020302020302020302020302020302020302020302020300A2020202D332E393239352020202D302E3832353020202020302E303030302043202020302020302020302020302020302020302020302020302020302020302020302020300A2020202D332E393239352020202D312E3635303020202020302E30303030204F202020302020302020302020302020302020302020302020302020302020302020302020300A2020202D342E363434302020202D302E3431323520202020302E303030302043202020302020302020302020302020302020302020302020302020302020302020302020300A20202020342E3634343020202020312E3635303020202020302E303030302043202020302020302020302020302020302020302020302020302020302020302020302020300A20202020312E3738363120202020302E3030303020202020302E303030302048202020302020302020302020302020302020302020302020302020302020302020302020300A20202020302E343336382020202D302E3138383620202020302E303030302048202020302020302020302020302020302020302020302020302020302020302020302020300A2020322020332020312020302020202020200A2020312020332020312020302020202020200A2020312020342020322020302020202020200A2020312020352020312020302020202020200A2020372020382020312020302020202020200A2020362020382020312020302020202020200A2020382020392020312020312020202020200A2020362031302020322020302020202020200A2031332031322020312020312020202020200A2031312031332020312020302020202020200A2031332031342020312020302020202020200A2031312031352020322020302020202020200A2031372031382020312020302020202020200A2031362031382020312020302020202020200A2031362031392020322020302020202020200A2031322031362020312020302020202020200A2020372031312020312020302020202020200A2020322020362020312020302020202020200A2032302032312020322020302020202020200A2032302032322020312020302020202020200A2031372032302020312020302020202020200A2020352032332020312020302020202020200A2020382032342020312020312020202020200A2031332032352020312020312020202020200A4D2020454E44
Contributor: YAMAMOTO M, DEP. CHEMISTRY, FAC. SCIENCE, NARA WOMEN'S UNIV.
InstType: EI
InstName: HITACHI RMU-6M
IoniMethod: _ENERGY 70 eV
IonPolarity: pos
Date: 2010-10-09 19:48:36+02:00
Num Peaks: 72
14 24 15 118 26 56 27 62 28 183 29 44 30 661 31 37 38 10 39 19 
41 63 42 115 43 304 44 999 45 97 54 19 55 116 56 88 58 26 59 21 
60 23 67 11 69 25 70 80 71 54 72 211 73 86 74 13 81 11 83 18 
84 17 85 70 86 20 87 11 88 34 89 11 90 96 91 12 97 13 98 14 
99 80 100 218 101 30 111 10 113 28 114 14 115 16 116 18 117 13 120 11 
127 57 128 13 129 15 141 46 142 20 143 148 144 161 145 74 149 13 155 15 
169 16 171 490 172 52 187 13 214 578 215 115 216 20 242 57 258 14 299 22 
330 37 331 11 
