Name: MassBank: JP007259
MW: 412
Formula: C15H30Br2OSi
Synonym: MassBank: JP007259
Synonym: (3S,4R,5S)-4-(TERT-BUTYLDIMETHYLSILYLOXY)-1,1-DIBROMO-3,5-DIMETHYL-1-HEPTENE
Structure: 2833532C34522C3553292D342D28544552542D425554594C44494D455448594C53494C594C4F5859292D312C312D444942524F4D4F2D332C352D44494D455448594C2D312D48455054454E452E6D6F6C0A20204368656D447261773130323130393130333432440A2032322032312020302020302020302020302020302020302020302020303939392056323030300A2020202D322E383537392020202D302E3335373220202020302E303030302043202020302020302020302020302020302020302020302020302020302020302020302020300A2020202D322E3134333420202020302E3035353320202020302E303030302043202020302020302020302020302020302020302020302020302020302020302020302020300A2020202D312E343238392020202D302E3335373220202020302E303030302053692020302020302020302020302020302020302020302020302020302020302020302020300A2020202D302E3731343520202020302E3035353320202020302E30303030204F202020302020302020302020302020302020302020302020302020302020302020302020300A2020202D302E303030302020202D302E3335373220202020302E303030302043202020302020302020302020302020302020302020302020302020302020302020302020300A20202020302E3731343520202020302E3035353320202020302E303030302043202020302020302020302020302020302020302020302020302020302020302020302020300A20202020312E343238392020202D302E3335373220202020302E303030302043202020302020302020302020302020302020302020302020302020302020302020302020300A20202020322E3134333420202020302E3035353320202020302E303030302043202020302020302020302020302020302020302020302020302020302020302020302020300A20202020322E383537392020202D302E3335373220202020302E303030302042722020302020302020302020302020302020302020302020302020302020302020302020300A2020202D322E3134333420202020302E3838303320202020302E303030302043202020302020302020302020302020302020302020302020302020302020302020302020300A2020202D322E313433342020202D302E3736393720202020302E303030302043202020302020302020302020302020302020302020302020302020302020302020302020300A2020202D302E303030302020202D312E3138323220202020302E303030302048202020302020302020302020302020302020302020302020302020302020302020302020300A2020202D302E3030303020202020302E3436373820202020302E303030302043202020302020302020302020302020302020302020302020302020302020302020302020300A20202020302E3932383020202020302E3835323220202020302E303030302048202020302020302020302020302020302020302020302020302020302020302020302020300A20202020302E373134352020202D302E3736393720202020302E303030302043202020302020302020302020302020302020302020302020302020302020302020302020300A20202020322E3134333420202020302E3838303320202020302E303030302042722020302020302020302020302020302020302020302020302020302020302020302020300A2020202D302E3832353020202020302E3436373820202020302E303030302048202020302020302020302020302020302020302020302020302020302020302020302020300A20202020302E3538333420202020312E3035313120202020302E303030302043202020302020302020302020302020302020302020302020302020302020302020302020300A2020202D302E3431323520202020312E3138323220202020302E303030302043202020302020302020302020302020302020302020302020302020302020302020302020300A2020202D312E3233373520202020312E3138323220202020302E303030302043202020302020302020302020302020302020302020302020302020302020302020302020300A2020202D312E3632323620202020302E3436373820202020302E303030302043202020302020302020302020302020302020302020302020302020302020302020302020300A2020202D312E363232362020202D312E3138323220202020302E303030302043202020302020302020302020302020302020302020302020302020302020302020302020300A2020312020322020312020302020202020200A2020322020332020312020302020202020200A2020332020342020312020302020202020200A2020342020352020312020302020202020200A2020352020362020312020302020202020200A2020362020372020312020302020202020200A2020372020382020322020302020202020200A2020382020392020312020302020202020200A2020322031302020312020312020202020200A2020322031312020312020312020202020200A2020352031322020312020312020202020200A2020352031332020312020312020202020200A2020362031342020312020312020202020200A2020362031352020312020312020202020200A2020382031362020312020302020202020200A2031332031372020312020312020202020200A2031332031382020312020312020202020200A2031332031392020312020302020202020200A2031392032302020312020302020202020200A2020332032312020312020302020202020200A2020332032322020312020302020202020200A4D202053545920203120202031205355500A4D2020534C4220203120202031202020310A4D202053414C20202031202031202032310A4D202053424C20202031202031202032300A4D2020534D5420202031204D650A4D2020534256202020312032302020202D372E3931393120202020362E383230330A4D202053545920203120202032205355500A4D2020534C4220203120202032202020320A4D202053414C20202032202031202032320A4D202053424C20202032202031202032310A4D2020534D5420202032204D650A4D2020534256202020322032312020202D372E3931393120202020352E313730330A4D2020454E44
Contributor: ITO S, DEPT. OF CHEM., TOHOKU UNIV.
InstType: EI
InstName: HITACHI M-52
IoniMethod: _ENERGY 25 eV
IonPolarity: pos
Date: 2010-10-09 19:48:36+02:00
Num Peaks: 43
41 27 43 39 53 80 55 2 57 37 58 18 69 66 73 50 74 41 75 111 
83 21 87 3 89 31 109 25 115 168 116 2 137 37 139 39 143 18 145 15 
146 21 161 21 163 18 189 11 191 78 201 999 202 176 203 10 205 58 223 80 
225 80 269 28 270 35 271 568 272 62 273 29 274 39 355 74 356 12 357 14 
358 25 359 76 360 14 
