Name: OXYPHENBUTAZONE 4-HYDROXYPHENYLBUTAZONE
MW: 324
Formula: C19H20N2O3
Synonym: MassBank: JP003101
Synonym: OXYPHENBUTAZONE 4-HYDROXYPHENYLBUTAZONE
Structure: 303134375F4F58595048454E425554415A4F4E4520342D485944524F58595048454E594C425554415A4F4E452E6D6F6C0A20204368656D447261773130313931303137323432440A2032342032362020302020302020302020302020302020302020302020303939392056323030300A20202020302E3436323420202020322E3838303720202020302E303030302043202020302020302020302020302020302020302020302020302020302020302020302020300A20202020302E3436323420202020322E3035353720202020302E303030302043202020302020302020302020302020302020302020302020302020302020302020302020300A20202020312E3137363920202020312E3634333220202020302E303030302043202020302020302020302020302020302020302020302020302020302020302020302020300A20202020312E3839313320202020322E3035353720202020302E303030302043202020302020302020302020302020302020302020302020302020302020302020302020300A20202020312E3839313320202020322E3838303720202020302E303030302043202020302020302020302020302020302020302020302020302020302020302020302020300A20202020312E3137363920202020332E3239333220202020302E303030302043202020302020302020302020302020302020302020302020302020302020302020302020300A20202020312E3137363920202020302E3831383220202020302E30303030204E202020302020302020302020302020302020302020302020302020302020302020302020300A20202020302E3530383820202020302E3333313820202020302E30303030204E202020302020302020302020302020302020302020302020302020302020302020302020300A20202020302E373632342020202D302E3435303720202020302E303030302043202020302020302020302020302020302020302020302020302020302020302020302020300A20202020312E353837342020202D302E3435303720202020302E303030302043202020302020302020302020302020302020302020302020302020302020302020302020300A20202020312E3834333520202020302E3333343320202020302E303030302043202020302020302020302020302020302020302020302020302020302020302020302020300A20202020322E3632393820202020302E3538363920202020302E30303030204F202020302020302020302020302020302020302020302020302020302020302020302020300A20202020312E383834332020202D332E3239333220202020302E303030302043202020302020302020302020302020302020302020302020302020302020302020302020300A20202020322E323230332020202D322E3533393720202020302E303030302043202020302020302020302020302020302020302020302020302020302020302020302020300A20202020312E373335382020202D312E3837313920202020302E303030302043202020302020302020302020302020302020302020302020302020302020302020302020300A20202020322E303731392020202D312E3131383520202020302E303030302043202020302020302020302020302020302020302020302020302020302020302020302020300A20202020302E323737392020202D312E3131373920202020302E30303030204F202020302020302020302020302020302020302020302020302020302020302020302020300A2020202D302E3237353920202020302E3538363720202020302E303030302043202020302020302020302020302020302020302020302020302020302020302020302020300A2020202D302E3434373520202020312E3339333620202020302E303030302043202020302020302020302020302020302020302020302020302020302020302020302020300A2020202D312E3233323120202020312E3634383520202020302E303030302043202020302020302020302020302020302020302020302020302020302020302020302020300A2020202D312E3834353220202020312E3039363420202020302E303030302043202020302020302020302020302020302020302020302020302020302020302020302020300A2020202D312E3637333620202020302E3238393420202020302E303030302043202020302020302020302020302020302020302020302020302020302020302020302020300A2020202D302E3838383920202020302E3033343620202020302E303030302043202020302020302020302020302020302020302020302020302020302020302020302020300A2020202D322E3632393820202020312E3335313320202020302E30303030204F202020302020302020302020302020302020302020302020302020302020302020302020300A2020312020322020322020302020202020200A2020322020332020312020302020202020200A2020332020342020322020302020202020200A2020342020352020312020302020202020200A2020352020362020322020302020202020200A2020362020312020312020302020202020200A2020332020372020312020302020202020200A2020372020382020312020302020202020200A2020382020392020312020302020202020200A2020392031302020312020302020202020200A2031302031312020312020302020202020200A2031312020372020312020302020202020200A2020382031382020312020302020202020200A2031302031362020312020302020202020200A2031312031322020322020302020202020200A2031332031342020312020302020202020200A2031342031352020312020302020202020200A2031352031362020312020302020202020200A2020392031372020322020302020202020200A2031382031392020322020302020202020200A2031392032302020312020302020202020200A2032302032312020322020302020202020200A2032312032322020312020302020202020200A2032322032332020322020302020202020200A2031382032332020312020302020202020200A2032312032342020312020302020202020200A4D2020454E44
Contributor: SASAKI S, TOYOHASHI UNIV. OF TECH.
InstType: EI
InstName: Unknown
IoniMethod: EI
IonPolarity: pos
Date: 2010-10-09 19:48:36+02:00
Num Peaks: 34
32 111 39 137 41 169 43 4 51 57 52 51 53 11 55 24 64 111 65 170 
66 21 77 31 79 1 80 9 91 151 92 5 93 999 94 98 108 67 109 79 
119 277 120 91 121 68 135 15 148 184 149 109 162 250 163 0 164 13 199 343 
200 41 206 14 324 213 326 82 
