Name: OCTADECYL HEXADECANOATE
MW: 508
Formula: C34H68O2
Synonym: MassBank: JP001862
Synonym: OCTADECYL HEXADECANOATE
Synonym: STEARYL PALMITATE
Structure: 4F435441444543594C2048455841444543414E4F4154452E6D6F6C0A20204368656D447261773038313231303033313832440A2033362033352020302020302020302020302020302020302020302020303939392056323030300A20202020312E303331332020202D322E3530303620202020302E303030302043202020302020302020302020302020302020302020302020302020302020302020302020300A20202020312E383536332020202D322E3530303620202020302E303030302043202020302020302020302020302020302020302020302020302020302020302020302020300A20202020322E323638382020202D312E3738363220202020302E303030302043202020302020302020302020302020302020302020302020302020302020302020302020300A20202020332E303933382020202D312E3738363220202020302E303030302043202020302020302020302020302020302020302020302020302020302020302020302020300A20202020332E353036332020202D312E3037313720202020302E303030302043202020302020302020302020302020302020302020302020302020302020302020302020300A20202020342E333331322020202D312E3037313720202020302E303030302043202020302020302020302020302020302020302020302020302020302020302020302020300A20202020342E373433382020202D302E3335373220202020302E303030302043202020302020302020302020302020302020302020302020302020302020302020302020300A20202020352E353638372020202D302E3335373220202020302E303030302043202020302020302020302020302020302020302020302020302020302020302020302020300A20202020352E3938313320202020302E3335373220202020302E303030302043202020302020302020302020302020302020302020302020302020302020302020302020300A20202020362E3830363320202020302E3335373220202020302E303030302043202020302020302020302020302020302020302020302020302020302020302020302020300A20202020372E3231383820202020312E3037313720202020302E303030302043202020302020302020302020302020302020302020302020302020302020302020302020300A20202020382E3034333720202020312E3037313720202020302E303030302043202020302020302020302020302020302020302020302020302020302020302020302020300A20202020382E3435363220202020312E3738363220202020302E303030302043202020302020302020302020302020302020302020302020302020302020302020302020300A20202020392E3238313220202020312E3738363220202020302E303030302043202020302020302020302020302020302020302020302020302020302020302020302020300A20202020392E3639333720202020322E3530303720202020302E303030302043202020302020302020302020302020302020302020302020302020302020302020302020300A20202031302E3531383720202020322E3530303720202020302E303030302043202020302020302020302020302020302020302020302020302020302020302020302020300A20202020302E363138382020202D312E3738363220202020302E30303030204F202020302020302020302020302020302020302020302020302020302020302020302020300A20202020302E363138382020202D332E3231353120202020302E30303030204F202020302020302020302020302020302020302020302020302020302020302020302020300A2020202D302E323036322020202D332E3231353120202020302E303030302043202020302020302020302020302020302020302020302020302020302020302020302020300A2020202D302E363138382020202D322E3530303620202020302E303030302043202020302020302020302020302020302020302020302020302020302020302020302020300A2020202D312E343433382020202D322E3530303620202020302E303030302043202020302020302020302020302020302020302020302020302020302020302020302020300A2020202D312E383536332020202D312E3738363220202020302E303030302043202020302020302020302020302020302020302020302020302020302020302020302020300A2020202D322E363831322020202D312E3738363220202020302E303030302043202020302020302020302020302020302020302020302020302020302020302020302020300A2020202D332E303933382020202D312E3037313720202020302E303030302043202020302020302020302020302020302020302020302020302020302020302020302020300A2020202D332E393138382020202D312E3037313720202020302E303030302043202020302020302020302020302020302020302020302020302020302020302020302020300A2020202D342E333331322020202D302E3335373220202020302E303030302043202020302020302020302020302020302020302020302020302020302020302020302020300A2020202D352E313536332020202D302E3335373220202020302E303030302043202020302020302020302020302020302020302020302020302020302020302020302020300A2020202D352E3536383720202020302E3335373220202020302E303030302043202020302020302020302020302020302020302020302020302020302020302020302020300A2020202D362E3339333720202020302E3335373220202020302E303030302043202020302020302020302020302020302020302020302020302020302020302020302020300A2020202D362E3830363320202020312E3037313720202020302E303030302043202020302020302020302020302020302020302020302020302020302020302020302020300A2020202D372E3633313220202020312E3037313720202020302E303030302043202020302020302020302020302020302020302020302020302020302020302020302020300A2020202D382E3034333720202020312E3738363220202020302E303030302043202020302020302020302020302020302020302020302020302020302020302020302020300A2020202D382E3836383720202020312E3738363220202020302E303030302043202020302020302020302020302020302020302020302020302020302020302020302020300A2020202D392E3238313220202020322E3530303620202020302E303030302043202020302020302020302020302020302020302020302020302020302020302020302020300A20202D31302E3130363220202020322E3530303620202020302E303030302043202020302020302020302020302020302020302020302020302020302020302020302020300A20202D31302E3531383720202020332E3231353120202020302E303030302043202020302020302020302020302020302020302020302020302020302020302020302020300A2020312020322020312020302020202020200A2020322020332020312020302020202020200A2020332020342020312020302020202020200A2020342020352020312020302020202020200A2020352020362020312020302020202020200A2020362020372020312020302020202020200A2020372020382020312020302020202020200A2020382020392020312020302020202020200A2020392031302020312020302020202020200A2031302031312020312020302020202020200A2031312031322020312020302020202020200A2031322031332020312020302020202020200A2031332031342020312020302020202020200A2031342031352020312020302020202020200A2031352031362020312020302020202020200A2020312031372020322020302020202020200A2020312031382020312020302020202020200A2031392032302020312020302020202020200A2032302032312020312020302020202020200A2032312032322020312020302020202020200A2032322032332020312020302020202020200A2032332032342020312020302020202020200A2032342032352020312020302020202020200A2032352032362020312020302020202020200A2032362032372020312020302020202020200A2032372032382020312020302020202020200A2032382032392020312020302020202020200A2032392033302020312020302020202020200A2033302033312020312020302020202020200A2033312033322020312020302020202020200A2033322033332020312020302020202020200A2033332033342020312020302020202020200A2033342033352020312020302020202020200A2033352033362020312020302020202020200A2031382031392020312020302020202020200A4D2020454E44
Contributor: SEYAMA Y, DEPT. OF PHYSIOL. CHEMISTRY AND NUTRITION, FAC. OF MEDICINE, UNIV. OF TOKYO
InstType: EI
InstName: SHIMADZU QP-1000
IoniMethod: _ENERGY 70 eV
IonPolarity: pos
Date: 2010-10-09 19:48:36+02:00
Num Peaks: 62
41 404 42 125 43 999 44 47 53 15 54 61 55 484 56 191 57 824 58 41 
60 88 61 135 67 72 68 89 69 343 70 143 71 351 72 20 73 118 74 14 
81 55 82 123 83 282 84 101 85 182 86 14 87 28 95 36 96 64 97 242 
98 77 99 36 101 21 109 16 110 24 111 107 112 33 113 19 115 21 116 17 
124 14 125 55 126 17 127 10 129 37 139 23 140 12 153 13 157 11 171 10 
185 10 213 16 224 15 239 32 252 59 253 15 256 63 257 354 258 65 297 21 
508 35 509 13 
