Name: MassBank: JP009935
MW: 278
Formula: C16H22O4
Synonym: MassBank: JP009935
Synonym: 5-ACETOXY-1-(2,6-DIMETOXYPHENYL)-3-METHYL-2-PENTENE
Structure: 352D414345544F58592D312D28322C362D44494D45544F58595048454E594C292D332D4D455448594C2D322D50454E54454E452E6D6F6C0A20204368656D447261773034323331303033343032440A2032302032302020302020302020302020302020302020302020302020303939392056323030300A2020202D312E373836322020202D302E3832353020202020302E303030302043202020302020302020302020302020302020302020302020302020302020302020302020300A2020202D312E373836322020202D312E3635303020202020302E303030302043202020302020302020302020302020302020302020302020302020302020302020302020300A2020202D312E303731372020202D322E3036323520202020302E303030302043202020302020302020302020302020302020302020302020302020302020302020302020300A2020202D302E333537322020202D312E3635303020202020302E303030302043202020302020302020302020302020302020302020302020302020302020302020302020300A2020202D302E333537322020202D302E3832353020202020302E303030302043202020302020302020302020302020302020302020302020302020302020302020302020300A2020202D312E303731372020202D302E3431323520202020302E303030302043202020302020302020302020302020302020302020302020302020302020302020302020300A2020202D322E353030362020202D302E3431323520202020302E30303030204F202020302020302020302020302020302020302020302020302020302020302020302020300A20202020302E333537322020202D302E3431323520202020302E30303030204F202020302020302020302020302020302020302020302020302020302020302020302020300A2020202D312E3037313720202020302E3431323520202020302E303030302043202020302020302020302020302020302020302020302020302020302020302020302020300A2020202D302E3335373220202020302E3832353020202020302E303030302043202020302020302020302020302020302020302020302020302020302020302020302020300A2020202D302E3335373220202020312E3635303020202020302E303030302043202020302020302020302020302020302020302020302020302020302020302020302020300A20202020302E3335373220202020322E3036323520202020302E303030302043202020302020302020302020302020302020302020302020302020302020302020302020300A2020202D312E3037313720202020322E3036323520202020302E303030302043202020302020302020302020302020302020302020302020302020302020302020302020300A20202020312E3037313720202020312E3635303020202020302E303030302043202020302020302020302020302020302020302020302020302020302020302020302020300A20202020312E3738363220202020322E3036323520202020302E30303030204F202020302020302020302020302020302020302020302020302020302020302020302020300A20202020322E3530303620202020312E3635303020202020302E303030302043202020302020302020302020302020302020302020302020302020302020302020302020300A20202020332E3231353120202020322E3036323520202020302E30303030204F202020302020302020302020302020302020302020302020302020302020302020302020300A20202020322E3530303620202020302E3832353020202020302E303030302043202020302020302020302020302020302020302020302020302020302020302020302020300A2020202D332E323135312020202D302E3832353020202020302E303030302043202020302020302020302020302020302020302020302020302020302020302020302020300A20202020312E303731372020202D302E3832353020202020302E303030302043202020302020302020302020302020302020302020302020302020302020302020302020300A2020312020322020322020302020202020200A2020322020332020312020302020202020200A2020332020342020322020302020202020200A2020342020352020312020302020202020200A2020352020362020322020302020202020200A2020362020312020312020302020202020200A2020312020372020312020302020202020200A2020352020382020312020302020202020200A2020362020392020312020302020202020200A2020392031302020312020302020202020200A2031302031312020322020302020202020200A2031312031322020312020302020202020200A2031312031332020312020302020202020200A2031322031342020312020302020202020200A2031342031352020312020302020202020200A2031352031362020312020302020202020200A2031362031372020322020302020202020200A2031362031382020312020302020202020200A2020372031392020312020302020202020200A2020382032302020312020302020202020200A4D2020454E44
Contributor: KURARAY CO., LTD.
InstType: EI
InstName: JEOL JMS-D-300
IoniMethod: _ENERGY 70 eV
IonPolarity: pos
Date: 2010-10-09 19:48:36+02:00
Num Peaks: 122
27 33 29 13 39 42 41 6 42 5 43 513 51 31 52 1 53 39 55 78 
56 3 57 2 59 2 63 9 65 44 66 1 67 47 68 2 69 23 75 0 
76 13 77 109 78 38 79 8 80 16 81 34 82 2 87 3 88 8 89 28 
90 13 91 25 92 36 93 39 94 17 95 2 96 3 97 8 101 16 102 2 
103 56 104 16 105 80 106 2 107 60 108 19 109 20 115 1 116 36 117 34 
118 20 119 2 120 14 121 295 122 34 123 3 124 16 125 14 127 45 128 8 
129 41 130 14 131 77 132 2 133 41 134 80 135 95 136 2 137 161 138 125 
139 33 140 0 141 20 142 9 143 17 144 3 145 61 146 39 147 72 148 4 
149 484 150 55 151 344 152 6 153 11 155 14 156 3 157 1 158 33 159 69 
160 133 161 30 162 123 163 164 164 25 165 5 171 28 172 117 173 47 174 3 
175 123 176 108 177 72 178 1 186 19 187 652 188 148 189 10 190 31 191 533 
192 150 193 3 203 999 204 164 205 30 217 4 218 511 219 161 220 5 260 2 
278 63 279 8 
