Name: TRANS-2-HEXENAL DIMETHYL ACETAL
MW: 144
Formula: C8H16O2
Synonym: MassBank: JP008453
Synonym: TRANS-2-HEXENAL DIMETHYL ACETAL
Structure: 5452414E532D322D484558454E414C2044494D455448594C2041434554414C2E6D6F6C0A20204368656D447261773038313231303037343932440A2031302020392020302020302020302020302020302020302020302020303939392056323030300A2020202D312E3432383920202020302E3030303020202020302E303030302043202020302020302020302020302020302020302020302020302020302020302020302020300A2020202D302E373134352020202D302E3431323520202020302E303030302043202020302020302020302020302020302020302020302020302020302020302020302020300A20202020302E3030303020202020302E3030303020202020302E303030302043202020302020302020302020302020302020302020302020302020302020302020302020300A20202020302E373134352020202D302E3431323520202020302E303030302043202020302020302020302020302020302020302020302020302020302020302020302020300A20202020312E3432383920202020302E3030303020202020302E303030302043202020302020302020302020302020302020302020302020302020302020302020302020300A20202020322E313433342020202D302E3431323520202020302E303030302043202020302020302020302020302020302020302020302020302020302020302020302020300A2020202D322E313433342020202D302E3431323520202020302E30303030204F202020302020302020302020302020302020302020302020302020302020302020302020300A2020202D312E3432383920202020302E3832353020202020302E30303030204F202020302020302020302020302020302020302020302020302020302020302020302020300A2020202D322E313433342020202D312E3233373520202020302E303030302043202020302020302020302020302020302020302020302020302020302020302020302020300A2020202D322E3134333420202020312E3233373520202020302E303030302043202020302020302020302020302020302020302020302020302020302020302020302020300A2020312020322020312020302020202020200A2020322020332020322020302020202020200A2020332020342020312020302020202020200A2020342020352020312020302020202020200A2020352020362020312020302020202020200A2020372020392020312020302020202020200A2020382031302020312020302020202020200A2020312020372020312020302020202020200A2020312020382020312020302020202020200A4D2020454E44
Contributor: SODA AROMATIC CO., LTD.
InstType: EI
InstName: HITACHI M-80B
IoniMethod: _ENERGY 70 eV
IonPolarity: pos
Date: 2010-10-09 19:48:36+02:00
Num Peaks: 42
15 16 27 57 29 75 31 22 39 113 40 12 41 252 42 22 43 21 45 81 
47 36 51 14 53 42 54 15 55 114 56 18 57 12 58 13 59 36 67 22 
68 12 69 110 71 999 72 46 75 346 76 10 77 10 79 23 81 71 82 11 
84 43 85 19 88 28 97 25 101 394 102 33 112 13 113 714 114 55 115 174 
116 10 143 20 
