Name: MassBank: JP005545
MW: 190
Formula: C11H10OS
Synonym: MassBank: JP005545
Synonym: 2,3-DIMETHYLBENZOTHIOPYRAN-4-ONE
Synonym: 2,3-DIMETHYLTHIOCHROMONE
Structure: 322C332D44494D455448594C42454E5A4F5448494F505952414E2D342D4F4E452E6D6F6C0A20204368656D447261773132323030393131353332440A2031332031342020302020302020302020302020302020302020302020303939392056323030300A20202020302E3030303020202020312E3033313320202020302E303030302043202020302020302020302020302020302020302020302020302020302020302020302020300A20202020302E3731343520202020302E3631383720202020302E303030302043202020302020302020302020302020302020302020302020302020302020302020302020300A20202020302E373134352020202D302E3230363320202020302E303030302043202020302020302020302020302020302020302020302020302020302020302020302020300A2020202D302E303030302020202D302E3631383820202020302E303030302043202020302020302020302020302020302020302020302020302020302020302020302020300A2020202D302E373134352020202D302E3230363320202020302E303030302043202020302020302020302020302020302020302020302020302020302020302020302020300A2020202D302E3731343520202020302E3631383820202020302E303030302053202020302020302020302020302020302020302020302020302020302020302020302020300A20202020302E303030302020202D312E3434333720202020302E303030302043202020302020302020302020302020302020302020302020302020302020302020302020300A2020202D302E373134352020202D312E3835363320202020302E303030302043202020302020302020302020302020302020302020302020302020302020302020302020300A2020202D312E343238392020202D312E3434333720202020302E303030302043202020302020302020302020302020302020302020302020302020302020302020302020300A2020202D312E343238392020202D302E3631383720202020302E303030302043202020302020302020302020302020302020302020302020302020302020302020302020300A20202020312E343238392020202D302E3631383820202020302E30303030204F202020302020302020302020302020302020302020302020302020302020302020302020300A20202020312E3432383920202020312E3033313220202020302E303030302043202020302020302020302020302020302020302020302020302020302020302020302020300A20202020302E3030303020202020312E3835363320202020302E303030302043202020302020302020302020302020302020302020302020302020302020302020302020300A2020312020322020322020302020202020200A2020322020332020312020302020202020200A2020332020342020312020302020202020200A2020342020352020312020302020202020200A2020352020362020312020302020202020200A2020312020362020312020302020202020200A2020372020382020312020302020202020200A2020382020392020322020302020202020200A2020392031302020312020302020202020200A2020352031302020322020302020202020200A2020342020372020322020302020202020200A2020332031312020322020302020202020200A2020322031322020312020302020202020200A2020312031332020312020302020202020200A4D2020454E44
Contributor: MASS SPECTROSCOPY SOC. OF JAPAN (MSSJ)
InstType: EI
InstName: HITACHI RMU-6L
IoniMethod: _ENERGY 70 eV
IonPolarity: pos
Date: 2010-10-09 19:48:36+02:00
Num Peaks: 37
27 127 29 56 39 147 45 113 50 102 51 126 53 100 58 61 59 56 63 113 
65 68 69 268 71 50 74 45 75 47 76 69 77 86 81 50 82 108 108 310 
109 110 115 63 128 122 129 98 136 390 137 120 138 33 147 320 148 42 149 35 
157 350 158 50 161 170 162 103 190 999 191 140 192 64 
