Name: CIS-NEROLIDYL ACETATE
MW: 264
Formula: C17H28O2
Synonym: MassBank: JP006485
Synonym: CIS-NEROLIDYL ACETATE
Synonym: 1,5,9-TRIMETHYL-1-VINYL-(4Z)-4,8-DECADIENYL ACETATE
Structure: 4349532D4E45524F4C4944594C20414345544154452E6D6F6C0A20204368656D447261773131313630393132323032440A2032302031392020302020302020302020302020302020302020302020303939392056323030300A20202020322E313433342020202D302E3731343520202020302E303030302043202020302020302020302020302020302020302020302020302020302020302020302020300A20202020322E393638342020202D302E3731343520202020302E303030302043202020302020302020302020302020302020302020302020302020302020302020302020300A20202020312E373330392020202D312E3432383920202020302E30303030204F202020302020302020302020302020302020302020302020302020302020302020302020300A20202020312E3733303920202020302E3030303020202020302E30303030204F202020302020302020302020302020302020302020302020302020302020302020302020300A20202020322E3134333420202020302E3731343520202020302E303030302043202020302020302020302020302020302020302020302020302020302020302020302020300A20202020322E3835373920202020302E3330323020202020302E303030302043202020302020302020302020302020302020302020302020302020302020302020302020300A20202020322E3535353920202020312E3432383920202020302E303030302043202020302020302020302020302020302020302020302020302020302020302020302020300A20202020312E3432383920202020312E3132373020202020302E303030302043202020302020302020302020302020302020302020302020302020302020302020302020300A20202020302E3731343520202020302E3731343520202020302E303030302043202020302020302020302020302020302020302020302020302020302020302020302020300A20202020302E373134352020202D302E3131303520202020302E303030302043202020302020302020302020302020302020302020302020302020302020302020302020300A2020202D302E303030302020202D302E3532333020202020302E303030302043202020302020302020302020302020302020302020302020302020302020302020302020300A2020202D302E303030302020202D312E3334383020202020302E303030302043202020302020302020302020302020302020302020302020302020302020302020302020300A2020202D302E373134352020202D302E3131303520202020302E303030302043202020302020302020302020302020302020302020302020302020302020302020302020300A2020202D312E343238392020202D302E3532333020202020302E303030302043202020302020302020302020302020302020302020302020302020302020302020302020300A2020202D322E313433342020202D302E3131303520202020302E303030302043202020302020302020302020302020302020302020302020302020302020302020302020300A2020202D322E383537392020202D302E3532333020202020302E303030302043202020302020302020302020302020302020302020302020302020302020302020302020300A2020202D332E353732342020202D302E3131303520202020302E303030302043202020302020302020302020302020302020302020302020302020302020302020302020300A2020202D322E383537392020202D312E3334383020202020302E303030302043202020302020302020302020302020302020302020302020302020302020302020302020300A20202020312E343238392020202D302E3532333020202020302E303030302048202020302020302020302020302020302020302020302020302020302020302020302020300A20202020332E3537323420202020302E3731343520202020302E303030302043202020302020302020302020302020302020302020302020302020302020302020302020300A2020312020322020312020302020202020200A2020312020332020322020302020202020200A2020312020342020312020302020202020200A2020352020362020312020302020202020200A2020352020372020312020312020202020200A2020352020382020312020302020202020200A2020382020392020312020302020202020200A2020392031302020312020302020202020200A2031302031312020322020302020202020200A2031312031322020312020302020202020200A2031312031332020312020302020202020200A2031332031342020312020302020202020200A2031342031352020312020302020202020200A2031352031362020322020302020202020200A2031362031372020312020302020202020200A2031362031382020312020302020202020200A2020352020342020312020312020202020200A2031302031392020312020302020202020200A2020362032302020322020302020202020200A4D2020454E44
Contributor: HISAHIRO HAGIWARA, CHEMICAL RESEARCH INSTITUTE OF NON-AQUEOUSSOLUTIONS TOHOKU UNIV.
InstType: EI
InstName: HITACHI M-80B
IoniMethod: _ENERGY 70 eV
IonPolarity: pos
Date: 2010-10-09 19:48:36+02:00
Num Peaks: 67
15 13 19 13 27 72 29 73 39 87 41 652 42 48 43 756 44 11 52 18 
53 113 55 257 56 31 57 20 65 39 66 28 67 217 68 208 69 999 70 63 
71 146 77 85 78 24 79 190 80 261 81 229 82 53 83 19 84 18 91 106 
92 79 93 803 94 102 95 77 96 14 97 32 105 109 106 38 107 342 108 68 
109 65 110 13 111 24 113 17 117 12 119 136 120 48 121 154 122 48 123 83 
124 32 133 92 134 77 135 128 136 137 137 26 147 49 148 46 149 31 153 18 
161 105 162 31 189 57 190 13 195 43 204 73 205 17 
