Name: ETHYLENE GLYCOL
MW: 62
Formula: C2H6O2
Synonym: MassBank: JP006158
Synonym: ETHYLENE GLYCOL
Structure: 310A31320A455448594C454E4520474C59434F4C2E6D6F6C0A20204368656D447261773038313131303139303732440A2020342020332020302020302020302020302020302020302020302020303939392056323030300A2020202D302E333537322020202D302E3230363320202020302E303030302043202020302020302020302020302020302020302020302020302020302020302020302020300A20202020302E3335373220202020302E3230363320202020302E303030302043202020302020302020302020302020302020302020302020302020302020302020302020300A2020202D312E3037313720202020302E3230363320202020302E30303030204F202020302020302020302020302020302020302020302020302020302020302020302020300A20202020312E303731372020202D302E3230363220202020302E30303030204F202020302020302020302020302020302020302020302020302020302020302020302020300A2020312020322020312020302020202020200A2020312020332020312020302020202020200A2020322020342020312020302020202020200A4D2020454E44
Contributor: HASHIMOTO K, KYOTO COLLEGE OF PHARMACY
InstType: EI
InstName: HITACHI M-80
IoniMethod: _ENERGY 20 eV
IonPolarity: pos
Date: 2010-10-09 19:48:36+02:00
Num Peaks: 10
18 17 27 36 29 58 31 999 32 96 33 361 43 49 44 13 45 10 62 17 
