Name: 3-ACETYL-9-ISOPROPYLCARBAZOLE
MW: 251
Formula: C17H17NO
Synonym: MassBank: JP005060
Synonym: 3-ACETYL-9-ISOPROPYLCARBAZOLE
Structure: 332D41434554594C2D392D49534F50524F50594C43415242415A4F4C452E6D6F6C0A20204368656D447261773032323231303133333832440A2031392032312020302020302020302020302020302020302020302020303939392056323030300A20202020302E323139392020202D312E3037323420202020302E30303030204E202020302020302020302020302020302020302020302020302020302020302020302020300A2020202D302E333332322020202D302E3435393320202020302E303030302043202020302020302020302020302020302020302020302020302020302020302020302020300A2020202D312E313537322020202D302E3435393320202020302E303030302043202020302020302020302020302020302020302020302020302020302020302020302020300A2020202D312E3536393720202020302E3235353220202020302E303030302043202020302020302020302020302020302020302020302020302020302020302020302020300A2020202D312E3135373220202020302E3936393620202020302E303030302043202020302020302020302020302020302020302020302020302020302020302020302020300A2020202D302E3333323220202020302E3936393620202020302E303030302043202020302020302020302020302020302020302020302020302020302020302020302020300A20202020302E3038303320202020302E3235353220202020302E303030302043202020302020302020302020302020302020302020302020302020302020302020302020300A20202020302E3838373320202020302E3038333620202020302E303030302043202020302020302020302020302020302020302020302020302020302020302020302020300A20202020312E3535343820202020302E3536383620202020302E303030302043202020302020302020302020302020302020302020302020302020302020302020302020300A20202020322E3330383420202020302E3233333020202020302E303030302043202020302020302020302020302020302020302020302020302020302020302020302020300A20202020322E333934372020202D302E3538373520202020302E303030302043202020302020302020302020302020302020302020302020302020302020302020302020300A20202020312E373237322020202D312E3037323420202020302E303030302043202020302020302020302020302020302020302020302020302020302020302020302020300A20202020302E393733352020202D302E3733363920202020302E303030302043202020302020302020302020302020302020302020302020302020302020302020302020300A20202020302E303438332020202D312E3837393420202020302E303030302043202020302020302020302020302020302020302020302020302020302020302020302020300A2020202D302E373336332020202D322E3133343320202020302E303030302043202020302020302020302020302020302020302020302020302020302020302020302020300A20202020302E363839352020202D322E3339383620202020302E303030302043202020302020302020302020302020302020302020302020302020302020302020302020300A2020202D312E3536393720202020312E3638343120202020302E303030302043202020302020302020302020302020302020302020302020302020302020302020302020300A2020202D322E3339343720202020312E3638343120202020302E30303030204F202020302020302020302020302020302020302020302020302020302020302020302020300A2020202D312E3135373220202020322E3339383620202020302E303030302043202020302020302020302020302020302020302020302020302020302020302020302020300A2020312020322020312020302020202020200A2020322020332020312020302020202020200A2020332020342020322020302020202020200A2020342020352020312020302020202020200A2020352020362020322020302020202020200A2020362020372020312020302020202020200A2020322020372020322020302020202020200A2020372020382020312020302020202020200A2020382020392020312020302020202020200A2020392031302020322020302020202020200A2031302031312020312020302020202020200A2031312031322020322020302020202020200A2031322031332020312020302020202020200A2020382031332020322020302020202020200A2020312031332020312020302020202020200A2031342031352020312020302020202020200A2031342031362020312020302020202020200A2020312031342020312020302020202020200A2031372031382020322020302020202020200A2031372031392020312020302020202020200A2020352031372020312020302020202020200A4D2020454E44
Contributor: SASAKI S, TOYOHASHI UNIV. OF TECH.
InstType: EI
InstName: MX-1303
IoniMethod: _ENERGY 50 eV
IonPolarity: pos
Date: 2010-10-09 19:48:36+02:00
Num Peaks: 48
41 250 42 15 43 140 44 6 45 310 55 150 56 24 57 20 60 170 61 14 
67 18 68 2 69 390 70 24 71 74 73 8 81 120 82 17 83 47 84 2 
85 36 95 22 97 31 111 1 129 20 137 18 138 16 139 12 140 22 149 15 
164 26 165 5 166 280 167 160 168 14 180 2 191 18 192 26 193 160 194 52 
195 26 208 14 223 15 236 98 237 230 250 26 251 999 252 170 
