Name: N-(PHENYLACETHYL)GLYCINE METHYL ESTER
CAS: 5259-87-0
MW: 207
Formula: C11H13NO3
Synonym: MassBank: JP004236
Synonym: N-(PHENYLACETHYL)GLYCINE METHYL ESTER
Synonym: PHENACETURIC ACID METHYL ESTER
Structure: 5048454E41434554555249432041434944204D455448594C2045535445522E6D6F6C0A20204368656D447261773038313231303035313232440A2031352031352020302020302020302020302020302020302020302020303939392056323030300A20202020322E3134333420202020302E3431323520202020302E303030302043202020302020302020302020302020302020302020302020302020302020302020302020300A20202020312E343238392020202D302E3030303020202020302E303030302043202020302020302020302020302020302020302020302020302020302020302020302020300A20202020302E3731343520202020302E3431323520202020302E30303030204E202020302020302020302020302020302020302020302020302020302020302020302020300A2020202D302E3030303020202020302E3030303020202020302E303030302043202020302020302020302020302020302020302020302020302020302020302020302020300A2020202D302E303030302020202D302E3832353020202020302E30303030204F202020302020302020302020302020302020302020302020302020302020302020302020300A2020202D302E3731343520202020302E3431323520202020302E303030302043202020302020302020302020302020302020302020302020302020302020302020302020300A2020202D312E343238392020202D302E3030303020202020302E303030302043202020302020302020302020302020302020302020302020302020302020302020302020300A2020202D312E343238392020202D302E3832353020202020302E303030302043202020302020302020302020302020302020302020302020302020302020302020302020300A2020202D322E313433342020202D312E3233373520202020302E303030302043202020302020302020302020302020302020302020302020302020302020302020302020300A2020202D322E383537392020202D302E3832353020202020302E303030302043202020302020302020302020302020302020302020302020302020302020302020302020300A2020202D322E383537392020202D302E3030303020202020302E303030302043202020302020302020302020302020302020302020302020302020302020302020302020300A2020202D322E3134333420202020302E3431323520202020302E303030302043202020302020302020302020302020302020302020302020302020302020302020302020300A20202020322E3134333420202020312E3233373520202020302E30303030204F202020302020302020302020302020302020302020302020302020302020302020302020300A20202020322E3835373920202020302E3030303020202020302E30303030204F202020302020302020302020302020302020302020302020302020302020302020302020300A20202020322E383537392020202D302E3832353020202020302E303030302043202020302020302020302020302020302020302020302020302020302020302020302020300A2020312020322020312020302020202020200A2020322020332020312020302020202020200A2020332020342020312020302020202020200A2020342020352020322020302020202020200A2020342020362020312020302020202020200A2020362020372020312020302020202020200A2020372020382020312020302020202020200A2020382020392020322020302020202020200A2020392031302020312020302020202020200A2031302031312020322020302020202020200A2031312031322020312020302020202020200A2020372031322020322020302020202020200A2020312031332020322020302020202020200A2020312031342020312020302020202020200A2031342031352020312020302020202020200A4D2020454E44
Contributor: KOGA M, UNIV. OF OCCUPATIONAL AND ENVIRONMENTAL HEALTH
InstType: EI
InstName: JEOL JMS-01-SG
IoniMethod: _ENERGY 70 eV
IonPolarity: pos
Date: 2010-10-09 19:48:36+02:00
Num Peaks: 25
39 96 42 16 44 96 50 3 51 59 56 231 63 59 64 2 65 215 77 26 
88 612 89 10 90 86 91 999 92 817 93 7 116 247 117 21 118 381 119 5 
120 16 148 59 176 43 207 33 208 37 
