Name: BICYCLO(5.3.0)DEC-7-EN-9-ONE
MW: 150
Formula: C10H14O
Synonym: MassBank: JP004753
Synonym: BICYCLO(5.3.0)DEC-7-EN-9-ONE
Structure: 42494359434C4F28352E332E30294445432D372D454E2D392D4F4E452E6D6F6C0A20204368656D447261773039303531303139303932440A2031312031322020302020302020302020302020302020302020302020303939392056323030300A20202020302E323336342020202D302E3532323420202020302E303030302043202020302020302020302020302020302020302020302020302020302020302020302020300A20202020302E393736392020202D302E3837323320202020302E303030302043202020302020302020302020302020302020302020302020302020302020302020302020300A20202020312E373139332020202D302E3531323520202020302E303030302043202020302020302020302020302020302020302020302020302020302020302020302020300A20202020312E3930303920202020302E3239323220202020302E303030302043202020302020302020302020302020302020302020302020302020302020302020302020300A20202020312E3338343920202020302E3933343920202020302E303030302043202020302020302020302020302020302020302020302020302020302020302020302020300A20202020302E3535393920202020302E3933343920202020302E303030302043202020302020302020302020302020302020302020302020302020302020302020302020300A20202020302E3034373220202020302E3238373620202020302E303030302043202020302020302020302020302020302020302020302020302020302020302020302020300A2020202D302E3737343720202020302E3335393520202020302E303030302043202020302020302020302020302020302020302020302020302020302020302020302020300A2020202D312E303937312020202D302E3339393920202020302E303030302043202020302020302020302020302020302020302020302020302020302020302020302020300A2020202D302E343738312020202D302E3933343920202020302E303030302043202020302020302020302020302020302020302020302020302020302020302020302020300A2020202D312E393030392020202D302E3538353520202020302E30303030204F202020302020302020302020302020302020302020302020302020302020302020302020300A2020312020322020312020302020202020200A2020322020332020312020302020202020200A2020332020342020312020302020202020200A2020342020352020312020302020202020200A2020352020362020312020302020202020200A2020362020372020312020302020202020200A2020372020382020322020302020202020200A2020382020392020312020302020202020200A2020392031302020312020302020202020200A2020312031302020312020302020202020200A2020312020372020312020302020202020200A2020392031312020322020302020202020200A4D2020454E44
Contributor: MASS SPECTROSCOPY SOC. OF JAPAN (MSSJ)
InstType: EI
InstName: JEOL JMS-D-3000
IoniMethod: _ENERGY 70 eV
IonPolarity: pos
Date: 2010-10-09 19:48:36+02:00
Num Peaks: 29
41 24 43 67 44 21 55 45 57 67 77 46 79 103 81 43 91 60 92 19 
93 43 95 67 96 271 97 21 99 38 105 21 107 118 108 213 109 119 110 28 
117 19 121 393 122 224 123 23 135 241 136 24 149 454 150 999 151 114 
