Name: PROPYL CHLORIDE
MW: 78
Formula: C3H7Cl
Synonym: MassBank: JP005280
Synonym: PROPYL CHLORIDE
Structure: 310A31320A50524F50594C2043484C4F524944452E6D6F6C0A20204368656D447261773131313830393031313332440A2020342020332020302020302020302020302020302020302020302020303939392056323030300A2020202D302E333537322020202D302E3230363220202020302E303030302043202020302020302020302020302020302020302020302020302020302020302020302020300A20202020302E3335373220202020302E3230363220202020302E303030302043202020302020302020302020302020302020302020302020302020302020302020302020300A20202020312E303731372020202D302E3230363220202020302E303030302043202020302020302020302020302020302020302020302020302020302020302020302020300A2020202D312E3037313720202020302E3230363220202020302E3030303020436C2020302020302020302020302020302020302020302020302020302020302020302020300A2020312020322020312020302020202020200A2020322020332020312020302020202020200A2020312020342020312020302020202020200A4D2020454E44
Contributor: YAMAMOTO M, DEP. CHEMISTRY, FAC. SCIENCE, NARA WOMEN'S UNIV.
InstType: EI
InstName: HITACHI RMU-6M
IoniMethod: _ENERGY 70 eV
IonPolarity: pos
Date: 2010-10-09 19:48:36+02:00
Num Peaks: 19
15 23 26 45 27 355 28 138 29 444 30 10 37 24 38 34 39 114 40 32 
41 238 42 999 43 139 49 38 51 14 63 46 65 13 78 60 80 20 
