Name: MassBank: JP000515
MW: 172
Formula: C10H24N2
Synonym: MassBank: JP000515
Synonym: 1,1-DIETHYL-2-(1-METHYLPENTYL)HYDRAZINE
Structure: 312C312D4449455448594C2D322D28312D4D455448594C50454E54594C2948594452415A494E452E6D6F6C0A20204368656D447261773130323330393130313732440A2031322031312020302020302020302020302020302020302020302020303939392056323030300A2020202D312E3738363220202020302E3030303020202020302E30303030204E202020302020302020302020302020302020302020302020302020302020302020302020300A2020202D312E303731372020202D302E3431323520202020302E30303030204E202020302020302020302020302020302020302020302020302020302020302020302020300A2020202D302E3335373220202020302E3030303020202020302E303030302043202020302020302020302020302020302020302020302020302020302020302020302020300A20202020302E333537322020202D302E3431323520202020302E303030302043202020302020302020302020302020302020302020302020302020302020302020302020300A20202020312E303731372020202D302E3030303020202020302E303030302043202020302020302020302020302020302020302020302020302020302020302020302020300A20202020312E373836322020202D302E3431323520202020302E303030302043202020302020302020302020302020302020302020302020302020302020302020302020300A20202020322E353030362020202D302E3030303020202020302E303030302043202020302020302020302020302020302020302020302020302020302020302020302020300A2020202D302E3335373220202020302E3832353020202020302E303030302043202020302020302020302020302020302020302020302020302020302020302020302020300A2020202D322E353030362020202D302E3431323520202020302E303030302043202020302020302020302020302020302020302020302020302020302020302020302020300A2020202D322E353030362020202D312E3233373520202020302E303030302043202020302020302020302020302020302020302020302020302020302020302020302020300A2020202D312E3738363220202020302E3832353020202020302E303030302043202020302020302020302020302020302020302020302020302020302020302020302020300A2020202D322E3530303620202020312E3233373520202020302E303030302043202020302020302020302020302020302020302020302020302020302020302020302020300A2020312020322020312020302020202020200A2020332020342020312020302020202020200A2020342020352020312020302020202020200A2020352020362020312020302020202020200A2020362020372020312020302020202020200A2020332020382020312020302020202020200A2020322020332020312020302020202020200A2020392031302020312020302020202020200A2020312020392020312020302020202020200A2031312031322020312020302020202020200A2020312031312020312020302020202020200A4D2020454E44
Contributor: SASAKI S, TOYOHASHI UNIV. OF TECH.
InstType: EI
InstName: SHIMADZU LKB-2091
IoniMethod: _ENERGY 70 eV
IonPolarity: pos
Date: 2010-10-09 19:48:36+02:00
Num Peaks: 33
27 46 28 28 29 90 30 3 31 34 39 11 41 47 42 7 43 80 44 106 
45 10 55 1 56 27 57 26 58 39 59 26 60 12 70 9 71 12 72 5 
73 60 85 12 86 6 87 999 88 72 99 9 100 11 115 10 116 8 143 28 
157 41 172 21 173 33 
