Name: MassBank: JP001154
MW: 224
Formula: C13H20O3
Synonym: MassBank: JP001154
Synonym: METHYL 3-ETHYL-4-HYDROXYTRICYCLO(4.3.0.0(1,5))NONANE-5-CARBOXYLATE
Structure: 303231365F4D455448594C20332D455448594C2D342D485944524F58595452494359434C4F28342E332E302E3028312C3529294E4F4E414E452D352D434152424F58594C4154452E6D6F6C0A20204368656D447261773039303631303135323732440A2031362031382020302020302020302020302020302020302020302020303939392056323030300A2020202D302E3230313220202020302E3433323520202020302E303030302043202020302020302020302020302020302020302020302020302020302020302020302020300A20202020302E3630353820202020302E3236313020202020302E303030302043202020302020302020302020302020302020302020302020302020302020302020302020300A20202020302E363932312020202D302E3535393520202020302E303030302043202020302020302020302020302020302020302020302020302020302020302020302020300A2020202D302E303631362020202D302E3839353120202020302E303030302043202020302020302020302020302020302020302020302020302020302020302020302020300A2020202D302E363133372020202D302E3238323020202020302E303030302043202020302020302020302020302020302020302020302020302020302020302020302020300A2020202D312E3032363220202020302E3433323520202020302E303030302043202020302020302020302020302020302020302020302020302020302020302020302020300A2020202D312E3238313120202020312E3231373120202020302E303030302043202020302020302020302020302020302020302020302020302020302020302020302020300A2020202D302E3631333720202020312E3730323020202020302E303030302043202020302020302020302020302020302020302020302020302020302020302020302020300A20202020302E3035333820202020312E3231373120202020302E303030302043202020302020302020302020302020302020302020302020302020302020302020302020300A2020202D312E323831312020202D302E3736363920202020302E303030302043202020302020302020302020302020302020302020302020302020302020302020302020300A2020202D312E313934392020202D312E3538373420202020302E30303030204F202020302020302020302020302020302020302020302020302020302020302020302020300A2020202D322E303334382020202D302E3433313320202020302E30303030204F202020302020302020302020302020302020302020302020302020302020302020302020300A2020202D302E323333312020202D312E3730323020202020302E30303030204F202020302020302020302020302020302020302020302020302020302020302020302020300A20202020312E343036352020202D302E3937323020202020302E303030302043202020302020302020302020302020302020302020302020302020302020302020302020300A20202020322E313231302020202D302E3535393520202020302E303030302043202020302020302020302020302020302020302020302020302020302020302020302020300A2020202D322E3132313020202020302E3338393120202020302E303030302043202020302020302020302020302020302020302020302020302020302020302020302020300A2020312020322020312020302020202020200A2020322020332020312020302020202020200A2020332020342020312020302020202020200A2020342020352020312020302020202020200A2020352020362020312020302020202020200A2020362020372020312020302020202020200A2020372020382020312020302020202020200A2020382020392020312020302020202020200A2020312020392020312020302020202020200A2020312020362020312020302020202020200A2020312020352020312020302020202020200A2031302031312020322020302020202020200A2031302031322020312020302020202020200A2020352031302020312020302020202020200A2020342031332020312020302020202020200A2031342031352020312020302020202020200A2020332031342020312020302020202020200A2031322031362020312020302020202020200A4D2020454E44
Contributor: NAKAYAMA M, MASS SPECTROSCOPY SOC. OF JAPAN (MSSJ)
InstType: EI
InstName: HITACHI RMU-6L
IoniMethod: _ENERGY 70 eV
IonPolarity: pos
Date: 2010-10-09 19:48:36+02:00
Num Peaks: 95
40 40 41 400 42 30 43 130 45 30 51 70 52 40 53 140 54 30 55 260 
56 20 57 170 58 20 59 150 63 30 65 120 66 70 67 200 68 30 69 80 
71 50 77 270 78 70 79 310 80 70 81 180 82 30 83 60 85 20 90 20 
91 410 92 70 93 320 94 60 95 90 96 20 97 30 103 40 104 20 105 430 
106 50 107 140 108 320 109 80 111 20 115 80 116 30 117 260 118 60 119 270 
120 40 121 180 122 40 123 40 127 20 128 20 129 20 131 60 132 20 133 70 
135 100 136 999 137 130 140 210 141 20 144 20 145 120 146 70 147 560 148 70 
149 50 150 30 151 30 152 30 153 60 154 20 163 70 164 160 165 480 166 60 
168 90 169 40 174 50 175 60 176 40 177 430 178 70 190 100 191 250 192 110 
206 180 207 40 223 30 224 140 225 20 
