Name: 2-METHYLCYCLOHEXANOL
MW: 114
Formula: C7H14O
Synonym: MassBank: JP003600
Synonym: 2-METHYLCYCLOHEXANOL
Structure: 310A32310A322D4D455448594C4359434C4F484558414E4F4C2E6D6F6C0A20204368656D447261773031323231303037343832440A2020382020382020302020302020302020302020302020302020302020303939392056323030300A2020202D302E343132352020202D302E3335373220202020302E303030302043202020302020302020302020302020302020302020302020302020302020302020302020300A20202020302E3030303020202020302E3335373220202020302E303030302043202020302020302020302020302020302020302020302020302020302020302020302020300A20202020302E3832353020202020302E3335373220202020302E303030302043202020302020302020302020302020302020302020302020302020302020302020302020300A20202020312E323337352020202D302E3335373220202020302E303030302043202020302020302020302020302020302020302020302020302020302020302020302020300A20202020302E383235302020202D312E3037313720202020302E303030302043202020302020302020302020302020302020302020302020302020302020302020302020300A20202020302E303030302020202D312E3037313720202020302E303030302043202020302020302020302020302020302020302020302020302020302020302020302020300A2020202D302E3431323520202020312E3037313720202020302E303030302043202020302020302020302020302020302020302020302020302020302020302020302020300A2020202D312E323337352020202D302E3335373220202020302E30303030204F202020302020302020302020302020302020302020302020302020302020302020302020300A2020312020322020312020302020202020200A2020322020332020312020302020202020200A2020332020342020312020302020202020200A2020342020352020312020302020202020200A2020352020362020312020302020202020200A2020312020362020312020302020202020200A2020322020372020312020302020202020200A2020312020382020312020302020202020200A4D2020454E44
Contributor: MASS SPECTROSCOPY SOC. OF JAPAN (MSSJ)
InstType: EI
InstName: Unknown
IoniMethod: EI
IonPolarity: pos
Date: 2010-10-09 19:48:36+02:00
Num Peaks: 51
15 20 17 19 18 60 26 2 27 136 28 75 29 190 30 3 31 60 32 20 
38 25 39 16 40 50 41 340 42 190 43 25 44 227 45 96 50 20 51 2 
53 76 54 160 55 474 56 9 57 999 58 155 59 20 65 4 66 35 67 240 
68 640 69 8 70 140 71 498 72 82 77 3 79 22 81 700 82 67 83 3 
85 80 86 80 92 29 93 3 95 68 96 660 97 94 99 3 113 30 114 130 
115 40 
