Name: HEXADECANOIC ACID HEXYL ESTER
MW: 340
Formula: C22H44O2
Synonym: MassBank: JP001780
Synonym: HEXADECANOIC ACID HEXYL ESTER
Structure: 48455841444543414E4F4943204143494420484558594C2045535445522E6D6F6C0A20204368656D447261773038313131303230313632440A2032342032332020302020302020302020302020302020302020302020303939392056323030300A2020202D332E393239362020202D312E3434333720202020302E303030302043202020302020302020302020302020302020302020302020302020302020302020302020300A2020202D332E323135312020202D312E3835363220202020302E303030302043202020302020302020302020302020302020302020302020302020302020302020302020300A2020202D322E353030362020202D312E3434333720202020302E303030302043202020302020302020302020302020302020302020302020302020302020302020302020300A2020202D312E373836322020202D312E3835363220202020302E303030302043202020302020302020302020302020302020302020302020302020302020302020302020300A2020202D312E303731372020202D312E3434333720202020302E303030302043202020302020302020302020302020302020302020302020302020302020302020302020300A2020202D302E333537322020202D312E3835363220202020302E303030302043202020302020302020302020302020302020302020302020302020302020302020302020300A20202020302E333537322020202D312E3434333720202020302E303030302043202020302020302020302020302020302020302020302020302020302020302020302020300A20202020312E303731372020202D312E3835363220202020302E303030302043202020302020302020302020302020302020302020302020302020302020302020302020300A20202020312E373836322020202D312E3434333720202020302E303030302043202020302020302020302020302020302020302020302020302020302020302020302020300A20202020322E353030362020202D312E3835363220202020302E303030302043202020302020302020302020302020302020302020302020302020302020302020302020300A20202020332E323135312020202D312E3434333720202020302E303030302043202020302020302020302020302020302020302020302020302020302020302020302020300A20202020332E393239362020202D312E3835363220202020302E303030302043202020302020302020302020302020302020302020302020302020302020302020302020300A20202020342E363434312020202D312E3434333720202020302E303030302043202020302020302020302020302020302020302020302020302020302020302020302020300A20202020352E333538352020202D312E3835363220202020302E303030302043202020302020302020302020302020302020302020302020302020302020302020302020300A20202020362E303733302020202D312E3434333720202020302E303030302043202020302020302020302020302020302020302020302020302020302020302020302020300A20202020362E373837352020202D312E3835363220202020302E303030302043202020302020302020302020302020302020302020302020302020302020302020302020300A2020202D332E393239362020202D302E3631383720202020302E30303030204F202020302020302020302020302020302020302020302020302020302020302020302020300A2020202D342E363434312020202D312E3835363220202020302E30303030204F202020302020302020302020302020302020302020302020302020302020302020302020300A2020202D352E333538352020202D312E3434333820202020302E303030302043202020302020302020302020302020302020302020302020302020302020302020302020300A2020202D352E333538352020202D302E3631383720202020302E303030302043202020302020302020302020302020302020302020302020302020302020302020302020300A2020202D362E303733302020202D302E3230363320202020302E303030302043202020302020302020302020302020302020302020302020302020302020302020302020300A2020202D362E3037333020202020302E3631383820202020302E303030302043202020302020302020302020302020302020302020302020302020302020302020302020300A2020202D362E3738373520202020312E3033313220202020302E303030302043202020302020302020302020302020302020302020302020302020302020302020302020300A2020202D362E3738373520202020312E3835363220202020302E303030302043202020302020302020302020302020302020302020302020302020302020302020302020300A2020312020322020312020302020202020200A2020322020332020312020302020202020200A2020332020342020312020302020202020200A2020342020352020312020302020202020200A2020352020362020312020302020202020200A2020362020372020312020302020202020200A2020372020382020312020302020202020200A2020382020392020312020302020202020200A2020392031302020312020302020202020200A2031302031312020312020302020202020200A2031312031322020312020302020202020200A2031322031332020312020302020202020200A2031332031342020312020302020202020200A2031342031352020312020302020202020200A2031352031362020312020302020202020200A2020312031372020322020302020202020200A2020312031382020312020302020202020200A2031392032302020312020302020202020200A2032302032312020312020302020202020200A2032312032322020312020302020202020200A2032322032332020312020302020202020200A2032332032342020312020302020202020200A2031382031392020312020302020202020200A4D2020454E44
Contributor: MASS SPECTROSCOPY SOC. OF JAPAN (MSSJ)
InstType: EI
InstName: Unknown
IoniMethod: EI
IonPolarity: pos
Date: 2010-10-09 19:48:36+02:00
Num Peaks: 21
28 18 56 116 60 92 61 669 69 13 71 59 73 193 84 999 85 222 98 60 
129 111 141 18 145 23 157 41 207 18 213 32 239 72 256 83 257 331 258 40 
340 41 
