Name: N-(3-PHENYLPROPIONYL)PYRROLIDIN-2-ONE
MW: 217
Formula: C13H15NO2
Synonym: MassBank: JP006743
Synonym: N-(3-PHENYLPROPIONYL)PYRROLIDIN-2-ONE
Structure: 4E2D28332D5048454E594C50524F50494F4E594C29505952524F4C4944494E2D322D4F4E452E6D6F6C0A20204368656D447261773038313231303031313532440A2031362031372020302020302020302020302020302020302020302020303939392056323030300A2020202D312E3439303620202020302E3030303020202020302E30303030204E202020302020302020302020302020302020302020302020302020302020302020302020300A2020202D322E323434322020202D302E3333353620202020302E303030302043202020302020302020302020302020302020302020302020302020302020302020302020300A2020202D322E3739363320202020302E3237373520202020302E303030302043202020302020302020302020302020302020302020302020302020302020302020302020300A2020202D322E3338333820202020302E3939323020202020302E303030302043202020302020302020302020302020302020302020302020302020302020302020302020300A2020202D312E3537363820202020302E3832303520202020302E303030302043202020302020302020302020302020302020302020302020302020302020302020302020300A2020202D322E343135382020202D312E3134323520202020302E30303030204F202020302020302020302020302020302020302020302020302020302020302020302020300A2020202D302E373736312020202D302E3431323520202020302E303030302043202020302020302020302020302020302020302020302020302020302020302020302020300A2020202D302E373736312020202D312E3233373520202020302E30303030204F202020302020302020302020302020302020302020302020302020302020302020302020300A2020202D302E3036313620202020302E3030303020202020302E303030302043202020302020302020302020302020302020302020302020302020302020302020302020300A20202020302E363532392020202D302E3431323520202020302E303030302043202020302020302020302020302020302020302020302020302020302020302020302020300A20202020312E3336373320202020302E3030303020202020302E303030302043202020302020302020302020302020302020302020302020302020302020302020302020300A20202020312E3336373320202020302E3832353020202020302E303030302043202020302020302020302020302020302020302020302020302020302020302020302020300A20202020322E3038313820202020312E3233373520202020302E303030302043202020302020302020302020302020302020302020302020302020302020302020302020300A20202020322E3739363320202020302E3832353020202020302E303030302043202020302020302020302020302020302020302020302020302020302020302020302020300A20202020322E3739363320202020302E3030303020202020302E303030302043202020302020302020302020302020302020302020302020302020302020302020302020300A20202020322E303831382020202D302E3431323520202020302E303030302043202020302020302020302020302020302020302020302020302020302020302020302020300A2020312020322020312020302020202020200A2020322020332020312020302020202020200A2020332020342020312020302020202020200A2020342020352020312020302020202020200A2020312020352020312020302020202020200A2020322020362020322020302020202020200A2020372020382020322020302020202020200A2020372020392020312020302020202020200A2020392031302020312020302020202020200A2031312031322020312020302020202020200A2031322031332020322020302020202020200A2031332031342020312020302020202020200A2031342031352020322020302020202020200A2031352031362020312020302020202020200A2031312031362020322020302020202020200A2031302031312020312020302020202020200A2020312020372020312020302020202020200A4D2020454E44
Contributor: MASS SPECTROSCOPY SOC. OF JAPAN (MSSJ)
InstType: EI
InstName: HITACHI RMU-6G
IoniMethod: _ENERGY 20 eV
IonPolarity: pos
Date: 2010-10-09 19:48:36+02:00
Num Peaks: 41
41 18 42 12 43 30 55 12 56 14 57 17 58 15 69 22 70 15 77 10 
78 30 79 22 84 40 85 90 86 999 87 50 91 200 92 22 98 180 99 16 
100 8 103 35 104 840 105 190 106 15 107 10 112 10 131 100 132 130 133 27 
150 26 160 50 161 30 170 10 174 7 178 7 189 13 199 12 217 480 218 80 
219 10 
