Name: TERPINOLENE
CAS: 586-62-9
MW: 136
Formula: C10H16
Synonym: MassBank: JP007121
Synonym: TERPINOLENE
Structure: 504152412D4D454E5448412D312C342838292D4449454E452E6D6F6C0A20204368656D447261773038313231303034323732440A2031302031302020302020302020302020302020302020302020302020303939392056323030300A2020202D302E323036322020202D302E3731343520202020302E303030302043202020302020302020302020302020302020302020302020302020302020302020302020300A2020202D302E3631383720202020302E3030303020202020302E303030302043202020302020302020302020302020302020302020302020302020302020302020302020300A2020202D302E3230363220202020302E3731343520202020302E303030302043202020302020302020302020302020302020302020302020302020302020302020302020300A20202020302E3631383820202020302E3731343520202020302E303030302043202020302020302020302020302020302020302020302020302020302020302020302020300A20202020312E303331332020202D302E3030303020202020302E303030302043202020302020302020302020302020302020302020302020302020302020302020302020300A20202020302E363138382020202D302E3731343520202020302E303030302043202020302020302020302020302020302020302020302020302020302020302020302020300A20202020312E383536332020202D302E3030303020202020302E303030302043202020302020302020302020302020302020302020302020302020302020302020302020300A2020202D312E3434333720202020302E3030303020202020302E303030302043202020302020302020302020302020302020302020302020302020302020302020302020300A2020202D312E3835363320202020302E3731343520202020302E303030302043202020302020302020302020302020302020302020302020302020302020302020302020300A2020202D312E383536332020202D302E3731343520202020302E303030302043202020302020302020302020302020302020302020302020302020302020302020302020300A2020312020322020312020302020202020200A2020322020332020312020302020202020200A2020332020342020312020302020202020200A2020342020352020312020302020202020200A2020352020362020322020302020202020200A2020312020362020312020302020202020200A2020352020372020312020302020202020200A2020382020392020312020302020202020200A2020382031302020312020302020202020200A2020322020382020322020302020202020200A4D2020454E44
Contributor: SODA AROMATIC CO., LTD.
InstType: EI
InstName: HITACHI M-80B
IoniMethod: _ENERGY 70 eV
IonPolarity: pos
Date: 2010-10-09 19:48:36+02:00
Num Peaks: 51
15 20 26 11 27 226 28 19 29 139 38 17 39 353 40 52 41 359 42 26 
43 204 50 30 51 126 52 44 53 210 54 19 55 114 58 15 62 12 63 44 
64 14 65 121 66 29 67 139 68 33 77 371 78 80 79 422 80 73 81 40 
89 16 91 438 92 112 93 999 94 92 95 13 103 32 104 12 105 213 106 49 
107 185 108 43 115 19 117 14 119 42 120 17 121 988 122 90 135 13 136 726 
137 76 
