Name: 4-PIPEROYLMORPHOLINE
MW: 287
Formula: C16H17NO4
Synonym: MassBank: JP001395
Synonym: 4-PIPEROYLMORPHOLINE
Synonym: N-(5-(3,4-METHYLENEDIOXYPHENYL)-2,4-PENTADIENOYL)MORPHOLINE
Structure: 342D50495045524F594C4D4F5250484F4C494E452E6D6F6C0A20204368656D447261773034323231303231303232440A2032312032332020302020302020302020302020302020302020302020303939392056323030300A2020202D332E373436362020202D302E3430373920202020302E303030302043202020302020302020302020302020302020302020302020302020302020302020302020300A2020202D332E3333343120202020302E3330363520202020302E303030302043202020302020302020302020302020302020302020302020302020302020302020302020300A2020202D322E3530393120202020302E3330363520202020302E30303030204E202020302020302020302020302020302020302020302020302020302020302020302020300A2020202D322E303936362020202D302E3430373920202020302E303030302043202020302020302020302020302020302020302020302020302020302020302020302020300A2020202D322E353039312020202D312E3132323420202020302E303030302043202020302020302020302020302020302020302020302020302020302020302020302020300A2020202D332E333334312020202D312E3132323420202020302E30303030204F202020302020302020302020302020302020302020302020302020302020302020302020300A2020202D322E3039363620202020312E3032313020202020302E303030302043202020302020302020302020302020302020302020302020302020302020302020302020300A2020202D312E3237313620202020312E3032313020202020302E303030302043202020302020302020302020302020302020302020302020302020302020302020302020300A2020202D302E3835393120202020302E3330363520202020302E303030302043202020302020302020302020302020302020302020302020302020302020302020302020300A2020202D302E3033343120202020302E3330363520202020302E303030302043202020302020302020302020302020302020302020302020302020302020302020302020300A20202020302E333738342020202D302E3430373920202020302E303030302043202020302020302020302020302020302020302020302020302020302020302020302020300A2020202D322E3530393120202020312E3733353520202020302E30303030204F202020302020302020302020302020302020302020302020302020302020302020302020300A20202020312E323033342020202D302E3430373920202020302E303030302043202020302020302020302020302020302020302020302020302020302020302020302020300A20202020312E363135392020202D312E3132323420202020302E303030302043202020302020302020302020302020302020302020302020302020302020302020302020300A20202020322E343430392020202D312E3132323420202020302E303030302043202020302020302020302020302020302020302020302020302020302020302020302020300A20202020322E383533342020202D302E3430373920202020302E303030302043202020302020302020302020302020302020302020302020302020302020302020302020300A20202020322E3434303920202020302E3330363520202020302E303030302043202020302020302020302020302020302020302020302020302020302020302020302020300A20202020312E3631353920202020302E3330363520202020302E303030302043202020302020302020302020302020302020302020302020302020302020302020302020300A20202020332E373436362020202D312E3339393920202020302E303030302043202020302020302020302020302020302020302020302020302020302020302020302020300A20202020322E393932392020202D312E3733353520202020302E30303030204F202020302020302020302020302020302020302020302020302020302020302020302020300A20202020332E363630342020202D302E3537393520202020302E30303030204F202020302020302020302020302020302020302020302020302020302020302020302020300A2020312020322020312020302020202020200A2020322020332020312020302020202020200A2020332020342020312020302020202020200A2020342020352020312020302020202020200A2020352020362020312020302020202020200A2020312020362020312020302020202020200A2020372020382020312020302020202020200A2020382020392020322020302020202020200A2020392031302020312020302020202020200A2031302031312020322020302020202020200A2020372031322020322020302020202020200A2031332031342020312020302020202020200A2031342031352020322020302020202020200A2031352031362020312020302020202020200A2031362031372020322020302020202020200A2031372031382020312020302020202020200A2031332031382020322020302020202020200A2031392032302020312020302020202020200A2031392032312020312020302020202020200A2031352032302020312020302020202020200A2031362032312020312020302020202020200A2031312031332020312020302020202020200A2020332020372020312020302020202020200A4D2020454E44
Contributor: HASHIMOTO K, KYOTO COLLEGE OF PHARMACY
InstType: EI
InstName: HITACHI M-80
IoniMethod: _ENERGY 20 eV
IonPolarity: pos
Date: 2010-10-09 19:48:36+02:00
Num Peaks: 24
86 35 114 20 115 178 116 4 117 14 135 12 139 15 143 12 144 37 159 28 
171 90 172 12 173 333 174 92 200 100 201 999 202 174 203 15 229 10 259 1 
286 17 287 619 288 111 289 12 
