Name: (S)-2-METHYL-5-(1-METHYLETHENYL)-2-CYCLOHEXEN-1-ONE
CAS: 2244-16-8
MW: 150
Formula: C10H14O
Synonym: MassBank: JP005801
Synonym: (S)-2-METHYL-5-(1-METHYLETHENYL)-2-CYCLOHEXEN-1-ONE
Synonym: L-CARVONE
Structure: 2853292D322D4D455448594C2D352D28312D4D455448594C455448454E594C292D322D4359434C4F484558454E2D312D4F4E452E6D6F6C0A20204368656D447261773130323230393138333232440A2031332031332020302020302020302020302020302020302020302020303939392056323030300A2020202D302E3338313620202020302E3733393620202020302E303030302043202020302020302020302020302020302020302020302020302020302020302020302020300A2020202D302E333831362020202D302E3038353420202020302E303030302043202020302020302020302020302020302020302020302020302020302020302020302020300A20202020302E333332392020202D302E3439373920202020302E303030302043202020302020302020302020302020302020302020302020302020302020302020302020300A20202020312E303437342020202D302E3038353420202020302E303030302043202020302020302020302020302020302020302020302020302020302020302020302020300A20202020312E3034373420202020302E3733393620202020302E303030302043202020302020302020302020302020302020302020302020302020302020302020302020300A20202020302E3333323920202020312E3135323120202020302E303030302043202020302020302020302020302020302020302020302020302020302020302020302020300A20202020312E3736313820202020312E3135323120202020302E30303030204F202020302020302020302020302020302020302020302020302020302020302020302020300A20202020312E373631382020202D302E3439373920202020302E303030302043202020302020302020302020302020302020302020302020302020302020302020302020300A20202020302E333332392020202D312E3332323920202020302E303030302048202020302020302020302020302020302020302020302020302020302020302020302020300A2020202D302E3936343920202020312E3332323920202020302E303030302048202020302020302020302020302020302020302020302020302020302020302020302020300A2020202D312E3137383520202020302E3532363020202020302E303030302043202020302020302020302020302020302020302020302020302020302020302020302020300A2020202D312E333932302020202D302E3237303820202020302E303030302043202020302020302020302020302020302020302020302020302020302020302020302020300A2020202D312E3736313820202020312E3130393420202020302E303030302043202020302020302020302020302020302020302020302020302020302020302020302020300A2020312020322020312020302020202020200A2020322020332020312020302020202020200A2020332020342020322020302020202020200A2020342020352020312020302020202020200A2020352020362020312020302020202020200A2020362020312020312020302020202020200A2020352020372020322020302020202020200A2020342020382020312020302020202020200A2020332020392020312020302020202020200A2020312031302020312020312020202020200A2020312031312020312020362020202020200A2031312031322020322020302020202020200A2031312031332020312020302020202020200A4D2020454E44
Contributor: FUJISE Y, HAMAMATSU UNIV. SCHOOL OF MEDICINE
InstType: EI
InstName: JEOL JMS-D-300
IoniMethod: _ENERGY 70 eV
IonPolarity: pos
Date: 2010-10-09 19:48:36+02:00
Num Peaks: 37
51 14 52 39 53 17 54 103 55 375 56 37 58 125 63 13 65 41 66 15 
67 63 68 17 69 39 77 64 78 16 79 94 80 44 81 23 82 999 83 54 
91 81 92 49 93 256 94 57 95 37 105 26 106 132 107 160 108 299 109 38 
117 9 119 10 121 16 122 15 135 30 150 101 151 10 
