Name: GLYCYLGLYCYLGLYCYLGLYCINE
CAS: 637-84-3
MW: 246
Formula: C8H14N4O5
Synonym: MassBank: JP007412
Synonym: GLYCYLGLYCYLGLYCYLGLYCINE
Structure: 474C5943594C474C5943594C474C5943594C474C5943494E452E6D6F6C0A20204368656D447261773038313131303139353932440A2031372031362020302020302020302020302020302020302020302020303939392056323030300A2020202D332E323135312020202D302E3230363320202020302E303030302043202020302020302020302020302020302020302020302020302020302020302020302020300A2020202D312E373836322020202D302E3230363320202020302E30303030204E202020302020302020302020302020302020302020302020302020302020302020302020300A2020202D322E3530303620202020302E3230363220202020302E303030302043202020302020302020302020302020302020302020302020302020302020302020302020300A2020202D332E323135312020202D312E3033313320202020302E30303030204F202020302020302020302020302020302020302020302020302020302020302020302020300A2020202D332E3932393620202020302E3230363220202020302E30303030204F202020302020302020302020302020302020302020302020302020302020302020302020300A2020202D312E3037313720202020302E3230363220202020302E303030302043202020302020302020302020302020302020302020302020302020302020302020302020300A20202020302E3335373220202020302E3230363220202020302E30303030204E202020302020302020302020302020302020302020302020302020302020302020302020300A2020202D302E333537322020202D302E3230363320202020302E303030302043202020302020302020302020302020302020302020302020302020302020302020302020300A2020202D312E3037313720202020312E3033313220202020302E30303030204F202020302020302020302020302020302020302020302020302020302020302020302020300A20202020312E303731372020202D302E3230363220202020302E303030302043202020302020302020302020302020302020302020302020302020302020302020302020300A20202020322E353030362020202D302E3230363220202020302E30303030204E202020302020302020302020302020302020302020302020302020302020302020302020300A20202020312E3738363220202020302E3230363320202020302E303030302043202020302020302020302020302020302020302020302020302020302020302020302020300A20202020312E303731372020202D312E3033313220202020302E30303030204F202020302020302020302020302020302020302020302020302020302020302020302020300A20202020332E3231353120202020302E3230363320202020302E303030302043202020302020302020302020302020302020302020302020302020302020302020302020300A20202020332E393239362020202D312E3033313220202020302E30303030204E202020302020302020302020302020302020302020302020302020302020302020302020300A20202020332E393239362020202D302E3230363220202020302E303030302043202020302020302020302020302020302020302020302020302020302020302020302020300A20202020332E3231353120202020312E3033313320202020302E30303030204F202020302020302020302020302020302020302020302020302020302020302020302020300A2020322020332020312020302020202020200A2020312020332020312020302020202020200A2020312020342020322020302020202020200A2020312020352020312020302020202020200A2020372020382020312020302020202020200A2020362020382020312020302020202020200A2020362020392020322020302020202020200A2031312031322020312020302020202020200A2031302031322020312020302020202020200A2031302031332020322020302020202020200A2031352031362020312020302020202020200A2031342031362020312020302020202020200A2031342031372020322020302020202020200A2031312031342020312020302020202020200A2020372031302020312020302020202020200A2020322020362020312020302020202020200A4D2020454E44
Contributor: YAMAMOTO M, DEP. CHEMISTRY, FAC. SCIENCE, NARA WOMEN'S UNIV.
InstType: EI
InstName: HITACHI RMU-6M
IoniMethod: _ENERGY 70 eV
IonPolarity: pos
Date: 2010-10-09 19:48:36+02:00
Num Peaks: 50
26 25 27 124 28 691 29 285 30 999 31 39 39 23 40 26 41 103 42 301 
43 202 44 325 45 29 52 13 53 14 54 74 55 131 56 81 57 24 58 45 
59 24 67 11 68 30 69 25 70 13 71 336 72 32 74 12 75 42 80 14 
81 18 82 18 83 13 85 28 86 52 96 22 97 13 98 69 100 16 111 19 
112 18 113 11 114 775 115 44 124 11 125 40 128 11 153 106 154 11 156 16 
