Name: TRIFLUOROMETHYL-P-CHLOROPHENYL-THIOETHER
MW: 211
Formula: C7H4ClF3S
Synonym: MassBank: JP002878
Synonym: TRIFLUOROMETHYL-P-CHLOROPHENYL-THIOETHER
Structure: 545249464C554F524F4D455448594C2D502D43484C4F524F5048454E594C2D5448494F45544845522E6D6F6C0A20204368656D447261773038313231303038333732440A2031322031322020302020302020302020302020302020302020302020303939392056323030300A20202020302E3731343520202020302E3637343020202020302E303030302053202020302020302020302020302020302020302020302020302020302020302020302020300A20202020302E3030303020202020302E3236313520202020302E303030302043202020302020302020302020302020302020302020302020302020302020302020302020300A20202020302E303030302020202D302E3536333520202020302E303030302043202020302020302020302020302020302020302020302020302020302020302020302020300A2020202D302E373134352020202D302E3937363020202020302E303030302043202020302020302020302020302020302020302020302020302020302020302020302020300A2020202D312E343238392020202D302E3536333520202020302E303030302043202020302020302020302020302020302020302020302020302020302020302020302020300A2020202D312E3432383920202020302E3236313520202020302E303030302043202020302020302020302020302020302020302020302020302020302020302020302020300A2020202D302E3731343520202020302E3637343020202020302E303030302043202020302020302020302020302020302020302020302020302020302020302020302020300A2020202D322E313433342020202D302E3937363020202020302E3030303020436C2020302020302020302020302020302020302020302020302020302020302020302020300A20202020312E3432383920202020302E3236313520202020302E303030302043202020302020302020302020302020302020302020302020302020302020302020302020300A20202020312E3834313420202020302E3937363020202020302E303030302046202020302020302020302020302020302020302020302020302020302020302020302020300A20202020322E313433342020202D302E3135313020202020302E303030302046202020302020302020302020302020302020302020302020302020302020302020302020300A20202020312E303136342020202D302E3435333020202020302E303030302046202020302020302020302020302020302020302020302020302020302020302020302020300A2020322020332020312020302020202020200A2020332020342020322020302020202020200A2020342020352020312020302020202020200A2020352020362020322020302020202020200A2020362020372020312020302020202020200A2020322020372020322020302020202020200A2020352020382020312020302020202020200A2020312020322020312020302020202020200A2020392031302020312020302020202020200A2020392031312020312020302020202020200A2020392031322020312020302020202020200A2020312020392020312020302020202020200A4D2020454E44
Contributor: MASS SPECTROSCOPY SOC. OF JAPAN (MSSJ)
InstType: EI
InstName: Unknown
IoniMethod: EI
IonPolarity: pos
Date: 2010-10-09 19:48:36+02:00
Num Peaks: 33
38 51 39 47 45 75 50 135 51 51 57 49 58 34 61 40 62 66 63 181 
69 363 73 91 74 85 75 142 81 49 82 110 99 138 101 46 107 45 108 565 
109 48 110 26 111 35 143 999 144 85 145 379 146 27 193 51 195 22 212 752 
213 66 214 277 215 26 
