Name: (Z)-9-HEXADECENOIC ACID METHYL ESTER
MW: 268
Formula: C17H32O2
Synonym: MassBank: JP005374
Synonym: (Z)-9-HEXADECENOIC ACID METHYL ESTER
Synonym: METHYL PALMITOOLEATE
Structure: 285A292D392D48455841444543454E4F49432041434944204D455448594C2045535445522E6D6F6C0A20204368656D447261773130323230393231333932440A2032312032302020302020302020302020302020302020302020302020303939392056323030300A20202020302E383235302020202D312E3432383920202020302E303030302043202020302020302020302020302020302020302020302020302020302020302020302020300A20202020312E363530302020202D312E3432383920202020302E303030302043202020302020302020302020302020302020302020302020302020302020302020302020300A20202020302E343132352020202D322E3134333420202020302E303030302048202020302020302020302020302020302020302020302020302020302020302020302020300A20202020322E303632352020202D302E3731343520202020302E303030302043202020302020302020302020302020302020302020302020302020302020302020302020300A20202020322E303632352020202D322E3134333420202020302E303030302048202020302020302020302020302020302020302020302020302020302020302020302020300A20202020302E343132352020202D302E3731343520202020302E303030302043202020302020302020302020302020302020302020302020302020302020302020302020300A2020202D302E343132352020202D302E3731343520202020302E303030302043202020302020302020302020302020302020302020302020302020302020302020302020300A2020202D302E3832353020202020302E3030303020202020302E303030302043202020302020302020302020302020302020302020302020302020302020302020302020300A2020202D312E3635303020202020302E3030303020202020302E303030302043202020302020302020302020302020302020302020302020302020302020302020302020300A2020202D322E3036323520202020302E3731343520202020302E303030302043202020302020302020302020302020302020302020302020302020302020302020302020300A2020202D322E3838373520202020302E3731343520202020302E303030302043202020302020302020302020302020302020302020302020302020302020302020302020300A2020202D332E3330303020202020312E3432383920202020302E303030302043202020302020302020302020302020302020302020302020302020302020302020302020300A2020202D342E3132353020202020312E3432383920202020302E303030302043202020302020302020302020302020302020302020302020302020302020302020302020300A2020202D342E3533373520202020322E3134333420202020302E30303030204F202020302020302020302020302020302020302020302020302020302020302020302020300A20202020322E383837352020202D302E3731343520202020302E303030302043202020302020302020302020302020302020302020302020302020302020302020302020300A20202020332E3330303020202020302E3030303020202020302E303030302043202020302020302020302020302020302020302020302020302020302020302020302020300A20202020342E3132353020202020302E3030303020202020302E303030302043202020302020302020302020302020302020302020302020302020302020302020302020300A20202020342E3533373520202020302E3731343520202020302E303030302043202020302020302020302020302020302020302020302020302020302020302020302020300A20202020352E3336323520202020302E3731343520202020302E303030302043202020302020302020302020302020302020302020302020302020302020302020302020300A2020202D342E3533373520202020302E3731343420202020302E30303030204F202020302020302020302020302020302020302020302020302020302020302020302020300A2020202D352E3336323520202020302E3731343420202020302E303030302043202020302020302020302020302020302020302020302020302020302020302020302020300A2020312020322020322020302020202020200A2020312020332020312020302020202020200A2020322020342020312020302020202020200A2020322020352020312020302020202020200A2020312020362020312020302020202020200A2020372020362020312020302020202020200A2020382020372020312020302020202020200A2020392020382020312020302020202020200A2031302020392020312020302020202020200A2031312031302020312020302020202020200A2031322031312020312020302020202020200A2031332031322020312020302020202020200A2031342031332020322020302020202020200A2031352020342020312020302020202020200A2031362031352020312020302020202020200A2031372031362020312020302020202020200A2031382031372020312020302020202020200A2031392031382020312020302020202020200A2031332032302020312020302020202020200A2032302032312020312020302020202020200A4D2020454E44
Contributor: YAMAOKA R, KYOTO INSTITUTE OF TECHNOLOGY
InstType: EI
InstName: SHIMADZU QP-1000
IoniMethod: _ENERGY 70 eV
IonPolarity: pos
Date: 2010-10-09 19:48:36+02:00
Num Peaks: 110
40 11 41 239 42 51 43 999 44 665 45 41 46 85 52 1 54 229 55 978 
56 218 57 18 58 17 59 211 65 26 66 2 67 273 68 182 69 511 70 12 
71 66 72 13 73 50 74 46 75 59 77 19 79 65 80 4 81 204 82 148 
83 309 84 27 85 53 87 269 88 27 89 1 91 19 93 32 94 37 95 15 
96 303 97 298 98 255 99 4 100 10 101 62 105 15 107 3 108 30 109 111 
110 191 111 17 112 67 113 36 114 43 115 6 119 37 120 14 121 44 123 15 
124 105 125 95 126 21 127 4 128 45 129 40 133 39 134 3 135 45 136 26 
137 101 138 10 139 62 140 19 141 85 142 2 143 33 147 30 148 26 149 3 
150 15 151 66 152 167 153 5 155 23 161 18 163 12 165 4 166 38 167 15 
171 12 175 1 179 25 180 14 185 12 192 5 193 54 194 161 195 35 207 3 
208 18 218 27 219 17 225 1 235 24 236 252 237 158 238 3 268 47 269 24 
