Name: 4-(2 AMINOETHYL)-PHENOL
MW: 137
Formula: C8H11NO
Synonym: MassBank: JP002813
Synonym: 4-(2 AMINOETHYL)-PHENOL
Structure: 342D283220414D494E4F455448594C292D5048454E4F4C2E6D6F6C0A20204368656D447261773130313831303136343232440A2031302031302020302020302020302020302020302020302020302020303939392056323030300A20202020312E343433382020202D302E3030303020202020302E303030302043202020302020302020302020302020302020302020302020302020302020302020302020300A20202020312E303331332020202D302E3731343520202020302E303030302043202020302020302020302020302020302020302020302020302020302020302020302020300A20202020302E323036322020202D302E3731343520202020302E303030302043202020302020302020302020302020302020302020302020302020302020302020302020300A2020202D302E3230363320202020302E3030303020202020302E303030302043202020302020302020302020302020302020302020302020302020302020302020302020300A20202020302E3230363220202020302E3731343520202020302E303030302043202020302020302020302020302020302020302020302020302020302020302020302020300A20202020312E3033313320202020302E3731343520202020302E303030302043202020302020302020302020302020302020302020302020302020302020302020302020300A2020202D312E3033313320202020302E3030303020202020302E303030302043202020302020302020302020302020302020302020302020302020302020302020302020300A2020202D312E3434333820202020302E3731343520202020302E303030302043202020302020302020302020302020302020302020302020302020302020302020302020300A2020202D322E3236383720202020302E3731343520202020302E30303030204E202020302020302020302020302020302020302020302020302020302020302020302020300A20202020322E323638372020202D302E3030303020202020302E30303030204F202020302020302020302020302020302020302020302020302020302020302020302020300A2020312020322020312020302020202020200A2020322020332020322020302020202020200A2020332020342020312020302020202020200A2020342020352020322020302020202020200A2020352020362020312020302020202020200A2020312020362020322020302020202020200A2020372020382020312020302020202020200A2020382020392020312020302020202020200A2020342020372020312020302020202020200A2020312031302020312020302020202020200A4D2020454E44
Contributor: SASAKI S, TOYOHASHI UNIV. OF TECH.
InstType: EI
InstName: Unknown
IoniMethod: EI
IonPolarity: pos
Date: 2010-10-09 19:48:36+02:00
Num Peaks: 66
26 10 27 42 28 50 29 1 30 999 31 20 32 10 33 0 38 10 39 60 
40 15 41 0 42 12 43 20 44 10 45 0 46 1 49 10 50 30 51 5 
52 34 53 36 54 10 55 2 56 10 57 2 61 10 62 1 63 31 64 10 
65 32 66 1 67 10 68 5 75 10 76 1 77 136 78 35 79 44 80 2 
81 10 82 4 83 3 89 0 90 14 91 32 92 10 93 1 105 10 106 4 
107 220 108 42 109 42 110 10 111 5 112 1 118 4 119 10 120 20 121 0 
122 2 136 10 137 50 138 1 139 2 140 1 
