Name: PARA-(TERT-BUTOXYDIMETHYLSILYL)BENZALDEHYDE
MW: 236
Formula: C13H20O2Si
Synonym: MassBank: JP001436
Synonym: PARA-(TERT-BUTOXYDIMETHYLSILYL)BENZALDEHYDE
Structure: 504152412D28544552542D4255544F585944494D455448594C53494C594C2942454E5A414C4445485944452E6D6F6C0A20204368656D447261773038313231303034313332440A2031362031362020302020302020302020302020302020302020302020303939392056323030300A20202020322E313033302020202D312E3138323220202020302E303030302043202020302020302020302020302020302020302020302020302020302020302020302020300A20202020312E333838352020202D302E3736393720202020302E303030302043202020302020302020302020302020302020302020302020302020302020302020302020300A20202020302E363734302020202D312E3138323220202020302E303030302043202020302020302020302020302020302020302020302020302020302020302020302020300A2020202D302E303430352020202D302E3736393720202020302E303030302043202020302020302020302020302020302020302020302020302020302020302020302020300A2020202D302E3034303520202020302E3035353320202020302E303030302043202020302020302020302020302020302020302020302020302020302020302020302020300A20202020302E3637343020202020302E3436373820202020302E303030302043202020302020302020302020302020302020302020302020302020302020302020302020300A20202020312E3338383520202020302E3035353320202020302E303030302043202020302020302020302020302020302020302020302020302020302020302020302020300A20202020322E383137342020202D302E3736393720202020302E30303030204F202020302020302020302020302020302020302020302020302020302020302020302020300A2020202D302E3735343920202020302E3436373820202020302E303030302053692020302020302020302020302020302020302020302020302020302020302020302020300A2020202D312E3436393420202020302E3838303320202020302E303030302043202020302020302020302020302020302020302020302020302020302020302020302020300A2020202D302E3334323420202020312E3138323220202020302E303030302043202020302020302020302020302020302020302020302020302020302020302020302020300A2020202D312E313637342020202D302E3234363720202020302E30303030204F202020302020302020302020302020302020302020302020302020302020302020302020300A2020202D312E393932342020202D302E3234363720202020302E303030302043202020302020302020302020302020302020302020302020302020302020302020302020300A2020202D312E393932342020202D312E3037313720202020302E303030302043202020302020302020302020302020302020302020302020302020302020302020302020300A2020202D322E383137342020202D302E3234363720202020302E303030302043202020302020302020302020302020302020302020302020302020302020302020302020300A2020202D312E3939323420202020302E3537383320202020302E303030302043202020302020302020302020302020302020302020302020302020302020302020302020300A2020312020322020312020302020202020200A2020322020332020312020302020202020200A2020332020342020322020302020202020200A2020342020352020312020302020202020200A2020352020362020322020302020202020200A2020362020372020312020302020202020200A2020322020372020322020302020202020200A2020312020382020322020302020202020200A2020392031302020312020302020202020200A2020392031312020312020302020202020200A2031332031342020312020302020202020200A2031332031362020312020302020202020200A2031332031352020312020302020202020200A2031322031332020312020302020202020200A2020392031322020312020302020202020200A2020352020392020312020302020202020200A4D2020454E44
Contributor: MASS SPECTROSCOPY SOC. OF JAPAN (MSSJ)
InstType: EI
InstName: JEOL JMS-D-3000
IoniMethod: _ENERGY 70 eV
IonPolarity: pos
Date: 2010-10-09 19:48:36+02:00
Num Peaks: 56
41 96 43 49 45 69 47 14 51 23 53 15 55 18 56 32 57 20 59 17 
61 21 65 16 67 14 75 95 76 14 77 59 78 20 79 16 81 70 83 14 
85 18 89 20 91 64 92 14 93 22 94 14 103 10 105 37 106 16 107 23 
110 115 111 28 115 14 117 12 119 50 120 16 121 25 122 40 133 44 134 36 
135 32 136 18 137 21 149 13 150 20 151 16 163 526 164 105 165 999 166 183 
167 56 180 12 221 714 222 165 223 51 236 8 
