Name: MassBank: JP006357
MW: 210
Formula: C12H18O3
Synonym: MassBank: JP006357
Synonym: METHYL 4(3H)-OXO-1,2,4AALPHA,5,6,7,8,8ABETA-OCTAHYDRONAPHTHALENE-1BETA-CARBOXYLATE
Structure: 303236385F4D455448594C2034283348292D4F584F2D312C322C3441414C5048412C352C362C372C382C3841424554412D4F435441485944524F4E4150485448414C454E452D31424554412D434152424F58594C4154452E6D6F6C0A20204368656D447261773130313931303139353932440A2031352031362020302020302020302020302020302020302020302020303939392056323030300A20202020302E3335373220202020302E3631383820202020302E303030302043202020302020302020302020302020302020302020302020302020302020302020302020300A20202020312E3037313720202020302E3230363220202020302E303030302043202020302020302020302020302020302020302020302020302020302020302020302020300A20202020312E303731372020202D302E3631383720202020302E303030302043202020302020302020302020302020302020302020302020302020302020302020302020300A20202020302E333537322020202D312E3033313320202020302E303030302043202020302020302020302020302020302020302020302020302020302020302020302020300A2020202D302E333537322020202D302E3631383820202020302E303030302043202020302020302020302020302020302020302020302020302020302020302020302020300A2020202D312E303731372020202D312E3033313320202020302E303030302043202020302020302020302020302020302020302020302020302020302020302020302020300A2020202D312E373836322020202D302E3631383820202020302E303030302043202020302020302020302020302020302020302020302020302020302020302020302020300A2020202D312E3738363220202020302E3230363220202020302E303030302043202020302020302020302020302020302020302020302020302020302020302020302020300A2020202D312E3037313720202020302E3631383820202020302E303030302043202020302020302020302020302020302020302020302020302020302020302020302020300A2020202D302E3335373220202020302E3230363220202020302E303030302043202020302020302020302020302020302020302020302020302020302020302020302020300A20202020302E333537322020202D312E3835363320202020302E30303030204F202020302020302020302020302020302020302020302020302020302020302020302020300A20202020302E3335373220202020312E3434333820202020302E303030302043202020302020302020302020302020302020302020302020302020302020302020302020300A2020202D302E3335373220202020312E3835363320202020302E30303030204F202020302020302020302020302020302020302020302020302020302020302020302020300A20202020312E3037313720202020312E3835363320202020302E30303030204F202020302020302020302020302020302020302020302020302020302020302020302020300A20202020312E3738363220202020312E3434333820202020302E303030302043202020302020302020302020302020302020302020302020302020302020302020302020300A2020312020322020312020302020202020200A2020322020332020312020302020202020200A2020332020342020312020302020202020200A2020342020352020312020302020202020200A2020352020362020312020302020202020200A2020362020372020312020302020202020200A2020372020382020312020302020202020200A2020382020392020312020302020202020200A2020392031302020312020302020202020200A2020312031302020312020302020202020200A2020352031302020312020302020202020200A2020342031312020322020302020202020200A2020312031322020312020302020202020200A2031322031332020322020302020202020200A2031322031342020312020302020202020200A2031342031352020312020302020202020200A4D2020454E44
Contributor: HISAHIRO HAGIWARA, CHEMICAL RESEARCH INSTITUTE OF NON-AQUEOUSSOLUTIONS TOHOKU UNIV.
InstType: EI
InstName: JEOL JMS-DX-300
IoniMethod: _ENERGY 70 eV
IonPolarity: pos
Date: 2010-10-09 19:48:36+02:00
Num Peaks: 67
32 157 39 53 41 338 51 51 53 179 54 132 55 364 65 98 67 298 68 144 
69 94 70 204 71 148 72 58 74 88 77 156 78 82 79 531 80 346 81 574 
82 169 83 682 85 63 87 2 91 346 92 54 93 194 94 353 95 423 96 88 
98 63 99 125 100 931 101 114 105 53 107 266 108 276 109 885 111 128 121 162 
122 230 123 125 124 316 125 68 128 512 129 65 132 130 133 685 134 62 139 67 
140 72 141 389 142 521 143 189 149 60 150 810 151 510 152 62 154 420 155 71 
167 82 178 100 179 252 182 186 192 64 210 999 211 135 
