Name: ISOEUGENOL
MW: 164
Formula: C10H12O2
Synonym: MassBank: JP009331
Synonym: ISOEUGENOL
Structure: 49534F455547454E4F4C2E6D6F6C0A20204368656D447261773038313131303231323032440A2031322031322020302020302020302020302020302020302020302020303939392056323030300A20202020312E3738363220202020302E3832353020202020302E30303030204F202020302020302020302020302020302020302020302020302020302020302020302020300A20202020312E3037313720202020302E3431323520202020302E303030302043202020302020302020302020302020302020302020302020302020302020302020302020300A20202020312E303731372020202D302E3431323520202020302E303030302043202020302020302020302020302020302020302020302020302020302020302020302020300A20202020312E373836322020202D302E3832353020202020302E30303030204F202020302020302020302020302020302020302020302020302020302020302020302020300A20202020322E353030362020202D302E3431323520202020302E303030302043202020302020302020302020302020302020302020302020302020302020302020302020300A20202020302E333537322020202D302E3832353020202020302E303030302043202020302020302020302020302020302020302020302020302020302020302020302020300A2020202D302E333537322020202D302E3431323520202020302E303030302043202020302020302020302020302020302020302020302020302020302020302020302020300A2020202D312E303731372020202D302E3832353020202020302E303030302043202020302020302020302020302020302020302020302020302020302020302020302020300A2020202D312E373836322020202D302E3431323520202020302E303030302043202020302020302020302020302020302020302020302020302020302020302020302020300A2020202D322E353030362020202D302E3832353020202020302E303030302043202020302020302020302020302020302020302020302020302020302020302020302020300A2020202D302E3335373220202020302E3431323520202020302E303030302043202020302020302020302020302020302020302020302020302020302020302020302020300A20202020302E3335373220202020302E3832353020202020302E303030302043202020302020302020302020302020302020302020302020302020302020302020302020300A2020312020322020312020302020202020200A2020322020332020312020302020202020200A2020332020342020312020302020202020200A2020342020352020312020302020202020200A2020332020362020322020302020202020200A2020362020372020312020302020202020200A2020372020382020312020302020202020200A2020382020392020322020302020202020200A2020392031302020312020302020202020200A2020372031312020322020302020202020200A2031312031322020312020302020202020200A2020322031322020322020302020202020200A4D2020454E44
Contributor: YAMAMOTO M, DEP. CHEMISTRY, FAC. SCIENCE, NARA WOMEN'S UNIV.
InstType: EI
InstName: HITACHI RMU-6M
IoniMethod: _ENERGY 70 eV
IonPolarity: pos
Date: 2010-10-09 19:48:36+02:00
Num Peaks: 56
27 57 28 23 29 13 38 2 39 108 40 16 41 42 43 4 50 34 51 96 
52 37 53 4 55 210 62 21 63 52 64 2 65 78 66 22 74 14 75 2 
76 13 77 221 78 54 79 5 81 20 82 27 89 23 91 15 92 23 93 44 
94 17 102 2 103 176 104 96 105 43 106 1 107 32 109 13 115 16 118 1 
119 17 120 12 121 129 122 2 131 167 132 54 133 120 134 2 135 11 137 53 
147 33 149 34 150 33 163 40 164 999 165 110 
