Name: MassBank: JP002143
MW: 180
Formula: C4H3F3N4O
Synonym: MassBank: JP002143
Synonym: 3-(N-TRIFLUOROACETYL)AMINO-1,2,4-TRIAZOLE
Structure: 332D284E2D545249464C554F524F41434554594C29414D494E4F2D312C322C342D545249415A4F4C452E6D6F6C0A20204368656D447261773032323231303131303832440A2031322031322020302020302020302020302020302020302020302020303939392056323030300A2020202D312E3434363220202020312E3638313320202020302E303030302043202020302020302020302020302020302020302020302020302020302020302020302020300A2020202D312E3434363220202020302E3835363320202020302E30303030204E202020302020302020302020302020302020302020302020302020302020302020302020300A2020202D302E3636313620202020302E3630313420202020302E303030302043202020302020302020302020302020302020302020302020302020302020302020302020300A2020202D302E3137363720202020312E3236383820202020302E30303030204E202020302020302020302020302020302020302020302020302020302020302020302020300A2020202D302E3636313620202020312E3933363320202020302E30303030204E202020302020302020302020302020302020302020302020302020302020302020302020300A2020202D302E343036372020202D302E3138333220202020302E30303030204E202020302020302020302020302020302020302020302020302020302020302020302020300A20202020302E343030332020202D302E3335343820202020302E303030302043202020302020302020302020302020302020302020302020302020302020302020302020300A20202020302E3935323320202020302E3235383320202020302E30303030204F202020302020302020302020302020302020302020302020302020302020302020302020300A20202020302E363535322020202D312E3133393420202020302E303030302043202020302020302020302020302020302020302020302020302020302020302020302020300A20202020302E383638372020202D312E3933363320202020302E303030302046202020302020302020302020302020302020302020302020302020302020302020302020300A20202020312E343436322020202D302E3930353120202020302E303030302046202020302020302020302020302020302020302020302020302020302020302020302020300A2020202D302E313335382020202D312E3337333720202020302E303030302046202020302020302020302020302020302020302020302020302020302020302020302020300A2020312020322020322020302020202020200A2020322020332020312020302020202020200A2020332020342020322020302020202020200A2020342020352020312020302020202020200A2020352020312020312020302020202020200A2020332020362020312020302020202020200A2020362020372020312020302020202020200A2020372020382020322020302020202020200A2020372020392020312020302020202020200A2020392031302020312020302020202020200A2020392031312020312020312020202020200A2020392031322020312020312020202020200A4D2020454E44
Contributor: KOGA M, UNIV. OF OCCUPATIONAL AND ENVIRONMENTAL HEALTH
InstType: EI
InstName: JEOL JMS-01-SG
IoniMethod: _ENERGY 70 eV
IonPolarity: pos
Date: 2010-10-09 19:48:36+02:00
Num Peaks: 9
50 81 51 92 53 61 67 10 69 650 111 427 149 51 180 999 181 56 
