Name: MassBank: JP009780
MW: 168
Formula: C10H16O2
Synonym: MassBank: JP009780
Synonym: 2,2-DIMETHYL-3-(2-METHYL-1-PROPENYL)CYCLOPROPANECARBOXYLIC ACID
Structure: 322C322D44494D455448594C2D332D28322D4D455448594C2D312D50524F50454E594C294359434C4F50524F50414E45434152424F58594C494320414349442E6D6F6C0A20204368656D447261773132323030393036343032440A2031322031322020302020302020302020302020302020302020302020303939392056323030300A20202020302E3030333620202020302E3736393720202020302E303030302043202020302020302020302020302020302020302020302020302020302020302020302020300A2020202D302E3731303820202020302E3335373220202020302E303030302043202020302020302020302020302020302020302020302020302020302020302020302020300A20202020302E303033362020202D302E3035353320202020302E303030302043202020302020302020302020302020302020302020302020302020302020302020302020300A20202020302E3431363120202020312E3438343220202020302E303030302043202020302020302020302020302020302020302020302020302020302020302020302020300A20202020312E3234313120202020312E3438343220202020302E30303030204F202020302020302020302020302020302020302020302020302020302020302020302020300A20202020302E3030333620202020322E3139383720202020302E30303030204F202020302020302020302020302020302020302020302020302020302020302020302020300A20202020302E343136312020202D302E3736393720202020302E303030302043202020302020302020302020302020302020302020302020302020302020302020302020300A20202020302E303033362020202D312E3438343220202020302E303030302043202020302020302020302020302020302020302020302020302020302020302020302020300A20202020302E343136312020202D322E3139383720202020302E303030302043202020302020302020302020302020302020302020302020302020302020302020302020300A2020202D302E383231342020202D312E3438343220202020302E303030302043202020302020302020302020302020302020302020302020302020302020302020302020300A2020202D312E3234313120202020302E3938393220202020302E303030302043202020302020302020302020302020302020302020302020302020302020302020302020300A2020202D312E323431312020202D302E3237343820202020302E303030302043202020302020302020302020302020302020302020302020302020302020302020302020300A2020312020322020312020302020202020200A2020322020332020312020302020202020200A2020312020332020312020302020202020200A2020342020352020322020302020202020200A2020342020362020312020302020202020200A2020312020342020312020302020202020200A2020372020382020322020302020202020200A2020382020392020312020302020202020200A2020382031302020312020302020202020200A2020332020372020312020302020202020200A2020322031312020312020312020202020200A2020322031322020312020362020202020200A4D2020454E44
Contributor: KURARAY CO., LTD.
InstType: EI
InstName: JEOL JMS-D-300
IoniMethod: _ENERGY 70 eV
IonPolarity: pos
Date: 2010-10-09 19:48:36+02:00
Num Peaks: 40
27 108 29 92 39 163 41 38 43 327 45 39 51 39 53 11 55 182 56 31 
57 85 59 5 65 61 67 224 68 33 69 32 77 78 79 149 81 635 82 6 
83 66 85 33 91 135 93 7 95 124 97 34 100 39 105 3 107 225 108 52 
109 70 111 8 112 33 123 999 124 110 125 21 135 47 153 272 168 363 169 36 
