Name: METHYL 4-HYDROXYBENZOATE
MW: 152
Formula: C8H8O3
Synonym: MassBank: JP002806
Synonym: METHYL 4-HYDROXYBENZOATE
Structure: 4D455448594C20342D485944524F585942454E5A4F4154452E6D6F6C0A20204368656D447261773038313131303233353732440A2031312031312020302020302020302020302020302020302020302020303939392056323030300A20202020312E343433382020202D302E3335373220202020302E303030302043202020302020302020302020302020302020302020302020302020302020302020302020300A20202020302E363138382020202D302E3335373220202020302E303030302043202020302020302020302020302020302020302020302020302020302020302020302020300A20202020302E323036322020202D312E3037313720202020302E303030302043202020302020302020302020302020302020302020302020302020302020302020302020300A2020202D302E363138382020202D312E3037313720202020302E303030302043202020302020302020302020302020302020302020302020302020302020302020302020300A2020202D312E303331332020202D302E3335373220202020302E303030302043202020302020302020302020302020302020302020302020302020302020302020302020300A2020202D302E3631383820202020302E3335373220202020302E303030302043202020302020302020302020302020302020302020302020302020302020302020302020300A20202020302E3230363220202020302E3335373220202020302E303030302043202020302020302020302020302020302020302020302020302020302020302020302020300A20202020312E383536332020202D312E3037313720202020302E30303030204F202020302020302020302020302020302020302020302020302020302020302020302020300A20202020312E3835363320202020302E3335373220202020302E30303030204F202020302020302020302020302020302020302020302020302020302020302020302020300A2020202D312E383536332020202D302E3335373220202020302E30303030204F202020302020302020302020302020302020302020302020302020302020302020302020300A20202020312E3434333820202020312E3037313720202020302E303030302043202020302020302020302020302020302020302020302020302020302020302020302020300A2020312020322020312020302020202020200A2020322020332020312020302020202020200A2020332020342020322020302020202020200A2020342020352020312020302020202020200A2020352020362020322020302020202020200A2020362020372020312020302020202020200A2020322020372020322020302020202020200A2020312020382020322020302020202020200A2020312020392020312020302020202020200A2020352031302020312020302020202020200A2020392031312020312020302020202020200A4D2020454E44
Contributor: SASAKI S, TOYOHASHI UNIV. OF TECH.
InstType: EI
InstName: Unknown
IoniMethod: EI
IonPolarity: pos
Date: 2010-10-09 19:48:36+02:00
Num Peaks: 74
14 1 15 13 17 1 18 1 26 2 27 5 28 17 29 1 30 1 31 4 
32 4 35 0 36 23 37 9 38 29 39 11 40 4 41 4 42 2 43 0 
44 1 45 1 46 4 47 0 49 2 50 14 51 10 52 0 53 25 54 2 
55 3 59 0 60 2 61 8 62 20 63 5 64 27 65 166 66 17 67 0 
69 1 73 2 74 8 75 1 76 2 77 4 78 1 79 0 80 3 81 2 
82 1 90 0 91 3 92 21 93 215 94 2 95 6 105 1 107 5 108 0 
109 3 119 2 120 9 121 999 122 82 123 13 124 1 135 0 136 2 150 1 
151 19 152 37 153 34 154 4 
