Name: MassBank: JP008004
MW: 320
Formula: C20H32O3
Synonym: MassBank: JP008004
Synonym: (2XI,4AS,5S,8AS)-(+)-2-CARBOMETHOXY-5BETA,8ABETA-DIMETHYL-5ALPHA-(4-METHYL-3-PENTENYL)-3,4,4A,5,6,7,8,8A-OCTAHYDRONAPHTHALEN-1(2H)-ONE
Structure: 283258492C3441532C35532C384153292D282B292D322D434152424F4D4554484F58592D35424554412C3841424554412D44494D455448594C2D35414C5048412D28342D4D455448594C2D332D50454E54454E594C292D332C342C34412C352C362C372C382C38412D4F435441485944524F4E4150485448414C454E2D31283248292D4F4E452E6D6F6C0A20204368656D447261773130323030393232333632440A2032342032352020302020302020302020302020302020302020302020303939392056323030300A2020202D312E343834312020202D312E3939333320202020302E303030302043202020302020302020302020302020302020302020302020302020302020302020302020300A2020202D302E373638352020202D302E3735353820202020302E303030302043202020302020302020302020302020302020302020302020302020302020302020302020300A2020202D302E373638352020202D312E3538303820202020302E303030302043202020302020302020302020302020302020302020302020302020302020302020302020300A2020202D302E303534312020202D312E3939333320202020302E303030302043202020302020302020302020302020302020302020302020302020302020302020302020300A20202020302E363630342020202D312E3538303820202020302E303030302043202020302020302020302020302020302020302020302020302020302020302020302020300A20202020302E363630342020202D302E3735353820202020302E303030302043202020302020302020302020302020302020302020302020302020302020302020302020300A2020202D302E303534312020202D302E3334333320202020302E303030302043202020302020302020302020302020302020302020302020302020302020302020302020300A20202020312E333734392020202D312E3939333320202020302E303030302043202020302020302020302020302020302020302020302020302020302020302020302020300A20202020322E303839332020202D312E3538303820202020302E303030302043202020302020302020302020302020302020302020302020302020302020302020302020300A20202020322E303839332020202D302E3735353820202020302E303030302043202020302020302020302020302020302020302020302020302020302020302020302020300A20202020312E333734392020202D302E3334333320202020302E303030302043202020302020302020302020302020302020302020302020302020302020302020302020300A2020202D302E303534312020202D322E3831383320202020302E30303030204F202020302020302020302020302020302020302020302020302020302020302020302020300A20202020302E3531373120202020302E3035363620202020302E303030302048202020302020302020302020302020302020302020302020302020302020302020302020300A20202020302E3936323420202020302E3337313120202020302E303030302043202020302020302020302020302020302020302020302020302020302020302020302020300A20202020312E3337343920202020312E3038353620202020302E303030302043202020302020302020302020302020302020302020302020302020302020302020302020300A20202020302E3936323420202020312E3830303120202020302E303030302043202020302020302020302020302020302020302020302020302020302020302020302020300A20202020312E3337343920202020322E3531343620202020302E303030302043202020302020302020302020302020302020302020302020302020302020302020302020300A20202020302E3936323420202020332E3232393020202020302E303030302043202020302020302020302020302020302020302020302020302020302020302020302020300A20202020322E3139393920202020322E3531343620202020302E303030302043202020302020302020302020302020302020302020302020302020302020302020302020300A2020202D322E313938332020202D312E3538303320202020302E30303030204F202020302020302020302020302020302020302020302020302020302020302020302020300A2020202D312E343834372020202D322E3831383320202020302E30303030204F202020302020302020302020302020302020302020302020302020302020302020302020300A20202020312E3935373920202020302E3234313120202020302E303030302043202020302020302020302020302020302020302020302020302020302020302020302020300A2020202D322E313939392020202D332E3232393020202020302E303030302043202020302020302020302020302020302020302020302020302020302020302020302020300A20202020302E363630312020202D322E3430353420202020302E303030302043202020302020302020302020302020302020302020302020302020302020302020302020300A2020322020332020312020302020202020200A2020332020342020312020302020202020200A2020342020352020312020302020202020200A2020352020362020312020302020202020200A2020362020372020312020302020202020200A2020372020322020312020302020202020200A2020352020382020312020302020202020200A2020382020392020312020302020202020200A2020392031302020312020302020202020200A2031302031312020312020302020202020200A2031312020362020312020302020202020200A2020342031322020322020302020202020200A2020362031332020312020362020202020200A2031312031342020312020362020202020200A2031342031352020312020302020202020200A2031352031362020312020302020202020200A2031362031372020322020302020202020200A2031372031382020312020302020202020200A2031372031392020312020302020202020200A2020332020312020312020302020202020200A2020312032302020322020302020202020200A2020312032312020312020302020202020200A2031312032322020312020302020202020200A2032312032332020312020302020202020200A2020352032342020312020312020202020200A4D202053545920203120202031205355500A4D2020534C4220203120202031202020310A4D202053414C20202031202031202032320A4D202053424C20202031202031202032330A4D2020534D5420202031204D650A4D2020534256202020312032332020202D352E3836323920202020372E393633350A4D202053545920203120202032205355500A4D2020534C4220203120202032202020320A4D202053414C20202032202031202032330A4D202053424C20202032202031202032340A4D2020534D5420202032204D650A4D2020534256202020322032342020202D372E3136313220202020362E393638340A4D202053545920203120202033205355500A4D2020534C4220203120202033202020330A4D202053414C20202033202031202032340A4D202053424C20202033202031202032350A4D2020534D5420202033204D650A4D2020534256202020332032352020202D362E3434363220202020362E353534350A4D2020454E44
Contributor: HISAHIRO HAGIWARA, CHEMICAL RESEARCH INSTITUTE OF NON-AQUEOUSSOLUTIONS TOHOKU UNIV.
InstType: EI
InstName: JEOL JMS-DX-300
IoniMethod: _ENERGY 70 eV
IonPolarity: pos
Date: 2010-10-09 19:48:36+02:00
Num Peaks: 75
41 316 43 79 55 283 67 118 68 58 69 604 79 69 81 237 82 129 83 203 
87 148 93 112 95 172 96 129 97 66 105 53 107 130 108 68 109 271 110 65 
121 124 122 136 123 247 124 61 129 108 133 60 134 67 135 26 136 266 137 127 
142 143 143 71 147 53 148 59 149 169 150 94 151 59 155 117 159 191 161 148 
162 59 163 115 165 66 166 148 167 106 168 879 169 146 175 80 176 133 177 127 
178 74 179 59 180 155 181 144 182 160 183 54 191 66 193 94 194 55 195 53 
203 92 205 158 207 80 217 99 219 237 220 46 221 103 235 70 273 272 274 52 
288 176 289 117 305 271 320 999 321 253 
