Name: 5-METHYLRESORCINOL
MW: 124
Formula: C7H8O2
Synonym: MassBank: JP004057
Synonym: 5-METHYLRESORCINOL
Structure: 310A32330A352D4D455448594C5245534F5243494E4F4C2E6D6F6C0A20204368656D447261773034323331303037323832440A2020392020392020302020302020302020302020302020302020302020303939392056323030300A2020202D312E323337352020202D302E3030303020202020302E30303030204F202020302020302020302020302020302020302020302020302020302020302020302020300A2020202D302E343132352020202D302E3030303020202020302E303030302043202020302020302020302020302020302020302020302020302020302020302020302020300A20202020302E3030303020202020302E3731343520202020302E303030302043202020302020302020302020302020302020302020302020302020302020302020302020300A20202020302E3832353020202020302E3731343520202020302E303030302043202020302020302020302020302020302020302020302020302020302020302020302020300A20202020312E3233373520202020312E3432383920202020302E30303030204F202020302020302020302020302020302020302020302020302020302020302020302020300A20202020312E323337352020202D302E3030303020202020302E303030302043202020302020302020302020302020302020302020302020302020302020302020302020300A20202020302E383235302020202D302E3731343520202020302E303030302043202020302020302020302020302020302020302020302020302020302020302020302020300A20202020302E303030302020202D302E3731343520202020302E303030302043202020302020302020302020302020302020302020302020302020302020302020302020300A20202020312E323337352020202D312E3432383920202020302E303030302043202020302020302020302020302020302020302020302020302020302020302020302020300A2020312020322020312020302020202020200A2020322020332020312020302020202020200A2020332020342020322020302020202020200A2020342020352020312020302020202020200A2020342020362020312020302020202020200A2020362020372020322020302020202020200A2020372020382020312020302020202020200A2020322020382020322020302020202020200A2020372020392020312020302020202020200A4D2020454E44
Contributor: MASS SPECTROSCOPY SOC. OF JAPAN (MSSJ)
InstType: EI
InstName: HITACHI RMU-6L
IoniMethod: _ENERGY 70 eV
IonPolarity: pos
Date: 2010-10-09 19:48:36+02:00
Num Peaks: 51
14 10 15 10 17 11 18 5 26 30 27 110 28 74 29 5 31 10 32 10 
37 29 38 7 39 224 40 40 41 122 42 4 43 113 45 12 50 70 51 13 
52 57 53 101 54 15 55 12 61 69 62 50 63 34 65 4 66 49 67 121 
68 9 69 12 74 13 77 100 78 91 79 2 81 50 82 10 83 10 84 1 
85 10 94 15 95 154 96 5 105 18 106 39 107 82 122 3 123 51 124 999 
125 70 
