Name: ORTHO-ISOPROPYLPHENOL
MW: 136
Formula: C9H12O
Synonym: MassBank: JP004038
Synonym: ORTHO-ISOPROPYLPHENOL
Structure: 4F5254484F2D49534F50524F50594C5048454E4F4C2E6D6F6C0A20204368656D447261773038313231303033333932440A2031302031302020302020302020302020302020302020302020302020303939392056323030300A2020202D302E3230363320202020302E3335373220202020302E303030302043202020302020302020302020302020302020302020302020302020302020302020302020300A20202020302E323036332020202D302E3335373220202020302E303030302043202020302020302020302020302020302020302020302020302020302020302020302020300A2020202D302E323036322020202D312E3037313720202020302E303030302043202020302020302020302020302020302020302020302020302020302020302020302020300A2020202D312E303331322020202D312E3037313720202020302E303030302043202020302020302020302020302020302020302020302020302020302020302020302020300A2020202D312E343433382020202D302E3335373220202020302E303030302043202020302020302020302020302020302020302020302020302020302020302020302020300A2020202D312E3033313320202020302E3335373220202020302E303030302043202020302020302020302020302020302020302020302020302020302020302020302020300A20202020312E303331332020202D302E3335373220202020302E303030302043202020302020302020302020302020302020302020302020302020302020302020302020300A20202020312E343433382020202D312E3037313720202020302E303030302043202020302020302020302020302020302020302020302020302020302020302020302020300A20202020312E3434333820202020302E3335373220202020302E303030302043202020302020302020302020302020302020302020302020302020302020302020302020300A20202020302E3230363320202020312E3037313720202020302E30303030204F202020302020302020302020302020302020302020302020302020302020302020302020300A2020312020322020312020302020202020200A2020322020332020322020302020202020200A2020332020342020312020302020202020200A2020342020352020322020302020202020200A2020352020362020312020302020202020200A2020312020362020322020302020202020200A2020372020382020312020302020202020200A2020372020392020312020302020202020200A2020322020372020312020302020202020200A2020312031302020312020302020202020200A4D2020454E44
Contributor: MASS SPECTROSCOPY SOC. OF JAPAN (MSSJ)
InstType: EI
InstName: HITACHI RMU-6L
IoniMethod: _ENERGY 70 eV
IonPolarity: pos
Date: 2010-10-09 19:48:36+02:00
Num Peaks: 46
37 5 38 45 39 280 40 4 41 143 42 28 43 69 45 5 45.5 40 46 24 
50 50 51 16 52 30 53 55 55 36 56 2 57 40 58 14 59 35 60 4 
60.5 298 61 20 62 20 63 6 64 16 65 84 66 30 67 5 69 20 74 12 
75 15 76 3 77 278 78 39 79 20 89 2 90 13 91 169 93 38 94 2 
95 18 103 281 107 46 115 2 121 999 136 302 
