Name: MassBank: JP007882
MW: 296
Formula: C21H16N2
Synonym: MassBank: JP007882
Synonym: 3,4,5-TRIPHENYLPYRAZOLE
Structure: 332C342C352D5452495048454E594C505952415A4F4C452E6D6F6C0A20204368656D447261773032323131303231353232440A2032332032362020302020302020302020302020302020302020302020303939392056323030300A20202020302E3431323520202020312E3837323320202020302E30303030204E202020302020302020302020302020302020302020302020302020302020302020302020300A2020202D302E3431323520202020312E3837323320202020302E30303030204E202020302020302020302020302020302020302020302020302020302020302020302020300A2020202D302E3636373420202020312E3038373720202020302E303030302043202020302020302020302020302020302020302020302020302020302020302020302020300A2020202D302E3030303020202020302E3630323720202020302E303030302043202020302020302020302020302020302020302020302020302020302020302020302020300A20202020302E3636373420202020312E3038373720202020302E303030302043202020302020302020302020302020302020302020302020302020302020302020302020300A20202020312E3435323120202020302E3833323720202020302E303030302043202020302020302020302020302020302020302020302020302020302020302020302020300A20202020312E3632333620202020302E3032353720202020302E303030302043202020302020302020302020302020302020302020302020302020302020302020302020300A20202020322E343038322020202D302E3232393220202020302E303030302043202020302020302020302020302020302020302020302020302020302020302020302020300A20202020332E3032313320202020302E3332323820202020302E303030302043202020302020302020302020302020302020302020302020302020302020302020302020300A20202020322E3834393820202020312E3132393820202020302E303030302043202020302020302020302020302020302020302020302020302020302020302020302020300A20202020322E3036353220202020312E3338343720202020302E303030302043202020302020302020302020302020302020302020302020302020302020302020302020300A2020202D302E303030302020202D302E3232323320202020302E303030302043202020302020302020302020302020302020302020302020302020302020302020302020300A2020202D302E373134352020202D302E3633343820202020302E303030302043202020302020302020302020302020302020302020302020302020302020302020302020300A2020202D302E373134352020202D312E3435393820202020302E303030302043202020302020302020302020302020302020302020302020302020302020302020302020300A20202020302E303030302020202D312E3837323320202020302E303030302043202020302020302020302020302020302020302020302020302020302020302020302020300A20202020302E373134352020202D312E3435393820202020302E303030302043202020302020302020302020302020302020302020302020302020302020302020302020300A20202020302E373134352020202D302E3633343820202020302E303030302043202020302020302020302020302020302020302020302020302020302020302020302020300A2020202D312E3435323120202020302E3833323720202020302E303030302043202020302020302020302020302020302020302020302020302020302020302020302020300A2020202D322E3036353220202020312E3338343720202020302E303030302043202020302020302020302020302020302020302020302020302020302020302020302020300A2020202D322E3834393820202020312E3132393820202020302E303030302043202020302020302020302020302020302020302020302020302020302020302020302020300A2020202D332E3032313320202020302E3332323820202020302E303030302043202020302020302020302020302020302020302020302020302020302020302020302020300A2020202D322E343038322020202D302E3232393220202020302E303030302043202020302020302020302020302020302020302020302020302020302020302020302020300A2020202D312E3632333620202020302E3032353720202020302E303030302043202020302020302020302020302020302020302020302020302020302020302020302020300A2020312020322020312020302020202020200A2020322020332020322020302020202020200A2020332020342020312020302020202020200A2020342020352020322020302020202020200A2020312020352020312020302020202020200A2020362020372020312020302020202020200A2020372020382020322020302020202020200A2020382020392020312020302020202020200A2020392031302020322020302020202020200A2031302031312020312020302020202020200A2020362031312020322020302020202020200A2020352020362020312020302020202020200A2031322031332020312020302020202020200A2031332031342020322020302020202020200A2031342031352020312020302020202020200A2031352031362020322020302020202020200A2031362031372020312020302020202020200A2031322031372020322020302020202020200A2020342031322020312020302020202020200A2031382031392020312020302020202020200A2031392032302020322020302020202020200A2032302032312020312020302020202020200A2032312032322020322020302020202020200A2032322032332020312020302020202020200A2031382032332020322020302020202020200A2020332031382020312020302020202020200A4D2020454E44
Contributor: SASAKI S, TOYOHASHI UNIV. OF TECH.
InstType: EI
InstName: MX-1303
IoniMethod: _ENERGY 50 eV
IonPolarity: pos
Date: 2010-10-09 19:48:36+02:00
Num Peaks: 67
27 20 28 65 29 10 38 1 39 52 40 21 41 18 42 5 43 178 50 10 
51 21 52 11 53 19 54 21 55 92 56 6 57 68 60 81 61 10 67 4 
68 18 69 55 70 28 71 4 73 46 77 48 78 17 79 2 81 28 82 20 
83 32 91 4 95 21 96 15 97 26 98 2 164 13 165 68 166 18 177 1 
178 16 179 11 189 27 190 3 191 39 192 55 193 25 207 11 208 24 241 13 
242 28 252 3 253 20 265 50 266 32 267 11 268 188 269 52 280 11 281 11 
282 32 293 31 294 60 295 62 296 999 297 232 298 29 
