Name: MassBank: JP006284
CAS: 118-69-4
MW: 159
Formula: C7H6Cl2
Synonym: MassBank: JP006284
Synonym: 2,6-DICHLOROTOLUENE
Structure: 310A32330A322C362D444943484C4F524F544F4C55454E452E6D6F6C0A20204368656D447261773132323130393033353932440A2020392020392020302020302020302020302020302020302020302020303939392056323030300A2020202D302E343132352020202D302E3030303020202020302E303030302043202020302020302020302020302020302020302020302020302020302020302020302020300A2020202D302E3030303020202020302E3731343520202020302E303030302043202020302020302020302020302020302020302020302020302020302020302020302020300A20202020312E323337352020202D302E3030303020202020302E303030302043202020302020302020302020302020302020302020302020302020302020302020302020300A2020202D302E303030302020202D302E3731343520202020302E303030302043202020302020302020302020302020302020302020302020302020302020302020302020300A20202020302E3832353020202020302E3731343520202020302E303030302043202020302020302020302020302020302020302020302020302020302020302020302020300A20202020302E383235302020202D302E3731343520202020302E303030302043202020302020302020302020302020302020302020302020302020302020302020302020300A2020202D312E323337352020202D302E3030303020202020302E303030302043202020302020302020302020302020302020302020302020302020302020302020302020300A2020202D302E343132352020202D312E3432383920202020302E3030303020436C2020302020302020302020302020302020302020302020302020302020302020302020300A2020202D302E3431323520202020312E3432383920202020302E3030303020436C2020302020302020302020302020302020302020302020302020302020302020302020300A2020312020322020312020302020202020200A2020312020342020322020302020202020200A2020322020352020322020302020202020200A2020332020352020312020302020202020200A2020332020362020322020302020202020200A2020342020362020312020302020202020200A2020312020372020312020302020202020200A2020342020382020312020302020202020200A2020322020392020312020302020202020200A4D2020454E44
Contributor: MASS SPECTROSCOPY SOC. OF JAPAN (MSSJ)
InstType: EI
InstName: HITACHI M-80
IoniMethod: _ENERGY 70 eV
IonPolarity: pos
Date: 2010-10-09 19:48:36+02:00
Num Peaks: 67
13 5 14 14 15 42 26 40 27 36 28 14 29 72 30 9 31 105 32 72 
35 26 36 28 37 69 38 73 39 123 40 8 43 33 44 51 45 8 47 16 
48 9 49 46 50 108 51 88 52 9 60 33 61 98 62 211 63 341 64 43 
65 15 72 22 73 124 74 58 75 67 76 6 84 29 85 49 86 64 87 75 
88 24 89 561 90 89 91 15 96 10 97 60 98 8 99 99 100 6 101 28 
109 10 110 5 111 4 123 69 124 146 125 999 126 150 127 449 128 36 133 16 
159 97 160 731 161 121 162 477 163 47 164 78 165 6 
