Name: ACETONE DIMETHYL ACETAL
CAS: 77-76-9
MW: 104
Formula: C5H12O2
Synonym: MassBank: JP006252
Synonym: ACETONE DIMETHYL ACETAL
Synonym: 2,2-DIMETHOXYPROPANE
Structure: 310A31380A414345544F4E452044494D455448594C2041434554414C2E6D6F6C0A20204368656D447261773036323431303138303532440A2020372020362020302020302020302020302020302020302020302020303939392056323030300A2020202D302E3431323520202020302E3731343520202020302E303030302043202020302020302020302020302020302020302020302020302020302020302020302020300A20202020302E3030303020202020302E3030303020202020302E303030302043202020302020302020302020302020302020302020302020302020302020302020302020300A20202020302E343132352020202D302E3731343520202020302E303030302043202020302020302020302020302020302020302020302020302020302020302020302020300A20202020302E3731343520202020302E3431323520202020302E30303030204F202020302020302020302020302020302020302020302020302020302020302020302020300A20202020312E3432383920202020302E3030303020202020302E303030302043202020302020302020302020302020302020302020302020302020302020302020302020300A2020202D302E373134352020202D302E3431323520202020302E30303030204F202020302020302020302020302020302020302020302020302020302020302020302020300A2020202D312E3432383920202020302E3030303020202020302E303030302043202020302020302020302020302020302020302020302020302020302020302020302020300A2020312020322020312020302020202020200A2020322020332020312020302020202020200A2020342020352020312020302020202020200A2020322020342020312020312020202020200A2020362020372020312020302020202020200A2020322020362020312020312020202020200A4D2020454E44
Contributor: MASS SPECTROSCOPY SOC. OF JAPAN (MSSJ)
InstType: EI
InstName: HITACHI M-80
IoniMethod: _ENERGY 70 eV
IonPolarity: pos
Date: 2010-10-09 19:48:36+02:00
Num Peaks: 39
12 17 13 49 14 176 15 650 16 13 17 18 18 31 19 18 25 25 26 158 
27 643 28 134 29 692 30 75 31 643 32 214 33 51 36 8 37 71 38 127 
39 536 40 167 41 642 42 999 43 298 44 12 45 80 46 26 47 8 53 8 
54 2 55 16 56 6 57 53 58 6 72 365 73 96 74 5 89 16 
