Name: CYCLOHEPTANE
MW: 98
Formula: C7H14
Synonym: MassBank: JP006796
Synonym: CYCLOHEPTANE
Structure: 310A31390A4359434C4F48455054414E452E6D6F6C0A20204368656D447261773039313531303035333032440A2020372020372020302020302020302020302020302020302020302020303939392056323030300A2020202D302E343132352020202D302E3930333620202020302E303030302043202020302020302020302020302020302020302020302020302020302020302020302020300A2020202D302E393236392020202D302E3235383620202020302E303030302043202020302020302020302020302020302020302020302020302020302020302020302020300A2020202D302E3734333320202020302E3534353720202020302E303030302043202020302020302020302020302020302020302020302020302020302020302020302020300A2020202D302E3030303020202020302E3930333620202020302E303030302043202020302020302020302020302020302020302020302020302020302020302020302020300A20202020302E3734333320202020302E3534353720202020302E303030302043202020302020302020302020302020302020302020302020302020302020302020302020300A20202020302E393236392020202D302E3235383620202020302E303030302043202020302020302020302020302020302020302020302020302020302020302020302020300A20202020302E343132352020202D302E3930333620202020302E303030302043202020302020302020302020302020302020302020302020302020302020302020302020300A2020312020322020312020302020202020200A2020322020332020312020302020202020200A2020332020342020312020302020202020200A2020342020352020312020302020202020200A2020352020362020312020302020202020200A2020362020372020312020302020202020200A2020312020372020312020302020202020200A4D2020454E44
Contributor: TAJIMA S, GUNMA COLLEGE OF TECHNOLOGY
InstType: EI
InstName: HITACHI RMU-7M
IoniMethod: _ENERGY 70 eV
IonPolarity: pos
Date: 2010-10-09 19:48:36+02:00
Num Peaks: 26
15 16 27 213 28 86 29 253 39 258 40 49 41 739 42 701 43 134 53 61 
54 109 55 901 56 999 57 180 67 67 68 202 69 554 70 801 71 47 82 33 
83 387 84 23 96 22 97 117 98 318 99 21 
