Name: DIMETHYL SULFOXIDE
MW: 78
Formula: C2H6OS
Synonym: MassBank: JP009138
Synonym: DIMETHYL SULFOXIDE
Structure: 310A31320A44494D455448594C2053554C464F584944452E6D6F6C0A20204368656D447261773038313131303137343032440A2020342020332020302020302020302020302020302020302020302020303939392056323030300A20202020302E3230363220202020302E3030303020202020302E303030302053202020302020302020302020302020302020302020302020302020302020302020302020300A20202020302E3631383820202020302E3731343520202020302E30303030204F202020302020302020302020302020302020302020302020302020302020302020302020300A20202020302E363138382020202D302E3731343520202020302E303030302043202020302020302020302020302020302020302020302020302020302020302020302020300A2020202D302E3631383820202020302E3030303020202020302E303030302043202020302020302020302020302020302020302020302020302020302020302020302020300A2020312020322020322020302020202020200A2020312020332020312020302020202020200A2020312020342020312020302020202020200A4D2020454E44
Contributor: SODA AROMATIC CO., LTD.
InstType: EI
InstName: HITACHI M-80B
IoniMethod: _ENERGY 70 eV
IonPolarity: pos
Date: 2010-10-09 19:48:36+02:00
Num Peaks: 25
13 11 14 35 15 200 27 66 29 103 31 79 32 18 33 36 34 38 35 53 
44 20 45 412 46 148 47 99 48 108 49 14 58 11 61 156 62 45 63 999 
64 19 65 39 78 715 79 20 80 29 
