Name: METHYL 3-CYCLOHEXYLPROPIONATE
MW: 170
Formula: C10H18O2
Synonym: MassBank: JP006917
Synonym: METHYL 3-CYCLOHEXYLPROPIONATE
Structure: 4359434C4F484558414E4550524F50494F4E49432041434944204D455448594C2045535445522E6D6F6C0A20204368656D447261773038313131303137323532440A2031322031322020302020302020302020302020302020302020302020303939392056323030300A20202020302E343132352020202D302E3335373220202020302E303030302043202020302020302020302020302020302020302020302020302020302020302020302020300A20202020302E3832353020202020302E3335373220202020302E303030302043202020302020302020302020302020302020302020302020302020302020302020302020300A20202020312E3635303020202020302E3335373220202020302E303030302043202020302020302020302020302020302020302020302020302020302020302020302020300A20202020322E303632352020202D302E3335373220202020302E303030302043202020302020302020302020302020302020302020302020302020302020302020302020300A20202020312E363530302020202D312E3037313720202020302E303030302043202020302020302020302020302020302020302020302020302020302020302020302020300A20202020302E383235302020202D312E3037313720202020302E303030302043202020302020302020302020302020302020302020302020302020302020302020302020300A2020202D312E3635303020202020302E3335373220202020302E303030302043202020302020302020302020302020302020302020302020302020302020302020302020300A2020202D302E3832353020202020302E3335373220202020302E303030302043202020302020302020302020302020302020302020302020302020302020302020302020300A2020202D302E343132352020202D302E3335373220202020302E303030302043202020302020302020302020302020302020302020302020302020302020302020302020300A2020202D322E3036323520202020312E3037313720202020302E30303030204F202020302020302020302020302020302020302020302020302020302020302020302020300A2020202D322E303632352020202D302E3335373220202020302E30303030204F202020302020302020302020302020302020302020302020302020302020302020302020300A2020202D312E363530302020202D312E3037313720202020302E303030302043202020302020302020302020302020302020302020302020302020302020302020302020300A2020312020322020312020302020202020200A2020322020332020312020302020202020200A2020332020342020312020302020202020200A2020342020352020312020302020202020200A2020352020362020312020302020202020200A2020312020362020312020302020202020200A2020372020382020312020302020202020200A2020382020392020312020302020202020200A2020372031302020322020302020202020200A2020372031312020312020302020202020200A2020312020392020312020302020202020200A2031312031322020312020302020202020200A4D2020454E44
Contributor: TAJIMA S, GUNMA COLLEGE OF TECHNOLOGY
InstType: EI
InstName: HITACHI M-80B
IoniMethod: _ENERGY 70 eV
IonPolarity: pos
Date: 2010-10-09 19:48:36+02:00
Num Peaks: 57
15 119 26 11 27 190 28 39 29 184 31 26 39 236 40 32 41 561 42 84 
43 259 44 11 45 21 51 18 52 13 53 110 54 128 55 809 56 63 57 130 
59 145 65 21 66 14 67 218 68 51 69 115 71 11 74 944 75 198 77 23 
79 51 80 12 81 147 82 36 83 132 84 11 85 14 87 999 88 196 89 13 
91 16 93 24 94 37 95 109 96 232 97 952 98 72 109 21 110 18 120 16 
121 105 137 10 138 37 139 120 141 109 142 11 170 11 
