Name: 4-FORMYL-7-METHOXYCOUMARIN
MW: 204
Formula: C11H8O4
Synonym: MassBank: JP006688
Synonym: 4-FORMYL-7-METHOXYCOUMARIN
Structure: 342D464F524D594C2D372D4D4554484F5859434F554D4152494E2E6D6F6C0A20204368656D447261773033323531303232313632440A2031352031362020302020302020302020302020302020302020302020303939392056323030300A20202020312E3037313720202020312E3434333820202020302E30303030204F202020302020302020302020302020302020302020302020302020302020302020302020300A20202020312E3738363220202020312E3033313320202020302E303030302043202020302020302020302020302020302020302020302020302020302020302020302020300A20202020322E3530303620202020312E3434333820202020302E30303030204F202020302020302020302020302020302020302020302020302020302020302020302020300A20202020312E3738363220202020302E3230363320202020302E303030302043202020302020302020302020302020302020302020302020302020302020302020302020300A20202020312E303731372020202D302E3230363220202020302E303030302043202020302020302020302020302020302020302020302020302020302020302020302020300A20202020302E3335373220202020302E3230363320202020302E303030302043202020302020302020302020302020302020302020302020302020302020302020302020300A2020202D302E333537322020202D302E3230363220202020302E303030302043202020302020302020302020302020302020302020302020302020302020302020302020300A2020202D312E3037313720202020302E3230363220202020302E303030302043202020302020302020302020302020302020302020302020302020302020302020302020300A2020202D312E3037313720202020312E3033313320202020302E303030302043202020302020302020302020302020302020302020302020302020302020302020302020300A2020202D302E3335373220202020312E3434333820202020302E303030302043202020302020302020302020302020302020302020302020302020302020302020302020300A20202020302E3335373220202020312E3033313320202020302E303030302043202020302020302020302020302020302020302020302020302020302020302020302020300A2020202D312E3738363220202020312E3434333820202020302E30303030204F202020302020302020302020302020302020302020302020302020302020302020302020300A2020202D322E3530303620202020312E3033313320202020302E303030302043202020302020302020302020302020302020302020302020302020302020302020302020300A20202020312E303731372020202D312E3033313220202020302E303030302043202020302020302020302020302020302020302020302020302020302020302020302020300A20202020312E373836322020202D312E3434333820202020302E30303030204F202020302020302020302020302020302020302020302020302020302020302020302020300A2020312020322020312020302020202020200A2020322020332020322020302020202020200A2020322020342020312020302020202020200A2020342020352020322020302020202020200A2020352020362020312020302020202020200A2020362020372020312020302020202020200A2020372020382020322020302020202020200A2020382020392020312020302020202020200A2020392031302020322020302020202020200A2031302031312020312020302020202020200A2020312031312020312020302020202020200A2020362031312020322020302020202020200A2031322031332020312020302020202020200A2020392031322020312020302020202020200A2031342031352020322020302020202020200A2020352031342020312020302020202020200A4D2020454E44
Contributor: MASS SPECTROSCOPY SOC. OF JAPAN (MSSJ)
InstType: EI
InstName: HITACHI RMU-6L
IoniMethod: _ENERGY 70 eV
IonPolarity: pos
Date: 2010-10-09 19:48:36+02:00
Num Peaks: 62
41 150 42 67 43 150 44 5 45 38 50 65 51 103 53 3 55 95 56 89 
57 137 60 3 61 31 62 71 63 75 64 3 65 45 67 30 69 87 70 8 
71 75 73 25 74 37 75 4 76 78 77 154 78 28 81 4 83 34 84 26 
85 36 86 3 87 36 88 55 89 59 90 5 91 62 97 32 98 26 99 3 
101 33 104 30 105 61 112 3 116 32 119 81 120 103 131 3 133 69 148 410 
149 67 153 14 154 28 155 26 161 196 162 3 175 104 176 235 177 33 204 999 
205 128 206 24 
