Name: 2-METHYL-2-(2-OXOPROPYL)CYCLOHEXANONE
MW: 168
Formula: C10H16O2
Synonym: MassBank: JP004757
Synonym: 2-METHYL-2-(2-OXOPROPYL)CYCLOHEXANONE
Structure: 322D4D455448594C2D322D28322D4F584F50524F50594C294359434C4F484558414E4F4E452E6D6F6C0A20204368656D447261773031323231303033303232440A2031322031322020302020302020302020302020302020302020302020303939392056323030300A2020202D302E303938302020202D312E3035333120202020302E303030302043202020302020302020302020302020302020302020302020302020302020302020302020300A2020202D302E303938302020202D302E3232383120202020302E303030302043202020302020302020302020302020302020302020302020302020302020302020302020300A2020202D302E3831323520202020302E3138343420202020302E303030302043202020302020302020302020302020302020302020302020302020302020302020302020300A2020202D312E353236392020202D302E3232383120202020302E303030302043202020302020302020302020302020302020302020302020302020302020302020302020300A2020202D312E353236392020202D312E3035333120202020302E303030302043202020302020302020302020302020302020302020302020302020302020302020302020300A2020202D302E383132352020202D312E3436353620202020302E303030302043202020302020302020302020302020302020302020302020302020302020302020302020300A20202020302E3138343220202020302E3534373120202020302E303030302043202020302020302020302020302020302020302020302020302020302020302020302020300A20202020302E3939363620202020302E3639303420202020302E303030302043202020302020302020302020302020302020302020302020302020302020302020302020300A20202020312E3237383820202020312E3436353620202020302E303030302043202020302020302020302020302020302020302020302020302020302020302020302020300A20202020312E3532363920202020302E3035383420202020302E30303030204F202020302020302020302020302020302020302020302020302020302020302020302020300A20202020302E373134352020202D302E3337313420202020302E303030302043202020302020302020302020302020302020302020302020302020302020302020302020300A20202020302E363136352020202D312E3436353620202020302E30303030204F202020302020302020302020302020302020302020302020302020302020302020302020300A2020312020322020312020302020202020200A2020322020332020312020302020202020200A2020332020342020312020302020202020200A2020342020352020312020302020202020200A2020352020362020312020302020202020200A2020312020362020312020302020202020200A2020372020382020312020302020202020200A2020382020392020312020302020202020200A2020382031302020322020302020202020200A2020322020372020312020302020202020200A2020322031312020312020302020202020200A2020312031322020322020302020202020200A4D2020454E44
Contributor: MASS SPECTROSCOPY SOC. OF JAPAN (MSSJ)
InstType: EI
InstName: JEOL JMS-D-3000
IoniMethod: _ENERGY 70 eV
IonPolarity: pos
Date: 2010-10-09 19:48:36+02:00
Num Peaks: 48
40 177 42 163 43 999 44 108 45 15 51 13 53 42 54 23 55 351 56 41 
57 21 58 63 59 26 67 109 68 31 69 102 70 26 71 26 73 26 77 17 
79 39 80 14 81 84 82 153 83 77 84 57 85 73 86 14 91 20 93 67 
95 28 97 89 98 43 107 42 108 42 109 34 110 86 111 570 112 62 122 32 
124 67 125 103 126 39 135 49 150 31 153 25 168 137 169 17 
