Name: ETHYL BROMOACETATE
MW: 165
Formula: C4H7BrO2
Synonym: MassBank: JP009384
Synonym: ETHYL BROMOACETATE
Synonym: BROMOACETIC ACID ETHYL ESTER
Structure: 310A31380A42524F4D4F414345544943204143494420455448594C2045535445522E6D6F6C0A20204368656D447261773038313131303136313132440A2020372020362020302020302020302020302020302020302020302020303939392056323030300A2020202D302E3230363220202020302E3030303020202020302E303030302043202020302020302020302020302020302020302020302020302020302020302020302020300A2020202D312E3033313320202020302E3030303020202020302E303030302043202020302020302020302020302020302020302020302020302020302020302020302020300A20202020302E3230363220202020302E3731343520202020302E30303030204F202020302020302020302020302020302020302020302020302020302020302020302020300A20202020302E323036332020202D302E3731343520202020302E30303030204F202020302020302020302020302020302020302020302020302020302020302020302020300A2020202D312E343433382020202D302E3731343520202020302E303030302042722020302020302020302020302020302020302020302020302020302020302020302020300A20202020312E303331332020202D302E3731343520202020302E303030302043202020302020302020302020302020302020302020302020302020302020302020302020300A20202020312E3434333820202020302E3030303020202020302E303030302043202020302020302020302020302020302020302020302020302020302020302020302020300A2020312020322020312020302020202020200A2020312020332020322020302020202020200A2020312020342020312020302020202020200A2020322020352020312020302020202020200A2020362020372020312020302020202020200A2020342020362020312020302020202020200A4D2020454E44
Contributor: GUNMA COLLEGE OF TECHNOLOGY
InstType: EI
InstName: HITACHI M-80A
IoniMethod: _ENERGY 70 eV
IonPolarity: pos
Date: 2010-10-09 19:48:36+02:00
Num Peaks: 31
15 76 26 53 27 312 28 97 29 999 30 22 31 40 41 35 42 228 43 180 
45 73 60 28 73 20 79 15 81 15 87 36 93 96 94 39 95 89 96 30 
107 19 109 19 121 163 122 12 123 159 138 67 139 22 140 66 141 22 166 44 
168 44 
