Name: 2-ETHYL-3-METHYLCYCLOPENT-2-EN-1-ONE
MW: 124
Formula: C8H12O
Synonym: MassBank: JP001126
Synonym: 2-ETHYL-3-METHYLCYCLOPENT-2-EN-1-ONE
Structure: 310A32330A322D455448594C2D332D4D455448594C4359434C4F50454E542D322D454E2D312D4F4E452E6D6F6C0A20204368656D447261773031303331303132353132440A2020392020392020302020302020302020302020302020302020302020303939392056323030300A20202020302E3436383920202020302E3636373420202020302E303030302043202020302020302020302020302020302020302020302020302020302020302020302020300A2020202D302E3031363020202020302E3030303020202020302E303030302043202020302020302020302020302020302020302020302020302020302020302020302020300A20202020302E343638392020202D302E3636373420202020302E303030302043202020302020302020302020302020302020302020302020302020302020302020302020300A20202020312E323533352020202D302E3431323520202020302E303030302043202020302020302020302020302020302020302020302020302020302020302020302020300A20202020312E3235333520202020302E3431323520202020302E303030302043202020302020302020302020302020302020302020302020302020302020302020302020300A20202020302E3231343020202020312E3435323120202020302E30303030204F202020302020302020302020302020302020302020302020302020302020302020302020300A20202020302E323134302020202D312E3435323120202020302E303030302043202020302020302020302020302020302020302020302020302020302020302020302020300A2020202D302E3834313020202020302E3030303020202020302E303030302043202020302020302020302020302020302020302020302020302020302020302020302020300A2020202D312E3235333520202020302E3731343520202020302E303030302043202020302020302020302020302020302020302020302020302020302020302020302020300A2020312020322020312020302020202020200A2020322020332020322020302020202020200A2020332020342020312020302020202020200A2020342020352020312020302020202020200A2020312020352020312020302020202020200A2020312020362020322020302020202020200A2020332020372020312020302020202020200A2020382020392020312020302020202020200A2020322020382020312020302020202020200A4D2020454E44
Contributor: NAKAYAMA M, MASS SPECTROSCOPY SOC. OF JAPAN (MSSJ)
InstType: EI
InstName: HITACHI RMU-7L
IoniMethod: _ENERGY 80 eV
IonPolarity: pos
Date: 2010-10-09 19:48:36+02:00
Num Peaks: 49
26 70 27 400 28 180 29 140 31 30 32 60 38 60 39 510 40 150 41 510 
42 80 43 100 50 80 51 160 52 110 53 390 54 120 55 180 56 60 57 30 
62 40 63 70 64 50 65 140 66 100 67 580 68 130 69 60 77 130 78 60 
79 250 80 110 81 999 82 380 83 50 85 40 91 70 92 30 93 50 94 30 
95 130 96 110 97 40 109 440 110 60 123 210 124 610 125 130 126 30 
