Name: MassBank: JP008782
MW: 94
Formula: C6H6O
Synonym: MassBank: JP008782
Synonym: PHENOL (2,3,4,5,6-D5)
Structure: 5048454E4F4C2028322C332C342C352C362D4435292E6D6F6C0A20204368656D447261773038313231303035313732440A2031322031322020302020302020302020302020302020302020302020303939392056323030300A2020202D302E383235302020202D302E3030303020202020302E303030302043202020302020302020302020302020302020302020302020302020302020302020302020300A2020202D302E3431323520202020302E3731343520202020302E303030302043202020302020302020302020302020302020302020302020302020302020302020302020300A20202020302E3431323520202020302E3731343520202020302E303030302043202020302020302020302020302020302020302020302020302020302020302020302020300A20202020302E383235302020202D302E3030303020202020302E303030302043202020302020302020302020302020302020302020302020302020302020302020302020300A20202020302E343132352020202D302E3731343520202020302E303030302043202020302020302020302020302020302020302020302020302020302020302020302020300A2020202D302E343132352020202D302E3731343520202020302E303030302043202020302020302020302020302020302020302020302020302020302020302020302020300A2020202D312E363530302020202D302E3030303020202020302E30303030204F202020302020302020302020302020302020302020302020302020302020302020302020300A2020202D302E383235302020202D312E3432383920202020302E303030302048202020312020302020302020302020302020302020302020302020302020302020302020300A20202020302E383235302020202D312E3432383920202020302E303030302048202020312020302020302020302020302020302020302020302020302020302020302020300A20202020312E363530302020202D302E3030303020202020302E303030302048202020312020302020302020302020302020302020302020302020302020302020302020300A20202020302E3832353020202020312E3432383920202020302E303030302048202020312020302020302020302020302020302020302020302020302020302020302020300A2020202D302E3832353020202020312E3432383920202020302E303030302048202020312020302020302020302020302020302020302020302020302020302020302020300A2020312020322020312020302020202020200A2020322020332020322020302020202020200A2020332020342020312020302020202020200A2020342020352020322020302020202020200A2020352020362020312020302020202020200A2020312020362020322020302020202020200A2020312020372020312020302020202020200A2020362020382020312020302020202020200A2020352020392020312020302020202020200A2020342031302020312020302020202020200A2020332031312020312020302020202020200A2020322031322020312020302020202020200A4D202049534F202035202020382020203220202039202020322020313020202032202031312020203220203132202020320A4D2020454E44
Contributor: UOEH
InstType: EI
InstName: HP 5970
IoniMethod: _ENERGY 70 eV
IonPolarity: pos
Date: 2010-10-09 19:48:36+02:00
Num Peaks: 43
34 6 35 12 38 63 39 20 40 118 41 100 42 292 43 136 44 64 45 8 
46 4 48 12 49 58 52 86 53 20 54 90 55 7 56 13 57 21 58 79 
60 6 61 3 62 21 64 33 65 11 66 58 67 9 68 28 69 141 70 188 
71 402 72 27 74 4 76 19 78 6 80 5 81 7 82 14 96 5 98 89 
99 999 100 62 101 4 
