Name: CYCLOHEXANE
MW: 84
Formula: C6H12
Synonym: MassBank: JP006890
Synonym: CYCLOHEXANE
Structure: 310A31370A4359434C4F484558414E452E6D6F6C0A20204368656D447261773039313531303035333532440A2020362020362020302020302020302020302020302020302020302020303939392056323030300A20202020302E373134352020202D302E3431323520202020302E303030302043202020302020302020302020302020302020302020302020302020302020302020302020300A2020202D302E303030302020202D302E3832353020202020302E303030302043202020302020302020302020302020302020302020302020302020302020302020302020300A2020202D302E373134352020202D302E3431323520202020302E303030302043202020302020302020302020302020302020302020302020302020302020302020302020300A2020202D302E3731343520202020302E3431323520202020302E303030302043202020302020302020302020302020302020302020302020302020302020302020302020300A20202020302E3030303020202020302E3832353020202020302E303030302043202020302020302020302020302020302020302020302020302020302020302020302020300A20202020302E3731343520202020302E3431323520202020302E303030302043202020302020302020302020302020302020302020302020302020302020302020302020300A2020312020322020312020302020202020200A2020322020332020312020302020202020200A2020332020342020312020302020202020200A2020342020352020312020302020202020200A2020352020362020312020302020202020200A2020312020362020312020302020202020200A4D2020454E44
Contributor: TAJIMA S, GUNMA COLLEGE OF TECHNOLOGY
InstType: EI
InstName: HITACHI M-80B
IoniMethod: _ENERGY 70 eV
IonPolarity: pos
Date: 2010-10-09 19:48:36+02:00
Num Peaks: 26
15 28 26 40 27 304 28 122 29 109 38 24 39 344 40 55 41 716 42 309 
43 128 50 23 51 37 52 16 53 56 54 64 55 379 56 999 57 37 67 29 
68 17 69 230 70 14 83 44 84 590 85 32 
