Name: MassBank: JP000780
MW: 336
Formula: C21H24N2O2
Synonym: MassBank: JP000780
Synonym: 12-PHENYLAZOBICYCLO(8.3.2)PENTADECA-1(13),10-DIEN-14,15-DIONE
Structure: 31322D5048454E594C415A4F42494359434C4F28382E332E322950454E5441444543412D31283133292C31302D4449454E2D31342C31352D44494F4E452E6D6F6C0A20204368656D447261773132313030393231343632440A2032352032372020302020302020302020302020302020302020302020303939392056323030300A2020202D312E3730383120202020302E3535323120202020302E303030302043202020302020302020302020302020302020302020302020302020302020302020302020300A2020202D322E3338383820202020302E3535323120202020302E303030302043202020302020302020302020302020302020302020302020302020302020302020302020300A2020202D322E3937383920202020302E3231313420202020302E303030302043202020302020302020302020302020302020302020302020302020302020302020302020300A2020202D332E333230352020202D302E3338303320202020302E303030302043202020302020302020302020302020302020302020302020302020302020302020302020300A2020202D332E333230352020202D312E3036353220202020302E303030302043202020302020302020302020302020302020302020302020302020302020302020302020300A2020202D322E393737312020202D312E3636303120202020302E303030302043202020302020302020302020302020302020302020302020302020302020302020302020300A2020202D322E333830382020202D322E3030343420202020302E303030302043202020302020302020302020302020302020302020302020302020302020302020302020300A2020202D312E363930382020202D322E3030343420202020302E303030302043202020302020302020302020302020302020302020302020302020302020302020302020300A2020202D312E303931322020202D312E3635383120202020302E303030302043202020302020302020302020302020302020302020302020302020302020302020302020300A2020202D302E373434382020202D312E3035383220202020302E303030302043202020302020302020302020302020302020302020302020302020302020302020302020300A2020202D302E313637322020202D302E3438303620202020302E303030302043202020302020302020302020302020302020302020302020302020302020302020302020300A2020202D302E3233383120202020302E3334353920202020302E303030302043202020302020302020302020302020302020302020302020302020302020302020302020300A2020202D302E3932313620202020302E3830323820202020302E303030302043202020302020302020302020302020302020302020302020302020302020302020302020300A2020202D322E303031312020202D302E3231343920202020302E303030302043202020302020302020302020302020302020302020302020302020302020302020302020300A2020202D312E353838362020202D302E3932393320202020302E303030302043202020302020302020302020302020302020302020302020302020302020302020302020300A2020202D322E383236302020202D302E3238343220202020302E30303030204F202020302020302020302020302020302020302020302020302020302020302020302020300A2020202D322E303435362020202D312E3631323920202020302E30303030204F202020302020302020302020302020302020302020302020302020302020302020302020300A20202020302E3437363420202020302E3735383420202020302E30303030204E202020302020302020302020302020302020302020302020302020302020302020302020300A20202020312E3138383520202020302E3334373220202020302E30303030204E202020302020302020302020302020302020302020302020302020302020302020302020300A20202020312E3930383820202020302E3736333120202020302E303030302043202020302020302020302020302020302020302020302020302020302020302020302020300A20202020312E3930383820202020312E3539363720202020302E303030302043202020302020302020302020302020302020302020302020302020302020302020302020300A20202020322E3631343920202020322E3030343420202020302E303030302043202020302020302020302020302020302020302020302020302020302020302020302020300A20202020332E3332303520202020312E3539373020202020302E303030302043202020302020302020302020302020302020302020302020302020302020302020302020300A20202020332E3332303520202020302E3738323420202020302E303030302043202020302020302020302020302020302020302020302020302020302020302020302020300A20202020322E3631353120202020302E3337353120202020302E303030302043202020302020302020302020302020302020302020302020302020302020302020302020300A2020312020322020312020302020202020200A2020322020332020312020302020202020200A2020332020342020312020302020202020200A2020342020352020312020302020202020200A2020352020362020312020302020202020200A2020362020372020312020302020202020200A2020372020382020312020302020202020200A2020382020392020312020302020202020200A2020392031302020312020302020202020200A2031302031312020322020302020202020200A2031312031322020312020302020202020200A2031322031332020312020302020202020200A2031342031352020312020302020202020200A2020312031332020322020302020202020200A2020312031342020312020302020202020200A2031302031352020312020302020202020200A2031342031362020322020302020202020200A2031352031372020322020302020202020200A2031382031392020322020302020202020200A2032302032312020312020302020202020200A2032312032322020322020302020202020200A2032322032332020312020302020202020200A2032332032342020322020302020202020200A2032342032352020312020302020202020200A2032302032352020322020302020202020200A2031392032302020312020302020202020200A2031322031382020312020302020202020200A4D2020454E44
Contributor: ITO S, DEPT. OF CHEM., TOHOKU UNIV.
InstType: EI
InstName: Unknown
IoniMethod: _ENERGY 25 eV
IonPolarity: pos
Date: 2010-10-09 19:48:36+02:00
Num Peaks: 134
73 30 76 40 77 999 78 47 79 300 80 55 81 130 82 3 83 40 90 45 
91 660 92 22 93 220 94 130 95 90 102 3 103 130 104 70 105 405 106 9 
107 260 108 90 109 70 115 16 116 65 117 180 118 70 119 13 120 280 121 260 
122 160 123 13 124 60 127 45 128 140 129 19 130 270 131 230 132 90 133 23 
134 90 135 95 136 150 137 10 138 30 141 80 142 40 143 22 144 170 145 180 
146 80 147 21 148 80 149 185 150 420 151 9 152 60 153 75 154 55 155 7 
157 210 158 155 159 70 160 6 161 335 162 120 163 230 164 7 165 85 166 35 
167 95 168 6 169 60 170 65 171 130 172 8 173 80 174 40 175 285 176 9 
177 95 178 40 179 30 181 5 182 70 183 110 184 40 185 60 186 475 187 95 
189 160 190 6 191 55 195 55 196 100 197 47 198 115 199 55 200 35 202 4 
203 120 204 45 209 45 210 3 211 35 212 35 213 90 214 9 215 50 217 45 
218 35 219 5 223 30 226 60 231 80 232 38 233 95 234 35 251 40 254 4 
262 130 263 30 265 35 273 5 279 30 280 85 281 30 290 8 291 35 301 90 
308 190 309 6 336 520 337 120 
