Name: MassBank: JP004277
MW: 144
Formula: C6H8O4
Synonym: MassBank: JP004277
Synonym: FUMARIC ACID DIMETHYL ESTER (1,1,1,8,8,8-D6)
Structure: 303835315F46554D4152494320414349442044494D455448594C2045535445522028312C312C312C382C382C382D4436292E6D6F6C0A20204368656D447261773039303631303230323332440A2031362031352020302020302020302020302020302020302020302020303939392056323030300A2020202D302E393436382020202D302E3239313320202020302E303030302043202020302020302020302020302020302020302020302020302020302020302020302020300A2020202D302E393436382020202D312E3131363320202020302E30303030204F202020302020302020302020302020302020302020302020302020302020302020302020300A2020202D312E3833313020202020302E3034323620202020302E30303030204F202020302020302020302020302020302020302020302020302020302020302020302020300A2020202D322E353436382020202D302E3336393820202020302E303030302043202020302020302020302020302020302020302020302020302020302020302020302020300A2020202D322E313333392020202D312E3038353020202020302E303030302048202020312020302020302020302020302020302020302020302020302020302020302020300A2020202D332E323630332020202D302E3738323420202020302E303030302048202020312020302020302020302020302020302020302020302020302020302020302020300A2020202D322E3935383820202020302E3334343120202020302E303030302048202020312020302020302020302020302020302020302020302020302020302020302020300A2020202D302E3236383320202020302E3137383020202020302E303030302043202020302020302020302020302020302020302020302020302020302020302020302020300A20202020302E343737342020202D302E3137353020202020302E303030302043202020302020302020302020302020302020302020302020302020302020302020302020300A20202020312E3135353920202020302E3239343220202020302E303030302043202020302020302020302020302020302020302020302020302020302020302020302020300A20202020312E393032342020202D302E3036303020202020302E30303030204F202020302020302020302020302020302020302020302020302020302020302020302020300A20202020312E3038393420202020312E3131363320202020302E30303030204F202020302020302020302020302020302020302020302020302020302020302020302020300A20202020322E3538313320202020302E3430383720202020302E303030302043202020302020302020302020302020302020302020302020302020302020302020302020300A20202020322E3131323720202020312E3038373620202020302E303030302048202020312020302020302020302020302020302020302020302020302020302020302020300A20202020332E3236303320202020302E3837373320202020302E303030302048202020312020302020302020302020302020302020302020302020302020302020302020300A20202020332E303530302020202D302E3237303320202020302E303030302048202020312020302020302020302020302020302020302020302020302020302020302020300A2020312020322020322020302020202020200A2020332020342020312020302020202020200A2020342020352020312020302020202020200A2020342020362020312020302020202020200A2020342020372020312020302020202020200A2020332020312020312020302020202020200A2020312020382020312020302020202020200A2020382020392020322020302020202020200A2020392031302020312020302020202020200A2031302031312020312020302020202020200A2031302031322020322020302020202020200A2031312031332020312020302020202020200A2031332031342020312020302020202020200A2031332031352020312020302020202020200A2031332031362020312020302020202020200A4D202049534F2020362020203520202032202020362020203220202037202020322020313420202032202031352020203220203136202020320A4D2020454E44
Contributor: TAJIMA S, GUNMA COLLEGE OF TECHNOLOGY
InstType: EI
InstName: HITACHI RMU-7M
IoniMethod: _ENERGY 70 eV
IonPolarity: pos
Date: 2010-10-09 19:48:36+02:00
Num Peaks: 20
26 84 30 38 41 28 42 16 44 35 53 140 54 73 62 251 81 29 82 30 
88 325 89 20 104 10 106 10 115 21 116 999 117 79 118 247 119 14 150 6 
