Name: EUGENOL
CAS: 97-53-0
MW: 164
Formula: C10H12O2
Synonym: MassBank: JP007575
Synonym: EUGENOL
Synonym: 2-METHOXY-4-(2-PROPENYL)PHENOL
Structure: 455547454E4F4C2E6D6F6C0A20204368656D447261773031323231303032303532440A2031322031322020302020302020302020302020302020302020302020303939392056323030300A20202020312E303731372020202D302E3431323520202020302E303030302043202020302020302020302020302020302020302020302020302020302020302020302020300A20202020312E3037313720202020302E3431323520202020302E303030302043202020302020302020302020302020302020302020302020302020302020302020302020300A20202020312E3738363220202020302E3832353020202020302E30303030204F202020302020302020302020302020302020302020302020302020302020302020302020300A20202020322E3530303620202020302E3431323520202020302E303030302043202020302020302020302020302020302020302020302020302020302020302020302020300A20202020302E3335373220202020302E3832353020202020302E303030302043202020302020302020302020302020302020302020302020302020302020302020302020300A2020202D302E3335373220202020302E3431323520202020302E303030302043202020302020302020302020302020302020302020302020302020302020302020302020300A2020202D312E3037313720202020302E3832353020202020302E303030302043202020302020302020302020302020302020302020302020302020302020302020302020300A2020202D312E3738363220202020302E3431323520202020302E303030302043202020302020302020302020302020302020302020302020302020302020302020302020300A2020202D322E3530303620202020302E3832353020202020302E303030302043202020302020302020302020302020302020302020302020302020302020302020302020300A2020202D302E333537322020202D302E3431323520202020302E303030302043202020302020302020302020302020302020302020302020302020302020302020302020300A20202020302E333537322020202D302E3832353020202020302E303030302043202020302020302020302020302020302020302020302020302020302020302020302020300A20202020312E373836322020202D302E3832353020202020302E30303030204F202020302020302020302020302020302020302020302020302020302020302020302020300A2020312020322020312020302020202020200A2020322020332020312020302020202020200A2020332020342020312020302020202020200A2020322020352020322020302020202020200A2020352020362020312020302020202020200A2020362020372020312020302020202020200A2020372020382020312020302020202020200A2020382020392020322020302020202020200A2020362031302020322020302020202020200A2031302031312020312020302020202020200A2020312031312020322020302020202020200A2020312031322020312020302020202020200A4D2020454E44
Contributor: TAKEUCHI T, DEP. CHEMISTRY, FAC. SCIENCE, NARA WOMEN'S UNIV.
InstType: EI
InstName: HITACHI M-80
IoniMethod: _ENERGY 20 eV
IonPolarity: pos
Date: 2010-10-09 19:48:36+02:00
Num Peaks: 20
39 57 41 30 51 60 55 105 63 25 65 47 77 146 78 40 91 106 103 152 
104 97 105 52 121 103 131 192 133 136 137 175 147 47 149 311 164 999 165 111 
