Name: MassBank: JP000483
MW: 113
Formula: C7H15N
Synonym: MassBank: JP000483
Synonym: 1,2-DIMETHYLPIPERIDINE
Structure: 310A32310A312C322D44494D455448594C50495045524944494E452E6D6F6C0A20204368656D447261773131303530393133313432440A2020382020382020302020302020302020302020302020302020302020303939392056323030300A2020202D302E3431323520202020302E3335373220202020302E30303030204E202020302020302020302020302020302020302020302020302020302020302020302020300A20202020302E3431323520202020302E3335373220202020302E303030302043202020302020302020302020302020302020302020302020302020302020302020302020300A20202020302E383235302020202D302E3335373220202020302E303030302043202020302020302020302020302020302020302020302020302020302020302020302020300A20202020302E343132352020202D312E3037313720202020302E303030302043202020302020302020302020302020302020302020302020302020302020302020302020300A2020202D302E343132352020202D312E3037313720202020302E303030302043202020302020302020302020302020302020302020302020302020302020302020302020300A2020202D302E383235302020202D302E3335373220202020302E303030302043202020302020302020302020302020302020302020302020302020302020302020302020300A20202020302E3832353020202020312E3037313720202020302E303030302043202020302020302020302020302020302020302020302020302020302020302020302020300A2020202D302E3832353020202020312E3037313720202020302E303030302043202020302020302020302020302020302020302020302020302020302020302020302020300A2020312020322020312020302020202020200A2020322020332020312020302020202020200A2020332020342020312020302020202020200A2020342020352020312020302020202020200A2020352020362020312020302020202020200A2020312020362020312020302020202020200A2020322020372020312020302020202020200A2020312020382020312020302020202020200A4D2020454E44
Contributor: SASAKI S, TOYOHASHI UNIV. OF TECH.
InstType: EI
InstName: MX-1303
IoniMethod: _ENERGY 50 eV
IonPolarity: pos
Date: 2010-10-09 19:48:36+02:00
Num Peaks: 52
26 23 27 157 28 142 29 8 30 117 38 15 39 206 40 4 41 335 42 777 
43 123 44 5 45 12 50 10 51 17 52 1 53 31 54 42 55 93 56 17 
57 185 58 38 65 11 66 1 67 25 68 41 69 27 70 33 71 50 72 22 
77 10 78 1 79 11 80 14 81 20 82 3 83 17 84 68 85 24 91 1 
93 10 94 21 95 10 96 6 97 18 98 999 99 92 110 2 111 18 112 83 
113 356 114 40 
