Name: MassBank: JP000103
MW: 170
Formula: C8H14N2O2
Synonym: MassBank: JP000103
Synonym: 3-METHYL-6-ISOPROPYL-2,5-PIPERADINEDIONE
Synonym: CYCLOALANYL-VALINE
Structure: 332D4D455448594C2D362D49534F50524F50594C2D322C352D50495045524144494E4544494F4E452E6D6F6C0A20204368656D447261773033323031303031343832440A2031322031322020302020302020302020302020302020302020302020303939392056323030300A2020202D302E323036322020202D302E3731343520202020302E30303030204E202020302020302020302020302020302020302020302020302020302020302020302020300A20202020302E363138382020202D302E3731343520202020302E303030302043202020302020302020302020302020302020302020302020302020302020302020302020300A20202020312E3033313320202020302E3030303020202020302E303030302043202020302020302020302020302020302020302020302020302020302020302020302020300A20202020302E3631383820202020302E3731343520202020302E30303030204E202020302020302020302020302020302020302020302020302020302020302020302020300A2020202D302E3230363220202020302E3731343520202020302E303030302043202020302020302020302020302020302020302020302020302020302020302020302020300A2020202D302E363138382020202D302E3030303020202020302E303030302043202020302020302020302020302020302020302020302020302020302020302020302020300A20202020312E303331332020202D312E3432383920202020302E30303030204F202020302020302020302020302020302020302020302020302020302020302020302020300A2020202D302E3631383720202020312E3432383920202020302E30303030204F202020302020302020302020302020302020302020302020302020302020302020302020300A2020202D312E343433372020202D302E3030303020202020302E303030302043202020302020302020302020302020302020302020302020302020302020302020302020300A2020202D312E383536322020202D302E3731343520202020302E303030302043202020302020302020302020302020302020302020302020302020302020302020302020300A2020202D312E3835363320202020302E3731343520202020302E303030302043202020302020302020302020302020302020302020302020302020302020302020302020300A20202020312E3835363320202020302E3030303020202020302E303030302043202020302020302020302020302020302020302020302020302020302020302020302020300A2020312020322020312020302020202020200A2020322020332020312020302020202020200A2020332020342020312020302020202020200A2020342020352020312020302020202020200A2020352020362020312020302020202020200A2020312020362020312020302020202020200A2020322020372020322020302020202020200A2020352020382020322020302020202020200A2020392031302020312020302020202020200A2020392031312020312020302020202020200A2020362020392020312020302020202020200A2020332031322020312020302020202020200A4D2020454E44
Contributor: YAMAMOTO M, DEP. CHEMISTRY, FAC. SCIENCE, NARA WOMEN'S UNIV.
InstType: EI
InstName: HITACHI RMU-6M
IoniMethod: _ENERGY 70 eV
IonPolarity: pos
Date: 2010-10-09 19:48:36+02:00
Num Peaks: 42
15 101 26 30 27 205 28 489 29 116 30 71 38 10 39 112 40 30 41 180 
42 180 43 149 44 999 45 35 53 14 54 37 55 132 56 140 57 78 58 18 
68 16 69 93 70 48 71 77 72 324 73 29 83 23 84 110 85 87 98 11 
99 228 100 29 111 16 112 23 113 263 114 21 127 125 128 944 129 69 155 14 
170 10 171 14 
