Name: CINNAMYL ALCOHOL
MW: 134
Formula: C9H10O
Synonym: MassBank: JP005390
Synonym: CINNAMYL ALCOHOL
Synonym: 3-PHENYL-2-PROPEN-1-OL
Structure: 43494E4E414D594C20414C434F484F4C2E6D6F6C0A20204368656D447261773033323331303132313532440A2031302031302020302020302020302020302020302020302020302020303939392056323030300A2020202D312E343238392020202D302E3832353020202020302E303030302043202020302020302020302020302020302020302020302020302020302020302020302020300A2020202D302E373134352020202D302E3431323520202020302E303030302043202020302020302020302020302020302020302020302020302020302020302020302020300A20202020302E303030302020202D302E3832353020202020302E303030302043202020302020302020302020302020302020302020302020302020302020302020302020300A20202020302E373134352020202D302E3431323520202020302E303030302043202020302020302020302020302020302020302020302020302020302020302020302020300A20202020302E3731343520202020302E3431323520202020302E303030302043202020302020302020302020302020302020302020302020302020302020302020302020300A20202020312E3432383920202020302E3832353020202020302E303030302043202020302020302020302020302020302020302020302020302020302020302020302020300A20202020322E3134333420202020302E3431323520202020302E303030302043202020302020302020302020302020302020302020302020302020302020302020302020300A20202020322E313433342020202D302E3431323520202020302E303030302043202020302020302020302020302020302020302020302020302020302020302020302020300A20202020312E343238392020202D302E3832353020202020302E303030302043202020302020302020302020302020302020302020302020302020302020302020302020300A2020202D322E313433342020202D302E3431323520202020302E30303030204F202020302020302020302020302020302020302020302020302020302020302020302020300A2020312020322020312020302020202020200A2020322020332020322020302020202020200A2020332020342020312020302020202020200A2020342020352020312020302020202020200A2020352020362020322020302020202020200A2020362020372020312020302020202020200A2020372020382020322020302020202020200A2020382020392020312020302020202020200A2020342020392020322020302020202020200A2020312031302020312020302020202020200A4D2020454E44
Contributor: YAMAOKA R, KYOTO INSTITUTE OF TECHNOLOGY
InstType: EI
InstName: SHIMADZU QP-1000
IoniMethod: _ENERGY 70 eV
IonPolarity: pos
Date: 2010-10-09 19:48:36+02:00
Num Peaks: 55
40 59 41 303 42 29 43 4 44 97 45 40 46 148 50 1 51 182 52 417 
53 97 54 5 55 273 56 58 57 63 58 3 59 22 61 21 63 65 64 18 
65 125 66 35 73 31 74 6 75 55 76 62 77 453 78 54 79 279 80 19 
86 20 87 3 88 13 89 109 91 682 92 89 93 71 101 18 102 101 103 30 
104 65 105 573 106 75 107 4 115 657 116 228 117 132 118 3 119 19 131 64 
132 50 133 30 134 999 135 104 147 10 
