Name: 2-ETHYLBUTYRALDEHYDE
MW: 100
Formula: C6H12O
Synonym: MassBank: JP006768
Synonym: 2-ETHYLBUTYRALDEHYDE
Synonym: 2-ETHYLBUTANAL
Structure: 310A31380A322D455448594C4255545952414C4445485944452E6D6F6C0A20204368656D447261773031303331303132353832440A2020372020362020302020302020302020302020302020302020302020303939392056323030300A2020202D302E3335373220202020302E3431323520202020302E303030302043202020302020302020302020302020302020302020302020302020302020302020302020300A20202020302E333537322020202D302E3030303020202020302E303030302043202020302020302020302020302020302020302020302020302020302020302020302020300A20202020312E3037313720202020302E3431323520202020302E303030302043202020302020302020302020302020302020302020302020302020302020302020302020300A20202020312E3037313720202020312E3233373520202020302E303030302043202020302020302020302020302020302020302020302020302020302020302020302020300A2020202D312E303731372020202D302E3030303020202020302E30303030204F202020302020302020302020302020302020302020302020302020302020302020302020300A20202020302E333537322020202D302E3832353020202020302E303030302043202020302020302020302020302020302020302020302020302020302020302020302020300A20202020312E303731372020202D312E3233373520202020302E303030302043202020302020302020302020302020302020302020302020302020302020302020302020300A2020312020322020312020302020202020200A2020322020332020312020302020202020200A2020332020342020312020302020202020200A2020312020352020322020302020202020200A2020362020372020312020302020202020200A2020322020362020312020302020202020200A4D2020454E44
Contributor: YAMAMOTO M, DEP. CHEMISTRY, FAC. SCIENCE, NARA WOMEN'S UNIV.
InstType: EI
InstName: HITACHI RMU-6M
IoniMethod: _ENERGY 70 eV
IonPolarity: pos
Date: 2010-10-09 19:48:36+02:00
Num Peaks: 26
15 15 26 20 27 203 28 22 29 217 31 13 38 13 39 127 40 15 41 237 
42 42 43 999 44 33 51 11 53 22 54 13 55 98 56 22 57 109 58 29 
70 11 71 221 72 302 73 13 82 51 100 40 
