Name: MassBank: JP004877
MW: 556
Formula: C31H64O4Si2
Synonym: MassBank: JP004877
Synonym: METHYL 9,10-BIS(TERT-BUTYLDIMETHYLSILOXY)OCTADEC-12(Z)-ENOATE
Structure: 4D455448594C20392C31302D42495328544552542D425554594C44494D455448594C53494C4F5859294F4354414445432D3132285A292D454E4F4154452E6D6F6C0A20204368656D447261773038313231303030303632440A2033372033362020302020302020302020302020302020302020302020303939392056323030300A2020202D322E3236383720202020332E3332353620202020302E303030302043202020302020302020302020302020302020302020302020302020302020302020302020300A2020202D322E3638313320202020322E3631313220202020302E303030302043202020302020302020302020302020302020302020302020302020302020302020302020300A2020202D322E3236383720202020312E3839363720202020302E303030302043202020302020302020302020302020302020302020302020302020302020302020302020300A2020202D322E3638313220202020312E3138323220202020302E303030302043202020302020302020302020302020302020302020302020302020302020302020302020300A2020202D322E3236383720202020302E3436373820202020302E303030302043202020302020302020302020302020302020302020302020302020302020302020302020300A2020202D322E363831322020202D302E3234363720202020302E303030302043202020302020302020302020302020302020302020302020302020302020302020302020300A2020202D322E323638372020202D302E3936313220202020302E303030302043202020302020302020302020302020302020302020302020302020302020302020302020300A2020202D312E343433372020202D302E3936313220202020302E303030302043202020302020302020302020302020302020302020302020302020302020302020302020300A2020202D312E303331322020202D312E3637353620202020302E303030302043202020302020302020302020302020302020302020302020302020302020302020302020300A2020202D302E323036322020202D312E3637353620202020302E303030302043202020302020302020302020302020302020302020302020302020302020302020302020300A20202020302E323036332020202D302E3936313220202020302E303030302043202020302020302020302020302020302020302020302020302020302020302020302020300A2020202D302E323036322020202D302E3234363720202020302E303030302043202020302020302020302020302020302020302020302020302020302020302020302020300A20202020302E3230363320202020302E3436373820202020302E303030302043202020302020302020302020302020302020302020302020302020302020302020302020300A20202020312E3033313220202020302E3436373820202020302E303030302043202020302020302020302020302020302020302020302020302020302020302020302020300A20202020312E343433382020202D302E3234363720202020302E303030302043202020302020302020302020302020302020302020302020302020302020302020302020300A20202020322E323638382020202D302E3234363720202020302E303030302043202020302020302020302020302020302020302020302020302020302020302020302020300A20202020322E363831332020202D302E3936313220202020302E303030302043202020302020302020302020302020302020302020302020302020302020302020302020300A20202020332E353036332020202D302E3936313220202020302E303030302043202020302020302020302020302020302020302020302020302020302020302020302020300A2020202D312E3434333820202020332E3332353620202020302E30303030204F202020302020302020302020302020302020302020302020302020302020302020302020300A2020202D322E3638313320202020342E3034303120202020302E30303030204F202020302020302020302020302020302020302020302020302020302020302020302020300A20202020302E323036332020202D322E3339303120202020302E30303030204F202020302020302020302020302020302020302020302020302020302020302020302020300A20202020312E303331332020202D322E3339303120202020302E303030302053692020302020302020302020302020302020302020302020302020302020302020302020300A20202020312E303331332020202D312E3536353120202020302E303030302043202020302020302020302020302020302020302020302020302020302020302020302020300A20202020312E383536332020202D322E3339303120202020302E303030302043202020302020302020302020302020302020302020302020302020302020302020302020300A20202020312E303331332020202D332E3231353120202020302E303030302043202020302020302020302020302020302020302020302020302020302020302020302020300A20202020312E303331332020202D342E3034303120202020302E303030302043202020302020302020302020302020302020302020302020302020302020302020302020300A20202020302E323036332020202D332E3231353120202020302E303030302043202020302020302020302020302020302020302020302020302020302020302020302020300A20202020312E383536332020202D332E3231353120202020302E303030302043202020302020302020302020302020302020302020302020302020302020302020302020300A2020202D312E343433372020202D322E3339303120202020302E30303030204F202020302020302020302020302020302020302020302020302020302020302020302020300A2020202D322E323638372020202D322E3339303120202020302E303030302053692020302020302020302020302020302020302020302020302020302020302020302020300A2020202D332E303933372020202D322E3339303120202020302E303030302043202020302020302020302020302020302020302020302020302020302020302020302020300A2020202D322E323638372020202D312E3536353120202020302E303030302043202020302020302020302020302020302020302020302020302020302020302020302020300A2020202D322E323638372020202D332E3231353120202020302E303030302043202020302020302020302020302020302020302020302020302020302020302020302020300A2020202D312E343433372020202D332E3231353120202020302E303030302043202020302020302020302020302020302020302020302020302020302020302020302020300A2020202D322E323638372020202D342E3034303120202020302E303030302043202020302020302020302020302020302020302020302020302020302020302020302020300A2020202D332E303933372020202D332E3231353120202020302E303030302043202020302020302020302020302020302020302020302020302020302020302020302020300A2020202D332E3530363320202020342E3034303120202020302E303030302043202020302020302020302020302020302020302020302020302020302020302020302020300A2020312020322020312020302020202020200A2020322020332020312020302020202020200A2020332020342020312020302020202020200A2020342020352020312020302020202020200A2020352020362020312020302020202020200A2020362020372020312020302020202020200A2020372020382020312020302020202020200A2020382020392020312020302020202020200A2020392031302020312020302020202020200A2031302031312020312020302020202020200A2031312031322020312020302020202020200A2031322031332020322020302020202020200A2031332031342020312020302020202020200A2031342031352020312020302020202020200A2031352031362020312020302020202020200A2031362031372020312020302020202020200A2031372031382020312020302020202020200A2020312031392020322020302020202020200A2020312032302020312020302020202020200A2032312032322020312020302020202020200A2032322032332020312020302020202020200A2032322032342020312020302020202020200A2032352032362020312020302020202020200A2032352032382020312020302020202020200A2032352032372020312020302020202020200A2032322032352020312020302020202020200A2031302032312020312020302020202020200A2032392033302020312020302020202020200A2033302033312020312020302020202020200A2033302033322020312020302020202020200A2033332033342020312020302020202020200A2033332033362020312020302020202020200A2033332033352020312020302020202020200A2033302033332020312020302020202020200A2020392032392020312020302020202020200A2032302033372020312020302020202020200A4D2020454E44
Contributor: KATO T, DEPT. OF CHEM., FAC. OF SCI., TOHOKU UNIV.
InstType: EI
InstName: Unknown
IoniMethod: _ENERGY 35 eV
IonPolarity: pos
Date: 2010-10-09 19:48:36+02:00
Num Peaks: 79
540 23 550 199 560 23 570 55 590 114 670 187 680 21 690 162 710 18 730 999 
740 113 750 286 760 20 770 20 790 41 810 147 820 18 830 48 850 29 890 167 
910 25 930 38 950 105 970 27 990 30 1010 41 1070 37 1090 104 1130 17 1150 106 
1170 19 1190 20 1210 35 1230 55 1250 23 1290 17 1310 26 1330 124 1340 19 1350 23 
1370 44 1390 16 1450 23 1470 546 1480 95 1490 116 1550 145 1560 17 1630 143 1640 24 
1650 19 1710 42 1850 18 1890 191 1900 39 1910 22 1970 19 2050 16 2190 65 2430 67 
2540 42 2550 335 2560 78 2570 26 2790 26 2930 92 2940 19 3010 452 3020 118 3030 33 
3130 162 3140 39 3290 27 3750 31 4450 62 4460 24 4990 106 5000 42 5010 17 
