Name: MassBank: JP005792
CAS: 106-24-1
MW: 154
Formula: C10H18O
Synonym: MassBank: JP005792
Synonym: (E)-3,7-DIMETHYL-2,6-OCTADIEN-1-OL
Synonym: GERANIOL
Structure: 2845292D332C372D44494D455448594C2D322C362D4F4354414449454E2D312D4F4C2E6D6F6C0A20204368656D447261773130323230393133313232440A2031322031312020302020302020302020302020302020302020302020303939392056323030300A2020202D312E343433382020202D312E3037313720202020302E303030302043202020302020302020302020302020302020302020302020302020302020302020302020300A2020202D302E363138382020202D312E3037313720202020302E303030302043202020302020302020302020302020302020302020302020302020302020302020302020300A2020202D312E383536332020202D312E3738363220202020302E303030302043202020302020302020302020302020302020302020302020302020302020302020302020300A2020202D312E383536332020202D302E3335373220202020302E303030302043202020302020302020302020302020302020302020302020302020302020302020302020300A2020202D302E323036322020202D302E3335373220202020302E303030302043202020302020302020302020302020302020302020302020302020302020302020302020300A20202020302E363138382020202D302E3335373220202020302E303030302043202020302020302020302020302020302020302020302020302020302020302020302020300A20202020312E3033313320202020302E3335373220202020302E303030302043202020302020302020302020302020302020302020302020302020302020302020302020300A20202020312E3835363320202020302E3335373220202020302E303030302043202020302020302020302020302020302020302020302020302020302020302020302020300A20202020302E3631383820202020312E3037313720202020302E303030302043202020302020302020302020302020302020302020302020302020302020302020302020300A20202020312E3033313320202020312E3738363220202020302E303030302043202020302020302020302020302020302020302020302020302020302020302020302020300A2020202D302E3230363220202020312E3037313720202020302E303030302048202020302020302020302020302020302020302020302020302020302020302020302020300A20202020312E3835363320202020312E3738363220202020302E30303030204F202020302020302020302020302020302020302020302020302020302020302020302020300A2020312020322020322020302020202020200A2020312020332020312020302020202020200A2020312020342020312020302020202020200A2020322020352020312020302020202020200A2020352020362020312020302020202020200A2020362020372020312020302020202020200A2020372020382020312020302020202020200A2020372020392020322020302020202020200A2020392031302020312020302020202020200A2020392031312020312020302020202020200A2031302031322020312020302020202020200A4D2020454E44
Contributor: FUJISE Y, HAMAMATSU UNIV. SCHOOL OF MEDICINE
InstType: EI
InstName: JEOL JMS-D-300
IoniMethod: _ENERGY 70 eV
IonPolarity: pos
Date: 2010-10-09 19:48:36+02:00
Num Peaks: 46
51 41 52 24 53 95 54 10 55 86 57 10 59 16 63 11 65 43 66 16 
67 177 68 253 69 557 70 41 71 48 77 206 78 32 79 222 80 176 81 79 
82 14 83 18 84 31 91 239 92 174 93 999 94 126 95 27 96 17 97 10 
103 15 105 86 106 28 107 81 108 19 109 12 111 22 115 10 117 11 119 33 
121 259 122 30 123 30 136 228 137 26 154 10 
