Name: 3-INDOLEACRYLIC ACID METHYL ESTER
MW: 201
Formula: C12H11NO2
Synonym: MassBank: JP002652
Synonym: 3-INDOLEACRYLIC ACID METHYL ESTER
Structure: 332D494E444F4C45414352594C49432041434944204D455448594C2045535445522E6D6F6C0A20204368656D447261773032323231303231343332440A2031352031362020302020302020302020302020302020302020302020303939392056323030300A20202020302E393439362020202D312E3430313020202020302E30303030204E202020302020302020302020302020302020302020302020302020302020302020302020300A20202020302E313935392020202D312E3036353520202020302E303030302043202020302020302020302020302020302020302020302020302020302020302020302020300A20202020302E323832312020202D302E3234353020202020302E303030302043202020302020302020302020302020302020302020302020302020302020302020302020300A20202020312E303839312020202D302E3037333520202020302E303030302043202020302020302020302020302020302020302020302020302020302020302020302020300A20202020312E3530313620202020302E3634313020202020302E303030302043202020302020302020302020302020302020302020302020302020302020302020302020300A20202020322E3332363620202020302E3634313020202020302E303030302043202020302020302020302020302020302020302020302020302020302020302020302020300A20202020322E373339312020202D302E3037333520202020302E303030302043202020302020302020302020302020302020302020302020302020302020302020302020300A20202020322E333236362020202D302E3738373920202020302E303030302043202020302020302020302020302020302020302020302020302020302020302020302020300A20202020312E353031362020202D302E3738373920202020302E303030302043202020302020302020302020302020302020302020302020302020302020302020302020300A2020202D312E3732383720202020302E3630343120202020302E303030302043202020302020302020302020302020302020302020302020302020302020302020302020300A2020202D312E3131353620202020302E3035323120202020302E303030302043202020302020302020302020302020302020302020302020302020302020302020302020300A2020202D302E3333313020202020302E3330373020202020302E303030302043202020302020302020302020302020302020302020302020302020302020302020302020300A2020202D312E3531353220202020312E3430313020202020302E30303030204F202020302020302020302020302020302020302020302020302020302020302020302020300A2020202D322E3532353620202020302E3339303620202020302E30303030204F202020302020302020302020302020302020302020302020302020302020302020302020300A2020202D322E373339312020202D302E3430363320202020302E303030302043202020302020302020302020302020302020302020302020302020302020302020302020300A2020312020322020312020302020202020200A2020322020332020322020302020202020200A2020332020342020312020302020202020200A2020342020352020312020302020202020200A2020352020362020322020302020202020200A2020362020372020312020302020202020200A2020372020382020322020302020202020200A2020382020392020312020302020202020200A2020312020392020312020302020202020200A2020342020392020322020302020202020200A2031302031312020312020302020202020200A2031312031322020322020302020202020200A2031302031332020322020302020202020200A2031302031342020312020302020202020200A2020332031322020312020302020202020200A2031342031352020312020302020202020200A4D2020454E44
Contributor: KOGA M, UNIV. OF OCCUPATIONAL AND ENVIRONMENTAL HEALTH
InstType: EI
InstName: JEOL JMS-01-SG
IoniMethod: _ENERGY 70 eV
IonPolarity: pos
Date: 2010-10-09 19:48:36+02:00
Num Peaks: 21
42 40 63 56 67 81 70 7 71 130 89 56 100 97 107 7 114 121 115 463 
116 56 130 13 140 56 141 154 142 170 143 20 156 97 170 999 171 130 201 84 
202 65 
