Name: ALLYL PROPYL SULFIDE
MW: 116
Formula: C6H12S
Synonym: MassBank: JP009126
Synonym: ALLYL PROPYL SULFIDE
Structure: 310A31380A414C4C594C2050524F50594C2053554C464944452E6D6F6C0A20204368656D447261773038303631303034323832440A2020372020362020302020302020302020302020302020302020302020303939392056323030300A20202020302E3030303020202020302E3230363320202020302E303030302053202020302020302020302020302020302020302020302020302020302020302020302020300A2020202D302E373134352020202D302E3230363320202020302E303030302043202020302020302020302020302020302020302020302020302020302020302020302020300A2020202D312E3432383920202020302E3230363320202020302E303030302043202020302020302020302020302020302020302020302020302020302020302020302020300A2020202D322E313433342020202D302E3230363320202020302E303030302043202020302020302020302020302020302020302020302020302020302020302020302020300A20202020302E373134352020202D302E3230363220202020302E303030302043202020302020302020302020302020302020302020302020302020302020302020302020300A20202020312E3432383920202020302E3230363320202020302E303030302043202020302020302020302020302020302020302020302020302020302020302020302020300A20202020322E313433342020202D302E3230363220202020302E303030302043202020302020302020302020302020302020302020302020302020302020302020302020300A2020322020332020312020302020202020200A2020332020342020312020302020202020200A2020312020322020312020302020202020200A2020352020362020312020302020202020200A2020362020372020322020302020202020200A2020312020352020312020302020202020200A4D2020454E44
Contributor: SODA AROMATIC CO., LTD.
InstType: EI
InstName: HITACHI
IoniMethod: _ENERGY 70 eV
IonPolarity: pos
Date: 2010-10-09 19:48:36+02:00
Num Peaks: 36
15 37 26 23 27 238 28 13 29 45 37 17 38 46 39 468 40 42 41 999 
42 57 43 134 45 493 46 127 47 207 48 10 53 49 55 14 58 36 59 84 
60 16 61 19 69 17 71 52 72 39 73 247 74 783 75 113 76 37 85 40 
87 300 88 17 89 20 116 422 117 27 118 17 
