Name: N-(12-AMINODODECYL)-2-PYRROLIDONE
MW: 268
Formula: C16H32N2O
Synonym: MassBank: JP004139
Synonym: N-(12-AMINODODECYL)-2-PYRROLIDONE
Structure: 4E2D2831322D414D494E4F444F444543594C292D322D505952524F4C49444F4E452E6D6F6C0A20204368656D447261773038313231303031303432440A2031392031392020302020302020302020302020302020302020302020303939392056323030300A20202020332E393931322020202D302E3037353320202020302E30303030204E202020302020302020302020302020302020302020302020302020302020302020302020300A20202020342E3734343920202020302E3236303320202020302E303030302043202020302020302020302020302020302020302020302020302020302020302020302020300A20202020352E323936392020202D302E3335323820202020302E303030302043202020302020302020302020302020302020302020302020302020302020302020302020300A20202020342E383834342020202D312E3036373320202020302E303030302043202020302020302020302020302020302020302020302020302020302020302020302020300A20202020342E303737342020202D302E3839353720202020302E303030302043202020302020302020302020302020302020302020302020302020302020302020302020300A20202020342E3931363420202020312E3036373320202020302E30303030204F202020302020302020302020302020302020302020302020302020302020302020302020300A20202020332E3237363720202020302E3333373220202020302E303030302043202020302020302020302020302020302020302020302020302020302020302020302020300A20202020322E353632332020202D302E3037353320202020302E303030302043202020302020302020302020302020302020302020302020302020302020302020302020300A20202020312E3834373820202020302E3333373220202020302E303030302043202020302020302020302020302020302020302020302020302020302020302020302020300A20202020312E313333332020202D302E3037353320202020302E303030302043202020302020302020302020302020302020302020302020302020302020302020302020300A20202020302E3431383920202020302E3333373220202020302E303030302043202020302020302020302020302020302020302020302020302020302020302020302020300A2020202D302E323935362020202D302E3037353320202020302E303030302043202020302020302020302020302020302020302020302020302020302020302020302020300A2020202D312E3031303120202020302E3333373220202020302E303030302043202020302020302020302020302020302020302020302020302020302020302020302020300A2020202D312E373234362020202D302E3037353320202020302E303030302043202020302020302020302020302020302020302020302020302020302020302020302020300A2020202D322E3433393020202020302E3333373220202020302E303030302043202020302020302020302020302020302020302020302020302020302020302020302020300A2020202D332E313533352020202D302E3037353320202020302E303030302043202020302020302020302020302020302020302020302020302020302020302020302020300A2020202D332E3836383020202020302E3333373220202020302E303030302043202020302020302020302020302020302020302020302020302020302020302020302020300A2020202D342E353832342020202D302E3037353320202020302E303030302043202020302020302020302020302020302020302020302020302020302020302020302020300A2020202D352E3239363920202020302E3333373220202020302E30303030204E202020302020302020302020302020302020302020302020302020302020302020302020300A2020312020322020312020302020202020200A2020322020332020312020302020202020200A2020332020342020312020302020202020200A2020342020352020312020302020202020200A2020312020352020312020302020202020200A2020322020362020322020302020202020200A2020372020382020312020302020202020200A2020382020392020312020302020202020200A2020392031302020312020302020202020200A2031302031312020312020302020202020200A2031312031322020312020302020202020200A2031322031332020312020302020202020200A2031332031342020312020302020202020200A2031342031352020312020302020202020200A2031352031362020312020302020202020200A2031362031372020312020302020202020200A2031372031382020312020302020202020200A2031382031392020312020302020202020200A2020312020372020312020302020202020200A4D2020454E44
Contributor: MASS SPECTROSCOPY SOC. OF JAPAN (MSSJ)
InstType: EI
InstName: HITACHI RMU-6E
IoniMethod: _ENERGY 70 eV
IonPolarity: pos
Date: 2010-10-09 19:48:36+02:00
Num Peaks: 107
27 38 28 140 29 58 30 65 31 10 32 20 39 52 40 2 41 320 42 100 
43 140 44 13 45 28 53 24 54 26 55 22 56 120 57 44 58 20 59 3 
65 6 66 6 67 40 68 6 69 190 70 390 71 38 72 3 73 16 79 10 
80 8 81 2 82 18 83 54 84 52 85 2 86 140 87 26 95 12 96 3 
97 26 98 999 99 600 100 8 101 14 109 8 110 6 111 1 112 280 113 140 
114 40 115 1 124 26 125 10 126 130 127 9 128 22 129 12 138 10 139 0 
140 76 141 48 142 40 143 1 149 14 152 10 153 4 154 10 155 44 156 50 
157 18 158 0 168 90 169 40 170 160 171 3 181 2 182 100 183 34 184 2 
185 6 194 4 195 4 196 13 197 26 198 8 209 8 210 10 211 56 212 8 
222 8 223 1 224 110 225 42 226 14 227 0 238 32 239 170 240 40 241 0 
251 8 252 40 253 8 267 2 268 140 269 40 270 4 
