Name: NORETHINDRONE
MW: 298
Formula: C20H26O2
Synonym: MassBank: JP006234
Synonym: NORETHINDRONE
Structure: 313038395F4E4F52455448494E44524F4E452E6D6F6C0A20204368656D447261773039303631303232323232440A2032362032392020302020302020302020302020302020302020302020303939392056323030300A2020202D322E313637392020202D302E3933323920202020302E303030302043202020302020302020302020302020302020302020302020302020302020302020302020300A2020202D322E313637392020202D312E3735373920202020302E303030302043202020302020302020302020302020302020302020302020302020302020302020302020300A2020202D312E343533342020202D322E3137303420202020302E303030302043202020302020302020302020302020302020302020302020302020302020302020302020300A2020202D302E373339302020202D312E3735373920202020302E303030302043202020302020302020302020302020302020302020302020302020302020302020302020300A2020202D302E373339302020202D302E3933323920202020302E303030302043202020302020302020302020302020302020302020302020302020302020302020302020300A2020202D312E343533342020202D302E3532303420202020302E303030302043202020302020302020302020302020302020302020302020302020302020302020302020300A2020202D302E303234352020202D322E3137303420202020302E303030302043202020302020302020302020302020302020302020302020302020302020302020302020300A20202020302E363930302020202D312E3735373920202020302E303030302043202020302020302020302020302020302020302020302020302020302020302020302020300A20202020302E363930302020202D302E3933323920202020302E303030302043202020302020302020302020302020302020302020302020302020302020302020302020300A2020202D302E303234352020202D302E3532303420202020302E303030302043202020302020302020302020302020302020302020302020302020302020302020302020300A20202020312E343034352020202D302E3532303420202020302E303030302043202020302020302020302020302020302020302020302020302020302020302020302020300A20202020312E3430343520202020302E3330343620202020302E303030302043202020302020302020302020302020302020302020302020302020302020302020302020300A20202020302E3639303020202020302E3731373120202020302E303030302043202020302020302020302020302020302020302020302020302020302020302020302020300A2020202D302E3032343520202020302E3330343620202020302E303030302043202020302020302020302020302020302020302020302020302020302020302020302020300A20202020322E313839312020202D302E3737353320202020302E303030302043202020302020302020302020302020302020302020302020302020302020302020302020300A20202020322E363734302020202D302E3130373920202020302E303030302043202020302020302020302020302020302020302020302020302020302020302020302020300A20202020322E3138393120202020302E3535393520202020302E303030302043202020302020302020302020302020302020302020302020302020302020302020302020300A2020202D322E383832342020202D322E3137303420202020302E30303030204F202020302020302020302020302020302020302020302020302020302020302020302020300A2020202D312E303131322020202D302E3135343120202020302E303030302048202020302020302020302020302020302020302020302020302020302020302020302020300A20202020312E313432332020202D312E3632323920202020302E303030302048202020302020302020302020302020302020302020302020302020302020302020302020300A20202020322E3838323420202020312E3030363720202020302E303030302043202020302020302020302020302020302020302020302020302020302020302020302020300A20202020312E3234333720202020312E3131333820202020302E303030302043202020302020302020302020302020302020302020302020302020302020302020302020300A2020202D302E3538343820202020302E3038353120202020302E303030302048202020302020302020302020302020302020302020302020302020302020302020302020300A20202020312E353137372020202D312E3333373620202020302E303030302048202020302020302020302020302020302020302020302020302020302020302020302020300A20202020322E3031393220202020312E3336363920202020302E303030302043202020302020302020302020302020302020302020302020302020302020302020302020300A20202020322E3230363220202020322E3137303420202020302E303030302043202020302020302020302020302020302020302020302020302020302020302020302020300A2020312020322020312020302020202020200A2020322020332020312020302020202020200A2020332020342020322020302020202020200A2020342020352020312020302020202020200A2020352020362020312020302020202020200A2020362020312020312020302020202020200A2020342020372020312020302020202020200A2020372020382020312020302020202020200A2020382020392020312020302020202020200A2020392031302020312020302020202020200A2031302020352020312020302020202020200A2020392031312020312020302020202020200A2031312031322020312020302020202020200A2031322031332020312020302020202020200A2031332031342020312020302020202020200A2031342031302020312020302020202020200A2031312031352020312020302020202020200A2031352031362020312020302020202020200A2031362031372020312020302020202020200A2031372031322020312020302020202020200A2020322031382020322020302020202020200A2020352031392020312020312020202020200A2020392032302020312020312020202020200A2031372032312020312020312020202020200A2031322032322020312020312020202020200A2031302032332020312020362020202020200A2031312032342020312020362020202020200A2031372032352020312020362020202020200A2032352032362020332020302020202020200A4D2020454E44
Contributor: MASS SPECTROSCOPY SOC. OF JAPAN (MSSJ)
InstType: EI
InstName: HITACHI M-80
IoniMethod: _ENERGY 70 eV
IonPolarity: pos
Date: 2010-10-09 19:48:36+02:00
Num Peaks: 205
36 30 38 23 39 599 40 171 41 999 42 129 43 467 44 68 45 36 50 33 
51 176 52 121 53 663 54 126 55 693 56 79 57 154 58 20 59 13 60 25 
61 111 62 16 63 63 64 49 65 322 66 138 67 554 68 354 69 179 70 46 
71 73 72 16 73 17 74 16 75 17 76 24 77 703 78 224 79 783 80 183 
81 527 82 98 83 131 84 35 85 51 87 19 89 34 90 36 91 950 92 180 
93 369 94 125 95 245 96 74 97 167 98 26 99 17 100 14 102 31 103 120 
104 87 105 471 106 159 107 348 108 186 109 249 110 508 111 99 112 16 113 15 
114 12 115 201 116 80 117 258 118 106 119 267 120 239 121 302 122 202 123 169 
124 105 125 34 126 17 127 41 128 130 129 164 130 60 131 197 132 98 133 191 
134 176 135 250 136 75 137 82 138 20 139 19 140 12 141 64 142 51 143 90 
144 58 145 183 146 113 147 223 148 129 149 130 150 38 151 29 152 35 153 25 
154 22 155 61 156 37 157 83 158 77 159 175 160 256 161 172 162 249 163 87 
164 27 165 30 166 12 167 29 168 22 169 58 170 64 171 97 172 69 173 182 
174 114 175 148 176 53 177 58 178 33 179 18 180 13 181 23 182 17 183 44 
184 36 185 50 186 68 187 106 188 112 189 128 190 41 191 21 193 16 195 29 
196 24 197 54 198 36 199 58 200 42 201 68 202 58 203 29 209 24 210 23 
211 34 212 62 213 130 214 66 215 272 216 59 217 67 218 32 219 14 223 30 
224 25 225 23 226 37 227 32 228 123 229 43 230 77 231 517 232 101 233 14 
237 23 238 26 239 18 240 16 241 57 242 31 243 19 244 21 251 18 252 28 
254 13 255 31 256 54 265 28 269 44 270 89 271 21 272 45 279 12 280 33 
283 52 297 15 298 768 299 172 300 28 
