Name: METHYL 4-TRIMETHYLSILYLMETHYL-3-CYCLOHEXENECARBOXYLATE
MW: 226
Formula: C12H22O2Si
Synonym: MassBank: JP002509
Synonym: METHYL 4-TRIMETHYLSILYLMETHYL-3-CYCLOHEXENECARBOXYLATE
Structure: 4D455448594C20342D5452494D455448594C53494C594C4D455448594C2D332D4359434C4F484558454E45434152424F58594C4154452E6D6F6C0A20204368656D447261773038313231303030303032440A2031352031352020302020302020302020302020302020302020302020303939392056323030300A2020202D312E3037313720202020302E3135313020202020302E303030302043202020302020302020302020302020302020302020302020302020302020302020302020300A2020202D302E3335373220202020302E3536333520202020302E303030302043202020302020302020302020302020302020302020302020302020302020302020302020300A20202020302E3335373220202020302E3135313020202020302E303030302043202020302020302020302020302020302020302020302020302020302020302020302020300A20202020302E333537322020202D302E3637343020202020302E303030302043202020302020302020302020302020302020302020302020302020302020302020302020300A2020202D302E333537322020202D312E3038363520202020302E303030302043202020302020302020302020302020302020302020302020302020302020302020302020300A2020202D312E303731372020202D302E3637343020202020302E303030302043202020302020302020302020302020302020302020302020302020302020302020302020300A2020202D312E3738363220202020302E3536333520202020302E303030302043202020302020302020302020302020302020302020302020302020302020302020302020300A2020202D312E3738363220202020312E3338383520202020302E30303030204F202020302020302020302020302020302020302020302020302020302020302020302020300A2020202D322E3530303620202020302E3135313020202020302E30303030204F202020302020302020302020302020302020302020302020302020302020302020302020300A20202020312E303731372020202D312E3038363520202020302E303030302043202020302020302020302020302020302020302020302020302020302020302020302020300A20202020312E373836322020202D302E3637343020202020302E303030302053692020302020302020302020302020302020302020302020302020302020302020302020300A20202020312E3337333720202020302E3034303520202020302E303030302043202020302020302020302020302020302020302020302020302020302020302020302020300A20202020322E353030362020202D302E3236313520202020302E303030302043202020302020302020302020302020302020302020302020302020302020302020302020300A20202020322E313938372020202D312E3338383520202020302E303030302043202020302020302020302020302020302020302020302020302020302020302020302020300A2020202D322E353030362020202D302E3637343020202020302E303030302043202020302020302020302020302020302020302020302020302020302020302020302020300A2020312020322020312020302020202020200A2020322020332020312020302020202020200A2020332020342020322020302020202020200A2020342020352020312020302020202020200A2020352020362020312020302020202020200A2020312020362020312020302020202020200A2020372020382020322020302020202020200A2020372020392020312020302020202020200A2020312020372020312020302020202020200A2031312031322020312020302020202020200A2031312031332020312020302020202020200A2031312031342020312020302020202020200A2031302031312020312020302020202020200A2020342031302020312020302020202020200A2020392031352020312020302020202020200A4D2020454E44
Contributor: MASS SPECTROSCOPY SOC. OF JAPAN (MSSJ)
InstType: EI
InstName: JEOL JMS-D-3000
IoniMethod: _ENERGY 70 eV
IonPolarity: pos
Date: 2010-10-09 19:48:36+02:00
Num Peaks: 43
59 96 61 92 71 131 72 24 73 782 74 76 75 999 76 73 77 94 79 49 
85 28 91 122 92 29 93 135 94 32 110 33 115 28 117 65 119 201 121 70 
125 38 127 37 135 39 136 37 141 110 143 531 144 74 145 30 149 84 151 24 
155 31 156 54 165 68 167 98 168 24 169 29 183 507 184 90 185 26 193 74 
211 138 212 25 226 16 
