Name: MassBank: JP005789
CAS: 79-77-6
MW: 192
Formula: C13H20O
Synonym: MassBank: JP005789
Synonym: (E)-4-(2,6,6-TRIMETHYL-1-CYCLOHEXEN-1-YL)-3-BUTEN-2-ONE
Synonym: BETA-IONONE
Structure: 2845292D342D28322C362C362D5452494D455448594C2D312D4359434C4F484558454E2D312D594C292D332D425554454E2D322D4F4E452E6D6F6C0A20204368656D447261773130323230393136343432440A2031362031362020302020302020302020302020302020302020302020303939392056323030300A2020202D302E363733332020202D302E3832353020202020302E303030302043202020302020302020302020302020302020302020302020302020302020302020302020300A2020202D302E363733332020202D312E3635303020202020302E303030302043202020302020302020302020302020302020302020302020302020302020302020302020300A20202020302E303431322020202D322E3036323520202020302E303030302043202020302020302020302020302020302020302020302020302020302020302020302020300A20202020302E373535372020202D312E3635303020202020302E303030302043202020302020302020302020302020302020302020302020302020302020302020302020300A20202020302E373535372020202D302E3832353020202020302E303030302043202020302020302020302020302020302020302020302020302020302020302020302020300A20202020302E303431322020202D302E3431323520202020302E303030302043202020302020302020302020302020302020302020302020302020302020302020302020300A20202020312E343730322020202D302E3431323520202020302E303030302043202020302020302020302020302020302020302020302020302020302020302020302020300A20202020302E3034313220202020302E3431323520202020302E303030302043202020302020302020302020302020302020302020302020302020302020302020302020300A2020202D312E303835382020202D302E3131303520202020302E303030302043202020302020302020302020302020302020302020302020302020302020302020302020300A2020202D312E343730322020202D312E3033383520202020302E303030302043202020302020302020302020302020302020302020302020302020302020302020302020300A20202020302E3735353720202020302E3832353020202020302E303030302048202020302020302020302020302020302020302020302020302020302020302020302020300A2020202D302E3637333320202020302E3832353020202020302E303030302043202020302020302020302020302020302020302020302020302020302020302020302020300A2020202D302E3637333320202020312E3635303020202020302E303030302043202020302020302020302020302020302020302020302020302020302020302020302020300A2020202D312E3338373720202020302E3431323520202020302E303030302048202020302020302020302020302020302020302020302020302020302020302020302020300A20202020302E3034313220202020322E3036323520202020302E30303030204F202020302020302020302020302020302020302020302020302020302020302020302020300A2020202D312E3338373720202020322E3036323520202020302E303030302043202020302020302020302020302020302020302020302020302020302020302020302020300A2020312020322020312020302020202020200A2020322020332020312020302020202020200A2020332020342020312020302020202020200A2020342020352020312020302020202020200A2020352020362020322020302020202020200A2020362020312020312020302020202020200A2020352020372020312020302020202020200A2020362020382020312020302020202020200A2020312020392020312020312020202020200A2020312031302020312020362020202020200A2020382031312020312020302020202020200A2020382031322020322020302020202020200A2031322031332020312020302020202020200A2031322031342020312020302020202020200A2031332031352020322020302020202020200A2031332031362020312020302020202020200A4D2020454E44
Contributor: FUJISE Y, HAMAMATSU UNIV. SCHOOL OF MEDICINE
InstType: EI
InstName: JEOL JMS-D-300
IoniMethod: _ENERGY 70 eV
IonPolarity: pos
Date: 2010-10-09 19:48:36+02:00
Num Peaks: 46
52 24 53 11 54 36 55 17 65 39 67 35 69 56 71 30 77 65 78 16 
79 66 80 10 81 52 91 99 92 17 93 112 94 19 95 79 96 14 105 64 
106 12 107 82 108 15 109 64 110 20 117 16 119 62 121 83 122 69 123 43 
131 16 133 60 134 16 135 141 136 44 147 11 149 71 150 11 159 44 161 15 
162 33 177 999 178 142 179 10 192 101 193 16 
