Name: MassBank: JP000468
MW: 127
Formula: C6H9NS
Synonym: MassBank: JP000468
Synonym: 2,4,5-TRIMETHYLTHIAZOLE
Structure: 310A32310A322C342C352D5452494D455448594C544849415A4F4C452E6D6F6C0A20204368656D447261773132323030393133323732440A2020382020382020302020302020302020302020302020302020302020303939392056323030300A20202020302E3037313120202020302E3636373420202020302E303030302053202020302020302020302020302020302020302020302020302020302020302020302020300A20202020302E3535363020202020302E3030303020202020302E303030302043202020302020302020302020302020302020302020302020302020302020302020302020300A20202020302E303731312020202D302E3636373420202020302E30303030204E202020302020302020302020302020302020302020302020302020302020302020302020300A2020202D302E373133362020202D302E3431323520202020302E303030302043202020302020302020302020302020302020302020302020302020302020302020302020300A2020202D302E3731333620202020302E3431323520202020302E303030302043202020302020302020302020302020302020302020302020302020302020302020302020300A2020202D312E3338313020202020302E3839373420202020302E303030302043202020302020302020302020302020302020302020302020302020302020302020302020300A2020202D312E333831302020202D302E3839373420202020302E303030302043202020302020302020302020302020302020302020302020302020302020302020302020300A20202020312E3338313020202020302E3030303020202020302E303030302043202020302020302020302020302020302020302020302020302020302020302020302020300A2020312020322020312020302020202020200A2020322020332020322020302020202020200A2020332020342020312020302020202020200A2020342020352020322020302020202020200A2020312020352020312020302020202020200A2020352020362020312020302020202020200A2020342020372020312020302020202020200A2020322020382020312020302020202020200A4D2020454E44
Contributor: SASAKI S, TOYOHASHI UNIV. OF TECH.
InstType: EI
InstName: MX-1303
IoniMethod: _ENERGY 50 eV
IonPolarity: pos
Date: 2010-10-09 19:48:36+02:00
Num Peaks: 41
26 28 27 109 29 14 37 1 38 23 39 97 40 33 41 9 42 115 43 92 
45 206 46 3 47 19 50 36 51 57 52 3 53 102 54 14 57 27 58 11 
59 244 60 21 61 13 66 1 68 35 69 59 70 27 71 95 72 52 73 51 
78 11 84 1 85 321 86 710 87 57 88 4 112 37 126 93 127 999 128 9 
129 53 
