Name: DIMETHYL DISULFIDE
MW: 93
Formula: C2H6S2
Synonym: MassBank: JP009135
Synonym: DIMETHYL DISULFIDE
Structure: 310A31320A44494D455448594C20444953554C464944452E6D6F6C0A20204368656D447261773130313831303137303832440A2020342020332020302020302020302020302020302020302020302020303939392056323030300A2020202D302E333537322020202D302E3230363320202020302E303030302053202020302020302020302020302020302020302020302020302020302020302020302020300A20202020302E3335373220202020302E3230363320202020302E303030302053202020302020302020302020302020302020302020302020302020302020302020302020300A2020202D312E3037313720202020302E3230363320202020302E303030302043202020302020302020302020302020302020302020302020302020302020302020302020300A20202020312E303731372020202D302E3230363220202020302E303030302043202020302020302020302020302020302020302020302020302020302020302020302020300A2020312020322020312020302020202020200A2020312020332020312020302020202020200A2020322020342020312020302020202020200A4D2020454E44
Contributor: SODA AROMATIC CO., LTD.
InstType: EI
InstName: HITACHI M-80B
IoniMethod: _ENERGY 70 eV
IonPolarity: pos
Date: 2010-10-09 19:48:36+02:00
Num Peaks: 19
14 26 15 93 32 30 44 38 45 671 46 350 47 240 48 113 49 37 61 141 
64 128 66 11 78 30 79 584 80 17 81 52 94 999 95 40 96 94 
