Name: OXOLANE
MW: 72
Formula: C4H8O
Synonym: MassBank: JP001795
Synonym: OXOLANE
Synonym: TETRAHYDROFURAN
Structure: 310A31350A5445545241485944524F465552414E2E6D6F6C0A20204368656D447261773038313231303037323232440A2020352020352020302020302020302020302020302020302020302020303939392056323030300A20202020302E3431323520202020302E3633343820202020302E30303030204F202020302020302020302020302020302020302020302020302020302020302020302020300A20202020302E363637342020202D302E3134393820202020302E303030302043202020302020302020302020302020302020302020302020302020302020302020302020300A20202020302E303030302020202D302E3633343820202020302E303030302043202020302020302020302020302020302020302020302020302020302020302020302020300A2020202D302E363637342020202D302E3134393820202020302E303030302043202020302020302020302020302020302020302020302020302020302020302020302020300A2020202D302E3431323520202020302E3633343820202020302E303030302043202020302020302020302020302020302020302020302020302020302020302020302020300A2020312020322020312020302020202020200A2020322020332020312020302020202020200A2020332020342020312020302020202020200A2020342020352020312020302020202020200A2020312020352020312020302020202020200A4D2020454E44
Contributor: TAJIMA S, GUNMA COLLEGE OF TECHNOLOGY
InstType: EI
InstName: HITACHI RMU-7M
IoniMethod: _ENERGY 70 eV
IonPolarity: pos
Date: 2010-10-09 19:48:36+02:00
Num Peaks: 10
27 159 28 69 29 79 39 129 40 66 41 461 42 999 43 154 71 238 72 254 
