Name: 2-(1-AMINOETHYL)TIAZOL-4-CARBOXLIC ACID
CAS: 57001-28-2
MW: 172
Formula: C6H8N2O2S
Synonym: MassBank: JP009551
Synonym: 2-(1-AMINOETHYL)TIAZOL-4-CARBOXLIC ACID
Structure: 322D28312D414D494E4F455448594C295449415A4F4C2D342D434152424F584C494320414349442E6D6F6C0A20204368656D447261773132323130393035323532440A2031312031312020302020302020302020302020302020302020302020303939392056323030300A2020202D302E343132352020202D302E3932333320202020302E303030302043202020302020302020302020302020302020302020302020302020302020302020302020300A20202020302E343132352020202D302E3932333320202020302E303030302053202020302020302020302020302020302020302020302020302020302020302020302020300A20202020302E363637342020202D302E3133383620202020302E303030302043202020302020302020302020302020302020302020302020302020302020302020302020300A20202020302E3030303020202020302E3334363320202020302E30303030204E202020302020302020302020302020302020302020302020302020302020302020302020300A2020202D302E363637342020202D302E3133383620202020302E303030302043202020302020302020302020302020302020302020302020302020302020302020302020300A20202020312E3435323120202020302E3131363320202020302E303030302043202020302020302020302020302020302020302020302020302020302020302020302020300A20202020312E3632333620202020302E3932333320202020302E303030302043202020302020302020302020302020302020302020302020302020302020302020302020300A20202020322E303635322020202D302E3433353720202020302E30303030204E202020302020302020302020302020302020302020302020302020302020302020302020300A2020202D312E3435323120202020302E3131363320202020302E303030302043202020302020302020302020302020302020302020302020302020302020302020302020300A2020202D312E3632333620202020302E3932333320202020302E30303030204F202020302020302020302020302020302020302020302020302020302020302020302020300A2020202D322E303635322020202D302E3433353720202020302E30303030204F202020302020302020302020302020302020302020302020302020302020302020302020300A2020312020322020312020302020202020200A2020322020332020312020302020202020200A2020332020342020322020302020202020200A2020342020352020312020302020202020200A2020352020312020322020302020202020200A2020332020362020312020302020202020200A2020362020372020312020302020202020200A2020362020382020312020302020202020200A2020352020392020312020302020202020200A2020392031302020322020302020202020200A2020392031312020312020302020202020200A4D2020454E44
Contributor: NARA WOMEN'S UNIVERSITY
InstType: EI
InstName: HITACHI M-80
IoniMethod: _ENERGY 70 eV
IonPolarity: pos
Date: 2010-10-09 19:48:36+02:00
Num Peaks: 80
14 49 15 162 16 81 17 110 18 304 19 40 25 13 26 42 27 126 28 595 
29 111 30 96 31 19 32 84 33 13 36 34 37 19 38 52 39 88 40 107 
41 146 42 442 43 169 44 949 45 560 46 56 47 23 51 38 52 77 53 144 
54 58 55 71 56 49 57 316 58 164 59 76 60 29 61 25 66 18 67 22 
68 28 69 35 70 61 71 38 72 28 73 31 74 11 76 10 82 43 83 54 
84 154 85 73 86 25 110 24 111 58 112 510 113 48 114 24 126 77 127 19 
129 14 130 211 131 44 132 13 138 46 139 999 140 193 141 68 144 23 153 79 
154 33 155 18 157 869 158 260 159 72 160 15 171 10 172 186 173 64 174 20 
