Name: MassBank: JP008417
MW: 220
Formula: C15H24O
Synonym: MassBank: JP008417
Synonym: 2,6-BIS(TERT-BUTYL)-4-METHYLPHENOL
Structure: 322C362D42495328544552542D425554594C292D342D4D455448594C5048454E4F4C2E6D6F6C0A20204368656D447261773132323130393032353932440A2031362031362020302020302020302020302020302020302020302020303939392056323030300A2020202D302E3035353320202020302E3335373220202020302E303030302043202020302020302020302020302020302020302020302020302020302020302020302020300A20202020302E333537322020202D302E3335373220202020302E303030302043202020302020302020302020302020302020302020302020302020302020302020302020300A2020202D302E303535332020202D312E3037313720202020302E303030302043202020302020302020302020302020302020302020302020302020302020302020302020300A2020202D302E383830332020202D312E3037313720202020302E303030302043202020302020302020302020302020302020302020302020302020302020302020302020300A2020202D312E323932382020202D302E3335373220202020302E303030302043202020302020302020302020302020302020302020302020302020302020302020302020300A2020202D302E3838303320202020302E3335373220202020302E303030302043202020302020302020302020302020302020302020302020302020302020302020302020300A2020202D312E323932382020202D312E3738363220202020302E303030302043202020302020302020302020302020302020302020302020302020302020302020302020300A2020202D312E3239323820202020312E3037313720202020302E303030302043202020302020302020302020302020302020302020302020302020302020302020302020300A2020202D312E3730353320202020312E3738363220202020302E303030302043202020302020302020302020302020302020302020302020302020302020302020302020300A2020202D302E3537383320202020312E3438343220202020302E303030302043202020302020302020302020302020302020302020302020302020302020302020302020300A2020202D322E3030373220202020302E3635393220202020302E303030302043202020302020302020302020302020302020302020302020302020302020302020302020300A20202020312E313832322020202D302E3335373220202020302E303030302043202020302020302020302020302020302020302020302020302020302020302020302020300A20202020312E3138323220202020302E3436373820202020302E303030302043202020302020302020302020302020302020302020302020302020302020302020302020300A20202020322E303037322020202D302E3335373220202020302E303030302043202020302020302020302020302020302020302020302020302020302020302020302020300A20202020312E313832322020202D312E3138323220202020302E303030302043202020302020302020302020302020302020302020302020302020302020302020302020300A20202020302E3335373220202020312E3037313720202020302E30303030204F202020302020302020302020302020302020302020302020302020302020302020302020300A2020312020322020312020302020202020200A2020322020332020322020302020202020200A2020332020342020312020302020202020200A2020342020352020322020302020202020200A2020352020362020312020302020202020200A2020312020362020322020302020202020200A2020342020372020312020302020202020200A2020382020392020312020302020202020200A2020382031312020312020302020202020200A2020382031302020312020302020202020200A2020362020382020312020302020202020200A2031322031332020312020302020202020200A2031322031352020312020302020202020200A2031322031342020312020302020202020200A2020322031322020312020302020202020200A2020312031362020312020302020202020200A4D2020454E44
Contributor: UBE SCIENTIFIC ANALYSIS LABORATORY
InstType: EI
InstName: HITACHI M-60
IoniMethod: _ENERGY 70 eV
IonPolarity: pos
Date: 2010-10-09 19:48:36+02:00
Num Peaks: 50
18 34 29 96 39 23 41 173 43 33 53 18 55 99 57 403 65 14 67 92 
69 28 77 38 79 31 80 13 81 118 91 66 95 64 105 83 115 37 116 12 
117 13 119 46 121 42 128 24 129 29 130 11 131 51 133 27 135 10 141 15 
142 14 143 11 145 167 146 18 147 19 149 34 157 9 159 5 161 63 163 30 
175 19 177 76 189 53 203 30 205 999 206 158 207 4 218 14 220 251 221 40 
