Name: MassBank: JP008943
MW: 84
Formula: C5H8O
Synonym: MassBank: JP008943
Synonym: CYCLOPENTANONE (2,2,5,5-D4)
Structure: 4359434C4F50454E54414E4F4E452028322C322C352C352D4434292E6D6F6C0A20204368656D447261773039323031303039303432440A2031302031302020302020302020302020302020302020302020302020303939392056323030300A20202020302E3239353520202020302E3334313220202020302E303030302043202020302020302020302020302020302020302020302020302020302020302020302020300A20202020302E363331302020202D302E3431323520202020302E303030302043202020302020302020302020302020302020302020302020302020302020302020302020300A20202020302E303137392020202D302E3936343520202020302E303030302043202020302020302020302020302020302020302020302020302020302020302020302020300A2020202D302E363936352020202D302E3535323020202020302E303030302043202020302020302020302020302020302020302020302020302020302020302020302020300A2020202D302E3532353020202020302E3235343920202020302E303030302043202020302020302020302020302020302020302020302020302020302020302020302020300A20202020302E3730383020202020312E3035353620202020302E30303030204F202020302020302020302020302020302020302020302020302020302020302020302020300A2020202D312E3334353520202020302E3334313220202020302E303030302048202020312020302020302020302020302020302020302020302020302020302020302020300A2020202D302E3532353020202020312E3037393920202020302E303030302048202020312020302020302020302020302020302020302020302020302020302020302020300A20202020312E333435352020202D302E3030303020202020302E303030302048202020312020302020302020302020302020302020302020302020302020302020302020300A20202020312E313135392020202D312E3037393920202020302E303030302048202020312020302020302020302020302020302020302020302020302020302020302020300A2020312020322020312020302020202020200A2020322020332020312020302020202020200A2020332020342020312020302020202020200A2020342020352020312020302020202020200A2020312020352020312020302020202020200A2020312020362020322020302020202020200A2020352020372020312020312020202020200A2020352020382020312020362020202020200A2020322020392020312020312020202020200A2020322031302020312020362020202020200A4D202049534F20203420202037202020322020203820202032202020392020203220203130202020320A4D2020454E44
Contributor: YAMAMOTO M, DEP. CHEMISTRY, FAC. SCIENCE, NARA WOMEN'S UNIV.
InstType: EI
InstName: HITACHI RMU-6M
IoniMethod: _ENERGY 70 eV
IonPolarity: pos
Date: 2010-10-09 19:48:36+02:00
Num Peaks: 26
26 28 27 93 28 147 29 16 30 658 31 69 32 44 38 2 39 62 40 93 
41 128 42 13 43 255 44 207 45 32 46 2 55 51 56 999 57 58 58 28 
59 97 60 104 86 30 87 9 88 495 89 34 
