Name: AMITRIPTYLINE
MW: 277
Formula: C20H23N
Synonym: MassBank: JP003854
Synonym: AMITRIPTYLINE
Structure: 414D495452495054594C494E452E6D6F6C0A20204368656D447261773038303731303033353932440A2032312032332020302020302020302020302020302020302020302020303939392056323030300A2020202D322E3336313220202020312E3634353620202020302E303030302043202020302020302020302020302020302020302020302020302020302020302020302020300A2020202D322E3135333120202020302E3834393220202020302E30303030204E202020302020302020302020302020302020302020302020302020302020302020302020300A2020202D322E3733363420202020302E3236353820202020302E303030302043202020302020302020302020302020302020302020302020302020302020302020302020300A2020202D312E3335343420202020302E3632383720202020302E303030302043202020302020302020302020302020302020302020302020302020302020302020302020300A2020202D302E3737313020202020312E3231323120202020302E303030302043202020302020302020302020302020302020302020302020302020302020302020302020300A20202020302E3032363320202020302E3939333220202020302E303030302043202020302020302020302020302020302020302020302020302020302020302020302020300A20202020302E3235333420202020302E3231363220202020302E303030302043202020302020302020302020302020302020302020302020302020302020302020302020300A20202020312E3038323420202020302E3037353520202020302E303030302043202020302020302020302020302020302020302020302020302020302020302020302020300A20202020312E3439343920202020302E3739303020202020302E303030302043202020302020302020302020302020302020302020302020302020302020302020302020300A20202020322E3332313720202020302E3739303020202020302E303030302043202020302020302020302020302020302020302020302020302020302020302020302020300A20202020322E3733363420202020302E3037313720202020302E303030302043202020302020302020302020302020302020302020302020302020302020302020302020300A20202020322E333231302020202D302E3634373820202020302E303030302043202020302020302020302020302020302020302020302020302020302020302020302020300A20202020312E343839362020202D302E3634373820202020302E303030302043202020302020302020302020302020302020302020302020302020302020302020302020300A20202020312E313834342020202D312E3430363420202020302E303030302043202020302020302020302020302020302020302020302020302020302020302020302020300A20202020302E333934382020202D312E3634353620202020302E303030302043202020302020302020302020302020302020302020302020302020302020302020302020300A2020202D302E323834352020202D312E3137373520202020302E303030302043202020302020302020302020302020302020302020302020302020302020302020302020300A2020202D302E393638352020202D312E3633383820202020302E303030302043202020302020302020302020302020302020302020302020302020302020302020302020300A2020202D312E373130302020202D312E3237373220202020302E303030302043202020302020302020302020302020302020302020302020302020302020302020302020300A2020202D312E373637352020202D302E3435343220202020302E303030302043202020302020302020302020302020302020302020302020302020302020302020302020300A2020202D312E3038333620202020302E3030373120202020302E303030302043202020302020302020302020302020302020302020302020302020302020302020302020300A2020202D302E333330302020202D302E3336373120202020302E303030302043202020302020302020302020302020302020302020302020302020302020302020302020300A2020312020322020312020302020202020200A2020322020332020312020302020202020200A2020322020342020312020302020202020200A2020342020352020312020302020202020200A2020352020362020312020302020202020200A2020362020372020322020302020202020200A2020372020382020312020302020202020200A2020382020392020312020302020202020200A2020392031302020322020302020202020200A2031302031312020312020302020202020200A2031312031322020322020302020202020200A2031322031332020312020302020202020200A2020382031332020322020302020202020200A2031332031342020312020302020202020200A2031342031352020312020302020202020200A2031352031362020312020302020202020200A2031362031372020312020302020202020200A2031372031382020322020302020202020200A2031382031392020312020302020202020200A2031392032302020322020302020202020200A2032302032312020312020302020202020200A2020372032312020312020302020202020200A2031362032312020322020302020202020200A4D2020454E44
Contributor: SASAKI S, TOYOHASHI UNIV. OF TECH.
InstType: EI
InstName: Unknown
IoniMethod: _ENERGY 70 eV
IonPolarity: pos
Date: 2010-10-09 19:48:36+02:00
Num Peaks: 29
56 14 57 14 58 999 59 5 91 24 115 14 128 14 141 1 152 9 165 11 
178 17 179 1 189 14 191 11 192 9 193 1 194 4 202 31 203 24 204 2 
205 11 206 9 207 9 215 2 216 11 217 19 218 21 219 2 220 9 
