Name: 4-METHYL-2-PENTENOIC ACID TRIMETHYLSILYL ESTER
MW: 186
Formula: C9H18O2Si
Synonym: MassBank: JP007478
Synonym: 4-METHYL-2-PENTENOIC ACID TRIMETHYLSILYL ESTER
Structure: 342D4D455448594C2D322D50454E54454E4F49432041434944205452494D455448594C53494C594C2045535445522E6D6F6C0A20204368656D447261773034323131303031353832440A2031322031312020302020302020302020302020302020302020302020303939392056323030300A2020202D302E333537322020202D302E3230363220202020302E303030302043202020302020302020302020302020302020302020302020302020302020302020302020300A20202020302E3335373220202020302E3230363220202020302E303030302043202020302020302020302020302020302020302020302020302020302020302020302020300A20202020312E303731372020202D302E3230363220202020302E303030302043202020302020302020302020302020302020302020302020302020302020302020302020300A20202020312E3738363220202020302E3230363220202020302E303030302043202020302020302020302020302020302020302020302020302020302020302020302020300A20202020312E3738363220202020312E3033313320202020302E303030302043202020302020302020302020302020302020302020302020302020302020302020302020300A2020202D302E333537322020202D312E3033313320202020302E30303030204F202020302020302020302020302020302020302020302020302020302020302020302020300A2020202D312E3037313720202020302E3230363220202020302E30303030204F202020302020302020302020302020302020302020302020302020302020302020302020300A20202020322E353030362020202D302E3230363220202020302E303030302043202020302020302020302020302020302020302020302020302020302020302020302020300A2020202D312E373836322020202D302E3230363220202020302E303030302053692020302020302020302020302020302020302020302020302020302020302020302020300A2020202D312E333733372020202D302E3932303720202020302E303030302043202020302020302020302020302020302020302020302020302020302020302020302020300A2020202D322E353030362020202D302E3631383820202020302E303030302043202020302020302020302020302020302020302020302020302020302020302020302020300A2020202D322E3139383720202020302E3530383220202020302E303030302043202020302020302020302020302020302020302020302020302020302020302020302020300A2020312020322020312020302020202020200A2020322020332020322020302020202020200A2020332020342020312020302020202020200A2020342020352020312020302020202020200A2020312020362020322020302020202020200A2020312020372020312020302020202020200A2020342020382020312020302020202020200A2020392031302020312020302020202020200A2020392031312020312020302020202020200A2020392031322020312020302020202020200A2020372020392020312020302020202020200A4D2020454E44
Contributor: KOGA M, UNIV. OF OCCUPATIONAL AND ENVIRONMENTAL HEALTH
InstType: EI
InstName: JEOL JMS-01-SG
IoniMethod: _ENERGY 70 eV
IonPolarity: pos
Date: 2010-10-09 19:48:36+02:00
Num Peaks: 51
40 9 41 9 43 37 44 4 45 104 47 71 51 23 53 5 54 28 55 37 
59 37 61 4 67 33 68 33 69 37 72 1 73 611 74 75 75 999 76 7 
77 33 79 14 81 109 82 2 85 47 95 23 96 341 97 19 98 9 99 80 
101 9 111 3 116 18 117 9 125 37 126 5 127 127 128 14 129 37 131 3 
141 18 143 85 144 9 153 1 155 23 170 90 171 739 172 10 173 28 186 142 
187 9 
