Name: MassBank: JP003556
MW: 544
Formula: C37H52O3
Synonym: MassBank: JP003556
Synonym: 1,1,3-TRIS(2-METHYL-4-HYDROXY-5-TERT-BUTYLPHENYL)BUTANE
Structure: 312C312C332D5452495328322D4D455448594C2D342D485944524F58592D352D544552542D425554594C5048454E594C29425554414E452E6D6F6C0A20204368656D447261773130323330393032303632440A2034302034322020302020302020302020302020302020302020302020303939392056323030300A2020202D302E3731343520202020302E3030303020202020302E303030302043202020302020302020302020302020302020302020302020302020302020302020302020300A20202020302E303030302020202D302E3431323520202020302E303030302043202020302020302020302020302020302020302020302020302020302020302020302020300A20202020302E3731343520202020302E3030303020202020302E303030302043202020302020302020302020302020302020302020302020302020302020302020302020300A20202020302E3731343520202020302E3832353020202020302E303030302043202020302020302020302020302020302020302020302020302020302020302020302020300A20202020312E343238392020202D302E3431323520202020302E303030302043202020302020302020302020302020302020302020302020302020302020302020302020300A20202020322E3134333420202020302E3030303020202020302E303030302043202020302020302020302020302020302020302020302020302020302020302020302020300A20202020322E383537392020202D302E3431323520202020302E303030302043202020302020302020302020302020302020302020302020302020302020302020302020300A20202020322E383537392020202D312E3233373520202020302E303030302043202020302020302020302020302020302020302020302020302020302020302020302020300A20202020322E313433342020202D312E3635303020202020302E303030302043202020302020302020302020302020302020302020302020302020302020302020302020300A20202020312E343238392020202D312E3233373520202020302E303030302043202020302020302020302020302020302020302020302020302020302020302020302020300A20202020322E313433342020202D322E3437353020202020302E303030302043202020302020302020302020302020302020302020302020302020302020302020302020300A20202020312E333138342020202D322E3437353020202020302E303030302043202020302020302020302020302020302020302020302020302020302020302020302020300A20202020322E313433342020202D332E3330303020202020302E303030302043202020302020302020302020302020302020302020302020302020302020302020302020300A20202020322E393638342020202D322E3437353020202020302E303030302043202020302020302020302020302020302020302020302020302020302020302020302020300A20202020332E353732342020202D312E3635303020202020302E30303030204F202020302020302020302020302020302020302020302020302020302020302020302020300A2020202D312E343238392020202D302E3431323520202020302E303030302043202020302020302020302020302020302020302020302020302020302020302020302020300A2020202D312E343238392020202D312E3233373520202020302E303030302043202020302020302020302020302020302020302020302020302020302020302020302020300A2020202D322E313433342020202D312E3635303020202020302E303030302043202020302020302020302020302020302020302020302020302020302020302020302020300A2020202D322E383537392020202D312E3233373520202020302E303030302043202020302020302020302020302020302020302020302020302020302020302020302020300A2020202D322E383537392020202D302E3431323520202020302E303030302043202020302020302020302020302020302020302020302020302020302020302020302020300A2020202D322E3134333420202020302E3030303020202020302E303030302043202020302020302020302020302020302020302020302020302020302020302020302020300A2020202D332E353732342020202D302E3030303020202020302E303030302043202020302020302020302020302020302020302020302020302020302020302020302020300A2020202D332E353732342020202D312E3635303020202020302E30303030204F202020302020302020302020302020302020302020302020302020302020302020302020300A2020202D302E373134352020202D312E3635303020202020302E303030302043202020302020302020302020302020302020302020302020302020302020302020302020300A2020202D302E3731343520202020302E3832353020202020302E303030302043202020302020302020302020302020302020302020302020302020302020302020302020300A2020202D312E3432383920202020312E3233373520202020302E303030302043202020302020302020302020302020302020302020302020302020302020302020302020300A2020202D312E3432383920202020322E3036323520202020302E303030302043202020302020302020302020302020302020302020302020302020302020302020302020300A2020202D302E3731343520202020322E3437353020202020302E303030302043202020302020302020302020302020302020302020302020302020302020302020302020300A20202020302E3030303020202020322E3036323520202020302E303030302043202020302020302020302020302020302020302020302020302020302020302020302020300A20202020302E3030303020202020312E3233373520202020302E303030302043202020302020302020302020302020302020302020302020302020302020302020302020300A20202020302E3731343520202020322E3437353020202020302E303030302043202020302020302020302020302020302020302020302020302020302020302020302020300A20202020302E3330323020202020332E3138393520202020302E303030302043202020302020302020302020302020302020302020302020302020302020302020302020300A20202020312E3432383920202020322E3838373520202020302E303030302043202020302020302020302020302020302020302020302020302020302020302020302020300A20202020312E3132373020202020312E3736303520202020302E303030302043202020302020302020302020302020302020302020302020302020302020302020302020300A2020202D302E3731343520202020332E3330303020202020302E30303030204F202020302020302020302020302020302020302020302020302020302020302020302020300A2020202D322E3134333420202020302E3832353020202020302E303030302043202020302020302020302020302020302020302020302020302020302020302020302020300A20202020302E303030302020202D322E3036323520202020302E303030302043202020302020302020302020302020302020302020302020302020302020302020302020300A2020202D302E333032302020202D302E3933353520202020302E303030302043202020302020302020302020302020302020302020302020302020302020302020302020300A2020202D312E313237302020202D322E3336343520202020302E303030302043202020302020302020302020302020302020302020302020302020302020302020302020300A20202020322E3134333420202020302E3832353020202020302E303030302043202020302020302020302020302020302020302020302020302020302020302020302020300A2020312020322020312020302020202020200A2020322020332020312020302020202020200A2020332020342020312020302020202020200A2020352020362020312020302020202020200A2020362020372020322020302020202020200A2020372020382020312020302020202020200A2020382020392020322020302020202020200A2020392031302020312020302020202020200A2020352031302020322020302020202020200A2031312031322020312020302020202020200A2031312031342020312020302020202020200A2031312031332020312020302020202020200A2020392031312020312020302020202020200A2020382031352020312020302020202020200A2020332020352020312020302020202020200A2031362031372020312020302020202020200A2031372031382020322020302020202020200A2031382031392020312020302020202020200A2031392032302020322020302020202020200A2032302032312020312020302020202020200A2031362032312020322020302020202020200A2032302032322020312020302020202020200A2031392032332020312020302020202020200A2031372032342020312020302020202020200A2020312031362020312020302020202020200A2032352032362020312020302020202020200A2032362032372020322020302020202020200A2032372032382020312020302020202020200A2032382032392020322020302020202020200A2032392033302020312020302020202020200A2032352033302020322020302020202020200A2033312033322020312020302020202020200A2033312033342020312020302020202020200A2033312033332020312020302020202020200A2032392033312020312020302020202020200A2032382033352020312020302020202020200A2032362033362020312020302020202020200A2020312032352020312020302020202020200A2032342033372020312020302020202020200A2032342033382020312020302020202020200A2032342033392020312020302020202020200A2020362034302020312020302020202020200A4D2020454E44
Contributor: MASS SPECTROSCOPY SOC. OF JAPAN (MSSJ)
InstType: EI
InstName: Unknown
IoniMethod: EI
IonPolarity: pos
Date: 2010-10-09 19:48:36+02:00
Num Peaks: 30
29 45 39 27 41 87 43 47 55 43 57 280 59 56 69 31 91 91 92 45 
121 27 135 21 147 24 149 32 161 27 175 40 189 21 191 98 205 103 309 29 
323 75 337 22 339 999 340 255 341 37 353 32 365 42 412 45 544 70 545 34 
