Name: 1-PHENYL-1-(5-METHYL-3-PHENYL-2-FURYL)ACETONE
MW: 290
Formula: C20H18O2
Synonym: MassBank: JP005536
Synonym: 1-PHENYL-1-(5-METHYL-3-PHENYL-2-FURYL)ACETONE
Structure: 312D5048454E594C2D312D28352D4D455448594C2D332D5048454E594C2D322D465552594C29414345544F4E452E6D6F6C0A20204368656D447261773131323230393232303932440A2032322032342020302020302020302020302020302020302020302020303939392056323030300A2020202D302E333130362020202D302E3333323420202020302E303030302043202020302020302020302020302020302020302020302020302020302020302020302020300A2020202D302E3438323220202020302E3437343520202020302E303030302043202020302020302020302020302020302020302020302020302020302020302020302020300A2020202D312E3237393020202020302E3638383120202020302E30303030204F202020302020302020302020302020302020302020302020302020302020302020302020300A20202020302E3130313220202020312E3035373920202020302E303030302043202020302020302020302020302020302020302020302020302020302020302020302020300A20202020302E393634332020202D312E3434383520202020302E30303030204F202020302020302020302020302020302020302020302020302020302020302020302020300A20202020302E373039342020202D302E3636333920202020302E303030302043202020302020302020302020302020302020302020302020302020302020302020302020300A20202020312E333736382020202D302E3137383920202020302E303030302043202020302020302020302020302020302020302020302020302020302020302020302020300A20202020322E303434332020202D302E3636333920202020302E303030302043202020302020302020302020302020302020302020302020302020302020302020302020300A20202020312E373839332020202D312E3434383520202020302E303030302043202020302020302020302020302020302020302020302020302020302020302020302020300A20202020312E3337363820202020302E3634363120202020302E303030302043202020302020302020302020302020302020302020302020302020302020302020302020300A20202020302E3636323320202020312E3035383620202020302E303030302043202020302020302020302020302020302020302020302020302020302020302020302020300A20202020302E3636323320202020312E3838333620202020302E303030302043202020302020302020302020302020302020302020302020302020302020302020302020300A20202020312E3337363820202020322E3239363120202020302E303030302043202020302020302020302020302020302020302020302020302020302020302020302020300A20202020322E3039313320202020312E3838333620202020302E303030302043202020302020302020302020302020302020302020302020302020302020302020302020300A20202020322E3039313320202020312E3035383620202020302E303030302043202020302020302020302020302020302020302020302020302020302020302020302020300A20202020322E323734322020202D322E3131353920202020302E303030302043202020302020302020302020302020302020302020302020302020302020302020302020300A2020202D302E383934302020202D302E3931353820202020302E303030302043202020302020302020302020302020302020302020302020302020302020302020302020300A2020202D302E363830352020202D312E3731323720202020302E303030302043202020302020302020302020302020302020302020302020302020302020302020302020300A2020202D312E323633382020202D322E3239363120202020302E303030302043202020302020302020302020302020302020302020302020302020302020302020302020300A2020202D322E303630372020202D322E3038323520202020302E303030302043202020302020302020302020302020302020302020302020302020302020302020302020300A2020202D322E323734322020202D312E3238353620202020302E303030302043202020302020302020302020302020302020302020302020302020302020302020302020300A2020202D312E363930392020202D302E3730323320202020302E303030302043202020302020302020302020302020302020302020302020302020302020302020302020300A2020312020322020312020302020202020200A2020322020332020322020302020202020200A2020322020342020312020302020202020200A2020352020362020312020302020202020200A2020362020372020322020302020202020200A2020372020382020312020302020202020200A2020382020392020322020302020202020200A2020352020392020312020302020202020200A2031302031312020312020302020202020200A2031312031322020322020302020202020200A2031322031332020312020302020202020200A2031332031342020322020302020202020200A2031342031352020312020302020202020200A2031302031352020322020302020202020200A2020372031302020312020302020202020200A2020392031362020312020302020202020200A2020312020362020312020302020202020200A2031372031382020312020302020202020200A2031382031392020322020302020202020200A2031392032302020312020302020202020200A2032302032312020322020302020202020200A2032312032322020312020302020202020200A2031372032322020322020302020202020200A2020312031372020312020302020202020200A4D2020454E44
Contributor: MASS SPECTROSCOPY SOC. OF JAPAN (MSSJ)
InstType: EI
InstName: HITACHI RMU-6L
IoniMethod: _ENERGY 70 eV
IonPolarity: pos
Date: 2010-10-09 19:48:36+02:00
Num Peaks: 76
28 5 39 10 43 112 44 10 50 5 51 18 52 5 55 9 63 12 65 6 
69 6 74 4 75 7 76 12 77 43 78 7 88 4 89 12 90 8 91 16 
101 12 102 38 103 12 105 31 106 4 115 16 116 9 126 8 127 12 128 11 
129 4 133 5 139 5 141 11 147 5 149 4 150 3 151 4 152 6 161 20 
162 9 163 3 165 7 169 15 176 6 178 11 179 4 189 10 190 7 191 5 
200 7 201 9 202 49 203 42 204 26 205 12 215 10 216 3 217 4 228 9 
229 8 231 10 232 5 245 8 246 12 247 999 248 208 249 23 261 1 262 1 
263 4 264 2 289 1 290 28 291 9 292 1 
