Name: MassBank: JP004745
MW: 124
Formula: C8H12O
Synonym: MassBank: JP004745
Synonym: 2,3,5-TRIMETHYLCYCLOPENT-2-ENONE
Structure: 310A32330A322C332C352D5452494D455448594C4359434C4F50454E542D322D454E4F4E452E6D6F6C0A20204368656D447261773132323030393038313032440A2020392020392020302020302020302020302020302020302020302020303939392056323030300A2020202D302E353536302020202D302E3030303020202020302E303030302043202020302020302020302020302020302020302020302020302020302020302020302020300A2020202D302E3037313120202020302E3636373420202020302E303030302043202020302020302020302020302020302020302020302020302020302020302020302020300A20202020302E3731333620202020302E3431323520202020302E303030302043202020302020302020302020302020302020302020302020302020302020302020302020300A20202020302E373133362020202D302E3431323520202020302E303030302043202020302020302020302020302020302020302020302020302020302020302020302020300A2020202D302E303731312020202D302E3636373420202020302E303030302043202020302020302020302020302020302020302020302020302020302020302020302020300A2020202D302E333236302020202D312E3435323120202020302E303030302043202020302020302020302020302020302020302020302020302020302020302020302020300A20202020312E3338313020202020302E3839373420202020302E303030302043202020302020302020302020302020302020302020302020302020302020302020302020300A2020202D302E3332363020202020312E3435323120202020302E303030302043202020302020302020302020302020302020302020302020302020302020302020302020300A2020202D312E333831302020202D302E3030303020202020302E30303030204F202020302020302020302020302020302020302020302020302020302020302020302020300A2020312020322020312020302020202020200A2020322020332020322020302020202020200A2020332020342020312020302020202020200A2020342020352020312020302020202020200A2020312020352020312020302020202020200A2020352020362020312020302020202020200A2020332020372020312020302020202020200A2020322020382020312020302020202020200A2020312020392020322020302020202020200A4D2020454E44
Contributor: MASS SPECTROSCOPY SOC. OF JAPAN (MSSJ)
InstType: EI
InstName: JEOL JMS-D-3000
IoniMethod: _ENERGY 70 eV
IonPolarity: pos
Date: 2010-10-09 19:48:36+02:00
Num Peaks: 28
41 208 42 52 43 465 50 30 51 64 52 39 53 177 54 126 55 120 56 33 
57 386 65 37 67 181 68 55 71 48 77 41 79 119 81 553 82 45 85 35 
95 37 96 155 109 999 110 75 113 214 123 85 124 638 125 61 
