Name: MassBank: JP005795
MW: 224
Formula: C14H24O2
Synonym: MassBank: JP005795
Synonym: (E)-3,7-DIMETHYL-2,6-OCTADIEN-1-YL ISOBUTYRATE
Synonym: GERANYL ISOBUTYRATE
Structure: 2845292D332C372D44494D455448594C2D322C362D4F4354414449454E2D312D594C2049534F42555459524154452E6D6F6C0A20204368656D447261773130323230393230343332440A2031372031362020302020302020302020302020302020302020302020303939392056323030300A2020202D302E343132352020202D302E3030303020202020302E303030302043202020302020302020302020302020302020302020302020302020302020302020302020300A20202020302E343132352020202D302E3030303020202020302E303030302043202020302020302020302020302020302020302020302020302020302020302020302020300A2020202D302E383235302020202D302E3731343520202020302E303030302043202020302020302020302020302020302020302020302020302020302020302020302020300A2020202D302E3832353020202020302E3731343520202020302E303030302048202020302020302020302020302020302020302020302020302020302020302020302020300A20202020302E3832353020202020302E3731343520202020302E303030302043202020302020302020302020302020302020302020302020302020302020302020302020300A20202020302E383235302020202D302E3731343520202020302E303030302043202020302020302020302020302020302020302020302020302020302020302020302020300A2020202D312E363530302020202D302E3731343520202020302E30303030204F202020302020302020302020302020302020302020302020302020302020302020302020300A2020202D322E303632352020202D312E3432383920202020302E303030302043202020302020302020302020302020302020302020302020302020302020302020302020300A2020202D322E383837352020202D312E3432383920202020302E303030302043202020302020302020302020302020302020302020302020302020302020302020302020300A2020202D312E363530302020202D322E3134333420202020302E30303030204F202020302020302020302020302020302020302020302020302020302020302020302020300A2020202D332E333030302020202D322E3134333420202020302E303030302043202020302020302020302020302020302020302020302020302020302020302020302020300A2020202D332E333030302020202D302E3731343520202020302E303030302043202020302020302020302020302020302020302020302020302020302020302020302020300A20202020312E3635303020202020302E3731343520202020302E303030302043202020302020302020302020302020302020302020302020302020302020302020302020300A20202020322E3036323520202020312E3432383920202020302E303030302043202020302020302020302020302020302020302020302020302020302020302020302020300A20202020322E3838373520202020312E3432383920202020302E303030302043202020302020302020302020302020302020302020302020302020302020302020302020300A20202020332E3330303020202020322E3134333420202020302E303030302043202020302020302020302020302020302020302020302020302020302020302020302020300A20202020332E3330303020202020302E3731343520202020302E303030302043202020302020302020302020302020302020302020302020302020302020302020302020300A2020312020322020322020302020202020200A2020312020332020312020302020202020200A2020312020342020312020302020202020200A2020322020352020312020302020202020200A2020322020362020312020302020202020200A2020332020372020312020302020202020200A2020372020382020312020302020202020200A2020382020392020312020302020202020200A2020382031302020322020302020202020200A2020392031312020312020302020202020200A2020392031322020312020302020202020200A2020352031332020312020302020202020200A2031332031342020312020302020202020200A2031342031352020322020302020202020200A2031352031362020312020302020202020200A2031352031372020312020302020202020200A4D2020454E44
Contributor: FUJISE Y, HAMAMATSU UNIV. SCHOOL OF MEDICINE
InstType: EI
InstName: JEOL JMS-D-300
IoniMethod: _ENERGY 70 eV
IonPolarity: pos
Date: 2010-10-09 19:48:36+02:00
Num Peaks: 46
51 42 52 18 53 99 54 11 55 67 63 9 65 46 66 16 67 166 68 376 
69 608 70 39 71 205 72 10 73 190 77 193 78 29 79 218 80 234 81 90 
82 13 88 74 89 9 91 219 92 193 93 999 94 138 95 23 103 13 105 80 
106 21 107 103 108 24 119 30 121 316 122 31 123 12 136 274 137 36 138 1 
139 2 153 2 154 8 155 9 156 1 224 2 
