Name: TRANS-LINALOOL OXIDE
MW: 170
Formula: C10H18O2
Synonym: MassBank: JP008389
Synonym: TRANS-LINALOOL OXIDE
Structure: 303236385F5452414E532D4C494E414C4F4F4C204F584944452E6D6F6C0A20204368656D447261773038323031303031333232440A2031322031322020302020302020302020302020302020302020302020303939392056323030300A2020202D302E3032333220202020302E3435303820202020302E30303030204F202020302020302020302020302020302020302020302020302020302020302020302020300A2020202D302E3733373720202020302E3033383320202020302E303030302043202020302020302020302020302020302020302020302020302020302020302020302020300A2020202D302E353636322020202D302E3736383720202020302E303030302043202020302020302020302020302020302020302020302020302020302020302020302020300A20202020302E323534332020202D302E3835343920202020302E303030302043202020302020302020302020302020302020302020302020302020302020302020302020300A20202020302E353839392020202D302E3130313220202020302E303030302043202020302020302020302020302020302020302020302020302020302020302020302020300A20202020312E3339363920202020302E3037303320202020302E303030302043202020302020302020302020302020302020302020302020302020302020302020302020300A2020202D312E3332313020202020302E3632313720202020302E303030302043202020302020302020302020302020302020302020302020302020302020302020302020300A2020202D312E333738382020202D302E3438303920202020302E303030302043202020302020302020302020302020302020302020302020302020302020302020302020300A2020202D322E323033382020202D302E3438303920202020302E303030302043202020302020302020302020302020302020302020302020302020302020302020302020300A20202020312E393438392020202D302E3534323820202020302E303030302043202020302020302020302020302020302020302020302020302020302020302020302020300A20202020312E3635313820202020302E3835343920202020302E303030302043202020302020302020302020302020302020302020302020302020302020302020302020300A20202020322E3230333820202020302E3234313820202020302E30303030204F202020302020302020302020302020302020302020302020302020302020302020302020300A2020312020322020312020302020202020200A2020322020332020312020302020202020200A2020332020342020312020302020202020200A2020342020352020312020302020202020200A2020352020312020312020302020202020200A2020352020362020312020362020202020200A2020322020372020312020362020202020200A2020322020382020312020312020202020200A2020382020392020322020302020202020200A2020362031302020312020302020202020200A2020362031312020312020302020202020200A2020362031322020312020302020202020200A4D2020454E44
Contributor: SODA AROMATIC CO., LTD.
InstType: EI
InstName: HITACHI M-80B
IoniMethod: _ENERGY 70 eV
IonPolarity: pos
Date: 2010-10-09 19:48:36+02:00
Num Peaks: 48
15 25 27 115 29 56 31 109 39 109 40 13 41 251 42 29 43 487 44 20 
45 29 51 12 53 61 54 17 55 282 56 21 57 44 58 14 59 999 60 29 
65 16 66 12 67 223 68 313 69 115 70 53 71 116 72 52 73 13 77 29 
79 63 81 173 82 36 83 125 84 42 85 55 91 23 93 295 94 412 95 49 
97 67 102 17 109 21 110 15 111 312 112 49 137 33 155 38 
