Name: MassBank: JP007838
MW: 160
Formula: C12H16
Synonym: MassBank: JP007838
Synonym: 1,1,5-TRIMETHYLINDAN
Structure: 312C312C352D5452494D455448594C494E44414E2E6D6F6C0A20204368656D447261773130323330393033323632440A2031322031332020302020302020302020302020302020302020302020303939392056323030300A20202020312E313036382020202D302E3336393420202020302E303030302043202020302020302020302020302020302020302020302020302020302020302020302020300A20202020312E3539313720202020302E3239383120202020302E303030302043202020302020302020302020302020302020302020302020302020302020302020302020300A20202020312E3130363820202020302E3936353520202020302E303030302043202020302020302020302020302020302020302020302020302020302020302020302020300A20202020302E3332323220202020302E3731303620202020302E303030302043202020302020302020302020302020302020302020302020302020302020302020302020300A2020202D302E3339323320202020312E3132333120202020302E303030302043202020302020302020302020302020302020302020302020302020302020302020302020300A2020202D312E3130363820202020302E3731303620202020302E303030302043202020302020302020302020302020302020302020302020302020302020302020302020300A2020202D312E313036382020202D302E3131343420202020302E303030302043202020302020302020302020302020302020302020302020302020302020302020302020300A2020202D302E333932332020202D302E3532363920202020302E303030302043202020302020302020302020302020302020302020302020302020302020302020302020300A20202020302E333232322020202D302E3131343420202020302E303030302043202020302020302020302020302020302020302020302020302020302020302020302020300A2020202D312E3832313320202020312E3132333120202020302E303030302043202020302020302020302020302020302020302020302020302020302020302020302020300A20202020302E373731322020202D312E3132333120202020302E303030302043202020302020302020302020302020302020302020302020302020302020302020302020300A20202020312E383231332020202D302E3738313920202020302E303030302043202020302020302020302020302020302020302020302020302020302020302020302020300A2020312020322020312020302020202020200A2020322020332020312020302020202020200A2020332020342020312020302020202020200A2020342020352020312020302020202020200A2020352020362020322020302020202020200A2020362020372020312020302020202020200A2020372020382020322020302020202020200A2020382020392020312020302020202020200A2020312020392020312020302020202020200A2020342020392020322020302020202020200A2020362031302020312020302020202020200A2020312031312020312020312020202020200A2020312031322020312020362020202020200A4D2020454E44
Contributor: HASHIMOTO K, KYOTO COLLEGE OF PHARMACY
InstType: EI
InstName: HITACHI M-80
IoniMethod: _ENERGY 20 eV
IonPolarity: pos
Date: 2010-10-09 19:48:36+02:00
Num Peaks: 23
15 78 27 61 28 20 39 73 41 29 51 52 53 30 63 38 65 37 77 50 
78 20 91 42 103 18 105 61 115 95 128 103 129 88 143 22 145 999 146 122 
147 10 160 145 161 19 
