Name: MassBank: JP009819
MW: 188
Formula: C9H16O4
Synonym: MassBank: JP009819
Synonym: DIETHYL 2,2-DIMETHYLMALONATE
Structure: 4449455448594C20322C322D44494D455448594C4D414C4F4E4154452E6D6F6C0A20204368656D447261773039323131303139313232440A2031332031322020302020302020302020302020302020302020302020303939392056323030300A2020202D302E3532333020202020302E3030303020202020302E303030302043202020302020302020302020302020302020302020302020302020302020302020302020300A2020202D302E353233302020202D302E3832353020202020302E303030302043202020302020302020302020302020302020302020302020302020302020302020302020300A20202020302E333032302020202D302E3832353020202020302E303030302043202020302020302020302020302020302020302020302020302020302020302020302020300A20202020302E3139313420202020302E3431323520202020302E30303030204F202020302020302020302020302020302020302020302020302020302020302020302020300A2020202D312E3233373520202020302E3431323520202020302E30303030204F202020302020302020302020302020302020302020302020302020302020302020302020300A20202020302E373134352020202D312E3533393520202020302E30303030204F202020302020302020302020302020302020302020302020302020302020302020302020300A20202020302E373134352020202D302E3131303520202020302E30303030204F202020302020302020302020302020302020302020302020302020302020302020302020300A2020202D302E353233302020202D312E3635303020202020302E303030302043202020302020302020302020302020302020302020302020302020302020302020302020300A2020202D312E333438302020202D302E3832353020202020302E303030302043202020302020302020302020302020302020302020302020302020302020302020302020300A2020202D312E3233373520202020312E3233373520202020302E303030302043202020302020302020302020302020302020302020302020302020302020302020302020300A2020202D312E3935323020202020312E3635303020202020302E303030302043202020302020302020302020302020302020302020302020302020302020302020302020300A20202020312E353339352020202D302E3131303520202020302E303030302043202020302020302020302020302020302020302020302020302020302020302020302020300A20202020312E3935323020202020302E3630333920202020302E303030302043202020302020302020302020302020302020302020302020302020302020302020302020300A2020312020322020312020302020202020200A2020322020332020312020302020202020200A2020312020342020322020302020202020200A2020312020352020312020302020202020200A2020332020362020322020302020202020200A2020332020372020312020302020202020200A2020322020382020312020302020202020200A2020322020392020312020302020202020200A2031302031312020312020302020202020200A2020352031302020312020302020202020200A2031322031332020312020302020202020200A2020372031322020312020302020202020200A4D2020454E44
Contributor: KURARAY CO., LTD.
InstType: EI
InstName: JEOL JMS-D-300
IoniMethod: _ENERGY 70 eV
IonPolarity: pos
Date: 2010-10-09 19:48:36+02:00
Num Peaks: 43
26 11 27 128 29 397 30 1 31 25 39 52 40 16 41 19 42 138 43 141 
44 22 45 9 55 48 56 56 57 92 59 44 60 27 69 125 70 348 71 13 
72 14 73 323 74 16 86 5 87 645 88 999 89 78 99 2 101 23 114 36 
115 589 116 74 117 81 128 22 129 83 132 2 133 77 142 16 143 508 144 9 
160 14 161 27 188 55 
