Name: N-ACETYLGLYCYLGLYCYLISOLEUCYLGLYCINE METHYL ESTER
MW: 358
Formula: C15H26N4O6
Synonym: MassBank: JP007610
Synonym: N-ACETYLGLYCYLGLYCYLISOLEUCYLGLYCINE METHYL ESTER
Structure: 303433365F4E2D41434554594C474C5943594C474C5943594C49534F4C455543594C474C5943494E45204D455448594C2045535445522E6D6F6C0A20204368656D447261773130313931303230343232440A2032372032362020302020302020302020302020302020302020302020303939392056323030300A20202020322E3036323520202020312E3738363220202020302E303030302043202020302020302020302020302020302020302020302020302020302020302020302020300A20202020322E3036323520202020302E3335373220202020302E30303030204E202020302020302020302020302020302020302020302020302020302020302020302020300A20202020322E3437353020202020312E3037313720202020302E303030302043202020302020302020302020302020302020302020302020302020302020302020302020300A20202020322E3437353020202020322E3530303620202020302E30303030204F202020302020302020302020302020302020302020302020302020302020302020302020300A20202020312E3233373520202020312E3738363220202020302E30303030204F202020302020302020302020302020302020302020302020302020302020302020302020300A20202020322E343735302020202D302E3335373220202020302E303030302043202020302020302020302020302020302020302020302020302020302020302020302020300A20202020312E323337352020202D312E3037313720202020302E30303030204E202020302020302020302020302020302020302020302020302020302020302020302020300A20202020322E303632352020202D312E3037313720202020302E303030302043202020302020302020302020302020302020302020302020302020302020302020302020300A20202020322E343735302020202D312E3738363220202020302E303030302043202020302020302020302020302020302020302020302020302020302020302020302020300A20202020332E333030302020202D312E3738363220202020302E303030302043202020302020302020302020302020302020302020302020302020302020302020302020300A20202020332E373132352020202D312E3037313720202020302E303030302043202020302020302020302020302020302020302020302020302020302020302020302020300A20202020322E303632352020202D322E3530303620202020302E303030302043202020302020302020302020302020302020302020302020302020302020302020302020300A20202020332E333030302020202D302E3335373220202020302E30303030204F202020302020302020302020302020302020302020302020302020302020302020302020300A20202020302E383235302020202D302E3335373220202020302E303030302043202020302020302020302020302020302020302020302020302020302020302020302020300A2020202D302E3431323520202020302E3335373220202020302E30303030204E202020302020302020302020302020302020302020302020302020302020302020302020300A20202020302E303030302020202D302E3335373220202020302E303030302043202020302020302020302020302020302020302020302020302020302020302020302020300A20202020312E3233373520202020302E3335373220202020302E30303030204F202020302020302020302020302020302020302020302020302020302020302020302020300A2020202D312E3233373520202020302E3335373220202020302E303030302043202020302020302020302020302020302020302020302020302020302020302020302020300A2020202D322E343735302020202D302E3335373220202020302E30303030204E202020302020302020302020302020302020302020302020302020302020302020302020300A2020202D312E363530302020202D302E3335373220202020302E303030302043202020302020302020302020302020302020302020302020302020302020302020302020300A2020202D312E3635303020202020312E3037313720202020302E30303030204F202020302020302020302020302020302020302020302020302020302020302020302020300A2020202D322E383837352020202D312E3037313720202020302E303030302043202020302020302020302020302020302020302020302020302020302020302020302020300A2020202D322E343735302020202D312E3738363220202020302E30303030204F202020302020302020302020302020302020302020302020302020302020302020302020300A2020202D332E373132352020202D312E3037313720202020302E303030302043202020302020302020302020302020302020302020302020302020302020302020302020300A20202020302E3832353020202020312E3037313720202020302E303030302043202020302020302020302020302020302020302020302020302020302020302020302020300A20202020332E303931372020202D312E3233383220202020302E303030302048202020302020302020302020302020302020302020302020302020302020302020302020300A20202020322E383735352020202D302E3933313320202020302E303030302048202020302020302020302020302020302020302020302020302020302020302020302020300A2020322020332020312020302020202020200A2020312020332020312020302020202020200A2020312020342020322020302020202020200A2020312020352020312020302020202020200A2020382020372020312020312020202020200A2020362020382020312020302020202020200A2020382020392020312020302020202020200A2020392031302020312020302020202020200A2031302031312020312020302020202020200A2020392031322020312020312020202020200A2020362031332020322020302020202020200A2031352031362020312020302020202020200A2031342031362020312020302020202020200A2031342031372020322020302020202020200A2031392032302020312020302020202020200A2031382032302020312020302020202020200A2031382032312020322020302020202020200A2031352031382020312020302020202020200A2020372031342020312020302020202020200A2020322020362020312020302020202020200A2032322032332020322020302020202020200A2032322032342020312020302020202020200A2031392032322020312020302020202020200A2020352032352020312020302020202020200A2020392032362020312020312020202020200A2020382032372020312020312020202020200A4D2020454E44
Contributor: YAMAMOTO M, DEP. CHEMISTRY, FAC. SCIENCE, NARA WOMEN'S UNIV.
InstType: EI
InstName: HITACHI RMU-6M
IoniMethod: _ENERGY 15 eV
IonPolarity: pos
Date: 2010-10-09 19:48:36+02:00
Num Peaks: 49
15 13 27 10 28 11 30 37 41 23 42 19 43 33 55 21 56 14 57 18 
59 11 69 14 70 11 72 14 73 26 85 23 86 999 87 68 90 27 96 28 
97 14 98 17 99 10 100 34 108 11 112 10 114 18 127 11 129 14 130 24 
143 36 157 45 169 10 174 15 185 21 213 19 224 15 226 18 242 547 243 98 
244 15 270 15 286 12 302 70 303 13 311 10 327 9 358 4 359 6 
