Name: MassBank: JP006338
MW: 166
Formula: C9H10O3
Synonym: MassBank: JP006338
Synonym: 2-HYDROXY-5-METHOXYACETOPHENONE (5,5,5-D3)
Synonym: 2-HYDROXY-5-DEUTEROMETHOXYACETOPHENONE
Structure: 322D485944524F58592D352D4D4554484F5859414345544F5048454E4F4E452028352C352C352D4433292E6D6F6C0A20204368656D447261773031323131303231323932440A2031352031352020302020302020302020302020302020302020302020303939392056323030300A2020202D302E303030302020202D302E3035353320202020302E303030302043202020302020302020302020302020302020302020302020302020302020302020302020300A2020202D302E303030302020202D302E3838303320202020302E303030302043202020302020302020302020302020302020302020302020302020302020302020302020300A20202020302E373134352020202D312E3239323820202020302E303030302043202020302020302020302020302020302020302020302020302020302020302020302020300A20202020312E343238392020202D302E3838303320202020302E303030302043202020302020302020302020302020302020302020302020302020302020302020302020300A20202020312E343238392020202D302E3035353320202020302E303030302043202020302020302020302020302020302020302020302020302020302020302020302020300A20202020302E3731343520202020302E3335373220202020302E303030302043202020302020302020302020302020302020302020302020302020302020302020302020300A20202020302E3731343520202020312E3138323220202020302E303030302043202020302020302020302020302020302020302020302020302020302020302020302020300A20202020322E3134333420202020302E3335373220202020302E30303030204F202020302020302020302020302020302020302020302020302020302020302020302020300A2020202D302E3030303020202020312E3539343720202020302E30303030204F202020302020302020302020302020302020302020302020302020302020302020302020300A20202020312E3432383920202020312E3539343720202020302E303030302043202020302020302020302020302020302020302020302020302020302020302020302020300A2020202D302E373134352020202D312E3239323820202020302E30303030204F202020302020302020302020302020302020302020302020302020302020302020302020300A2020202D312E343238392020202D302E3838303320202020302E303030302043202020302020302020302020302020302020302020302020302020302020302020302020300A2020202D322E313433342020202D302E3436373820202020302E303030302048202020312020302020302020302020302020302020302020302020302020302020302020300A2020202D312E303136342020202D302E3136353820202020302E303030302048202020312020302020302020302020302020302020302020302020302020302020302020300A2020202D312E383431342020202D312E3539343720202020302E303030302048202020312020302020302020302020302020302020302020302020302020302020302020300A2020312020322020322020302020202020200A2020322020332020312020302020202020200A2020332020342020322020302020202020200A2020342020352020312020302020202020200A2020352020362020322020302020202020200A2020362020312020312020302020202020200A2020362020372020312020302020202020200A2020352020382020312020302020202020200A2020372020392020322020302020202020200A2020372031302020312020302020202020200A2020322031312020312020302020202020200A2031312031322020312020302020202020200A2031322031332020312020302020202020200A2031322031342020312020302020202020200A2031322031352020312020302020202020200A4D202049534F2020332020313320202032202031342020203220203135202020320A4D2020454E44
Contributor: EGUCHI S, FAC. OF SCIENCE, HIROSHIMA UNIV.
InstType: EI
InstName: HITACHI RMU-7L
IoniMethod: _ENERGY 70 eV
IonPolarity: pos
Date: 2010-10-09 19:48:36+02:00
Num Peaks: 78
40 100 41 50 42 28 43 64 44 22 50 200 51 260 52 35 53 320 54 110 
55 130 56 3 57 20 61 55 62 81 63 25 64 60 65 95 66 228 67 13 
68 35 69 55 70 75 71 2 72 30 73 18 74 38 75 3 76 20 77 410 
78 85 79 30 80 195 81 30 82 20 90 2 91 25 92 45 93 35 94 10 
95 55 96 30 97 25 98 43 99 27 105 275 106 38 107 7 108 410 109 110 
110 10 111 1 112 45 119 10 120 10 122 2 123 25 124 15 125 25 126 16 
127 30 133 130 134 20 135 2 136 20 137 20 140 25 149 2 150 17 151 222 
152 40 153 4 154 999 155 105 156 25 168 2 169 695 170 85 
