Name: MassBank: JP009969
MW: 320
Formula: C20H32O3
Synonym: MassBank: JP009969
Synonym: 5,7-DI(TERT-BUTYL)-6-HYDROXY-2-(2-HYDROXYETHYL)-2-METHYL-2H-1-BENZOPYRAN
Structure: 352C372D444928544552542D425554594C292D362D485944524F58592D322D28322D485944524F5859455448594C292D322D4D455448594C2D32482D312D42454E5A4F505952414E2E6D6F6C0A20204368656D447261773034323331303032323832440A2032332032342020302020302020302020302020302020302020302020303939392056323030300A20202020312E303635382020202D302E3838303320202020302E303030302043202020302020302020302020302020302020302020302020302020302020302020302020300A20202020312E303635382020202D302E3035353320202020302E303030302043202020302020302020302020302020302020302020302020302020302020302020302020300A20202020302E3335313320202020302E3335373220202020302E303030302043202020302020302020302020302020302020302020302020302020302020302020302020300A2020202D302E333633312020202D302E3035353320202020302E303030302043202020302020302020302020302020302020302020302020302020302020302020302020300A2020202D302E333633312020202D302E3838303320202020302E303030302043202020302020302020302020302020302020302020302020302020302020302020302020300A20202020302E333531332020202D312E3239323820202020302E30303030204F202020302020302020302020302020302020302020302020302020302020302020302020300A2020202D312E303737362020202D312E3239323820202020302E303030302043202020302020302020302020302020302020302020302020302020302020302020302020300A2020202D312E373932312020202D302E3838303320202020302E303030302043202020302020302020302020302020302020302020302020302020302020302020302020300A2020202D312E373932312020202D302E3035353320202020302E303030302043202020302020302020302020302020302020302020302020302020302020302020302020300A2020202D312E3037373620202020302E3335373220202020302E303030302043202020302020302020302020302020302020302020302020302020302020302020302020300A20202020312E333438302020202D312E3635353520202020302E303030302043202020302020302020302020302020302020302020302020302020302020302020302020300A20202020312E383738332020202D302E3733373020202020302E303030302043202020302020302020302020302020302020302020302020302020302020302020302020300A20202020322E343038362020202D312E3336393020202020302E303030302043202020302020302020302020302020302020302020302020302020302020302020302020300A20202020332E323231302020202D312E3232353720202020302E30303030204F202020302020302020302020302020302020302020302020302020302020302020302020300A2020202D322E3530363620202020302E3335373220202020302E30303030204F202020302020302020302020302020302020302020302020302020302020302020302020300A2020202D322E353036362020202D312E3239323820202020302E303030302043202020302020302020302020302020302020302020302020302020302020302020302020300A2020202D322E393139312020202D302E3537383320202020302E303030302043202020302020302020302020302020302020302020302020302020302020302020302020300A2020202D322E303934312020202D322E3030373220202020302E303030302043202020302020302020302020302020302020302020302020302020302020302020302020300A2020202D332E323231302020202D312E3730353320202020302E303030302043202020302020302020302020302020302020302020302020302020302020302020302020300A2020202D312E3037373620202020312E3138323220202020302E303030302043202020302020302020302020302020302020302020302020302020302020302020302020300A2020202D312E3930323620202020312E3138323220202020302E303030302043202020302020302020302020302020302020302020302020302020302020302020302020300A2020202D312E3037373620202020322E3030373220202020302E303030302043202020302020302020302020302020302020302020302020302020302020302020302020300A2020202D302E3235323620202020312E3138323220202020302E303030302043202020302020302020302020302020302020302020302020302020302020302020302020300A2020312020322020312020302020202020200A2020322020332020322020302020202020200A2020332020342020312020302020202020200A2020342020352020312020302020202020200A2020352020362020312020302020202020200A2020312020362020312020302020202020200A2020372020382020312020302020202020200A2020382020392020322020302020202020200A2020392031302020312020302020202020200A2020342031302020322020302020202020200A2020352020372020322020302020202020200A2020312031312020312020302020202020200A2031322031332020312020302020202020200A2031332031342020312020302020202020200A2020312031322020312020302020202020200A2020392031352020312020302020202020200A2031362031372020312020302020202020200A2031362031392020312020302020202020200A2031362031382020312020302020202020200A2020382031362020312020302020202020200A2032302032312020312020302020202020200A2032302032332020312020302020202020200A2032302032322020312020302020202020200A2031302032302020312020302020202020200A4D2020454E44
Contributor: KURARAY CO., LTD.
InstType: EI
InstName: JEOL JMS-D-300
IoniMethod: _ENERGY 70 eV
IonPolarity: pos
Date: 2010-10-09 19:48:36+02:00
Num Peaks: 89
27 64 28 266 29 134 39 15 40 19 41 466 42 34 43 27 51 91 52 42 
53 141 54 4 55 194 56 17 57 234 58 2 63 31 64 30 65 111 66 6 
67 231 68 20 69 164 72 3 77 169 78 34 79 117 80 3 81 94 82 19 
91 200 92 4 93 95 94 27 95 109 96 0 103 42 105 94 106 31 107 18 
108 42 109 77 110 56 115 7 117 69 119 94 120 59 121 20 122 95 123 178 
124 28 128 5 129 42 131 81 133 47 134 5 135 378 136 125 137 164 138 5 
144 40 145 66 147 66 149 28 150 153 151 66 159 130 161 8 162 61 163 834 
164 227 165 4 175 33 177 667 178 313 179 15 187 31 189 28 191 97 192 9 
203 27 205 999 206 248 207 43 219 92 220 834 221 217 222 18 234 123 
