Name: 4-HYDROXYBENZOIC ACID
CAS: 99-96-7
MW: 138
Formula: C7H6O3
Synonym: MassBank: JP009473
Synonym: 4-HYDROXYBENZOIC ACID
Structure: 342D485944524F585942454E5A4F494320414349442E6D6F6C0A20204368656D447261773034323031303130343832440A2031302031302020302020302020302020302020302020302020302020303939392056323030300A2020202D302E3030303020202020312E3434333720202020302E303030302043202020302020302020302020302020302020302020302020302020302020302020302020300A2020202D302E3030303020202020302E3631383720202020302E303030302043202020302020302020302020302020302020302020302020302020302020302020302020300A20202020302E3731343520202020302E3230363220202020302E303030302043202020302020302020302020302020302020302020302020302020302020302020302020300A20202020302E373134352020202D302E3631383720202020302E303030302043202020302020302020302020302020302020302020302020302020302020302020302020300A2020202D302E303030302020202D312E3033313320202020302E303030302043202020302020302020302020302020302020302020302020302020302020302020302020300A2020202D302E373134352020202D302E3631383820202020302E303030302043202020302020302020302020302020302020302020302020302020302020302020302020300A2020202D302E3731343520202020302E3230363220202020302E303030302043202020302020302020302020302020302020302020302020302020302020302020302020300A20202020302E3731343520202020312E3835363320202020302E30303030204F202020302020302020302020302020302020302020302020302020302020302020302020300A2020202D302E3731343520202020312E3835363320202020302E30303030204F202020302020302020302020302020302020302020302020302020302020302020302020300A2020202D302E303030302020202D312E3835363320202020302E30303030204F202020302020302020302020302020302020302020302020302020302020302020302020300A2020312020322020312020302020202020200A2020322020332020312020302020202020200A2020332020342020322020302020202020200A2020342020352020312020302020202020200A2020352020362020322020302020202020200A2020362020372020312020302020202020200A2020322020372020322020302020202020200A2020312020382020322020302020202020200A2020312020392020312020302020202020200A2020352031302020312020302020202020200A4D2020454E44
Contributor: NARA WOMEN'S UNIVERSITY
InstType: EI
InstName: HITACHI M-80
IoniMethod: _ENERGY 70 eV
IonPolarity: pos
Date: 2010-10-09 19:48:36+02:00
Num Peaks: 30
26 10 27 23 29 24 37 29 38 57 39 180 40 11 45 47 50 34 51 33 
53 55 54 36 60 30 62 57 63 109 64 45 65 249 66 36 74 21 75 12 
81 43 92 35 93 228 94 18 109 11 110 24 121 999 122 76 138 869 139 71 
