Name: GLYCEROL TRIHEXADECANOATE
MW: 806
Formula: C51H98O6
Synonym: MassBank: JP005834
Synonym: GLYCEROL TRIHEXADECANOATE
Synonym: GLYCEROL TRIPALMITATE(TRIPACMITIN)
Structure: 474C594345524F4C2054524948455841444543414E4F4154452E6D6F6C0A20204368656D447261773038313131303139353532440A2035372035362020302020302020302020302020302020302020302020303939392056323030300A2020202D312E343238392020202D322E3638313220202020302E303030302043202020302020302020302020302020302020302020302020302020302020302020302020300A2020202D302E373134352020202D332E3039333720202020302E303030302043202020302020302020302020302020302020302020302020302020302020302020302020300A20202020302E303030302020202D322E3638313220202020302E303030302043202020302020302020302020302020302020302020302020302020302020302020302020300A2020202D322E383537392020202D322E3638313220202020302E303030302043202020302020302020302020302020302020302020302020302020302020302020302020300A2020202D332E353732342020202D332E3039333720202020302E303030302043202020302020302020302020302020302020302020302020302020302020302020302020300A2020202D342E323836382020202D322E3638313220202020302E303030302043202020302020302020302020302020302020302020302020302020302020302020302020300A2020202D342E323836382020202D312E3835363220202020302E303030302043202020302020302020302020302020302020302020302020302020302020302020302020300A2020202D352E303031332020202D312E3434333720202020302E303030302043202020302020302020302020302020302020302020302020302020302020302020302020300A2020202D352E303031332020202D302E3631383720202020302E303030302043202020302020302020302020302020302020302020302020302020302020302020302020300A2020202D352E373135382020202D302E3230363220202020302E303030302043202020302020302020302020302020302020302020302020302020302020302020302020300A2020202D352E3731353820202020302E3631383820202020302E303030302043202020302020302020302020302020302020302020302020302020302020302020302020300A2020202D362E3433303220202020312E3033313320202020302E303030302043202020302020302020302020302020302020302020302020302020302020302020302020300A2020202D362E3433303220202020312E3835363320202020302E303030302043202020302020302020302020302020302020302020302020302020302020302020302020300A2020202D372E3134343720202020322E3236383820202020302E303030302043202020302020302020302020302020302020302020302020302020302020302020302020300A2020202D372E3134343720202020332E3039333820202020302E303030302043202020302020302020302020302020302020302020302020302020302020302020302020300A2020202D372E3835393220202020332E3530363320202020302E303030302043202020302020302020302020302020302020302020302020302020302020302020302020300A2020202D372E3835393220202020342E3333313320202020302E303030302043202020302020302020302020302020302020302020302020302020302020302020302020300A2020202D382E3537333720202020342E3734333820202020302E303030302043202020302020302020302020302020302020302020302020302020302020302020302020300A2020202D382E3537333720202020352E3536383820202020302E303030302043202020302020302020302020302020302020302020302020302020302020302020302020300A2020202D322E383537392020202D312E3835363220202020302E30303030204F202020302020302020302020302020302020302020302020302020302020302020302020300A2020202D322E313433342020202D332E3039333720202020302E30303030204F202020302020302020302020302020302020302020302020302020302020302020302020300A2020202D312E343238392020202D342E3333313320202020302E303030302043202020302020302020302020302020302020302020302020302020302020302020302020300A2020202D312E343238392020202D352E3135363220202020302E303030302043202020302020302020302020302020302020302020302020302020302020302020302020300A2020202D322E313433342020202D352E3536383720202020302E303030302043202020302020302020302020302020302020302020302020302020302020302020302020300A2020202D322E383537392020202D352E3135363220202020302E303030302043202020302020302020302020302020302020302020302020302020302020302020302020300A2020202D332E353732342020202D352E3536383720202020302E303030302043202020302020302020302020302020302020302020302020302020302020302020302020300A2020202D342E323836382020202D352E3135363220202020302E303030302043202020302020302020302020302020302020302020302020302020302020302020302020300A2020202D352E303031332020202D352E3536383720202020302E303030302043202020302020302020302020302020302020302020302020302020302020302020302020300A2020202D352E373135382020202D352E3135363220202020302E303030302043202020302020302020302020302020302020302020302020302020302020302020302020300A2020202D362E343330322020202D352E3536383720202020302E303030302043202020302020302020302020302020302020302020302020302020302020302020302020300A2020202D372E313434372020202D352E3135363220202020302E303030302043202020302020302020302020302020302020302020302020302020302020302020302020300A2020202D372E383539322020202D352E3536383720202020302E303030302043202020302020302020302020302020302020302020302020302020302020302020302020300A2020202D382E353733372020202D352E3135363320202020302E303030302043202020302020302020302020302020302020302020302020302020302020302020302020300A2020202D392E323838312020202D352E3536383720202020302E303030302043202020302020302020302020302020302020302020302020302020302020302020302020300A20202D31302E303032362020202D352E3135363320202020302E303030302043202020302020302020302020302020302020302020302020302020302020302020302020300A20202D31302E373137312020202D352E3536383820202020302E303030302043202020302020302020302020302020302020302020302020302020302020302020302020300A20202D31312E343331352020202D352E3135363320202020302E303030302043202020302020302020302020302020302020302020302020302020302020302020302020300A2020202D322E313433342020202D332E3931383720202020302E30303030204F202020302020302020302020302020302020302020302020302020302020302020302020300A2020202D302E373134352020202D332E3931383720202020302E30303030204F202020302020302020302020302020302020302020302020302020302020302020302020300A20202020312E343238392020202D322E3638313220202020302E303030302043202020302020302020302020302020302020302020302020302020302020302020302020300A20202020312E343238392020202D312E3835363220202020302E303030302043202020302020302020302020302020302020302020302020302020302020302020302020300A20202020322E313433342020202D312E3434333720202020302E303030302043202020302020302020302020302020302020302020302020302020302020302020302020300A20202020322E383537392020202D312E3835363220202020302E303030302043202020302020302020302020302020302020302020302020302020302020302020302020300A20202020332E353732342020202D312E3434333720202020302E303030302043202020302020302020302020302020302020302020302020302020302020302020302020300A20202020342E323836382020202D312E3835363220202020302E303030302043202020302020302020302020302020302020302020302020302020302020302020302020300A20202020352E303031332020202D312E3434333720202020302E303030302043202020302020302020302020302020302020302020302020302020302020302020302020300A20202020352E373135382020202D312E3835363220202020302E303030302043202020302020302020302020302020302020302020302020302020302020302020302020300A20202020362E343330322020202D312E3434333720202020302E303030302043202020302020302020302020302020302020302020302020302020302020302020302020300A20202020372E313434372020202D312E3835363220202020302E303030302043202020302020302020302020302020302020302020302020302020302020302020302020300A20202020372E383539322020202D312E3434333720202020302E303030302043202020302020302020302020302020302020302020302020302020302020302020302020300A20202020382E353733372020202D312E3835363220202020302E303030302043202020302020302020302020302020302020302020302020302020302020302020302020300A20202020392E323838312020202D312E3434333720202020302E303030302043202020302020302020302020302020302020302020302020302020302020302020302020300A20202031302E303032362020202D312E3835363220202020302E303030302043202020302020302020302020302020302020302020302020302020302020302020302020300A20202031302E373137312020202D312E3434333720202020302E303030302043202020302020302020302020302020302020302020302020302020302020302020302020300A20202031312E343331352020202D312E3835363220202020302E303030302043202020302020302020302020302020302020302020302020302020302020302020302020300A20202020322E313433342020202D332E3039333720202020302E30303030204F202020302020302020302020302020302020302020302020302020302020302020302020300A20202020302E373134352020202D332E3039333720202020302E30303030204F202020302020302020302020302020302020302020302020302020302020302020302020300A2020312020322020312020302020202020200A2020322020332020312020302020202020200A2020342020352020312020302020202020200A2020352020362020312020302020202020200A2020362020372020312020302020202020200A2020372020382020312020302020202020200A2020382020392020312020302020202020200A2020392031302020312020302020202020200A2031302031312020312020302020202020200A2031312031322020312020302020202020200A2031322031332020312020302020202020200A2031332031342020312020302020202020200A2031342031352020312020302020202020200A2031352031362020312020302020202020200A2031362031372020312020302020202020200A2031372031382020312020302020202020200A2031382031392020312020302020202020200A2020342032302020322020302020202020200A2020342032312020312020302020202020200A2020312032312020312020302020202020200A2032322032332020312020302020202020200A2032332032342020312020302020202020200A2032342032352020312020302020202020200A2032352032362020312020302020202020200A2032362032372020312020302020202020200A2032372032382020312020302020202020200A2032382032392020312020302020202020200A2032392033302020312020302020202020200A2033302033312020312020302020202020200A2033312033322020312020302020202020200A2033322033332020312020302020202020200A2033332033342020312020302020202020200A2033342033352020312020302020202020200A2033352033362020312020302020202020200A2033362033372020312020302020202020200A2032322033382020322020302020202020200A2032322033392020312020302020202020200A2020322033392020312020302020202020200A2034302034312020312020302020202020200A2034312034322020312020302020202020200A2034322034332020312020302020202020200A2034332034342020312020302020202020200A2034342034352020312020302020202020200A2034352034362020312020302020202020200A2034362034372020312020302020202020200A2034372034382020312020302020202020200A2034382034392020312020302020202020200A2034392035302020312020302020202020200A2035302035312020312020302020202020200A2035312035322020312020302020202020200A2035322035332020312020302020202020200A2035332035342020312020302020202020200A2035342035352020312020302020202020200A2034302035362020322020302020202020200A2034302035372020312020302020202020200A2020332035372020312020302020202020200A4D2020454E44
Contributor: HASHIMOTO K, KYOTO COLLEGE OF PHARMACY
InstType: EI
InstName: HITACHI M-80
IoniMethod: _ENERGY 20 eV
IonPolarity: pos
Date: 2010-10-09 19:48:36+02:00
Num Peaks: 129
27 26 29 19 39 12 41 37 42 28 43 74 44 24 45 17 54 11 55 59 
56 44 57 96 58 13 60 45 61 15 67 17 68 16 69 56 70 37 71 83 
73 68 81 20 82 20 83 65 84 85 85 61 87 17 95 28 96 22 97 55 
98 200 99 31 100 15 101 13 109 19 110 11 111 35 112 80 113 25 115 16 
116 28 117 28 123 16 125 17 126 33 127 16 129 53 139 10 140 23 141 15 
154 23 155 13 157 11 158 43 168 18 171 39 182 15 183 18 185 21 196 12 
199 11 213 27 227 23 236 24 237 22 238 140 239 832 240 161 241 19 255 12 
256 51 257 22 269 12 280 21 281 11 283 12 296 13 297 17 298 10 299 48 
300 11 310 12 311 64 312 73 313 494 314 98 315 18 331 37 332 11 339 16 
354 252 355 163 367 92 368 26 373 11 409 14 423 36 424 24 438 13 439 10 
451 13 465 15 466 10 479 12 495 11 496 15 508 23 509 13 522 11 523 15 
524 11 538 72 539 28 549 17 550 60 551 612 552 999 553 363 554 69 555 13 
570 31 571 12 593 22 594 10 611 46 612 19 788 5 806 10 807 6 
