Name: META-TOLUOYL CHLORIDE
MW: 154
Formula: C8H7ClO
Synonym: MassBank: JP001282
Synonym: META-TOLUOYL CHLORIDE
Synonym: M-METHYLBENZOYL CHLORIDE
Structure: 4D4554412D544F4C554F594C2043484C4F524944452E6D6F6C0A20204368656D447261773033323031303135313332440A2031302031302020302020302020302020302020302020302020302020303939392056323030300A2020202D302E3335373220202020302E3230363320202020302E303030302043202020302020302020302020302020302020302020302020302020302020302020302020300A20202020302E333537322020202D302E3230363320202020302E303030302043202020302020302020302020302020302020302020302020302020302020302020302020300A2020202D302E333537322020202D312E3434333820202020302E303030302043202020302020302020302020302020302020302020302020302020302020302020302020300A2020202D312E303731372020202D302E3230363320202020302E303030302043202020302020302020302020302020302020302020302020302020302020302020302020300A20202020302E333537322020202D312E3033313220202020302E303030302043202020302020302020302020302020302020302020302020302020302020302020302020300A2020202D312E303731372020202D312E3033313320202020302E303030302043202020302020302020302020302020302020302020302020302020302020302020302020300A20202020312E303731372020202D312E3434333820202020302E303030302043202020302020302020302020302020302020302020302020302020302020302020302020300A2020202D302E3335373220202020312E3033313220202020302E303030302043202020302020302020302020302020302020302020302020302020302020302020302020300A2020202D312E3037313720202020312E3434333820202020302E30303030204F202020302020302020302020302020302020302020302020302020302020302020302020300A20202020302E3335373220202020312E3434333820202020302E3030303020436C2020302020302020302020302020302020302020302020302020302020302020302020300A2020312020322020312020302020202020200A2020312020342020322020302020202020200A2020322020352020322020302020202020200A2020332020352020312020302020202020200A2020332020362020322020302020202020200A2020342020362020312020302020202020200A2020352020372020312020302020202020200A2020312020382020312020302020202020200A2020382020392020322020302020202020200A2020382031302020312020302020202020200A4D2020454E44
Contributor: TAJIMA S, GUNMA COLLEGE OF TECHNOLOGY
InstType: EI
InstName: HITACHI RMU-7M
IoniMethod: _ENERGY 70 eV
IonPolarity: pos
Date: 2010-10-09 19:48:36+02:00
Num Peaks: 22
38 18 39 122 41 17 45 17 45.5 36 50 50 51 45 59 21 59.5 12 61 10 
62 37 63 103 64 17 65 229 89 74 90 28 91 724 92 46 119 999 120 76 
154 64 156 17 
