Name: CYCLOPENTENE-1-CARBOXAMIDE
MW: 111
Formula: C6H9NO
Synonym: MassBank: JP000757
Synonym: CYCLOPENTENE-1-CARBOXAMIDE
Structure: 310A32310A4359434C4F50454E54454E452D312D434152424F58414D4944452E6D6F6C0A20204368656D447261773039323031303039303732440A2020382020382020302020302020302020302020302020302020302020303939392056323030300A20202020302E303136302020202D302E3030303020202020302E303030302043202020302020302020302020302020302020302020302020302020302020302020302020300A2020202D302E343638392020202D302E3636373420202020302E303030302043202020302020302020302020302020302020302020302020302020302020302020302020300A2020202D312E323533352020202D302E3431323520202020302E303030302043202020302020302020302020302020302020302020302020302020302020302020302020300A2020202D312E3235333520202020302E3431323520202020302E303030302043202020302020302020302020302020302020302020302020302020302020302020302020300A2020202D302E3436383920202020302E3636373420202020302E303030302043202020302020302020302020302020302020302020302020302020302020302020302020300A20202020302E383431302020202D302E3030303020202020302E303030302043202020302020302020302020302020302020302020302020302020302020302020302020300A20202020312E3235333520202020302E3731343520202020302E30303030204F202020302020302020302020302020302020302020302020302020302020302020302020300A20202020312E323533352020202D302E3731343520202020302E30303030204E202020302020302020302020302020302020302020302020302020302020302020302020300A2020312020322020322020302020202020200A2020322020332020312020302020202020200A2020332020342020312020302020202020200A2020342020352020312020302020202020200A2020312020352020312020302020202020200A2020362020372020322020302020202020200A2020362020382020312020302020202020200A2020312020362020312020302020202020200A4D2020454E44
Contributor: ITO S, DEPT. OF CHEM., TOHOKU UNIV.
InstType: EI
InstName: HITACHI M-52
IoniMethod: _ENERGY 25 eV
IonPolarity: pos
Date: 2010-10-09 19:48:36+02:00
Num Peaks: 23
18 45 27 24 28 80 30 3 32 20 39 81 40 60 41 25 42 21 44 157 
53 41 65 14 66 156 67 786 68 134 82 6 83 19 94 69 95 444 96 9 
110 192 111 999 112 86 
