Name: BETA-SANTALENE
CAS: 511-59-1
MW: 204
Formula: C15H24
Synonym: MassBank: JP007580
Synonym: BETA-SANTALENE
Synonym: 2-METHYL-5-(2-METHYL-3-METHYLENEBICYCLO(2.2.1)HEPT-2-YL)-2-PENTENE
Structure: 424554412D53414E54414C454E452E6D6F6C0A20204368656D447261773031323231303037313032440A2031352031362020302020302020302020302020302020302020302020303939392056323030300A20202020302E3538373620202020312E3631353120202020302E303030302043202020302020302020302020302020302020302020302020302020302020302020302020300A20202020302E3538373620202020302E3739303120202020302E303030302043202020302020302020302020302020302020302020302020302020302020302020302020300A20202020312E3330323120202020302E3337373620202020302E303030302043202020302020302020302020302020302020302020302020302020302020302020302020300A20202020322E3031363620202020302E3739303120202020302E303030302043202020302020302020302020302020302020302020302020302020302020302020302020300A20202020322E3031363620202020312E3631353120202020302E303030302043202020302020302020302020302020302020302020302020302020302020302020302020300A20202020312E3330323120202020322E3032373620202020302E303030302043202020302020302020302020302020302020302020302020302020302020302020302020300A20202020312E3338343520202020312E3430313620202020302E303030302043202020302020302020302020302020302020302020302020302020302020302020302020300A2020202D302E3233373420202020302E3739303120202020302E303030302043202020302020302020302020302020302020302020302020302020302020302020302020300A20202020302E333734312020202D302E3030363820202020302E303030302043202020302020302020302020302020302020302020302020302020302020302020302020300A20202020312E333032312020202D302E3434373420202020302E303030302043202020302020302020302020302020302020302020302020302020302020302020302020300A2020202D302E343232382020202D302E3232303320202020302E303030302043202020302020302020302020302020302020302020302020302020302020302020302020300A2020202D302E363336332020202D312E3031373220202020302E303030302043202020302020302020302020302020302020302020302020302020302020302020302020300A2020202D312E343333322020202D312E3233303720202020302E303030302043202020302020302020302020302020302020302020302020302020302020302020302020300A2020202D312E363436372020202D322E3032373620202020302E303030302043202020302020302020302020302020302020302020302020302020302020302020302020300A2020202D322E303136362020202D302E3634373420202020302E303030302043202020302020302020302020302020302020302020302020302020302020302020302020300A2020312020322020312020302020202020200A2020322020332020312020302020202020200A2020332020342020312020302020202020200A2020342020352020312020302020202020200A2020352020362020312020302020202020200A2020362020312020312020302020202020200A2020312020372020312020362020202020200A2020342020372020312020362020202020200A2020322020382020312020312020202020200A2020322020392020312020362020202020200A2020332031302020322020302020202020200A2020392031312020312020302020202020200A2031312031322020312020302020202020200A2031322031332020322020302020202020200A2031332031342020312020302020202020200A2031332031352020312020302020202020200A4D2020454E44
Contributor: TAKEUCHI T, DEP. CHEMISTRY, FAC. SCIENCE, NARA WOMEN'S UNIV.
InstType: EI
InstName: HITACHI M-80
IoniMethod: _ENERGY 20 eV
IonPolarity: pos
Date: 2010-10-09 19:48:36+02:00
Num Peaks: 26
27 66 29 60 39 82 41 365 53 66 55 201 67 126 69 167 77 113 79 226 
93 343 94 999 105 94 107 97 121 170 122 346 133 38 135 31 147 19 148 13 
161 50 162 6 176 6 189 16 203 13 204 31 
