Name: METHYLALLYLHYDRAZONE ACETONE
MW: 126
Formula: C7H14N2
Synonym: MassBank: JP000863
Synonym: METHYLALLYLHYDRAZONE ACETONE
Synonym: ACETONE ALLYLMETHYLHYDRAZONE
Structure: 310A32320A4D455448594C414C4C594C48594452415A4F4E4520414345544F4E452E6D6F6C0A20204368656D447261773036323431303137353732440A2020392020382020302020302020302020302020302020302020302020303939392056323030300A20202020322E313433342020202D302E3631383820202020302E303030302043202020302020302020302020302020302020302020302020302020302020302020302020300A20202020312E343238392020202D302E3230363220202020302E303030302043202020302020302020302020302020302020302020302020302020302020302020302020300A20202020312E3432383920202020302E3631383820202020302E303030302043202020302020302020302020302020302020302020302020302020302020302020302020300A20202020302E373134352020202D302E3631383820202020302E30303030204E202020302020302020302020302020302020302020302020302020302020302020302020300A2020202D302E303030302020202D302E3230363220202020302E30303030204E202020302020302020302020302020302020302020302020302020302020302020302020300A2020202D302E3030303020202020302E3631383820202020302E303030302043202020302020302020302020302020302020302020302020302020302020302020302020300A2020202D302E373134352020202D302E3631383820202020302E303030302043202020302020302020302020302020302020302020302020302020302020302020302020300A2020202D312E343238392020202D302E3230363220202020302E303030302043202020302020302020302020302020302020302020302020302020302020302020302020300A2020202D322E313433342020202D302E3631383820202020302E303030302043202020302020302020302020302020302020302020302020302020302020302020302020300A2020312020322020312020302020202020200A2020322020332020312020302020202020200A2020342020352020312020302020202020200A2020352020362020312020302020202020200A2020372020382020312020302020202020200A2020382020392020322020302020202020200A2020352020372020312020302020202020200A2020322020342020322020302020202020200A4D2020454E44
Contributor: SASAKI S, TOYOHASHI UNIV. OF TECH.
InstType: EI
InstName: SHIMADZU LKB-2091
IoniMethod: _ENERGY 70 eV
IonPolarity: pos
Date: 2010-10-09 19:48:36+02:00
Num Peaks: 26
29 83 30 94 39 254 40 6 41 461 42 593 43 165 44 35 54 32 55 230 
56 999 57 6 58 51 68 83 69 31 70 10 71 24 83 310 84 50 85 55 
86 34 99 201 111 36 125 3 126 446 127 46 
