Name: DICHLORODIMETHYLGERMANE
CAS: 1529-48-2
MW: 173
Formula: C2H6Cl2Ge
Synonym: MassBank: JP004790
Synonym: DICHLORODIMETHYLGERMANE
Structure: 310A31340A444943484C4F524F44494D455448594C4745524D414E452E6D6F6C0A20204368656D447261773039323131303138313732440A2020352020342020302020302020302020302020302020302020302020303939392056323030300A20202020302E3030303020202020302E3030303020202020302E303030302047652020302020302020302020302020302020302020302020302020302020302020302020300A20202020302E303030302020202D302E3832353020202020302E303030302043202020302020302020302020302020302020302020302020302020302020302020302020300A2020202D302E3832353020202020302E3030303020202020302E303030302043202020302020302020302020302020302020302020302020302020302020302020302020300A20202020302E3030303020202020302E3832353020202020302E3030303020436C2020302020302020302020302020302020302020302020302020302020302020302020300A20202020302E3832353020202020302E3030303020202020302E3030303020436C2020302020302020302020302020302020302020302020302020302020302020302020300A2020312020322020312020302020202020200A2020312020332020312020302020202020200A2020312020342020312020302020202020200A2020312020352020312020302020202020200A4D2020454E44
Contributor: MASS SPECTROSCOPY SOC. OF JAPAN (MSSJ)
InstType: EI
InstName: JEOL JMS-D-3000
IoniMethod: _ENERGY 70 eV
IonPolarity: pos
Date: 2010-10-09 19:48:36+02:00
Num Peaks: 47
70 16 72 21 84 13 85 34 86 20 87 49 88 31 89 50 105 116 107 189 
108 45 109 252 110 16 111 114 113 16 120 20 121 14 122 34 123 24 124 37 
125 11 126 15 135 151 136 10 137 257 138 73 139 335 140 35 141 149 142 11 
143 20 144 12 155 378 157 729 158 154 159 999 160 106 161 622 162 23 163 160 
165 15 170 42 172 81 173 18 174 114 175 12 176 70 
