Name: LAVANDULOL
MW: 154
Formula: C10H18O
Synonym: MassBank: JP006927
Synonym: LAVANDULOL
Synonym: 5-METHYL-2-(1-METHYLETHENYL)-4-HEXEN-1-OL
Structure: 4C4156414E44554C4F4C2E6D6F6C0A20204368656D447261773034323331303037303132440A2031312031302020302020302020302020302020302020302020302020303939392056323030300A2020202D312E3434333820202020302E3335373220202020302E303030302043202020302020302020302020302020302020302020302020302020302020302020302020300A2020202D302E3631383820202020302E3335373220202020302E303030302043202020302020302020302020302020302020302020302020302020302020302020302020300A2020202D302E3230363220202020312E3037313720202020302E303030302043202020302020302020302020302020302020302020302020302020302020302020302020300A20202020302E3631383720202020312E3037313720202020302E303030302043202020302020302020302020302020302020302020302020302020302020302020302020300A2020202D302E3631383820202020312E3738363220202020302E303030302043202020302020302020302020302020302020302020302020302020302020302020302020300A2020202D302E323036322020202D302E3335373220202020302E303030302043202020302020302020302020302020302020302020302020302020302020302020302020300A20202020302E363138372020202D302E3335373220202020302E303030302043202020302020302020302020302020302020302020302020302020302020302020302020300A20202020312E303331332020202D312E3037313720202020302E303030302043202020302020302020302020302020302020302020302020302020302020302020302020300A20202020312E383536332020202D312E3037313720202020302E303030302043202020302020302020302020302020302020302020302020302020302020302020302020300A20202020302E363138382020202D312E3738363220202020302E303030302043202020302020302020302020302020302020302020302020302020302020302020302020300A2020202D312E383536332020202D302E3335373220202020302E30303030204F202020302020302020302020302020302020302020302020302020302020302020302020300A2020312020322020312020302020202020200A2020322020332020312020302020202020200A2020332020342020322020302020202020200A2020332020352020312020302020202020200A2020322020362020312020302020202020200A2020362020372020312020302020202020200A2020372020382020322020302020202020200A2020382020392020312020302020202020200A2020382031302020312020302020202020200A2020312031312020312020302020202020200A4D2020454E44
Contributor: TAJIMA S, GUNMA COLLEGE OF TECHNOLOGY
InstType: EI
InstName: HITACHI M-80B
IoniMethod: _ENERGY 70 eV
IonPolarity: pos
Date: 2010-10-09 19:48:36+02:00
Num Peaks: 49
18 13 27 117 28 29 29 120 31 105 39 207 40 36 41 737 42 43 43 88 
51 29 52 16 53 128 54 13 55 99 56 20 57 28 65 35 66 15 67 143 
68 213 69 999 70 77 71 61 77 62 78 11 79 72 80 24 81 105 82 13 
83 26 84 43 85 26 91 66 92 18 93 170 94 20 95 20 105 18 107 33 
109 20 110 23 111 249 112 18 121 61 122 10 123 99 124 17 136 14 
