Name: CAMPHOR
MW: 152
Formula: C10H16O
Synonym: MassBank: JP006603
Synonym: CAMPHOR
Synonym: 1,7,7-TRIMETHYLBICYCLO(2.2.1)HEPTAN-2-ONE
Structure: 43414D50484F522E6D6F6C0A20204368656D447261773131313730393037333432440A2031312031322020302020302020302020302020302020302020302020303939392056323030300A2020202D302E3335373220202020302E3030303020202020302E303030302043202020302020302020302020302020302020302020302020302020302020302020302020300A2020202D302E333537322020202D302E3832353020202020302E303030302043202020302020302020302020302020302020302020302020302020302020302020302020300A20202020302E333537322020202D312E3233373520202020302E303030302043202020302020302020302020302020302020302020302020302020302020302020302020300A20202020312E303731372020202D302E3832353020202020302E303030302043202020302020302020302020302020302020302020302020302020302020302020302020300A20202020312E3037313720202020302E3030303020202020302E303030302043202020302020302020302020302020302020302020302020302020302020302020302020300A20202020302E3335373220202020302E3431323520202020302E303030302043202020302020302020302020302020302020302020302020302020302020302020302020300A20202020302E3436373820202020302E3030303020202020302E303030302043202020302020302020302020302020302020302020302020302020302020302020302020300A20202020302E3335373220202020312E3233373520202020302E30303030204F202020302020302020302020302020302020302020302020302020302020302020302020300A2020202D312E3037313720202020302E3431323520202020302E303030302043202020302020302020302020302020302020302020302020302020302020302020302020300A20202020302E3838303320202020302E3731343520202020302E303030302043202020302020302020302020302020302020302020302020302020302020302020302020300A20202020302E303934352020202D302E3733353820202020302E303030302043202020302020302020302020302020302020302020302020302020302020302020302020300A2020312020322020312020302020202020200A2020322020332020312020302020202020200A2020332020342020312020302020202020200A2020342020352020312020302020202020200A2020352020362020312020302020202020200A2020362020312020312020302020202020200A2020312020372020312020302020202020200A2020372020342020312020302020202020200A2020362020382020322020302020202020200A2020312020392020312020302020202020200A2020372031302020312020312020202020200A2020372031312020312020312020202020200A4D2020454E44
Contributor: HISAHIRO HAGIWARA, CHEMICAL RESEARCH INSTITUTE OF NON-AQUEOUSSOLUTIONS TOHOKU UNIV.
InstType: EI
InstName: HITACHI M-80B
IoniMethod: _ENERGY 70 eV
IonPolarity: pos
Date: 2010-10-09 19:48:36+02:00
Num Peaks: 46
15 20 26 12 27 235 29 137 38 13 39 376 40 56 41 748 42 63 43 99 
50 14 51 69 52 24 53 187 54 49 55 389 56 21 57 12 63 13 65 58 
66 19 67 252 68 175 69 393 70 23 77 79 78 15 79 82 80 140 81 762 
82 138 83 371 84 24 91 51 93 106 94 15 95 999 96 103 97 49 107 11 
108 381 109 311 110 133 137 28 152 260 153 23 
