Name: MassBank: JP002077
MW: 534
Formula: C27H34O11
Synonym: MassBank: JP002077
Synonym: 2-(3,4-DIMETHOXYPHENYL)ETHYL 6-O-(DI-O-METHYLCAFFEOYL)-BETA-(D)-GLUCOPYRANOSIDE
Structure: 322D28332C342D44494D4554484F58595048454E594C29455448594C20362D4F2D2844492D4F2D4D455448594C43414646454F594C292D424554412D2844292D474C55434F505952414E4F534944452E6D6F6C0A20204368656D447261773132323130393134353032440A2033382034302020302020302020302020302020302020302020302020303939392056323030300A20202020312E3432383820202020322E3437343620202020302E30303030204F202020302020302020302020302020302020302020302020302020302020302020302020300A20202020312E3432383820202020312E3634393620202020302E303030302043202020302020302020302020302020302020302020302020302020302020302020302020300A20202020322E3134343220202020312E3233373120202020302E303030302043202020302020302020302020302020302020302020302020302020302020302020302020300A20202020322E3835383620202020312E3634393620202020302E30303030204F202020302020302020302020302020302020302020302020302020302020302020302020300A20202020322E3134343220202020302E3431323120202020302E303030302043202020302020302020302020302020302020302020302020302020302020302020302020300A20202020322E383538372020202D302E3030303420202020302E30303030204F202020302020302020302020302020302020302020302020302020302020302020302020300A20202020312E343239382020202D302E3030303320202020302E303030302043202020302020302020302020302020302020302020302020302020302020302020302020300A20202020302E303030342020202D302E3832343620202020302E30303030204F202020302020302020302020302020302020302020302020302020302020302020302020300A20202020302E3731343820202020302E3431323920202020302E303030302043202020302020302020302020302020302020302020302020302020302020302020302020300A20202020302E3731363820202020312E3233353220202020302E30303030204F202020302020302020302020302020302020302020302020302020302020302020302020300A2020202D302E373134312020202D312E3233373120202020302E303030302043202020302020302020302020302020302020302020302020302020302020302020302020300A2020202D302E373134312020202D322E3036323120202020302E303030302043202020302020302020302020302020302020302020302020302020302020302020302020300A2020202D312E343238362020202D322E3437343620202020302E303030302043202020302020302020302020302020302020302020302020302020302020302020302020300A2020202D312E343238362020202D332E3239393620202020302E303030302043202020302020302020302020302020302020302020302020302020302020302020302020300A2020202D302E373134312020202D332E3731323120202020302E303030302043202020302020302020302020302020302020302020302020302020302020302020302020300A2020202D302E373134322020202D342E3533373120202020302E303030302043202020302020302020302020302020302020302020302020302020302020302020302020300A20202020302E303030332020202D342E3934393620202020302E30303030204F202020302020302020302020302020302020302020302020302020302020302020302020300A2020202D312E343238362020202D342E3934393620202020302E303030302043202020302020302020302020302020302020302020302020302020302020302020302020300A2020202D312E343238362020202D352E3737343620202020302E30303030204F202020302020302020302020302020302020302020302020302020302020302020302020300A2020202D322E313433312020202D342E3533373120202020302E303030302043202020302020302020302020302020302020302020302020302020302020302020302020300A2020202D322E313433312020202D332E3731323120202020302E303030302043202020302020302020302020302020302020302020302020302020302020302020302020300A2020202D312E343238362020202D302E3832343620202020302E30303030204F202020302020302020302020302020302020302020302020302020302020302020302020300A20202020302E3731333920202020322E3838373420202020302E303030302043202020302020302020302020302020302020302020302020302020302020302020302020300A20202020302E3731333920202020332E3731323120202020302E303030302043202020302020302020302020302020302020302020302020302020302020302020302020300A2020202D302E3030303720202020342E3132343720202020302E303030302043202020302020302020302020302020302020302020302020302020302020302020302020300A2020202D302E3731353220202020332E3731323120202020302E303030302043202020302020302020302020302020302020302020302020302020302020302020302020300A2020202D312E3432393720202020342E3132343620202020302E303030302043202020302020302020302020302020302020302020302020302020302020302020302020300A2020202D312E3432393720202020342E3934393620202020302E303030302043202020302020302020302020302020302020302020302020302020302020302020302020300A2020202D302E3731353220202020352E3336323120202020302E303030302043202020302020302020302020302020302020302020302020302020302020302020302020300A2020202D302E3030303820202020342E3934393620202020302E303030302043202020302020302020302020302020302020302020302020302020302020302020302020300A2020202D322E3134343220202020352E3336323120202020302E30303030204F202020302020302020302020302020302020302020302020302020302020302020302020300A2020202D322E3134343220202020362E3138373120202020302E303030302043202020302020302020302020302020302020302020302020302020302020302020302020300A2020202D322E3134343220202020332E3731323120202020302E30303030204F202020302020302020302020302020302020302020302020302020302020302020302020300A2020202D322E3835383720202020342E3132343620202020302E303030302043202020302020302020302020302020302020302020302020302020302020302020302020300A20202020302E373134382020202D342E3533373120202020302E303030302043202020302020302020302020302020302020302020302020302020302020302020302020300A2020202D322E313433312020202D362E3138373120202020302E303030302043202020302020302020302020302020302020302020302020302020302020302020302020300A20202020312E343239382020202D302E3832353320202020302E30303030204F202020302020302020302020302020302020302020302020302020302020302020302020300A20202020302E3030303420202020302E3030303420202020302E303030302043202020302020302020302020302020302020302020302020302020302020302020302020300A2020312020322020312020302020202020200A2020322020332020312020302020202020200A2020332020342020312020302020202020200A2020332020352020312020302020202020200A2020352020362020312020302020202020200A2020352020372020312020302020202020200A2020372020392020312020302020202020200A2020392031302020312020302020202020200A2020322031302020312020302020202020200A2031312031322020312020302020202020200A2031322031332020322020302020202020200A2031332031342020312020302020202020200A2031342031352020312020302020202020200A2031352031362020322020302020202020200A2031362031372020312020302020202020200A2031362031382020312020302020202020200A2031382031392020312020302020202020200A2031382032302020322020302020202020200A2032302032312020312020302020202020200A2031342032312020322020302020202020200A2031312032322020322020302020202020200A2020382031312020312020302020202020200A2032332032342020312020302020202020200A2032352032362020312020302020202020200A2032362032372020322020302020202020200A2032372032382020312020302020202020200A2032382032392020322020302020202020200A2032392033302020312020302020202020200A2032352033302020322020302020202020200A2033312033322020312020302020202020200A2032382033312020312020302020202020200A2033332033342020312020302020202020200A2032372033332020312020302020202020200A2032342032352020312020302020202020200A2020312032332020312020302020202020200A2031372033352020312020302020202020200A2031392033362020312020302020202020200A2020372033372020312020302020202020200A2020392033382020312020302020202020200A2033382020382020312020302020202020200A4D2020454E44
Contributor: ENDO K, PHARMACEUTICAL INST., TOHOKU UNIV.
InstType: EI
InstName: HITACHI M-52
IoniMethod: _ENERGY 20 eV
IonPolarity: pos
Date: 2010-10-09 19:48:36+02:00
Num Peaks: 44
28 39 45 8 57 8 60 2 69 8 73 8 85 8 91 1 105 16 121 8 
133 8 134 1 135 16 137 16 138 31 147 1 148 8 149 16 150 23 151 18 
152 39 161 8 163 16 164 999 165 609 166 94 167 16 180 1 182 16 191 336 
192 39 193 3 194 8 195 8 208 180 209 4 210 31 326 8 344 47 370 6 
371 16 534 133 535 47 536 16 
