Name: DIETHYLNITROSAMINE
CAS: 55-18-5
MW: 102
Formula: C4H10N2O
Synonym: MassBank: JP008254
Synonym: DIETHYLNITROSAMINE
Synonym: DIETHYLNITROSAMIDE
Structure: 310A31380A4449455448594C4E4954524F53414D494E452E6D6F6C0A20204368656D447261773039323131303230333932440A2020372020362020302020302020302020302020302020302020302020303939392056323030300A2020202D302E303030302020202D302E3335373220202020302E30303030204E202020302020302020302020302020302020302020302020302020302020302020302020300A20202020302E3431323520202020302E3335373220202020302E30303030204E202020302020302020302020302020302020302020302020302020302020302020302020300A2020202D302E3030303020202020312E3037313720202020302E30303030204F202020302020302020302020302020302020302020302020302020302020302020302020300A20202020302E343132352020202D312E3037313720202020302E303030302043202020302020302020302020302020302020302020302020302020302020302020302020300A20202020312E323337352020202D312E3037313720202020302E303030302043202020302020302020302020302020302020302020302020302020302020302020302020300A2020202D302E383235302020202D302E3335373220202020302E303030302043202020302020302020302020302020302020302020302020302020302020302020302020300A2020202D312E323337352020202D312E3037313720202020302E303030302043202020302020302020302020302020302020302020302020302020302020302020302020300A2020322020332020322020302020202020200A2020312020322020312020302020202020200A2020342020352020312020302020202020200A2020312020342020312020302020202020200A2020362020372020312020302020202020200A2020312020362020312020302020202020200A4D2020454E44
Contributor: UBE SCIENTIFIC ANALYSIS LABORATORY
InstType: EI
InstName: HITACHI M-60
IoniMethod: _ENERGY 70 eV
IonPolarity: pos
Date: 2010-10-09 19:48:36+02:00
Num Peaks: 25
14 31 15 124 18 331 26 63 27 359 28 273 29 660 30 83 40 18 41 75 
42 878 43 46 44 987 45 44 54 8 55 13 56 498 57 492 70 25 71 50 
73 12 85 27 87 38 102 999 103 58 
