Name: MassBank: JP009788
MW: 170
Formula: C11H22O
Synonym: MassBank: JP009788
Synonym: 4,8-DIMETHYL-4-HYDROXY-1-NONENE
Synonym: 4,8-DIMETHYL-1-NONEN-4-OL
Structure: 342C382D44494D455448594C2D342D485944524F58592D312D4E4F4E454E452E6D6F6C0A20204368656D447261773130313831303137313032440A2031322031312020302020302020302020302020302020302020302020303939392056323030300A2020202D322E3135383220202020302E3736393720202020302E303030302043202020302020302020302020302020302020302020302020302020302020302020302020300A2020202D322E313538322020202D302E3035353320202020302E303030302043202020302020302020302020302020302020302020302020302020302020302020302020300A2020202D312E343433372020202D302E3436373820202020302E303030302043202020302020302020302020302020302020302020302020302020302020302020302020300A2020202D302E373239332020202D302E3035353320202020302E303030302043202020302020302020302020302020302020302020302020302020302020302020302020300A2020202D302E333136382020202D302E3736393720202020302E303030302043202020302020302020302020302020302020302020302020302020302020302020302020300A20202020302E353038322020202D302E3736393720202020302E303030302043202020302020302020302020302020302020302020302020302020302020302020302020300A20202020302E393230372020202D302E3035353320202020302E303030302043202020302020302020302020302020302020302020302020302020302020302020302020300A20202020312E373435372020202D302E3035353320202020302E303030302043202020302020302020302020302020302020302020302020302020302020302020302020300A20202020322E3135383220202020302E3635393220202020302E303030302043202020302020302020302020302020302020302020302020302020302020302020302020300A2020202D312E3134313820202020302E3635393220202020302E30303030204F202020302020302020302020302020302020302020302020302020302020302020302020300A20202020322E313538322020202D302E3736393720202020302E303030302043202020302020302020302020302020302020302020302020302020302020302020302020300A2020202D302E3031343820202020302E3335373220202020302E303030302043202020302020302020302020302020302020302020302020302020302020302020302020300A2020312020322020322020302020202020200A2020322020332020312020302020202020200A2020332020342020312020302020202020200A2020342020352020312020302020202020200A2020352020362020312020302020202020200A2020362020372020312020302020202020200A2020372020382020312020302020202020200A2020382020392020312020302020202020200A2020342031302020312020302020202020200A2020382031312020312020302020202020200A2020342031322020312020302020202020200A4D2020454E44
Contributor: KURARAY CO., LTD.
InstType: EI
InstName: JEOL JMS-D-300
IoniMethod: _ENERGY 70 eV
IonPolarity: pos
Date: 2010-10-09 19:48:36+02:00
Num Peaks: 26
27 45 29 57 39 58 41 19 43 864 45 91 55 263 56 2 57 57 58 58 
67 52 69 999 70 71 71 42 81 42 82 2 83 19 85 388 86 22 87 3 
95 94 111 269 112 25 113 3 129 286 130 25 
