Name: (3S)-5-BROMO-3-(TERT-BUTYLDIMETHYLSILYLOXY)-1-PIVALOYLOXYPENTANE
MW: 380
Formula: C16H33BrO3Si
Synonym: MassBank: JP007256
Synonym: (3S)-5-BROMO-3-(TERT-BUTYLDIMETHYLSILYLOXY)-1-PIVALOYLOXYPENTANE
Structure: 283353292D352D42524F4D4F2D332D28544552542D425554594C44494D455448594C53494C594C4F5859292D312D504956414C4F594C4F585950454E54414E452E6D6F6C0A20204368656D447261773130323130393034303132440A2032322032312020302020302020302020302020302020302020302020303939392056323030300A2020202D332E353732342020202D302E3631383820202020302E303030302043202020302020302020302020302020302020302020302020302020302020302020302020300A2020202D322E383537392020202D302E3230363220202020302E303030302043202020302020302020302020302020302020302020302020302020302020302020302020300A2020202D322E313433342020202D302E3631383820202020302E303030302053692020302020302020302020302020302020302020302020302020302020302020302020300A2020202D312E343238392020202D302E3230363220202020302E30303030204F202020302020302020302020302020302020302020302020302020302020302020302020300A2020202D302E373134352020202D302E3631383820202020302E303030302043202020302020302020302020302020302020302020302020302020302020302020302020300A20202020302E303030302020202D302E3230363220202020302E303030302043202020302020302020302020302020302020302020302020302020302020302020302020300A20202020302E373134352020202D302E3631383820202020302E303030302043202020302020302020302020302020302020302020302020302020302020302020302020300A20202020312E343238392020202D302E3230363220202020302E30303030204F202020302020302020302020302020302020302020302020302020302020302020302020300A20202020322E313433342020202D302E3631383820202020302E303030302043202020302020302020302020302020302020302020302020302020302020302020302020300A2020202D322E3835373920202020302E3631383820202020302E303030302043202020302020302020302020302020302020302020302020302020302020302020302020300A2020202D322E383537392020202D312E3033313320202020302E303030302043202020302020302020302020302020302020302020302020302020302020302020302020300A2020202D302E373134352020202D312E3434333820202020302E303030302048202020302020302020302020302020302020302020302020302020302020302020302020300A2020202D302E3731343520202020302E3230363220202020302E303030302043202020302020302020302020302020302020302020302020302020302020302020302020300A20202020322E383537392020202D302E3230363220202020302E303030302043202020302020302020302020302020302020302020302020302020302020302020302020300A20202020322E313433342020202D312E3434333820202020302E30303030204F202020302020302020302020302020302020302020302020302020302020302020302020300A20202020332E3537323420202020302E3230363220202020302E303030302043202020302020302020302020302020302020302020302020302020302020302020302020300A20202020322E3434353420202020302E3530383220202020302E303030302043202020302020302020302020302020302020302020302020302020302020302020302020300A20202020332E323730342020202D302E3932303720202020302E303030302043202020302020302020302020302020302020302020302020302020302020302020302020300A2020202D312E3432383920202020302E3631383820202020302E303030302043202020302020302020302020302020302020302020302020302020302020302020302020300A2020202D312E3432383920202020312E3434333820202020302E303030302042722020302020302020302020302020302020302020302020302020302020302020302020300A2020202D322E3134333720202020302E3230363220202020302E303030302043202020302020302020302020302020302020302020302020302020302020302020302020300A2020202D322E313433372020202D312E3434333820202020302E303030302043202020302020302020302020302020302020302020302020302020302020302020302020300A2020312020322020312020302020202020200A2020322020332020312020302020202020200A2020332020342020312020302020202020200A2020342020352020312020302020202020200A2020352020362020312020302020202020200A2020362020372020312020302020202020200A2020372020382020312020302020202020200A2020382020392020312020302020202020200A2020322031302020312020312020202020200A2020322031312020312020312020202020200A2020352031322020312020312020202020200A2020352031332020312020312020202020200A2020392031342020312020302020202020200A2020392031352020322020302020202020200A2031342031362020312020302020202020200A2031342031372020312020312020202020200A2031342031382020312020312020202020200A2031332031392020312020302020202020200A2031392032302020312020302020202020200A2020332032312020312020302020202020200A2020332032322020312020302020202020200A4D202053545920203120202031205355500A4D2020534C4220203120202031202020310A4D202053414C20202031202031202032310A4D202053424C20202031202031202032300A4D2020534D5420202031204D650A4D2020534256202020312032302020202D372E3437303820202020372E383538310A4D202053545920203120202032205355500A4D2020534C4220203120202032202020320A4D202053414C20202032202031202032320A4D202053424C20202032202031202032310A4D2020534D5420202032204D650A4D2020534256202020322032312020202D372E3437303820202020362E323038310A4D2020454E44
Contributor: ITO S, DEPT. OF CHEM., TOHOKU UNIV.
InstType: EI
InstName: HITACHI M-52
IoniMethod: _ENERGY 14 eV
IonPolarity: pos
Date: 2010-10-09 19:48:36+02:00
Num Peaks: 21
41 20 55 54 56 999 57 5 67 46 75 18 85 947 86 5 103 40 147 34 
159 679 160 2 161 24 171 42 177 79 249 2 251 58 323 73 324 22 325 11 
326 8 
