Name: CIS-9-TETRADECENOIC ACID METHYL ESTER
MW: 240
Formula: C15H28O2
Synonym: MassBank: JP002186
Synonym: CIS-9-TETRADECENOIC ACID METHYL ESTER
Synonym: MYRISTOLEIC ACID METHYL ESTER
Structure: 4349532D392D5445545241444543454E4F49432041434944204D455448594C2045535445522E6D6F6C0A20204368656D447261773038313131303137323232440A2031372031362020302020302020302020302020302020302020302020303939392056323030300A20202020332E353732342020202D312E3033313220202020302E303030302043202020302020302020302020302020302020302020302020302020302020302020302020300A20202020322E383537392020202D302E3631383720202020302E303030302043202020302020302020302020302020302020302020302020302020302020302020302020300A20202020322E313433342020202D312E3033313220202020302E303030302043202020302020302020302020302020302020302020302020302020302020302020302020300A20202020312E343238392020202D302E3631383720202020302E303030302043202020302020302020302020302020302020302020302020302020302020302020302020300A20202020302E373134352020202D312E3033313220202020302E303030302043202020302020302020302020302020302020302020302020302020302020302020302020300A2020202D302E303030302020202D302E3631383720202020302E303030302043202020302020302020302020302020302020302020302020302020302020302020302020300A2020202D302E373134352020202D312E3033313220202020302E303030302043202020302020302020302020302020302020302020302020302020302020302020302020300A2020202D312E343238392020202D302E3631383820202020302E303030302043202020302020302020302020302020302020302020302020302020302020302020302020300A2020202D322E313433342020202D312E3033313320202020302E303030302043202020302020302020302020302020302020302020302020302020302020302020302020300A2020202D322E383537392020202D302E3631383820202020302E303030302043202020302020302020302020302020302020302020302020302020302020302020302020300A2020202D322E3835373920202020302E3230363220202020302E303030302043202020302020302020302020302020302020302020302020302020302020302020302020300A2020202D332E3537323420202020302E3631383720202020302E303030302043202020302020302020302020302020302020302020302020302020302020302020302020300A2020202D332E3537323420202020312E3434333720202020302E303030302043202020302020302020302020302020302020302020302020302020302020302020302020300A2020202D342E3238363820202020312E3835363220202020302E303030302043202020302020302020302020302020302020302020302020302020302020302020302020300A20202020332E353732342020202D312E3835363220202020302E30303030204F202020302020302020302020302020302020302020302020302020302020302020302020300A20202020342E323836382020202D302E3631383720202020302E30303030204F202020302020302020302020302020302020302020302020302020302020302020302020300A20202020342E3238363820202020302E3230363320202020302E303030302043202020302020302020302020302020302020302020302020302020302020302020302020300A2020312020322020312020302020202020200A2020322020332020312020302020202020200A2020332020342020312020302020202020200A2020342020352020312020302020202020200A2020352020362020312020302020202020200A2020362020372020312020302020202020200A2020372020382020312020302020202020200A2020382020392020312020302020202020200A2020392031302020322020302020202020200A2031302031312020312020302020202020200A2031312031322020312020302020202020200A2031322031332020312020302020202020200A2031332031342020312020302020202020200A2020312031352020322020302020202020200A2020312031362020312020302020202020200A2031362031372020312020302020202020200A4D2020454E44
Contributor: KOGA M, UNIV. OF OCCUPATIONAL AND ENVIRONMENTAL HEALTH
InstType: EI
InstName: JEOL JMS-01-SG
IoniMethod: _ENERGY 70 eV
IonPolarity: pos
Date: 2010-10-09 19:48:36+02:00
Num Peaks: 96
43 17 45 38 53 130 54 35 55 922 56 215 59 257 65 5 66 21 67 565 
68 335 69 93 70 197 71 63 72 14 73 8 74 999 75 127 77 21 78 3 
79 120 80 84 81 434 82 36 83 604 84 575 85 123 87 71 88 53 91 45 
93 74 94 10 95 300 96 590 97 494 98 53 99 70 100 24 101 102 105 3 
107 60 108 56 109 204 110 31 111 279 112 106 113 95 114 6 115 84 119 63 
121 77 122 2 123 204 124 268 125 144 126 5 127 49 128 60 129 45 133 5 
134 28 135 53 136 14 137 14 138 98 139 45 141 63 143 3 144 17 147 53 
148 42 149 1 151 74 152 60 153 14 154 1 157 14 161 31 164 95 165 7 
166 293 167 53 170 14 172 1 179 28 180 31 190 56 191 2 194 14 197 24 
208 257 209 17 210 28 222 14 240 70 241 17 
