Name: BENZYLHYDRAZINE
MW: 122
Formula: C7H10N2
Synonym: MassBank: JP000375
Synonym: BENZYLHYDRAZINE
Structure: 310A32330A42454E5A594C48594452415A494E452E6D6F6C0A20204368656D447261773039303531303131333332440A2020392020392020302020302020302020302020302020302020302020303939392056323030300A2020202D312E3033313320202020302E3731343520202020302E30303030204E202020302020302020302020302020302020302020302020302020302020302020302020300A2020202D312E3835363320202020302E3731343520202020302E30303030204E202020302020302020302020302020302020302020302020302020302020302020302020300A2020202D302E363138372020202D302E3030303020202020302E303030302043202020302020302020302020302020302020302020302020302020302020302020302020300A20202020302E323036322020202D302E3030303020202020302E303030302043202020302020302020302020302020302020302020302020302020302020302020302020300A20202020302E3631383820202020302E3731343520202020302E303030302043202020302020302020302020302020302020302020302020302020302020302020302020300A20202020312E3434333720202020302E3731343520202020302E303030302043202020302020302020302020302020302020302020302020302020302020302020302020300A20202020312E383536332020202D302E3030303020202020302E303030302043202020302020302020302020302020302020302020302020302020302020302020302020300A20202020312E343433372020202D302E3731343520202020302E303030302043202020302020302020302020302020302020302020302020302020302020302020302020300A20202020302E363138372020202D302E3731343520202020302E303030302043202020302020302020302020302020302020302020302020302020302020302020302020300A2020312020322020312020302020202020200A2020332020342020312020302020202020200A2020342020352020312020302020202020200A2020352020362020322020302020202020200A2020362020372020312020302020202020200A2020372020382020322020302020202020200A2020382020392020312020302020202020200A2020342020392020322020302020202020200A2020312020332020312020302020202020200A4D2020454E44
Contributor: SASAKI S, TOYOHASHI UNIV. OF TECH.
InstType: EI
InstName: SHIMADZU LKB-2091
IoniMethod: _ENERGY 70 eV
IonPolarity: pos
Date: 2010-10-09 19:48:36+02:00
Num Peaks: 34
27 14 30 11 31 27 38 1 39 56 41 15 43 25 44 1 45 27 50 26 
51 58 52 2 62 8 63 27 64 8 65 14 66 10 76 9 77 57 78 2 
79 14 89 20 90 8 91 999 92 160 93 30 103 8 104 3 105 11 106 25 
107 15 121 1 122 318 123 31 
