Name: 4-SEC-BUTYLCYCLOHEXANOL
MW: 156
Formula: C10H20O
Synonym: MassBank: JP003593
Synonym: 4-SEC-BUTYLCYCLOHEXANOL
Structure: 342D5345432D425554594C4359434C4F484558414E4F4C2E6D6F6C0A20204368656D447261773034323231303231313232440A2031312031312020302020302020302020302020302020302020302020303939392056323030300A2020202D312E303331332020202D302E3335373220202020302E303030302043202020302020302020302020302020302020302020302020302020302020302020302020300A2020202D302E3631383820202020302E3335373220202020302E303030302043202020302020302020302020302020302020302020302020302020302020302020302020300A20202020302E3230363220202020302E3335373220202020302E303030302043202020302020302020302020302020302020302020302020302020302020302020302020300A20202020302E363138372020202D302E3335373220202020302E303030302043202020302020302020302020302020302020302020302020302020302020302020302020300A20202020302E323036322020202D312E3037313720202020302E303030302043202020302020302020302020302020302020302020302020302020302020302020302020300A2020202D302E363138382020202D312E3037313720202020302E303030302043202020302020302020302020302020302020302020302020302020302020302020302020300A20202020312E343433372020202D302E3335373220202020302E303030302043202020302020302020302020302020302020302020302020302020302020302020302020300A20202020312E3835363320202020302E3335373220202020302E303030302043202020302020302020302020302020302020302020302020302020302020302020302020300A20202020312E3434333720202020312E3037313720202020302E303030302043202020302020302020302020302020302020302020302020302020302020302020302020300A20202020312E383536322020202D312E3037313720202020302E303030302043202020302020302020302020302020302020302020302020302020302020302020302020300A2020202D312E383536332020202D302E3335373220202020302E30303030204F202020302020302020302020302020302020302020302020302020302020302020302020300A2020312020322020312020302020202020200A2020322020332020312020302020202020200A2020332020342020312020302020202020200A2020342020352020312020302020202020200A2020352020362020312020302020202020200A2020312020362020312020302020202020200A2020372020382020312020302020202020200A2020382020392020312020302020202020200A2020372031302020312020302020202020200A2020342020372020312020302020202020200A2020312031312020312020302020202020200A4D2020454E44
Contributor: MASS SPECTROSCOPY SOC. OF JAPAN (MSSJ)
InstType: EI
InstName: Unknown
IoniMethod: EI
IonPolarity: pos
Date: 2010-10-09 19:48:36+02:00
Num Peaks: 43
18 28 27 70 28 20 29 9 31 30 39 70 40 30 41 20 42 38 43 116 
44 40 45 3 53 55 54 65 55 250 56 7 57 330 58 35 66 30 67 25 
68 30 69 40 70 70 71 7 72 70 77 28 79 50 80 15 81 999 82 272 
83 90 84 3 95 40 96 80 97 50 98 3 99 30 108 20 109 510 123 4 
138 145 139 28 110 70 
