Name: METHYL PARATHION
MW: 263
Formula: C8H10NO5PS
Synonym: MassBank: JP003250
Synonym: METHYL PARATHION
Structure: 303630355F4D455448594C20504152415448494F4E2E6D6F6C0A20204368656D447261773039303631303139323732440A2031362031362020302020302020302020302020302020302020302020303939392056323030300A2020202D312E343238392020202D302E3330323020202020302E303030302043202020302020302020302020302020302020302020302020302020302020302020302020300A2020202D312E343238392020202D312E3132373020202020302E303030302043202020302020302020302020302020302020302020302020302020302020302020302020300A2020202D302E373134352020202D312E3533393520202020302E303030302043202020302020302020302020302020302020302020302020302020302020302020302020300A20202020302E303030302020202D312E3132373020202020302E303030302043202020302020302020302020302020302020302020302020302020302020302020302020300A20202020302E303030302020202D302E3330323020202020302E303030302043202020302020302020302020302020302020302020302020302020302020302020302020300A2020202D302E3731343520202020302E3131303520202020302E303030302043202020302020302020302020302020302020302020302020302020302020302020302020300A2020202D302E3731343520202020302E3933353520202020302E30303030204F202020302020302020302020302020302020302020302020302020302020302020302020300A20202020302E3030303820202020312E3334363720202020302E303030302050202020302020302020302020302020302020302020302020302020302020302020302020300A2020202D302E3431313720202020322E3036323020202020302E30303030204F202020302020302020302020302020302020302020302020302020302020302020302020300A20202020302E3731343820202020312E3735393220202020302E30303030204F202020302020302020302020302020302020302020302020302020302020302020302020300A20202020302E3431333320202020302E3633323720202020302E303030302053202020302020302020302020302020302020302020302020302020302020302020302020300A2020202D302E3030303020202020322E3737373020202020302E303030302043202020302020302020302020302020302020302020302020302020302020302020302020300A20202020312E3432383920202020312E3334383020202020302E303030302043202020302020302020302020302020302020302020302020302020302020302020302020300A2020202D302E373134352020202D322E3336343520202020302E30303030204E202020302020332020302020302020302020302020302020302020302020302020302020300A20202020302E303030302020202D322E3737373020202020302E30303030204F202020302020302020302020302020302020302020302020302020302020302020302020300A2020202D312E343238392020202D322E3737373020202020302E30303030204F202020302020352020302020302020302020302020302020302020302020302020302020300A2020312020322020322020302020202020200A2020322020332020312020302020202020200A2020332020342020322020302020202020200A2020342020352020312020302020202020200A2020352020362020322020302020202020200A2020362020312020312020302020202020200A2020332031342020312020302020202020200A2020362020372020312020302020202020200A2020372020382020312020302020202020200A2020382020392020312020302020202020200A2020382031302020312020302020202020200A2020382031312020322020302020202020200A2020392031322020312020302020202020200A2031302031332020312020302020202020200A2031342031352020322020302020202020200A2031342031362020312020302020202020200A4D202043484720203220203134202020312020313620202D310A4D2020454E44
Contributor: MASS SPECTROSCOPY SOC. OF JAPAN (MSSJ)
InstType: EI
InstName: HITACHI RMU-6E
IoniMethod: _ENERGY 70 eV
IonPolarity: pos
Date: 2010-10-09 19:48:36+02:00
Num Peaks: 10
263 999 246 150 232 120 231 90 200 150 137 170 125 870 109 860 93 350 79 470 
