Name: DICYAN
CAS: 460-19-5
MW: 52
Formula: C2N2
Synonym: MassBank: JP008231
Synonym: DICYAN
Synonym: CYANOGEN
Structure: 310A31320A44494359414E2E6D6F6C0A20204368656D447261773039313531303034353932440A2020342020332020302020302020302020302020302020302020302020303939392056323030300A2020202D302E3431323520202020302E3030303020202020302E303030302043202020302020302020302020302020302020302020302020302020302020302020302020300A20202020302E3431323520202020302E3030303020202020302E303030302043202020302020302020302020302020302020302020302020302020302020302020302020300A20202020312E3233373520202020302E3030303020202020302E30303030204E202020302020302020302020302020302020302020302020302020302020302020302020300A2020202D312E3233373520202020302E3030303020202020302E30303030204E202020302020302020302020302020302020302020302020302020302020302020302020300A2020312020322020312020302020202020200A2020322020332020332020302020202020200A2020312020342020332020302020202020200A4D2020454E44
Contributor: UBE SCIENTIFIC ANALYSIS LABORATORY
InstType: EI
InstName: HITACHI M-60
IoniMethod: _ENERGY 70 eV
IonPolarity: pos
Date: 2010-10-09 19:48:36+02:00
Num Peaks: 13
12 30 14 17 15 6 24 39 26 145 28 17 29 14 30 58 31 7 38 26 
44 31 52 999 53 30 
