Name: ALPHA-IONONE
CAS: 24190-29-2
MW: 192
Formula: C13H20O
Synonym: MassBank: JP007557
Synonym: ALPHA-IONONE
Synonym: (R-(E))-4-(2,6,6-TRIMETHYL-2-CYCLOHEXEN-1-YL)-3-BUTEN-2-ONE
Structure: 28522D284529292D342D28322C362C362D5452494D455448594C2D322D4359434C4F484558454E2D312D594C292D332D425554454E2D322D4F4E452E6D6F6C0A20204368656D447261773130323230393231303532440A2031382031382020302020302020302020302020302020302020302020303939392056323030300A20202020302E3136353820202020302E3139323220202020302E303030302043202020302020302020302020302020302020302020302020302020302020302020302020300A20202020302E313635382020202D302E3633323820202020302E303030302043202020302020302020302020302020302020302020302020302020302020302020302020300A20202020302E383830332020202D312E3034353320202020302E303030302043202020302020302020302020302020302020302020302020302020302020302020302020300A20202020312E353934372020202D302E3633323820202020302E303030302043202020302020302020302020302020302020302020302020302020302020302020302020300A20202020312E3539343720202020302E3139323220202020302E303030302043202020302020302020302020302020302020302020302020302020302020302020302020300A20202020302E3838303320202020302E3630343720202020302E303030302043202020302020302020302020302020302020302020302020302020302020302020302020300A20202020302E3838303320202020312E3432393720202020302E303030302043202020302020302020302020302020302020302020302020302020302020302020302020300A20202020322E3330393220202020302E3630343720202020302E303030302048202020302020302020302020302020302020302020302020302020302020302020302020300A2020202D302E363539322020202D302E3633323820202020302E303030302043202020302020302020302020302020302020302020302020302020302020302020302020300A2020202D302E3635393220202020302E3139323220202020302E303030302043202020302020302020302020302020302020302020302020302020302020302020302020300A2020202D302E3034373720202020302E3938393120202020302E303030302048202020302020302020302020302020302020302020302020302020302020302020302020300A2020202D302E303437372020202D312E3432393720202020302E303030302043202020302020302020302020302020302020302020302020302020302020302020302020300A2020202D312E303731372020202D302E3532323320202020302E303030302043202020302020302020302020302020302020302020302020302020302020302020302020300A2020202D312E3037313720202020302E3930363720202020302E303030302048202020302020302020302020302020302020302020302020302020302020302020302020300A2020202D302E363539322020202D312E3233363720202020302E303030302048202020302020302020302020302020302020302020302020302020302020302020302020300A2020202D312E383936372020202D302E3532323320202020302E303030302043202020302020302020302020302020302020302020302020302020302020302020302020300A2020202D322E3330393220202020302E3139323220202020302E30303030204F202020302020302020302020302020302020302020302020302020302020302020302020300A2020202D322E333039322020202D312E3233363720202020302E303030302043202020302020302020302020302020302020302020302020302020302020302020302020300A2020312020322020312020302020202020200A2020322020332020312020302020202020200A2020332020342020312020302020202020200A2020342020352020312020302020202020200A2020352020362020322020302020202020200A2020362020312020312020302020202020200A2020362020372020312020302020202020200A2020352020382020312020302020202020200A2020322020392020312020312020202020200A2020312031302020312020312020202020200A2020312031312020312020362020202020200A2020322031322020312020362020202020200A2031302031332020322020302020202020200A2031302031342020312020302020202020200A2031332031352020312020302020202020200A2031332031362020312020302020202020200A2031362031372020322020302020202020200A2031362031382020312020302020202020200A4D2020454E44
Contributor: TAKEUCHI T, DEP. CHEMISTRY, FAC. SCIENCE, NARA WOMEN'S UNIV.
InstType: EI
InstName: HITACHI M-80
IoniMethod: _ENERGY 20 eV
IonPolarity: pos
Date: 2010-10-09 19:48:36+02:00
Num Peaks: 20
41 34 43 422 55 74 57 58 69 99 70 46 77 97 79 106 92 134 93 931 
108 164 109 260 121 999 122 111 136 881 137 161 149 55 177 77 192 177 193 25 
