Name: MassBank: JP006689
MW: 170
Formula: C8H10O4
Synonym: MassBank: JP006689
Synonym: 3,4,5-TRIHYDROXYBENZYL METHYL ETHER
Structure: 332C342C352D545249485944524F585942454E5A594C204D455448594C2045544845522E6D6F6C0A20204368656D447261773032323131303231343032440A2031322031322020302020302020302020302020302020302020302020303939392056323030300A20202020312E343238392020202D302E3832353020202020302E30303030204F202020302020302020302020302020302020302020302020302020302020302020302020300A20202020322E313433342020202D312E3233373520202020302E303030302043202020302020302020302020302020302020302020302020302020302020302020302020300A20202020302E373134352020202D312E3233373520202020302E303030302043202020302020302020302020302020302020302020302020302020302020302020302020300A2020202D302E303030302020202D302E3832353020202020302E303030302043202020302020302020302020302020302020302020302020302020302020302020302020300A2020202D302E373134352020202D312E3233373520202020302E303030302043202020302020302020302020302020302020302020302020302020302020302020302020300A2020202D312E343238392020202D302E3832353020202020302E303030302043202020302020302020302020302020302020302020302020302020302020302020302020300A2020202D312E3432383920202020302E3030303020202020302E303030302043202020302020302020302020302020302020302020302020302020302020302020302020300A2020202D302E3731343520202020302E3431323520202020302E303030302043202020302020302020302020302020302020302020302020302020302020302020302020300A20202020302E3030303020202020302E3030303020202020302E303030302043202020302020302020302020302020302020302020302020302020302020302020302020300A2020202D302E3731343520202020312E3233373520202020302E30303030204F202020302020302020302020302020302020302020302020302020302020302020302020300A2020202D322E3134333420202020302E3431323520202020302E30303030204F202020302020302020302020302020302020302020302020302020302020302020302020300A2020202D322E313433342020202D312E3233373520202020302E30303030204F202020302020302020302020302020302020302020302020302020302020302020302020300A2020312020322020312020302020202020200A2020332020342020312020302020202020200A2020342020352020312020302020202020200A2020352020362020322020302020202020200A2020362020372020312020302020202020200A2020372020382020322020302020202020200A2020382020392020312020302020202020200A2020342020392020322020302020202020200A2020382031302020312020302020202020200A2020372031312020312020302020202020200A2020362031322020312020302020202020200A2020312020332020312020302020202020200A4D2020454E44
Contributor: MASS SPECTROSCOPY SOC. OF JAPAN (MSSJ)
InstType: EI
InstName: JEOL JMS-D-300
IoniMethod: _ENERGY 70 eV
IonPolarity: pos
Date: 2010-10-09 19:48:36+02:00
Num Peaks: 52
52 48 53 108 54 95 55 33 56 157 58 49 63 30 64 3 65 62 66 41 
67 66 68 4 69 106 70 25 71 50 73 3 77 22 78 25 79 39 80 6 
81 515 82 57 83 28 85 3 93 46 95 36 97 58 98 3 99 78 106 22 
109 668 110 12 111 38 122 26 123 42 124 3 125 42 126 57 127 345 128 3 
137 29 138 72 139 49 141 10 151 67 152 80 153 177 154 5 155 39 169 48 
170 999 171 99 
