Name: DIETHYLHYDRAZONE METHYLETHYLKETONE
MW: 142
Formula: C8H18N2
Synonym: MassBank: JP000852
Synonym: DIETHYLHYDRAZONE METHYLETHYLKETONE
Synonym: 2-BUTANONE DIETHYLHYDRAZONE
Structure: 4449455448594C48594452415A4F4E45204D455448594C455448594C4B45544F4E452E6D6F6C0A20204368656D447261773132323130393233313132440A2031302020392020302020302020302020302020302020302020302020303939392056323030300A20202020302E3431323520202020312E3432383920202020302E303030302043202020302020302020302020302020302020302020302020302020302020302020302020300A2020202D302E3030303020202020302E3731343520202020302E303030302043202020302020302020302020302020302020302020302020302020302020302020302020300A2020202D302E3832353020202020302E3731343520202020302E303030302043202020302020302020302020302020302020302020302020302020302020302020302020300A2020202D312E323337352020202D302E3030303020202020302E303030302043202020302020302020302020302020302020302020302020302020302020302020302020300A20202020302E343132352020202D302E3030303020202020302E30303030204E202020302020302020302020302020302020302020302020302020302020302020302020300A20202020302E303030302020202D302E3731343520202020302E30303030204E202020302020302020302020302020302020302020302020302020302020302020302020300A20202020302E343132352020202D312E3432383920202020302E303030302043202020302020302020302020302020302020302020302020302020302020302020302020300A20202020312E323337352020202D312E3432383920202020302E303030302043202020302020302020302020302020302020302020302020302020302020302020302020300A2020202D302E383235302020202D302E3731343520202020302E303030302043202020302020302020302020302020302020302020302020302020302020302020302020300A2020202D312E323337352020202D312E3432383920202020302E303030302043202020302020302020302020302020302020302020302020302020302020302020302020300A2020312020322020312020302020202020200A2020322020332020312020302020202020200A2020332020342020312020302020202020200A2020352020362020312020302020202020200A2020372020382020312020302020202020200A2020362020372020312020302020202020200A2020392031302020312020302020202020200A2020362020392020312020302020202020200A2020322020352020322020302020202020200A4D2020454E44
Contributor: SASAKI S, TOYOHASHI UNIV. OF TECH.
InstType: EI
InstName: SHIMADZU LKB-2091
IoniMethod: _ENERGY 70 eV
IonPolarity: pos
Date: 2010-10-09 19:48:36+02:00
Num Peaks: 28
29 257 30 50 39 36 40 1 41 110 42 999 43 43 44 16 53 11 54 32 
55 71 56 5 57 189 58 11 68 12 70 14 71 14 72 82 73 29 85 1 
86 10 99 15 113 36 127 54 128 43 141 12 142 200 143 19 
