Name: PIPERONYLIC ACID
CAS: 94-53-1
MW: 166
Formula: C8H6O4
Synonym: MassBank: JP008155
Synonym: PIPERONYLIC ACID
Structure: 50495045524F4E594C494320414349442E6D6F6C0A20204368656D447261773038313231303035353132440A2031322031332020302020302020302020302020302020302020302020303939392056323030300A2020202D312E343737392020202D302E3330363520202020302E303030302043202020302020302020302020302020302020302020302020302020302020302020302020300A2020202D302E363532392020202D302E3330363520202020302E303030302043202020302020302020302020302020302020302020302020302020302020302020302020300A2020202D302E3234303420202020302E3430373920202020302E303030302043202020302020302020302020302020302020302020302020302020302020302020302020300A20202020302E3538343620202020302E3430373920202020302E303030302043202020302020302020302020302020302020302020302020302020302020302020302020300A20202020312E3133363720202020312E3032313020202020302E30303030204F202020302020302020302020302020302020302020302020302020302020302020302020300A20202020312E3839303420202020302E3638353520202020302E303030302043202020302020302020302020302020302020302020302020302020302020302020302020300A20202020312E383034312020202D302E3133353020202020302E30303030204F202020302020302020302020302020302020302020302020302020302020302020302020300A20202020302E393937312020202D302E3330363520202020302E303030302043202020302020302020302020302020302020302020302020302020302020302020302020300A20202020302E353834362020202D312E3032313020202020302E303030302043202020302020302020302020302020302020302020302020302020302020302020302020300A2020202D302E323430342020202D312E3032313020202020302E303030302043202020302020302020302020302020302020302020302020302020302020302020302020300A2020202D312E383930342020202D312E3032313020202020302E30303030204F202020302020302020302020302020302020302020302020302020302020302020302020300A2020202D312E3839303420202020302E3430373920202020302E30303030204F202020302020302020302020302020302020302020302020302020302020302020302020300A2020312020322020312020302020202020200A2020322020332020312020302020202020200A2020332020342020322020302020202020200A2020342020352020312020302020202020200A2020352020362020312020302020202020200A2020362020372020312020302020202020200A2020342020382020312020302020202020200A2020372020382020312020302020202020200A2020382020392020322020302020202020200A2020392031302020312020302020202020200A2020322031302020322020302020202020200A2020312031312020322020302020202020200A2020312031322020312020302020202020200A4D2020454E44
Contributor: NARA WOMEN'S UNIVERSITY
InstType: EI
InstName: HITACHI M-80
IoniMethod: _ENERGY 25 eV
IonPolarity: pos
Date: 2010-10-09 19:48:36+02:00
Num Peaks: 30
28 22 29 39 39 13 40 10 52 28 53 16 57 54 63 50 64 16 65 118 
66 20 69 10 79 10 80 10 81 38 82 17 91 43 93 10 109 10 119 106 
120 20 121 110 122 12 137 10 149 253 150 42 165 670 166 999 167 105 168 10 
