Name: MassBank: JP003045
MW: 140
Formula: C5H10Cl2
Synonym: MassBank: JP003045
Synonym: 1,2-DICHLOROPENTANE
Structure: 310A31380A312C322D444943484C4F524F50454E54414E452E6D6F6C0A20204368656D447261773131303330393233313132440A2020372020362020302020302020302020302020302020302020302020303939392056323030300A2020202D312E3033313320202020302E3030303020202020302E303030302043202020302020302020302020302020302020302020302020302020302020302020302020300A2020202D302E3230363220202020302E3030303020202020302E303030302043202020302020302020302020302020302020302020302020302020302020302020302020300A20202020302E323036332020202D302E3731343520202020302E303030302043202020302020302020302020302020302020302020302020302020302020302020302020300A20202020312E303331332020202D302E3731343520202020302E303030302043202020302020302020302020302020302020302020302020302020302020302020302020300A20202020312E3434333820202020302E3030303020202020302E303030302043202020302020302020302020302020302020302020302020302020302020302020302020300A20202020302E3230363320202020302E3731343520202020302E3030303020436C2020302020302020302020302020302020302020302020302020302020302020302020300A2020202D312E343433382020202D302E3731343520202020302E3030303020436C2020302020302020302020302020302020302020302020302020302020302020302020300A2020312020322020312020302020202020200A2020322020332020312020302020202020200A2020332020342020312020302020202020200A2020342020352020312020302020202020200A2020322020362020312020302020202020200A2020312020372020312020302020202020200A4D2020454E44
Contributor: SASAKI S, TOYOHASHI UNIV. OF TECH.
InstType: EI
InstName: Unknown
IoniMethod: EI
IonPolarity: pos
Date: 2010-10-09 19:48:36+02:00
Num Peaks: 67
25 2 26 46 27 358 28 33 29 242 30 5 35 9 36 3 37 19 38 44 
39 282 40 6 41 494 42 317 43 310 44 3 47 3 48 4 49 88 50 0 
51 58 52 9 53 99 54 3 55 999 56 45 57 4 60 0 61 49 62 121 
63 115 64 0 65 39 66 7 67 40 68 42 69 296 70 23 71 2 73 1 
74 2 75 66 76 58 77 3 78 20 79 4 81 1 83 1 85 4 87 3 
88 1 89 2 90 36 91 254 92 22 93 1 94 4 95 2 96 5 97 1 
98 3 99 6 103 4 104 6 105 5 106 19 107 2 
