Name: 3-PIPECOLINE
MW: 99
Formula: C6H13N
Synonym: MassBank: JP005860
Synonym: 3-PIPECOLINE
Synonym: 3-METHYLPIPERIDINE
Structure: 310A31390A332D50495045434F4C494E452E6D6F6C0A20204368656D447261773033323031303137323632440A2020372020372020302020302020302020302020302020302020302020303939392056323030300A2020202D302E3030303020202020302E3731343520202020302E303030302043202020302020302020302020302020302020302020302020302020302020302020302020300A2020202D302E343132352020202D302E3030303020202020302E303030302043202020302020302020302020302020302020302020302020302020302020302020302020300A2020202D302E303030302020202D302E3731343520202020302E303030302043202020302020302020302020302020302020302020302020302020302020302020302020300A20202020302E383235302020202D302E3731343520202020302E303030302043202020302020302020302020302020302020302020302020302020302020302020302020300A20202020312E3233373520202020302E3030303020202020302E303030302043202020302020302020302020302020302020302020302020302020302020302020302020300A20202020302E3832353020202020302E3731343520202020302E30303030204E202020302020302020302020302020302020302020302020302020302020302020302020300A2020202D312E323337352020202D302E3030303020202020302E303030302043202020302020302020302020302020302020302020302020302020302020302020302020300A2020312020322020312020302020202020200A2020322020332020312020302020202020200A2020332020342020312020302020202020200A2020342020352020312020302020202020200A2020352020362020312020302020202020200A2020312020362020312020302020202020200A2020322020372020312020302020202020200A4D2020454E44
Contributor: YAMAMOTO M, DEP. CHEMISTRY, FAC. SCIENCE, NARA WOMEN'S UNIV.
InstType: EI
InstName: HITACHI RMU-6M
IoniMethod: _ENERGY 70 eV
IonPolarity: pos
Date: 2010-10-09 19:48:36+02:00
Num Peaks: 43
15 40 26 20 27 142 28 229 29 166 30 510 31 13 38 23 39 209 40 43 
41 262 42 301 43 225 44 999 45 27 50 13 51 23 53 36 54 36 55 89 
56 378 57 434 58 43 63 17 65 36 66 56 67 33 68 40 69 43 70 212 
71 80 80 13 81 20 82 30 83 13 84 417 85 27 92 40 93 139 94 13 
98 510 99 500 100 40 
