Name: N-ETHYLMALEIMIDE
CAS: 128-53-0
MW: 125
Formula: C6H7NO2
Synonym: MassBank: JP005691
Synonym: N-ETHYLMALEIMIDE
Structure: 310A32330A4E2D455448594C4D414C45494D4944452E6D6F6C0A20204368656D447261773038313231303032303632440A2020392020392020302020302020302020302020302020302020302020303939392056323030300A20202020302E3436383920202020302E3636373420202020302E303030302043202020302020302020302020302020302020302020302020302020302020302020302020300A20202020302E3231343020202020312E3435323120202020302E30303030204F202020302020302020302020302020302020302020302020302020302020302020302020300A20202020312E3235333520202020302E3431323520202020302E303030302043202020302020302020302020302020302020302020302020302020302020302020302020300A20202020312E323533352020202D302E3431323520202020302E303030302043202020302020302020302020302020302020302020302020302020302020302020302020300A20202020302E343638392020202D302E3636373420202020302E303030302043202020302020302020302020302020302020302020302020302020302020302020302020300A20202020302E323134302020202D312E3435323120202020302E30303030204F202020302020302020302020302020302020302020302020302020302020302020302020300A2020202D302E303136302020202D302E3030303020202020302E30303030204E202020302020302020302020302020302020302020302020302020302020302020302020300A2020202D302E383431302020202D302E3030303020202020302E303030302043202020302020302020302020302020302020302020302020302020302020302020302020300A2020202D312E323533352020202D302E3731343520202020302E303030302043202020302020302020302020302020302020302020302020302020302020302020302020300A2020312020322020322020302020202020200A2020312020332020312020302020202020200A2020332020342020322020302020202020200A2020342020352020312020302020202020200A2020352020362020322020302020202020200A2020312020372020312020302020202020200A2020352020372020312020302020202020200A2020382020392020312020302020202020200A2020372020382020312020302020202020200A4D2020454E44
Contributor: MASS SPECTROSCOPY SOC. OF JAPAN (MSSJ)
InstType: EI
InstName: HITACHI M-80
IoniMethod: _ENERGY 70 eV
IonPolarity: pos
Date: 2010-10-09 19:48:36+02:00
Num Peaks: 44
14 34 15 142 16 21 18 61 25 71 26 999 27 498 28 793 29 201 30 40 
31 24 32 75 36 13 37 61 38 91 40 316 41 379 42 672 44 371 45 27 
50 15 51 27 52 69 53 388 54 682 55 240 56 196 57 14 61 10 63 7 
64 6 68 17 69 31 70 27 71 13 80 20 82 212 83 15 96 29 110 640 
111 36 124 14 125 571 126 48 
