Name: DIMETHYL SULFIDE
MW: 62
Formula: C2H6S
Synonym: MassBank: JP008750
Synonym: DIMETHYL SULFIDE
Structure: 310A31300A44494D455448594C2053554C464944452E6D6F6C0A20204368656D447261773130313831303137303632440A2020332020322020302020302020302020302020302020302020302020303939392056323030300A2020202D302E3030303020202020302E3230363320202020302E303030302053202020302020302020302020302020302020302020302020302020302020302020302020300A20202020302E373134352020202D302E3230363320202020302E303030302043202020302020302020302020302020302020302020302020302020302020302020302020300A2020202D302E373134352020202D302E3230363320202020302E303030302043202020302020302020302020302020302020302020302020302020302020302020302020300A2020312020322020312020302020202020200A2020312020332020312020302020202020200A4D2020454E44
Contributor: SODA AROMATIC CO., LTD.
InstType: EI
InstName: HITACHI M-80B
IoniMethod: _ENERGY 70 eV
IonPolarity: pos
Date: 2010-10-09 19:48:36+02:00
Num Peaks: 22
13 10 14 26 15 87 27 182 32 13 33 10 34 11 35 283 37 11 44 49 
45 646 46 427 47 999 48 32 49 39 57 26 58 33 59 26 61 318 62 919 
63 30 64 38 
