Name: ETHYL 2-FURYL KETONE
MW: 124
Formula: C7H8O2
Synonym: MassBank: JP006947
Synonym: ETHYL 2-FURYL KETONE
Synonym: 2-PROPIONYLFURAN
Structure: 310A32330A455448594C20322D465552594C204B45544F4E452E6D6F6C0A20204368656D447261773032323131303134353732440A2020392020392020302020302020302020302020302020302020302020303939392056323030300A20202020302E383431302020202D302E3335373220202020302E303030302043202020302020302020302020302020302020302020302020302020302020302020302020300A20202020312E323533352020202D312E3037313720202020302E30303030204F202020302020302020302020302020302020302020302020302020302020302020302020300A2020202D302E3436383920202020302E3331303220202020302E30303030204F202020302020302020302020302020302020302020302020302020302020302020302020300A20202020302E303136302020202D302E3335373220202020302E303030302043202020302020302020302020302020302020302020302020302020302020302020302020300A2020202D302E343638392020202D312E3032343720202020302E303030302043202020302020302020302020302020302020302020302020302020302020302020302020300A2020202D312E323533352020202D302E3736393720202020302E303030302043202020302020302020302020302020302020302020302020302020302020302020302020300A2020202D312E3235333520202020302E3035353320202020302E303030302043202020302020302020302020302020302020302020302020302020302020302020302020300A20202020312E3235333520202020302E3335373220202020302E303030302043202020302020302020302020302020302020302020302020302020302020302020302020300A20202020302E3834313020202020312E3037313720202020302E303030302043202020302020302020302020302020302020302020302020302020302020302020302020300A2020312020322020322020302020202020200A2020332020342020312020302020202020200A2020342020352020322020302020202020200A2020352020362020312020302020202020200A2020362020372020322020302020202020200A2020332020372020312020302020202020200A2020312020342020312020302020202020200A2020382020392020312020302020202020200A2020312020382020312020302020202020200A4D2020454E44
Contributor: TAJIMA S, GUNMA COLLEGE OF TECHNOLOGY
InstType: EI
InstName: HITACHI M-80B
IoniMethod: _ENERGY 70 eV
IonPolarity: pos
Date: 2010-10-09 19:48:36+02:00
Num Peaks: 17
26 22 27 105 29 76 37 32 38 80 39 258 41 14 51 19 53 17 55 13 
57 13 67 29 68 12 95 999 96 56 124 228 125 15 
