Name: 3-METHYL-3-(3-HYDROXY-3-METHYLBUTOXY)BUTANOL
MW: 190
Formula: C10H22O3
Synonym: MassBank: JP009826
Synonym: 3-METHYL-3-(3-HYDROXY-3-METHYLBUTOXY)BUTANOL
Structure: 332D4D455448594C2D332D28332D485944524F58592D332D4D455448594C4255544F585929425554414E4F4C2E6D6F6C0A20204368656D447261773033323031303030323532440A2031332031322020302020302020302020302020302020302020302020303939392056323030300A20202020322E303632352020202D302E3431323520202020302E303030302043202020302020302020302020302020302020302020302020302020302020302020302020300A20202020312E323337352020202D302E3431323520202020302E303030302043202020302020302020302020302020302020302020302020302020302020302020302020300A20202020302E3832353020202020302E3330323020202020302E303030302043202020302020302020302020302020302020302020302020302020302020302020302020300A20202020312E3533393520202020302E3731343520202020302E303030302043202020302020302020302020302020302020302020302020302020302020302020302020300A20202020302E3431323520202020312E3031363420202020302E30303030204F202020302020302020302020302020302020302020302020302020302020302020302020300A2020202D302E3431323520202020312E3031363420202020302E303030302043202020302020302020302020302020302020302020302020302020302020302020302020300A2020202D302E3832353020202020302E3330323020202020302E303030302043202020302020302020302020302020302020302020302020302020302020302020302020300A2020202D312E3635303020202020302E3330323020202020302E303030302043202020302020302020302020302020302020302020302020302020302020302020302020300A2020202D312E3635303020202020312E3132373020202020302E303030302043202020302020302020302020302020302020302020302020302020302020302020302020300A2020202D312E363530302020202D302E3532333020202020302E303030302043202020302020302020302020302020302020302020302020302020302020302020302020300A2020202D322E3437353020202020302E3330323020202020302E30303030204F202020302020302020302020302020302020302020302020302020302020302020302020300A20202020302E313130352020202D302E3131303520202020302E303030302043202020302020302020302020302020302020302020302020302020302020302020302020300A20202020322E343735302020202D312E3132373020202020302E30303030204F202020302020302020302020302020302020302020302020302020302020302020302020300A2020312020322020312020302020202020200A2020322020332020312020302020202020200A2020332020342020312020302020202020200A2020362020372020312020302020202020200A2020372020382020312020302020202020200A2020382020392020312020302020202020200A2020352020362020312020302020202020200A2020382031302020312020302020202020200A2020382031312020312020302020202020200A2020332020352020312020302020202020200A2020332031322020312020302020202020200A2020312031332020312020302020202020200A4D2020454E44
Contributor: KURARAY CO., LTD.
InstType: EI
InstName: JEOL JMS-D-300
IoniMethod: _ENERGY 70 eV
IonPolarity: pos
Date: 2010-10-09 19:48:36+02:00
Num Peaks: 29
29 25 30 50 31 86 39 5 41 273 43 281 45 134 46 2 55 50 56 78 
57 77 58 3 59 533 68 45 69 999 70 13 71 169 72 17 73 133 77 3 
85 31 86 47 87 203 89 58 90 42 103 11 119 13 121 2 145 125 
