Name: MassBank: JP009888
CAS: 110-52-1
MW: 213
Formula: C4H8Br2
Synonym: MassBank: JP009888
Synonym: 1,4-DIBROMOBUTANE
Structure: 310A31360A312C342D444942524F4D4F425554414E452E6D6F6C0A20204368656D447261773131313430393232353632440A2020362020352020302020302020302020302020302020302020302020303939392056323030300A2020202D312E3037313720202020302E3230363320202020302E303030302043202020302020302020302020302020302020302020302020302020302020302020302020300A2020202D302E333537322020202D302E3230363320202020302E303030302043202020302020302020302020302020302020302020302020302020302020302020302020300A20202020302E3335373220202020302E3230363320202020302E303030302043202020302020302020302020302020302020302020302020302020302020302020302020300A20202020312E303731372020202D302E3230363220202020302E303030302043202020302020302020302020302020302020302020302020302020302020302020302020300A20202020312E3738363220202020302E3230363320202020302E303030302042722020302020302020302020302020302020302020302020302020302020302020302020300A2020202D312E373836322020202D302E3230363320202020302E303030302042722020302020302020302020302020302020302020302020302020302020302020302020300A2020312020322020312020302020202020200A2020322020332020312020302020202020200A2020332020342020312020302020202020200A2020342020352020312020302020202020200A2020312020362020312020302020202020200A4D2020454E44
Contributor: KURARAY CO., LTD.
InstType: EI
InstName: JEOL JMS-D-300
IoniMethod: _ENERGY 70 eV
IonPolarity: pos
Date: 2010-10-09 19:48:36+02:00
Num Peaks: 29
26 40 27 182 28 54 29 180 39 107 41 100 50 10 51 12 53 50 54 15 
55 999 56 44 79 17 80 31 81 17 82 32 95 36 106 45 107 136 108 46 
109 132 134 102 135 844 136 137 137 808 138 33 214 9 216 17 218 8 
