Name: DIMETHYL OXOMALONATE OXIME
MW: 161
Formula: C5H7NO5
Synonym: MassBank: JP002924
Synonym: DIMETHYL OXOMALONATE OXIME
Structure: 303133375F44494D455448594C204F584F4D414C4F4E415445204F58494D452E6D6F6C0A20204368656D447261773130313931303137313932440A2031312031302020302020302020302020302020302020302020302020303939392056323030300A2020202D302E323036322020202D302E3335373320202020302E303030302043202020302020302020302020302020302020302020302020302020302020302020302020300A20202020302E3230363220202020302E3335373220202020302E303030302043202020302020302020302020302020302020302020302020302020302020302020302020300A2020202D302E3230363220202020312E3037313720202020302E30303030204F202020302020302020302020302020302020302020302020302020302020302020302020300A20202020302E323036322020202D312E3037313720202020302E303030302043202020302020302020302020302020302020302020302020302020302020302020302020300A20202020312E3033313320202020302E3335373220202020302E30303030204F202020302020302020302020302020302020302020302020302020302020302020302020300A2020202D312E303331332020202D302E3335373320202020302E30303030204E202020302020302020302020302020302020302020302020302020302020302020302020300A2020202D312E343433382020202D312E3037313720202020302E30303030204F202020302020302020302020302020302020302020302020302020302020302020302020300A20202020312E303331332020202D312E3037313720202020302E30303030204F202020302020302020302020302020302020302020302020302020302020302020302020300A2020202D302E323036322020202D312E3738363220202020302E30303030204F202020302020302020302020302020302020302020302020302020302020302020302020300A20202020312E343433382020202D302E3335373220202020302E303030302043202020302020302020302020302020302020302020302020302020302020302020302020300A20202020302E3230363320202020312E3738363220202020302E303030302043202020302020302020302020302020302020302020302020302020302020302020302020300A2020312020322020312020302020202020200A2020322020332020312020302020202020200A2020312020342020312020302020202020200A2020322020352020322020302020202020200A2020362020372020312020302020202020200A2020312020362020322020302020202020200A2020342020382020312020302020202020200A2020342020392020322020302020202020200A2020382031302020312020302020202020200A2020332031312020312020302020202020200A4D2020454E44
Contributor: MASS SPECTROSCOPY SOC. OF JAPAN (MSSJ)
InstType: EI
InstName: Unknown
IoniMethod: EI
IonPolarity: pos
Date: 2010-10-09 19:48:36+02:00
Num Peaks: 21
15 999 27 101 28 65 29 144 30 84 31 149 41 38 42 62 43 22 44 96 
45 66 54 182 59 571 69 25 70 65 86 30 101 80 102 137 129 743 130 101 
161 81 
