Name: METHACRYLIC ACID METHYL ESTER
MW: 100
Formula: C5H8O2
Synonym: MassBank: JP001667
Synonym: METHACRYLIC ACID METHYL ESTER
Synonym: METHYL METHACRYLATE
Structure: 310A31380A4D455448414352594C49432041434944204D455448594C2045535445522E6D6F6C0A20204368656D447261773038313131303233303032440A2020372020362020302020302020302020302020302020302020302020303939392056323030300A2020202D302E323036322020202D302E3335373220202020302E303030302043202020302020302020302020302020302020302020302020302020302020302020302020300A20202020302E3230363220202020302E3335373220202020302E303030302043202020302020302020302020302020302020302020302020302020302020302020302020300A2020202D302E3230363220202020312E3037313720202020302E303030302043202020302020302020302020302020302020302020302020302020302020302020302020300A20202020312E3033313320202020302E3335373220202020302E303030302043202020302020302020302020302020302020302020302020302020302020302020302020300A2020202D312E303331332020202D302E3335373220202020302E30303030204F202020302020302020302020302020302020302020302020302020302020302020302020300A20202020302E323036322020202D312E3037313720202020302E30303030204F202020302020302020302020302020302020302020302020302020302020302020302020300A20202020312E303331332020202D312E3037313720202020302E303030302043202020302020302020302020302020302020302020302020302020302020302020302020300A2020312020322020312020302020202020200A2020322020332020312020302020202020200A2020322020342020322020302020202020200A2020312020352020322020302020202020200A2020312020362020312020302020202020200A2020362020372020312020302020202020200A4D2020454E44
Contributor: TAJIMA S, GUNMA COLLEGE OF TECHNOLOGY
InstType: EI
InstName: HITACHI RMU-7M
IoniMethod: _ENERGY 70 eV
IonPolarity: pos
Date: 2010-10-09 19:48:36+02:00
Num Peaks: 30
15 109 26 12 27 18 28 22 29 27 31 11 33 9 37 17 38 37 39 310 
40 81 41 999 42 48 43 23 45 17 53 15 54 14 55 72 56 34 57 11 
58 12 59 85 68 12 69 745 70 35 82 29 85 54 99 111 100 249 101 18 
