Name: MassBank: JP001455
CAS: 13688-68-1
MW: 210
Formula: C14H14Si
Synonym: MassBank: JP001455
Synonym: 9,9-DIMETHYL-9-SILAFLUORENE
Structure: 392C392D44494D455448594C2D392D53494C41464C554F52454E452E6D6F6C0A20204368656D447261773035323431303232343532440A2031352031372020302020302020302020302020302020302020302020303939392056323030300A20202020302E3238363320202020302E3731303620202020302E303030302053692020302020302020302020302020302020302020302020302020302020302020302020300A20202020302E3737313220202020302E3034333120202020302E303030302043202020302020302020302020302020302020302020302020302020302020302020302020300A20202020312E353931372020202D302E3034333120202020302E303030302043202020302020302020302020302020302020302020302020302020302020302020302020300A20202020312E393237332020202D302E3739363820202020302E303030302043202020302020302020302020302020302020302020302020302020302020302020302020300A20202020312E343432332020202D312E3436343220202020302E303030302043202020302020302020302020302020302020302020302020302020302020302020302020300A20202020302E363231392020202D312E3337383020202020302E303030302043202020302020302020302020302020302020302020302020302020302020302020302020300A20202020302E323836332020202D302E3632343320202020302E303030302043202020302020302020302020302020302020302020302020302020302020302020302020300A2020202D302E343938332020202D302E3336393420202020302E303030302043202020302020302020302020302020302020302020302020302020302020302020302020300A2020202D312E323132382020202D302E3738313920202020302E303030302043202020302020302020302020302020302020302020302020302020302020302020302020300A2020202D312E393237332020202D302E3336393420202020302E303030302043202020302020302020302020302020302020302020302020302020302020302020302020300A2020202D312E3932373320202020302E3435353620202020302E303030302043202020302020302020302020302020302020302020302020302020302020302020302020300A2020202D312E3231323820202020302E3836383120202020302E303030302043202020302020302020302020302020302020302020302020302020302020302020302020300A2020202D302E3439383320202020302E3435353620202020302E303030302043202020302020302020302020302020302020302020302020302020302020302020302020300A2020202D302E3034393320202020312E3436343220202020302E303030302043202020302020302020302020302020302020302020302020302020302020302020302020300A20202020312E3030303820202020312E3132333120202020302E303030302043202020302020302020302020302020302020302020302020302020302020302020302020300A2020312020322020312020302020202020200A2020322020332020312020302020202020200A2020332020342020322020302020202020200A2020342020352020312020302020202020200A2020352020362020322020302020202020200A2020362020372020312020302020202020200A2020322020372020322020302020202020200A2020372020382020312020302020202020200A2020382020392020312020302020202020200A2020392031302020322020302020202020200A2031302031312020312020302020202020200A2031312031322020322020302020202020200A2031322031332020312020302020202020200A2020382031332020322020302020202020200A2020312031332020312020302020202020200A2020312031342020312020362020202020200A2020312031352020312020312020202020200A4D2020454E44
Contributor: MASS SPECTROSCOPY SOC. OF JAPAN (MSSJ)
InstType: EI
InstName: JEOL JMS-D-3000
IoniMethod: _ENERGY 70 eV
IonPolarity: pos
Date: 2010-10-09 19:48:36+02:00
Num Peaks: 33
43 23 53 47 77 20 78 10 91 14 97 189 98 38 103 15 104 43 105 42 
115 11 129 11 152 11 153 25 154 18 155 10 165 201 166 38 167 38 169 13 
179 39 180 45 181 26 191 17 192 12 193 70 194 23 195 999 196 196 197 60 
210 451 211 86 212 22 
