Name: 3-BENZOYLINDOLE
MW: 221
Formula: C15H11NO
Synonym: MassBank: JP004423
Synonym: 3-BENZOYLINDOLE
Synonym: 3-INDOLYL PHENYL KETONE
Structure: 332D42454E5A4F594C494E444F4C452E6D6F6C0A20204368656D447261773032323231303134313032440A2031372031392020302020302020302020302020302020302020302020303939392056323030300A20202020302E393430382020202D312E3235323520202020302E30303030204E202020302020302020302020302020302020302020302020302020302020302020302020300A20202020302E313837322020202D302E3931363920202020302E303030302043202020302020302020302020302020302020302020302020302020302020302020302020300A20202020302E323733342020202D302E3039363420202020302E303030302043202020302020302020302020302020302020302020302020302020302020302020302020300A20202020312E3038303420202020302E3037353120202020302E303030302043202020302020302020302020302020302020302020302020302020302020302020302020300A20202020312E3439323920202020302E3738393620202020302E303030302043202020302020302020302020302020302020302020302020302020302020302020302020300A20202020322E3331373920202020302E3738393620202020302E303030302043202020302020302020302020302020302020302020302020302020302020302020302020300A20202020322E3733303420202020302E3037353120202020302E303030302043202020302020302020302020302020302020302020302020302020302020302020302020300A20202020322E333137392020202D302E3633393420202020302E303030302043202020302020302020302020302020302020302020302020302020302020302020302020300A20202020312E343932392020202D302E3633393420202020302E303030302043202020302020302020302020302020302020302020302020302020302020302020302020300A2020202D302E3333393720202020302E3435353620202020302E303030302043202020302020302020302020302020302020302020302020302020302020302020302020300A2020202D312E3133363620202020302E3234323120202020302E303030302043202020302020302020302020302020302020302020302020302020302020302020302020300A2020202D312E333530312020202D302E3535343820202020302E303030302043202020302020302020302020302020302020302020302020302020302020302020302020300A2020202D322E313437302020202D302E3736383320202020302E303030302043202020302020302020302020302020302020302020302020302020302020302020302020300A2020202D322E373330342020202D302E3138353020202020302E303030302043202020302020302020302020302020302020302020302020302020302020302020302020300A2020202D322E3531363820202020302E3631313920202020302E303030302043202020302020302020302020302020302020302020302020302020302020302020302020300A2020202D312E3732303020202020302E3832353420202020302E303030302043202020302020302020302020302020302020302020302020302020302020302020302020300A2020202D302E3132363220202020312E3235323520202020302E30303030204F202020302020302020302020302020302020302020302020302020302020302020302020300A2020312020322020312020302020202020200A2020322020332020322020302020202020200A2020332020342020312020302020202020200A2020342020352020312020302020202020200A2020352020362020322020302020202020200A2020362020372020312020302020202020200A2020372020382020322020302020202020200A2020382020392020312020302020202020200A2020312020392020312020302020202020200A2020342020392020322020302020202020200A2031302031312020312020302020202020200A2031312031322020312020302020202020200A2031322031332020322020302020202020200A2031332031342020312020302020202020200A2031342031352020322020302020202020200A2031352031362020312020302020202020200A2031312031362020322020302020202020200A2031302031372020322020302020202020200A2020332031302020312020302020202020200A4D2020454E44
Contributor: SASAKI S, TOYOHASHI UNIV. OF TECH.
InstType: EI
InstName: MX-1303
IoniMethod: _ENERGY 50 eV
IonPolarity: pos
Date: 2010-10-09 19:48:36+02:00
Num Peaks: 41
41 93 43 160 44 17 45 12 55 111 56 22 57 207 60 3 67 19 68 17 
69 324 70 3 71 105 73 25 77 99 81 11 82 17 83 52 84 13 85 5 
89 90 91 13 95 26 96 1 97 34 105 82 109 12 111 2 115 16 116 28 
137 15 143 2 144 376 145 11 149 34 165 1 193 24 204 50 220 184 221 999 
222 160 
