Name: N-DECYL-EPSILON-CAPROLACTAM
MW: 253
Formula: C16H31NO
Synonym: MassBank: JP004149
Synonym: N-DECYL-EPSILON-CAPROLACTAM
Structure: 4E2D444543594C2D455053494C4F4E2D434150524F4C414354414D2E6D6F6C0A20204368656D447261773038313231303031353932440A2031382031382020302020302020302020302020302020302020302020303939392056323030300A2020202D332E333638332020202D302E3532323020202020302E303030302043202020302020302020302020302020302020302020302020302020302020302020302020300A2020202D342E313536362020202D302E3237383820202020302E303030302043202020302020302020302020302020302020302020302020302020302020302020302020300A2020202D342E3435383120202020302E3438393220202020302E303030302043202020302020302020302020302020302020302020302020302020302020302020302020300A2020202D342E3034353620202020312E3230333720202020302E303030302043202020302020302020302020302020302020302020302020302020302020302020302020300A2020202D332E3231393120202020312E3333373720202020302E303030302043202020302020302020302020302020302020302020302020302020302020302020302020300A2020202D322E3633353720202020302E3735343420202020302E303030302043202020302020302020302020302020302020302020302020302020302020302020302020300A2020202D332E323435332020202D312E3333373720202020302E30303030204F202020302020302020302020302020302020302020302020302020302020302020302020300A2020202D322E363836372020202D302E3035373220202020302E30303030204E202020302020302020302020302020302020302020302020302020302020302020302020300A2020202D312E393732322020202D302E3436393720202020302E303030302043202020302020302020302020302020302020302020302020302020302020302020302020300A2020202D312E323537372020202D302E3035373220202020302E303030302043202020302020302020302020302020302020302020302020302020302020302020302020300A2020202D302E353433322020202D302E3436393720202020302E303030302043202020302020302020302020302020302020302020302020302020302020302020302020300A20202020302E313731322020202D302E3035373220202020302E303030302043202020302020302020302020302020302020302020302020302020302020302020302020300A20202020302E383835372020202D302E3436393720202020302E303030302043202020302020302020302020302020302020302020302020302020302020302020302020300A20202020312E363030322020202D302E3035373220202020302E303030302043202020302020302020302020302020302020302020302020302020302020302020302020300A20202020322E333134362020202D302E3436393720202020302E303030302043202020302020302020302020302020302020302020302020302020302020302020302020300A20202020332E303239312020202D302E3035373220202020302E303030302043202020302020302020302020302020302020302020302020302020302020302020302020300A20202020332E373433362020202D302E3436393720202020302E303030302043202020302020302020302020302020302020302020302020302020302020302020302020300A20202020342E343538312020202D302E3035373220202020302E303030302043202020302020302020302020302020302020302020302020302020302020302020302020300A2020312020322020312020302020202020200A2020322020332020312020302020202020200A2020332020342020312020302020202020200A2020342020352020312020302020202020200A2020352020362020312020302020202020200A2020312020372020322020302020202020200A2020312020382020312020302020202020200A2020362020382020312020302020202020200A2020392031302020312020302020202020200A2031302031312020312020302020202020200A2031312031322020312020302020202020200A2031322031332020312020302020202020200A2031332031342020312020302020202020200A2031342031352020312020302020202020200A2031352031362020312020302020202020200A2031362031372020312020302020202020200A2031372031382020312020302020202020200A2020382020392020312020302020202020200A4D2020454E44
Contributor: MASS SPECTROSCOPY SOC. OF JAPAN (MSSJ)
InstType: EI
InstName: HITACHI RMU-6E
IoniMethod: _ENERGY 70 eV
IonPolarity: pos
Date: 2010-10-09 19:48:36+02:00
Num Peaks: 160
25 1 26 6 27 72 28 8 29 140 30 102 31 3 32 1 38 3 39 44 
40 16 41 36 42 154 43 210 44 180 45 1 46 1 52 3 53 25 54 2 
55 220 56 110 57 84 58 2 59 3 60 4 65 5 66 0 67 48 68 27 
69 140 70 6 71 31 72 12 73 13 74 0 78 3 79 14 80 6 81 3 
82 19 83 23 84 54 85 24 86 23 87 6 91 5 92 0 93 5 94 7 
95 19 96 4 97 30 98 502 99 80 100 1 101 4 104 1 105 4 106 0 
107 4 108 5 109 5 110 1 111 8 112 56 113 100 114 13 115 12 116 4 
117 1 118 0 119 1 120 4 121 3 122 0 123 3 124 7 125 7 126 999 
127 534 128 47 129 6 130 0 131 2 132 4 133 4 134 0 135 2 136 3 
137 2 138 1 139 4 140 242 141 66 142 1 143 3 148 1 149 3 150 0 
151 2 152 5 153 3 154 14 155 114 156 20 157 3 158 0 165 2 166 5 
167 2 168 9 169 180 170 38 171 4 172 0 179 1 180 2 181 1 182 8 
183 24 184 12 185 3 186 0 194 3 195 1 196 64 197 3 198 7 199 10 
200 3 201 0 205 1 206 2 207 4 208 1 209 1 210 156 211 11 212 0 
213 1 222 1 223 1 224 5 225 12 226 3 235 1 236 1 237 2 238 18 
239 4 240 0 241 2 250 1 251 3 252 2 253 278 254 60 255 9 256 1 
