Name: 3-METHYLCYCLOHEXENE
MW: 96
Formula: C7H12
Synonym: MassBank: JP005339
Synonym: 3-METHYLCYCLOHEXENE
Structure: 310A31390A332D4D455448594C4359434C4F484558454E452E6D6F6C0A20204368656D447261773033323031303135333132440A2020372020372020302020302020302020302020302020302020302020303939392056323030300A20202020302E3832353020202020302E3731343520202020302E303030302043202020302020302020302020302020302020302020302020302020302020302020302020300A2020202D302E3030303020202020302E3731343520202020302E303030302043202020302020302020302020302020302020302020302020302020302020302020302020300A2020202D302E3431323520202020302E3030303020202020302E303030302043202020302020302020302020302020302020302020302020302020302020302020302020300A2020202D302E303030302020202D302E3731343520202020302E303030302043202020302020302020302020302020302020302020302020302020302020302020302020300A20202020302E383235302020202D302E3731343520202020302E303030302043202020302020302020302020302020302020302020302020302020302020302020302020300A20202020312E3233373520202020302E3030303020202020302E303030302043202020302020302020302020302020302020302020302020302020302020302020302020300A2020202D312E3233373520202020302E3030303020202020302E303030302043202020302020302020302020302020302020302020302020302020302020302020302020300A2020312020322020322020302020202020200A2020322020332020312020302020202020200A2020332020342020312020302020202020200A2020342020352020312020302020202020200A2020352020362020312020302020202020200A2020312020362020312020302020202020200A2020332020372020312020302020202020200A4D2020454E44
Contributor: YAMAMOTO M, DEP. CHEMISTRY, FAC. SCIENCE, NARA WOMEN'S UNIV.
InstType: EI
InstName: HITACHI RMU-6M
IoniMethod: _ENERGY 70 eV
IonPolarity: pos
Date: 2010-10-09 19:48:36+02:00
Num Peaks: 40
27 13 28 147 29 23 30 70 33 6 38 6 39 21 40 227 41 50 42 171 
43 28 44 6 45 7 46 5 47 6 50 26 51 57 52 31 53 171 54 193 
55 322 56 20 62 8 63 18 65 44 66 39 67 337 68 378 69 22 77 63 
78 16 79 116 80 21 81 999 82 68 91 17 93 9 95 71 96 337 97 29 
