Name: MassBank: JP004785
MW: 231
Formula: C16H25N
Synonym: MassBank: JP004785
Synonym: 1-CYCLOHEXYL-2-METHYL-1,4,5,6,7,8-HEXAHYDRO-1-AZAAZULENE
Structure: 312D4359434C4F484558594C2D322D4D455448594C2D312C342C352C362C372C382D48455841485944524F2D312D415A41415A554C454E452E6D6F6C0A20204368656D447261773131313830393031313532440A2031382032302020302020302020302020302020302020302020302020303939392056323030300A20202020302E323330342020202D302E3034373820202020302E30303030204E202020302020302020302020302020302020302020302020302020302020302020302020300A20202020302E3134343120202020302E3737323620202020302E303030302043202020302020302020302020302020302020302020302020302020302020302020302020300A2020202D302E3636323920202020302E3934343220202020302E303030302043202020302020302020302020302020302020302020302020302020302020302020302020300A2020202D312E3037353420202020302E3232393720202020302E303030302043202020302020302020302020302020302020302020302020302020302020302020302020300A2020202D312E3839383920202020302E3138303420202020302E303030302043202020302020302020302020302020302020302020302020302020302020302020302020300A2020202D322E333733382020202D302E3439343320202020302E303030302043202020302020302020302020302020302020302020302020302020302020302020302020300A2020202D322E313432342020202D312E3238363220202020302E303030302043202020302020302020302020302020302020302020302020302020302020302020302020300A2020202D312E333736302020202D312E3630343420202020302E303030302043202020302020302020302020302020302020302020302020302020302020302020302020300A2020202D302E363631352020202D312E3139313920202020302E303030302043202020302020302020302020302020302020302020302020302020302020302020302020300A2020202D302E353233332020202D302E3338333420202020302E303030302043202020302020302020302020302020302020302020302020302020302020302020302020300A20202020302E3735373220202020312E3332343720202020302E303030302043202020302020302020302020302020302020302020302020302020302020302020302020300A20202020302E393434382020202D302E3436303320202020302E303030302043202020302020302020302020302020302020302020302020302020302020302020302020300A20202020302E393434382020202D312E3238353320202020302E303030302043202020302020302020302020302020302020302020302020302020302020302020302020300A20202020312E363539332020202D312E3639373820202020302E303030302043202020302020302020302020302020302020302020302020302020302020302020302020300A20202020322E333733382020202D312E3238353320202020302E303030302043202020302020302020302020302020302020302020302020302020302020302020302020300A20202020322E333733382020202D302E3436303320202020302E303030302043202020302020302020302020302020302020302020302020302020302020302020302020300A20202020312E363539332020202D302E3034373820202020302E303030302043202020302020302020302020302020302020302020302020302020302020302020302020300A2020202D302E3939383420202020312E3639373820202020302E303030302048202020302020302020302020302020302020302020302020302020302020302020302020300A2020312020322020312020302020202020200A2020322020332020322020302020202020200A2020332020342020312020302020202020200A2020342020352020312020302020202020200A2020352020362020312020302020202020200A2020362020372020312020302020202020200A2020372020382020312020302020202020200A2020382020392020312020302020202020200A2020392031302020312020302020202020200A2020312031302020312020302020202020200A2020342031302020322020302020202020200A2020322031312020312020302020202020200A2031322031332020312020302020202020200A2031332031342020312020302020202020200A2031342031352020312020302020202020200A2031352031362020312020302020202020200A2031362031372020312020302020202020200A2031322031372020312020302020202020200A2020312031322020312020302020202020200A2020332031382020312020302020202020200A4D2020454E44
Contributor: MASS SPECTROSCOPY SOC. OF JAPAN (MSSJ)
InstType: EI
InstName: JEOL JMS-D-3000
IoniMethod: _ENERGY 70 eV
IonPolarity: pos
Date: 2010-10-09 19:48:36+02:00
Num Peaks: 30
41 277 42 64 55 250 77 75 79 87 91 58 93 74 94 151 95 144 107 225 
108 275 120 317 121 168 132 89 134 141 146 91 147 59 148 485 149 327 150 179 
176 83 177 94 190 85 202 216 203 130 216 135 229 88 230 167 231 999 232 181 
