Name: 4-(2-INDOLYL)BUTYLIC ACID METHYL ESTER
MW: 217
Formula: C13H15NO2
Synonym: MassBank: JP005254
Synonym: 4-(2-INDOLYL)BUTYLIC ACID METHYL ESTER
Structure: 342D28322D494E444F4C594C29425554594C49432041434944204D455448594C2045535445522E6D6F6C0A20204368656D447261773033323331303233313432440A2031362031372020302020302020302020302020302020302020302020303939392056323030300A2020202D312E3938363120202020302E3431323520202020302E303030302043202020302020302020302020302020302020302020302020302020302020302020302020300A2020202D312E323731362020202D302E3030303020202020302E303030302043202020302020302020302020302020302020302020302020302020302020302020302020300A2020202D312E323731362020202D302E3832353020202020302E303030302043202020302020302020302020302020302020302020302020302020302020302020302020300A2020202D302E353537312020202D312E3233373520202020302E303030302043202020302020302020302020302020302020302020302020302020302020302020302020300A2020202D312E3938363120202020312E3233373520202020302E30303030204F202020302020302020302020302020302020302020302020302020302020302020302020300A2020202D322E373030352020202D302E3030303020202020302E30303030204F202020302020302020302020302020302020302020302020302020302020302020302020300A20202020302E393131302020202D312E3136303620202020302E30303030204E202020302020302020302020302020302020302020302020302020302020302020302020300A20202020302E313537332020202D302E3832353020202020302E303030302043202020302020302020302020302020302020302020302020302020302020302020302020300A20202020302E323433362020202D302E3030343520202020302E303030302043202020302020302020302020302020302020302020302020302020302020302020302020300A20202020312E3035303520202020302E3136373020202020302E303030302043202020302020302020302020302020302020302020302020302020302020302020302020300A20202020312E3436333020202020302E3838313520202020302E303030302043202020302020302020302020302020302020302020302020302020302020302020302020300A20202020322E3238383020202020302E3838313520202020302E303030302043202020302020302020302020302020302020302020302020302020302020302020302020300A20202020322E3730303520202020302E3136373020202020302E303030302043202020302020302020302020302020302020302020302020302020302020302020302020300A20202020322E323838302020202D302E3534373520202020302E303030302043202020302020302020302020302020302020302020302020302020302020302020302020300A20202020312E343633302020202D302E3534373520202020302E303030302043202020302020302020302020302020302020302020302020302020302020302020302020300A2020202D322E373030352020202D302E3832353020202020302E303030302043202020302020302020302020302020302020302020302020302020302020302020302020300A2020312020322020312020302020202020200A2020322020332020312020302020202020200A2020332020342020312020302020202020200A2020312020352020322020302020202020200A2020312020362020312020302020202020200A2020372020382020312020302020202020200A2020382020392020322020302020202020200A2020392031302020312020302020202020200A2031302031312020312020302020202020200A2031312031322020322020302020202020200A2031322031332020312020302020202020200A2031332031342020322020302020202020200A2031342031352020312020302020202020200A2020372031352020312020302020202020200A2031302031352020322020302020202020200A2020342020382020312020302020202020200A2020362031362020312020302020202020200A4D2020454E44
Contributor: MASS SPECTROSCOPY SOC. OF JAPAN (MSSJ)
InstType: EI
InstName: HITACHI M-80
IoniMethod: _ENERGY 20 eV
IonPolarity: pos
Date: 2010-10-09 19:48:36+02:00
Num Peaks: 11
117 10 130 999 131 100 143 220 144 45 156 10 157 10 186 70 187 10 217 441 
218 55 
