Name: TRIMETHYL PHOSPHITE
MW: 124
Formula: C3H9O3P
Synonym: MassBank: JP006062
Synonym: TRIMETHYL PHOSPHITE
Structure: 310A31380A5452494D455448594C2050484F5350484954452E6D6F6C0A20204368656D447261773038313231303038343332440A2020372020362020302020302020302020302020302020302020302020303939392056323030300A2020202D302E303030302020202D302E3335373220202020302E303030302050202020302020302020302020302020302020302020302020302020302020302020302020300A20202020302E3431323520202020302E3335373220202020302E30303030204F202020302020302020302020302020302020302020302020302020302020302020302020300A20202020302E343132352020202D312E3037313720202020302E30303030204F202020302020302020302020302020302020302020302020302020302020302020302020300A2020202D302E383235302020202D302E3335373220202020302E30303030204F202020302020302020302020302020302020302020302020302020302020302020302020300A2020202D302E3030303020202020312E3037313720202020302E303030302043202020302020302020302020302020302020302020302020302020302020302020302020300A20202020312E323337352020202D312E3037313720202020302E303030302043202020302020302020302020302020302020302020302020302020302020302020302020300A2020202D312E323337352020202D312E3037313720202020302E303030302043202020302020302020302020302020302020302020302020302020302020302020302020300A2020312020322020312020302020202020200A2020312020332020312020302020202020200A2020312020342020312020302020202020200A2020322020352020312020302020202020200A2020332020362020312020302020202020200A2020342020372020312020302020202020200A4D2020454E44
Contributor: HASHIMOTO K, KYOTO COLLEGE OF PHARMACY
InstType: EI
InstName: HITACHI M-80
IoniMethod: _ENERGY 20 eV
IonPolarity: pos
Date: 2010-10-09 19:48:36+02:00
Num Peaks: 15
15 156 31 20 45 72 47 69 62 39 63 390 77 10 79 149 93 999 95 279 
96 11 109 549 110 13 124 426 125 19 
