Name: 2-METHYL-3-TRIMETHYLSILOXY-2-PENTENE
MW: 172
Formula: C9H20OSi
Synonym: MassBank: JP002311
Synonym: 2-METHYL-3-TRIMETHYLSILOXY-2-PENTENE
Structure: 322D4D455448594C2D332D5452494D455448594C53494C4F58592D322D50454E54454E452E6D6F6C0A20204368656D447261773031323231303033343732440A2031312031302020302020302020302020302020302020302020302020303939392056323030300A20202020312E323337352020202D312E3037313720202020302E303030302043202020302020302020302020302020302020302020302020302020302020302020302020300A20202020302E343132352020202D312E3037313720202020302E303030302043202020302020302020302020302020302020302020302020302020302020302020302020300A2020202D302E303030302020202D302E3335373220202020302E303030302043202020302020302020302020302020302020302020302020302020302020302020302020300A2020202D302E383235302020202D302E3335373220202020302E303030302043202020302020302020302020302020302020302020302020302020302020302020302020300A2020202D312E323337352020202D312E3037313720202020302E303030302043202020302020302020302020302020302020302020302020302020302020302020302020300A20202020302E3431323520202020302E3335373220202020302E30303030204F202020302020302020302020302020302020302020302020302020302020302020302020300A20202020302E3030303020202020312E3037313720202020302E303030302053692020302020302020302020302020302020302020302020302020302020302020302020300A2020202D302E3731343520202020302E3635393220202020302E303030302043202020302020302020302020302020302020302020302020302020302020302020302020300A2020202D302E3431323520202020312E3738363220202020302E303030302043202020302020302020302020302020302020302020302020302020302020302020302020300A20202020302E3731343520202020312E3438343220202020302E303030302043202020302020302020302020302020302020302020302020302020302020302020302020300A2020202D302E303030302020202D312E3738363220202020302E303030302043202020302020302020302020302020302020302020302020302020302020302020302020300A2020312020322020312020302020202020200A2020322020332020322020302020202020200A2020332020342020312020302020202020200A2020342020352020312020302020202020200A2020362020372020312020302020202020200A2020372020382020312020302020202020200A2020372020392020312020302020202020200A2020372031302020312020302020202020200A2020332020362020312020302020202020200A2020322031312020312020302020202020200A4D2020454E44
Contributor: MASS SPECTROSCOPY SOC. OF JAPAN (MSSJ)
InstType: EI
InstName: JEOL JMS-D-3000
IoniMethod: _ENERGY 70 eV
IonPolarity: pos
Date: 2010-10-09 19:48:36+02:00
Num Peaks: 25
42 75 43 55 44 29 45 152 47 53 55 36 57 74 59 51 61 35 67 59 
71 39 73 999 74 88 75 801 76 59 77 33 91 24 115 24 129 30 143 69 
144 44 157 230 158 34 172 209 173 32 
