Name: DIBUTYL TIN DILAURATE
MW: 632
Formula: C32H64O4Sn
Synonym: MassBank: JP003361
Synonym: DIBUTYL TIN DILAURATE
Structure: 4449425554594C2054494E2044494C4155524154452E6D6F6C0A20204368656D447261773039323131303137343732440A2033372033362020302020302020302020302020302020302020302020303939392056323030300A2020202D312E303035362020202D322E3838373520202020302E3030303020536E2020302020302020302020302020302020302020302020302020302020302020302020300A2020202D312E303035362020202D332E3731323520202020302E303030302043202020302020302020302020302020302020302020302020302020302020302020302020300A2020202D302E323931312020202D342E3132353020202020302E303030302043202020302020302020302020302020302020302020302020302020302020302020302020300A20202020302E343233332020202D332E3731323520202020302E303030302043202020302020302020302020302020302020302020302020302020302020302020302020300A20202020312E313337382020202D342E3132353020202020302E303030302043202020302020302020302020302020302020302020302020302020302020302020302020300A2020202D312E383330362020202D322E3838373520202020302E303030302043202020302020302020302020302020302020302020302020302020302020302020302020300A2020202D322E323433312020202D332E3630323020202020302E303030302043202020302020302020302020302020302020302020302020302020302020302020302020300A2020202D332E303638312020202D332E3630323020202020302E303030302043202020302020302020302020302020302020302020302020302020302020302020302020300A2020202D332E343830362020202D322E3838373520202020302E303030302043202020302020302020302020302020302020302020302020302020302020302020302020300A2020202D312E303035362020202D322E3036323520202020302E30303030204F202020302020302020302020302020302020302020302020302020302020302020302020300A2020202D312E373230312020202D312E3635303020202020302E303030302043202020302020302020302020302020302020302020302020302020302020302020302020300A2020202D322E343334352020202D322E3036323520202020302E303030302043202020302020302020302020302020302020302020302020302020302020302020302020300A2020202D332E313439302020202D312E3635303020202020302E303030302043202020302020302020302020302020302020302020302020302020302020302020302020300A2020202D332E313439302020202D302E3832353020202020302E303030302043202020302020302020302020302020302020302020302020302020302020302020302020300A2020202D332E383633352020202D302E3431323520202020302E303030302043202020302020302020302020302020302020302020302020302020302020302020302020300A2020202D332E3836333520202020302E3431323520202020302E303030302043202020302020302020302020302020302020302020302020302020302020302020302020300A2020202D342E3537383020202020302E3832353020202020302E303030302043202020302020302020302020302020302020302020302020302020302020302020302020300A2020202D342E3537383020202020312E3635303020202020302E303030302043202020302020302020302020302020302020302020302020302020302020302020302020300A2020202D352E3239323420202020322E3036323520202020302E303030302043202020302020302020302020302020302020302020302020302020302020302020302020300A2020202D352E3239323420202020322E3838373520202020302E303030302043202020302020302020302020302020302020302020302020302020302020302020302020300A2020202D362E3030363920202020332E3330303020202020302E303030302043202020302020302020302020302020302020302020302020302020302020302020302020300A2020202D362E3030363920202020342E3132353020202020302E303030302043202020302020302020302020302020302020302020302020302020302020302020302020300A2020202D312E373230312020202D302E3832353020202020302E30303030204F202020302020302020302020302020302020302020302020302020302020302020302020300A2020202D302E313830362020202D322E3838373520202020302E30303030204F202020302020302020302020302020302020302020302020302020302020302020302020300A20202020302E323331392020202D322E3137333020202020302E303030302043202020302020302020302020302020302020302020302020302020302020302020302020300A2020202D302E313830362020202D312E3435383620202020302E303030302043202020302020302020302020302020302020302020302020302020302020302020302020300A20202020302E323331392020202D302E3734343120202020302E303030302043202020302020302020302020302020302020302020302020302020302020302020302020300A20202020312E303536392020202D302E3734343120202020302E303030302043202020302020302020302020302020302020302020302020302020302020302020302020300A20202020312E343639342020202D302E3032393620202020302E303030302043202020302020302020302020302020302020302020302020302020302020302020302020300A20202020322E323934342020202D302E3032393620202020302E303030302043202020302020302020302020302020302020302020302020302020302020302020302020300A20202020322E3730363920202020302E3638343920202020302E303030302043202020302020302020302020302020302020302020302020302020302020302020302020300A20202020332E3533313920202020302E3638343920202020302E303030302043202020302020302020302020302020302020302020302020302020302020302020302020300A20202020332E3934343420202020312E3339393320202020302E303030302043202020302020302020302020302020302020302020302020302020302020302020302020300A20202020342E3736393420202020312E3339393320202020302E303030302043202020302020302020302020302020302020302020302020302020302020302020302020300A20202020352E3138313920202020322E3131333820202020302E303030302043202020302020302020302020302020302020302020302020302020302020302020302020300A20202020362E3030363920202020322E3131333820202020302E303030302043202020302020302020302020302020302020302020302020302020302020302020302020300A20202020312E303536392020202D322E3137333020202020302E30303030204F202020302020302020302020302020302020302020302020302020302020302020302020300A2020322020332020312020302020202020200A2020332020342020312020302020202020200A2020342020352020312020302020202020200A2020312020322020312020302020202020200A2020362020372020312020302020202020200A2020372020382020312020302020202020200A2020382020392020312020302020202020200A2020312020362020312020302020202020200A2031312031322020312020302020202020200A2031322031332020312020302020202020200A2031332031342020312020302020202020200A2031342031352020312020302020202020200A2031352031362020312020302020202020200A2031362031372020312020302020202020200A2031372031382020312020302020202020200A2031382031392020312020302020202020200A2031392032302020312020302020202020200A2032302032312020312020302020202020200A2032312032322020312020302020202020200A2031312032332020322020302020202020200A2031302031312020312020302020202020200A2020312031302020312020302020202020200A2032352032362020312020302020202020200A2032362032372020312020302020202020200A2032372032382020312020302020202020200A2032382032392020312020302020202020200A2032392033302020312020302020202020200A2033302033312020312020302020202020200A2033312033322020312020302020202020200A2033322033332020312020302020202020200A2033332033342020312020302020202020200A2033342033352020312020302020202020200A2033352033362020312020302020202020200A2032352033372020322020302020202020200A2032342032352020312020302020202020200A2020312032342020312020302020202020200A4D2020454E44
Contributor: KOGA M, UNIV. OF OCCUPATIONAL AND ENVIRONMENTAL HEALTH
InstType: EI
InstName: JEOL JMS-01-SG-2
IoniMethod: _ENERGY 75 eV
IonPolarity: pos
Date: 2010-10-09 19:48:36+02:00
Num Peaks: 49
44 38 45 64 50 26 51 30 53 66 56 999 57 50 58 32 59 99 60 162 
67 92 68 66 69 30 70 126 71 330 72 24 73 91 74 82 79 30 81 66 
82 7 83 188 84 128 85 234 87 14 95 48 96 40 97 118 98 23 101 104 
111 68 112 66 115 12 129 270 133 80 134 40 135 13 136 40 137 178 140 34 
141 3 143 74 157 136 171 56 185 5 200 178 201 46 228 62 256 36 
