Name: 1-METHYL-3-NITROINDOLE
MW: 176
Formula: C9H8N2O2
Synonym: MassBank: JP000430
Synonym: 1-METHYL-3-NITROINDOLE
Structure: 312D4D455448594C2D332D4E4954524F494E444F4C452E6D6F6C0A20204368656D447261773131313930393136333532440A2031342031352020302020302020302020302020302020302020302020303939392056323030300A2020202D302E343531382020202D302E3935393120202020302E30303030204E202020302020302020302020302020302020302020302020302020302020302020302020300A2020202D302E393336372020202D302E3239313720202020302E303030302043202020302020302020302020302020302020302020302020302020302020302020302020300A2020202D302E3435313820202020302E3337353820202020302E303030302043202020302020302020302020302020302020302020302020302020302020302020302020300A20202020302E3333323820202020302E3132303820202020302E303030302043202020302020302020302020302020302020302020302020302020302020302020302020300A20202020312E3034373320202020302E3533333320202020302E303030302043202020302020302020302020302020302020302020302020302020302020302020302020300A20202020312E3736313720202020302E3132303820202020302E303030302043202020302020302020302020302020302020302020302020302020302020302020302020300A20202020312E373631372020202D302E3730343220202020302E303030302043202020302020302020302020302020302020302020302020302020302020302020302020300A20202020312E303437332020202D312E3131363720202020302E303030302043202020302020302020302020302020302020302020302020302020302020302020302020300A20202020302E333332382020202D302E3730343220202020302E303030302043202020302020302020302020302020302020302020302020302020302020302020302020300A2020202D302E3730363820202020312E3136303420202020302E30303030204E202020302020332020302020302020302020302020302020302020302020302020302020300A2020202D302E3132333420202020312E3734333720202020302E30303030204F202020302020302020302020302020302020302020302020302020302020302020302020300A2020202D312E3530333620202020312E3337333920202020302E30303030204F202020302020352020302020302020302020302020302020302020302020302020302020300A2020202D302E373036382020202D312E3734333720202020302E303030302043202020302020302020302020302020302020302020302020302020302020302020302020300A2020202D312E373631372020202D302E3239313720202020302E303030302048202020302020302020302020302020302020302020302020302020302020302020302020300A2020312020322020312020302020202020200A2020322020332020322020302020202020200A2020332020342020312020302020202020200A2020342020352020312020302020202020200A2020352020362020322020302020202020200A2020362020372020312020302020202020200A2020372020382020322020302020202020200A2020382020392020312020302020202020200A2020312020392020312020302020202020200A2020342020392020322020302020202020200A2031302031312020322020302020202020200A2031302031322020312020302020202020200A2020332031302020312020302020202020200A2020312031332020312020302020202020200A2020322031342020312020302020202020200A4D202043484720203220203130202020312020313220202D310A4D2020454E44
Contributor: SASAKI S, TOYOHASHI UNIV. OF TECH.
InstType: EI
InstName: MX-1303
IoniMethod: _ENERGY 50 eV
IonPolarity: pos
Date: 2010-10-09 19:48:36+02:00
Num Peaks: 57
46 60 50 39 51 88 53 6 54 46 56 123 57 137 60 18 61 36 63 77 
64 36 67 17 69 400 70 135 71 183 73 16 75 42 76 53 77 530 78 5 
79 60 81 710 82 90 83 18 84 60 85 90 89 42 91 18 93 75 95 147 
96 42 97 11 98 45 101 42 102 81 103 21 104 42 105 90 107 46 109 5 
111 42 117 37 121 65 123 5 128 44 129 89 130 134 131 4 135 29 136 38 
137 104 146 47 147 38 149 65 160 24 176 999 177 135 
