Name: MassBank: JP000974
CAS: 77-47-4
MW: 269
Formula: C5Cl6
Synonym: MassBank: JP000974
Synonym: 1,2,3,4,5,5-HEXACHLORO-1,3-CYCLOPENTADIENE
Structure: 312C322C332C342C352C352D4845584143484C4F524F2D312C332D4359434C4F50454E54414449454E452E6D6F6C0A20204368656D447261773130323330393131353932440A2031312031312020302020302020302020302020302020302020302020303939392056323030300A2020202D302E343239312020202D302E3731323220202020302E303030302043202020302020302020302020302020302020302020302020302020302020302020302020300A20202020302E333935392020202D302E3731333520202020302E303030302043202020302020302020302020302020302020302020302020302020302020302020302020300A20202020302E3635323020202020302E3037303720202020302E303030302043202020302020302020302020302020302020302020302020302020302020302020302020300A2020202D302E3031343720202020302E3535363720202020302E303030302043202020302020302020302020302020302020302020302020302020302020302020302020300A2020202D302E3638323920202020302E3037323820202020302E303030302043202020302020302020302020302020302020302020302020302020302020302020302020300A2020202D312E3039343320202020302E3738373920202020302E3030303020436C2020302020302020302020302020302020302020302020302020302020302020302020300A2020202D312E343337302020202D302E3236313720202020302E3030303020436C2020302020302020302020302020302020302020302020302020302020302020302020300A2020202D302E3031333420202020312E3338313720202020302E3030303020436C2020302020302020302020302020302020302020302020302020302020302020302020300A20202020312E3433373020202020302E3332343520202020302E3030303020436C2020302020302020302020302020302020302020302020302020302020302020302020300A20202020302E383739382020202D312E3338313720202020302E3030303020436C2020302020302020302020302020302020302020302020302020302020302020302020300A2020202D302E393135302020202D312E3337383920202020302E3030303020436C2020302020302020302020302020302020302020302020302020302020302020302020300A2020312020322020322020302020202020200A2020322020332020312020302020202020200A2020332020342020322020302020202020200A2020342020352020312020302020202020200A2020312020352020312020302020202020200A2020352020362020312020312020202020200A2020352020372020312020362020202020200A2020342020382020312020302020202020200A2020332020392020312020302020202020200A2020322031302020312020302020202020200A2020312031312020312020302020202020200A4D2020454E44
Contributor: KOGA M, UNIV. OF OCCUPATIONAL AND ENVIRONMENTAL HEALTH
InstType: EI
InstName: JEOL JMS-01-SG
IoniMethod: _ENERGY 70 eV
IonPolarity: pos
Date: 2010-10-09 19:48:36+02:00
Num Peaks: 51
47 73 49 33 59 33 60 17 61 46 65 59 66 53 71 8 83 68 84 26 
85 31 94 3 95 284 96 51 97 90 100 4 101 62 102 29 106 70 108 5 
117 105 119 138 121 44 130 23 131 31 132 127 134 24 141 14 143 145 145 42 
165 145 167 13 169 59 201 84 202 22 203 12 205 62 207 24 235 730 236 5 
237 999 238 92 239 697 240 5 241 222 242 22 243 33 270 10 272 178 274 125 
276 59 
