Name: FLUORESCEIN
CAS: 2321-07-5
MW: 332
Formula: C20H12O5
Synonym: MassBank: JP009560
Synonym: FLUORESCEIN
Synonym: 3',6'-DIHYDROXYSPIRO(ISOBENZOFURAN-1(3H),9'-(9H)XANTHEN)-3-ONE
Structure: 464C554F5245534345494E2E6D6F6C0A20204368656D447261773032323131303137333432440A2032352032392020302020302020302020302020302020302020302020303939392056323030300A20202020302E3530373220202020302E3136363420202020302E303030302043202020302020302020302020302020302020302020302020302020302020302020302020300A20202020302E3032323220202020302E3833333920202020302E30303030204F202020302020302020302020302020302020302020302020302020302020302020302020300A20202020302E3530373220202020312E3530313320202020302E303030302043202020302020302020302020302020302020302020302020302020302020302020302020300A20202020302E3235323220202020322E3238353920202020302E30303030204F202020302020302020302020302020302020302020302020302020302020302020302020300A20202020312E3239313820202020312E3234363420202020302E303030302043202020302020302020302020302020302020302020302020302020302020302020302020300A20202020322E3030363320202020312E3635383920202020302E303030302043202020302020302020302020302020302020302020302020302020302020302020302020300A20202020322E3732303720202020312E3234363420202020302E303030302043202020302020302020302020302020302020302020302020302020302020302020302020300A20202020322E3732303720202020302E3432313420202020302E303030302043202020302020302020302020302020302020302020302020302020302020302020302020300A20202020322E3030363320202020302E3030383920202020302E303030302043202020302020302020302020302020302020302020302020302020302020302020302020300A20202020312E3239313820202020302E3432313420202020302E303030302043202020302020302020302020302020302020302020302020302020302020302020302020300A20202020312E303539322020202D302E3434363720202020302E303030302043202020302020302020302020302020302020302020302020302020302020302020302020300A20202020312E383636322020202D302E3237353120202020302E303030302043202020302020302020302020302020302020302020302020302020302020302020302020300A20202020322E343138322020202D302E3838383220202020302E303030302043202020302020302020302020302020302020302020302020302020302020302020302020300A20202020322E313633332020202D312E3637323820202020302E303030302043202020302020302020302020302020302020302020302020302020302020302020302020300A20202020322E373135332020202D322E3238353920202020302E30303030204F202020302020302020302020302020302020302020302020302020302020302020302020300A20202020312E333536332020202D312E3834343420202020302E303030302043202020302020302020302020302020302020302020302020302020302020302020302020300A20202020302E383034332020202D312E3233313320202020302E303030302043202020302020302020302020302020302020302020302020302020302020302020302020300A2020202D302E303032372020202D312E3430323820202020302E30303030204F202020302020302020302020302020302020302020302020302020302020302020302020300A2020202D302E353534372020202D302E3738393720202020302E303030302043202020302020302020302020302020302020302020302020302020302020302020302020300A2020202D312E333631372020202D302E3936313220202020302E303030302043202020302020302020302020302020302020302020302020302020302020302020302020300A2020202D312E393133382020202D302E3334383120202020302E303030302043202020302020302020302020302020302020302020302020302020302020302020302020300A2020202D322E373230372020202D302E3531393720202020302E30303030204F202020302020302020302020302020302020302020302020302020302020302020302020300A2020202D312E3635383820202020302E3433363520202020302E303030302043202020302020302020302020302020302020302020302020302020302020302020302020300A2020202D302E3835313820202020302E3630383020202020302E303030302043202020302020302020302020302020302020302020302020302020302020302020302020300A2020202D302E323939382020202D302E3030353120202020302E303030302043202020302020302020302020302020302020302020302020302020302020302020302020300A2020312020322020312020302020202020200A2020322020332020312020302020202020200A2020332020342020322020302020202020200A2020332020352020312020302020202020200A2020352020362020312020302020202020200A2020362020372020322020302020202020200A2020372020382020312020302020202020200A2020382020392020322020302020202020200A2020392031302020312020302020202020200A2020352031302020322020302020202020200A2020312031302020312020302020202020200A2020312031312020312020302020202020200A2031312031322020312020302020202020200A2031322031332020322020302020202020200A2031332031342020312020302020202020200A2031342031352020312020302020202020200A2031342031362020322020302020202020200A2031362031372020312020302020202020200A2031312031372020322020302020202020200A2031372031382020312020302020202020200A2031382031392020312020302020202020200A2031392032302020312020302020202020200A2032302032312020322020302020202020200A2032312032322020312020302020202020200A2032312032332020312020302020202020200A2032332032342020322020302020202020200A2032342032352020312020302020202020200A2020312032352020312020302020202020200A2031392032352020322020302020202020200A4D2020454E44
Contributor: NARA WOMEN'S UNIVERSITY
InstType: EI
InstName: HITACHI M-80
IoniMethod: _ENERGY 70 eV
IonPolarity: pos
Date: 2010-10-09 19:48:36+02:00
Num Peaks: 95
39 32 41 23 43 39 44 26 50 32 51 29 52 13 53 25 55 27 62 14 
63 40 65 14 67 12 69 37 71 26 74 20 75 35 76 68 77 27 79 15 
81 22 86 11 87 19 88 34 89 14 91 12 93 20 94 14 95 13 100 28 
101 50 104 40 105 16 106 10 107 26 108 13 109 13 110 11 113 11 115 24 
121 23 126 12 127 13 128 10 129 27 135 47 136 20 137 28 138 41 139 34 
144 78 149 12 150 23 151 20 152 29 163 25 170 10 174 14 175 21 176 40 
177 10 186 14 187 30 188 17 189 46 190 11 198 11 199 12 200 63 201 49 
202 135 203 28 205 13 211 12 212 12 213 53 214 13 229 29 231 22 240 12 
242 15 258 81 259 46 260 11 271 325 272 68 273 14 287 999 288 697 289 131 
290 17 303 23 331 14 332 33 333 10 
