Name: MassBank: JP005439
MW: 279
Formula: C9H14Br2
Synonym: MassBank: JP005439
Synonym: 3,5-BIS(2-BROMOETHYL)CYCLOPENTENE
Structure: 332C352D42495328322D42524F4D4F455448594C294359434C4F50454E54454E452E6D6F6C0A20204368656D447261773032323231303030343132440A2031312031312020302020302020302020302020302020302020302020303939392056323030300A20202020302E313632392020202D302E3833333620202020302E303030302043202020302020302020302020302020302020302020302020302020302020302020302020300A2020202D302E363231372020202D302E3537383720202020302E303030302043202020302020302020302020302020302020302020302020302020302020302020302020300A2020202D302E3632313720202020302E3234363320202020302E303030302043202020302020302020302020302020302020302020302020302020302020302020302020300A20202020302E3136323920202020302E3530313320202020302E303030302043202020302020302020302020302020302020302020302020302020302020302020302020300A20202020302E363437382020202D302E3136363220202020302E303030302043202020302020302020302020302020302020302020302020302020302020302020302020300A20202020312E343732382020202D302E3136363220202020302E303030302043202020302020302020302020302020302020302020302020302020302020302020302020300A20202020312E383835332020202D302E3838303620202020302E303030302043202020302020302020302020302020302020302020302020302020302020302020302020300A20202020322E373130332020202D302E3838303620202020302E303030302042722020302020302020302020302020302020302020302020302020302020302020302020300A2020202D312E3238393220202020302E3733313320202020302E303030302043202020302020302020302020302020302020302020302020302020302020302020302020300A2020202D322E3034323920202020302E3339353720202020302E303030302043202020302020302020302020302020302020302020302020302020302020302020302020300A2020202D322E3731303320202020302E3838303620202020302E303030302042722020302020302020302020302020302020302020302020302020302020302020302020300A2020312020322020322020302020202020200A2020322020332020312020302020202020200A2020332020342020312020302020202020200A2020342020352020312020302020202020200A2020312020352020312020302020202020200A2020362020372020312020302020202020200A2020372020382020312020302020202020200A2020352020362020312020302020202020200A2020392031302020312020302020202020200A2031302031312020312020302020202020200A2020332020392020312020302020202020200A4D2020454E44
Contributor: HIRAMA M, TOHOKU UNIV. FACULTY OF SCIENCE DEPT. OF CHEMISTRY YUKIBUNSEKI
InstType: EI
InstName: HITACHI M-52
IoniMethod: _ENERGY 25 eV
IonPolarity: pos
Date: 2010-10-09 19:48:36+02:00
Num Peaks: 35
28 160 41 25 57 56 66 4 67 96 77 135 79 116 91 16 92 37 93 616 
94 107 105 3 107 48 121 135 129 370 130 4 131 127 145 32 173 888 174 10 
175 999 176 90 177 35 201 9 202 20 203 55 205 506 206 8 220 161 221 28 
227 22 228 5 280 39 282 70 284 36 
