Name: 1-METHOXY-2-PROPANOL
CAS: 107-98-2
MW: 90
Formula: C4H10O2
Synonym: MassBank: JP007370
Synonym: 1-METHOXY-2-PROPANOL
Structure: 310A31360A312D4D4554484F58592D322D50524F50414E4F4C2E6D6F6C0A20204368656D447261773131313930393136303932440A2020362020352020302020302020302020302020302020302020302020303939392056323030300A20202020302E303030302020202D302E3631383820202020302E303030302043202020302020302020302020302020302020302020302020302020302020302020302020300A2020202D302E373134352020202D302E3230363220202020302E303030302043202020302020302020302020302020302020302020302020302020302020302020302020300A2020202D302E3731343520202020302E3631383820202020302E303030302043202020302020302020302020302020302020302020302020302020302020302020302020300A2020202D312E343238392020202D302E3631383820202020302E30303030204F202020302020302020302020302020302020302020302020302020302020302020302020300A20202020302E373134352020202D302E3230363220202020302E30303030204F202020302020302020302020302020302020302020302020302020302020302020302020300A20202020312E343238392020202D302E3631383820202020302E303030302043202020302020302020302020302020302020302020302020302020302020302020302020300A2020312020322020312020302020202020200A2020322020332020312020302020202020200A2020322020342020312020302020202020200A2020352020362020312020302020202020200A2020312020352020312020302020202020200A4D2020454E44
Contributor: YAMAMOTO M, DEP. CHEMISTRY, FAC. SCIENCE, NARA WOMEN'S UNIV.
InstType: EI
InstName: HITACHI RMU-6M
IoniMethod: _ENERGY 70 eV
IonPolarity: pos
Date: 2010-10-09 19:48:36+02:00
Num Peaks: 18
15 78 27 49 28 17 29 78 31 124 33 14 39 15 41 29 42 12 43 88 
44 22 45 999 46 49 47 319 57 18 59 45 75 44 90 8 
