Name: 2-METHYLFURAN
MW: 82
Formula: C5H6O
Synonym: MassBank: JP009383
Synonym: 2-METHYLFURAN
Structure: 310A31370A322D4D455448594C465552414E2E6D6F6C0A20204368656D447261773031323231303037353432440A2020362020362020302020302020302020302020302020302020302020303939392056323030300A2020202D302E363637342020202D302E3236323720202020302E30303030204F202020302020302020302020302020302020302020302020302020302020302020302020300A20202020302E3030303020202020302E3232323320202020302E303030302043202020302020302020302020302020302020302020302020302020302020302020302020300A20202020302E363637342020202D302E3236323720202020302E303030302043202020302020302020302020302020302020302020302020302020302020302020302020300A20202020302E343132352020202D312E3034373320202020302E303030302043202020302020302020302020302020302020302020302020302020302020302020302020300A2020202D302E343132352020202D312E3034373320202020302E303030302043202020302020302020302020302020302020302020302020302020302020302020302020300A20202020302E3030303020202020312E3034373320202020302E303030302043202020302020302020302020302020302020302020302020302020302020302020302020300A2020312020322020312020302020202020200A2020322020332020322020302020202020200A2020332020342020312020302020202020200A2020342020352020322020302020202020200A2020312020352020312020302020202020200A2020322020362020312020302020202020200A4D2020454E44
Contributor: GUNMA COLLEGE OF TECHNOLOGY
InstType: EI
InstName: HITACHI RMU-7M
IoniMethod: _ENERGY 70 eV
IonPolarity: pos
Date: 2010-10-09 19:48:36+02:00
Num Peaks: 20
26 83 27 345 28 205 29 220 37 40 38 64 39 489 40 158 41 46 43 203 
49 22 50 118 51 130 52 72 53 742 54 146 55 44 81 550 82 999 83 52 
