Name: TRANS-3-OCTENOIC ACID
MW: 142
Formula: C8H14O2
Synonym: MassBank: JP009194
Synonym: TRANS-3-OCTENOIC ACID
Structure: 5452414E532D332D4F4354454E4F494320414349442E6D6F6C0A20204368656D447261773038313231303038303132440A2031302020392020302020302020302020302020302020302020302020303939392056323030300A20202020312E3738363220202020302E3431323520202020302E303030302043202020302020302020302020302020302020302020302020302020302020302020302020300A20202020312E373836322020202D302E3431323520202020302E303030302043202020302020302020302020302020302020302020302020302020302020302020302020300A20202020312E303731372020202D302E3832353020202020302E303030302043202020302020302020302020302020302020302020302020302020302020302020302020300A20202020302E333537322020202D302E3431323520202020302E303030302043202020302020302020302020302020302020302020302020302020302020302020302020300A2020202D302E333537322020202D302E3832353020202020302E303030302043202020302020302020302020302020302020302020302020302020302020302020302020300A2020202D312E303731372020202D302E3431323520202020302E303030302043202020302020302020302020302020302020302020302020302020302020302020302020300A2020202D312E373836322020202D302E3832353020202020302E303030302043202020302020302020302020302020302020302020302020302020302020302020302020300A2020202D322E353030362020202D302E3431323520202020302E303030302043202020302020302020302020302020302020302020302020302020302020302020302020300A20202020312E3037313720202020302E3832353020202020302E30303030204F202020302020302020302020302020302020302020302020302020302020302020302020300A20202020322E3530303620202020302E3832353020202020302E30303030204F202020302020302020302020302020302020302020302020302020302020302020302020300A2020312020322020312020302020202020200A2020322020332020312020302020202020200A2020332020342020322020302020202020200A2020342020352020312020302020202020200A2020352020362020312020302020202020200A2020362020372020312020302020202020200A2020372020382020312020302020202020200A2020312020392020322020302020202020200A2020312031302020312020302020202020200A4D2020454E44
Contributor: SODA AROMATIC CO., LTD.
InstType: EI
InstName: HITACHI M-80B
IoniMethod: _ENERGY 70 eV
IonPolarity: pos
Date: 2010-10-09 19:48:36+02:00
Num Peaks: 61
15 30 17 10 26 40 27 461 28 72 29 318 31 34 38 39 39 411 40 85 
41 999 42 147 43 513 44 37 45 225 50 28 51 64 52 38 53 155 54 262 
55 905 56 366 57 253 58 85 59 29 60 145 61 30 63 10 65 33 66 18 
67 359 68 107 69 120 70 70 71 190 72 12 73 108 74 33 77 29 79 31 
80 22 81 108 82 747 83 230 84 31 85 26 86 30 87 117 91 19 95 53 
96 184 97 45 99 57 100 132 101 35 106 19 109 22 113 47 124 245 125 33 
142 37 
