Name: PYRENE
CAS: 129-00-0
MW: 202
Formula: C16H10
Synonym: MassBank: JP004838
Synonym: PYRENE
Structure: 505952454E452E6D6F6C0A20204368656D447261773038313231303036323632440A2031362031392020302020302020302020302020302020302020302020303939392056323030300A2020202D312E3738363020202020302E3230363220202020302E303030302043202020302020302020302020302020302020302020302020302020302020302020302020300A2020202D312E3738363020202020312E3033313220202020302E303030302043202020302020302020302020302020302020302020302020302020302020302020302020300A2020202D312E3037313520202020312E3434333720202020302E303030302043202020302020302020302020302020302020302020302020302020302020302020302020300A2020202D302E3335373020202020312E3033313220202020302E303030302043202020302020302020302020302020302020302020302020302020302020302020302020300A20202020302E3335363420202020312E3434333220202020302E303030302043202020302020302020302020302020302020302020302020302020302020302020302020300A20202020312E3037303420202020312E3033303920202020302E303030302043202020302020302020302020302020302020302020302020302020302020302020302020300A20202020312E3037303420202020302E3230363220202020302E303030302043202020302020302020302020302020302020302020302020302020302020302020302020300A20202020312E373836302020202D302E3230363920202020302E303030302043202020302020302020302020302020302020302020302020302020302020302020302020300A20202020312E373836302020202D312E3033313320202020302E303030302043202020302020302020302020302020302020302020302020302020302020302020302020300A20202020312E303731382020202D312E3434333620202020302E303030302043202020302020302020302020302020302020302020302020302020302020302020302020300A20202020302E333537352020202D312E3033313220202020302E303030302043202020302020302020302020302020302020302020302020302020302020302020302020300A2020202D302E333537312020202D312E3434333720202020302E303030302043202020302020302020302020302020302020302020302020302020302020302020302020300A2020202D312E303731352020202D312E3033313320202020302E303030302043202020302020302020302020302020302020302020302020302020302020302020302020300A2020202D312E303731352020202D302E3230363320202020302E303030302043202020302020302020302020302020302020302020302020302020302020302020302020300A2020202D302E3335373020202020302E3230363220202020302E303030302043202020302020302020302020302020302020302020302020302020302020302020302020300A20202020302E333537342020202D302E3230363320202020302E303030302043202020302020302020302020302020302020302020302020302020302020302020302020300A2020312020322020312020302020202020200A2020322020332020322020302020202020200A2020332020342020312020302020202020200A2020342020352020322020302020202020200A2020352020362020312020302020202020200A2020362020372020322020302020202020200A2020372020382020312020302020202020200A2020382020392020322020302020202020200A2020392031302020312020302020202020200A2031302031312020322020302020202020200A2031312031322020312020302020202020200A2031322031332020322020302020202020200A2031332031342020312020302020202020200A2020312031342020322020302020202020200A2031342031352020312020302020202020200A2020342031352020312020302020202020200A2031352031362020322020302020202020200A2020372031362020312020302020202020200A2031312031362020312020302020202020200A4D2020454E44
Contributor: MASS SPECTROSCOPY SOC. OF JAPAN (MSSJ)
InstType: EI
InstName: JEOL JMS-D-3000
IoniMethod: _ENERGY 70 eV
IonPolarity: pos
Date: 2010-10-09 19:48:36+02:00
Num Peaks: 21
58 14 73 17 74 10 75 17 87 32 88 49 99 23 100 148 101 218 102 36 
150 14 167 13 174 18 175 14 198 20 199 33 200 177 201 151 202 999 203 175 
204 17 
