Name: 2-TRIMETHYLSILYLOXY-N-(2-(DIETHYLAMINO)ETHYL)-3-PYRIDINECARBOXAMIDE
MW: 309
Formula: C15H27N3O2Si
Synonym: MassBank: JP003463
Synonym: 2-TRIMETHYLSILYLOXY-N-(2-(DIETHYLAMINO)ETHYL)-3-PYRIDINECARBOXAMIDE
Structure: 322D5452494D455448594C53494C594C4F58592D4E2D28322D284449455448594C414D494E4F29455448594C292D332D5059524944494E45434152424F58414D4944452E6D6F6C0A20204368656D447261773032323131303136353232440A2032312032312020302020302020302020302020302020302020302020303939392056323030300A2020202D312E383536322020202D302E3335373220202020302E303030302043202020302020302020302020302020302020302020302020302020302020302020302020300A2020202D312E343433372020202D312E3037313720202020302E303030302043202020302020302020302020302020302020302020302020302020302020302020302020300A2020202D312E383536322020202D312E3738363220202020302E303030302043202020302020302020302020302020302020302020302020302020302020302020302020300A2020202D322E363831322020202D312E3738363220202020302E303030302043202020302020302020302020302020302020302020302020302020302020302020302020300A2020202D332E303933382020202D312E3037313720202020302E303030302043202020302020302020302020302020302020302020302020302020302020302020302020300A2020202D322E363831332020202D302E3335373220202020302E30303030204E202020302020302020302020302020302020302020302020302020302020302020302020300A2020202D302E363138372020202D312E3037313720202020302E303030302043202020302020302020302020302020302020302020302020302020302020302020302020300A2020202D302E323036322020202D312E3738363220202020302E30303030204F202020302020302020302020302020302020302020302020302020302020302020302020300A2020202D302E323036322020202D302E3335373220202020302E30303030204E202020302020302020302020302020302020302020302020302020302020302020302020300A20202020302E363138382020202D302E3335373220202020302E303030302043202020302020302020302020302020302020302020302020302020302020302020302020300A20202020312E3033313320202020302E3335373220202020302E303030302043202020302020302020302020302020302020302020302020302020302020302020302020300A20202020312E3835363320202020302E3335373220202020302E30303030204E202020302020302020302020302020302020302020302020302020302020302020302020300A20202020322E3236383820202020312E3037313720202020302E303030302043202020302020302020302020302020302020302020302020302020302020302020302020300A20202020312E3835363320202020312E3738363220202020302E303030302043202020302020302020302020302020302020302020302020302020302020302020302020300A20202020322E323638382020202D302E3335373220202020302E303030302043202020302020302020302020302020302020302020302020302020302020302020302020300A20202020332E303933382020202D302E3335373220202020302E303030302043202020302020302020302020302020302020302020302020302020302020302020302020300A2020202D312E3434333720202020302E3335373220202020302E30303030204F202020302020302020302020302020302020302020302020302020302020302020302020300A2020202D312E3835363220202020312E3037313720202020302E303030302053692020302020302020302020302020302020302020302020302020302020302020302020300A2020202D322E3537303720202020302E3635393220202020302E303030302043202020302020302020302020302020302020302020302020302020302020302020302020300A2020202D322E3236383720202020312E3738363220202020302E303030302043202020302020302020302020302020302020302020302020302020302020302020302020300A2020202D312E3134313820202020312E3438343220202020302E303030302043202020302020302020302020302020302020302020302020302020302020302020302020300A2020312020322020312020302020202020200A2020322020332020322020302020202020200A2020332020342020312020302020202020200A2020342020352020322020302020202020200A2020352020362020312020302020202020200A2020312020362020322020302020202020200A2020372020382020322020302020202020200A2020372020392020312020302020202020200A2020322020372020312020302020202020200A2031302031312020312020302020202020200A2031332031342020312020302020202020200A2031322031332020312020302020202020200A2031352031362020312020302020202020200A2031322031352020312020302020202020200A2031312031322020312020302020202020200A2020392031302020312020302020202020200A2031382031392020312020302020202020200A2031382032302020312020302020202020200A2031382032312020312020302020202020200A2031372031382020312020302020202020200A2020312031372020312020302020202020200A4D2020454E44
Contributor: MASS SPECTROSCOPY SOC. OF JAPAN (MSSJ)
InstType: EI
InstName: HITACHI M-60
IoniMethod: _ENERGY 20 eV
IonPolarity: pos
Date: 2010-10-09 19:48:36+02:00
Num Peaks: 37
41 1 44 7 56 5 57 5 58 39 70 8 71 26 72 14 73 5 84 16 
85 5 86 999 87 120 88 2 97 2 99 184 100 84 101 5 113 3 117 2 
151 3 152 1 166 2 167 1 177 4 180 1 194 15 195 3 207 2 211 3 
221 23 222 3 223 3 237 16 238 3 294 6 295 1 
