Name: MassBank: JP006659
MW: 363
Formula: C23H29N3O
Synonym: MassBank: JP006659
Synonym: 8-METHOXY-5-(2-(6-METHYL-3-PYRIDYL)ETHYL)-2-PROPYL-1,2,3,4-TETRAHYDRO-GAMMA-CARBOLINE
Structure: 382D4D4554484F58592D352D28322D28362D4D455448594C2D332D5059524944594C29455448594C292D322D50524F50594C2D312C322C332C342D5445545241485944524F2D47414D4D412D434152424F4C494E452E6D6F6C0A20204368656D447261773035323431303231353632440A2032372033302020302020302020302020302020302020302020302020303939392056323030300A2020202D322E363333302020202D312E3233373520202020302E303030302043202020302020302020302020302020302020302020302020302020302020302020302020300A2020202D322E363333302020202D322E3036323520202020302E303030302043202020302020302020302020302020302020302020302020302020302020302020302020300A2020202D312E393138352020202D322E3437353020202020302E303030302043202020302020302020302020302020302020302020302020302020302020302020302020300A2020202D312E323034302020202D322E3036323520202020302E303030302043202020302020302020302020302020302020302020302020302020302020302020302020300A2020202D312E323034302020202D312E3233373520202020302E303030302043202020302020302020302020302020302020302020302020302020302020302020302020300A2020202D312E393138352020202D302E3832353020202020302E303030302043202020302020302020302020302020302020302020302020302020302020302020302020300A2020202D302E343139342020202D322E3331373420202020302E30303030204E202020302020302020302020302020302020302020302020302020302020302020302020300A20202020302E303635352020202D312E3635303020202020302E303030302043202020302020302020302020302020302020302020302020302020302020302020302020300A2020202D302E343139342020202D302E3938323620202020302E303030302043202020302020302020302020302020302020302020302020302020302020302020302020300A20202020302E383836302020202D312E3536333820202020302E303030302043202020302020302020302020302020302020302020302020302020302020302020302020300A20202020312E323231362020202D302E3831303120202020302E303030302043202020302020302020302020302020302020302020302020302020302020302020302020300A20202020302E373336362020202D302E3134323620202020302E30303030204E202020302020302020302020302020302020302020302020302020302020302020302020300A2020202D302E303833382020202D302E3232383920202020302E303030302043202020302020302020302020302020302020302020302020302020302020302020302020300A2020202D312E3931383520202020302E3030303020202020302E303030302043202020302020302020302020302020302020302020302020302020302020302020302020300A2020202D322E3633333020202020302E3431323520202020302E303030302043202020302020302020302020302020302020302020302020302020302020302020302020300A2020202D322E3633333020202020312E3233373520202020302E303030302043202020302020302020302020302020302020302020302020302020302020302020302020300A2020202D312E3931383520202020312E3635303020202020302E303030302043202020302020302020302020302020302020302020302020302020302020302020302020300A2020202D312E3931383520202020322E3437353020202020302E303030302043202020302020302020302020302020302020302020302020302020302020302020302020300A2020202D322E3633333020202020322E3838373520202020302E303030302043202020302020302020302020302020302020302020302020302020302020302020302020300A2020202D332E3334373420202020322E3437353020202020302E30303030204E202020302020302020302020302020302020302020302020302020302020302020302020300A2020202D332E3334373420202020312E3635303020202020302E303030302043202020302020302020302020302020302020302020302020302020302020302020302020300A2020202D322E3633333020202020332E3731323520202020302E303030302043202020302020302020302020302020302020302020302020302020302020302020302020300A2020202D312E393138352020202D332E3330303020202020302E30303030204F202020302020302020302020302020302020302020302020302020302020302020302020300A2020202D312E323034302020202D332E3731323520202020302E303030302043202020302020302020302020302020302020302020302020302020302020302020302020300A20202020322E303432302020202D302E3732333920202020302E303030302043202020302020302020302020302020302020302020302020302020302020302020302020300A20202020322E353237302020202D312E3339313320202020302E303030302043202020302020302020302020302020302020302020302020302020302020302020302020300A20202020332E333437342020202D312E3330353120202020302E303030302043202020302020302020302020302020302020302020302020302020302020302020302020300A2020312020322020322020302020202020200A2020322020332020312020302020202020200A2020332020342020322020302020202020200A2020342020352020312020302020202020200A2020352020362020322020302020202020200A2020362020312020312020302020202020200A2020342020372020312020302020202020200A2020372020382020312020302020202020200A2020382020392020322020302020202020200A2020392020352020312020302020202020200A2020382031302020312020302020202020200A2031302031312020312020302020202020200A2031312031322020312020302020202020200A2031322031332020312020302020202020200A2031332020392020312020302020202020200A2020362031342020312020302020202020200A2031342031352020312020302020202020200A2031352031362020312020302020202020200A2031362031372020322020302020202020200A2031372031382020312020302020202020200A2031382031392020322020302020202020200A2031392032302020312020302020202020200A2032302032312020322020302020202020200A2032312031362020312020302020202020200A2031392032322020312020302020202020200A2020332032332020312020302020202020200A2032332032342020312020302020202020200A2031312032352020312020302020202020200A2032352032362020312020302020202020200A2032362032372020312020302020202020200A4D2020454E44
Contributor: SASAKI S, TOYOHASHI UNIV. OF TECH.
InstType: EI
InstName: JEOL JMS-01-SG-2
IoniMethod: _ENERGY 75 eV
IonPolarity: pos
Date: 2010-10-09 19:48:36+02:00
Num Peaks: 32
42 67 43 100 69 73 83 5 105 31 107 56 114 53 115 4 120 118 128 24 
143 90 154 5 155 46 158 50 171 65 173 52 174 89 186 999 187 146 211 10 
249 20 257 113 277 53 292 55 293 203 294 42 305 20 320 14 334 117 335 38 
362 472 363 726 
