Name: 1-METHYLCARBAZOLE
CAS: 6510-65-2
MW: 181
Formula: C13H11N
Synonym: MassBank: JP004330
Synonym: 1-METHYLCARBAZOLE
Structure: 312D4D455448594C43415242415A4F4C452E6D6F6C0A20204368656D447261773131323030393135353532440A2031342031362020302020302020302020302020302020302020302020303939392056323030300A2020202D302E313932362020202D302E3937303320202020302E30303030204E202020302020302020302020302020302020302020302020302020302020302020302020300A2020202D302E373434372020202D302E3335373220202020302E303030302043202020302020302020302020302020302020302020302020302020302020302020302020300A2020202D312E353639372020202D302E3335373220202020302E303030302043202020302020302020302020302020302020302020302020302020302020302020302020300A2020202D312E3938323220202020302E3335373220202020302E303030302043202020302020302020302020302020302020302020302020302020302020302020302020300A2020202D312E3536393720202020312E3037313720202020302E303030302043202020302020302020302020302020302020302020302020302020302020302020302020300A2020202D302E3734343720202020312E3037313720202020302E303030302043202020302020302020302020302020302020302020302020302020302020302020302020300A2020202D302E3333323220202020302E3335373220202020302E303030302043202020302020302020302020302020302020302020302020302020302020302020302020300A20202020302E3437343820202020302E3138353720202020302E303030302043202020302020302020302020302020302020302020302020302020302020302020302020300A20202020312E3134323220202020302E3637303620202020302E303030302043202020302020302020302020302020302020302020302020302020302020302020302020300A20202020312E3839353920202020302E3333353120202020302E303030302043202020302020302020302020302020302020302020302020302020302020302020302020300A20202020312E393832322020202D302E3438353420202020302E303030302043202020302020302020302020302020302020302020302020302020302020302020302020300A20202020312E333134372020202D302E3937303320202020302E303030302043202020302020302020302020302020302020302020302020302020302020302020302020300A20202020302E353631302020202D302E3633343820202020302E303030302043202020302020302020302020302020302020302020302020302020302020302020302020300A2020202D312E393832322020202D312E3037313720202020302E303030302043202020302020302020302020302020302020302020302020302020302020302020302020300A2020312020322020312020302020202020200A2020322020332020312020302020202020200A2020332020342020322020302020202020200A2020342020352020312020302020202020200A2020352020362020322020302020202020200A2020362020372020312020302020202020200A2020322020372020322020302020202020200A2020372020382020312020302020202020200A2020382020392020312020302020202020200A2020392031302020322020302020202020200A2031302031312020312020302020202020200A2031312031322020322020302020202020200A2031322031332020312020302020202020200A2020382031332020322020302020202020200A2020312031332020312020302020202020200A2020332031342020312020302020202020200A4D2020454E44
Contributor: SASAKI S, TOYOHASHI UNIV. OF TECH.
InstType: EI
InstName: MX-1303
IoniMethod: _ENERGY 50 eV
IonPolarity: pos
Date: 2010-10-09 19:48:36+02:00
Num Peaks: 56
27 23 29 26 31 23 39 4 40 32 41 29 43 16 50 2 51 32 52 10 
54 23 55 2 56 10 57 13 63 36 64 1 67 13 74 19 75 32 76 4 
76.5 16 77 71 77.5 13 83 1 84 13 85 13 86 16 87 1 88 10 89 26 
89.5 29 90 6 90.5 68 91 19 101 13 114 2 115 16 126 23 127 36 128 2 
139 23 140 29 150 13 151 6 152 123 153 42 154 36 164 2 166 32 177 23 
178 71 179 7 180 736 181 999 182 130 183 11 
