Name: MassBank: JP003677
MW: 162
Formula: C8H18O3
Synonym: MassBank: JP003677
Synonym: 1,2,3-TRIMETHOXYPENTANE
Structure: 312C322C332D5452494D4554484F585950454E54414E452E6D6F6C0A20204368656D447261773130323330393133323732440A2031312031302020302020302020302020302020302020302020302020303939392056323030300A20202020302E323036332020202D312E3037313720202020302E303030302043202020302020302020302020302020302020302020302020302020302020302020302020300A2020202D302E323036322020202D302E3335373220202020302E303030302043202020302020302020302020302020302020302020302020302020302020302020302020300A20202020302E3230363320202020302E3335373220202020302E303030302043202020302020302020302020302020302020302020302020302020302020302020302020300A2020202D302E3230363220202020312E3037313720202020302E303030302043202020302020302020302020302020302020302020302020302020302020302020302020300A20202020302E3230363320202020312E3738363220202020302E303030302043202020302020302020302020302020302020302020302020302020302020302020302020300A20202020312E3033313320202020302E3335373220202020302E30303030204F202020302020302020302020302020302020302020302020302020302020302020302020300A20202020312E343433382020202D302E3335373220202020302E303030302043202020302020302020302020302020302020302020302020302020302020302020302020300A2020202D312E303331332020202D302E3335373220202020302E30303030204F202020302020302020302020302020302020302020302020302020302020302020302020300A2020202D312E343433382020202D312E3037313720202020302E303030302043202020302020302020302020302020302020302020302020302020302020302020302020300A20202020312E303331332020202D312E3037313720202020302E30303030204F202020302020302020302020302020302020302020302020302020302020302020302020300A20202020312E343433382020202D312E3738363220202020302E303030302043202020302020302020302020302020302020302020302020302020302020302020302020300A2020312020322020312020302020202020200A2020322020332020312020302020202020200A2020332020342020312020302020202020200A2020342020352020312020302020202020200A2020362020372020312020302020202020200A2020332020362020312020302020202020200A2020382020392020312020302020202020200A2020322020382020312020302020202020200A2020312031302020312020302020202020200A2031302031312020312020302020202020200A4D2020454E44
Contributor: SASAKI S, TOYOHASHI UNIV. OF TECH.
InstType: EI
InstName: Unknown
IoniMethod: EI
IonPolarity: pos
Date: 2010-10-09 19:48:36+02:00
Num Peaks: 39
39 35 41 193 42 31 43 9 45 417 46 10 47 24 53 7 54 6 55 47 
56 11 57 4 58 500 59 187 60 8 64 1 67 17 68 5 69 7 70 1 
71 63 72 242 73 999 74 6 75 112 85 134 86 14 87 1 88 36 89 80 
97 5 98 1 99 17 101 67 102 7 103 27 104 16 117 46 133 29 
