Name: SEC-BUTYL CHLORIDE
MW: 92
Formula: C4H9Cl
Synonym: MassBank: JP005283
Synonym: SEC-BUTYL CHLORIDE
Synonym: 1-METHYLPROPYL CHLORIDE
Structure: 310A31340A5345432D425554594C2043484C4F524944452E6D6F6C0A20204368656D447261773131323130393138333432440A2020352020342020302020302020302020302020302020302020302020303939392056323030300A2020202D302E333537322020202D302E3230363220202020302E303030302043202020302020302020302020302020302020302020302020302020302020302020302020300A20202020302E333537322020202D302E3631383820202020302E303030302043202020302020302020302020302020302020302020302020302020302020302020302020300A20202020312E303731372020202D302E3230363220202020302E303030302043202020302020302020302020302020302020302020302020302020302020302020302020300A2020202D312E303731372020202D302E3631383720202020302E303030302043202020302020302020302020302020302020302020302020302020302020302020302020300A2020202D302E3335373220202020302E3631383820202020302E3030303020436C2020302020302020302020302020302020302020302020302020302020302020302020300A2020312020322020312020302020202020200A2020322020332020312020302020202020200A2020312020342020312020302020202020200A2020312020352020312020302020202020200A4D2020454E44
Contributor: YAMAMOTO M, DEP. CHEMISTRY, FAC. SCIENCE, NARA WOMEN'S UNIV.
InstType: EI
InstName: HITACHI RMU-6M
IoniMethod: _ENERGY 70 eV
IonPolarity: pos
Date: 2010-10-09 19:48:36+02:00
Num Peaks: 28
15 20 26 60 27 406 28 128 29 404 37 11 38 23 39 157 40 23 41 579 
42 29 49 22 50 23 51 21 53 21 55 76 56 999 57 875 58 38 61 11 
62 122 63 376 64 47 65 121 76 11 77 54 79 17 92 6 
